# vtk DataFile Version 2.0
Simplicial Mesh Example
ASCII
DATASET UNSTRUCTURED_GRID
POINTS 9235 double
3.320296e+05 -1.479713e+05 -5.000000e+04
3.230490e+05 -1.698867e+05 -2.450301e+04
3.473967e+05 -1.610091e+05 -2.499295e+04
3.230191e+05 -1.453594e+05 -2.376374e+04
3.000000e+05 -1.659466e+05 0.000000e+00
3.323841e+05 -1.500853e+05 0.000000e+00
3.000000e+05 -1.298234e+05 -5.000000e+04
3.211390e+05 -1.219510e+05 -2.456343e+04
3.000000e+05 -1.488492e+05 -2.774542e+04
3.000000e+05 -1.638587e+05 -5.000000e+04
-3.410447e+05 -3.313729e+05 -5.000000e+04
-3.562722e+05 -3.568159e+05 -2.596779e+04
-3.399470e+05 -3.173800e+05 -2.518749e+04
-3.709613e+05 -3.293268e+05 -2.460153e+04
8.320003e+04 -3.000000e+05 -2.235380e+04
1.000000e+05 -3.000000e+05 0.000000e+00
8.376766e+04 -3.323560e+05 0.000000e+00
1.022059e+05 -3.232166e+05 -2.436054e+04
9.218191e+04 -3.479439e+05 -2.506288e+04
7.450652e+04 -3.246631e+05 -2.586070e+04
8.376391e+04 -3.320935e+05 -5.000000e+04
1.000000e+05 -3.000000e+05 -5.000000e+04
6.666667e+04 -3.000000e+05 -5.000000e+04
4.909161e+04 -3.211949e+05 -2.159753e+04
-3.000000e+05 -2.284991e+05 -5.000000e+04
-3.319474e+05 -2.124896e+05 -5.000000e+04
-3.218152e+05 -2.373449e+05 -2.716838e+04
-3.186433e+05 -2.130922e+05 -3.089857e+04
3.680760e+05 -6.909438e+04 0.000000e+00
3.760404e+05 -8.535114e+04 -2.432411e+04
3.481610e+05 -6.095230e+04 -2.499963e+04
3.758419e+05 -5.047205e+04 -2.434620e+04
-3.000000e+05 -2.326501e+05 0.000000e+00
-3.000000e+05 -2.125115e+05 -2.265069e+04
-3.000000e+05 -1.989752e+05 0.000000e+00
-3.227151e+05 -1.919352e+05 -2.817559e+04
-3.324295e+05 -2.170264e+05 0.000000e+00
-2.490803e+05 -3.000000e+05 -2.221961e+04
-2.515393e+05 -3.324613e+05 0.000000e+00
-2.666667e+05 -3.000000e+05 0.000000e+00
-2.738346e+05 -3.252416e+05 -2.491374e+04
3.676956e+05 -6.866168e+04 -5.000000e+04
4.000000e+05 -8.695652e+04 -5.000000e+04
4.000000e+05 -5.217391e+04 -5.000000e+04
4.000000e+05 -6.957979e+04 -2.232138e+04
-2.333333e+05 -3.000000e+05 -5.000000e+04
-2.666667e+05 -3.000000e+05 -5.000000e+04
-2.512538e+05 -3.321783e+05 -5.000000e+04
-2.508504e+05 -3.238766e+05 -2.894778e+04
-2.288410e+05 -3.237531e+05 -2.554757e+04
-2.332968e+05 -3.501801e+05 -2.524712e+04
-1.499969e+05 -3.000000e+05 -2.764283e+04
-1.666667e+05 -3.000000e+05 0.000000e+00
-1.716166e+05 -3.233333e+05 -2.542063e+04
-1.478789e+05 -3.226382e+05 -2.533861e+04
-1.507909e+05 -3.323848e+05 0.000000e+00
-1.630826e+05 -3.498393e+05 -2.503121e+04
-1.507405e+05 -3.321164e+05 -5.000000e+04
-1.194653e+05 -3.220088e+05 -2.222167e+04
-1.333333e+05 -3.000000e+05 -5.000000e+04
-1.666667e+05 -3.000000e+05 -5.000000e+04
-1.043477e+05 4.000000e+05 -2.232281e+04
-1.038755e+05 3.680862e+05 0.000000e+00
-1.217391e+05 4.000000e+05 0.000000e+00
-1.224620e+05 3.788441e+05 -2.436654e+04
-1.217391e+05 4.000000e+05 -5.000000e+04
-9.211340e+04 3.779330e+05 -2.656844e+04
-6.923876e+04 -3.678233e+05 -5.000000e+04
-8.695652e+04 -4.000000e+05 -5.000000e+04
-5.217391e+04 -4.000000e+05 -5.000000e+04
-6.956714e+04 -4.000000e+05 -2.232106e+04
-1.249943e+05 3.519836e+05 -2.486759e+04
-1.038072e+05 3.678091e+05 -5.000000e+04
-1.739130e+04 -4.000000e+05 -5.000000e+04
-3.460350e+04 -3.678269e+05 -5.000000e+04
-3.478387e+04 -4.000000e+05 -2.232106e+04
-1.651509e+04 -3.754742e+05 -2.442335e+04
-8.376345e+04 3.320934e+05 -5.000000e+04
-1.000000e+05 3.000000e+05 -5.000000e+04
-8.343627e+04 3.000000e+05 -2.764981e+04
-1.026187e+05 3.239050e+05 -2.445309e+04
-6.666667e+04 3.000000e+05 -5.000000e+04
-5.147032e+04 3.217565e+05 -2.303829e+04
4.000000e+05 3.304348e+05 -5.000000e+04
4.000000e+05 3.130499e+05 -2.232112e+04
4.000000e+05 3.478935e+05 -2.235349e+04
3.674886e+05 3.295924e+05 -2.467361e+04
-6.033593e+04 3.477011e+05 -2.439908e+04
-7.701272e+04 3.234532e+05 -1.862781e+04
-8.379954e+04 3.323534e+05 0.000000e+00
-9.028036e+04 3.505284e+05 -2.483995e+04
3.000000e+05 -8.185378e+04 -2.769067e+04
3.000000e+05 -6.540655e+04 0.000000e+00
3.219834e+05 -9.262369e+04 -2.356665e+04
3.212381e+05 -6.353317e+04 -2.568389e+04
3.320030e+05 -7.972620e+04 -5.000000e+04
3.000000e+05 -4.823862e+04 -2.768751e+04
3.000000e+05 -6.175270e+04 -5.000000e+04
3.319980e+05 -4.560520e+04 -5.000000e+04
1.000000e+05 3.000000e+05 0.000000e+00
1.285319e+05 3.220153e+05 -2.330358e+04
1.166485e+05 3.000000e+05 -2.764255e+04
9.924408e+04 3.212454e+05 -2.557582e+04
1.172876e+05 3.321041e+05 -5.000000e+04
1.000000e+05 3.000000e+05 -5.000000e+04
1.172617e+05 3.323725e+05 0.000000e+00
1.739130e+04 -4.000000e+05 -5.000000e+04
3.478141e+04 -4.000000e+05 -2.232106e+04
3.460470e+04 -3.678270e+05 -5.000000e+04
1.646691e+04 -3.753828e+05 -2.432691e+04
9.656745e+04 3.481700e+05 -2.494853e+04
3.680819e+05 1.387484e+05 0.000000e+00
3.789347e+05 1.274418e+05 -2.657151e+04
3.531101e+05 1.597755e+05 -2.518599e+04
3.792098e+05 1.574583e+05 -2.441774e+04
4.000000e+05 1.565217e+05 0.000000e+00
4.000000e+05 1.391303e+05 -2.231930e+04
6.857177e+00 3.678309e+05 -5.000000e+04
1.673721e+04 3.320840e+05 -5.000000e+04
3.460423e+04 3.678269e+05 -5.000000e+04
2.880282e+04 3.508021e+05 -2.489257e+04
-3.461370e+04 -3.681008e+05 0.000000e+00
-1.739130e+04 -4.000000e+05 0.000000e+00
-1.676283e+04 3.320851e+05 -5.000000e+04
1.537478e+03 3.361402e+05 -2.528450e+04
3.679848e+05 1.390962e+05 -5.000000e+04
-4.999978e+04 -3.000000e+05 -2.235748e+04
-1.678469e+04 -3.000000e+05 -2.764887e+04
-1.676668e+04 -3.323444e+05 0.000000e+00
-5.499684e+04 -3.228669e+05 -2.776930e+04
4.000000e+05 1.565217e+05 -5.000000e+04
3.676239e+05 -2.421373e+05 -5.000000e+04
4.000000e+05 -2.434785e+05 -2.767896e+04
3.747803e+05 -2.281317e+05 -2.552755e+04
3.782485e+05 -2.607848e+05 -2.580555e+04
-3.128530e+05 -3.661813e+05 -5.000000e+04
-2.847026e+05 -3.321560e+05 -5.000000e+04
-3.161470e+05 -3.277621e+05 -5.000000e+04
-3.120399e+05 -3.401367e+05 -2.465985e+04
3.512666e+05 -2.655302e+05 -2.501422e+04
3.679951e+05 -2.423193e+05 0.000000e+00
4.000000e+05 -2.608696e+05 0.000000e+00
-1.455192e-10 3.000000e+05 -5.000000e+04
-1.665884e+04 3.000000e+05 -2.764283e+04
1.678621e+04 3.000000e+05 -2.764891e+04
3.000000e+05 -2.490234e+05 -2.248769e+04
3.324577e+05 -2.511100e+05 0.000000e+00
3.238293e+05 -2.640014e+05 -2.441041e+04
3.212088e+05 -2.325011e+05 -2.423874e+04
3.320637e+05 -2.503757e+05 -5.000000e+04
3.463683e+05 -2.303855e+05 -2.500317e+04
-3.698054e+05 -3.472763e+05 0.000000e+00
-3.663396e+05 -3.129808e+05 0.000000e+00
-3.315797e+05 -3.410949e+05 0.000000e+00
3.000000e+05 -2.319293e+05 -5.000000e+04
1.730839e+05 3.678997e+05 -5.000000e+04
1.571942e+05 3.749461e+05 -2.554585e+04
1.947972e+05 3.532715e+05 -2.489915e+04
1.912984e+05 3.786912e+05 -2.581857e+04
1.913043e+05 4.000000e+05 -5.000000e+04
1.739026e+05 4.000000e+05 -2.767885e+04
3.704421e+05 3.503181e+05 -5.000000e+04
-3.674293e+05 -2.066073e+05 -5.000000e+04
-3.494471e+05 -2.292202e+05 -2.526698e+04
-3.497009e+05 -1.977915e+05 -2.539897e+04
1.731007e+05 3.680556e+05 0.000000e+00
1.913043e+05 4.000000e+05 0.000000e+00
4.000000e+05 2.956522e+05 0.000000e+00
4.000000e+05 2.782599e+05 -2.232106e+04
3.700232e+05 2.952130e+05 -2.459328e+04
-2.177434e+05 -3.321524e+05 -5.000000e+04
-2.166738e+05 -3.000000e+05 -2.767207e+04
-2.002275e+05 -3.215730e+05 -2.585451e+04
-1.985707e+05 -3.482959e+05 -2.510962e+04
-2.179099e+05 -3.324288e+05 0.000000e+00
-2.000000e+05 -3.000000e+05 0.000000e+00
-4.000000e+05 -1.739130e+04 -5.000000e+04
-4.000000e+05 1.362271e+00 -2.232106e+04
-4.000000e+05 -3.478139e+04 -2.232106e+04
-3.764375e+05 -1.615686e+04 -2.441389e+04
-1.172644e+05 3.321057e+05 -5.000000e+04
-1.165333e+05 3.000000e+05 -2.235380e+04
-1.172626e+05 3.323723e+05 0.000000e+00
-1.351151e+05 3.242796e+05 -2.432698e+04
-1.000000e+05 3.000000e+05 0.000000e+00
3.000000e+05 -1.154172e+05 -2.769106e+04
3.000000e+05 -9.891990e+04 0.000000e+00
3.323674e+05 -1.164140e+05 0.000000e+00
3.494970e+05 -9.661460e+04 -2.478315e+04
3.320115e+05 -1.138445e+05 -5.000000e+04
3.000000e+05 -9.578803e+04 -5.000000e+04
-3.683842e+05 -3.117444e+05 -5.000000e+04
-3.704229e+05 -3.502942e+05 -5.000000e+04
-3.000000e+05 -1.676695e+04 -5.000000e+04
-3.000000e+05 -3.162526e+04 0.000000e+00
-3.000000e+05 1.537267e+03 0.000000e+00
-3.215156e+05 -1.436666e+04 -2.547447e+04
-2.627419e+05 -3.499829e+05 -2.513924e+04
-3.324526e+05 -2.845988e+05 0.000000e+00
-3.280582e+05 -3.160567e+05 0.000000e+00
-2.333333e+05 -3.000000e+05 0.000000e+00
-1.731007e+05 -3.680556e+05 0.000000e+00
-1.545447e+05 -3.761882e+05 -2.496605e+04
-1.738957e+05 -4.000000e+05 -2.758994e+04
-1.892592e+05 -3.758330e+05 -2.503546e+04
-2.077253e+05 -3.680332e+05 0.000000e+00
-2.238681e+05 -3.761511e+05 -2.500739e+04
-1.913043e+05 -4.000000e+05 -5.000000e+04
-2.086560e+05 -4.000000e+05 -2.240978e+04
-1.730589e+05 -3.677722e+05 -5.000000e+04
6.957979e+04 4.000000e+05 -2.232138e+04
5.217391e+04 4.000000e+05 0.000000e+00
3.478536e+04 4.000000e+05 -2.232108e+04
5.076709e+04 3.763881e+05 -2.432357e+04
5.217391e+04 4.000000e+05 -5.000000e+04
1.674987e+04 3.323474e+05 0.000000e+00
3.500461e+04 3.242904e+05 -2.486949e+04
3.461320e+04 3.681000e+05 0.000000e+00
4.999984e+04 3.000000e+05 -2.235747e+04
3.333333e+04 3.000000e+05 0.000000e+00
1.624297e+04 3.760050e+05 -2.438535e+04
-3.680268e+05 2.424010e+05 0.000000e+00
-3.501061e+05 2.289790e+05 -2.510660e+04
-3.680500e+05 2.077851e+05 0.000000e+00
-3.762767e+05 2.231686e+05 -2.569080e+04
6.044606e+04 3.500124e+05 -2.491520e+04
-1.731195e+05 3.680519e+05 0.000000e+00
-1.545405e+05 3.762789e+05 -2.429555e+04
-1.611352e+05 3.500581e+05 -2.482426e+04
-1.910310e+05 3.748826e+05 -2.441742e+04
-1.384382e+05 3.677954e+05 -5.000000e+04
-4.000000e+05 2.260870e+05 0.000000e+00
-4.000000e+05 2.086964e+05 -2.767894e+04
-1.565217e+05 4.000000e+05 -5.000000e+04
-1.391303e+05 4.000000e+05 -2.231930e+04
-1.739120e+05 4.000000e+05 -2.232105e+04
-2.883046e+05 -3.320639e+05 0.000000e+00
-3.323717e+05 -1.156481e+05 0.000000e+00
-3.489067e+05 -1.010526e+05 -2.439261e+04
-3.250615e+05 -9.110468e+04 -2.328549e+04
-3.294786e+05 -1.230635e+05 -2.464286e+04
-3.323844e+05 -1.494568e+05 0.000000e+00
-3.251662e+05 -1.633665e+05 -2.029037e+04
-3.493991e+05 -1.624016e+05 -2.470273e+04
-3.321718e+05 -1.418788e+05 -5.000000e+04
-3.535719e+05 -1.283076e+05 -2.471630e+04
-3.323741e+05 -4.867882e+04 0.000000e+00
-3.507639e+05 -2.517161e+04 -2.606585e+04
-3.447307e+05 -6.638987e+04 -2.623303e+04
-3.715224e+05 -5.077856e+04 -2.457192e+04
-2.789348e+05 -3.000000e+05 -2.516856e+04
-3.117835e+05 -3.117170e+05 -2.490518e+04
3.680861e+05 1.041109e+05 0.000000e+00
4.000000e+05 1.217391e+05 0.000000e+00
4.000000e+05 1.043477e+05 -2.232281e+04
-3.000000e+05 -4.500521e+04 -2.807319e+04
-3.312611e+05 -3.126792e+04 -5.000000e+04
3.681214e+05 1.733599e+05 0.000000e+00
3.679731e+05 1.735700e+05 -5.000000e+04
-4.000000e+05 2.608696e+05 0.000000e+00
-4.000000e+05 2.434785e+05 -2.767896e+04
-3.761850e+05 2.579568e+05 -2.567278e+04
3.679758e+05 1.045869e+05 -5.000000e+04
3.542163e+05 1.255098e+05 -2.318739e+04
3.780932e+05 9.342279e+04 -2.671696e+04
1.731179e+05 -3.680539e+05 0.000000e+00
1.590065e+05 -3.755910e+05 -2.431570e+04
1.921834e+05 -3.514106e+05 -2.482512e+04
1.937411e+05 -3.768166e+05 -2.430761e+04
2.077389e+05 -3.680332e+05 0.000000e+00
2.249631e+05 -3.503403e+05 -2.482026e+04
2.280611e+05 -3.764668e+05 -2.428637e+04
2.077249e+05 -3.678896e+05 -5.000000e+04
-3.699376e+05 -3.483507e+04 -5.000000e+04
-4.000000e+05 -5.217391e+04 -5.000000e+04
3.324653e+05 -2.846969e+05 0.000000e+00
3.471939e+05 -3.015214e+05 -2.502024e+04
3.280142e+05 -3.160947e+05 0.000000e+00
3.230773e+05 -2.953671e+05 -2.471242e+04
2.260870e+05 -4.000000e+05 0.000000e+00
2.086945e+05 -4.000000e+05 -2.232106e+04
2.333333e+05 -3.000000e+05 0.000000e+00
2.515884e+05 -3.324527e+05 0.000000e+00
2.178294e+05 -3.324303e+05 0.000000e+00
2.354343e+05 -3.240295e+05 -2.430907e+04
2.260870e+05 -4.000000e+05 -5.000000e+04
-2.260870e+05 4.000000e+05 -5.000000e+04
-2.076192e+05 3.677470e+05 -5.000000e+04
-2.086945e+05 4.000000e+05 -2.232106e+04
-2.257532e+05 3.773261e+05 -2.432666e+04
1.833235e+05 -3.000000e+05 -2.235694e+04
1.666667e+05 -3.000000e+05 0.000000e+00
1.507941e+05 -3.323846e+05 0.000000e+00
1.843081e+05 -3.324053e+05 0.000000e+00
-2.247510e+05 3.506342e+05 -2.483671e+04
-2.077411e+05 3.680376e+05 0.000000e+00
-2.260870e+05 4.000000e+05 0.000000e+00
-3.323592e+05 1.803079e+04 0.000000e+00
-3.323564e+05 -1.534688e+04 0.000000e+00
-3.681082e+05 1.584064e+02 0.000000e+00
-3.499222e+05 9.638674e+03 -2.484513e+04
-2.423250e+05 3.677158e+05 -5.000000e+04
-2.591693e+05 3.567428e+05 -2.484547e+04
3.323394e+05 1.192487e+05 0.000000e+00
3.492097e+05 9.367534e+04 -2.451329e+04
3.233561e+05 9.668107e+04 -2.095070e+04
3.283039e+05 1.308820e+05 -1.528225e+04
3.323858e+05 1.225850e+05 -5.000000e+04
3.000000e+05 1.021602e+05 0.000000e+00
-3.323756e+05 1.180902e+05 0.000000e+00
-3.503100e+05 1.247204e+05 -2.485119e+04
-3.323866e+05 1.514636e+05 0.000000e+00
-3.238339e+05 1.306448e+05 -2.452175e+04
-4.000000e+05 -1.217391e+05 0.000000e+00
-3.680643e+05 -1.036683e+05 0.000000e+00
-3.680322e+05 -1.383008e+05 0.000000e+00
-3.773165e+05 -1.197244e+05 -2.420089e+04
-3.699370e+05 -1.043474e+05 -5.000000e+04
-4.000000e+05 -1.217391e+05 -5.000000e+04
-3.674150e+05 -1.372841e+05 -5.000000e+04
-3.715920e+05 -8.556254e+04 -2.440160e+04
-4.000000e+05 -1.043477e+05 -2.232281e+04
-3.762678e+05 -1.541489e+05 -2.427729e+04
-3.324359e+05 1.785952e+05 -5.000000e+04
-3.237573e+05 2.000894e+05 -2.512409e+04
-3.501261e+05 1.944142e+05 -2.511071e+04
-3.239067e+05 1.650476e+05 -2.444106e+04
3.321875e+05 -2.161325e+05 -5.000000e+04
3.511920e+05 -1.938369e+05 -2.495695e+04
3.320469e+05 -1.820848e+05 -5.000000e+04
3.239752e+05 -2.010392e+05 -2.433316e+04
-3.000000e+05 1.780292e+05 -2.268827e+04
-3.000000e+05 1.944110e+05 -5.000000e+04
-3.000000e+05 1.423985e+05 -2.254379e+04
-3.000000e+05 1.592147e+05 -5.000000e+04
-3.324506e+05 1.434761e+05 -5.000000e+04
2.594116e+05 -3.508692e+05 -2.486125e+04
-3.502296e+05 1.597583e+05 -2.502195e+04
1.333333e+05 3.000000e+05 0.000000e+00
1.499967e+05 3.000000e+05 -2.764283e+04
1.613539e+05 3.216644e+05 -2.321070e+04
1.507909e+05 3.323848e+05 0.000000e+00
1.320399e+05 3.492346e+05 -2.480488e+04
1.507840e+05 3.322475e+05 -5.000000e+04
1.333333e+05 3.000000e+05 -5.000000e+04
-3.324024e+05 -1.833258e+05 0.000000e+00
-1.038414e+05 -3.678096e+05 -5.000000e+04
-8.534369e+04 -3.758700e+05 -2.429891e+04
-9.465254e+04 -3.474012e+05 -2.463900e+04
-1.199906e+05 -3.760737e+05 -2.431669e+04
-1.384781e+05 -3.680720e+05 0.000000e+00
-1.392358e+05 -4.000000e+05 -2.236131e+04
-1.038578e+05 -3.680873e+05 0.000000e+00
-1.301767e+05 -3.497555e+05 -2.467841e+04
-1.043576e+05 -4.000000e+05 -2.231937e+04
-1.217391e+05 -4.000000e+05 0.000000e+00
2.422782e+05 -3.677182e+05 -5.000000e+04
2.178587e+05 -3.321663e+05 -5.000000e+04
1.384965e+05 -3.680708e+05 0.000000e+00
1.565217e+05 -4.000000e+05 0.000000e+00
1.391303e+05 -4.000000e+05 -2.231930e+04
1.245671e+05 -3.763617e+05 -2.445221e+04
1.577684e+05 -3.458215e+05 -2.481822e+04
-3.322711e+05 2.135664e+05 -5.000000e+04
-3.678157e+05 2.070248e+05 -5.000000e+04
1.384711e+05 -3.677967e+05 -5.000000e+04
1.565217e+05 -4.000000e+05 -5.000000e+04
1.729917e+05 -3.679133e+05 -5.000000e+04
-4.000000e+05 1.739026e+05 -2.767885e+04
-4.000000e+05 1.565217e+05 0.000000e+00
-4.000000e+05 1.390093e+05 -2.763094e+04
-3.763249e+05 1.536796e+05 -2.567657e+04
-3.678240e+05 1.721958e+05 -5.000000e+04
-4.000000e+05 1.565217e+05 -5.000000e+04
-3.678127e+05 1.373449e+05 -5.000000e+04
-3.680901e+05 1.385746e+05 0.000000e+00
-3.762230e+05 1.189521e+05 -2.495058e+04
1.217391e+05 -4.000000e+05 -5.000000e+04
1.038118e+05 -3.678090e+05 -5.000000e+04
8.989897e+04 -3.761815e+05 -2.599342e+04
1.043477e+05 -4.000000e+05 -2.232281e+04
1.227640e+05 -3.494292e+05 -2.487453e+04
1.038746e+05 -3.680839e+05 0.000000e+00
1.217391e+05 -4.000000e+05 0.000000e+00
1.674277e+04 -3.323442e+05 0.000000e+00
3.463000e+04 -3.680990e+05 0.000000e+00
7.744455e+00 -3.681012e+05 0.000000e+00
2.894128e+04 -3.476093e+05 -2.453581e+04
-4.000000e+05 -1.391303e+05 -2.231930e+04
-4.000000e+05 -1.565217e+05 -5.000000e+04
-3.674551e+05 -1.718549e+05 -5.000000e+04
-4.000000e+05 -1.739120e+05 -2.232105e+04
-4.000000e+05 -1.565217e+05 0.000000e+00
-3.680143e+05 -1.729566e+05 0.000000e+00
1.739130e+04 4.000000e+05 0.000000e+00
1.362271e+00 4.000000e+05 -2.232106e+04
-1.676146e+04 3.753089e+05 -2.433371e+04
1.739130e+04 4.000000e+05 -5.000000e+04
3.325804e+05 1.861647e+05 0.000000e+00
3.503729e+05 1.965396e+05 -2.495717e+04
3.263981e+05 1.637456e+05 -2.756290e+04
3.000000e+05 1.829512e+05 -2.715993e+04
3.238781e+05 2.033175e+05 -2.558966e+04
3.323849e+05 1.551193e+05 -5.000000e+04
3.000000e+05 1.710792e+05 -5.000000e+04
3.000000e+05 1.388490e+05 -5.000000e+04
3.323963e+05 1.876480e+05 -5.000000e+04
-3.283254e+05 -6.941844e+04 -5.000000e+04
-3.218137e+05 -6.326416e+04 -2.003260e+04
5.026435e+04 -3.320894e+05 -5.000000e+04
5.010263e+04 -3.000000e+05 -2.764981e+04
-3.323820e+05 -8.213181e+04 0.000000e+00
-3.000000e+05 1.240184e+05 -5.000000e+04
-3.324516e+05 1.083255e+05 -5.000000e+04
-3.000000e+05 8.882203e+04 -5.000000e+04
-3.233020e+05 9.822691e+04 -2.682725e+04
-3.000000e+05 1.010248e+05 0.000000e+00
-3.323572e+05 8.476518e+04 0.000000e+00
-3.321230e+05 2.488342e+05 -5.000000e+04
-3.237270e+05 2.697227e+05 -2.427586e+04
-3.499119e+05 2.637136e+05 -2.497206e+04
-3.240139e+05 2.346234e+05 -2.504356e+04
-3.322040e+05 2.835976e+05 -5.000000e+04
-3.133980e+05 3.113905e+05 -2.511436e+04
-3.487618e+05 2.980619e+05 -2.525585e+04
-3.000000e+05 2.823494e+05 -2.286031e+04
-3.320733e+05 2.883554e+05 0.000000e+00
-5.068809e+04 -3.766011e+05 -2.436488e+04
-6.923637e+04 -3.680930e+05 0.000000e+00
-5.217391e+04 -4.000000e+05 0.000000e+00
-2.960819e+04 -3.480955e+05 -2.514930e+04
-6.057399e+04 -3.516746e+05 -2.518176e+04
3.680896e+05 6.946960e+04 0.000000e+00
4.000000e+05 6.956410e+04 -2.232106e+04
4.000000e+05 5.217391e+04 0.000000e+00
3.778196e+05 5.859678e+04 -2.658269e+04
3.678447e+05 7.006155e+04 -5.000000e+04
4.000000e+05 8.695652e+04 -5.000000e+04
4.000000e+05 8.695652e+04 0.000000e+00
1.739130e+04 -4.000000e+05 0.000000e+00
-1.208557e+00 -4.000000e+05 -2.232106e+04
2.165659e+05 -3.000000e+05 -2.235602e+04
2.000000e+05 -3.000000e+05 0.000000e+00
2.040081e+05 -3.239700e+05 -2.438171e+04
2.000000e+05 -3.000000e+05 -5.000000e+04
-2.000000e+05 3.000000e+05 0.000000e+00
-2.177787e+05 3.324359e+05 0.000000e+00
-1.843648e+05 3.324029e+05 0.000000e+00
-2.020740e+05 3.233539e+05 -2.430331e+04
-3.681034e+05 -3.444502e+04 0.000000e+00
-2.354124e+05 3.243590e+05 -2.435018e+04
-3.659266e+05 -2.927995e+05 -2.460185e+04
-3.493719e+05 -2.608610e+05 -2.515913e+04
-3.250266e+05 -2.720343e+05 -2.511175e+04
-2.178179e+05 3.321595e+05 -5.000000e+04
-1.932232e+05 3.477370e+05 -2.478718e+04
-2.165659e+05 3.000000e+05 -2.235602e+04
-1.842705e+05 3.321319e+05 -5.000000e+04
-2.000000e+05 3.000000e+05 -5.000000e+04
-1.833231e+05 3.000000e+05 -2.235694e+04
3.680524e+05 -1.383766e+05 0.000000e+00
4.000000e+05 -1.390093e+05 -2.763094e+04
4.000000e+05 -1.565217e+05 0.000000e+00
3.738336e+05 -1.640422e+05 -2.568353e+04
3.676656e+05 -1.379454e+05 -5.000000e+04
3.497742e+05 -1.295958e+05 -2.490070e+04
4.000000e+05 -1.739026e+05 -2.767885e+04
3.680364e+05 -1.730173e+05 0.000000e+00
4.000000e+05 -1.565217e+05 -5.000000e+04
5.217391e+04 -4.000000e+05 -5.000000e+04
5.103685e+04 -3.761483e+05 -2.433112e+04
6.925236e+04 -3.680933e+05 0.000000e+00
5.217391e+04 -4.000000e+05 0.000000e+00
6.097771e+04 -3.498672e+05 -2.491189e+04
2.517054e+05 -3.321795e+05 -5.000000e+04
2.492201e+05 -3.000000e+05 -2.223204e+04
2.694196e+05 -3.245456e+05 -2.468699e+04
3.323341e+05 8.558297e+04 0.000000e+00
3.227600e+05 7.100118e+04 -2.700122e+04
3.000000e+05 5.599414e+04 -2.229711e+04
3.322706e+05 3.642439e+04 -2.462118e+04
3.319747e+05 5.662831e+04 -5.000000e+04
3.000000e+05 8.469062e+04 -2.741458e+04
3.000000e+05 6.864685e+04 0.000000e+00
2.789500e+05 3.000000e+05 -2.482908e+04
2.492185e+05 3.000000e+05 -2.777191e+04
2.666667e+05 3.000000e+05 0.000000e+00
2.719602e+05 3.240499e+05 -2.492981e+04
2.512541e+05 3.321782e+05 -5.000000e+04
2.666667e+05 3.000000e+05 -5.000000e+04
2.846999e+05 3.321568e+05 -5.000000e+04
2.679531e+05 3.496532e+05 -2.425198e+04
2.515361e+05 3.324615e+05 0.000000e+00
1.384766e+05 3.678066e+05 -5.000000e+04
1.565217e+05 4.000000e+05 -5.000000e+04
1.390093e+05 4.000000e+05 -2.763094e+04
1.565217e+05 4.000000e+05 0.000000e+00
1.384781e+05 3.680720e+05 0.000000e+00
1.646956e+05 3.475355e+05 -2.484826e+04
3.000000e+05 -2.659647e+05 -5.000000e+04
3.000000e+05 -2.830545e+05 -2.279782e+04
3.320365e+05 -2.842315e+05 -5.000000e+04
3.000000e+05 -2.329733e+05 0.000000e+00
3.324280e+05 -2.174304e+05 0.000000e+00
3.000000e+05 2.018902e+05 0.000000e+00
3.326080e+05 2.191835e+05 0.000000e+00
3.324118e+05 2.202420e+05 -5.000000e+04
3.000000e+05 2.181861e+05 -2.776808e+04
3.000000e+05 2.033094e+05 -5.000000e+04
2.769794e+05 3.676731e+05 -5.000000e+04
2.995283e+05 3.535940e+05 -2.774146e+04
2.956522e+05 4.000000e+05 -5.000000e+04
2.679982e+05 3.761038e+05 -2.827783e+04
-4.000000e+05 -2.260870e+05 0.000000e+00
-3.680029e+05 -2.076147e+05 0.000000e+00
-3.679763e+05 -2.422690e+05 0.000000e+00
-3.761060e+05 -2.231915e+05 -2.438802e+04
-3.760815e+05 -1.887885e+05 -2.437679e+04
-4.000000e+05 -2.086945e+05 -2.232106e+04
-4.000000e+05 -2.260870e+05 -5.000000e+04
-4.000000e+05 -2.434771e+05 -2.232106e+04
1.172667e+05 -3.321072e+05 -5.000000e+04
1.166553e+05 -3.000000e+05 -2.235713e+04
3.680656e+05 -1.037356e+05 0.000000e+00
4.000000e+05 -1.044411e+05 -2.235722e+04
3.761296e+05 -1.203726e+05 -2.496304e+04
4.000000e+05 -1.217391e+05 -5.000000e+04
4.000000e+05 -1.217391e+05 0.000000e+00
6.666667e+04 -3.000000e+05 0.000000e+00
5.025498e+04 -3.323480e+05 0.000000e+00
3.333333e+04 -3.000000e+05 0.000000e+00
2.423612e+05 -3.680038e+05 0.000000e+00
2.609781e+05 -3.774227e+05 -2.431448e+04
2.434771e+05 -4.000000e+05 -2.232106e+04
3.000000e+05 2.208180e+04 -2.263338e+04
3.000000e+05 4.035329e+04 -5.000000e+04
2.608696e+05 -4.000000e+05 0.000000e+00
2.608696e+05 -4.000000e+05 -5.000000e+04
-4.000000e+05 2.608696e+05 -5.000000e+04
-4.000000e+05 2.782520e+05 -2.767911e+04
-3.678653e+05 2.770869e+05 0.000000e+00
-3.675472e+05 2.418345e+05 -5.000000e+04
2.770113e+05 -3.678523e+05 0.000000e+00
2.990547e+05 -3.557935e+05 -2.482263e+04
2.769653e+05 -3.676200e+05 -5.000000e+04
2.782599e+05 -4.000000e+05 -2.232106e+04
-3.674166e+05 -1.849439e+03 -5.000000e+04
-3.761718e+05 1.851347e+04 -2.429879e+04
-4.000000e+05 -1.739130e+04 0.000000e+00
4.000000e+05 -8.695652e+04 0.000000e+00
-3.000000e+05 1.086860e+05 -2.215615e+04
-3.509091e+05 8.515295e+04 -2.410316e+04
-3.000000e+05 8.137578e+04 -2.801972e+04
-3.321712e+05 7.306662e+04 -5.000000e+04
-3.000000e+05 1.341874e+05 0.000000e+00
-6.666667e+04 3.000000e+05 0.000000e+00
-5.025707e+04 3.323515e+05 0.000000e+00
-3.000000e+05 2.152102e+05 -2.772961e+04
-3.000000e+05 2.005124e+05 0.000000e+00
-3.000000e+05 2.336749e+05 0.000000e+00
-3.324312e+05 2.182807e+05 0.000000e+00
-3.333333e+04 3.000000e+05 0.000000e+00
-5.026427e+04 3.320896e+05 -5.000000e+04
-2.897358e+04 3.474711e+05 -2.463066e+04
-5.001574e+04 3.000000e+05 -2.764258e+04
4.000000e+05 -3.304348e+05 -5.000000e+04
3.696852e+05 -3.469675e+05 -5.000000e+04
4.000000e+05 -3.652174e+05 -5.000000e+04
3.777847e+05 -3.413064e+05 -2.627807e+04
3.661946e+05 -3.127901e+05 -5.000000e+04
3.663474e+05 -3.132902e+05 0.000000e+00
3.461527e+05 -3.388059e+05 -2.491601e+04
4.000000e+05 -3.304348e+05 0.000000e+00
4.000000e+05 -3.129524e+05 -2.768053e+04
3.503160e+05 -3.704280e+05 -5.000000e+04
3.727510e+05 -3.742247e+05 -2.442896e+04
3.694761e+05 -3.502454e+05 0.000000e+00
4.000000e+05 -3.652174e+05 0.000000e+00
4.000000e+05 -3.471153e+05 -2.775934e+04
3.000000e+05 -1.324332e+05 0.000000e+00
-8.321226e+04 -3.000000e+05 -2.764622e+04
-6.666667e+04 -3.000000e+05 0.000000e+00
-8.379869e+04 -3.323535e+05 0.000000e+00
-8.373929e+04 -3.320940e+05 -5.000000e+04
-6.666667e+04 -3.000000e+05 -5.000000e+04
-3.333333e+04 -3.000000e+05 -5.000000e+04
-3.333333e+04 -3.000000e+05 0.000000e+00
-5.025687e+04 -3.323516e+05 0.000000e+00
-1.687162e+05 3.237281e+05 -2.429760e+04
-1.507685e+05 3.321206e+05 -5.000000e+04
-1.666667e+05 3.000000e+05 -5.000000e+04
-1.499876e+05 3.000000e+05 -2.235711e+04
3.000000e+05 -1.401640e+04 -2.758025e+04
3.238500e+05 1.918295e+03 -2.504954e+04
3.323395e+05 -1.540013e+04 0.000000e+00
3.237441e+05 -3.221080e+04 -2.567385e+04
3.319790e+05 2.259202e+04 -5.000000e+04
3.501319e+05 7.681204e+03 -2.481192e+04
3.323331e+05 1.824617e+04 0.000000e+00
3.000000e+05 1.620150e+03 0.000000e+00
3.000000e+05 6.317960e+03 -5.000000e+04
3.319836e+05 -1.148350e+04 -5.000000e+04
-4.000000e+05 2.260870e+05 -5.000000e+04
3.498507e+05 -2.452112e+04 -2.502180e+04
-1.000000e+05 -3.000000e+05 -5.000000e+04
-1.172397e+05 -3.321035e+05 -5.000000e+04
-1.166485e+05 -3.000000e+05 -2.764255e+04
-4.000000e+05 3.478536e+04 -2.232108e+04
-4.000000e+05 5.217391e+04 0.000000e+00
-3.681122e+05 3.476335e+04 0.000000e+00
-3.760873e+05 5.326244e+04 -2.425450e+04
-3.674598e+05 3.273510e+04 -5.000000e+04
-3.674737e+05 6.753718e+04 -5.000000e+04
-3.781265e+05 8.619362e+04 -2.408459e+04
-4.000000e+05 6.957979e+04 -2.232138e+04
-4.000000e+05 5.217391e+04 -5.000000e+04
3.681472e+05 2.079604e+05 0.000000e+00
3.681188e+05 2.425277e+05 0.000000e+00
4.000000e+05 2.260870e+05 0.000000e+00
3.737946e+05 2.335855e+05 -2.431228e+04
4.000000e+05 2.260870e+05 -5.000000e+04
3.679488e+05 2.080638e+05 -5.000000e+04
4.000000e+05 2.086945e+05 -2.232106e+04
3.680460e+05 2.771856e+05 0.000000e+00
4.000000e+05 2.434771e+05 -2.232106e+04
3.677806e+05 2.771319e+05 -5.000000e+04
3.679115e+05 2.425609e+05 -5.000000e+04
3.504390e+05 2.635740e+05 -2.500318e+04
3.475308e+05 2.297118e+05 -2.486822e+04
-1.730920e+05 3.677751e+05 -5.000000e+04
-1.913043e+05 4.000000e+05 -5.000000e+04
-1.913043e+05 4.000000e+05 0.000000e+00
3.000000e+05 -1.812272e+05 -2.243815e+04
3.324042e+05 -1.837572e+05 0.000000e+00
3.000000e+05 3.513350e+04 0.000000e+00
-6.956410e+04 4.000000e+05 -2.232106e+04
-6.925390e+04 3.680922e+05 0.000000e+00
-8.695652e+04 4.000000e+05 0.000000e+00
-1.384959e+05 3.680704e+05 0.000000e+00
-6.923740e+04 3.678235e+05 -5.000000e+04
-5.576916e+04 3.762795e+05 -2.604232e+04
3.326450e+05 2.521588e+05 0.000000e+00
3.239358e+05 2.702911e+05 -2.480100e+04
3.234958e+05 2.370624e+05 -2.489401e+04
3.000000e+05 2.345935e+05 0.000000e+00
3.324543e+05 2.529173e+05 -5.000000e+04
3.000000e+05 2.355396e+05 -5.000000e+04
3.000000e+05 2.504516e+05 -2.190148e+04
3.680898e+05 1.877167e+02 0.000000e+00
3.744947e+05 2.126666e+04 -2.449476e+04
3.762693e+05 -1.547825e+04 -2.434879e+04
3.680838e+05 -3.445303e+04 0.000000e+00
3.677188e+05 7.287769e+02 -5.000000e+04
4.000000e+05 -1.362271e+00 -2.232106e+04
4.000000e+05 -1.739130e+04 0.000000e+00
4.000000e+05 -3.478536e+04 -2.232108e+04
-3.318978e+05 -2.482288e+05 -5.000000e+04
-3.000000e+05 -2.483605e+05 -2.772840e+04
2.882149e+05 -3.318438e+05 -5.000000e+04
3.108914e+05 -3.236644e+05 -2.499399e+04
2.789502e+05 -3.000000e+05 -2.517088e+04
2.666667e+05 -3.000000e+05 -5.000000e+04
2.666667e+05 -3.000000e+05 0.000000e+00
2.882915e+05 -3.320621e+05 0.000000e+00
-4.000000e+05 1.217391e+05 -5.000000e+04
-3.676427e+05 1.022915e+05 -5.000000e+04
-4.000000e+05 1.217391e+05 0.000000e+00
-3.681035e+05 1.039715e+05 0.000000e+00
-4.000000e+05 1.044411e+05 -2.235722e+04
4.000000e+05 1.913043e+05 0.000000e+00
4.000000e+05 1.739120e+05 -2.232105e+04
3.764012e+05 1.898610e+05 -2.430996e+04
4.000000e+05 1.913043e+05 -5.000000e+04
1.666667e+05 3.000000e+05 0.000000e+00
1.951616e+05 3.233433e+05 -2.341676e+04
1.833301e+05 3.000000e+05 -2.764286e+04
1.842465e+05 3.321498e+05 -5.000000e+04
1.843130e+05 3.324055e+05 0.000000e+00
-4.000000e+05 3.129524e+05 -2.768053e+04
-3.686836e+05 3.117864e+05 0.000000e+00
-4.000000e+05 2.956522e+05 0.000000e+00
-3.757502e+05 2.931409e+05 -2.570837e+04
-4.000000e+05 2.956522e+05 -5.000000e+04
-3.676696e+05 2.766747e+05 -5.000000e+04
3.677042e+05 -3.389078e+04 -5.000000e+04
-2.076669e+05 -3.677464e+05 -5.000000e+04
-2.422763e+05 -3.677157e+05 -5.000000e+04
-2.260870e+05 -4.000000e+05 -5.000000e+04
-1.913043e+05 -4.000000e+05 0.000000e+00
-2.423632e+05 -3.680118e+05 0.000000e+00
-2.260870e+05 -4.000000e+05 0.000000e+00
-2.433455e+05 -4.000000e+05 -2.762913e+04
-3.000000e+05 -1.038360e+05 -2.320079e+04
-3.000000e+05 -6.478778e+04 0.000000e+00
-3.439419e+05 -8.692451e+04 -5.000000e+04
1.217391e+05 4.000000e+05 -5.000000e+04
1.044411e+05 4.000000e+05 -2.235722e+04
1.204511e+05 3.759608e+05 -2.495633e+04
1.217391e+05 4.000000e+05 0.000000e+00
1.038578e+05 3.680873e+05 0.000000e+00
8.554820e+04 3.758900e+05 -2.433776e+04
1.038119e+05 3.678075e+05 -5.000000e+04
-1.333333e+05 3.000000e+05 0.000000e+00
-1.507965e+05 3.323846e+05 0.000000e+00
4.000000e+05 -2.260870e+05 -5.000000e+04
4.000000e+05 -2.086964e+05 -2.767894e+04
3.677676e+05 -2.073069e+05 -5.000000e+04
3.680174e+05 -2.076594e+05 0.000000e+00
4.000000e+05 -2.260870e+05 0.000000e+00
3.675924e+05 -2.768653e+05 -5.000000e+04
4.000000e+05 -2.608696e+05 -5.000000e+04
-3.000000e+05 -2.642495e+05 -5.000000e+04
-3.315612e+05 -2.870977e+05 -5.000000e+04
-3.000000e+05 -2.822320e+05 -2.302012e+04
-2.608696e+05 -4.000000e+05 0.000000e+00
-2.782401e+05 -4.000000e+05 -2.767902e+04
-2.582196e+05 -3.761066e+05 -2.561565e+04
-2.771049e+05 -3.678525e+05 0.000000e+00
-2.926873e+05 -3.661492e+05 -2.544359e+04
-2.608696e+05 -4.000000e+05 -5.000000e+04
-2.769789e+05 -3.676730e+05 -5.000000e+04
2.179096e+05 3.324288e+05 0.000000e+00
2.298367e+05 3.461034e+05 -2.499425e+04
2.177452e+05 3.321517e+05 -5.000000e+04
2.000000e+05 3.000000e+05 0.000000e+00
2.166042e+05 3.000000e+05 -2.764239e+04
2.000000e+05 3.000000e+05 -5.000000e+04
-1.333333e+05 -3.000000e+05 0.000000e+00
-1.739130e+04 4.000000e+05 -5.000000e+04
-1.000000e+05 -3.000000e+05 0.000000e+00
-1.172617e+05 -3.323725e+05 0.000000e+00
-3.000000e+05 2.648037e+05 -5.000000e+04
-3.000000e+05 2.478684e+05 -2.246818e+04
-3.324670e+05 2.517626e+05 0.000000e+00
1.172807e+05 -3.323682e+05 0.000000e+00
-3.000000e+05 2.296073e+05 -5.000000e+04
4.000000e+05 -5.217391e+04 0.000000e+00
-3.324074e+05 1.848350e+05 0.000000e+00
-2.492201e+05 3.000000e+05 -2.223204e+04
-2.513373e+05 3.324609e+05 0.000000e+00
-2.333333e+05 3.000000e+05 0.000000e+00
-2.517034e+05 3.321732e+05 -5.000000e+04
-2.333333e+05 3.000000e+05 -5.000000e+04
-2.711912e+05 3.266701e+05 -2.489217e+04
4.000000e+05 1.217391e+05 -5.000000e+04
8.695652e+04 -4.000000e+05 0.000000e+00
-4.000000e+05 1.913043e+05 0.000000e+00
-3.680735e+05 1.731789e+05 0.000000e+00
-3.763062e+05 1.884434e+05 -2.569324e+04
4.000000e+05 -2.956522e+05 -5.000000e+04
4.000000e+05 -2.782520e+05 -2.767911e+04
3.756501e+05 -2.916852e+05 -2.561711e+04
6.923751e+04 -3.678235e+05 -5.000000e+04
6.956410e+04 -4.000000e+05 -2.232106e+04
8.695652e+04 -4.000000e+05 -5.000000e+04
-1.470007e+02 -3.368097e+05 -2.527620e+04
6.340486e-01 -3.678326e+05 -5.000000e+04
3.000000e+05 -2.150509e+05 -2.248841e+04
3.000000e+05 -1.978940e+05 -5.000000e+04
-3.674131e+05 -2.416500e+05 -5.000000e+04
-3.758368e+05 -2.577759e+05 -2.445071e+04
-3.679440e+05 -2.770299e+05 0.000000e+00
-4.000000e+05 -2.782599e+05 -2.232106e+04
-4.000000e+05 -2.608696e+05 0.000000e+00
6.923623e+04 3.680926e+05 0.000000e+00
8.695652e+04 4.000000e+05 0.000000e+00
2.422827e+05 3.677158e+05 -5.000000e+04
2.608696e+05 4.000000e+05 -5.000000e+04
2.608696e+05 4.000000e+05 0.000000e+00
2.771027e+05 3.678569e+05 0.000000e+00
2.423629e+05 3.680119e+05 0.000000e+00
3.128480e+05 3.662080e+05 -5.000000e+04
2.956522e+05 4.000000e+05 0.000000e+00
2.782520e+05 4.000000e+05 -2.767911e+04
3.121717e+05 3.686941e+05 0.000000e+00
-3.694624e+05 3.502041e+05 -5.000000e+04
-3.724225e+05 3.729664e+05 -3.466954e+04
-3.701471e+05 3.317097e+05 -2.552564e+04
-3.496816e+05 3.515437e+05 -2.475937e+04
-3.470017e+05 3.709660e+05 -5.000000e+04
-3.314625e+05 3.409752e+05 -5.000000e+04
-3.330689e+05 3.737089e+05 -2.580206e+04
-3.709768e+05 3.470258e+05 0.000000e+00
-3.732688e+05 3.723178e+05 -1.558399e+04
-3.367413e+05 3.238052e+05 -2.484433e+04
-3.166313e+05 3.433127e+05 -2.384237e+04
-3.410676e+05 3.315303e+05 0.000000e+00
3.679565e+05 -2.771494e+05 0.000000e+00
4.000000e+05 -2.956522e+05 0.000000e+00
2.260870e+05 4.000000e+05 -5.000000e+04
2.434785e+05 4.000000e+05 -2.767896e+04
2.242946e+05 3.755057e+05 -2.561391e+04
2.260870e+05 4.000000e+05 0.000000e+00
2.077253e+05 3.680332e+05 0.000000e+00
2.086964e+05 4.000000e+05 -2.767894e+04
-3.000000e+05 -1.653002e+05 0.000000e+00
-3.000000e+05 -1.829901e+05 -2.729017e+04
-3.321594e+05 -1.771591e+05 -5.000000e+04
-1.842416e+05 -3.321326e+05 -5.000000e+04
-1.833367e+05 -3.000000e+05 -2.764282e+04
-3.681074e+05 6.936799e+04 0.000000e+00
-4.000000e+05 8.695652e+04 0.000000e+00
-2.882575e+05 3.318080e+05 -5.000000e+04
-2.666667e+05 3.000000e+05 -5.000000e+04
-2.847890e+05 3.324722e+05 0.000000e+00
-2.789502e+05 3.000000e+05 -2.517088e+04
-2.666667e+05 3.000000e+05 0.000000e+00
8.374139e+04 3.320925e+05 -5.000000e+04
6.666667e+04 3.000000e+05 -5.000000e+04
8.321226e+04 3.000000e+05 -2.764622e+04
6.828130e+04 3.238767e+05 -2.505696e+04
6.666667e+04 3.000000e+05 0.000000e+00
8.379885e+04 3.323535e+05 0.000000e+00
3.321360e+05 2.887407e+05 -5.000000e+04
3.000000e+05 2.677698e+05 -5.000000e+04
3.415372e+05 3.094832e+05 -2.509776e+04
3.113248e+05 3.129502e+05 -2.525417e+04
3.324998e+05 2.850782e+05 0.000000e+00
3.000000e+05 2.791997e+05 -2.519777e+04
3.000000e+05 2.672967e+05 0.000000e+00
-5.217391e+04 4.000000e+05 0.000000e+00
-3.463078e+04 3.680998e+05 0.000000e+00
-3.460566e+04 3.678289e+05 -5.000000e+04
-5.217391e+04 4.000000e+05 -5.000000e+04
3.280905e+05 -3.158678e+05 -5.000000e+04
3.315439e+05 -3.410357e+05 -5.000000e+04
-8.695652e+04 4.000000e+05 -5.000000e+04
-3.478139e+04 4.000000e+05 -2.232106e+04
-4.000000e+05 1.739130e+04 0.000000e+00
1.499999e+05 -3.000000e+05 -2.235712e+04
1.333333e+05 -3.000000e+05 0.000000e+00
1.323830e+05 -3.229520e+05 -2.430599e+04
1.507705e+05 -3.321290e+05 -5.000000e+04
-1.565217e+05 -4.000000e+05 0.000000e+00
3.677284e+05 3.544677e+04 -5.000000e+04
4.000000e+05 3.478139e+04 -2.232106e+04
4.000000e+05 1.739130e+04 0.000000e+00
4.000000e+05 1.739130e+04 -5.000000e+04
3.000000e+05 -3.189320e+04 0.000000e+00
3.000000e+05 -2.771737e+04 -5.000000e+04
-4.000000e+05 -1.913043e+05 -5.000000e+04
-9.455174e+00 3.681012e+05 0.000000e+00
-1.739130e+04 4.000000e+05 0.000000e+00
3.000000e+05 -3.000000e+05 -5.000000e+04
3.000000e+05 -3.000000e+05 0.000000e+00
3.333333e+04 3.000000e+05 -5.000000e+04
5.025790e+04 3.323481e+05 0.000000e+00
5.023841e+04 3.320888e+05 -5.000000e+04
-3.662634e+05 3.129802e+05 -5.000000e+04
-3.284472e+05 3.156462e+05 -5.000000e+04
3.676798e+05 -1.033106e+05 -5.000000e+04
3.558571e+05 3.577578e+05 -2.572528e+04
3.411148e+05 3.316594e+05 -5.000000e+04
3.503283e+05 3.704446e+05 0.000000e+00
3.315896e+05 3.411665e+05 0.000000e+00
3.299911e+05 3.700883e+05 -2.554228e+04
-3.321756e+05 2.845820e+03 -5.000000e+04
-3.439778e+05 -5.218004e+04 -5.000000e+04
-3.000000e+05 1.673499e+05 0.000000e+00
3.501648e+05 5.942959e+04 -2.528813e+04
6.923633e+04 3.678232e+05 -5.000000e+04
-4.000000e+05 3.471153e+05 -2.775934e+04
-4.000000e+05 4.000000e+05 0.000000e+00
-3.823443e+05 4.000000e+05 -2.731890e+04
-3.652174e+05 4.000000e+05 0.000000e+00
-3.478935e+05 4.000000e+05 -2.235349e+04
-4.000000e+05 3.785390e+05 -2.489047e+04
-4.000000e+05 3.652174e+05 0.000000e+00
-2.956522e+05 -4.000000e+05 0.000000e+00
-3.121750e+05 -3.686897e+05 0.000000e+00
-3.293325e+05 -3.671216e+05 -2.536873e+04
-2.956522e+05 -4.000000e+05 -5.000000e+04
2.882639e+05 3.320922e+05 0.000000e+00
5.093170e-11 -3.000000e+05 0.000000e+00
-3.226610e+05 2.105968e+04 -2.290067e+04
-3.000000e+05 3.469979e+04 0.000000e+00
-3.323555e+05 5.137996e+04 0.000000e+00
-3.220015e+05 5.817008e+04 -2.498712e+04
-3.000000e+05 1.842938e+04 -5.000000e+04
-3.497577e+05 4.496463e+04 -2.465259e+04
-3.321690e+05 3.790543e+04 -5.000000e+04
-3.469745e+05 -3.696720e+05 -5.000000e+04
-3.471153e+05 -4.000000e+05 -2.775934e+04
-3.503254e+05 -3.704403e+05 0.000000e+00
-3.304348e+05 -4.000000e+05 0.000000e+00
3.323437e+05 -4.907221e+04 0.000000e+00
3.323539e+05 -8.274308e+04 0.000000e+00
-3.502322e+05 3.694716e+05 0.000000e+00
-4.000000e+05 3.304348e+05 -5.000000e+04
3.260797e+05 3.364898e+05 -2.536868e+04
3.161196e+05 3.280247e+05 -5.000000e+04
3.323919e+05 8.996816e+04 -5.000000e+04
3.323321e+05 5.191321e+04 0.000000e+00
-3.652174e+05 -4.000000e+05 -5.000000e+04
-4.000000e+05 -4.000000e+05 0.000000e+00
-3.785390e+05 -4.000000e+05 -2.489047e+04
-4.000000e+05 -3.823443e+05 -2.731890e+04
-3.764460e+05 -3.742999e+05 -2.129766e+04
-4.000000e+05 -3.478935e+05 -2.235349e+04
-3.652174e+05 -4.000000e+05 0.000000e+00
-4.000000e+05 8.695652e+04 -5.000000e+04
-3.680872e+05 -6.905149e+04 0.000000e+00
-4.000000e+05 -6.956410e+04 -2.232106e+04
-3.699902e+05 -6.956816e+04 -5.000000e+04
4.000000e+05 -4.000000e+05 -5.000000e+04
3.652174e+05 -4.000000e+05 -5.000000e+04
3.823443e+05 -4.000000e+05 -2.731890e+04
3.652174e+05 -4.000000e+05 0.000000e+00
4.000000e+05 -4.000000e+05 0.000000e+00
-4.000000e+05 -3.304348e+05 -5.000000e+04
-3.000000e+05 -3.000000e+05 0.000000e+00
3.278659e+05 3.164259e+05 0.000000e+00
-2.945006e+05 3.670894e+05 -2.446398e+04
-2.768680e+05 3.676148e+05 -5.000000e+04
-2.434771e+05 4.000000e+05 -2.232106e+04
-2.782599e+05 4.000000e+05 -2.232106e+04
-2.423601e+05 3.680073e+05 0.000000e+00
-2.608696e+05 4.000000e+05 0.000000e+00
-2.771013e+05 3.679669e+05 0.000000e+00
-3.000000e+05 3.000000e+05 -5.000000e+04
-3.000000e+05 3.000000e+05 0.000000e+00
-3.161332e+05 3.279792e+05 0.000000e+00
-3.131889e+05 3.663436e+05 0.000000e+00
-3.304348e+05 4.000000e+05 -5.000000e+04
-3.130499e+05 4.000000e+05 -2.232112e+04
-3.304348e+05 4.000000e+05 0.000000e+00
-1.333333e+05 3.000000e+05 -5.000000e+04
3.315091e+05 -3.410604e+05 0.000000e+00
3.118095e+05 -3.686794e+05 0.000000e+00
3.316857e+05 -3.715572e+05 -2.469333e+04
3.130499e+05 -4.000000e+05 -2.232112e+04
1.739120e+05 -4.000000e+05 -2.232105e+04
1.842645e+05 -3.323929e+05 -5.000000e+04
3.680906e+05 3.482819e+04 0.000000e+00
1.666667e+05 3.000000e+05 -5.000000e+04
-1.673681e+04 -3.320845e+05 -5.000000e+04
2.910383e-11 -3.000000e+05 -5.000000e+04
-5.023842e+04 -3.320889e+05 -5.000000e+04
3.469444e+05 -3.709697e+05 0.000000e+00
-1.676046e+04 3.323412e+05 0.000000e+00
-3.673718e+05 -2.765155e+05 -5.000000e+04
-4.000000e+05 -2.956522e+05 -5.000000e+04
3.323491e+05 1.528569e+05 0.000000e+00
-3.000000e+05 5.362570e+04 -5.000000e+04
-3.000000e+05 6.786232e+04 0.000000e+00
3.662367e+05 3.129724e+05 0.000000e+00
3.685626e+05 3.120601e+05 -5.000000e+04
4.000000e+05 2.956522e+05 -5.000000e+04
4.000000e+05 4.000000e+05 0.000000e+00
4.000000e+05 3.652174e+05 0.000000e+00
3.652174e+05 4.000000e+05 0.000000e+00
3.762454e+05 3.750883e+05 -2.155808e+04
3.652174e+05 4.000000e+05 -5.000000e+04
4.000000e+05 3.652174e+05 -5.000000e+04
4.000000e+05 3.823443e+05 -2.731890e+04
3.698059e+05 3.472734e+05 0.000000e+00
3.785390e+05 4.000000e+05 -2.489047e+04
-8.695652e+04 -4.000000e+05 0.000000e+00
4.000000e+05 -1.739130e+04 -5.000000e+04
1.667182e+04 -3.000000e+05 -2.764257e+04
4.000000e+05 -1.913043e+05 0.000000e+00
3.676538e+05 -1.727396e+05 -5.000000e+04
-4.000000e+05 3.652174e+05 -5.000000e+04
-3.652174e+05 4.000000e+05 -5.000000e+04
-4.000000e+05 4.000000e+05 -5.000000e+04
-1.666667e+05 3.000000e+05 0.000000e+00
-2.956522e+05 4.000000e+05 -5.000000e+04
-3.115858e+05 3.684755e+05 -5.000000e+04
4.000000e+05 -1.913043e+05 -5.000000e+04
-3.324502e+05 -2.508874e+05 0.000000e+00
1.676292e+04 -3.320847e+05 -5.000000e+04
3.333333e+04 -3.000000e+05 -5.000000e+04
-1.565217e+05 -4.000000e+05 -5.000000e+04
-1.384500e+05 -3.677932e+05 -5.000000e+04
-1.843130e+05 -3.324055e+05 0.000000e+00
-1.565217e+05 4.000000e+05 0.000000e+00
3.304348e+05 -4.000000e+05 -5.000000e+04
3.478935e+05 -4.000000e+05 -2.235349e+04
3.471153e+05 4.000000e+05 -2.775934e+04
3.304348e+05 4.000000e+05 0.000000e+00
3.129524e+05 4.000000e+05 -2.768053e+04
3.304348e+05 4.000000e+05 -5.000000e+04
3.000000e+05 -2.664866e+05 0.000000e+00
2.077156e+05 3.677497e+05 -5.000000e+04
-5.093170e-11 3.000000e+05 0.000000e+00
1.913043e+05 -4.000000e+05 0.000000e+00
1.333333e+05 -3.000000e+05 -5.000000e+04
-2.000000e+05 -3.000000e+05 -5.000000e+04
3.000000e+05 3.000000e+05 -5.000000e+04
3.000000e+05 -1.994599e+05 0.000000e+00
-4.000000e+05 1.739130e+04 -5.000000e+04
-3.312555e+05 -1.078189e+05 -5.000000e+04
-1.217391e+05 -4.000000e+05 -5.000000e+04
2.333333e+05 -3.000000e+05 -5.000000e+04
-4.000000e+05 -8.695652e+04 0.000000e+00
-4.000000e+05 -8.695652e+04 -5.000000e+04
-4.000000e+05 -3.130499e+05 -2.232112e+04
-3.000000e+05 -8.715961e+04 -5.000000e+04
3.119848e+05 -3.684872e+05 -5.000000e+04
-3.000000e+05 -3.000000e+05 -5.000000e+04
-3.304348e+05 -4.000000e+05 -5.000000e+04
-3.129520e+05 -4.000000e+05 -2.768053e+04
8.695652e+04 4.000000e+05 -5.000000e+04
2.333333e+05 3.000000e+05 0.000000e+00
-2.956522e+05 4.000000e+05 0.000000e+00
3.472622e+05 3.698070e+05 -5.000000e+04
-3.000000e+05 -2.663251e+05 0.000000e+00
4.000000e+05 4.000000e+05 -5.000000e+04
4.000000e+05 -3.785390e+05 -2.489047e+04
3.304348e+05 -4.000000e+05 0.000000e+00
1.666667e+05 -3.000000e+05 -5.000000e+04
-3.333333e+04 3.000000e+05 -5.000000e+04
-3.000000e+05 -7.176096e+04 -2.210995e+04
-4.000000e+05 -3.652174e+05 -5.000000e+04
-4.000000e+05 -4.000000e+05 -5.000000e+04
4.000000e+05 3.304348e+05 0.000000e+00
-2.608696e+05 4.000000e+05 -5.000000e+04
-4.000000e+05 1.913043e+05 -5.000000e+04
4.000000e+05 2.608696e+05 0.000000e+00
4.000000e+05 5.217391e+04 -5.000000e+04
2.956522e+05 -4.000000e+05 -5.000000e+04
3.000000e+05 3.000000e+05 0.000000e+00
-3.000000e+05 -5.196328e+04 -5.000000e+04
1.913043e+05 -4.000000e+05 -5.000000e+04
-3.000000e+05 -1.223559e+05 -5.000000e+04
-4.000000e+05 -1.913043e+05 0.000000e+00
2.956522e+05 -4.000000e+05 0.000000e+00
-4.000000e+05 -3.652174e+05 0.000000e+00
2.333333e+05 3.000000e+05 -5.000000e+04
-4.000000e+05 -2.608696e+05 -5.000000e+04
-4.000000e+05 -5.217391e+04 0.000000e+00
-4.000000e+05 -3.304348e+05 0.000000e+00
-3.000000e+05 2.668375e+05 0.000000e+00
-4.000000e+05 -2.956522e+05 0.000000e+00
3.000000e+05 1.356736e+05 0.000000e+00
4.000000e+05 2.608696e+05 -5.000000e+04
-4.000000e+05 3.304348e+05 0.000000e+00
-3.063457e+05 -2.024790e+05 -4.426077e+04
-3.000000e+05 -2.026301e+05 -3.632534e+04
-3.111463e+05 -1.950475e+05 -3.897904e+04
-3.000000e+05 -1.878693e+05 -3.864508e+04
-3.160797e+05 -1.849538e+05 -5.000000e+04
-3.000000e+05 -2.106238e+05 -5.000000e+04
-3.000000e+05 -1.720696e+05 -3.031175e+04
-3.116603e+05 -1.675784e+05 -4.089358e+04
-3.000000e+05 -1.751504e+05 -5.000000e+04
-3.000000e+05 -1.575523e+05 -5.000000e+04
-3.000000e+05 -1.593507e+05 -4.166667e+04
-3.159737e+05 -2.026191e+05 -5.000000e+04
-3.000000e+05 -8.485563e+04 -1.105497e+04
-3.118670e+05 -9.380434e+04 -1.203731e+04
-3.130891e+05 -7.897049e+04 -1.053248e+04
-3.161910e+05 -9.004106e+04 0.000000e+00
-3.000000e+05 -8.136905e+04 0.000000e+00
-3.000000e+05 -1.008931e+05 -1.160040e+04
-3.000000e+05 -1.166929e+05 -1.993373e+04
-3.161858e+05 -1.067992e+05 0.000000e+00
-3.115039e+05 -1.218258e+05 -8.346628e+03
-3.000000e+05 -1.147878e+05 0.000000e+00
-3.000000e+05 -1.316253e+05 0.000000e+00
-3.000000e+05 -1.305875e+05 -8.333333e+03
3.146143e+05 1.349445e+05 -1.624165e+04
3.106134e+05 1.510628e+05 -4.369146e+03
3.000000e+05 1.366305e+05 -8.333333e+03
3.000000e+05 1.524302e+05 0.000000e+00
3.150459e+05 1.625460e+05 -1.122399e+04
3.000000e+05 1.760691e+05 -1.357997e+04
3.162902e+05 1.776758e+05 0.000000e+00
3.161745e+05 1.610219e+05 0.000000e+00
3.104026e+05 1.535879e+05 -2.404985e+04
3.000000e+05 1.602694e+05 -2.191330e+04
3.000000e+05 1.855385e+05 0.000000e+00
3.101809e+05 7.329692e+04 -3.945893e+04
3.000000e+05 6.519138e+04 -3.614855e+04
3.159874e+05 6.550846e+04 -5.000000e+04
3.000000e+05 7.953962e+04 -3.870729e+04
3.161959e+05 8.217839e+04 -5.000000e+04
3.000000e+05 9.050372e+04 -5.000000e+04
3.000000e+05 1.063034e+05 -4.166667e+04
3.000000e+05 1.066188e+05 -5.000000e+04
3.125659e+05 9.981851e+04 -3.875643e+04
3.000000e+05 9.533933e+04 -3.037395e+04
3.000000e+05 5.737095e+04 -5.000000e+04
-3.115493e+05 -1.610683e+05 -2.398051e+04
-3.144704e+05 -1.432229e+05 -2.146171e+04
-3.129051e+05 -1.523282e+05 -3.728779e+04
-3.094561e+05 -1.356463e+05 -3.213334e+04
-3.000000e+05 -1.632247e+05 -1.666667e+04
-3.000000e+05 -1.474250e+05 -8.333333e+03
-3.000000e+05 -1.417526e+05 -4.166667e+04
-3.000000e+05 -1.259528e+05 -3.333333e+04
-3.139054e+05 -1.267224e+05 -2.329475e+04
-3.158757e+05 -1.378130e+05 -8.840615e+03
3.000000e+05 1.382182e+05 -3.333333e+04
3.125257e+05 1.177269e+05 -2.993614e+04
3.000000e+05 1.040741e+05 -1.666667e+04
3.000000e+05 1.198738e+05 -8.333333e+03
3.000000e+05 1.224185e+05 -4.166667e+04
3.000000e+05 1.543333e+05 -3.333333e+04
3.158643e+05 1.130119e+05 -3.901411e+04
3.112403e+05 1.036372e+05 -2.695839e+04
-3.000000e+05 -1.976893e+05 -4.316267e+04
-3.030729e+05 -1.980668e+05 -4.723608e+04
-3.053768e+05 -1.954590e+05 -4.414253e+04
-3.000000e+05 -1.927486e+05 -5.000000e+04
-3.000000e+05 -1.903090e+05 -4.432254e+04
-3.080399e+05 -1.888512e+05 -5.000000e+04
-3.000000e+05 -2.016862e+05 -5.000000e+04
-3.000000e+05 -1.848487e+05 -4.583333e+04
-3.062955e+05 -1.781563e+05 -4.384648e+04
-3.000000e+05 -1.824091e+05 -4.015588e+04
-3.000000e+05 -1.769489e+05 -4.166667e+04
-3.000000e+05 -1.760497e+05 -4.583333e+04
-3.000000e+05 -1.839495e+05 -5.000000e+04
-3.079869e+05 -1.976838e+05 -5.000000e+04
-3.053514e+05 -9.518209e+04 -7.031331e+03
-3.000000e+05 -9.140297e+04 -5.527487e+03
-3.064560e+05 -8.860147e+04 -5.251857e+03
-3.000000e+05 -9.795031e+04 0.000000e+00
-3.080955e+05 -9.399569e+04 0.000000e+00
-3.000000e+05 -8.965968e+04 0.000000e+00
-3.000000e+05 -1.058502e+05 -4.166667e+03
-3.059791e+05 -1.119808e+05 -6.158372e+03
-3.000000e+05 -1.073216e+05 -9.966865e+03
-3.000000e+05 -1.137500e+05 -8.333333e+03
-3.000000e+05 -9.942173e+04 -5.800198e+03
-3.080929e+05 -1.023748e+05 0.000000e+00
-3.000000e+05 -1.142689e+05 -4.166667e+03
-3.000000e+05 -1.063690e+05 0.000000e+00
3.000000e+05 1.612870e+05 -4.166667e+03
3.057350e+05 1.547934e+05 -7.475251e+03
3.000000e+05 1.529087e+05 -4.166667e+03
3.000000e+05 1.533872e+05 -8.333333e+03
3.000000e+05 1.608086e+05 0.000000e+00
3.045112e+05 1.590589e+05 -3.088817e+03
3.000000e+05 1.691869e+05 0.000000e+00
3.000000e+05 1.726280e+05 -6.789983e+03
3.067972e+05 1.637620e+05 -6.236619e+03
3.081451e+05 1.734313e+05 0.000000e+00
3.080873e+05 1.651044e+05 0.000000e+00
3.000000e+05 1.647281e+05 -1.095665e+04
3.080360e+05 1.585959e+05 -1.311263e+04
3.000000e+05 1.773627e+05 0.000000e+00
3.000000e+05 6.979000e+04 -4.307428e+04
3.047677e+05 7.402522e+04 -4.470344e+04
3.079937e+05 6.994854e+04 -5.000000e+04
3.000000e+05 7.438862e+04 -5.000000e+04
3.000000e+05 7.696412e+04 -4.435364e+04
3.080980e+05 7.828350e+04 -5.000000e+04
3.000000e+05 8.228847e+04 -4.583333e+04
3.069023e+05 9.098978e+04 -4.261236e+04
3.000000e+05 9.034602e+04 -4.583333e+04
3.000000e+05 9.018833e+04 -4.166667e+04
3.000000e+05 8.244617e+04 -5.000000e+04
3.000000e+05 8.486397e+04 -4.018698e+04
3.000000e+05 6.587979e+04 -5.000000e+04
-3.000000e+05 -1.690490e+05 -3.750000e+04
-3.000000e+05 -1.745093e+05 -3.598921e+04
-3.038440e+05 -1.709227e+05 -3.911852e+04
-3.053278e+05 -1.630005e+05 -3.668382e+04
-3.000000e+05 -1.666094e+05 -3.182254e+04
-3.000000e+05 -1.611492e+05 -3.333333e+04
-3.000000e+05 -1.681498e+05 -4.166667e+04
-3.000000e+05 -1.602499e+05 -3.750000e+04
-3.000000e+05 -1.532493e+05 -2.916667e+04
-3.064631e+05 -1.466763e+05 -3.079909e+04
-3.069327e+05 -1.513839e+05 -2.386303e+04
-3.000000e+05 -1.453495e+05 -2.500000e+04
-3.047602e+05 -1.596486e+05 -2.726066e+04
-3.054439e+05 -1.557992e+05 -3.361296e+04
-3.000000e+05 -1.542871e+05 -2.083333e+04
-3.000000e+05 -1.621869e+05 -2.500000e+04
-3.000000e+05 -1.435510e+05 -3.333333e+04
-3.000000e+05 -1.514509e+05 -3.750000e+04
-3.000000e+05 -1.216499e+05 -1.250000e+04
-3.000000e+05 -1.152214e+05 -1.413353e+04
-3.037297e+05 -1.190352e+05 -1.075928e+04
-3.056822e+05 -1.266812e+05 -1.273478e+04
-3.000000e+05 -1.231213e+05 -1.830020e+04
-3.000000e+05 -1.295497e+05 -1.666667e+04
-3.000000e+05 -1.221688e+05 -8.333333e+03
-3.000000e+05 -1.300686e+05 -1.250000e+04
-3.000000e+05 -1.374496e+05 -2.083333e+04
-3.054367e+05 -1.434107e+05 -2.045846e+04
-3.048275e+05 -1.400009e+05 -2.640946e+04
-3.036705e+05 -1.331873e+05 -2.543463e+04
-3.072707e+05 -1.359191e+05 -2.121872e+04
-3.000000e+05 -1.463872e+05 -1.666667e+04
-3.000000e+05 -1.384874e+05 -1.250000e+04
-3.000000e+05 -1.356511e+05 -2.916667e+04
-3.000000e+05 -1.277513e+05 -2.500000e+04
-3.081167e+05 -1.345386e+05 -1.397709e+04
-3.063282e+05 -1.286818e+05 -2.243935e+04
3.000000e+05 1.454873e+05 -1.250000e+04
3.000000e+05 1.450088e+05 -8.333333e+03
3.052121e+05 1.457290e+05 -1.130647e+04
3.062475e+05 1.362732e+05 -1.694122e+04
3.000000e+05 1.371090e+05 -1.250000e+04
3.000000e+05 1.375875e+05 -1.666667e+04
3.059867e+05 1.502481e+05 -1.558613e+04
3.000000e+05 1.568283e+05 -1.512332e+04
3.000000e+05 1.489284e+05 -1.928998e+04
3.044346e+05 1.471034e+05 -1.983256e+04
3.000000e+05 1.379029e+05 -2.500000e+04
3.000000e+05 1.296876e+05 -2.083333e+04
3.056034e+05 1.285055e+05 -2.285373e+04
3.000000e+05 1.208308e+05 -1.666667e+04
3.000000e+05 1.217878e+05 -2.500000e+04
3.000000e+05 1.287307e+05 -1.250000e+04
3.000000e+05 1.300030e+05 -2.916667e+04
3.000000e+05 1.459604e+05 -2.500000e+04
3.000000e+05 9.808819e+04 -3.750000e+04
3.000000e+05 9.824588e+04 -4.166667e+04
3.042573e+05 9.809898e+04 -3.894066e+04
3.055312e+05 1.018170e+05 -3.439599e+04
3.000000e+05 1.061457e+05 -3.750000e+04
3.000000e+05 1.059880e+05 -3.333333e+04
3.000000e+05 9.276383e+04 -3.602031e+04
3.000000e+05 1.006637e+05 -3.185364e+04
3.000000e+05 1.138879e+05 -2.916667e+04
3.000000e+05 1.129309e+05 -2.083333e+04
3.069821e+05 1.199990e+05 -2.690572e+04
3.042169e+05 1.142399e+05 -3.220802e+04
3.000000e+05 1.050311e+05 -2.500000e+04
3.000000e+05 1.221031e+05 -3.333333e+04
3.000000e+05 1.142033e+05 -3.750000e+04
3.075285e+05 1.109811e+05 -3.529712e+04
3.051107e+05 1.067999e+05 -3.027558e+04
3.096386e+05 1.505806e+05 -9.414214e+03
-4.440329e+03 1.333028e+05 0.000000e+00
-1.217485e+04 1.392455e+05 -2.498933e+04
-4.649752e+02 1.773997e+05 0.000000e+00
1.833367e+04 1.602591e+05 -2.467196e+04
5.075322e+04 1.521106e+05 -5.000000e+04
4.774143e+04 1.390626e+05 -2.467005e+04
4.683425e+04 1.705684e+05 -2.336042e+04
3.333333e+04 1.814500e+05 -5.000000e+04
1.639473e+04 1.882556e+05 -2.488392e+04
2.617409e+04 1.466127e+05 0.000000e+00
1.832218e+04 1.264677e+05 -2.376091e+04
3.259688e+04 1.810684e+05 0.000000e+00
-5.000000e+04 2.703625e+05 0.000000e+00
-2.644352e+04 2.534724e+05 -2.498637e+04
-6.350251e+03 2.758802e+05 -2.573485e+04
-1.666667e+04 2.703625e+05 0.000000e+00
-5.000000e+04 2.703625e+05 -5.000000e+04
1.666667e+04 2.703625e+05 0.000000e+00
3.453644e+04 2.780219e+05 -2.496680e+04
2.726495e+04 2.538205e+05 -2.501399e+04
-1.666667e+04 2.703625e+05 -5.000000e+04
1.666667e+04 2.703625e+05 -5.000000e+04
2.519835e+01 2.526358e+05 -2.513652e+04
-2.523835e+05 2.703807e+05 -5.000000e+04
-2.353690e+05 2.733749e+05 -2.602352e+04
-2.702113e+05 2.458136e+05 -2.469718e+04
-2.436733e+05 2.474574e+05 -2.249356e+04
-2.494326e+05 2.704780e+05 0.000000e+00
-2.707613e+05 2.523762e+05 0.000000e+00
-2.172610e+05 2.694316e+05 0.000000e+00
-2.354239e+05 2.382164e+05 -5.000000e+04
-2.501107e+05 2.229844e+05 -2.497148e+04
-2.187901e+05 2.405461e+05 -2.492515e+04
-7.521256e+04 3.457380e+04 0.000000e+00
-6.599033e+04 3.130563e+04 -2.598754e+04
-9.685882e+04 1.354083e+04 -2.312113e+04
-9.545874e+04 4.199955e+04 -2.583375e+04
-1.067915e+05 2.051395e+04 0.000000e+00
-1.030567e+05 5.461909e+04 0.000000e+00
-8.943670e+04 7.505057e+04 -2.474692e+04
-7.028367e+04 5.417666e+04 -2.257382e+04
-1.215186e+05 2.016320e+04 -1.876115e+04
2.168493e+05 2.700948e+05 -5.000000e+04
2.000670e+05 2.712206e+05 -2.559220e+04
2.185802e+05 2.437661e+05 -2.542145e+04
2.299592e+05 2.790480e+05 -2.568888e+04
2.491748e+05 2.712996e+05 0.000000e+00
2.479918e+05 2.595256e+05 -2.526698e+04
2.490976e+05 2.712547e+05 -5.000000e+04
2.749886e+05 2.756515e+05 -3.465706e+04
-1.666667e+04 2.110875e+05 -5.000000e+04
-4.154825e+04 1.961424e+05 -2.471926e+04
-9.068073e+03 1.988140e+05 -2.506348e+04
-3.302686e+04 2.227613e+05 -2.496840e+04
-1.666667e+04 2.110875e+05 0.000000e+00
-3.333333e+04 2.407250e+05 -5.000000e+04
-8.629075e+03 2.274211e+05 -2.500647e+04
-3.333333e+04 2.407250e+05 0.000000e+00
-5.780125e+04 2.526602e+05 -2.478690e+04
-5.982659e+04 2.227413e+05 -2.494226e+04
1.833333e+05 2.703625e+05 0.000000e+00
1.560749e+05 2.551863e+05 -2.509932e+04
1.500000e+05 2.703625e+05 0.000000e+00
1.678415e+05 2.778195e+05 -2.559557e+04
1.500000e+05 2.703625e+05 -5.000000e+04
1.344915e+05 2.779117e+05 -2.570207e+04
1.842460e+05 2.406942e+05 -2.562846e+04
1.833333e+05 2.703625e+05 -5.000000e+04
-6.395353e+04 1.382147e+05 0.000000e+00
-3.276955e+04 1.523143e+05 0.000000e+00
-4.730502e+04 1.387179e+05 -2.676795e+04
-5.168263e+04 1.685256e+05 -2.152421e+04
-8.014595e+04 1.663054e+05 -2.665052e+04
-8.749084e+04 1.393988e+05 -2.461404e+04
-9.097190e+04 1.558896e+05 0.000000e+00
-6.556847e+04 1.789563e+05 0.000000e+00
-3.328794e+04 1.822590e+05 0.000000e+00
-6.666667e+04 1.814500e+05 -5.000000e+04
-7.337420e+04 1.956616e+05 -2.492075e+04
-4.936181e+04 1.534500e+05 -5.000000e+04
1.750837e+05 1.784580e+05 -5.000000e+04
1.605033e+05 1.582534e+05 -2.579836e+04
1.935240e+05 1.701681e+05 -2.531764e+04
1.618363e+05 1.888645e+05 -2.689778e+04
1.508365e+05 2.101142e+05 -5.000000e+04
1.831355e+05 2.109135e+05 -5.000000e+04
1.685055e+05 2.143253e+05 -2.329534e+04
1.811538e+05 1.811578e+05 0.000000e+00
1.495749e+05 1.670979e+05 0.000000e+00
1.269787e+05 1.725693e+05 -2.466472e+04
1.342045e+05 2.104757e+05 -2.531529e+04
1.362777e+05 1.814245e+05 -5.000000e+04
3.444882e+04 1.190050e+05 -5.000000e+04
4.288501e+04 1.045910e+05 -2.540980e+04
8.641699e+04 1.389782e+05 0.000000e+00
5.856177e+04 1.579786e+05 0.000000e+00
7.549674e+04 1.568935e+05 -2.370627e+04
1.642822e+04 1.494179e+05 -5.000000e+04
5.483804e+04 1.249184e+05 0.000000e+00
-2.703625e+05 2.170937e+05 0.000000e+00
-2.774286e+05 1.991223e+05 -2.523031e+04
8.333333e+04 2.703625e+05 0.000000e+00
1.166667e+05 2.703625e+05 0.000000e+00
9.160868e+04 2.540098e+05 -2.508561e+04
1.013374e+05 2.780432e+05 -2.569776e+04
-2.704597e+05 2.463558e+05 -5.000000e+04
-2.742116e+05 2.742267e+05 -2.632698e+04
1.166667e+05 2.703625e+05 -5.000000e+04
1.248563e+05 2.523347e+05 -2.503159e+04
6.806492e+04 2.780753e+05 -2.504017e+04
8.333333e+04 2.703625e+05 -5.000000e+04
-1.833333e+05 2.703625e+05 -5.000000e+04
-1.741211e+05 2.528982e+05 -2.507902e+04
-1.500000e+05 2.703625e+05 -5.000000e+04
-1.649162e+05 2.777483e+05 -2.445849e+04
-1.833333e+05 2.703625e+05 0.000000e+00
-1.996212e+05 2.687768e+05 -2.461742e+04
-1.500000e+05 2.703625e+05 0.000000e+00
-1.449635e+05 2.512022e+05 -2.669736e+04
-1.172266e+05 2.690218e+05 -2.423007e+04
-1.261497e+05 1.083583e+05 0.000000e+00
-1.069150e+05 1.022501e+05 -2.458084e+04
-1.341525e+05 1.169118e+05 -2.486441e+04
-1.099362e+05 1.284964e+05 -2.473960e+04
-8.728535e+04 1.176235e+05 -5.000000e+04
-7.892258e+04 1.091815e+05 -2.495763e+04
-1.221382e+05 1.448832e+05 0.000000e+00
-1.399211e+05 1.409182e+05 -2.499483e+04
-1.128147e+05 1.641460e+05 -2.506178e+04
-1.169969e+05 1.492411e+05 -5.000000e+04
-7.670056e+04 5.002367e+03 -5.000000e+04
-7.259175e+04 5.352830e+03 -3.329940e+04
5.000000e+04 2.703625e+05 -5.000000e+04
5.917352e+04 2.539255e+05 -2.501751e+04
1.333333e+05 2.407250e+05 -5.000000e+04
1.512144e+05 2.318642e+05 -2.456138e+04
1.340169e+05 2.394802e+05 0.000000e+00
1.524543e+05 2.032776e+05 0.000000e+00
1.172380e+05 2.126404e+05 0.000000e+00
1.662067e+05 2.401366e+05 0.000000e+00
1.666667e+05 2.407250e+05 -5.000000e+04
-6.774293e+04 1.027841e+05 0.000000e+00
-5.685001e+04 7.699535e+04 -2.507436e+04
-3.426772e+04 9.221509e+04 -5.000000e+04
-4.822623e+04 1.061154e+05 -2.517715e+04
-6.830110e+04 8.834375e+04 -5.000000e+04
1.666667e+04 2.110875e+05 -5.000000e+04
5.000000e+04 2.110875e+05 -5.000000e+04
4.154253e+04 1.980693e+05 -2.499240e+04
-4.686427e+04 6.037688e+04 -5.000000e+04
-8.636074e+04 5.813361e+04 -5.000000e+04
-2.703625e+05 -3.436512e+04 -5.000000e+04
-2.398021e+05 -5.227265e+04 -5.000000e+04
-2.386648e+05 -1.673497e+04 -5.000000e+04
-2.493733e+05 -3.813443e+04 -2.053509e+04
-1.990253e+05 -6.070612e+03 -5.000000e+04
-2.374668e+05 1.741428e+04 -5.000000e+04
-2.204001e+05 -1.066389e+04 -2.553303e+04
-2.131105e+05 2.127811e+04 -2.450326e+04
-1.827661e+05 4.087922e+03 -2.593798e+04
-2.422764e+05 2.676787e+04 -2.632971e+04
-2.102889e+05 3.856206e+04 -5.000000e+04
-2.210342e+05 5.380098e+04 -2.322907e+04
-2.052275e+05 4.664276e+04 0.000000e+00
-1.871637e+05 4.490828e+04 -2.611346e+04
-7.198032e+04 2.779456e+05 -2.558912e+04
-8.333333e+04 2.703625e+05 -5.000000e+04
-9.386122e+04 2.515225e+05 -2.211984e+04
-8.333333e+04 2.703625e+05 0.000000e+00
-1.499531e+05 1.255588e+05 0.000000e+00
-1.476850e+05 1.200808e+05 -5.000000e+04
-1.667001e+05 1.430968e+05 -2.522165e+04
-1.628516e+05 1.106374e+05 -2.538770e+04
-1.478931e+05 1.674440e+05 -2.517582e+04
-6.402843e-10 1.814500e+05 -5.000000e+04
-1.862986e+04 1.681722e+05 -2.718045e+04
1.666667e+04 2.110875e+05 0.000000e+00
-1.166667e+05 2.110875e+05 0.000000e+00
-1.056425e+05 1.961986e+05 -2.505965e+04
-1.348429e+05 1.804690e+05 0.000000e+00
-1.352473e+05 1.985901e+05 -2.509788e+04
-1.510177e+05 2.098216e+05 -5.000000e+04
-1.225556e+05 2.294097e+05 -2.617745e+04
-1.575765e+05 2.249921e+05 -2.527318e+04
-1.166667e+05 2.110875e+05 -5.000000e+04
-1.349131e+05 1.809538e+05 -5.000000e+04
-1.379877e+05 8.698519e+04 -5.000000e+04
-9.932188e+04 8.872423e+04 0.000000e+00
-1.220690e+05 6.573342e+04 -2.415161e+04
-1.310024e+05 9.161975e+04 -2.295271e+04
-1.029050e+05 8.621793e+04 -5.000000e+04
-1.189019e+05 1.158488e+05 -5.000000e+04
-1.566202e+05 9.415578e+04 0.000000e+00
-1.583464e+05 7.479987e+04 -2.416146e+04
-1.309008e+05 7.466438e+04 0.000000e+00
6.666667e+04 2.407250e+05 -5.000000e+04
5.440969e+04 2.254819e+05 -2.502670e+04
8.333333e+04 2.110875e+05 -5.000000e+04
8.198993e+04 2.279774e+05 -2.499358e+04
1.057242e+05 1.998528e+05 -2.678509e+04
1.090659e+05 2.269923e+05 -2.532330e+04
6.666667e+04 2.407250e+05 0.000000e+00
8.467502e+04 2.097123e+05 0.000000e+00
1.458401e+05 1.329928e+05 0.000000e+00
1.179959e+05 1.530381e+05 0.000000e+00
1.349113e+05 1.416438e+05 -2.352375e+04
5.000000e+04 2.703625e+05 0.000000e+00
-2.910383e-10 2.407250e+05 -5.000000e+04
-1.164153e-10 2.407250e+05 0.000000e+00
-2.787646e+05 -4.353636e+04 -2.504385e+04
-2.836558e+05 -7.450819e+04 -2.760582e+04
-2.414691e+05 2.003343e+05 0.000000e+00
-2.249348e+05 2.081186e+05 -2.532511e+04
-2.105485e+05 1.837023e+05 0.000000e+00
-2.248687e+05 1.814496e+05 -2.506823e+04
-2.407250e+05 1.592147e+05 -5.000000e+04
-2.275300e+05 1.533228e+05 -2.468712e+04
-2.102373e+05 1.782456e+05 -5.000000e+04
-1.926048e+05 1.627175e+05 -2.509347e+04
-1.968312e+05 1.947375e+05 -2.506227e+04
-2.690150e+05 -1.588985e+04 0.000000e+00
-2.794667e+05 -9.846477e+03 -2.498006e+04
-2.692819e+05 -7.036983e+04 -5.000000e+04
-2.559771e+05 -6.784797e+04 -3.077485e+04
-2.689787e+05 2.130398e+05 -5.000000e+04
-2.703625e+05 1.839312e+05 0.000000e+00
-2.703625e+05 1.768129e+05 -5.000000e+04
-2.700248e+05 1.644060e+05 -2.433269e+04
-2.519217e+05 1.883573e+05 -2.494645e+04
2.785228e+05 2.197676e+05 -2.077268e+04
2.706845e+05 2.531006e+05 0.000000e+00
2.521411e+05 2.296076e+05 -2.476496e+04
2.715777e+05 2.509975e+05 -2.441173e+04
2.705528e+05 2.536253e+05 -5.000000e+04
2.699346e+05 1.871943e+05 -5.000000e+04
2.697798e+05 2.196119e+05 -5.000000e+04
2.552956e+05 1.969285e+05 -2.501933e+04
2.476412e+05 1.650556e+05 -2.754369e+04
2.757339e+05 1.724826e+05 -2.829321e+04
2.699346e+05 1.549641e+05 -5.000000e+04
2.716218e+05 1.881165e+05 0.000000e+00
-2.698465e+05 1.780353e+04 0.000000e+00
-2.367691e+05 -1.169208e+03 0.000000e+00
-2.540642e+05 -7.323602e+02 -2.760776e+04
-2.407250e+05 5.362570e+04 -5.000000e+04
-2.385624e+05 3.327850e+04 0.000000e+00
-2.007136e+05 1.294712e+04 0.000000e+00
-4.569568e+04 2.548097e+04 -5.000000e+04
-8.201312e+03 3.711624e+04 -5.000000e+04
-3.209038e+04 4.300455e+04 -2.982938e+04
-3.593767e+04 1.582592e+04 -3.815478e+04
-4.376609e+04 -8.300810e+03 -5.000000e+04
-1.180399e+04 3.040953e+03 -5.000000e+04
-8.333333e+04 1.518124e+05 -5.000000e+04
-5.722212e+04 1.270667e+05 -5.000000e+04
-9.558707e+04 1.228294e+05 0.000000e+00
-1.238735e+05 -3.880552e+04 -5.000000e+04
-1.341108e+05 -1.868750e+04 -2.746874e+04
-1.404076e+05 -1.865753e+04 -5.000000e+04
-1.358286e+05 -4.827611e+04 -4.145835e+04
-2.703625e+05 7.122387e+04 -5.000000e+04
-2.539754e+05 5.258236e+04 -2.241711e+04
-2.564221e+05 8.684402e+04 -2.734451e+04
-2.805987e+05 5.624985e+04 -2.510792e+04
-2.397487e+05 6.722644e+04 0.000000e+00
-2.407250e+05 1.010248e+05 0.000000e+00
-2.275491e+05 8.271906e+04 -2.488958e+04
-2.279571e+05 1.168923e+05 -2.534018e+04
-2.702358e+05 1.148291e+05 -2.571997e+04
-2.407250e+05 1.240184e+05 -5.000000e+04
-1.692398e+05 -2.868332e+04 -5.000000e+04
-1.929878e+05 -3.353184e+04 -2.799119e+04
-2.772150e+05 2.421200e+04 -2.422306e+04
-2.703625e+05 8.312113e+02 -5.000000e+04
-2.577362e+05 1.373267e+05 -2.115945e+04
-2.703625e+05 8.444358e+04 0.000000e+00
-2.703625e+05 1.176061e+05 0.000000e+00
-1.029014e+05 2.698509e+04 -5.000000e+04
-1.201264e+05 -6.785889e+02 -5.000000e+04
-1.762342e+05 1.744872e+05 -5.000000e+04
-1.808014e+05 1.287080e+05 -5.000000e+04
-1.952435e+05 1.247444e+05 -2.508357e+04
-2.133292e+05 2.126029e+05 -5.000000e+04
-1.915739e+05 2.255245e+05 -2.504191e+04
-1.763357e+05 1.764619e+05 0.000000e+00
-1.655994e+05 1.943302e+05 -2.504195e+04
-8.333333e+04 2.110875e+05 -5.000000e+04
-1.000000e+05 1.814500e+05 -5.000000e+04
-8.333333e+04 2.110875e+05 0.000000e+00
-1.012490e+05 1.812578e+05 0.000000e+00
-1.200034e+05 5.659953e+04 -5.000000e+04
-7.145491e+04 3.743722e+04 -5.000000e+04
-1.348873e+05 4.067018e+04 0.000000e+00
-1.371027e+05 2.698358e+04 -5.000000e+04
-1.523320e+05 3.470125e+04 -2.513827e+04
-1.512932e+05 -3.670787e+03 -1.892376e+04
-1.606578e+05 -2.853643e+04 -3.051064e+04
-1.383705e+05 6.454096e+03 0.000000e+00
-1.145731e+05 -1.381724e+04 -3.048507e+04
9.576800e+03 9.334481e+04 -2.401394e+04
2.325910e+04 1.108585e+05 0.000000e+00
-2.703625e+05 1.416165e+05 -5.000000e+04
-2.407250e+05 1.673499e+05 0.000000e+00
-2.095427e+05 1.433223e+05 -5.000000e+04
-2.407250e+05 1.341874e+05 0.000000e+00
-2.099412e+05 1.516432e+05 0.000000e+00
-3.333333e+04 1.814500e+05 -5.000000e+04
-1.633017e+05 4.998526e+03 -5.000000e+04
-2.129558e+05 7.151738e+04 -5.000000e+04
-1.949812e+05 8.518317e+04 -2.428377e+04
-2.098797e+05 1.053383e+05 -5.000000e+04
-2.110875e+05 1.176061e+05 0.000000e+00
2.721710e+05 2.739880e+05 -1.554973e+04
1.952429e+04 7.675336e+04 0.000000e+00
3.859149e+04 6.804410e+04 -3.111438e+04
3.042718e+04 8.437523e+04 -5.000000e+04
2.377518e+03 5.556307e+04 -2.944220e+04
6.230767e+04 9.833036e+04 -5.000000e+04
6.883988e+04 8.211192e+04 -3.022175e+04
5.857286e+04 6.422522e+04 -5.000000e+04
1.254656e+05 1.264501e+05 -5.000000e+04
1.057502e+05 1.346895e+05 -2.537465e+04
1.006002e+05 9.737163e+04 -2.990188e+04
1.315754e+05 1.096982e+05 -2.922538e+04
1.217308e+05 9.234492e+04 -5.000000e+04
-2.703625e+05 3.602754e+04 -5.000000e+04
-2.703625e+05 5.128106e+04 0.000000e+00
-2.660796e+05 -4.965310e+04 0.000000e+00
7.266152e+04 1.953284e+05 -2.504520e+04
1.006800e+05 1.811701e+05 -5.000000e+04
1.206060e+05 1.865350e+05 0.000000e+00
9.816366e+04 1.739481e+05 -2.335905e+04
-1.713925e+05 3.740512e+04 -5.000000e+04
9.466882e+04 1.478433e+05 -5.000000e+04
7.432833e+04 1.186264e+05 -2.526131e+04
-1.002222e+05 -1.970730e+04 -5.000000e+04
-3.088596e+04 1.222229e+05 -5.000000e+04
-1.935915e+04 1.101420e+05 -2.361855e+04
2.001060e+05 2.421104e+05 -5.000000e+04
1.998325e+05 2.422965e+05 0.000000e+00
2.166667e+05 2.703625e+05 0.000000e+00
-1.205466e+04 6.269351e+04 0.000000e+00
-2.352937e+04 7.858925e+04 -2.566249e+04
-8.319851e+03 9.679865e+04 0.000000e+00
-1.679243e+05 2.728852e+04 0.000000e+00
-1.959685e+05 1.715240e+04 -5.000000e+04
-1.000000e+05 2.407250e+05 -5.000000e+04
-1.333333e+05 2.407250e+05 0.000000e+00
-1.000000e+05 2.407250e+05 0.000000e+00
-1.166667e+05 2.703625e+05 0.000000e+00
3.333333e+04 2.407250e+05 0.000000e+00
2.202262e+04 2.241506e+05 -2.501451e+04
-1.509606e+05 2.098502e+05 0.000000e+00
-3.695807e+03 7.066606e+04 -5.000000e+04
1.000000e+05 2.407250e+05 -5.000000e+04
2.393627e+05 2.394240e+05 0.000000e+00
2.384199e+05 2.384500e+05 -5.000000e+04
9.388661e+04 1.123902e+05 -5.000000e+04
5.110323e+04 9.081322e+04 0.000000e+00
8.268218e+04 1.048731e+05 0.000000e+00
-2.393400e+05 2.355274e+05 0.000000e+00
-2.405440e+05 1.958341e+05 -5.000000e+04
1.142611e+05 1.189329e+05 0.000000e+00
1.648796e+05 1.222282e+05 -3.063718e+04
1.553831e+05 1.422222e+05 -5.000000e+04
-2.085686e+05 8.244010e+04 0.000000e+00
-1.668074e+05 6.250164e+04 0.000000e+00
-1.814500e+05 1.010248e+05 0.000000e+00
-2.407250e+05 8.882203e+04 -5.000000e+04
-1.862365e+05 6.839637e+04 -5.000000e+04
1.328343e+03 1.084241e+05 -5.000000e+04
6.690112e+04 1.308470e+05 -5.000000e+04
8.641699e+04 4.417993e+04 -5.000000e+04
9.015180e+04 7.828507e+04 -5.000000e+04
-5.000000e+04 2.110875e+05 0.000000e+00
-5.000000e+04 2.110875e+05 -5.000000e+04
4.956690e+04 2.122437e+05 0.000000e+00
-3.989880e+04 8.273880e+04 0.000000e+00
-3.616399e+04 1.168439e+05 0.000000e+00
3.333333e+04 2.407250e+05 -5.000000e+04
1.277153e+05 1.584744e+05 -5.000000e+04
1.774190e+05 1.470526e+05 0.000000e+00
1.933557e+05 1.360450e+05 -2.906758e+04
1.779257e+05 1.524170e+05 -5.000000e+04
-2.200320e+05 -4.663709e+04 -2.929695e+04
-2.343287e+05 -3.522485e+04 0.000000e+00
-2.703625e+05 1.507686e+05 0.000000e+00
2.398692e+05 1.710792e+05 -5.000000e+04
2.220752e+05 1.510597e+05 -2.862081e+04
2.397255e+05 1.399930e+05 -5.000000e+04
2.405359e+05 1.742632e+05 0.000000e+00
2.245299e+05 1.825159e+05 -2.533224e+04
1.851315e+05 2.146542e+05 0.000000e+00
1.977414e+05 2.065091e+05 -2.430318e+04
1.811538e+05 8.635949e+04 -5.000000e+04
1.834589e+05 1.197429e+05 -5.000000e+04
1.533097e+05 1.064048e+05 -5.000000e+04
-8.942157e+04 2.250976e+05 -2.485581e+04
-6.666667e+04 2.407250e+05 0.000000e+00
-2.025945e+05 -2.109948e+04 0.000000e+00
-2.055113e+05 -3.137086e+04 -5.000000e+04
-1.542434e+05 5.972318e+04 -5.000000e+04
-4.363361e+04 4.863366e+04 0.000000e+00
-7.147775e+04 6.867894e+04 0.000000e+00
-1.521387e+05 -5.830223e+04 -5.000000e+04
2.091881e+05 1.572329e+05 -5.000000e+04
2.089980e+05 1.611125e+05 0.000000e+00
2.119881e+05 1.946749e+05 0.000000e+00
-1.836573e+05 2.096875e+05 -5.000000e+04
-1.534183e+05 1.543868e+05 0.000000e+00
-1.333333e+05 2.407250e+05 -5.000000e+04
-1.836304e+05 2.106403e+05 0.000000e+00
-1.998848e+05 2.409882e+05 -5.000000e+04
-2.007984e+05 2.405741e+05 0.000000e+00
-1.666667e+05 2.407250e+05 -5.000000e+04
-1.666667e+05 2.407250e+05 0.000000e+00
1.000000e+05 2.407250e+05 0.000000e+00
1.166667e+05 2.110875e+05 -5.000000e+04
-1.166667e+05 2.703625e+05 -5.000000e+04
6.087195e+04 1.870660e+05 0.000000e+00
9.008787e+04 1.733604e+05 0.000000e+00
6.795324e+04 1.800893e+05 -5.000000e+04
-8.717761e+04 -2.039840e+04 -4.026041e+04
-7.075941e+04 -2.867895e+04 -5.000000e+04
-1.699494e+05 -7.605757e+03 0.000000e+00
2.096397e+05 1.873617e+05 -5.000000e+04
2.076756e+05 1.323604e+05 -5.000000e+04
-2.703625e+05 1.064202e+05 -5.000000e+04
2.117236e+05 2.186928e+05 -5.000000e+04
2.273796e+05 2.131080e+05 -2.518710e+04
2.186711e+05 2.259031e+05 0.000000e+00
-2.169123e+05 2.702320e+05 -5.000000e+04
-1.812661e+05 1.357516e+05 0.000000e+00
-2.114564e+05 -6.329060e+04 -5.000000e+04
2.413577e+05 2.033496e+05 0.000000e+00
2.398692e+05 2.033094e+05 -5.000000e+04
-6.666667e+04 2.407250e+05 -5.000000e+04
-1.744464e+05 9.759397e+04 -5.000000e+04
-1.570836e+04 1.498101e+05 -5.000000e+04
2.696873e+05 2.193028e+05 0.000000e+00
-1.526578e+05 1.523205e+05 -5.000000e+04
-2.151905e+05 2.120171e+05 0.000000e+00
-8.785785e+04 -5.829938e+04 -5.000000e+04
2.271303e+04 1.610610e+04 -5.000000e+04
2.673883e+04 5.018132e+04 -5.000000e+04
-2.689516e+05 -1.058303e+05 -5.000000e+04
5.483804e+04 3.012007e+04 -5.000000e+04
-2.360902e+05 -9.361715e+04 -5.000000e+04
-1.200000e+05 -6.999960e+04 -5.000000e+04
-1.839963e+05 -5.974976e+04 -5.000000e+04
1.179959e+05 5.823978e+04 -5.000000e+04
1.495749e+05 7.229963e+04 -5.000000e+04
-2.842105e+05 -1.681205e+05 -5.000000e+04
-2.912449e+05 -8.485949e+04 -1.159413e+04
-2.901095e+05 -1.080763e+05 -2.138131e+04
-2.812024e+05 -9.410767e+04 -2.041015e+04
-2.764705e+05 -8.076882e+04 -1.363814e+04
-2.842105e+05 -7.433912e+04 0.000000e+00
2.875105e+05 1.684927e+05 -1.318268e+04
2.858109e+05 1.786517e+05 0.000000e+00
2.865387e+05 1.549152e+05 -2.517059e+04
2.752181e+05 1.650512e+05 -1.293901e+04
2.700215e+05 1.716218e+05 0.000000e+00
2.889334e+05 9.877968e+04 -4.567651e+04
2.715075e+05 9.331806e+04 -5.000000e+04
2.857538e+05 8.385334e+04 -5.000000e+04
2.699643e+05 7.682341e+04 -5.000000e+04
2.725329e+05 9.354550e+04 -4.532936e+04
-1.438715e+05 -6.717387e+04 -3.648846e+04
-1.420860e+05 -5.390548e+04 -2.866414e+04
-1.275520e+05 -6.555861e+04 -3.772608e+04
-1.555437e+05 -7.491136e+04 -3.934717e+04
-1.650484e+05 -5.422857e+04 -2.541015e+04
-1.703965e+05 -6.658551e+04 -3.201792e+04
-1.322096e+05 -7.799441e+04 -4.410152e+04
-1.224054e+05 -7.466644e+04 -4.293073e+04
-1.536439e+05 -5.935131e+04 -2.990520e+04
-1.401374e+05 -8.780316e+04 -4.583204e+04
-1.407451e+05 -1.060617e+05 -5.000000e+04
-1.565772e+05 -9.232899e+04 -4.446832e+04
-1.393850e+05 -8.967413e+04 -5.000000e+04
-1.700387e+05 -9.923069e+04 -5.000000e+04
-1.560720e+05 -1.108400e+05 -5.000000e+04
-1.722167e+05 -1.025006e+05 -4.524124e+04
-1.152632e+05 -8.919454e+04 -5.000000e+04
-1.715272e+05 -8.422436e+04 -3.872650e+04
-1.537774e+05 -8.182213e+04 -4.701975e+04
-1.249556e+05 -9.903180e+04 -5.000000e+04
-5.582213e+04 -5.318586e+04 -4.551693e+04
-7.401121e+04 -5.070734e+04 -4.216911e+04
-5.490957e+04 -3.787761e+04 -4.108938e+04
-6.810114e+04 -3.725938e+04 -3.914758e+04
-9.085504e+04 -3.012487e+04 -2.981919e+04
-7.922611e+04 -3.645987e+04 -3.467876e+04
-8.980220e+04 -4.448613e+04 -3.623079e+04
-6.881305e+04 -2.341745e+04 -3.159065e+04
-5.606114e+04 -2.324583e+04 -3.663715e+04
-6.761314e+04 -6.928457e+04 -5.000000e+04
-8.497454e+04 -1.661213e+04 -2.514692e+04
-7.846378e+04 -3.747478e+04 -4.344908e+04
-8.340261e+04 -7.631450e+04 -5.000000e+04
-9.384170e+04 -5.787332e+04 -4.251865e+04
-1.833702e+05 -4.581085e+04 -1.564064e+04
-1.825463e+05 -3.416516e+04 -1.142349e+04
-1.675569e+05 -4.149732e+04 -1.702024e+04
-1.690509e+05 -3.350072e+04 -1.106150e+04
-1.555622e+05 -4.751896e+04 -2.317862e+04
-1.776250e+05 -5.197078e+04 -2.816521e+04
-1.972688e+05 -4.659334e+04 -1.412388e+04
-1.829734e+05 -6.818045e+04 -3.681691e+04
-1.920741e+05 -5.614132e+04 -2.452043e+04
-1.519671e+05 -3.583619e+04 -1.695395e+04
-8.033019e+04 -6.706872e+03 -1.930677e+04
-9.483144e+04 -3.433755e+03 -1.642102e+04
-8.671228e+04 7.135795e+03 -9.613867e+03
-7.681363e+04 4.915144e+03 -1.655071e+04
-6.435047e+04 -6.451117e+03 -2.753527e+04
-9.950254e+04 -1.657376e+04 -2.001658e+04
-1.053573e+05 -3.031380e+04 -2.530868e+04
-1.028046e+05 7.878222e+01 -8.695066e+03
-1.097930e+05 -1.046132e+04 -1.385601e+04
-1.159736e+05 -2.357302e+04 -1.705489e+04
-2.803918e+05 -1.352396e+05 -4.111649e+04
-2.825664e+05 -1.502928e+05 -4.597146e+04
-2.851951e+05 -1.171693e+05 -3.353961e+04
2.681688e+05 1.492282e+05 -2.152670e+04
2.865163e+05 1.410179e+05 -3.470477e+04
2.674729e+05 1.430982e+05 -3.388392e+04
2.860119e+05 1.114798e+05 -4.087461e+04
2.904859e+05 1.292376e+05 -3.533301e+04
2.706313e+05 1.234327e+05 -5.000000e+04
2.714388e+05 1.237140e+05 -3.663747e+04
2.700458e+05 1.089636e+05 -4.031309e+04
2.843320e+05 1.070370e+05 -4.740787e+04
2.588194e+05 8.412877e+04 -4.657267e+04
2.405769e+05 8.037405e+04 -5.000000e+04
2.544990e+05 7.035141e+04 -5.000000e+04
2.387095e+05 6.332148e+04 -5.000000e+04
2.432726e+05 8.063214e+04 -4.552899e+04
2.089980e+05 6.631420e+04 -5.000000e+04
2.071306e+05 4.926163e+04 -5.000000e+04
2.229200e+05 5.629156e+04 -5.000000e+04
2.110887e+05 6.691258e+04 -4.553143e+04
2.283675e+05 7.182436e+04 -4.641443e+04
1.774190e+05 5.225435e+04 -5.000000e+04
1.755516e+05 3.520178e+04 -5.000000e+04
1.913411e+05 4.223170e+04 -5.000000e+04
1.788463e+05 5.492981e+04 -4.514447e+04
1.961808e+05 5.741900e+04 -4.656025e+04
1.458401e+05 3.819449e+04 -5.000000e+04
1.597621e+05 2.817185e+04 -5.000000e+04
1.651929e+05 4.397959e+04 -4.618836e+04
1.481738e+05 4.060692e+04 -4.490868e+04
1.439727e+05 2.114192e+04 -5.000000e+04
1.142611e+05 2.413464e+04 -5.000000e+04
1.123937e+05 7.082069e+03 -5.000000e+04
1.281832e+05 1.411200e+04 -5.000000e+04
1.165186e+05 2.485249e+04 -4.527109e+04
1.327537e+05 2.910559e+04 -4.618782e+04
9.660425e+04 5.214249e+01 -5.000000e+04
8.268218e+04 1.007479e+04 -5.000000e+04
8.081477e+04 -6.977784e+03 -5.000000e+04
8.448695e+04 1.170469e+04 -4.519670e+04
1.015674e+05 1.556070e+04 -4.624138e+04
5.110323e+04 -3.985067e+03 -5.000000e+04
4.923583e+04 -2.103764e+04 -5.000000e+04
6.502530e+04 -1.400771e+04 -5.000000e+04
5.246094e+04 -2.348174e+03 -4.521413e+04
6.945022e+04 1.114037e+03 -4.654995e+04
3.333828e+04 -2.800922e+04 -5.000000e+04
3.844553e+04 -1.176084e+04 -4.598193e+04
1.930814e+04 -1.792823e+04 -5.000000e+04
2.089891e+04 -1.661622e+04 -4.524480e+04
1.754881e+04 -3.503915e+04 -5.000000e+04
1.418477e+03 -4.179789e+04 -5.000000e+04
6.376720e+03 -2.576299e+04 -4.598425e+04
-1.295252e+04 -3.144571e+04 -5.000000e+04
-1.179350e+04 -3.033785e+04 -4.498275e+04
-1.437100e+04 -4.882781e+04 -5.000000e+04
-2.811041e+04 -4.072589e+04 -4.457021e+04
-3.932636e+04 -4.514288e+04 -4.627073e+04
-4.517413e+04 -4.614979e+04 -5.000000e+04
-3.048180e+04 -5.617985e+04 -5.000000e+04
-4.627127e+04 -6.320978e+04 -5.000000e+04
-1.082038e+05 -6.968057e+04 -4.504638e+04
-9.947368e+04 -8.216461e+04 -5.000000e+04
-1.718615e+05 -1.178699e+05 -5.000000e+04
-1.880496e+05 -1.267452e+05 -5.000000e+04
-2.024150e+05 -1.169813e+05 -5.000000e+04
-2.038391e+05 -1.337752e+05 -5.000000e+04
-1.997104e+05 -1.148666e+05 -4.490749e+04
-1.832053e+05 -1.123717e+05 -4.634446e+04
-2.169649e+05 -1.208816e+05 -4.531563e+04
-2.313223e+05 -1.307563e+05 -4.631059e+04
-2.349635e+05 -1.296369e+05 -5.000000e+04
-2.201133e+05 -1.401029e+05 -5.000000e+04
-2.359028e+05 -1.471329e+05 -5.000000e+04
-2.528803e+05 -1.529158e+05 -5.000000e+04
-2.446750e+05 -1.378355e+05 -4.581767e+04
-2.689185e+05 -1.412027e+05 -5.000000e+04
-2.686698e+05 -1.599457e+05 -5.000000e+04
-2.660507e+05 -1.418840e+05 -4.530992e+04
-2.663400e+05 -9.099223e+04 -2.267629e+04
-2.618052e+05 -8.010099e+04 -1.580688e+04
-2.481739e+05 -9.011727e+04 -2.722528e+04
-2.672504e+05 -6.677178e+04 0.000000e+00
-2.514609e+05 -5.974185e+04 0.000000e+00
-2.474095e+05 -6.725562e+04 -1.374043e+04
-2.418976e+05 -5.744188e+04 -1.004521e+04
-2.303762e+05 -5.924849e+04 -1.707321e+04
-2.355854e+05 -5.252773e+04 0.000000e+00
-2.091879e+05 -5.354068e+04 -1.586232e+04
-2.154024e+05 -6.862282e+04 -2.156289e+04
-2.197960e+05 -4.549780e+04 0.000000e+00
-2.299195e+05 -7.951461e+04 -2.839552e+04
-2.531345e+05 -5.447865e+04 -1.434327e+04
-2.027927e+05 -6.743231e+04 -2.514643e+04
-2.039288e+05 -3.843511e+04 0.000000e+00
-1.881393e+05 -3.140519e+04 0.000000e+00
-1.718168e+05 -2.465833e+04 0.000000e+00
-1.522599e+05 -2.361693e+04 -1.230887e+04
-1.560273e+05 -1.762840e+04 0.000000e+00
-1.452745e+05 -1.956567e+04 -5.101479e+03
-1.369516e+05 -1.863604e+04 -1.125962e+04
-1.402379e+05 -1.059847e+04 0.000000e+00
-1.400817e+05 -3.033142e+04 -1.647265e+04
-1.233957e+05 -1.543709e+04 -1.225357e+04
-1.247752e+05 -2.394215e+04 -1.434832e+04
-1.244484e+05 -3.568547e+03 0.000000e+00
-1.142790e+05 5.941186e+02 -9.926468e+03
-1.086589e+05 3.461379e+03 0.000000e+00
-9.286944e+04 1.049131e+04 0.000000e+00
-1.082369e+05 1.184664e+04 -1.137805e+04
-7.707996e+04 1.752123e+04 0.000000e+00
-7.536412e+04 1.660115e+04 -1.099179e+04
-5.926688e+04 2.026359e+04 -1.315957e+04
-5.803641e+04 9.554929e+03 -1.613874e+04
-6.129049e+04 2.455116e+04 0.000000e+00
-4.464071e+04 1.391522e+04 -2.170599e+04
-4.636292e+04 2.442106e+04 -1.221170e+04
-2.247705e+04 3.321621e+04 -1.663110e+04
-2.327637e+04 2.086534e+04 -1.847154e+04
-4.376873e+04 7.833806e+02 -2.599048e+04
-4.550102e+04 3.158109e+04 0.000000e+00
-2.717976e+04 4.644371e+03 -2.769391e+04
-2.971154e+04 3.861101e+04 0.000000e+00
-4.400489e+03 2.443789e+04 -2.690105e+04
5.471207e+03 3.244100e+04 -2.413464e+04
-1.033210e+04 3.834382e+04 -1.307274e+04
-1.392207e+04 4.564094e+04 0.000000e+00
-1.130363e+04 1.449367e+04 -2.894205e+04
1.867406e+03 5.267087e+04 0.000000e+00
8.215854e+03 4.838960e+04 -1.400112e+04
1.765688e+04 5.970079e+04 0.000000e+00
2.759278e+04 5.406223e+04 -1.535520e+04
4.566503e+04 6.082722e+04 -1.634058e+04
3.344635e+04 6.673072e+04 0.000000e+00
4.370622e+04 4.450915e+04 -2.434791e+04
2.459021e+04 3.545875e+04 -2.802208e+04
6.011092e+04 4.405632e+04 -2.913023e+04
7.064641e+04 5.803549e+04 -2.428920e+04
5.743323e+04 7.016153e+04 -1.240330e+04
4.923583e+04 7.376065e+04 0.000000e+00
7.661189e+04 7.466375e+04 -1.643246e+04
6.502530e+04 8.079057e+04 0.000000e+00
5.169474e+04 7.588526e+04 -1.691319e+04
8.766106e+04 6.031149e+04 -2.623797e+04
1.014476e+05 7.221395e+04 -2.570371e+04
9.080721e+04 8.288043e+04 -1.246151e+04
8.081477e+04 8.782050e+04 0.000000e+00
1.097046e+05 8.908332e+04 -1.719823e+04
9.660425e+04 9.485042e+04 0.000000e+00
8.368726e+04 9.023755e+04 -1.601542e+04
1.198671e+05 7.439406e+04 -2.769721e+04
1.333302e+05 8.542562e+04 -2.531612e+04
1.225141e+05 9.701612e+04 -1.306810e+04
1.372694e+05 1.024467e+05 -1.443890e+04
1.123937e+05 1.018804e+05 0.000000e+00
1.281832e+05 1.089103e+05 0.000000e+00
1.150343e+05 1.039300e+05 -1.633944e+04
1.439727e+05 1.159402e+05 0.000000e+00
1.542224e+05 1.111158e+05 -1.545371e+04
1.686335e+05 1.157821e+05 -1.412773e+04
1.667904e+05 9.732741e+04 -2.529047e+04
1.597621e+05 1.229701e+05 0.000000e+00
1.516177e+05 9.084874e+04 -2.754630e+04
1.755516e+05 1.300001e+05 0.000000e+00
1.828508e+05 1.250902e+05 -1.581079e+04
2.028899e+05 1.293671e+05 -1.590645e+04
1.966858e+05 1.150087e+05 -2.192310e+04
1.826714e+05 1.054088e+05 -2.585752e+04
1.913411e+05 1.370300e+05 0.000000e+00
2.112703e+05 1.191614e+05 -2.403161e+04
2.247120e+05 1.284726e+05 -2.388470e+04
2.152652e+05 1.351160e+05 -1.428560e+04
2.071306e+05 1.440599e+05 0.000000e+00
2.311168e+05 1.449282e+05 -1.495769e+04
2.229200e+05 1.510898e+05 0.000000e+00
2.414609e+05 1.498148e+05 -1.194227e+04
2.386890e+05 1.576652e+05 0.000000e+00
2.415467e+05 1.340110e+05 -2.508665e+04
2.525103e+05 1.450830e+05 -2.261936e+04
2.567232e+05 1.612086e+05 -1.392802e+04
2.544785e+05 1.646951e+05 0.000000e+00
-1.139177e+05 -6.005634e+04 -3.677787e+04
-1.258410e+05 -4.813523e+04 -3.021472e+04
-1.083914e+05 -5.221481e+04 -3.865278e+04
-1.159328e+05 -4.098991e+04 -2.973441e+04
-1.032946e+05 -4.227429e+04 -3.354725e+04
-1.271069e+05 -3.322807e+04 -2.251336e+04
-1.151391e+05 -3.346280e+04 -2.166055e+04
-1.394157e+05 -4.019092e+04 -2.078435e+04
-1.440896e+05 -3.292554e+04 -2.786238e+04
-2.662637e+05 -1.076005e+05 -3.533657e+04
-2.484553e+05 -1.044377e+05 -3.280584e+04
-2.471995e+05 -1.209135e+05 -4.381223e+04
-2.667550e+05 -1.250303e+05 -4.060210e+04
3.578830e+04 3.692287e+04 -3.998049e+04
5.087629e+04 2.914896e+04 -3.516463e+04
3.654252e+04 2.044920e+04 -3.589223e+04
1.898704e+04 1.514527e+04 -3.576301e+04
3.592426e+04 2.889311e+03 -4.161263e+04
5.045165e+04 1.207973e+04 -4.153669e+04
6.919741e+04 3.399151e+04 -3.499330e+04
6.683877e+04 1.645572e+04 -4.287573e+04
6.547841e+04 5.120460e+04 -3.980272e+04
8.130455e+04 4.379846e+04 -3.447928e+04
9.729729e+04 4.953667e+04 -3.246196e+04
8.285069e+04 2.619180e+04 -4.123647e+04
9.928984e+04 3.164263e+04 -4.331795e+04
9.706434e+04 6.201142e+04 -3.527635e+04
1.115501e+05 5.498103e+04 -3.747263e+04
1.317924e+05 6.218120e+04 -3.544038e+04
1.302753e+05 4.393797e+04 -4.155538e+04
1.162664e+05 3.928852e+04 -4.109300e+04
1.278920e+05 7.969142e+04 -3.987332e+04
1.459383e+05 7.094460e+04 -3.542201e+04
1.616586e+05 7.690090e+04 -3.536140e+04
1.623252e+05 5.855314e+04 -4.174170e+04
1.459036e+05 5.485322e+04 -4.103444e+04
1.775741e+05 8.565939e+04 -3.451005e+04
1.914478e+05 9.252514e+04 -3.274794e+04
1.753070e+05 6.844482e+04 -4.057926e+04
1.624361e+05 9.262196e+04 -4.000508e+04
1.946859e+05 7.500059e+04 -4.425530e+04
1.932333e+05 1.068668e+05 -3.486085e+04
2.079131e+05 9.697308e+04 -3.736528e+04
2.127328e+05 1.004193e+05 -5.000000e+04
2.059650e+05 1.115045e+05 -3.109711e+04
2.243637e+05 1.015574e+05 -3.519141e+04
2.216499e+05 1.156527e+05 -3.417025e+04
2.270805e+05 8.795512e+04 -4.371107e+04
2.112222e+05 8.153047e+04 -4.135963e+04
2.423412e+05 1.131888e+05 -5.000000e+04
2.566848e+05 9.886837e+04 -4.332572e+04
2.390116e+05 1.096947e+05 -3.839492e+04
2.428632e+05 9.367932e+04 -4.142112e+04
2.574696e+05 1.149676e+05 -3.685524e+04
2.532321e+05 1.291705e+05 -3.529201e+04
2.358077e+05 1.227840e+05 -3.163606e+04
2.246149e+05 1.340124e+05 -3.834366e+04
2.613955e+05 1.363242e+05 -4.397240e+04
-3.132069e+03 2.439036e+04 -4.035593e+04
-1.233874e+04 -1.539391e+03 -3.473070e+04
4.264376e+03 5.692228e+03 -3.551136e+04
2.950820e+03 -1.149620e+04 -4.143888e+04
1.917361e+04 -1.208475e+03 -4.115216e+04
-4.156591e+04 -1.279035e+04 -3.539025e+04
-2.495633e+04 -8.958901e+03 -3.437116e+04
-2.462866e+04 -2.150192e+04 -3.968266e+04
-1.262339e+04 -1.552829e+04 -4.038106e+04
-2.716391e+04 1.225343e+03 -4.091856e+04
2.630755e+05 1.066718e+05 -4.681247e+04
-3.782885e+04 -2.995072e+04 -4.243458e+04
1.610317e+05 5.435579e+04 -4.723367e+04
1.293872e+05 4.021667e+04 -4.712517e+04
7.520605e+04 2.351102e+04 -4.711414e+04
3.425885e+04 -1.962082e+03 -4.735797e+04
1.430350e+03 -1.606636e+04 -4.737445e+04
-6.068501e+04 -4.311805e+04 -4.691398e+04
-2.122253e+05 -7.624259e+04 -3.296213e+04
-1.960021e+05 -7.556327e+04 -3.307784e+04
-2.018152e+05 -8.914874e+04 -5.000000e+04
-2.048966e+05 -8.996405e+04 -3.699587e+04
-1.987246e+05 -1.009620e+05 -4.011388e+04
-1.884929e+05 -8.702564e+04 -3.834152e+04
-2.340016e+05 -9.979533e+04 -3.718087e+04
-2.195208e+05 -9.063646e+04 -3.236300e+04
-2.132002e+05 -1.045700e+05 -4.133592e+04
-1.861159e+05 -1.009839e+05 -4.179989e+04
-1.887224e+05 -1.035265e+05 -4.750931e+04
-2.290003e+05 -1.151450e+05 -4.155641e+04
-1.714612e+05 -7.020761e+04 -4.499974e+04
-1.010690e+05 -3.241376e+04 -4.050180e+04
-1.489499e+05 -4.885770e+04 -3.587273e+04
-2.921053e+05 -1.892336e+05 -5.000000e+04
-2.842105e+05 -1.857187e+05 -5.000000e+04
-2.921053e+05 -1.804345e+05 -5.000000e+04
-2.921053e+05 -1.813338e+05 -4.583333e+04
-2.946743e+05 -9.128070e+04 -4.559766e+03
-2.924531e+05 -1.017339e+05 -3.767804e+03
-2.933166e+05 -1.034212e+05 -8.715932e+03
-2.904582e+05 -9.666419e+04 -7.675633e+03
-2.849063e+05 -1.055174e+05 -7.535608e+03
-2.924531e+05 -1.096337e+05 -7.934471e+03
-2.921053e+05 -9.443535e+04 0.000000e+00
-2.842105e+05 -9.092038e+04 0.000000e+00
-2.845584e+05 -9.821889e+04 -3.767804e+03
-2.860599e+05 -8.962424e+04 -6.960145e+03
-2.921053e+05 -8.614472e+04 0.000000e+00
2.929055e+05 1.739193e+05 0.000000e+00
2.943758e+05 1.666694e+05 -5.296143e+03
2.928309e+05 1.609993e+05 -1.082346e+04
2.842105e+05 1.621570e+05 0.000000e+00
2.921053e+05 1.656719e+05 0.000000e+00
2.921053e+05 1.577721e+05 -4.166667e+03
2.884159e+05 1.650619e+05 -5.386295e+03
2.850107e+05 1.704043e+05 0.000000e+00
2.946606e+05 8.577643e+04 -4.646602e+04
2.928769e+05 7.912098e+04 -5.000000e+04
2.849821e+05 7.560602e+04 -5.000000e+04
2.871281e+05 8.414356e+04 -4.557203e+04
2.842105e+05 6.735869e+04 -5.000000e+04
2.921053e+05 7.087365e+04 -5.000000e+04
2.845516e+05 7.481967e+04 -4.614491e+04
2.924464e+05 7.833463e+04 -4.614491e+04
2.848927e+05 8.228065e+04 -4.228983e+04
2.924464e+05 8.623449e+04 -4.197825e+04
-1.493375e+05 -8.775002e+04 -3.000000e+04
-1.487615e+05 -8.092905e+04 -2.653765e+04
-1.427082e+05 -8.479848e+04 -3.000000e+04
-1.462675e+05 -7.774609e+04 -3.240133e+04
-1.481854e+05 -7.410809e+04 -2.307531e+04
-1.421322e+05 -7.797751e+04 -2.653765e+04
-1.440134e+05 -7.080571e+04 -2.869521e+04
-1.360790e+05 -8.184694e+04 -3.000000e+04
-1.383873e+05 -7.464032e+04 -3.355895e+04
-1.530689e+05 -8.200876e+04 -3.326532e+04
-1.596595e+05 -7.058524e+04 -2.735029e+04
-1.606595e+05 -7.950637e+04 -2.941602e+04
-1.547800e+05 -7.832338e+04 -2.375000e+04
-1.574379e+05 -8.605907e+04 -2.720593e+04
-1.602225e+05 -6.889674e+04 -1.750000e+04
-1.628804e+05 -7.663243e+04 -2.095593e+04
-1.655383e+05 -8.436813e+04 -2.441186e+04
-1.321161e+05 -8.049913e+04 -3.782519e+04
-1.415649e+05 -8.186161e+04 -3.680606e+04
-1.515885e+05 -7.400917e+04 -2.941780e+04
-1.475294e+05 -9.642484e+04 -3.500000e+04
-1.499822e+05 -1.018214e+05 -4.355268e+04
-1.428688e+05 -9.699592e+04 -4.266774e+04
-1.457214e+05 -1.050997e+05 -4.000000e+04
-1.436310e+05 -8.784473e+04 -3.875759e+04
-1.513098e+05 -9.140053e+04 -3.765833e+04
-1.525295e+05 -1.012919e+05 -3.639288e+04
-1.543376e+05 -9.261705e+04 -3.139288e+04
-1.588308e+05 -9.458492e+04 -3.743981e+04
-1.593377e+05 -9.748409e+04 -3.278577e+04
-1.323080e+05 -8.846184e+04 -3.998357e+04
-1.396347e+05 -9.290988e+04 -3.500000e+04
-1.299319e+05 -9.806974e+04 -4.000000e+04
-1.330054e+05 -8.995834e+04 -3.500000e+04
-1.542039e+05 -7.150241e+04 -2.028765e+04
-1.591360e+05 -8.666308e+04 -3.365964e+04
-1.624380e+05 -9.092611e+04 -2.859881e+04
-1.508100e+05 -8.606536e+04 -4.075846e+04
-1.330228e+05 -9.471123e+04 -4.368429e+04
-1.378266e+05 -1.015847e+05 -4.000000e+04
-6.269735e+04 -5.154288e+04 -3.124873e+04
-6.224035e+04 -5.251501e+04 -3.686626e+04
-6.302402e+04 -4.531646e+04 -3.405104e+04
-5.560835e+04 -5.075420e+04 -3.249746e+04
-6.856539e+04 -4.279738e+04 -3.222671e+04
-7.084498e+04 -5.146829e+04 -3.521813e+04
-6.978636e+04 -5.233156e+04 -3.000000e+04
-7.566966e+04 -4.978090e+04 -2.727311e+04
-7.984829e+04 -4.258934e+04 -2.816115e+04
-7.853261e+04 -4.871672e+04 -3.192049e+04
-8.155297e+04 -4.723023e+04 -2.454623e+04
-7.440906e+04 -4.411859e+04 -3.055463e+04
-6.530647e+04 -4.383099e+04 -2.656850e+04
-6.312424e+04 -3.637710e+04 -3.212067e+04
-7.041243e+04 -3.578820e+04 -2.847846e+04
-6.082659e+04 -3.533041e+04 -2.313700e+04
-5.857739e+04 -6.630067e+04 -4.000000e+04
-5.709287e+04 -5.852743e+04 -3.624873e+04
-6.447058e+04 -5.976189e+04 -4.139169e+04
-6.418187e+04 -5.931611e+04 -3.500000e+04
-7.074895e+04 -3.440435e+04 -2.031850e+04
-7.522883e+04 -4.290492e+04 -2.375000e+04
-8.067130e+04 -3.347828e+04 -1.750000e+04
-7.859471e+04 -3.565781e+04 -2.580518e+04
-7.272325e+04 -4.306110e+04 -3.627076e+04
-6.647213e+04 -6.981563e+04 -4.000000e+04
-7.380132e+04 -6.322676e+04 -3.986898e+04
-7.436686e+04 -7.333059e+04 -4.000000e+04
-7.207661e+04 -6.283108e+04 -3.500000e+04
-5.821747e+04 -4.304231e+04 -2.781723e+04
-8.040605e+04 -5.517952e+04 -3.621300e+04
-8.304488e+04 -5.823464e+04 -3.000000e+04
-7.641562e+04 -5.528310e+04 -3.000000e+04
-8.229893e+04 -5.273243e+04 -2.727311e+04
-7.870587e+04 -6.578262e+04 -3.500000e+04
-8.111214e+04 -4.035426e+04 -2.102311e+04
-1.640357e+05 -6.207105e+04 -2.055792e+04
-1.683371e+05 -5.348444e+04 -1.458683e+04
-1.709966e+05 -5.906852e+04 -1.787214e+04
-1.656649e+05 -5.947010e+04 -1.125000e+04
-1.683228e+05 -6.720579e+04 -1.470593e+04
-1.711074e+05 -5.004346e+04 -5.000000e+03
-1.737653e+05 -5.777915e+04 -8.455930e+03
-1.764232e+05 -6.551485e+04 -1.191186e+04
-1.625529e+05 -5.577960e+04 -1.585998e+04
-1.650889e+05 -5.264913e+04 -7.787654e+03
-1.596464e+05 -6.207577e+04 -1.403765e+04
-1.590704e+05 -5.525481e+04 -1.057531e+04
-1.717516e+05 -4.796032e+04 -3.750000e+03
-1.698483e+05 -4.269567e+04 -9.040399e+03
-1.784181e+05 -4.495482e+04 -8.710303e+03
-1.723958e+05 -4.587718e+04 -2.500000e+03
-1.773131e+05 -4.964070e+04 -9.345548e+03
-1.695265e+05 -4.700980e+04 -1.046383e+04
-1.634379e+05 -4.956610e+04 -1.284332e+04
-1.742690e+05 -5.162054e+04 -1.630788e+04
-1.802905e+05 -4.939214e+04 -2.500000e+03
-1.796463e+05 -5.147528e+04 -3.750000e+03
-1.881853e+05 -5.290710e+04 -2.500000e+03
-1.854383e+05 -5.070073e+04 -8.525587e+03
-1.772813e+05 -6.060490e+04 -2.154733e+04
-1.806992e+05 -5.513024e+04 -1.431890e+04
-1.578489e+05 -4.414038e+04 -5.000000e+03
-1.584596e+05 -4.969759e+04 -7.787654e+03
-1.644781e+05 -4.709192e+04 -5.000000e+03
-1.613105e+05 -4.389563e+04 -1.082150e+04
-1.823042e+05 -5.921098e+04 -7.205930e+03
-1.651223e+05 -4.500878e+04 -3.750000e+03
-7.171153e+04 -1.647713e+04 -1.063700e+04
-7.619142e+04 -2.497771e+04 -1.406850e+04
-8.163389e+04 -1.555107e+04 -7.818502e+03
-7.649081e+04 -1.911904e+04 -1.940647e+04
-8.611378e+04 -2.405164e+04 -1.125000e+04
-8.283791e+04 -2.595893e+04 -2.115424e+04
-9.155625e+04 -1.462500e+04 -5.000000e+03
-8.589334e+04 -1.695322e+04 -1.450029e+04
-9.199708e+04 -2.150098e+04 -8.523114e+03
-8.655461e+04 -3.092762e+04 -1.477311e+04
-9.243792e+04 -2.837695e+04 -1.204623e+04
-8.987309e+04 -2.241945e+04 -1.664294e+04
-8.440363e+04 -1.191063e+04 -1.102837e+04
-9.154402e+04 -1.048680e+04 -1.173403e+04
-8.840403e+04 -1.085159e+04 -3.750000e+03
-8.156501e+04 -6.635102e+03 -1.125141e+04
-8.917610e+04 -5.186483e+03 -8.754966e+03
-8.525181e+04 -7.078170e+03 -2.500000e+03
-7.848167e+04 -1.177765e+04 -6.568502e+03
-7.777521e+04 -1.280495e+04 -1.429426e+04
-9.409586e+04 -1.677293e+04 -1.210888e+04
-9.583592e+04 -2.228503e+04 -1.376773e+04
-9.314655e+04 -1.059313e+04 -2.500000e+03
-9.629877e+04 -1.436655e+04 -3.750000e+03
-1.010413e+05 -1.410810e+04 -2.500000e+03
-9.847434e+04 -9.079791e+03 -8.316983e+03
-1.029280e+05 -1.731809e+04 -3.750000e+03
-9.862586e+04 -1.406471e+04 -1.002445e+04
-9.818551e+04 -1.757654e+04 -5.000000e+03
-1.048148e+05 -2.052808e+04 -5.000000e+03
-1.018925e+05 -1.937287e+04 -1.206474e+04
-9.862635e+04 -2.445251e+04 -8.523114e+03
-2.921053e+05 -1.734339e+05 -4.166667e+04
-2.842105e+05 -1.699190e+05 -4.166667e+04
-2.907488e+05 -1.645450e+05 -4.302195e+04
-2.921053e+05 -1.655341e+05 -3.750000e+04
-2.922691e+05 -1.569250e+05 -3.292081e+04
-2.919709e+05 -1.556130e+05 -3.736976e+04
-2.898289e+05 -1.461473e+05 -3.592627e+04
-2.845382e+05 -1.527009e+05 -3.250829e+04
-2.843744e+05 -1.613099e+05 -3.708748e+04
-2.922691e+05 -1.490252e+05 -2.875415e+04
-2.924531e+05 -1.175336e+05 -1.210114e+04
-2.849063e+05 -1.213171e+05 -1.586894e+04
-2.924531e+05 -1.254334e+05 -1.626780e+04
-2.936469e+05 -1.199436e+05 -1.741613e+04
-2.921358e+05 -1.331294e+05 -2.858425e+04
-2.922691e+05 -1.332255e+05 -2.042081e+04
-2.922691e+05 -1.411253e+05 -2.458748e+04
-2.845382e+05 -1.369012e+05 -2.417496e+04
-2.920954e+05 -1.242149e+05 -2.386057e+04
-2.847222e+05 -1.291091e+05 -2.002195e+04
2.939972e+05 1.527829e+05 -1.546797e+04
2.922054e+05 1.444270e+05 -2.036689e+04
2.842105e+05 1.463573e+05 -8.333333e+03
2.921053e+05 1.498722e+05 -8.333333e+03
2.921053e+05 1.419724e+05 -1.250000e+04
2.858414e+05 1.514905e+05 -1.549295e+04
2.827651e+05 1.303865e+05 -1.641747e+04
2.834878e+05 1.383719e+05 -1.237540e+04
2.913826e+05 1.339870e+05 -1.654207e+04
2.830970e+05 1.424735e+05 -1.941999e+04
2.929858e+05 1.383271e+05 -2.586694e+04
2.855516e+05 1.379367e+05 -2.434442e+04
2.938649e+05 1.254219e+05 -2.793030e+04
2.948454e+05 1.323687e+05 -2.520237e+04
2.876545e+05 1.304875e+05 -2.549814e+04
2.913826e+05 1.260871e+05 -2.070873e+04
2.935253e+05 9.251492e+04 -4.374851e+04
2.948710e+05 1.007297e+05 -3.889553e+04
2.881347e+05 9.898113e+04 -3.908866e+04
2.924464e+05 9.413435e+04 -3.781158e+04
2.924464e+05 1.020342e+05 -3.364491e+04
2.848927e+05 9.808036e+04 -3.395650e+04
2.931002e+05 1.178504e+05 -3.309703e+04
2.918930e+05 1.075042e+05 -3.583495e+04
2.839253e+05 1.128909e+05 -3.337247e+04
2.913826e+05 1.181873e+05 -2.487540e+04
2.827651e+05 1.145868e+05 -2.475080e+04
2.913826e+05 1.102874e+05 -2.904207e+04
2.857576e+05 1.049040e+05 -3.569928e+04
2.838289e+05 1.063336e+05 -2.935365e+04
2.934335e+05 1.048978e+05 -4.057724e+04
2.691927e+05 6.857609e+04 -5.000000e+04
2.770874e+05 7.209105e+04 -5.000000e+04
2.717583e+05 7.701618e+04 -4.569961e+04
2.684211e+05 6.032876e+04 -5.000000e+04
2.763158e+05 6.384373e+04 -5.000000e+04
2.687622e+05 6.778974e+04 -4.614491e+04
2.766569e+05 7.130471e+04 -4.614491e+04
2.691033e+05 7.525072e+04 -4.228983e+04
2.641172e+05 7.191614e+04 -4.659386e+04
2.614600e+05 6.534009e+04 -5.000000e+04
2.535653e+05 6.182512e+04 -5.000000e+04
2.562700e+05 7.053625e+04 -4.555844e+04
2.526316e+05 5.329884e+04 -5.000000e+04
2.605263e+05 5.681380e+04 -5.000000e+04
2.533010e+05 6.120937e+04 -4.598490e+04
2.611957e+05 6.472433e+04 -4.598490e+04
2.539704e+05 6.911989e+04 -4.196981e+04
2.615368e+05 7.218531e+04 -4.212982e+04
2.377758e+05 5.479520e+04 -5.000000e+04
2.456705e+05 5.831016e+04 -5.000000e+04
2.406857e+05 6.364481e+04 -4.552086e+04
2.368421e+05 4.626891e+04 -5.000000e+04
2.447368e+05 4.978387e+04 -5.000000e+04
2.375115e+05 5.417944e+04 -4.598490e+04
2.454063e+05 5.769440e+04 -4.598490e+04
2.381809e+05 6.208997e+04 -4.196981e+04
2.219863e+05 4.776527e+04 -5.000000e+04
2.298811e+05 5.128023e+04 -5.000000e+04
2.248294e+05 5.675689e+04 -4.547235e+04
2.210526e+05 3.923898e+04 -5.000000e+04
2.289474e+05 4.275395e+04 -5.000000e+04
2.218086e+05 4.718981e+04 -4.598397e+04
2.297033e+05 5.070477e+04 -4.598397e+04
2.225646e+05 5.514064e+04 -4.196795e+04
2.328526e+05 5.829875e+04 -4.650965e+04
2.303728e+05 5.861530e+04 -4.196888e+04
2.061969e+05 4.073534e+04 -5.000000e+04
2.140916e+05 4.425031e+04 -5.000000e+04
2.091557e+05 4.965701e+04 -4.552914e+04
2.052632e+05 3.220906e+04 -5.000000e+04
2.131579e+05 3.572402e+04 -5.000000e+04
2.060191e+05 4.015989e+04 -4.598397e+04
2.139139e+05 4.367485e+04 -4.598397e+04
2.067751e+05 4.811071e+04 -4.196795e+04
1.904074e+05 3.370542e+04 -5.000000e+04
1.983021e+05 3.722038e+04 -5.000000e+04
1.931903e+05 4.277823e+04 -4.546379e+04
1.894737e+05 2.517913e+04 -5.000000e+04
1.973684e+05 2.869409e+04 -5.000000e+04
1.902411e+05 3.313530e+04 -4.598385e+04
1.981358e+05 3.665027e+04 -4.598385e+04
1.910085e+05 4.109147e+04 -4.196769e+04
2.012759e+05 4.427827e+04 -4.649583e+04
1.988918e+05 4.460109e+04 -4.196782e+04
1.746179e+05 2.667549e+04 -5.000000e+04
1.825127e+05 3.019045e+04 -5.000000e+04
1.763308e+05 3.587291e+04 -4.569231e+04
1.736842e+05 1.814920e+04 -5.000000e+04
1.815789e+05 2.166417e+04 -5.000000e+04
1.744516e+05 2.610538e+04 -4.598385e+04
1.823464e+05 2.962034e+04 -4.598385e+04
1.752191e+05 3.406155e+04 -4.196769e+04
1.667232e+05 2.316053e+04 -5.000000e+04
1.696406e+05 3.015031e+04 -4.624540e+04
1.606159e+05 2.922322e+04 -4.566732e+04
1.665581e+05 2.259100e+04 -4.598383e+04
1.673256e+05 3.054717e+04 -4.196768e+04
1.594321e+05 2.703279e+04 -4.196766e+04
1.588284e+05 1.964556e+04 -5.000000e+04
1.578947e+05 1.111928e+04 -5.000000e+04
1.657895e+05 1.463424e+04 -5.000000e+04
1.586634e+05 1.907604e+04 -4.598383e+04
1.430390e+05 1.261564e+04 -5.000000e+04
1.509337e+05 1.613060e+04 -5.000000e+04
1.454397e+05 1.961037e+04 -4.630515e+04
1.421053e+05 4.089352e+03 -5.000000e+04
1.500000e+05 7.604315e+03 -5.000000e+04
1.428739e+05 1.204611e+04 -4.598383e+04
1.507687e+05 1.556107e+04 -4.598383e+04
1.436426e+05 2.000287e+04 -4.196766e+04
1.272495e+05 5.585710e+03 -5.000000e+04
1.351442e+05 9.100674e+03 -5.000000e+04
1.301759e+05 1.453047e+04 -4.550559e+04
1.263158e+05 -2.940575e+03 -5.000000e+04
1.342105e+05 5.743884e+02 -5.000000e+04
1.270844e+05 5.016218e+03 -4.598378e+04
1.349791e+05 8.531182e+03 -4.598378e+04
1.278529e+05 1.297301e+04 -4.196757e+04
1.381308e+05 1.595955e+04 -4.655239e+04
1.357478e+05 1.648794e+04 -4.196761e+04
1.114600e+05 -1.444216e+03 -5.000000e+04
1.193548e+05 2.070747e+03 -5.000000e+04
1.144248e+05 7.482591e+03 -4.550956e+04
1.105263e+05 -9.970501e+03 -5.000000e+04
1.184211e+05 -6.455538e+03 -5.000000e+04
1.112949e+05 -2.013708e+03 -4.598378e+04
1.191896e+05 1.501255e+03 -4.598378e+04
1.120634e+05 5.943085e+03 -4.196757e+04
1.035653e+05 -4.959179e+03 -5.000000e+04
1.026316e+05 -1.348546e+04 -5.000000e+04
1.033987e+05 -5.528589e+03 -4.598341e+04
9.567054e+04 -8.474143e+03 -5.000000e+04
9.852716e+04 5.794361e+02 -4.543671e+04
9.473684e+04 -1.700043e+04 -5.000000e+04
9.550397e+04 -9.043553e+03 -4.598341e+04
9.627111e+04 -1.086677e+03 -4.196681e+04
1.065552e+05 2.111149e+03 -4.649700e+04
1.041673e+05 2.428204e+03 -4.196719e+04
8.777581e+04 -1.198911e+04 -5.000000e+04
8.684211e+04 -2.051539e+04 -5.000000e+04
8.760924e+04 -1.255852e+04 -4.598341e+04
7.988107e+04 -1.550407e+04 -5.000000e+04
8.285963e+04 -6.603514e+03 -4.553008e+04
7.894737e+04 -2.403035e+04 -5.000000e+04
7.971450e+04 -1.607348e+04 -4.598341e+04
8.048163e+04 -8.116604e+03 -4.196681e+04
6.409160e+04 -2.253400e+04 -5.000000e+04
7.198633e+04 -1.901903e+04 -5.000000e+04
6.690696e+04 -1.351611e+04 -4.548967e+04
6.315789e+04 -3.106028e+04 -5.000000e+04
7.105263e+04 -2.754532e+04 -5.000000e+04
6.392638e+04 -2.310411e+04 -4.598409e+04
7.182112e+04 -1.958915e+04 -4.598409e+04
6.469486e+04 -1.514794e+04 -4.196819e+04
7.495758e+04 -1.196549e+04 -4.650010e+04
7.258825e+04 -1.163227e+04 -4.196750e+04
4.830212e+04 -2.956392e+04 -5.000000e+04
5.619686e+04 -2.604896e+04 -5.000000e+04
5.126414e+04 -2.056632e+04 -4.552348e+04
4.736842e+04 -3.809021e+04 -5.000000e+04
5.526316e+04 -3.457524e+04 -5.000000e+04
4.813691e+04 -3.013404e+04 -4.598409e+04
5.603164e+04 -2.661907e+04 -4.598409e+04
4.890539e+04 -2.217786e+04 -4.196819e+04
4.035335e+04 -3.304971e+04 -5.000000e+04
4.024066e+04 -3.364855e+04 -4.598350e+04
4.326977e+04 -2.593842e+04 -4.643896e+04
4.100915e+04 -2.569238e+04 -4.196760e+04
3.425091e+04 -2.719349e+04 -4.564001e+04
3.311290e+04 -2.920689e+04 -4.196701e+04
3.947368e+04 -4.160517e+04 -5.000000e+04
3.245861e+04 -3.656468e+04 -5.000000e+04
3.157895e+04 -4.512013e+04 -5.000000e+04
3.234593e+04 -3.716351e+04 -4.598350e+04
2.456388e+04 -4.007964e+04 -5.000000e+04
2.368421e+04 -4.863510e+04 -5.000000e+04
2.445119e+04 -4.067848e+04 -4.598350e+04
1.666914e+04 -4.359460e+04 -5.000000e+04
1.936153e+04 -3.458407e+04 -4.544426e+04
1.578947e+04 -5.215006e+04 -5.000000e+04
1.655645e+04 -4.419344e+04 -4.598350e+04
1.732343e+04 -3.623682e+04 -4.196701e+04
8.603975e+03 -4.697397e+04 -5.000000e+04
8.670640e+03 -4.768738e+04 -4.597451e+04
1.156099e+04 -3.992023e+04 -4.642206e+04
9.437618e+03 -3.973076e+04 -4.195801e+04
2.456403e+03 -4.114228e+04 -4.563089e+04
1.551807e+03 -4.322469e+04 -4.194902e+04
7.894737e+03 -5.566502e+04 -5.000000e+04
7.092383e+02 -5.048894e+04 -5.000000e+04
0.000000e+00 -5.917999e+04 -5.000000e+04
7.759035e+02 -5.120234e+04 -4.597451e+04
-7.185499e+03 -5.400390e+04 -5.000000e+04
-7.894737e+03 -6.269495e+04 -5.000000e+04
-7.118833e+03 -5.471730e+04 -4.597451e+04
-1.508024e+04 -5.751886e+04 -5.000000e+04
-1.340060e+04 -4.911713e+04 -4.575027e+04
-1.578947e+04 -6.620991e+04 -5.000000e+04
-1.501357e+04 -5.823227e+04 -4.597451e+04
-1.423767e+04 -5.025462e+04 -4.194902e+04
-2.219969e+04 -6.195165e+04 -4.624873e+04
-2.332942e+04 -5.218086e+04 -4.558045e+04
-2.947952e+04 -5.752041e+04 -4.661655e+04
-2.860990e+04 -5.769338e+04 -4.249746e+04
-2.313564e+04 -6.119488e+04 -5.000000e+04
-2.368421e+04 -6.972488e+04 -5.000000e+04
-3.103037e+04 -6.470985e+04 -5.000000e+04
-3.157895e+04 -7.323984e+04 -5.000000e+04
-3.009443e+04 -6.546661e+04 -4.624873e+04
-2.142379e+04 -5.397400e+04 -4.222324e+04
-4.736842e+04 -8.026977e+04 -5.000000e+04
-4.588390e+04 -7.249654e+04 -4.624873e+04
-5.749078e+04 -7.477717e+04 -5.000000e+04
-5.297291e+04 -7.328522e+04 -4.500000e+04
-4.439938e+04 -6.472331e+04 -4.249746e+04
-5.114598e+04 -6.723794e+04 -4.628209e+04
-5.148838e+04 -6.551199e+04 -4.124873e+04
-5.995324e+04 -6.737916e+04 -4.448472e+04
-5.526316e+04 -8.378473e+04 -5.000000e+04
-6.538552e+04 -7.829213e+04 -5.000000e+04
-6.315789e+04 -8.729969e+04 -5.000000e+04
-6.086764e+04 -7.680018e+04 -4.500000e+04
-3.892511e+04 -6.822481e+04 -5.000000e+04
-3.947368e+04 -7.675480e+04 -5.000000e+04
-3.798916e+04 -6.898157e+04 -4.624873e+04
-4.681985e+04 -7.173977e+04 -5.000000e+04
-4.262749e+04 -6.449572e+04 -4.695584e+04
-7.328025e+04 -8.180710e+04 -5.000000e+04
-7.105263e+04 -9.081466e+04 -5.000000e+04
-6.876238e+04 -8.031514e+04 -4.500000e+04
-8.117499e+04 -8.532206e+04 -5.000000e+04
-7.608395e+04 -7.414905e+04 -4.569312e+04
-7.894737e+04 -9.432962e+04 -5.000000e+04
-7.665712e+04 -8.383011e+04 -4.500000e+04
-8.500832e+04 -7.597649e+04 -4.413302e+04
-8.762539e+04 -7.923367e+04 -4.000000e+04
-8.328638e+04 -8.678164e+04 -4.500000e+04
-8.099613e+04 -7.628213e+04 -4.000000e+04
-9.115926e+04 -8.281335e+04 -4.570323e+04
-8.921053e+04 -8.824712e+04 -5.000000e+04
-8.684211e+04 -9.784458e+04 -5.000000e+04
-9.710526e+04 -9.176208e+04 -5.000000e+04
-9.473684e+04 -1.013595e+05 -5.000000e+04
-9.118111e+04 -9.029661e+04 -4.500000e+04
-1.227360e+05 -9.300719e+04 -4.387932e+04
-1.128947e+05 -9.879201e+04 -5.000000e+04
-1.146156e+05 -8.855563e+04 -4.402261e+04
-1.202291e+05 -1.032296e+05 -4.500000e+04
-1.233026e+05 -9.511821e+04 -4.000000e+04
-1.105263e+05 -1.083895e+05 -5.000000e+04
-1.135999e+05 -1.002781e+05 -4.500000e+04
-1.166734e+05 -9.216667e+04 -4.000000e+04
-1.177410e+05 -1.037106e+05 -5.000000e+04
-1.184211e+05 -1.119044e+05 -5.000000e+04
-1.256357e+05 -1.072256e+05 -5.000000e+04
-1.246113e+05 -9.988520e+04 -4.622242e+04
-1.263158e+05 -1.154194e+05 -5.000000e+04
-1.281238e+05 -1.067446e+05 -4.500000e+04
-1.050000e+05 -9.527704e+04 -5.000000e+04
-1.026316e+05 -1.048745e+05 -5.000000e+04
-9.907585e+04 -9.381157e+04 -4.500000e+04
-1.066623e+05 -8.972158e+04 -4.575663e+04
-1.069706e+05 -9.732653e+04 -4.500000e+04
-1.034149e+05 -8.626359e+04 -4.000000e+04
-1.100441e+05 -8.921513e+04 -4.000000e+04
-1.439133e+05 -1.137745e+05 -4.500000e+04
-1.412251e+05 -1.064116e+05 -4.540602e+04
-1.480586e+05 -1.098978e+05 -4.621939e+04
-1.490886e+05 -1.166447e+05 -5.000000e+04
-1.414252e+05 -1.142555e+05 -5.000000e+04
-1.421053e+05 -1.224493e+05 -5.000000e+04
-1.489134e+05 -1.186415e+05 -4.639288e+04
-1.507215e+05 -1.099667e+05 -4.139288e+04
-1.560766e+05 -1.112029e+05 -4.585958e+04
-1.557215e+05 -1.148337e+05 -4.278577e+04
-1.335305e+05 -1.107406e+05 -5.000000e+04
-1.342105e+05 -1.189344e+05 -5.000000e+04
-1.360186e+05 -1.102595e+05 -4.500000e+04
-1.500000e+05 -1.259643e+05 -5.000000e+04
-1.569834e+05 -1.201596e+05 -5.000000e+04
-1.578947e+05 -1.294793e+05 -5.000000e+04
-1.568081e+05 -1.221565e+05 -4.639288e+04
-1.648781e+05 -1.236746e+05 -5.000000e+04
-1.657895e+05 -1.329942e+05 -5.000000e+04
-1.647029e+05 -1.256715e+05 -4.639288e+04
-1.727728e+05 -1.271896e+05 -5.000000e+04
-1.699479e+05 -1.191930e+05 -4.603367e+04
-1.736842e+05 -1.365092e+05 -5.000000e+04
-1.725976e+05 -1.291864e+05 -4.639288e+04
-1.715110e+05 -1.218637e+05 -4.278577e+04
-1.808669e+05 -1.316272e+05 -5.000000e+04
-1.815789e+05 -1.400241e+05 -5.000000e+04
-1.805872e+05 -1.317217e+05 -4.585388e+04
-1.887616e+05 -1.351422e+05 -5.000000e+04
-1.864455e+05 -1.261375e+05 -4.542366e+04
-1.894737e+05 -1.435391e+05 -5.000000e+04
-1.884820e+05 -1.352367e+05 -4.585388e+04
-1.874902e+05 -1.269342e+05 -4.170776e+04
-1.777245e+05 -1.246372e+05 -4.665753e+04
-1.795006e+05 -1.243989e+05 -4.224676e+04
-1.966564e+05 -1.386571e+05 -5.000000e+04
-1.973684e+05 -1.470541e+05 -5.000000e+04
-1.963767e+05 -1.387516e+05 -4.585388e+04
-2.045511e+05 -1.421721e+05 -5.000000e+04
-2.035950e+05 -1.328328e+05 -4.611642e+04
-2.052632e+05 -1.505690e+05 -5.000000e+04
-2.042714e+05 -1.422666e+05 -4.585388e+04
-2.032797e+05 -1.339641e+05 -4.170776e+04
-2.124926e+05 -1.461119e+05 -4.595147e+04
-2.117913e+05 -1.386560e+05 -4.521927e+04
-2.170031e+05 -1.427710e+05 -4.688131e+04
-2.197221e+05 -1.416548e+05 -4.190294e+04
-2.126882e+05 -1.453360e+05 -5.000000e+04
-2.131579e+05 -1.540840e+05 -5.000000e+04
-2.205830e+05 -1.488510e+05 -5.000000e+04
-2.210526e+05 -1.575990e+05 -5.000000e+04
-2.203874e+05 -1.496269e+05 -4.595147e+04
-2.115009e+05 -1.378095e+05 -4.180535e+04
-2.284777e+05 -1.523659e+05 -5.000000e+04
-2.289474e+05 -1.611139e+05 -5.000000e+04
-2.282821e+05 -1.531419e+05 -4.595147e+04
-2.363725e+05 -1.558809e+05 -5.000000e+04
-2.340697e+05 -1.465980e+05 -4.574389e+04
-2.368421e+05 -1.646289e+05 -5.000000e+04
-2.361769e+05 -1.566568e+05 -4.595147e+04
-2.355116e+05 -1.486848e+05 -4.190294e+04
-2.427447e+05 -1.506506e+05 -4.616753e+04
-2.448612e+05 -1.587723e+05 -5.000000e+04
-2.527559e+05 -1.622873e+05 -5.000000e+04
-2.506163e+05 -1.550253e+05 -4.588856e+04
-2.526316e+05 -1.716588e+05 -5.000000e+04
-2.447368e+05 -1.681439e+05 -5.000000e+04
-2.527954e+05 -1.630498e+05 -4.542081e+04
-2.449007e+05 -1.595348e+05 -4.542081e+04
-2.529593e+05 -1.544407e+05 -4.084162e+04
-2.442354e+05 -1.515628e+05 -4.137228e+04
-2.763158e+05 -1.822037e+05 -5.000000e+04
-2.842105e+05 -1.769196e+05 -5.000000e+04
-2.842105e+05 -1.778188e+05 -4.583333e+04
-2.684211e+05 -1.786887e+05 -5.000000e+04
-2.763158e+05 -1.734046e+05 -5.000000e+04
-2.763158e+05 -1.743038e+05 -4.583333e+04
-2.821596e+05 -1.682331e+05 -4.550714e+04
-2.739181e+05 -1.658525e+05 -4.620741e+04
-2.764796e+05 -1.656948e+05 -4.125415e+04
-2.685849e+05 -1.700797e+05 -4.542081e+04
-2.687487e+05 -1.614707e+05 -4.084162e+04
-2.685454e+05 -1.693172e+05 -5.000000e+04
-2.606507e+05 -1.658023e+05 -5.000000e+04
-2.663385e+05 -1.599724e+05 -4.504002e+04
-2.605263e+05 -1.751738e+05 -5.000000e+04
-2.606902e+05 -1.665647e+05 -4.542081e+04
-2.763158e+05 -8.740542e+04 0.000000e+00
-2.766637e+05 -9.470393e+04 -3.767804e+03
-2.788824e+05 -8.538735e+04 -5.182219e+03
-2.684211e+05 -8.389046e+04 0.000000e+00
-2.687689e+05 -9.118897e+04 -3.767804e+03
-2.712161e+05 -8.346359e+04 -6.102693e+03
-2.691168e+05 -9.848748e+04 -7.535608e+03
-2.732019e+05 -9.053029e+04 -1.052637e+04
-2.842105e+05 -8.262975e+04 0.000000e+00
-2.763158e+05 -7.911479e+04 0.000000e+00
-2.615287e+05 -9.564929e+04 -7.820552e+03
-2.660774e+05 -8.841953e+04 -9.608636e+03
-2.611809e+05 -8.835078e+04 -4.052748e+03
-2.632088e+05 -8.294181e+04 -6.228787e+03
-2.539407e+05 -9.281111e+04 -8.105497e+03
-2.577480e+05 -8.759290e+04 -1.122486e+04
-2.678357e+05 -7.533112e+04 0.000000e+00
-2.605263e+05 -8.037549e+04 0.000000e+00
-2.561338e+05 -7.748233e+04 -7.881101e+03
-2.599410e+05 -7.181615e+04 0.000000e+00
-2.526316e+05 -7.686053e+04 0.000000e+00
-2.532861e+05 -8.483582e+04 -4.052748e+03
-2.447368e+05 -7.334557e+04 0.000000e+00
-2.520462e+05 -6.830119e+04 0.000000e+00
-2.483741e+05 -7.228156e+04 -6.201420e+03
-2.400191e+05 -7.098023e+04 -6.215381e+03
-2.441515e+05 -6.478623e+04 0.000000e+00
-2.368421e+05 -6.983060e+04 0.000000e+00
-2.374966e+05 -7.780589e+04 -4.052748e+03
-2.381512e+05 -8.578119e+04 -8.105497e+03
-2.453914e+05 -8.132086e+04 -4.052748e+03
-2.419438e+05 -7.798587e+04 -1.356552e+04
-2.398923e+05 -6.468050e+04 -5.034123e+03
-2.337040e+05 -6.446584e+04 -7.450082e+03
-2.362138e+05 -6.117917e+04 0.000000e+00
-2.210526e+05 -6.280068e+04 0.000000e+00
-2.224716e+05 -7.061703e+04 -3.789402e+03
-2.289474e+05 -6.631564e+04 0.000000e+00
-2.235449e+05 -6.061109e+04 -9.015722e+03
-2.238906e+05 -7.843339e+04 -7.578803e+03
-2.303664e+05 -7.413199e+04 -3.789402e+03
-2.273671e+05 -6.930036e+04 -9.343110e+03
-2.283190e+05 -5.766420e+04 0.000000e+00
-2.337914e+05 -7.312428e+04 -1.071765e+04
-2.310209e+05 -8.210729e+04 -7.842150e+03
-1.894737e+05 -4.874082e+04 0.000000e+00
-1.888295e+05 -5.082396e+04 -1.250000e+03
-1.973684e+05 -5.225579e+04 0.000000e+00
-1.940563e+05 -4.759824e+04 -5.890320e+03
-1.967242e+05 -5.433893e+04 -1.250000e+03
-1.931062e+05 -5.281655e+04 -7.928281e+03
-2.052632e+05 -5.577075e+04 0.000000e+00
-2.003054e+05 -5.263229e+04 -5.475853e+03
-1.993821e+05 -6.207462e+04 -4.705930e+03
-1.908432e+05 -6.064280e+04 -5.955930e+03
-1.935011e+05 -6.837850e+04 -9.411859e+03
-1.976967e+05 -5.745815e+04 -9.493179e+03
-2.066822e+05 -6.358710e+04 -3.789402e+03
-2.131579e+05 -5.928571e+04 0.000000e+00
-2.063692e+05 -5.617737e+04 -7.001512e+03
-2.081012e+05 -7.140346e+04 -7.578803e+03
-2.145769e+05 -6.710207e+04 -3.789402e+03
-2.085376e+05 -6.412236e+04 -1.150262e+04
-2.153479e+05 -5.763335e+04 -6.405990e+03
-2.204243e+05 -5.414924e+04 0.000000e+00
-2.125296e+05 -5.063428e+04 0.000000e+00
-2.016042e+05 -6.259099e+04 -1.076800e+04
-2.045960e+05 -4.710293e+04 0.000000e+00
-2.008011e+05 -6.989098e+04 -8.495331e+03
-1.967012e+05 -4.358797e+04 0.000000e+00
-1.730400e+05 -4.379404e+04 -1.250000e+03
-1.775558e+05 -4.240525e+04 -5.546784e+03
-1.711155e+05 -4.037109e+04 -5.843609e+03
-1.701438e+05 -3.718144e+04 -3.474424e+03
-1.768649e+05 -3.813310e+04 -3.742243e+03
-1.736842e+05 -4.171090e+04 0.000000e+00
-1.815789e+05 -4.522586e+04 0.000000e+00
-1.809347e+05 -4.730900e+04 -1.250000e+03
-1.856526e+05 -4.216029e+04 -5.802114e+03
-1.664107e+05 -4.084250e+04 -1.250000e+03
-1.591373e+05 -3.997410e+04 -2.500000e+03
-1.657665e+05 -4.292564e+04 -2.500000e+03
-1.649580e+05 -3.773742e+04 -6.241729e+03
-1.888065e+05 -4.007301e+04 0.000000e+00
-1.809118e+05 -3.655804e+04 0.000000e+00
-1.727505e+05 -3.318461e+04 0.000000e+00
-1.578947e+05 -3.468097e+04 0.000000e+00
-1.585160e+05 -3.732754e+04 -1.250000e+03
-1.657895e+05 -3.819593e+04 0.000000e+00
-1.629074e+05 -3.223461e+04 -6.055453e+03
-1.648558e+05 -2.966965e+04 0.000000e+00
-1.421053e+05 -2.765104e+04 0.000000e+00
-1.427265e+05 -3.029761e+04 -1.250000e+03
-1.500000e+05 -3.116601e+04 0.000000e+00
-1.461883e+05 -2.465565e+04 -5.012765e+03
-1.433478e+05 -3.294417e+04 -2.500000e+03
-1.506213e+05 -3.381257e+04 -1.250000e+03
-1.487886e+05 -2.965546e+04 -6.751690e+03
-1.544235e+05 -2.800045e+04 -4.433046e+03
-1.569610e+05 -2.615469e+04 0.000000e+00
-1.490663e+05 -2.263972e+04 0.000000e+00
-1.392792e+05 -2.247183e+04 -4.331810e+03
-1.434291e+05 -2.330592e+04 -2.025512e+03
-1.411716e+05 -1.912476e+04 0.000000e+00
-1.408509e+05 -2.724122e+04 -6.386409e+03
-1.263158e+05 -2.062112e+04 0.000000e+00
-1.282025e+05 -2.383111e+04 -1.250000e+03
-1.342105e+05 -2.413608e+04 0.000000e+00
-1.321323e+05 -2.028587e+04 -3.821792e+03
-1.300893e+05 -2.704110e+04 -2.500000e+03
-1.360973e+05 -2.734607e+04 -1.250000e+03
-1.322855e+05 -2.360532e+04 -6.883491e+03
-1.367185e+05 -2.999264e+04 -2.500000e+03
-1.332768e+05 -1.560980e+04 0.000000e+00
-9.473684e+04 -6.561265e+03 0.000000e+00
-9.788906e+04 -1.033468e+04 -1.250000e+03
-1.026316e+05 -1.007623e+04 0.000000e+00
-9.900588e+04 -4.272702e+03 -4.195152e+03
-1.057838e+05 -1.384964e+04 -1.250000e+03
-1.031128e+05 -9.149068e+03 -5.624857e+03
-1.105263e+05 -1.359119e+04 0.000000e+00
-1.055756e+05 -5.784049e+03 -3.083310e+03
-1.124131e+05 -1.680118e+04 -1.250000e+03
-1.095422e+05 -1.186603e+04 -5.842747e+03
-1.076705e+05 -1.705963e+04 -2.500000e+03
-1.046443e+05 -1.369045e+04 -7.937281e+03
-1.142998e+05 -2.001117e+04 -2.500000e+03
-1.123033e+05 -1.651769e+04 -8.322029e+03
-1.184211e+05 -1.710615e+04 0.000000e+00
-1.168158e+05 -1.405847e+04 -5.100249e+03
-1.203078e+05 -2.031615e+04 -1.250000e+03
-1.196168e+05 -1.872837e+04 -7.555112e+03
-1.247819e+05 -1.631184e+04 -5.091655e+03
-1.253821e+05 -1.209483e+04 0.000000e+00
-1.174873e+05 -8.579869e+03 0.000000e+00
-1.102653e+05 -6.001731e+03 -6.131570e+03
-1.095926e+05 -5.064906e+03 0.000000e+00
-1.016979e+05 -1.549943e+03 0.000000e+00
-1.085323e+05 -1.133449e+03 -5.153551e+03
-8.209959e+04 -3.304754e+03 -1.250000e+03
-8.617336e+04 -2.045578e+03 -5.431797e+03
-8.029312e+04 -2.079723e+03 -8.205369e+03
-7.460110e+04 3.235359e+03 -7.261154e+03
-8.239171e+04 2.932373e+03 -4.608005e+03
-7.894737e+04 4.686618e+02 0.000000e+00
-7.217723e+04 -4.230819e+03 -4.068502e+03
-6.540709e+04 -8.930299e+03 -8.137004e+03
-7.532945e+04 -8.004235e+03 -5.318502e+03
-7.143158e+04 -2.191655e+03 -1.209202e+04
-8.684211e+04 -3.046302e+03 0.000000e+00
-8.999433e+04 -6.819718e+03 -1.250000e+03
-9.161992e+04 3.960162e+02 -4.931468e+03
-9.380314e+04 1.965020e+03 0.000000e+00
-8.590840e+04 5.479984e+03 0.000000e+00
-7.801367e+04 8.994947e+03 0.000000e+00
-7.630616e+04 8.986332e+03 -4.653523e+03
-7.105263e+04 3.983625e+03 0.000000e+00
-6.679165e+04 5.937916e+03 -8.723800e+03
-6.823673e+04 1.239335e+04 -6.559805e+03
-6.315789e+04 7.498588e+03 0.000000e+00
-6.428249e+04 -7.158553e+02 -4.068502e+03
-7.888816e+04 7.521508e+03 -9.722272e+03
-7.011893e+04 1.250991e+04 0.000000e+00
-5.526316e+04 1.101355e+04 0.000000e+00
-6.014735e+04 1.468374e+04 -5.184244e+03
-5.913460e+04 8.327673e+03 -7.517852e+03
-5.261332e+04 9.803277e+03 -6.741733e+03
-5.286392e+04 1.607198e+04 -6.442175e+03
-4.736842e+04 1.452851e+04 0.000000e+00
-4.849302e+04 6.314071e+03 -4.068502e+03
-4.961762e+04 -1.900372e+03 -8.137004e+03
-5.638776e+04 2.799108e+03 -4.068502e+03
-5.343151e+04 4.568651e+03 -1.119592e+04
-6.222419e+04 1.602487e+04 0.000000e+00
-5.432946e+04 1.953984e+04 0.000000e+00
-4.585940e+04 1.368827e+04 -1.011583e+04
-3.947368e+04 1.804348e+04 0.000000e+00
-3.506055e+04 1.837571e+04 -1.039370e+04
-3.935429e+04 2.307399e+04 -7.997518e+03
-3.157895e+04 2.155844e+04 0.000000e+00
-4.555166e+04 1.906796e+04 -5.480494e+03
-4.602243e+04 5.798798e+03 -1.200878e+04
-4.643472e+04 2.305480e+04 0.000000e+00
-4.021686e+04 1.002629e+04 -4.054031e+03
-3.306529e+04 5.524071e+03 -8.108063e+03
-4.134145e+04 1.811849e+03 -8.122533e+03
-3.824130e+04 8.844725e+03 -1.438088e+04
-3.853998e+04 2.656976e+04 0.000000e+00
-3.232212e+04 1.354126e+04 -4.054031e+03
-2.368421e+04 2.507340e+04 0.000000e+00
-2.826550e+04 2.744424e+04 -5.878251e+03
-2.633662e+04 2.161688e+04 -8.574986e+03
-1.917901e+04 2.325284e+04 -7.267870e+03
-1.808697e+04 2.936690e+04 -7.542562e+03
-1.578947e+04 2.858837e+04 0.000000e+00
-3.064524e+04 3.008473e+04 0.000000e+00
-2.275051e+04 3.359969e+04 0.000000e+00
-1.653265e+04 2.057118e+04 -4.054031e+03
-1.727582e+04 1.255400e+04 -8.108063e+03
-2.442738e+04 1.705622e+04 -4.054031e+03
-1.936772e+04 1.674743e+04 -1.218444e+04
-8.611987e+03 2.409710e+04 -4.054340e+03
-8.856966e+03 2.484570e+04 -1.215932e+04
-7.226511e+03 2.968534e+04 -8.481203e+03
-1.434499e+03 1.960584e+04 -8.108679e+03
-1.169899e+04 3.228380e+04 -4.897809e+03
-1.485577e+04 3.711465e+04 0.000000e+00
-9.355158e+03 1.607992e+04 -8.108371e+03
-1.357931e+04 2.154428e+04 -1.122515e+04
-7.894737e+03 3.210333e+04 0.000000e+00
-4.738049e+03 3.679760e+04 -7.731479e+03
-6.961034e+03 4.062962e+04 0.000000e+00
-1.164153e-10 3.561829e+04 0.000000e+00
-7.172497e+02 2.761207e+04 -4.054340e+03
7.894737e+03 3.913326e+04 0.000000e+00
9.337029e+02 4.414458e+04 0.000000e+00
4.959217e+03 4.056405e+04 -7.226115e+03
1.390706e+04 4.309965e+04 -6.022102e+03
8.828440e+03 4.765954e+04 0.000000e+00
1.578947e+04 4.264822e+04 0.000000e+00
1.507222e+04 3.464199e+04 -4.054340e+03
1.435497e+04 2.663576e+04 -8.108679e+03
7.177487e+03 3.112703e+04 -4.054340e+03
1.394606e+04 3.624272e+04 -1.104718e+04
1.672318e+04 5.117451e+04 0.000000e+00
2.180331e+04 4.779700e+04 -6.802426e+03
2.368421e+04 4.616318e+04 0.000000e+00
3.038405e+04 4.980496e+04 -6.364863e+03
2.461791e+04 5.468947e+04 0.000000e+00
3.157895e+04 4.967815e+04 0.000000e+00
2.294981e+04 3.814982e+04 -4.054075e+03
3.084454e+04 4.166478e+04 -4.054075e+03
3.011014e+04 3.365142e+04 -8.108150e+03
3.030354e+04 4.275067e+04 -1.020548e+04
2.132891e+04 4.032534e+04 -1.072088e+04
2.223256e+04 3.014359e+04 -8.108415e+03
3.947368e+04 5.319311e+04 0.000000e+00
3.251265e+04 5.820443e+04 0.000000e+00
3.824479e+04 5.465311e+04 -7.191185e+03
4.842090e+04 5.741520e+04 -7.372206e+03
4.040739e+04 6.171940e+04 0.000000e+00
4.736842e+04 5.670807e+04 0.000000e+00
3.873928e+04 4.517975e+04 -4.054075e+03
4.663402e+04 4.869471e+04 -4.054075e+03
4.589961e+04 4.068134e+04 -8.108150e+03
4.626598e+04 4.954859e+04 -9.876429e+03
5.454529e+04 5.221751e+04 -4.053825e+03
5.325502e+04 5.100843e+04 -1.299251e+04
5.715620e+04 5.763818e+04 -9.216183e+03
6.172217e+04 4.772695e+04 -8.107649e+03
5.372950e+04 6.305525e+04 -4.592914e+03
4.830212e+04 6.523436e+04 0.000000e+00
5.526316e+04 6.022304e+04 0.000000e+00
6.315789e+04 6.373800e+04 0.000000e+00
6.244003e+04 5.573248e+04 -4.053825e+03
6.226004e+04 6.472866e+04 -8.132805e+03
5.381089e+04 4.420415e+04 -8.107900e+03
5.619686e+04 6.874932e+04 0.000000e+00
5.083590e+04 6.603252e+04 -7.396375e+03
7.105263e+04 6.725296e+04 0.000000e+00
7.033477e+04 5.924744e+04 -4.053825e+03
6.998738e+04 6.910397e+04 -5.924462e+03
7.894737e+04 7.076793e+04 0.000000e+00
7.822951e+04 6.276240e+04 -4.053825e+03
8.002632e+04 7.118705e+04 -7.540910e+03
7.751164e+04 5.475688e+04 -8.107649e+03
7.605680e+04 6.331020e+04 -1.062629e+04
6.409160e+04 7.226429e+04 0.000000e+00
7.198633e+04 7.577925e+04 0.000000e+00
8.612648e+04 6.627841e+04 -4.053799e+03
8.546664e+04 6.547708e+04 -1.203320e+04
9.058215e+04 7.111778e+04 -1.002608e+04
9.330558e+04 6.178889e+04 -8.107598e+03
8.637850e+04 7.602506e+04 -5.017129e+03
7.988107e+04 7.929421e+04 0.000000e+00
8.684211e+04 7.428289e+04 0.000000e+00
9.354422e+04 7.798433e+04 -5.842589e+03
8.777581e+04 8.280918e+04 0.000000e+00
9.473684e+04 7.779785e+04 0.000000e+00
8.540861e+04 5.827288e+04 -8.107624e+03
9.402121e+04 6.979337e+04 -4.053799e+03
8.274659e+04 7.948297e+04 -7.584800e+03
1.026316e+05 8.131282e+04 0.000000e+00
9.567054e+04 8.632414e+04 0.000000e+00
1.012153e+05 8.265257e+04 -7.173406e+03
1.118946e+05 8.518721e+04 -7.922516e+03
1.035653e+05 8.983910e+04 0.000000e+00
1.105263e+05 8.482778e+04 0.000000e+00
1.019159e+05 7.330833e+04 -4.053799e+03
1.098107e+05 7.682330e+04 -4.053799e+03
1.090951e+05 6.881882e+04 -8.107598e+03
1.082386e+05 7.690233e+04 -1.187289e+04
1.177056e+05 8.033838e+04 -4.053787e+03
1.174857e+05 7.927012e+04 -1.240004e+04
1.224037e+05 8.489871e+04 -1.005517e+04
1.248849e+05 7.584897e+04 -8.107574e+03
1.183243e+05 9.012228e+04 -5.249290e+03
1.184211e+05 8.834274e+04 0.000000e+00
1.263158e+05 9.185771e+04 0.000000e+00
1.256004e+05 8.385334e+04 -4.053787e+03
1.268383e+05 9.257647e+04 -6.642892e+03
1.114600e+05 9.335407e+04 0.000000e+00
1.193548e+05 9.686903e+04 0.000000e+00
1.169900e+05 7.233389e+04 -8.107586e+03
1.148038e+05 9.358872e+04 -7.883331e+03
1.342105e+05 9.537267e+04 0.000000e+00
1.334951e+05 8.736830e+04 -4.053787e+03
1.336180e+05 9.684683e+04 -5.362120e+03
1.421053e+05 9.888763e+04 0.000000e+00
1.413898e+05 9.088327e+04 -4.053787e+03
1.408308e+05 9.875360e+04 -6.265054e+03
1.406744e+05 8.287890e+04 -8.107574e+03
1.375293e+05 9.127120e+04 -1.154089e+04
1.272495e+05 1.003840e+05 0.000000e+00
1.351442e+05 1.038990e+05 0.000000e+00
1.430390e+05 1.074139e+05 0.000000e+00
1.485490e+05 1.037359e+05 -7.232265e+03
1.500000e+05 1.024026e+05 0.000000e+00
1.492840e+05 9.439818e+04 -4.053677e+03
1.578947e+05 1.059176e+05 0.000000e+00
1.571787e+05 9.791314e+04 -4.053677e+03
1.582074e+05 1.065061e+05 -7.107165e+03
1.564627e+05 8.990872e+04 -8.107353e+03
1.567367e+05 9.820641e+04 -1.321197e+04
1.509337e+05 1.109289e+05 0.000000e+00
1.476176e+05 9.544936e+04 -1.231511e+04
1.485686e+05 8.639381e+04 -8.107464e+03
1.657895e+05 1.094325e+05 0.000000e+00
1.650735e+05 1.014281e+05 -4.053677e+03
1.650301e+05 1.108110e+05 -5.282550e+03
1.736842e+05 1.129475e+05 0.000000e+00
1.729682e+05 1.049431e+05 -4.053677e+03
1.720748e+05 1.126865e+05 -5.965342e+03
1.722522e+05 9.693864e+04 -8.107353e+03
1.694541e+05 1.055396e+05 -1.024841e+04
1.588284e+05 1.144438e+05 0.000000e+00
1.667232e+05 1.179588e+05 0.000000e+00
1.746179e+05 1.214738e+05 0.000000e+00
1.785688e+05 1.181235e+05 -7.007225e+03
1.815789e+05 1.164625e+05 0.000000e+00
1.808553e+05 1.084571e+05 -4.052380e+03
1.894737e+05 1.199774e+05 0.000000e+00
1.887500e+05 1.119720e+05 -4.052380e+03
1.884010e+05 1.205532e+05 -8.816578e+03
1.880263e+05 1.039667e+05 -8.104759e+03
1.842668e+05 1.126650e+05 -1.060609e+04
1.780875e+05 1.092074e+05 -1.165854e+04
1.825127e+05 1.249887e+05 0.000000e+00
1.801393e+05 1.004527e+05 -8.106056e+03
1.973684e+05 1.234924e+05 0.000000e+00
1.966448e+05 1.154870e+05 -4.052380e+03
1.961079e+05 1.250853e+05 -5.872092e+03
2.052632e+05 1.270073e+05 0.000000e+00
2.045395e+05 1.190020e+05 -4.052380e+03
2.054293e+05 1.268357e+05 -7.086440e+03
2.038158e+05 1.109966e+05 -8.104759e+03
2.021987e+05 1.194108e+05 -1.003896e+04
1.904074e+05 1.285037e+05 0.000000e+00
1.983021e+05 1.320187e+05 0.000000e+00
2.124115e+05 1.224857e+05 -4.063514e+03
2.112663e+05 1.212812e+05 -1.118736e+04
2.163426e+05 1.262722e+05 -9.715314e+03
2.195599e+05 1.179641e+05 -8.127028e+03
2.120704e+05 1.296249e+05 -5.470458e+03
2.061969e+05 1.355336e+05 0.000000e+00
2.131579e+05 1.305223e+05 0.000000e+00
2.210526e+05 1.340373e+05 0.000000e+00
2.203063e+05 1.260007e+05 -4.063514e+03
2.185553e+05 1.341139e+05 -7.136838e+03
2.116879e+05 1.144803e+05 -8.115893e+03
2.140916e+05 1.390486e+05 0.000000e+00
2.289474e+05 1.375522e+05 0.000000e+00
2.282010e+05 1.295156e+05 -4.063514e+03
2.264732e+05 1.390850e+05 -5.885878e+03
2.368421e+05 1.410672e+05 0.000000e+00
2.360957e+05 1.330306e+05 -4.063514e+03
2.354460e+05 1.411717e+05 -6.512921e+03
2.353494e+05 1.249940e+05 -8.127028e+03
2.311884e+05 1.334270e+05 -1.134784e+04
2.219863e+05 1.425636e+05 0.000000e+00
2.298811e+05 1.460785e+05 0.000000e+00
2.409547e+05 1.443626e+05 -4.523653e+03
2.377656e+05 1.493662e+05 0.000000e+00
2.440141e+05 1.365968e+05 -4.042067e+03
2.414019e+05 1.357367e+05 -1.130830e+04
2.446007e+05 1.413754e+05 -8.221904e+03
2.511862e+05 1.321264e+05 -8.084134e+03
2.447368e+05 1.445822e+05 0.000000e+00
2.471721e+05 1.488286e+05 -7.098304e+03
2.456603e+05 1.528812e+05 0.000000e+00
2.526316e+05 1.480971e+05 0.000000e+00
2.519089e+05 1.401117e+05 -4.042067e+03
2.432678e+05 1.285602e+05 -8.105581e+03
2.684211e+05 1.551270e+05 0.000000e+00
2.763158e+05 1.586420e+05 0.000000e+00
2.763158e+05 1.507422e+05 -4.166667e+03
2.728519e+05 1.590751e+05 -5.990345e+03
2.842105e+05 1.542571e+05 -4.166667e+03
2.807672e+05 1.613524e+05 -6.039945e+03
2.787661e+05 1.533706e+05 -9.839864e+03
2.771160e+05 1.668894e+05 0.000000e+00
2.692213e+05 1.633744e+05 0.000000e+00
2.669757e+05 1.391563e+05 -8.084134e+03
2.676984e+05 1.471417e+05 -4.042067e+03
2.755931e+05 1.427568e+05 -8.208733e+03
2.703298e+05 1.512315e+05 -1.142608e+04
2.605263e+05 1.516121e+05 0.000000e+00
2.535550e+05 1.563961e+05 0.000000e+00
2.547199e+05 1.545395e+05 -5.985873e+03
2.647879e+05 1.580048e+05 -6.887974e+03
2.614498e+05 1.599111e+05 0.000000e+00
2.598036e+05 1.436267e+05 -4.042067e+03
2.621674e+05 1.490016e+05 -1.090087e+04
-1.355029e+05 -7.502598e+04 -2.653765e+04
-1.294497e+05 -7.889540e+04 -3.000000e+04
-1.317930e+05 -7.408765e+04 -3.252703e+04
-1.349269e+05 -6.820501e+04 -2.307531e+04
-1.288737e+05 -7.207444e+04 -2.653765e+04
-1.320139e+05 -6.725996e+04 -3.018990e+04
-1.228205e+05 -7.594386e+04 -3.000000e+04
-1.245941e+05 -7.149648e+04 -3.294755e+04
-1.270470e+05 -7.826712e+04 -3.604044e+04
-1.219900e+05 -7.683259e+04 -3.514892e+04
-1.208793e+05 -8.200908e+04 -4.031726e+04
-1.263762e+05 -8.700680e+04 -3.500000e+04
-1.197469e+05 -8.405527e+04 -3.500000e+04
-1.169449e+05 -7.402422e+04 -3.711600e+04
-1.131177e+05 -8.110373e+04 -3.500000e+04
-1.095619e+05 -7.004079e+04 -3.000000e+04
-1.161912e+05 -7.299233e+04 -3.000000e+04
-1.173632e+05 -6.735846e+04 -3.361027e+04
-1.155132e+05 -6.593317e+04 -2.643597e+04
-1.221425e+05 -6.888471e+04 -2.643597e+04
-1.214644e+05 -6.182556e+04 -2.287193e+04
-1.237989e+05 -6.423422e+04 -2.938175e+04
-1.281957e+05 -6.501529e+04 -2.297362e+04
-9.526389e+04 -6.148602e+04 -3.517791e+04
-8.794360e+04 -5.847302e+04 -3.560544e+04
-9.354735e+04 -5.579690e+04 -3.154254e+04
-9.630341e+04 -6.413771e+04 -3.000000e+04
-8.967414e+04 -6.118618e+04 -3.000000e+04
-9.555745e+04 -5.863551e+04 -2.727311e+04
-8.892819e+04 -5.568397e+04 -2.727311e+04
-9.481150e+04 -5.313331e+04 -2.454623e+04
-9.108371e+04 -6.867480e+04 -3.956732e+04
-9.196440e+04 -7.168569e+04 -3.500000e+04
-8.533514e+04 -6.873415e+04 -3.500000e+04
-9.569539e+04 -7.645597e+04 -4.261195e+04
-1.005003e+05 -6.877232e+04 -3.761764e+04
-9.552012e+04 -8.274863e+04 -4.000000e+04
-1.056760e+05 -8.006387e+04 -4.139775e+04
-9.985913e+04 -7.520065e+04 -3.500000e+04
-1.091730e+05 -7.081053e+04 -3.661743e+04
-1.064884e+05 -7.815219e+04 -3.500000e+04
-1.029327e+05 -6.708925e+04 -3.000000e+04
-1.115039e+05 -6.482121e+04 -3.173587e+04
-1.061012e+05 -6.373870e+04 -3.314203e+04
-1.022547e+05 -6.003010e+04 -2.643597e+04
-1.088839e+05 -6.298163e+04 -2.643597e+04
-1.082059e+05 -5.592248e+04 -2.287193e+04
-1.097826e+05 -5.833902e+04 -2.994584e+04
-1.035067e+05 -5.993627e+04 -3.416350e+04
-1.015087e+05 -5.452789e+04 -2.370908e+04
-1.075217e+05 -5.258227e+04 -3.004404e+04
-1.000115e+05 -5.520128e+04 -3.095338e+04
-1.017373e+05 -6.134919e+04 -3.975025e+04
-1.095573e+05 -2.026963e+04 -3.750000e+03
-1.161866e+05 -2.322116e+04 -3.750000e+03
-1.141691e+05 -2.124966e+04 -8.280566e+03
-1.114440e+05 -2.347962e+04 -5.000000e+03
-1.091758e+05 -2.219407e+04 -1.206375e+04
-1.180733e+05 -2.643115e+04 -5.000000e+03
-1.162313e+05 -2.624179e+04 -1.007122e+04
-1.052556e+05 -2.740405e+04 -8.523114e+03
-1.056964e+05 -3.428003e+04 -1.204623e+04
-1.118849e+05 -3.035559e+04 -8.523114e+03
-1.113732e+05 -2.974805e+04 -1.350918e+04
-1.221945e+05 -2.352614e+04 -2.500000e+03
-1.198075e+05 -2.276438e+04 -7.922583e+03
-1.240813e+05 -2.673613e+04 -3.750000e+03
-1.216907e+05 -2.665618e+04 -8.463706e+03
-1.259790e+05 -2.460797e+04 -7.796948e+03
-1.307106e+05 -2.968766e+04 -3.750000e+03
-1.247026e+05 -2.938269e+04 -5.000000e+03
-1.313318e+05 -3.233423e+04 -5.000000e+03
-1.287274e+05 -2.887355e+04 -1.086244e+04
-1.185821e+05 -3.175018e+04 -7.685965e+03
-1.190909e+05 -3.706920e+04 -1.037193e+04
-1.252113e+05 -3.470171e+04 -7.685965e+03
-1.218456e+05 -3.029778e+04 -1.134768e+04
-1.123937e+05 -3.567461e+04 -1.120908e+04
-1.166314e+05 -3.142766e+04 -1.233669e+04
-1.445903e+05 -3.823730e+04 -5.000000e+03
-1.452011e+05 -4.379452e+04 -7.787654e+03
-1.512196e+05 -4.118884e+04 -5.000000e+03
-1.482558e+05 -3.862331e+04 -1.008068e+04
-1.458118e+05 -4.935173e+04 -1.057531e+04
-1.518304e+05 -4.674606e+04 -7.787654e+03
-1.497310e+05 -4.403484e+04 -1.308535e+04
-1.545626e+05 -4.115704e+04 -9.307425e+03
-1.518638e+05 -3.910570e+04 -3.750000e+03
-1.584931e+05 -4.205724e+04 -3.750000e+03
-1.573203e+05 -3.741015e+04 -8.553015e+03
-1.439691e+05 -3.559074e+04 -3.750000e+03
-1.512425e+05 -3.645914e+04 -2.500000e+03
-1.478347e+05 -3.396689e+04 -8.400153e+03
-1.416694e+05 -3.047899e+04 -9.181353e+03
-1.421676e+05 -3.522222e+04 -9.883682e+03
-1.373398e+05 -3.263920e+04 -3.750000e+03
-1.379611e+05 -3.528577e+04 -5.000000e+03
-1.350281e+05 -3.302698e+04 -1.057748e+04
-1.318406e+05 -3.765325e+04 -7.685965e+03
-1.323494e+05 -4.297228e+04 -1.037193e+04
-1.384699e+05 -4.060479e+04 -7.685965e+03
-1.365595e+05 -3.775045e+04 -1.214643e+04
-1.366413e+05 -4.351617e+04 -1.475376e+04
-1.411517e+05 -4.001494e+04 -1.220341e+04
-1.430036e+05 -4.454013e+04 -1.449403e+04
-1.436929e+05 -3.637004e+04 -1.516652e+04
-1.390806e+05 -4.616200e+04 -1.047362e+04
-2.773594e+05 -1.093010e+05 -1.130341e+04
-2.842099e+05 -9.889637e+04 -1.209292e+04
-2.879618e+05 -1.064658e+05 -1.427788e+04
-2.807214e+05 -1.116532e+05 -1.884833e+04
-2.771974e+05 -1.042957e+05 -1.672908e+04
-2.698125e+05 -1.130845e+05 -1.507122e+04
-2.849063e+05 -1.134173e+05 -1.170227e+04
-2.773594e+05 -1.172008e+05 -1.547008e+04
-2.889110e+05 -1.145971e+05 -1.735286e+04
-2.770115e+05 -1.020024e+05 -7.535608e+03
-2.694647e+05 -1.057860e+05 -1.130341e+04
-2.744406e+05 -9.754112e+04 -1.308546e+04
-2.851808e+05 -1.191109e+05 -2.299207e+04
-2.764035e+05 -1.168515e+05 -2.274833e+04
-2.755916e+05 -1.231983e+05 -2.947732e+04
-2.696285e+05 -1.208765e+05 -1.922422e+04
-2.771754e+05 -1.249928e+05 -1.962309e+04
-2.694445e+05 -1.286686e+05 -2.337723e+04
-2.622245e+05 -1.102463e+05 -1.535616e+04
-2.685520e+05 -1.024084e+05 -1.806910e+04
-2.618766e+05 -1.029478e+05 -1.158836e+04
-2.652776e+05 -9.524355e+04 -1.399891e+04
-2.546364e+05 -1.074081e+05 -1.564110e+04
-2.600066e+05 -1.000500e+05 -2.018657e+04
-2.701253e+05 -1.097879e+05 -2.467954e+04
-2.580481e+05 -1.075637e+05 -2.459601e+04
-2.595872e+05 -1.179152e+05 -2.834815e+04
-2.533166e+05 -1.151603e+05 -2.003983e+04
-2.609047e+05 -1.179985e+05 -1.975488e+04
-2.519968e+05 -1.229126e+05 -2.443855e+04
-2.670916e+05 -1.200791e+05 -2.633120e+04
-2.607207e+05 -1.257906e+05 -2.390789e+04
3.800487e+04 3.716638e+04 -8.108150e+03
3.727047e+04 2.915301e+04 -1.216223e+04
3.678018e+04 3.919358e+04 -1.527130e+04
4.516521e+04 3.266798e+04 -1.216223e+04
4.602880e+04 4.228716e+04 -1.483490e+04
4.443080e+04 2.465461e+04 -1.621630e+04
4.285580e+04 3.401197e+04 -1.948098e+04
2.772097e+04 3.624988e+04 -1.741583e+04
3.462964e+04 2.795379e+04 -2.123434e+04
2.939289e+04 2.564519e+04 -1.216249e+04
3.655322e+04 2.114679e+04 -1.621657e+04
2.867564e+04 1.763896e+04 -1.621683e+04
2.483313e+04 2.606612e+04 -1.956905e+04
5.234208e+04 2.817742e+04 -1.621605e+04
5.307648e+04 3.619078e+04 -1.216198e+04
6.025336e+04 3.170022e+04 -1.621580e+04
5.347067e+04 3.738709e+04 -2.076459e+04
4.020306e+04 3.093127e+04 -2.846796e+04
4.892959e+04 2.740535e+04 -2.446280e+04
4.100990e+04 2.180554e+04 -2.530933e+04
3.277231e+04 1.937482e+04 -2.435376e+04
4.038309e+04 1.287932e+04 -2.912036e+04
4.593369e+04 1.692458e+04 -2.064632e+04
3.805611e+04 1.341675e+04 -2.064658e+04
4.743658e+04 9.194546e+03 -2.507634e+04
4.825065e+04 1.854690e+04 -2.802224e+04
5.766039e+04 3.034442e+04 -2.549695e+04
5.698928e+04 2.047408e+04 -3.042628e+04
6.322335e+04 1.622588e+04 -2.507496e+04
5.382708e+04 2.044025e+04 -2.064563e+04
5.532996e+04 1.271021e+04 -2.507565e+04
6.173835e+04 2.396305e+04 -2.064538e+04
6.889904e+04 4.323639e+04 -1.216147e+04
6.329065e+04 5.464621e+04 -1.471132e+04
6.016674e+04 4.717725e+04 -1.917882e+04
6.775019e+04 4.044965e+04 -2.216482e+04
7.185643e+04 4.752091e+04 -1.882613e+04
7.607591e+04 3.874582e+04 -1.621530e+04
6.961690e+04 5.124191e+04 -8.107649e+03
7.679378e+04 4.675135e+04 -1.216147e+04
7.580518e+04 5.509122e+04 -1.504976e+04
6.098776e+04 3.971358e+04 -1.216172e+04
6.816464e+04 3.522302e+04 -1.621555e+04
6.174893e+04 3.848405e+04 -2.009494e+04
8.397289e+04 4.226183e+04 -1.621527e+04
8.469075e+04 5.026736e+04 -1.216145e+04
9.186986e+04 4.577784e+04 -1.621525e+04
8.116000e+04 4.851608e+04 -1.989942e+04
6.545299e+04 3.261509e+04 -2.448777e+04
7.311416e+04 3.543405e+04 -2.497102e+04
7.297487e+04 2.803149e+04 -2.783391e+04
7.756091e+04 3.100866e+04 -2.064488e+04
6.964963e+04 2.748585e+04 -2.064513e+04
7.904591e+04 2.327149e+04 -2.507446e+04
7.165262e+04 4.396551e+04 -2.814964e+04
8.810600e+04 4.469479e+04 -2.499015e+04
7.985468e+04 4.096201e+04 -2.406399e+04
7.999420e+04 3.261488e+04 -2.778076e+04
8.839942e+04 3.475919e+04 -3.034886e+04
9.483824e+04 3.030125e+04 -2.507522e+04
8.545708e+04 3.452354e+04 -2.064526e+04
8.694207e+04 2.678637e+04 -2.507484e+04
9.335405e+04 3.803954e+04 -2.064523e+04
1.004847e+05 5.729937e+04 -1.216140e+04
9.636427e+04 6.788402e+04 -1.576092e+04
9.255203e+04 6.048370e+04 -1.662864e+04
9.701230e+04 5.470277e+04 -2.009250e+04
1.028625e+05 6.120081e+04 -2.033444e+04
1.076638e+05 5.280985e+04 -1.621520e+04
9.258772e+04 5.378336e+04 -1.216142e+04
9.976683e+04 4.929384e+04 -1.621522e+04
8.794967e+04 5.312848e+04 -1.897498e+04
1.012003e+05 6.530385e+04 -8.107598e+03
1.083794e+05 6.081433e+04 -1.216140e+04
1.081218e+05 6.882561e+04 -1.639288e+04
1.155587e+05 5.632493e+04 -1.621518e+04
1.162744e+05 6.432941e+04 -1.216139e+04
1.234537e+05 5.984001e+04 -1.621517e+04
1.122924e+05 6.212781e+04 -2.102698e+04
9.547126e+04 4.696695e+04 -2.355300e+04
1.025346e+05 4.934141e+04 -2.311185e+04
1.040886e+05 4.402059e+04 -2.779971e+04
1.091480e+05 4.507156e+04 -2.064518e+04
1.012510e+05 4.155555e+04 -2.064521e+04
1.106322e+05 3.733326e+04 -2.507517e+04
1.005393e+05 5.595453e+04 -2.589327e+04
1.092248e+05 5.381103e+04 -2.638646e+04
1.195894e+05 5.805594e+04 -2.626889e+04
1.200315e+05 4.799048e+04 -3.071802e+04
1.120613e+05 4.515145e+04 -2.834493e+04
1.264219e+05 4.436312e+04 -2.507526e+04
1.170428e+05 4.858648e+04 -2.064523e+04
1.185270e+05 4.084819e+04 -2.507521e+04
1.249378e+05 5.210156e+04 -2.064521e+04
1.320643e+05 7.135957e+04 -1.216136e+04
1.282902e+05 8.130087e+04 -1.543537e+04
1.246600e+05 7.436887e+04 -1.708727e+04
1.293077e+05 6.878016e+04 -2.127185e+04
1.352520e+05 7.497575e+04 -1.952222e+04
1.392436e+05 6.687016e+04 -1.621515e+04
1.327797e+05 7.936394e+04 -8.107574e+03
1.399590e+05 7.487453e+04 -1.216136e+04
1.395835e+05 8.275349e+04 -1.625202e+04
1.241693e+05 6.784449e+04 -1.216137e+04
1.313486e+05 6.335509e+04 -1.621516e+04
1.197530e+05 6.658765e+04 -2.040682e+04
1.471377e+05 7.038507e+04 -1.621504e+04
1.478531e+05 7.838944e+04 -1.216125e+04
1.550319e+05 7.389998e+04 -1.621493e+04
1.443992e+05 7.646183e+04 -2.058733e+04
1.276094e+05 6.078990e+04 -2.465645e+04
1.357964e+05 6.364738e+04 -2.509167e+04
1.358952e+05 5.612484e+04 -2.790120e+04
1.407277e+05 5.913172e+04 -2.064519e+04
1.328327e+05 5.561664e+04 -2.064520e+04
1.422118e+05 5.139327e+04 -2.507523e+04
1.339292e+05 7.200807e+04 -2.845805e+04
1.430624e+05 6.886901e+04 -2.438277e+04
1.515131e+05 7.274452e+04 -2.540590e+04
1.508409e+05 6.238066e+04 -2.896769e+04
1.565153e+05 6.616100e+04 -2.064510e+04
1.486212e+05 6.264610e+04 -2.064521e+04
1.579987e+05 5.842203e+04 -2.507527e+04
1.429652e+05 6.056494e+04 -2.781341e+04
1.501053e+05 5.490765e+04 -2.507525e+04
1.643574e+05 9.342368e+04 -8.107353e+03
1.636414e+05 8.541926e+04 -1.216103e+04
1.632492e+05 9.245750e+04 -1.478187e+04
1.715362e+05 8.893422e+04 -1.216103e+04
1.696052e+05 9.821692e+04 -1.655539e+04
1.708202e+05 8.092980e+04 -1.621471e+04
1.674569e+05 8.856760e+04 -1.958328e+04
1.560717e+05 8.939066e+04 -1.665635e+04
1.609732e+05 8.324646e+04 -2.115948e+04
1.557473e+05 8.190435e+04 -1.216114e+04
1.629260e+05 7.741489e+04 -1.621482e+04
1.513834e+05 8.139975e+04 -1.993501e+04
1.787072e+05 8.444382e+04 -1.621341e+04
1.794233e+05 9.244824e+04 -1.215973e+04
1.865943e+05 8.795783e+04 -1.621211e+04
1.759974e+05 9.042718e+04 -2.018122e+04
1.673749e+05 7.762051e+04 -2.550517e+04
1.591139e+05 7.527417e+04 -2.433229e+04
1.673895e+05 6.927857e+04 -3.017712e+04
1.723036e+05 7.319082e+04 -2.064488e+04
1.644095e+05 6.967591e+04 -2.064499e+04
1.737870e+05 6.545184e+04 -2.507505e+04
1.830687e+05 8.713675e+04 -2.473658e+04
1.747139e+05 8.292380e+04 -2.433751e+04
1.752549e+05 7.424342e+04 -2.956041e+04
1.658400e+05 8.596659e+04 -2.827600e+04
1.829827e+05 7.804284e+04 -2.774657e+04
1.880740e+05 8.021446e+04 -2.064371e+04
1.801869e+05 7.670044e+04 -2.064500e+04
1.895536e+05 7.247108e+04 -2.507530e+04
1.816703e+05 6.896146e+04 -2.507517e+04
1.959211e+05 1.074816e+05 -8.104759e+03
1.951974e+05 9.947627e+04 -1.215714e+04
1.916410e+05 1.108921e+05 -1.297023e+04
2.030922e+05 1.029912e+05 -1.215714e+04
2.019512e+05 1.117229e+05 -1.432491e+04
2.023685e+05 9.498586e+04 -1.620952e+04
1.977354e+05 1.045836e+05 -1.766018e+04
1.872504e+05 1.041026e+05 -1.583386e+04
1.919519e+05 9.785724e+04 -1.997961e+04
1.873103e+05 9.596225e+04 -1.215844e+04
1.944814e+05 9.147185e+04 -1.621082e+04
1.825143e+05 9.581428e+04 -1.919828e+04
2.102405e+05 9.846961e+04 -1.622065e+04
2.109642e+05 1.064750e+05 -1.216827e+04
2.181126e+05 1.019534e+05 -1.623179e+04
2.064525e+05 1.067409e+05 -1.891136e+04
1.902196e+05 8.971994e+04 -2.341719e+04
1.973204e+05 9.212595e+04 -2.352201e+04
1.982851e+05 8.580031e+04 -2.928510e+04
2.038481e+05 8.724249e+04 -2.064111e+04
1.959610e+05 8.372847e+04 -2.064241e+04
2.053278e+05 7.949911e+04 -2.507271e+04
1.955036e+05 1.009314e+05 -2.546423e+04
2.043273e+05 9.587962e+04 -2.705061e+04
2.024111e+05 1.038796e+05 -2.405964e+04
2.138108e+05 9.787683e+04 -2.474654e+04
2.102895e+05 1.037253e+05 -2.442693e+04
2.156797e+05 9.133872e+04 -3.084096e+04
2.070646e+05 8.740509e+04 -2.841355e+04
2.209441e+05 8.644844e+04 -2.507457e+04
2.116563e+05 9.071715e+04 -2.064204e+04
2.131360e+05 8.297378e+04 -2.507364e+04
2.195284e+05 9.420090e+04 -2.065318e+04
2.267083e+05 1.134425e+05 -1.219054e+04
2.217963e+05 1.235199e+05 -1.465985e+04
2.178163e+05 1.171777e+05 -1.596339e+04
2.218622e+05 1.126391e+05 -2.020696e+04
2.272264e+05 1.178222e+05 -1.966551e+04
2.338566e+05 1.089208e+05 -1.625406e+04
2.274546e+05 1.214791e+05 -8.127028e+03
2.346030e+05 1.169574e+05 -1.219054e+04
2.329684e+05 1.253772e+05 -1.570659e+04
2.188362e+05 1.099587e+05 -1.217941e+04
2.259846e+05 1.054371e+05 -1.624292e+04
2.130232e+05 1.107838e+05 -1.896015e+04
2.417750e+05 1.124870e+05 -1.623261e+04
2.425214e+05 1.205236e+05 -1.216909e+04
2.496935e+05 1.160532e+05 -1.621116e+04
2.374699e+05 1.203300e+05 -1.955573e+04
2.170598e+05 1.079822e+05 -2.609381e+04
2.214344e+05 1.013220e+05 -2.655181e+04
2.292510e+05 1.040105e+05 -2.438022e+04
2.277234e+05 1.107213e+05 -2.581567e+04
2.298859e+05 9.765640e+04 -2.939117e+04
2.352724e+05 1.011684e+05 -2.067545e+04
2.274004e+05 9.768464e+04 -2.066431e+04
2.366882e+05 9.341594e+04 -2.509684e+04
2.467931e+05 1.043558e+05 -3.154573e+04
2.359386e+05 1.085353e+05 -2.762428e+04
2.371159e+05 1.000323e+05 -2.990583e+04
2.518210e+05 9.954676e+04 -2.541686e+04
2.428388e+05 1.042338e+05 -2.083546e+04
2.442546e+05 9.648135e+04 -2.525685e+04
2.453291e+05 1.112940e+05 -2.533003e+04
2.414703e+05 1.169405e+05 -2.500818e+04
2.341697e+05 1.162564e+05 -2.363995e+04
2.507573e+05 1.078000e+05 -2.081401e+04
2.281773e+05 1.193635e+05 -2.732301e+04
2.655303e+05 1.231855e+05 -1.616827e+04
2.662530e+05 1.311709e+05 -1.212620e+04
2.741477e+05 1.267860e+05 -1.629287e+04
2.664235e+05 1.363496e+05 -1.843670e+04
2.748704e+05 1.347714e+05 -1.225080e+04
2.693418e+05 1.422172e+05 -1.430821e+04
2.741680e+05 1.384486e+05 -2.000071e+04
2.768008e+05 1.366844e+05 -2.711435e+04
2.644411e+05 1.342800e+05 -2.522149e+04
2.794735e+05 1.280397e+05 -2.693222e+04
2.699710e+05 1.253540e+05 -2.583364e+04
2.766773e+05 1.177965e+05 -2.938204e+04
2.827651e+05 1.224866e+05 -2.058413e+04
2.741477e+05 1.188861e+05 -2.045953e+04
2.685413e+05 1.158507e+05 -2.822959e+04
2.752115e+05 1.106329e+05 -2.506238e+04
2.665941e+05 1.149323e+05 -2.077111e+04
2.676579e+05 1.066791e+05 -2.537396e+04
2.583582e+05 1.276559e+05 -1.212620e+04
2.503699e+05 1.396545e+05 -1.317307e+04
2.484120e+05 1.321351e+05 -1.610137e+04
2.532033e+05 1.271700e+05 -2.082025e+04
2.575263e+05 1.336324e+05 -1.943884e+04
2.590809e+05 1.356413e+05 -8.084134e+03
2.607310e+05 1.409212e+05 -1.402212e+04
2.504398e+05 1.240898e+05 -1.214765e+04
2.576119e+05 1.196193e+05 -1.618971e+04
2.438765e+05 1.247741e+05 -2.045795e+04
2.484167e+05 1.216880e+05 -2.710936e+04
2.533327e+05 1.150653e+05 -2.756402e+04
2.620174e+05 1.182204e+05 -2.609334e+04
2.596755e+05 1.246833e+05 -2.687746e+04
2.620651e+05 1.096415e+05 -3.053183e+04
2.586757e+05 1.113661e+05 -2.079256e+04
2.642510e+05 1.301973e+05 -3.170853e+04
-2.768073e+05 -1.484767e+05 -3.209577e+04
-2.821885e+05 -1.441021e+05 -3.464875e+04
-2.833659e+05 -1.524687e+05 -3.915027e+04
-2.739789e+05 -1.490144e+05 -3.872518e+04
-2.756748e+05 -1.418042e+05 -3.528558e+04
-2.690764e+05 -1.442526e+05 -3.168325e+04
-2.751001e+05 -1.581602e+05 -4.356431e+04
-2.766435e+05 -1.570858e+05 -3.667496e+04
-2.689126e+05 -1.528616e+05 -3.626244e+04
-2.838863e+05 -1.350844e+05 -3.302456e+04
-2.845382e+05 -1.448010e+05 -2.834162e+04
-2.768073e+05 -1.405769e+05 -2.792910e+04
-2.741776e+05 -1.324241e+05 -3.173656e+04
-2.769913e+05 -1.327849e+05 -2.377610e+04
-2.692605e+05 -1.364606e+05 -2.753024e+04
-2.678754e+05 -1.517625e+05 -4.123418e+04
-2.589698e+05 -1.504817e+05 -4.364152e+04
-2.669097e+05 -1.423650e+05 -3.816251e+04
-2.608540e+05 -1.579557e+05 -4.084162e+04
-2.610178e+05 -1.493467e+05 -3.626244e+04
-2.558251e+05 -1.398081e+05 -3.928109e+04
-2.603526e+05 -1.413746e+05 -3.221391e+04
-2.522940e+05 -1.464687e+05 -3.679309e+04
-2.516288e+05 -1.384966e+05 -3.274456e+04
-2.661226e+05 -1.271378e+05 -3.103717e+04
-2.677797e+05 -1.356056e+05 -3.423597e+04
-2.599176e+05 -1.340140e+05 -3.542554e+04
-2.605366e+05 -1.335826e+05 -2.806090e+04
-2.747391e+05 -1.432261e+05 -4.152809e+04
5.742988e+03 1.511457e+04 -1.216302e+04
3.175489e+02 2.795545e+04 -1.330367e+04
-2.362163e+03 2.365557e+04 -1.805269e+04
9.330883e+02 1.785903e+04 -2.153695e+04
8.224547e+03 2.106170e+04 -1.882308e+04
1.292047e+04 1.062331e+04 -1.621736e+04
-2.177671e+03 1.158865e+04 -1.216271e+04
-7.915540e+03 1.773955e+04 -1.733721e+04
4.999816e+03 7.097386e+03 -1.621705e+04
8.415265e+02 1.167923e+04 -2.204783e+04
-2.920843e+03 3.571466e+03 -1.621674e+04
-8.476030e+03 9.314105e+03 -2.052793e+04
1.363772e+04 1.862954e+04 -1.216302e+04
6.460237e+03 2.312080e+04 -8.108679e+03
1.117525e+04 2.938701e+04 -1.521264e+04
2.151531e+04 2.213736e+04 -1.216275e+04
2.079806e+04 1.413113e+04 -1.621709e+04
1.777848e+04 2.133366e+04 -2.025273e+04
2.492497e+04 1.699403e+04 -2.550588e+04
1.611023e+04 1.313930e+04 -2.464248e+04
2.426906e+04 6.324796e+03 -2.902716e+04
3.017853e+04 9.908926e+03 -2.064685e+04
2.230095e+04 6.401100e+03 -2.064711e+04
3.168142e+04 2.178893e+03 -2.507687e+04
5.423208e+03 1.684731e+04 -2.904243e+04
7.638592e+02 4.147753e+03 -2.461875e+04
8.755179e+03 7.585712e+03 -2.534093e+04
1.440470e+04 2.886585e+03 -2.064652e+04
9.234220e+03 -8.718534e+01 -2.784902e+04
1.631048e+04 4.504558e+03 -2.794356e+04
1.588893e+04 -4.850136e+03 -2.507569e+04
2.378517e+04 -1.335621e+03 -2.507628e+04
6.484044e+03 -6.393348e+02 -2.064621e+04
-2.591373e+04 1.021848e+03 -1.216209e+04
-3.418989e+04 -2.690373e+03 -1.217656e+04
-2.963867e+04 4.834097e+03 -1.602032e+04
-1.876216e+04 -3.480374e+03 -1.621613e+04
-2.703832e+04 -7.192595e+03 -1.623060e+04
-2.333032e+04 -5.740198e+02 -2.073121e+04
-3.531449e+04 -1.090482e+04 -1.624507e+04
-3.249686e+04 -2.889761e+03 -1.985230e+04
-1.801899e+04 4.536812e+03 -1.216209e+04
-2.517055e+04 9.039034e+03 -8.108063e+03
-2.064488e+04 9.092542e+03 -1.710204e+04
-1.009833e+04 8.062732e+03 -1.216240e+04
-1.084150e+04 4.554627e+01 -1.621643e+04
-1.441815e+04 3.477050e+03 -2.104840e+04
-6.716303e+03 1.057992e+03 -2.565494e+04
-1.461911e+04 -2.964717e+03 -2.408408e+04
-7.209293e+03 -8.632217e+03 -2.874560e+04
-1.436615e+03 -4.165255e+03 -2.064591e+04
-9.357274e+03 -7.691175e+03 -2.064560e+04
4.761247e+01 -1.190198e+04 -2.507507e+04
-2.874922e+04 -9.354301e+03 -2.399051e+04
-2.091270e+04 -8.049551e+03 -2.476285e+04
-2.215987e+04 -1.565586e+04 -2.841968e+04
-1.724309e+04 -1.118511e+04 -2.063660e+04
-2.551925e+04 -1.489733e+04 -2.065107e+04
-1.572401e+04 -1.888985e+04 -2.505708e+04
-1.473431e+04 -1.057986e+04 -2.742978e+04
-7.838199e+03 -1.539591e+04 -2.506607e+04
-2.073313e+04 -2.706119e+03 -2.875578e+04
2.704177e+05 8.419670e+04 -4.222797e+04
2.787363e+05 8.598095e+04 -4.396554e+04
2.724801e+05 9.288766e+04 -3.914946e+04
2.769980e+05 7.876569e+04 -4.228983e+04
2.694444e+05 8.271170e+04 -3.843474e+04
2.773391e+05 8.622666e+04 -3.843474e+04
2.697855e+05 9.017268e+04 -3.457966e+04
2.807294e+05 9.629895e+04 -3.969422e+04
2.848927e+05 9.018051e+04 -3.812316e+04
2.773391e+05 9.412652e+04 -3.426808e+04
2.778016e+05 1.033163e+05 -3.659265e+04
2.693790e+05 9.990587e+04 -3.574310e+04
2.706931e+05 1.083899e+05 -3.173439e+04
2.762753e+05 1.023797e+05 -2.966523e+04
2.687217e+05 9.842589e+04 -2.997681e+04
2.635886e+05 7.861756e+04 -4.414263e+04
2.649638e+05 8.681803e+04 -4.019849e+04
2.580101e+05 8.492367e+04 -3.951131e+04
2.618779e+05 7.964629e+04 -3.827473e+04
2.622190e+05 8.710727e+04 -3.441965e+04
2.546526e+05 8.404185e+04 -3.425964e+04
2.631498e+05 9.358370e+04 -3.807320e+04
2.557642e+05 1.003387e+05 -3.303732e+04
2.536091e+05 9.106391e+04 -3.772355e+04
2.608033e+05 9.485972e+04 -2.999826e+04
2.532368e+05 9.179431e+04 -2.983825e+04
2.636347e+05 1.023215e+05 -3.310139e+04
2.597395e+05 1.031129e+05 -2.539541e+04
2.671249e+05 9.821754e+04 -4.089255e+04
-5.634670e+04 -2.682984e+04 -1.970551e+04
-6.541788e+04 -2.867663e+04 -2.496368e+04
-5.796794e+04 -2.954424e+04 -2.914353e+04
-5.272995e+04 -2.146338e+04 -2.625840e+04
-6.053818e+04 -2.221654e+04 -2.350399e+04
-5.186682e+04 -1.832926e+04 -1.627401e+04
-6.178918e+04 -1.740320e+04 -1.345551e+04
-6.626906e+04 -2.590377e+04 -1.688700e+04
-6.810898e+04 -2.009680e+04 -2.083240e+04
-5.124038e+04 -2.857455e+04 -2.832424e+04
-4.664858e+04 -3.375305e+04 -2.563446e+04
-4.925770e+04 -2.604116e+04 -2.095424e+04
-5.373758e+04 -3.454173e+04 -2.438573e+04
-5.863695e+04 -1.362978e+04 -1.220551e+04
-6.855931e+04 -1.270372e+04 -9.387004e+03
-6.339900e+04 -7.513279e+03 -1.543697e+04
-5.885481e+04 -1.409131e+04 -2.171043e+04
-6.862401e+04 -1.269220e+04 -1.730854e+04
-5.074222e+04 -1.011482e+04 -1.220551e+04
-5.751236e+04 -5.415336e+03 -8.137004e+03
-5.449401e+04 -2.193416e+03 -1.703293e+04
-4.542977e+04 -4.243073e+02 -1.613812e+04
-4.889401e+04 -8.211273e+03 -1.975680e+04
-4.246605e+04 -6.402595e+03 -1.219104e+04
-4.359065e+04 -1.461704e+04 -1.625954e+04
-4.074545e+04 -6.695367e+03 -2.034968e+04
-3.636685e+04 -1.206117e+04 -2.517490e+04
-4.679903e+04 -1.437008e+04 -2.455784e+04
-3.794682e+04 -2.208889e+04 -2.909480e+04
-3.379541e+04 -1.860955e+04 -2.066554e+04
-4.207158e+04 -2.232178e+04 -2.068001e+04
-3.227634e+04 -2.631429e+04 -2.508602e+04
-4.553261e+04 -2.405398e+04 -2.829503e+04
-5.339916e+04 -1.531530e+04 -2.981310e+04
-3.946246e+04 -3.003367e+04 -2.536024e+04
2.399210e+05 7.116485e+04 -4.199658e+04
2.483129e+05 7.271882e+04 -4.397151e+04
2.412634e+05 8.015644e+04 -3.923266e+04
2.460757e+05 6.560493e+04 -4.196981e+04
2.388504e+05 7.000050e+04 -3.795471e+04
2.467451e+05 7.351546e+04 -3.795471e+04
2.395198e+05 7.791102e+04 -3.393962e+04
2.504722e+05 8.138962e+04 -3.962414e+04
2.543115e+05 7.658087e+04 -3.811472e+04
2.470862e+05 8.097644e+04 -3.409963e+04
2.327296e+05 6.553903e+04 -4.401715e+04
2.345030e+05 7.404289e+04 -3.990558e+04
2.271799e+05 7.206063e+04 -3.942212e+04
2.310422e+05 6.652583e+04 -3.795378e+04
2.317116e+05 7.443636e+04 -3.393869e+04
2.239034e+05 7.096170e+04 -3.393776e+04
2.320082e+05 8.105792e+04 -3.698967e+04
2.252316e+05 8.787298e+04 -3.265078e+04
2.237087e+05 7.916175e+04 -3.603947e+04
2.302320e+05 8.217973e+04 -2.950709e+04
2.224238e+05 7.870507e+04 -2.950616e+04
2.339866e+05 8.981667e+04 -3.311087e+04
2.288162e+05 8.993219e+04 -2.508570e+04
2.381040e+05 8.566348e+04 -2.951823e+04
2.470906e+05 8.782360e+04 -3.646862e+04
2.416665e+05 9.420107e+04 -3.270492e+04
2.398220e+05 8.640047e+04 -3.602064e+04
2.456704e+05 8.872889e+04 -2.967824e+04
2.337393e+05 7.938985e+04 -4.265450e+04
2.082265e+05 5.738996e+04 -4.208078e+04
2.167442e+05 5.902349e+04 -4.390165e+04
2.106405e+05 6.632007e+04 -3.893816e+04
2.146698e+05 5.162568e+04 -4.196795e+04
2.075311e+05 5.606154e+04 -3.795192e+04
2.154258e+05 5.957650e+04 -3.795192e+04
2.082870e+05 6.401237e+04 -3.393590e+04
2.196444e+05 6.936122e+04 -3.989608e+04
2.232340e+05 6.305117e+04 -3.795285e+04
2.160952e+05 6.748703e+04 -3.393683e+04
2.010154e+05 5.151632e+04 -4.401607e+04
2.028049e+05 6.029680e+04 -3.994193e+04
1.953904e+05 5.839041e+04 -3.928103e+04
1.996478e+05 5.255192e+04 -3.795179e+04
2.004038e+05 6.050275e+04 -3.393577e+04
1.925205e+05 5.699313e+04 -3.393564e+04
2.018983e+05 7.827830e+04 -3.367053e+04
1.921410e+05 7.559417e+04 -3.334630e+04
2.011313e+05 6.763641e+04 -3.824458e+04
1.974407e+05 7.598510e+04 -2.507400e+04
2.068074e+05 7.175574e+04 -2.950430e+04
1.989203e+05 6.824172e+04 -2.950560e+04
1.906251e+05 6.524424e+04 -3.772785e+04
1.910370e+05 6.473211e+04 -2.950547e+04
2.159598e+05 7.474340e+04 -3.604824e+04
2.101047e+05 8.097089e+04 -3.253890e+04
2.080437e+05 7.326344e+04 -3.567066e+04
2.146156e+05 7.523040e+04 -2.950523e+04
2.061901e+05 7.222544e+04 -4.131690e+04
1.767782e+05 4.343522e+04 -4.236724e+04
1.849304e+05 4.525409e+04 -4.389388e+04
1.777110e+05 5.284145e+04 -3.908861e+04
1.831138e+05 3.757651e+04 -4.196769e+04
1.759865e+05 4.201772e+04 -3.795154e+04
1.838812e+05 4.553268e+04 -3.795154e+04
1.767539e+05 4.997389e+04 -3.393539e+04
1.873349e+05 5.472408e+04 -3.948255e+04
1.917645e+05 4.904230e+04 -3.795167e+04
1.846372e+05 5.348351e+04 -3.393551e+04
1.687683e+05 3.748828e+04 -4.307066e+04
1.713600e+05 4.620112e+04 -3.992277e+04
1.641022e+05 4.414052e+04 -3.890859e+04
1.680930e+05 3.850334e+04 -3.795152e+04
1.688604e+05 4.645951e+04 -3.393537e+04
1.609669e+05 4.294514e+04 -3.393535e+04
1.694972e+05 6.150353e+04 -3.284164e+04
1.605603e+05 6.063043e+04 -3.263531e+04
1.683513e+05 5.246534e+04 -3.685729e+04
1.658929e+05 6.193694e+04 -2.507516e+04
1.752705e+05 5.771287e+04 -2.950522e+04
1.673763e+05 5.419796e+04 -2.950533e+04
1.592290e+05 5.024183e+04 -3.706045e+04
1.594828e+05 5.068358e+04 -2.950531e+04
1.767975e+05 6.570819e+04 -3.213450e+04
1.759489e+05 5.872264e+04 -3.559809e+04
1.835223e+05 6.121717e+04 -3.650469e+04
1.831538e+05 6.122249e+04 -2.950534e+04
1.700146e+05 5.167506e+04 -4.219498e+04
1.537650e+05 3.251334e+04 -4.227218e+04
1.561878e+05 4.055303e+04 -3.930823e+04
1.464274e+05 3.862304e+04 -3.897737e+04
1.601995e+05 3.498896e+04 -3.795150e+04
1.523060e+05 3.147459e+04 -3.795149e+04
1.530734e+05 3.943076e+04 -3.393533e+04
1.451800e+05 3.591638e+04 -3.393531e+04
1.456462e+05 2.839078e+04 -4.373423e+04
1.515373e+05 2.351783e+04 -4.196766e+04
1.444113e+05 2.795963e+04 -3.795149e+04
1.378326e+05 2.323385e+04 -4.437620e+04
1.399336e+05 3.175069e+04 -4.010203e+04
1.324203e+05 2.963191e+04 -3.904155e+04
1.365164e+05 2.444470e+04 -3.795144e+04
1.372851e+05 3.240146e+04 -3.393527e+04
1.293903e+05 2.888653e+04 -3.393523e+04
1.367437e+05 3.835957e+04 -3.683604e+04
1.298512e+05 4.380572e+04 -3.250035e+04
1.278156e+05 3.567038e+04 -3.700501e+04
1.358009e+05 4.013975e+04 -2.950529e+04
1.279061e+05 3.662482e+04 -2.950524e+04
1.367376e+05 4.886615e+04 -3.336478e+04
1.343168e+05 4.787820e+04 -2.507524e+04
1.436959e+05 4.365483e+04 -2.950527e+04
1.523052e+05 4.696615e+04 -3.634019e+04
1.446340e+05 5.389940e+04 -3.244527e+04
1.441762e+05 4.512177e+04 -3.598733e+04
1.515894e+05 4.716920e+04 -2.950529e+04
1.383926e+05 3.714385e+04 -4.215129e+04
1.135821e+05 1.515739e+04 -4.196255e+04
1.220457e+05 1.677283e+04 -4.385574e+04
1.149587e+05 2.436694e+04 -3.900459e+04
1.199582e+05 9.458048e+03 -4.196757e+04
1.128320e+05 1.389988e+04 -3.795135e+04
1.207267e+05 1.741484e+04 -3.795135e+04
1.136006e+05 2.185667e+04 -3.393514e+04
1.245557e+05 2.578809e+04 -3.934672e+04
1.286216e+05 2.092977e+04 -3.795140e+04
1.214954e+05 2.537160e+04 -3.393518e+04
1.063148e+05 9.384264e+03 -4.393705e+04
1.080992e+05 1.798016e+04 -3.971659e+04
1.049358e+05 1.038500e+04 -3.795097e+04
1.057044e+05 1.834179e+04 -3.393476e+04
1.007474e+05 1.583970e+04 -3.920464e+04
9.780823e+04 1.482691e+04 -3.393438e+04
1.051780e+05 2.517974e+04 -3.729439e+04
9.837045e+04 3.045203e+04 -3.295532e+04
9.631620e+04 2.218915e+04 -3.779076e+04
1.042194e+05 2.607896e+04 -2.950518e+04
9.632324e+04 2.256408e+04 -2.950480e+04
1.059384e+05 3.695614e+04 -3.386505e+04
1.027352e+05 3.381725e+04 -2.507519e+04
1.121164e+05 2.959497e+04 -2.950515e+04
1.210536e+05 3.252320e+04 -3.639074e+04
1.149401e+05 3.876355e+04 -3.257816e+04
1.130250e+05 3.122304e+04 -3.613355e+04
1.200112e+05 3.310989e+04 -2.950520e+04
1.071127e+05 2.323423e+04 -4.253495e+04
9.033562e+04 2.949624e+03 -4.385840e+04
8.837637e+04 -4.601641e+03 -4.196681e+04
8.914350e+04 3.355235e+03 -3.795022e+04
8.185781e+04 1.294994e+03 -4.205199e+04
8.428626e+04 1.016373e+04 -3.891464e+04
8.124877e+04 -1.597284e+02 -3.795022e+04
8.201590e+04 7.797147e+03 -3.393362e+04
9.703967e+04 6.870116e+03 -3.795059e+04
9.298261e+04 1.196489e+04 -3.936917e+04
8.991207e+04 1.131203e+04 -3.393400e+04
7.461487e+04 -4.740261e+03 -4.399860e+04
7.640860e+04 3.988697e+03 -3.991107e+04
6.908361e+04 1.875033e+03 -3.934676e+04
7.335538e+04 -3.675395e+03 -3.795090e+04
7.412251e+04 4.281480e+03 -3.393431e+04
6.622913e+04 7.658136e+02 -3.393500e+04
7.450315e+04 1.081495e+04 -3.809052e+04
6.663841e+04 1.591557e+04 -3.272116e+04
6.445841e+04 7.996008e+03 -3.739786e+04
7.261962e+04 1.201151e+04 -2.950429e+04
6.472624e+04 8.495847e+03 -2.950498e+04
7.364649e+04 2.090831e+04 -3.336652e+04
7.113463e+04 1.974868e+04 -2.507471e+04
8.053090e+04 1.553432e+04 -2.950404e+04
8.166592e+04 2.580114e+04 -3.256291e+04
8.104068e+04 1.699714e+04 -3.581395e+04
8.934583e+04 1.874295e+04 -3.650021e+04
8.842707e+04 1.904920e+04 -2.950442e+04
7.901492e+04 1.590704e+04 -4.096986e+04
5.027595e+04 -1.277405e+04 -4.192979e+04
5.869738e+04 -1.120155e+04 -4.387201e+04
5.146008e+04 -3.619596e+03 -3.903541e+04
5.680013e+04 -1.866290e+04 -4.196819e+04
4.967387e+04 -1.422169e+04 -3.795228e+04
5.756861e+04 -1.070673e+04 -3.795228e+04
5.044236e+04 -6.265520e+03 -3.393637e+04
6.114885e+04 -2.002825e+03 -3.948781e+04
6.546200e+04 -7.191062e+03 -3.795159e+04
5.833574e+04 -2.749853e+03 -3.393569e+04
4.304840e+04 -1.853400e+04 -4.387646e+04
4.177763e+04 -1.773621e+04 -3.795169e+04
4.490879e+04 -1.007849e+04 -3.968891e+04
4.254612e+04 -9.780034e+03 -3.393578e+04
3.768034e+04 -1.210070e+04 -3.899216e+04
3.464987e+04 -1.329455e+04 -3.393519e+04
4.341287e+04 5.321195e+03 -3.295239e+04
3.407807e+04 4.526658e+03 -3.256286e+04
4.205105e+04 -3.539518e+03 -3.680940e+04
3.955900e+04 5.686720e+03 -2.507660e+04
4.893947e+04 1.464513e+03 -2.950636e+04
4.106189e+04 -2.043313e+03 -2.950662e+04
4.983678e+04 1.186542e+04 -3.254090e+04
4.971077e+04 2.716582e+03 -3.594192e+04
5.746817e+04 4.598982e+03 -3.659730e+04
5.683285e+04 4.980180e+03 -2.950567e+04
3.276801e+04 -5.847754e+03 -3.698383e+04
3.316564e+04 -5.557828e+03 -2.950603e+04
4.375218e+04 -4.677122e+03 -4.204165e+04
3.388139e+04 -2.125072e+04 -3.795110e+04
2.634619e+04 -2.539804e+04 -4.283855e+04
2.598514e+04 -2.476524e+04 -3.795051e+04
2.966922e+04 -1.602213e+04 -3.949501e+04
2.675363e+04 -1.680906e+04 -3.393460e+04
1.966195e+04 -1.759759e+04 -3.903406e+04
1.885739e+04 -2.032358e+04 -3.393401e+04
2.521817e+04 -3.272186e+04 -4.196701e+04
1.838268e+04 -2.685391e+04 -4.187232e+04
1.809041e+04 -2.828020e+04 -3.795051e+04
1.125916e+04 -3.255562e+04 -4.387138e+04
1.020460e+04 -3.177414e+04 -3.794152e+04
1.307167e+04 -2.417515e+04 -3.965399e+04
1.097157e+04 -2.381752e+04 -3.392502e+04
5.825909e+03 -2.611121e+04 -3.900353e+04
3.085763e+03 -2.731145e+04 -3.391602e+04
1.737316e+04 -1.258686e+04 -2.950485e+04
1.808097e+04 -2.268511e+03 -3.250304e+04
9.986226e+03 -7.202957e+03 -3.323748e+04
1.001139e+04 -1.766506e+04 -3.686767e+04
1.773723e+04 -1.108548e+04 -3.596878e+04
2.579323e+04 -9.318729e+03 -3.643542e+04
2.526940e+04 -9.072343e+03 -2.950544e+04
2.077387e+03 -1.125697e+04 -3.233689e+04
7.968271e+03 -8.376056e+03 -2.507538e+04
9.452499e+03 -1.611278e+04 -2.950454e+04
8.205567e+02 -2.005466e+04 -3.693017e+04
1.566688e+03 -1.960671e+04 -2.949555e+04
1.170905e+04 -1.897562e+04 -4.202611e+04
2.318785e+03 -3.526807e+04 -3.793252e+04
-5.720776e+03 -3.941721e+04 -4.272295e+04
-5.567026e+03 -3.876201e+04 -3.792353e+04
-2.251916e+03 -3.004751e+04 -3.936275e+04
-4.800048e+03 -3.080539e+04 -3.390703e+04
-1.300502e+04 -3.202327e+04 -3.881666e+04
-1.268586e+04 -3.429933e+04 -3.389804e+04
-6.342930e+03 -4.673966e+04 -4.194902e+04
-1.362584e+04 -4.148227e+04 -4.182306e+04
-1.346176e+04 -4.227697e+04 -3.792353e+04
-2.209250e+04 -3.799544e+04 -3.977813e+04
-2.705810e+04 -4.173808e+04 -3.444648e+04
-2.064788e+04 -4.599635e+04 -3.819775e+04
-1.987198e+04 -3.801871e+04 -3.417226e+04
-1.913573e+04 -2.210330e+04 -3.209394e+04
-2.783116e+04 -2.301642e+04 -3.183341e+04
-1.941163e+04 -2.858972e+04 -3.477356e+04
-2.400017e+04 -2.260207e+04 -2.507155e+04
-1.420494e+04 -2.659459e+04 -2.947756e+04
-2.248110e+04 -3.030681e+04 -2.949203e+04
-5.900204e+03 -2.349515e+04 -3.608750e+04
-1.311914e+04 -1.632470e+04 -3.173510e+04
-1.308654e+04 -2.492031e+04 -3.517666e+04
-6.319124e+03 -2.310065e+04 -2.948655e+04
-2.555002e+04 -3.168841e+04 -3.697700e+04
-2.966722e+04 -3.402619e+04 -2.976625e+04
-4.851934e+04 -4.996552e+04 -3.374619e+04
-5.690899e+04 -4.376656e+04 -3.613604e+04
-5.576500e+04 -5.211612e+04 -3.960500e+04
-4.706247e+04 -5.206116e+04 -4.082997e+04
-4.887437e+04 -4.501532e+04 -3.719303e+04
-4.143033e+04 -4.917684e+04 -3.499492e+04
-4.291486e+04 -5.695007e+04 -3.874619e+04
-5.042792e+04 -5.967956e+04 -4.425345e+04
-5.000386e+04 -5.773875e+04 -3.749746e+04
-5.011577e+04 -3.556172e+04 -3.369072e+04
-4.403945e+04 -4.146495e+04 -3.031469e+04
-5.112846e+04 -4.225363e+04 -2.906596e+04
-3.502012e+04 -5.343511e+04 -3.874619e+04
-3.511139e+04 -5.333964e+04 -4.327256e+04
-2.894011e+04 -4.850144e+04 -4.226939e+04
-3.416042e+04 -4.415326e+04 -3.927246e+04
-4.047308e+04 -4.648388e+04 -4.075601e+04
-3.650464e+04 -6.120834e+04 -4.249746e+04
-4.140769e+04 -5.612620e+04 -4.516016e+04
-2.757851e+04 -4.302791e+04 -3.932000e+04
-3.424422e+04 -4.545746e+04 -3.472070e+04
-2.783400e+04 -4.971573e+04 -3.847197e+04
-4.262268e+04 -3.069154e+04 -3.322846e+04
-4.122471e+04 -3.964524e+04 -3.693019e+04
-3.255165e+04 -3.711072e+04 -3.691857e+04
-3.685334e+04 -3.774557e+04 -3.004047e+04
-4.857402e+04 -4.662248e+04 -4.271995e+04
-2.095202e+05 -7.921981e+04 -1.136820e+04
-2.159959e+05 -7.491842e+04 -7.578803e+03
-2.106734e+05 -7.183345e+04 -1.400422e+04
-2.109391e+05 -8.703617e+04 -1.515761e+04
-2.174149e+05 -8.273478e+04 -1.136820e+04
-2.153610e+05 -7.824265e+04 -1.716524e+04
-2.208081e+05 -7.181726e+04 -1.304167e+04
-2.273135e+05 -7.676784e+04 -1.695264e+04
-2.203093e+05 -8.482884e+04 -2.006684e+04
-2.245452e+05 -8.640868e+04 -1.163155e+04
-2.180694e+05 -9.071007e+04 -1.542095e+04
-2.251997e+05 -9.438397e+04 -1.568430e+04
-2.291879e+05 -8.764436e+04 -1.994190e+04
-2.022201e+05 -7.770733e+04 -1.228473e+04
-1.963391e+05 -8.401121e+04 -1.699066e+04
-2.036391e+05 -8.552369e+04 -1.607413e+04
-2.080580e+05 -7.803605e+04 -1.954659e+04
-2.036633e+05 -8.020855e+04 -2.643116e+04
-2.136498e+05 -8.219853e+04 -2.442948e+04
-2.084043e+05 -8.852501e+04 -2.623829e+04
-2.059146e+05 -9.598748e+04 -2.870509e+04
-1.993284e+05 -8.722457e+04 -2.744681e+04
-2.085284e+05 -9.461693e+04 -1.972208e+04
-2.061177e+05 -1.021977e+05 -2.428656e+04
-2.012284e+05 -9.310445e+04 -2.063861e+04
-2.215133e+05 -9.308459e+04 -2.324416e+04
-2.148480e+05 -9.051419e+04 -2.271991e+04
-2.133218e+05 -9.715550e+04 -2.820976e+04
-2.156587e+05 -9.829083e+04 -1.998543e+04
-1.575296e+05 -1.061589e+05 -3.778577e+04
-1.642501e+05 -1.104588e+05 -4.331733e+04
-1.625297e+05 -1.110260e+05 -3.917865e+04
-1.653627e+05 -9.890592e+04 -3.923163e+04
-1.643378e+05 -1.023511e+05 -3.417865e+04
-1.716649e+05 -1.045919e+05 -3.934345e+04
-1.693378e+05 -1.072182e+05 -3.557153e+04
-1.721268e+05 -9.747264e+04 -3.529735e+04
-1.724381e+05 -1.006602e+05 -3.138458e+04
-1.674380e+05 -9.579315e+04 -2.999170e+04
-1.755384e+05 -9.410221e+04 -2.719762e+04
-1.636163e+05 -1.183487e+05 -4.278577e+04
-1.715413e+05 -1.125979e+05 -4.253718e+04
-1.704244e+05 -1.145409e+05 -3.917865e+04
-1.784131e+05 -1.180335e+05 -4.400663e+04
-1.784140e+05 -1.170762e+05 -3.863964e+04
-1.762980e+05 -1.108538e+05 -4.039619e+04
-1.773274e+05 -1.097534e+05 -3.503253e+04
-1.831437e+05 -1.121831e+05 -3.967920e+04
-1.853170e+05 -1.122887e+05 -3.449352e+04
-1.873427e+05 -1.061305e+05 -3.705417e+04
-1.791176e+05 -1.058400e+05 -3.781913e+04
-1.793179e+05 -9.909258e+04 -3.517334e+04
-1.804277e+05 -1.031955e+05 -3.084557e+04
-1.785497e+05 -1.061437e+05 -4.251449e+04
-2.542885e+05 -1.001096e+05 -1.187330e+04
-2.470483e+05 -1.045699e+05 -1.592605e+04
-2.516293e+05 -9.982418e+04 -1.904270e+04
-2.467005e+05 -9.727144e+04 -1.215825e+04
-2.511239e+05 -9.184010e+04 -1.675104e+04
-2.394603e+05 -1.017318e+05 -1.621099e+04
-2.436302e+05 -9.746564e+04 -2.032918e+04
-2.388057e+05 -9.375648e+04 -1.215825e+04
-2.460459e+05 -8.929615e+04 -8.105497e+03
-2.405815e+05 -8.762373e+04 -1.687564e+04
-2.316754e+05 -9.008258e+04 -1.189490e+04
-2.323300e+05 -9.805787e+04 -1.594765e+04
-2.356820e+05 -9.384946e+04 -2.113939e+04
-2.433269e+05 -1.051989e+05 -2.288467e+04
-2.498887e+05 -1.060923e+05 -2.328922e+04
-2.435975e+05 -1.112539e+05 -2.863326e+04
-2.381405e+05 -1.094840e+05 -2.060971e+04
-2.457285e+05 -1.123222e+05 -2.032477e+04
-2.368207e+05 -1.172362e+05 -2.500844e+04
-2.283085e+05 -9.651579e+04 -2.540206e+04
-2.371425e+05 -1.018740e+05 -2.569592e+04
-2.278987e+05 -1.064378e+05 -2.927510e+04
-2.227890e+05 -1.019647e+05 -2.024878e+04
-2.299192e+05 -1.056386e+05 -2.051212e+04
-2.203782e+05 -1.095455e+05 -2.481326e+04
-2.362231e+05 -1.100181e+05 -2.931820e+04
-2.285995e+05 -1.133908e+05 -2.491085e+04
-1.939119e+05 -1.224963e+05 -4.234125e+04
-1.953850e+05 -1.304492e+05 -4.170776e+04
-1.943932e+05 -1.221467e+05 -3.756164e+04
-2.039000e+05 -1.252705e+05 -4.221406e+04
-1.997966e+05 -1.159425e+05 -3.838706e+04
-2.022880e+05 -1.256617e+05 -3.756164e+04
-2.012962e+05 -1.173592e+05 -3.341552e+04
-1.864036e+05 -1.196115e+05 -3.810064e+04
-1.907329e+05 -1.149666e+05 -3.938612e+04
-1.933066e+05 -1.148240e+05 -3.395452e+04
-2.085791e+05 -1.194174e+05 -3.825910e+04
-2.105092e+05 -1.295070e+05 -3.765923e+04
-2.095175e+05 -1.212046e+05 -3.351311e+04
-2.177387e+05 -1.250499e+05 -3.361070e+04
-2.012410e+05 -1.015053e+05 -3.141235e+04
-2.011299e+05 -1.082350e+05 -3.468872e+04
-1.937598e+05 -1.017903e+05 -3.307294e+04
-2.037070e+05 -1.097785e+05 -2.885104e+04
-1.988177e+05 -1.006852e+05 -2.520309e+04
-1.964069e+05 -1.082660e+05 -2.976757e+04
-1.915176e+05 -9.917274e+04 -2.611962e+04
-2.080558e+05 -1.050491e+05 -3.210279e+04
-2.174100e+05 -1.060675e+05 -3.209840e+04
-2.080499e+05 -1.124681e+05 -3.595740e+04
-2.132480e+05 -1.058716e+05 -2.454991e+04
-2.108372e+05 -1.134524e+05 -2.911439e+04
-1.937760e+05 -1.089836e+05 -3.619174e+04
-1.884173e+05 -1.057307e+05 -3.030657e+04
-2.165877e+05 -1.158337e+05 -3.646814e+04
-2.190585e+05 -1.172977e+05 -2.921198e+04
-2.037279e+05 -1.089493e+05 -4.008761e+04
-2.269516e+05 -1.371977e+05 -3.785441e+04
-2.246390e+05 -1.382643e+05 -4.518815e+04
-2.184539e+05 -1.319700e+05 -4.357395e+04
-2.248632e+05 -1.272246e+05 -3.901956e+04
-2.320905e+05 -1.303381e+05 -4.031567e+04
-2.341811e+05 -1.327406e+05 -3.380588e+04
-2.276169e+05 -1.451698e+05 -4.190294e+04
-2.334173e+05 -1.393901e+05 -4.256052e+04
-2.348464e+05 -1.407127e+05 -3.785441e+04
-2.155911e+05 -1.243915e+05 -3.965116e+04
-2.187304e+05 -1.333524e+05 -3.775682e+04
-2.259599e+05 -1.288953e+05 -3.370829e+04
-2.411744e+05 -1.433115e+05 -4.226528e+04
-2.391601e+05 -1.360327e+05 -3.965821e+04
-2.470470e+05 -1.375018e+05 -3.875295e+04
-2.435702e+05 -1.435907e+05 -3.732375e+04
-2.429049e+05 -1.356186e+05 -3.327522e+04
-2.394143e+05 -1.199122e+05 -3.307278e+04
-2.496305e+05 -1.199750e+05 -3.266068e+04
-2.417280e+05 -1.284972e+05 -3.699710e+04
-2.444088e+05 -1.200744e+05 -2.472349e+04
-2.355009e+05 -1.249884e+05 -2.940716e+04
-2.430890e+05 -1.278266e+05 -2.912221e+04
-2.513032e+05 -1.297149e+05 -3.592069e+04
-2.518128e+05 -1.307046e+05 -2.859155e+04
-2.237445e+05 -1.202710e+05 -3.604849e+04
-2.312572e+05 -1.155550e+05 -3.232487e+04
-2.323791e+05 -1.233067e+05 -3.653260e+04
-2.272797e+05 -1.211431e+05 -2.930957e+04
-2.400796e+05 -1.308662e+05 -4.272288e+04
-1.679916e+05 -7.585227e+04 -2.779697e+04
-1.716460e+05 -6.676284e+04 -2.159171e+04
-1.759333e+05 -7.371689e+04 -2.489436e+04
-1.709807e+05 -7.494149e+04 -1.816186e+04
-1.736386e+05 -8.267719e+04 -2.161779e+04
-1.790811e+05 -7.325055e+04 -1.536779e+04
-1.817390e+05 -8.098625e+04 -1.882372e+04
-1.666189e+05 -8.506317e+04 -3.221900e+04
-1.752284e+05 -8.176278e+04 -2.842110e+04
-1.738359e+05 -8.997651e+04 -3.381442e+04
-1.705383e+05 -8.923517e+04 -2.580474e+04
-1.786387e+05 -8.754423e+04 -2.301067e+04
-1.787678e+05 -6.779235e+04 -2.344645e+04
-1.839383e+05 -7.519920e+04 -2.908841e+04
-1.841277e+05 -6.275939e+04 -1.925516e+04
-1.888477e+05 -6.933174e+04 -2.169262e+04
-1.849621e+05 -6.694667e+04 -1.066186e+04
-1.876200e+05 -7.468237e+04 -1.411779e+04
-1.934464e+05 -6.131184e+04 -1.504573e+04
-1.978137e+05 -6.741666e+04 -1.697873e+04
-1.929991e+05 -7.449507e+04 -2.097311e+04
-1.949201e+05 -7.619485e+04 -1.320126e+04
-1.890390e+05 -8.249873e+04 -1.790719e+04
-2.011876e+05 -7.521608e+04 -1.929754e+04
-1.963671e+05 -7.930979e+04 -2.453239e+04
-1.889851e+05 -7.894273e+04 -2.643131e+04
-1.920332e+05 -8.527190e+04 -2.646151e+04
-1.915835e+05 -9.255301e+04 -3.082469e+04
-1.836221e+05 -8.478229e+04 -2.861247e+04
-1.939283e+05 -9.159197e+04 -2.155514e+04
-1.866283e+05 -9.007949e+04 -2.247167e+04
-1.815473e+05 -9.195347e+04 -3.356730e+04
-1.835280e+05 -9.663747e+04 -2.665862e+04
-1.765508e+05 -7.440640e+04 -3.249082e+04
-8.743628e+04 -4.467956e+04 -2.181934e+04
-8.521789e+04 -4.677363e+04 -3.044192e+04
-8.585590e+04 -3.875616e+04 -2.662919e+04
-9.277137e+04 -3.544845e+04 -2.312077e+04
-9.102338e+04 -4.299979e+04 -2.696428e+04
-9.331958e+04 -4.212890e+04 -1.909245e+04
-9.236148e+04 -4.954958e+04 -3.067095e+04
-8.818223e+04 -5.018177e+04 -2.454623e+04
-9.406554e+04 -4.763110e+04 -2.181934e+04
-8.699544e+04 -3.780359e+04 -1.829623e+04
-9.287875e+04 -3.525292e+04 -1.556934e+04
-9.079109e+04 -2.879764e+04 -2.054788e+04
-9.794054e+04 -2.808098e+04 -1.813138e+04
-9.940308e+04 -3.667632e+04 -2.134565e+04
-9.906718e+04 -3.132849e+04 -1.204623e+04
-9.950801e+04 -3.820446e+04 -1.556934e+04
-1.049033e+05 -3.116114e+04 -1.643166e+04
-1.007628e+05 -4.902569e+04 -2.098219e+04
-9.967916e+04 -4.935936e+04 -2.929680e+04
-1.067140e+05 -4.491807e+04 -1.741816e+04
-1.000168e+05 -4.352349e+04 -1.825531e+04
-1.034972e+05 -4.347184e+04 -2.379178e+04
-9.746981e+04 -4.376438e+04 -2.589160e+04
-1.062052e+05 -3.959905e+04 -1.473219e+04
-1.059311e+05 -3.792788e+04 -1.986040e+04
-9.651899e+04 -3.746875e+04 -2.914773e+04
-1.476094e+05 -6.728713e+04 -1.961296e+04
-1.415561e+05 -7.115655e+04 -2.307531e+04
-1.455211e+05 -6.416158e+04 -2.453503e+04
-1.470333e+05 -6.046616e+04 -1.615061e+04
-1.409801e+05 -6.433559e+04 -1.961296e+04
-1.442509e+05 -5.713987e+04 -2.076950e+04
-1.382125e+05 -6.315838e+04 -2.566652e+04
-1.517714e+05 -6.688003e+04 -2.637079e+04
-1.501259e+05 -6.081960e+04 -2.216630e+04
-1.569489e+05 -5.813313e+04 -1.997802e+04
-1.536279e+05 -6.468145e+04 -1.682531e+04
-1.530518e+05 -5.786049e+04 -1.336296e+04
-1.573353e+05 -5.099031e+04 -1.546436e+04
-1.518341e+05 -5.511360e+04 -1.862518e+04
-1.464226e+05 -5.490895e+04 -1.336296e+04
-1.524411e+05 -5.230327e+04 -1.057531e+04
-1.498289e+05 -5.006931e+04 -1.618897e+04
-1.342489e+05 -6.114586e+04 -1.951127e+04
-1.403021e+05 -5.727643e+04 -1.604893e+04
-1.335709e+05 -5.408671e+04 -1.594724e+04
-1.358548e+05 -5.463529e+04 -2.196810e+04
-1.434547e+05 -4.935698e+04 -1.825328e+04
-1.396914e+05 -5.171922e+04 -1.326127e+04
-1.497780e+05 -5.537076e+04 -2.473655e+04
-1.148352e+05 -5.887402e+04 -2.287193e+04
-1.141572e+05 -5.181486e+04 -1.930790e+04
-1.157266e+05 -5.396084e+04 -2.735284e+04
-1.207864e+05 -5.476640e+04 -1.930790e+04
-1.247570e+05 -5.584941e+04 -2.663263e+04
-1.201084e+05 -4.770725e+04 -1.574386e+04
-1.221805e+05 -4.852137e+04 -2.201791e+04
-1.275177e+05 -5.795613e+04 -1.940958e+04
-1.268397e+05 -5.089698e+04 -1.584555e+04
-1.291416e+05 -5.124015e+04 -2.109111e+04
-1.074600e+05 -5.042028e+04 -2.014504e+04
-1.137485e+05 -4.906906e+04 -2.520143e+04
-1.134112e+05 -4.631266e+04 -1.658101e+04
-1.164864e+05 -4.389108e+04 -2.155635e+04
-1.095635e+05 -4.351845e+04 -2.358505e+04
-1.195997e+05 -4.238822e+04 -1.305790e+04
-1.257201e+05 -4.002074e+04 -1.037193e+04
-1.227820e+05 -3.452114e+04 -1.536134e+04
-1.262289e+05 -4.533976e+04 -1.305790e+04
-1.239038e+05 -4.186541e+04 -1.958113e+04
-1.309306e+05 -3.868332e+04 -1.538435e+04
-1.129024e+05 -4.099364e+04 -1.389504e+04
-1.158786e+05 -3.536215e+04 -1.562821e+04
-1.119822e+05 -3.971153e+04 -1.876154e+04
-1.180981e+05 -3.981393e+04 -1.787623e+04
-1.303369e+05 -4.450634e+04 -1.901856e+04
-1.329601e+05 -4.852949e+04 -1.315958e+04
-1.193766e+05 -3.830433e+04 -2.279864e+04
-2.898564e+05 -1.732631e+05 -4.625891e+04
-2.819939e+05 -1.607659e+05 -4.180601e+04
-2.932441e+05 -1.114599e+05 -1.324672e+04
-2.801671e+05 -9.196686e+04 -9.278987e+03
-2.844332e+05 -1.271123e+05 -2.747965e+04
-2.835732e+05 -8.245207e+04 -7.064516e+03
-2.580386e+05 -9.397333e+04 -1.443730e+04
-2.681241e+05 -8.710301e+04 -1.506771e+04
2.858692e+05 1.574749e+05 -9.714202e+03
2.840356e+05 1.682448e+05 -7.396213e+03
2.770298e+05 1.471027e+05 -1.549139e+04
2.960102e+05 9.606412e+04 -4.537010e+04
2.860234e+05 9.159099e+04 -4.211871e+04
2.796365e+05 7.885552e+04 -4.659564e+04
2.672408e+05 8.234420e+04 -4.602714e+04
2.556320e+05 7.758982e+04 -4.229241e+04
2.829478e+05 8.995346e+04 -4.571784e+04
2.777776e+05 1.098340e+05 -3.133682e+04
-1.380757e+05 -6.923127e+04 -2.884098e+04
-1.470946e+05 -6.323079e+04 -2.967332e+04
-1.577881e+05 -6.494258e+04 -2.213212e+04
-1.305102e+05 -6.014758e+04 -2.643301e+04
-1.239446e+05 -8.688146e+04 -4.122525e+04
-1.657756e+05 -6.977311e+04 -2.263476e+04
-1.657626e+05 -9.244172e+04 -3.472087e+04
-1.718569e+05 -5.923995e+04 -2.519872e+04
-1.874084e+05 -5.702184e+04 -1.253480e+04
-1.576920e+05 -1.034893e+05 -4.208465e+04
-1.338982e+05 -1.023016e+05 -4.612441e+04
-1.619713e+05 -1.168259e+05 -4.652715e+04
-1.642997e+05 -1.118708e+05 -4.731425e+04
-1.310170e+05 -8.795405e+04 -4.429397e+04
-1.130348e+05 -7.947198e+04 -3.987981e+04
-1.161327e+05 -7.993590e+04 -4.388212e+04
-1.553687e+05 -4.535891e+04 -1.294285e+04
-1.865857e+05 -9.855104e+04 -3.319370e+04
-5.711990e+04 -6.025139e+04 -4.163230e+04
-5.655434e+04 -3.724420e+04 -3.082557e+04
-8.615484e+04 -5.302910e+04 -3.224546e+04
-8.455244e+04 -3.287430e+04 -2.235670e+04
-7.420372e+04 -2.751606e+04 -2.400622e+04
-3.611154e+04 -6.204507e+04 -4.612590e+04
-6.839546e+04 -7.006391e+04 -4.466481e+04
-7.276476e+04 -8.053590e+03 -1.323788e+04
-7.619554e+04 -1.250030e+04 -2.053381e+04
-8.230382e+04 -6.574894e+04 -4.150970e+04
-3.363164e+04 -2.934990e+04 -3.338258e+04
-1.062130e+05 -4.863317e+04 -2.617867e+04
-9.367662e+04 -7.030922e+04 -4.435512e+04
-1.002431e+05 -8.341368e+04 -4.479887e+04
-1.029780e+05 -2.553512e+04 -1.315607e+04
-1.855884e+05 -4.685213e+04 -6.111808e+03
-1.630749e+05 -4.104953e+04 -7.516975e+03
-1.898226e+05 -5.112562e+04 -1.469904e+04
-1.938353e+05 -4.187284e+04 -7.455939e+03
-1.493376e+05 -4.647121e+04 -2.029756e+04
-1.362851e+05 -4.805099e+04 -1.979954e+04
-2.032292e+05 -7.084444e+04 -1.436415e+04
-1.547178e+05 -3.259763e+04 -6.977489e+03
-9.440545e+04 -5.585321e+03 -5.418049e+03
-6.207042e+04 7.849451e+02 -1.279213e+04
-1.069772e+05 -1.779089e+04 -8.657496e+03
-1.014332e+05 -1.095831e+04 -1.368834e+04
-1.254087e+05 -2.110219e+04 -5.660124e+03
-1.097226e+05 -3.469575e+04 -1.690857e+04
-1.106111e+05 -3.038860e+04 -1.911979e+04
-2.906722e+05 -1.407774e+05 -3.104749e+04
-2.915341e+05 -1.499556e+05 -4.107355e+04
-2.581228e+05 -1.585310e+05 -4.612602e+04
-2.715986e+05 -1.534529e+05 -4.554601e+04
-2.573956e+05 -1.258827e+05 -3.228828e+04
2.855522e+05 1.222950e+05 -2.996379e+04
2.545996e+05 1.458653e+05 -1.011231e+04
2.756598e+05 1.445866e+05 -2.511720e+04
2.547108e+05 1.072768e+05 -2.835869e+04
2.664897e+05 1.138649e+05 -3.474754e+04
2.485816e+05 6.533340e+04 -4.651099e+04
2.244923e+05 6.444470e+04 -4.220450e+04
2.365804e+05 6.935759e+04 -4.592528e+04
2.526207e+05 7.631379e+04 -4.590764e+04
2.486702e+05 9.570602e+04 -3.360452e+04
2.537654e+05 8.694982e+04 -4.261403e+04
2.170463e+05 5.138965e+04 -4.649815e+04
1.928331e+05 5.047112e+04 -4.217537e+04
2.048418e+05 5.528532e+04 -4.597436e+04
2.211218e+05 6.278183e+04 -4.590642e+04
2.176119e+05 8.297389e+04 -3.314953e+04
2.171639e+05 7.678543e+04 -4.057300e+04
1.853045e+05 3.740628e+04 -4.643226e+04
1.613216e+05 3.654935e+04 -4.234773e+04
1.689666e+05 3.548440e+04 -4.712543e+04
1.894121e+05 4.922268e+04 -4.578590e+04
1.836983e+05 7.073391e+04 -3.352685e+04
1.905744e+05 6.076289e+04 -4.291632e+04
1.525648e+05 2.453412e+04 -4.649880e+04
1.536388e+05 5.471495e+04 -3.291227e+04
1.596159e+05 4.568295e+04 -4.236543e+04
1.297090e+05 2.200994e+04 -4.210194e+04
1.223331e+05 9.199368e+03 -4.649853e+04
1.100925e+05 1.323163e+04 -4.585962e+04
9.813567e+04 8.167288e+03 -4.200861e+04
1.263355e+05 2.055524e+04 -4.577309e+04
1.225608e+05 4.018632e+04 -3.307826e+04
1.278007e+05 3.083232e+04 -4.254947e+04
9.071818e+04 -4.813938e+03 -4.649342e+04
9.475089e+04 6.876028e+03 -4.573784e+04
6.647282e+04 -5.892458e+03 -4.221583e+04
7.830768e+04 -9.152631e+02 -4.597803e+04
9.065013e+04 2.669306e+04 -3.328432e+04
9.647916e+04 1.713757e+04 -4.326166e+04
5.913372e+04 -1.888064e+04 -4.649391e+04
3.495271e+04 -1.985118e+04 -4.242316e+04
4.671935e+04 -1.455151e+04 -4.574098e+04
6.299365e+04 -7.303675e+03 -4.582780e+04
5.887017e+04 1.254692e+04 -3.318890e+04
6.416214e+04 3.496383e+03 -4.298979e+04
2.745629e+04 -3.297318e+04 -4.627593e+04
2.627057e+04 -2.746601e+04 -4.705533e+04
2.714639e+04 -1.402407e+03 -3.294308e+04
3.302567e+04 -1.045438e+04 -4.240452e+04
3.164360e+03 -3.382867e+04 -4.240133e+04
1.494313e+04 -2.854882e+04 -4.574104e+04
-4.409978e+03 -4.698742e+04 -4.624958e+04
-5.811360e+03 -4.142776e+04 -4.700814e+04
-4.507420e+03 -1.602650e+04 -3.267728e+04
6.815037e+02 -2.428331e+04 -4.227693e+04
-2.076068e+04 -4.478514e+04 -4.351128e+04
-1.063458e+05 -8.226924e+04 -4.670844e+04
-1.175434e+05 -6.054792e+04 -3.015004e+04
-1.868851e+05 -1.188247e+05 -4.239016e+04
-1.751195e+05 -1.139591e+05 -4.609777e+04
-1.951630e+05 -1.294511e+05 -4.550646e+04
-1.899610e+05 -1.200540e+05 -4.570102e+04
-2.113141e+05 -1.298495e+05 -4.212085e+04
-1.881289e+05 -1.100988e+05 -4.235145e+04
-2.251369e+05 -1.456787e+05 -4.653058e+04
-2.499221e+05 -1.461420e+05 -4.337778e+04
-2.235118e+05 -1.131420e+05 -3.288882e+04
-2.123345e+05 -1.160233e+05 -4.150340e+04
-2.587762e+05 -1.317736e+05 -4.057049e+04
-2.490300e+05 -8.385364e+04 -1.246764e+04
-2.514521e+05 -1.132888e+05 -2.731180e+04
-2.333273e+05 -8.315655e+04 -1.533893e+04
-2.168422e+05 -6.568843e+04 -1.032528e+04
-2.346734e+05 -9.078170e+04 -2.783613e+04
-2.208838e+05 -1.003067e+05 -2.734790e+04
-2.075386e+05 -7.371464e+04 -2.472344e+04
-1.981324e+05 -9.522027e+04 -2.943226e+04
-1.472199e+05 -3.026091e+04 -1.256110e+04
-1.352086e+05 -2.849075e+04 -8.636371e+03
-1.289441e+05 -3.449055e+04 -1.176382e+04
-3.780528e+04 1.243726e+03 -1.661433e+04
-2.877072e+04 1.335795e+04 -1.386317e+04
-3.763670e+04 -3.900460e+03 -2.676288e+04
-3.026564e+04 -1.703405e+04 -2.756737e+04
-1.352368e+04 1.295535e+04 -1.549036e+04
2.580740e+03 3.368517e+04 -9.105727e+03
-1.354149e+04 5.434493e+03 -2.757463e+04
1.369651e+03 -3.291696e+03 -2.943971e+04
1.952921e+04 3.074137e+04 -1.466187e+04
3.840480e+04 4.731339e+04 -1.226983e+04
5.450732e+04 4.366376e+04 -1.522738e+04
3.218474e+04 1.150617e+04 -2.806997e+04
1.894682e+04 2.530027e+04 -2.653711e+04
6.846118e+04 6.055995e+04 -1.072129e+04
6.556631e+04 7.252415e+04 -7.835027e+03
8.279532e+04 5.965873e+04 -1.515196e+04
7.797742e+04 6.220200e+04 -1.899304e+04
6.522838e+04 2.480879e+04 -2.995596e+04
8.938827e+04 6.649073e+04 -1.963533e+04
9.980374e+04 7.451515e+04 -1.192697e+04
8.250072e+04 5.186591e+04 -2.561997e+04
9.632611e+04 3.952062e+04 -2.961228e+04
1.155840e+05 7.267227e+04 -1.578955e+04
1.103483e+05 7.629504e+04 -2.009830e+04
1.218610e+05 8.063476e+04 -2.047968e+04
1.313435e+05 8.666859e+04 -1.133776e+04
1.293175e+05 1.002616e+05 -7.360900e+03
1.467113e+05 8.762070e+04 -1.556031e+04
1.408262e+05 9.064370e+04 -1.942883e+04
1.136878e+05 6.522840e+04 -2.734345e+04
1.281333e+05 5.273034e+04 -3.021502e+04
1.633401e+05 1.007910e+05 -1.032637e+04
1.610262e+05 1.141393e+05 -7.950088e+03
1.777450e+05 1.015763e+05 -1.519113e+04
1.586728e+05 6.764466e+04 -2.807539e+04
1.457528e+05 8.022397e+04 -2.671844e+04
1.948994e+05 1.170100e+05 -1.014106e+04
1.919010e+05 1.281943e+05 -8.783404e+03
2.084916e+05 1.162733e+05 -1.424543e+04
2.035669e+05 1.190232e+05 -1.750336e+04
1.875846e+05 1.126559e+05 -1.829065e+04
1.774106e+05 9.403232e+04 -2.588365e+04
1.901320e+05 8.246379e+04 -2.764016e+04
2.140796e+05 1.227911e+05 -1.853921e+04
2.249661e+05 1.285452e+05 -1.110855e+04
2.399587e+05 1.297457e+05 -1.505223e+04
2.333840e+05 1.333122e+05 -1.852447e+04
2.233642e+05 9.410340e+04 -2.771721e+04
2.440493e+05 1.384809e+05 -1.845755e+04
-1.151390e+05 -4.870808e+04 -3.106198e+04
-1.111141e+05 -3.726937e+04 -2.349770e+04
-2.359265e+05 -1.130929e+05 -3.725278e+04
-2.583856e+05 -1.195600e+05 -3.660186e+04
4.244352e+04 1.125682e+04 -3.645719e+04
2.625583e+04 4.292209e+03 -3.638985e+04
1.529120e+05 6.027289e+04 -3.629728e+04
2.371868e+05 9.606188e+04 -3.761302e+04
-5.695631e+03 -1.081419e+04 -3.596685e+04
-1.972252e+04 -1.647851e+04 -3.508190e+04
-3.417554e+04 -2.289926e+04 -3.627610e+04
-2.053639e+05 -9.940662e+04 -3.604412e+04
-1.908607e+05 -9.694389e+04 -3.687357e+04
-2.248025e+05 -1.075135e+05 -3.675966e+04
-1.798842e+05 -2.072977e+05 -5.000000e+04
-1.879574e+05 -2.193962e+05 -2.462299e+04
-1.577092e+05 -1.886470e+05 -2.578580e+04
-1.930457e+05 -1.765966e+05 -2.872981e+04
-2.001020e+05 -1.599234e+05 0.000000e+00
-2.236345e+05 -1.859575e+05 -2.582669e+04
-2.183410e+05 -1.584444e+05 -1.436182e+04
-1.734648e+05 -1.497025e+05 -1.883481e+04
-1.698616e+05 -1.693762e+05 0.000000e+00
-1.982572e+05 -1.997024e+05 0.000000e+00
-1.133707e+05 -1.444945e+05 -5.000000e+04
-1.062692e+05 -1.582711e+05 -2.421661e+04
-8.309057e+04 -1.683601e+05 -5.000000e+04
-7.345999e+04 -1.485553e+05 -2.628282e+04
-5.282335e+04 -1.547010e+05 -5.000000e+04
-5.414552e+04 -1.647729e+05 -2.471994e+04
-5.021281e+04 -1.163748e+05 -5.000000e+04
-3.703577e+04 -1.333489e+05 -2.562107e+04
-8.490677e+04 -1.266027e+05 -2.500831e+04
-5.673485e+04 -1.327840e+05 0.000000e+00
-5.858287e+04 -1.072030e+05 -2.009563e+04
2.353380e+05 -6.131522e+04 -5.000000e+04
2.189020e+05 -3.500308e+04 -2.462846e+04
2.009787e+05 -4.046259e+04 -5.000000e+04
2.199323e+05 -6.471219e+04 -2.492779e+04
2.361510e+05 -6.540655e+04 0.000000e+00
2.496407e+05 -4.012238e+04 -2.526585e+04
2.194629e+05 -9.371670e+04 -2.502604e+04
2.538860e+05 -9.047241e+04 -2.505331e+04
1.905019e+05 -5.528243e+04 -2.332808e+04
2.021175e+05 -7.678993e+04 -5.000000e+04
1.868541e+05 -8.530617e+04 -2.500457e+04
2.039231e+05 -8.216322e+04 0.000000e+00
2.683706e+05 -4.864987e+04 0.000000e+00
2.678875e+05 -6.263063e+04 -2.556585e+04
2.762102e+05 -2.961866e+04 -2.561963e+04
2.683706e+05 -1.513652e+04 0.000000e+00
2.477832e+05 -1.309308e+04 -2.430380e+04
2.766661e+05 3.364062e+03 -2.460284e+04
2.680498e+05 -4.473503e+04 -5.000000e+04
-2.518143e+05 -2.692901e+05 0.000000e+00
-2.166667e+05 -2.684836e+05 0.000000e+00
-2.373761e+05 -2.752407e+05 -2.489071e+04
-2.168265e+05 -2.670634e+05 -5.000000e+04
-2.020964e+05 -2.669007e+05 -2.517007e+04
-2.257868e+05 -2.470151e+05 -2.491718e+04
-2.519854e+05 -2.692705e+05 -5.000000e+04
-2.575757e+05 -2.516557e+05 -2.518855e+04
-2.740594e+05 -2.752325e+05 -3.447862e+04
1.708398e+05 -1.795586e+04 -5.000000e+04
2.024209e+05 -3.900806e+03 -5.000000e+04
1.810674e+05 8.745694e+03 -1.661654e+04
1.873333e+05 -2.619060e+04 -2.556520e+04
1.686142e+05 -5.451437e+04 -5.000000e+04
1.671706e+05 4.151734e+03 0.000000e+00
1.695670e+05 -3.130073e+04 0.000000e+00
1.546622e+05 -6.306540e+03 -1.968908e+04
2.039231e+05 -4.864987e+04 0.000000e+00
1.554502e+05 -5.198316e+04 -2.514581e+04
2.695501e+05 -2.484215e+05 0.000000e+00
2.512603e+05 -2.441893e+05 -2.520075e+04
2.769426e+05 -2.318125e+05 -2.448597e+04
2.697648e+05 -2.676851e+05 -2.923580e+04
2.517402e+05 -2.693272e+05 0.000000e+00
2.782892e+05 -2.777661e+05 -1.339893e+04
2.692785e+05 -2.476265e+05 -5.000000e+04
2.348103e+05 -2.765917e+05 -2.440230e+04
-1.666667e+04 -2.684836e+05 -5.000000e+04
5.805698e+03 -2.776586e+05 -2.320944e+04
3.585634e+03 -2.479981e+05 -2.361753e+04
-2.830089e+04 -2.747075e+05 -2.187157e+04
-2.332517e+04 -2.437817e+05 -2.918196e+04
-3.333333e+04 -2.362260e+05 -5.000000e+04
-4.350567e+04 -2.543264e+05 -2.748696e+04
-5.000000e+04 -2.684836e+05 0.000000e+00
-3.333333e+04 -2.362260e+05 0.000000e+00
-1.307993e+05 -1.406090e+05 -2.409252e+04
-1.449497e+05 -1.585544e+05 -5.000000e+04
-1.666667e+04 -2.684836e+05 0.000000e+00
2.809650e+05 3.705148e+04 -2.859055e+04
2.664044e+05 2.419918e+04 -5.000000e+04
2.517301e+05 1.632958e+04 -2.192698e+04
2.683706e+05 1.837683e+04 0.000000e+00
2.640915e+05 5.195724e+04 -1.474292e+04
-2.345763e+05 -1.683034e+05 0.000000e+00
-2.493094e+05 -1.865925e+05 -1.792052e+04
-2.206155e+05 -2.128237e+05 -2.524489e+04
-2.081075e+05 -1.866741e+05 -5.000000e+04
-2.393846e+05 -2.008286e+05 -5.000000e+04
2.683706e+05 -1.827033e+05 0.000000e+00
2.683706e+05 -1.491899e+05 0.000000e+00
2.764929e+05 -1.610843e+05 -2.346121e+04
2.680523e+05 -1.808763e+05 -5.000000e+04
2.496536e+05 -1.890944e+05 -2.499990e+04
2.764882e+05 -1.989560e+05 -2.439009e+04
2.480111e+05 -1.579873e+05 -2.466194e+04
2.680523e+05 -1.468410e+05 -5.000000e+04
2.784768e+05 -1.209080e+05 -2.257903e+04
2.680523e+05 -1.128057e+05 -5.000000e+04
2.683706e+05 -1.156766e+05 0.000000e+00
2.495899e+05 -1.242023e+05 -2.476167e+04
-1.012411e+05 -1.706303e+05 0.000000e+00
-7.499245e+04 -1.870550e+05 -2.355310e+04
-5.000000e+04 -2.039587e+05 0.000000e+00
-3.711591e+04 -1.878711e+05 -2.482931e+04
-5.490396e+04 -2.198894e+05 -2.507234e+04
-8.333333e+04 -2.039587e+05 0.000000e+00
-9.052452e+04 -2.198869e+05 -2.500652e+04
-6.670018e+04 -1.713993e+05 0.000000e+00
-1.084972e+05 -1.922342e+05 -2.540733e+04
2.680469e+05 -1.069970e+04 -5.000000e+04
-2.777143e+05 -2.246135e+05 -2.222494e+04
-2.804032e+05 -1.899175e+05 -1.678753e+04
-2.682710e+05 -2.158126e+05 0.000000e+00
2.361510e+05 -3.189320e+04 0.000000e+00
2.341320e+05 9.864746e+03 -5.000000e+04
2.193099e+05 -3.344228e+03 -2.049583e+04
2.348621e+05 -2.662133e+04 -5.000000e+04
1.385524e+05 -1.144767e+05 0.000000e+00
1.229266e+05 -1.248122e+05 -2.346198e+04
9.920121e+04 -9.899617e+04 0.000000e+00
1.178732e+05 -9.272701e+04 -2.467696e+04
1.049078e+05 -8.233852e+04 -5.000000e+04
1.364868e+05 -6.827867e+04 -5.000000e+04
1.196131e+05 -5.766261e+04 -2.599128e+04
1.022323e+05 -1.210628e+05 -5.000000e+04
1.345130e+05 -1.051402e+05 -5.000000e+04
8.613533e+04 -1.154476e+05 -2.519017e+04
8.778746e+04 -7.646181e+04 -2.478134e+04
2.166667e+05 -2.684836e+05 -5.000000e+04
2.232042e+05 -2.518076e+05 -2.482879e+04
2.012395e+05 -2.767409e+05 -2.430571e+04
2.518754e+05 -2.693153e+05 -5.000000e+04
2.683706e+05 -2.162166e+05 0.000000e+00
2.504927e+05 -2.168580e+05 -2.508172e+04
2.680477e+05 -2.149117e+05 -5.000000e+04
-7.020264e+04 -2.478058e+05 -2.539351e+04
4.452403e+04 -7.419527e+04 -5.000000e+04
5.762069e+04 -9.048663e+04 -2.573578e+04
6.225391e+04 -4.709349e+04 -1.869351e+04
3.133181e+04 -8.217318e+04 -2.191345e+04
4.174994e+04 -1.104582e+05 -5.000000e+04
2.290170e+04 -1.095164e+05 -2.434482e+04
1.294509e+04 -8.825513e+04 -5.000000e+04
-6.666667e+04 -2.362260e+05 0.000000e+00
-5.000000e+04 -2.684836e+05 -5.000000e+04
-6.976741e+04 -2.767333e+05 -2.346275e+04
-1.500000e+05 -2.684836e+05 0.000000e+00
-1.333333e+05 -2.362260e+05 0.000000e+00
-1.166667e+05 -2.684836e+05 0.000000e+00
-1.386621e+05 -2.514041e+05 -2.496905e+04
-1.062143e+05 -2.782575e+05 -2.325870e+04
-8.333333e+04 -2.684836e+05 0.000000e+00
-1.047066e+05 -2.505060e+05 -2.488663e+04
-8.333333e+04 -2.684836e+05 -5.000000e+04
1.833333e+05 -2.684836e+05 -5.000000e+04
2.166667e+05 -2.684836e+05 0.000000e+00
1.916425e+05 -2.508689e+05 -2.486483e+04
2.359410e+05 -1.298234e+05 -5.000000e+04
2.194665e+05 -1.220490e+05 -2.501453e+04
2.026370e+05 -1.469433e+05 -5.000000e+04
2.210286e+05 -1.484227e+05 -2.524220e+04
2.035165e+05 -1.518932e+05 0.000000e+00
1.863782e+05 -1.591671e+05 -2.540353e+04
1.881810e+05 -1.222517e+05 -2.517436e+04
2.345953e+05 -1.674597e+05 0.000000e+00
2.178469e+05 -1.800151e+05 -2.583392e+04
2.361510e+05 -1.324332e+05 0.000000e+00
2.344271e+05 -2.357114e+05 -5.000000e+04
2.359381e+05 -1.981416e+05 -5.000000e+04
2.201519e+05 -2.207482e+05 -2.470075e+04
2.340719e+05 -2.341391e+05 0.000000e+00
-2.697733e+05 -2.144548e+05 -5.000000e+04
-1.186449e+05 -1.263820e+05 0.000000e+00
-1.335212e+05 -1.694951e+05 0.000000e+00
-2.682695e+05 -1.821377e+05 0.000000e+00
-2.492900e+05 -2.235515e+05 -2.419188e+04
-1.439995e+05 -2.787993e+05 -2.245015e+04
-1.166667e+05 -2.684836e+05 -5.000000e+04
-2.417854e+04 -8.005048e+04 0.000000e+00
7.400407e+03 -6.599062e+04 0.000000e+00
3.781307e+03 -1.034650e+05 0.000000e+00
4.474478e+03 -7.887595e+04 -2.233663e+04
-1.500000e+05 -2.684836e+05 -5.000000e+04
-1.720546e+05 -2.535561e+05 -2.527437e+04
1.353624e+05 -2.677856e+05 -2.459930e+04
1.500000e+05 -2.684836e+05 0.000000e+00
1.680879e+05 -2.762894e+05 -2.435734e+04
1.833333e+05 -2.684836e+05 0.000000e+00
1.605092e+05 -2.498231e+05 -2.474789e+04
1.500000e+05 -2.684836e+05 -5.000000e+04
1.666667e+04 -2.684836e+05 -5.000000e+04
3.732332e+04 -2.524063e+05 -2.475064e+04
4.005915e+04 -2.785234e+05 -2.351688e+04
2.361510e+05 -9.891990e+04 0.000000e+00
1.666667e+04 -2.684836e+05 0.000000e+00
5.000000e+04 -2.684836e+05 0.000000e+00
7.321950e+04 -2.494531e+05 -2.516489e+04
7.960078e+04 -2.779506e+05 -2.794701e+04
-1.845072e+05 -2.662907e+05 -5.000000e+04
8.333333e+04 -2.684836e+05 0.000000e+00
1.078183e+05 -2.528800e+05 -2.525757e+04
1.166667e+05 -2.684836e+05 0.000000e+00
1.166667e+05 -2.684836e+05 -5.000000e+04
5.000000e+04 -2.684836e+05 -5.000000e+04
2.076531e+05 2.217388e+04 -1.764156e+04
2.358292e+05 3.525121e+04 0.000000e+00
2.024488e+05 1.878369e+04 0.000000e+00
-9.989695e+04 -2.364853e+05 -5.000000e+04
-6.666667e+04 -2.362260e+05 -5.000000e+04
-1.140579e+05 -2.075682e+05 -5.000000e+04
-8.356611e+04 -2.038239e+05 -5.000000e+04
1.666667e+05 -2.362260e+05 -5.000000e+04
1.500000e+05 -2.039551e+05 -5.000000e+04
1.425979e+05 -2.200546e+05 -2.493443e+04
1.805306e+05 -2.219408e+05 -2.581457e+04
1.680967e+05 -2.346965e+05 0.000000e+00
1.994222e+05 -2.383919e+05 -5.000000e+04
-2.691718e+05 -2.458672e+05 -5.000000e+04
-5.495258e+03 -1.199941e+05 -2.503449e+04
1.017100e+04 -1.245181e+05 -5.000000e+04
-2.809351e+04 -1.140718e+05 0.000000e+00
-2.599666e+04 -9.748975e+04 -2.419578e+04
-8.908158e+04 -1.431928e+05 0.000000e+00
-5.095017e+04 -2.002954e+05 -5.000000e+04
-1.991456e+04 -1.580475e+05 -2.661689e+04
3.852126e+04 -1.767266e+05 -5.000000e+04
2.751244e+04 -1.872644e+05 -2.495975e+04
5.494201e+04 -1.549883e+05 -2.515951e+04
1.711141e+04 -1.503315e+05 -2.521793e+04
-2.140795e+04 -1.385779e+05 -5.000000e+04
4.929741e+04 -1.377476e+05 0.000000e+00
3.333333e+04 -1.716781e+05 0.000000e+00
6.821828e+03 -1.634485e+05 -5.000000e+04
-9.313226e-10 -1.716781e+05 0.000000e+00
-5.448264e+03 -1.864804e+05 -2.504071e+04
-1.655136e+04 -1.393247e+05 0.000000e+00
1.000203e+05 -1.674616e+05 -5.000000e+04
9.332990e+04 -1.873041e+05 -2.506284e+04
1.213109e+05 -1.578528e+05 -2.503506e+04
8.873898e+04 -1.531164e+05 -2.507967e+04
6.666667e+04 -1.716781e+05 0.000000e+00
6.066886e+04 -1.876676e+05 -2.490668e+04
1.000000e+05 -1.716778e+05 0.000000e+00
7.150617e+04 -1.345130e+05 -5.000000e+04
6.693048e+04 -1.713711e+05 -5.000000e+04
8.350105e+04 -1.387004e+05 0.000000e+00
-1.544007e+04 -2.031974e+05 -5.000000e+04
-2.507811e+04 -1.739847e+05 -5.000000e+04
-1.666667e+04 -2.039587e+05 0.000000e+00
-2.171597e+04 -2.176972e+05 -2.537879e+04
-3.415489e+04 -1.703024e+05 0.000000e+00
-1.158105e+05 -1.794687e+05 -5.000000e+04
2.683718e+05 5.189018e+04 0.000000e+00
2.312799e+05 3.575522e+04 -1.871962e+04
2.352080e+05 6.897589e+04 0.000000e+00
2.683726e+05 8.540353e+04 0.000000e+00
2.683706e+05 -8.216322e+04 0.000000e+00
2.680523e+05 -7.877036e+04 -5.000000e+04
2.000000e+05 -2.362268e+05 0.000000e+00
-1.833333e+05 -2.684836e+05 0.000000e+00
-2.000000e+05 -2.360683e+05 0.000000e+00
7.610298e+04 -6.013542e+04 -5.000000e+04
6.567672e+04 -1.094376e+05 0.000000e+00
1.006008e+05 -6.081302e+04 0.000000e+00
6.779393e+04 -7.415570e+04 0.000000e+00
7.332889e+04 -9.639838e+04 -5.000000e+04
3.586278e+04 -9.277130e+04 0.000000e+00
4.884983e+04 -1.235638e+05 -2.514626e+04
3.897935e+04 -5.193077e+04 0.000000e+00
3.119881e+04 -5.176440e+04 -1.658196e+04
2.032105e+05 -1.487035e+04 0.000000e+00
-2.693583e+05 -2.481586e+05 0.000000e+00
-2.717411e+05 -2.733373e+05 -1.545448e+04
2.359410e+05 -1.638587e+05 -5.000000e+04
1.501999e+05 -1.491176e+05 0.000000e+00
1.513151e+05 -1.742896e+05 -2.525028e+04
1.553277e+05 -1.386537e+05 -2.559732e+04
-2.361770e+05 -1.998784e+05 0.000000e+00
1.728196e+05 -1.318989e+05 0.000000e+00
1.543657e+05 -1.001136e+05 -2.403706e+04
1.366838e+05 -8.133611e+04 0.000000e+00
1.671104e+05 -9.096646e+04 -5.000000e+04
1.686591e+05 -1.280451e+05 -5.000000e+04
-1.794183e+05 -1.191546e+05 0.000000e+00
-1.504554e+05 -1.373289e+05 0.000000e+00
-1.506694e+05 -1.277122e+05 -1.552618e+04
-2.098504e+05 -1.269821e+05 0.000000e+00
-1.000000e+05 -2.362260e+05 0.000000e+00
-1.335737e+05 -2.355388e+05 -5.000000e+04
-1.246377e+05 -2.203539e+05 -2.512012e+04
-1.678299e+05 -2.349983e+05 0.000000e+00
9.035124e+04 -3.561455e+04 -1.903524e+04
1.225120e+05 -1.955905e+04 -1.839029e+04
1.076819e+05 -4.607557e+04 -5.000000e+04
-2.361833e+05 -2.364538e+05 -5.000000e+04
-8.733643e+04 -1.081702e+05 0.000000e+00
-8.179176e+04 -1.304347e+05 -5.000000e+04
1.993796e+05 -1.994472e+05 0.000000e+00
1.788084e+05 -1.917327e+05 -2.714128e+04
2.042769e+05 -1.804034e+05 -5.000000e+04
1.683078e+05 -1.685229e+05 -5.000000e+04
1.744151e+05 -1.721815e+05 0.000000e+00
6.666667e+04 -2.362260e+05 0.000000e+00
1.000000e+05 -2.362260e+05 0.000000e+00
6.666667e+04 -2.362260e+05 -5.000000e+04
8.333333e+04 -2.684836e+05 -5.000000e+04
1.000000e+05 -2.362260e+05 -5.000000e+04
1.666667e+04 -2.039587e+05 0.000000e+00
3.892148e+04 -1.460198e+05 -5.000000e+04
1.743738e+04 -1.367855e+05 0.000000e+00
8.351350e+03 -2.164192e+05 -2.490883e+04
3.333333e+04 -2.362260e+05 0.000000e+00
4.193834e+04 -2.208004e+05 -2.497000e+04
-5.820766e-11 -2.362260e+05 -5.000000e+04
3.333333e+04 -2.362260e+05 -5.000000e+04
-2.328306e-10 -2.362260e+05 0.000000e+00
2.039231e+05 -1.156766e+05 0.000000e+00
7.055830e+04 -3.787092e+04 0.000000e+00
1.332961e+05 -4.614655e+04 0.000000e+00
-2.077167e+05 -2.260550e+05 -5.000000e+04
2.359405e+05 -9.578803e+04 -5.000000e+04
7.430494e+04 -2.172626e+05 -2.498874e+04
1.064818e+05 -2.195151e+05 -2.501164e+04
1.333333e+05 -2.362260e+05 -5.000000e+04
1.333333e+05 -2.362260e+05 0.000000e+00
8.333333e+04 -2.039587e+05 -5.000000e+04
5.000000e+04 -2.039587e+05 0.000000e+00
1.246756e+05 -1.891824e+05 -2.500007e+04
1.332085e+05 -1.727140e+05 0.000000e+00
1.325931e+05 -1.417881e+05 -5.000000e+04
1.337090e+05 -1.731654e+05 -5.000000e+04
2.361479e+05 1.620150e+03 0.000000e+00
1.166667e+05 -2.039587e+05 -5.000000e+04
1.528536e+05 -2.031824e+05 0.000000e+00
1.166667e+05 -2.039587e+05 0.000000e+00
2.026043e+05 -1.119494e+05 -5.000000e+04
1.716797e+05 -9.891990e+04 0.000000e+00
1.704017e+05 -6.488255e+04 0.000000e+00
2.066817e+05 -2.135690e+05 -5.000000e+04
-1.670131e+05 -2.354630e+05 -5.000000e+04
-1.553653e+05 -2.230764e+05 -2.667309e+04
-5.575749e+04 -9.411033e+04 0.000000e+00
-2.412639e+04 -7.081566e+04 -1.545612e+04
1.816390e+05 -2.040111e+05 -5.000000e+04
2.361519e+05 -1.994599e+05 0.000000e+00
1.392609e+05 -3.201571e+04 -5.000000e+04
1.021372e+05 -2.381106e+04 0.000000e+00
-1.477766e+05 -1.970206e+05 -5.000000e+04
-1.522311e+05 -2.033914e+05 0.000000e+00
-1.765286e+05 -1.726142e+05 -5.000000e+04
1.668760e+04 -2.032390e+05 -5.000000e+04
8.333333e+04 -2.039587e+05 0.000000e+00
-1.863386e+04 -1.023150e+05 -5.000000e+04
5.047375e+04 -2.050185e+05 -5.000000e+04
1.155665e+05 -1.383501e+05 0.000000e+00
2.009048e+05 5.434093e+04 0.000000e+00
-2.332910e+05 -2.346820e+05 0.000000e+00
-1.166667e+05 -2.039587e+05 0.000000e+00
1.348102e+05 -1.019000e+04 0.000000e+00
4.174994e+04 -1.565995e+04 0.000000e+00
-2.344210e+05 -1.402319e+05 0.000000e+00
1.364868e+05 2.651961e+04 0.000000e+00
1.686127e+05 4.022864e+04 0.000000e+00
-2.681010e+05 -1.494123e+05 0.000000e+00
-5.298690e+04 -5.783951e+04 0.000000e+00
-2.140795e+04 -4.377965e+04 0.000000e+00
1.049078e+05 1.245976e+04 0.000000e+00
-1.477237e+05 -1.000191e+05 0.000000e+00
1.017100e+04 -2.971980e+04 0.000000e+00
-8.456585e+04 -7.189936e+04 0.000000e+00
7.332889e+04 -1.600093e+03 0.000000e+00
-2.891696e+05 -1.897737e+05 -3.622393e+04
-2.848867e+05 -2.036017e+05 -5.000000e+04
-2.690972e+05 -1.965718e+05 -5.000000e+04
-2.722494e+05 -1.843081e+05 -3.266997e+04
-2.898576e+05 -1.757752e+05 -2.693345e+04
-2.671904e+05 -1.178715e+05 -4.454771e+03
-2.849565e+05 -1.085837e+05 0.000000e+00
-2.852243e+05 -1.265107e+05 -7.045334e+03
-2.699129e+05 -1.192170e+05 0.000000e+00
-2.691670e+05 -1.015537e+05 0.000000e+00
2.842105e+05 1.454003e+05 0.000000e+00
2.855712e+05 5.458083e+04 -3.772760e+04
2.862746e+05 6.813767e+04 -3.466293e+04
2.842105e+05 5.034103e+04 -5.000000e+04
2.831981e+05 8.031156e+04 -2.802633e+04
-1.535145e+05 -1.107918e+05 -2.174696e+04
-1.340841e+05 -1.099944e+05 -1.763520e+04
-1.507557e+05 -9.505597e+04 -1.011233e+04
-1.644637e+05 -1.207347e+05 -2.761906e+04
-1.738634e+05 -1.124692e+05 -1.900080e+04
-1.640020e+05 -1.004208e+05 -1.491596e+04
-1.480587e+05 -1.253760e+05 -3.297634e+04
-1.366180e+05 -1.167459e+05 -2.851747e+04
-1.349542e+05 -1.304848e+05 -3.747401e+04
-1.817834e+05 -9.646956e+04 -1.059464e+04
-1.209684e+05 -1.195269e+05 -3.054936e+04
-1.574759e+05 -6.036957e+04 -3.213633e+03
-1.431218e+05 -7.830510e+04 -9.702564e+03
-1.417003e+05 -6.211255e+04 -6.893503e+03
-1.449497e+05 -6.375611e+04 0.000000e+00
-1.148279e+05 -1.090997e+05 -2.223603e+04
-1.628033e+05 -7.855658e+04 -5.895064e+03
-1.275847e+05 -7.011251e+04 -1.166185e+04
-1.283696e+05 -9.475691e+04 -1.559944e+04
-1.161448e+05 -8.595921e+04 0.000000e+00
-1.065331e+05 -9.692025e+04 -2.476784e+04
-1.205579e+05 -8.354958e+04 -1.430118e+04
-1.695163e+05 -9.055913e+04 -9.659616e+03
-1.581426e+05 -1.102791e+05 -8.934440e+03
-7.649077e+04 -6.141819e+04 -1.154399e+04
-7.769225e+04 -8.362862e+04 -2.373230e+04
-6.435827e+04 -7.824487e+04 -2.270901e+04
-6.649289e+04 -9.940663e+04 -3.354027e+04
-9.006107e+04 -7.203224e+04 -1.623629e+04
-5.457258e+04 -8.915523e+04 -3.353463e+04
-9.037712e+04 -5.612304e+04 -1.042441e+04
-9.133363e+04 -4.305677e+04 -4.991644e+03
-8.179176e+04 -3.563640e+04 0.000000e+00
-7.073420e+04 -4.529019e+04 -9.058524e+03
-6.333765e+04 -6.631372e+04 -1.856115e+04
-4.593165e+04 -8.180490e+04 -2.343190e+04
-5.741748e+04 -5.744644e+04 -1.571757e+04
-4.437786e+04 -6.652602e+04 -2.448617e+04
-4.415149e+04 -5.234465e+04 -1.863690e+04
-5.349308e+04 -3.751686e+04 -7.082596e+03
-8.841121e+04 -2.508691e+04 -2.433933e+03
-6.463724e+04 -2.582477e+04 -4.340238e+03
-1.428103e+05 -4.982142e+04 -2.348997e+03
-1.751081e+05 -5.991056e+04 0.000000e+00
-1.908975e+05 -6.694049e+04 0.000000e+00
-1.728326e+05 -6.480838e+04 -2.746868e+03
-1.765319e+05 -7.811023e+04 0.000000e+00
-1.593169e+05 -5.273350e+04 0.000000e+00
-1.799490e+05 -8.172081e+04 -6.491393e+03
-8.036956e+04 -1.758387e+04 0.000000e+00
-1.012878e+05 -3.176136e+04 -3.959583e+03
-9.615904e+04 -2.461380e+04 0.000000e+00
-2.700343e+05 -1.532023e+05 -1.458373e+04
-2.857861e+05 -1.594657e+05 -1.925132e+04
-2.756804e+05 -1.674842e+05 -2.375820e+04
-2.873736e+05 -1.465050e+05 -7.854131e+03
-2.871855e+05 -1.680983e+05 -1.077433e+04
-2.731101e+05 -1.360402e+05 -8.970972e+03
2.682103e+05 1.183559e+05 -6.018053e+03
2.860936e+05 1.116093e+05 -1.340488e+04
2.864524e+05 1.267021e+05 -4.538202e+03
2.681888e+05 1.191711e+05 0.000000e+00
2.683049e+05 1.371491e+05 0.000000e+00
2.842503e+05 9.101815e+04 -1.933623e+04
2.707171e+05 1.015964e+05 -9.980414e+03
2.759291e+05 5.033819e+04 -4.203353e+04
2.706221e+05 5.736253e+04 -3.009899e+04
2.673305e+05 7.384768e+04 -2.575271e+04
2.674127e+05 4.226397e+04 -5.000000e+04
2.504714e+05 6.440663e+04 -2.263888e+04
2.502399e+05 4.788408e+04 -3.148029e+04
2.516232e+05 3.523405e+04 -5.000000e+04
2.339872e+05 4.050220e+04 -3.495180e+04
2.462214e+05 3.051102e+04 -3.590379e+04
2.354871e+05 2.806683e+04 -5.000000e+04
2.337980e+05 5.846982e+04 -2.316523e+04
2.178851e+05 4.781612e+04 -2.560541e+04
2.208743e+05 3.384621e+04 -3.545722e+04
2.196976e+05 2.103690e+04 -5.000000e+04
2.066624e+05 2.791439e+04 -3.232302e+04
2.053050e+05 4.822769e+04 -2.393232e+04
1.904770e+05 3.633874e+04 -2.360299e+04
1.915105e+05 2.081145e+04 -3.471900e+04
1.880526e+05 7.124199e+03 -5.000000e+04
2.038420e+05 1.415413e+04 -5.000000e+04
1.784123e+05 1.586379e+04 -3.111082e+04
1.760452e+05 3.524793e+04 -2.359427e+04
1.652144e+05 2.513042e+04 -2.511987e+04
1.659083e+05 9.510507e+03 -3.328812e+04
1.515042e+05 1.774070e+04 -2.712082e+04
1.722620e+05 9.667189e+01 -5.000000e+04
1.492821e+05 -1.703614e+02 -3.488338e+04
1.564725e+05 -6.933255e+03 -5.000000e+04
1.356922e+05 1.045591e+04 -2.369356e+04
1.360552e+05 -2.693450e+03 -3.277852e+04
1.200691e+05 3.191983e+03 -2.634685e+04
1.406831e+05 -1.396318e+04 -5.000000e+04
1.170873e+05 -1.446310e+04 -3.254886e+04
1.248936e+05 -2.099311e+04 -5.000000e+04
8.561568e+04 -1.295225e+04 -2.568650e+04
8.768536e+04 -2.818581e+04 -3.577284e+04
1.047199e+05 -1.981701e+04 -3.633153e+04
9.331465e+04 -3.505296e+04 -5.000000e+04
1.091041e+05 -2.802303e+04 -5.000000e+04
1.038266e+05 -2.150083e+03 -2.226454e+04
6.874094e+04 -1.891259e+04 -2.425936e+04
7.300380e+04 -3.120722e+04 -3.342549e+04
5.892045e+04 -2.740238e+04 -2.845806e+04
7.752517e+04 -4.208289e+04 -5.000000e+04
5.814967e+04 -4.174961e+04 -3.451574e+04
6.173570e+04 -4.911281e+04 -5.000000e+04
3.904420e+04 -4.384290e+04 -3.339310e+04
4.594623e+04 -5.614274e+04 -5.000000e+04
2.609866e+04 -3.256877e+04 -2.402933e+04
2.403991e+04 -5.296035e+04 -3.382472e+04
4.398766e+04 -2.811757e+04 -2.316143e+04
3.015675e+04 -6.317267e+04 -5.000000e+04
2.420204e+04 -7.134282e+04 -3.488094e+04
1.105735e+04 -6.121718e+04 -3.409629e+04
-4.110276e+03 -7.030172e+04 -3.521824e+04
1.436728e+04 -7.020259e+04 -5.000000e+04
-1.422194e+03 -7.723252e+04 -5.000000e+04
9.254254e+03 -4.581142e+04 -2.430477e+04
-2.034383e+03 -5.508745e+04 -2.917130e+04
-2.090673e+04 -6.753105e+04 -3.356666e+04
-3.294722e+04 -7.395766e+04 -3.195308e+04
-1.928141e+04 -7.732132e+04 -3.623903e+04
-3.302107e+04 -8.826868e+04 -3.788281e+04
-3.217154e+04 -5.979251e+04 -2.543786e+04
-1.721167e+04 -8.426245e+04 -5.000000e+04
-3.300114e+04 -9.129237e+04 -5.000000e+04
-1.677382e+04 -5.570380e+04 -2.437572e+04
-6.458009e+04 -1.053522e+05 -5.000000e+04
-4.879061e+04 -9.832230e+04 -5.000000e+04
-7.988870e+04 -1.072801e+05 -3.714891e+04
-8.536213e+04 -1.023701e+05 -2.295919e+04
-1.012325e+05 -1.074243e+05 -3.116008e+04
-9.786589e+04 -1.180608e+05 -3.598992e+04
-8.036956e+04 -1.123822e+05 -5.000000e+04
-9.615904e+04 -1.194121e+05 -5.000000e+04
-9.179555e+04 -8.971259e+04 -2.401580e+04
-1.016312e+05 -7.804787e+04 -1.803754e+04
-1.277380e+05 -1.334719e+05 -5.000000e+04
-1.119485e+05 -1.264420e+05 -5.000000e+04
-1.545898e+05 -1.405571e+05 -3.754020e+04
-1.601710e+05 -1.303969e+05 -3.407051e+04
-1.593169e+05 -1.475318e+05 -5.000000e+04
-1.435275e+05 -1.405019e+05 -5.000000e+04
-1.742648e+05 -1.220350e+05 -2.817752e+04
-1.912102e+05 -1.345523e+05 -2.289959e+04
-1.732339e+05 -1.397152e+05 -3.229696e+04
-1.908959e+05 -1.615916e+05 -5.000000e+04
-1.751064e+05 -1.545617e+05 -5.000000e+04
-1.906968e+05 -1.543097e+05 -3.514313e+04
-1.995107e+05 -1.604902e+05 -4.166789e+04
-2.081637e+05 -1.551183e+05 -3.117932e+04
-2.097597e+05 -1.364810e+05 -2.168289e+04
-2.292165e+05 -1.439656e+05 -2.112380e+04
-2.066854e+05 -1.686216e+05 -5.000000e+04
-2.254357e+05 -1.640259e+05 -3.345615e+04
-2.224748e+05 -1.756515e+05 -5.000000e+04
-2.314450e+05 -1.740978e+05 -4.108935e+04
-2.415408e+05 -1.734600e+05 -3.218711e+04
-2.446294e+05 -1.563954e+05 -2.367320e+04
-2.583077e+05 -1.677504e+05 -2.613351e+04
-2.557453e+05 -1.838700e+05 -3.716933e+04
-2.381134e+05 -1.827287e+05 -5.000000e+04
-2.539028e+05 -1.897586e+05 -5.000000e+04
-2.382645e+05 -8.788259e+04 0.000000e+00
-2.540540e+05 -9.491252e+04 0.000000e+00
-2.374753e+05 -1.045861e+05 -5.234596e+03
-2.396870e+05 -1.059346e+05 0.000000e+00
-2.529681e+05 -1.113746e+05 -5.117171e+03
-2.066854e+05 -7.382328e+04 0.000000e+00
-2.224748e+05 -8.085321e+04 0.000000e+00
-2.081684e+05 -8.701551e+04 -3.646903e+03
-2.081075e+05 -9.187582e+04 0.000000e+00
-2.232591e+05 -9.250148e+04 -3.453988e+03
-1.933787e+05 -8.654436e+04 -5.976182e+03
-1.435275e+05 -4.570358e+04 0.000000e+00
-1.119485e+05 -3.164372e+04 0.000000e+00
-1.277380e+05 -3.867365e+04 0.000000e+00
-1.138265e+05 -3.825030e+04 -2.155181e+03
-1.133707e+05 -4.969626e+04 0.000000e+00
-1.298152e+05 -4.302910e+04 -3.445793e+03
-4.879061e+04 -3.524018e+03 0.000000e+00
-6.458009e+04 -1.055394e+04 0.000000e+00
-4.759109e+04 -1.939616e+04 -3.800232e+03
-5.021281e+04 -2.157655e+04 0.000000e+00
-1.658511e+04 -3.573109e+03 -4.043060e+03
-3.300114e+04 3.505909e+03 0.000000e+00
-3.383671e+04 -1.308782e+04 -5.228620e+03
-1.863386e+04 -7.516698e+03 0.000000e+00
-1.721167e+04 1.053584e+04 0.000000e+00
1.436728e+04 2.459569e+04 0.000000e+00
-1.422194e+03 1.756576e+04 0.000000e+00
1.424668e+04 1.142579e+04 -3.438397e+03
1.294509e+04 6.543155e+03 0.000000e+00
-3.529589e+03 -4.489274e+01 -5.687297e+03
2.623996e+04 1.730611e+04 -4.698894e+03
3.015675e+04 3.162561e+04 0.000000e+00
4.452403e+04 2.060301e+04 0.000000e+00
4.324849e+04 2.065978e+04 -4.347456e+03
4.594623e+04 3.865554e+04 0.000000e+00
6.240519e+04 2.858073e+04 -4.693280e+03
6.173570e+04 4.568547e+04 0.000000e+00
7.610298e+04 3.466286e+04 0.000000e+00
7.713976e+04 3.950606e+04 -3.660398e+03
7.752517e+04 5.271539e+04 0.000000e+00
9.331465e+04 5.974532e+04 0.000000e+00
1.076819e+05 4.872271e+04 0.000000e+00
8.874710e+04 4.444432e+04 -5.106906e+03
1.090069e+05 4.902750e+04 -4.269271e+03
1.091041e+05 6.677525e+04 0.000000e+00
1.248936e+05 7.380517e+04 0.000000e+00
1.392609e+05 6.278257e+04 0.000000e+00
1.237024e+05 5.585318e+04 -5.040727e+03
1.403668e+05 6.722140e+04 -3.739091e+03
1.406831e+05 8.083510e+04 0.000000e+00
1.564725e+05 8.786503e+04 0.000000e+00
1.708398e+05 7.684242e+04 0.000000e+00
1.520871e+05 7.263127e+04 -5.101769e+03
1.721022e+05 7.810798e+04 -4.182846e+03
1.722620e+05 9.489495e+04 0.000000e+00
1.881180e+05 1.017766e+05 0.000000e+00
2.025519e+05 9.060577e+04 0.000000e+00
1.860335e+05 8.344677e+04 -5.609698e+03
2.036906e+05 9.611016e+04 -3.569932e+03
2.039075e+05 1.088066e+05 0.000000e+00
2.200167e+05 1.158113e+05 0.000000e+00
2.347702e+05 1.046153e+05 0.000000e+00
2.176394e+05 9.684379e+04 -5.683404e+03
2.399772e+05 1.064407e+05 -5.079918e+03
2.358062e+05 1.228413e+05 0.000000e+00
2.525155e+05 1.301191e+05 0.000000e+00
2.508306e+05 1.121653e+05 -6.371690e+03
-1.317958e+05 -5.756123e+04 -7.206621e+03
-1.198790e+05 -5.335045e+04 -5.775530e+03
-1.147498e+05 -6.957887e+04 -1.317602e+04
-1.015034e+05 -6.176968e+04 -1.313541e+04
-1.222290e+05 -7.107228e+04 -4.321258e+03
-1.027597e+05 -4.888802e+04 -7.939297e+03
-1.021300e+05 -6.961924e+04 -5.042915e+03
-2.421165e+05 -1.169129e+05 -9.734079e+03
-2.539806e+05 -1.233066e+05 -9.574399e+03
-2.541040e+05 -1.394099e+05 -1.278650e+04
-2.387027e+05 -1.309619e+05 -1.391202e+04
6.511862e+04 -4.639611e+03 -1.527252e+04
5.642690e+04 1.071260e+04 -8.637985e+03
4.504468e+04 -1.077976e+04 -1.336714e+04
4.314980e+04 7.055144e+03 -9.620842e+03
7.813776e+04 5.702977e+03 -1.375017e+04
7.428850e+04 2.259321e+04 -7.995293e+03
2.686440e+04 7.498327e+02 -6.947217e+03
9.417706e+04 1.233190e+04 -1.598473e+04
9.029507e+04 2.568671e+04 -6.968087e+03
1.079670e+05 1.710307e+04 -1.402299e+04
1.057993e+05 3.617752e+04 -1.008379e+04
1.258676e+05 2.599524e+04 -1.599421e+04
1.197895e+05 3.941121e+04 -8.975203e+03
1.399216e+05 3.106982e+04 -1.361909e+04
1.370972e+05 5.022958e+04 -7.829759e+03
1.537211e+05 5.334013e+04 -7.087853e+03
1.688695e+05 6.440884e+04 -1.002523e+04
1.568928e+05 3.876872e+04 -1.469648e+04
1.711776e+05 4.513798e+04 -1.463049e+04
1.880479e+05 5.482605e+04 -1.617586e+04
1.825936e+05 6.760848e+04 -9.128006e+03
1.993593e+05 7.703597e+04 -8.110230e+03
2.018900e+05 5.841382e+04 -1.440516e+04
2.153208e+05 7.817842e+04 -7.180775e+03
2.200453e+05 6.548822e+04 -1.636320e+04
2.398237e+05 8.756657e+04 -1.126012e+04
2.327221e+05 7.116262e+04 -1.485495e+04
2.564187e+05 9.165789e+04 -1.465601e+04
-2.490625e+05 -1.582005e+05 -1.395302e+04
-2.515761e+05 -1.502387e+05 -5.648513e+03
-2.674385e+05 -1.725182e+05 -1.577531e+04
9.818000e+03 -5.329869e+03 -7.737478e+03
-6.836953e+03 -1.548619e+04 -8.978329e+03
1.286517e+04 -2.393627e+04 -1.416015e+04
3.113573e+04 -1.744444e+04 -1.586982e+04
-3.804093e+04 -3.279441e+04 -1.028470e+04
-2.242262e+04 -1.882030e+04 -8.445417e+03
-1.850190e+04 -3.760059e+04 -1.436814e+04
-9.579092e+02 -3.005757e+04 -1.565510e+04
-4.523268e+03 -1.071725e+04 -2.196916e+03
2.637307e+05 8.064425e+04 -1.517120e+04
2.470544e+05 7.593631e+04 -1.761116e+04
-3.094123e+04 -4.630974e+04 -1.860529e+04
-4.340738e+04 -3.708112e+04 -3.357273e+03
1.553376e+05 2.204409e+04 -1.686068e+04
1.677960e+05 2.179761e+04 -1.146651e+04
1.245545e+05 1.013513e+04 -1.385080e+04
9.119651e+04 -6.441339e+03 -9.689618e+03
9.945299e+04 -1.860131e+04 -1.496710e+04
6.308273e+04 -2.140640e+04 -1.269586e+04
1.446866e+02 -5.012040e+04 -1.185031e+04
-3.317321e+04 -5.621171e+04 -1.086184e+04
-2.164276e+05 -1.041145e+05 -5.741928e+03
-2.294352e+05 -1.149836e+05 -1.067264e+04
-2.085761e+05 -1.208190e+05 -1.339250e+04
-1.901610e+05 -1.137310e+05 -1.472900e+04
-1.999664e+05 -1.007337e+05 -8.938888e+03
-1.951916e+05 -9.560692e+04 -2.424013e+03
-2.232163e+05 -1.283840e+05 -1.625234e+04
-2.327897e+05 -1.197702e+05 -3.722248e+03
-2.253369e+05 -1.387678e+05 -9.033020e+03
-1.718576e+05 -9.560780e+04 -2.999740e+03
-2.940705e+05 -1.901076e+05 -4.518937e+04
-2.924433e+05 -1.981751e+05 -5.000000e+04
-2.866405e+05 -1.874733e+05 -4.298187e+04
-2.845486e+05 -1.946602e+05 -5.000000e+04
-2.939846e+05 -1.835383e+05 -4.149551e+04
-2.847626e+05 -1.056702e+05 -3.289876e+03
-2.924782e+05 -1.032670e+05 0.000000e+00
-2.924669e+05 -1.131283e+05 -4.998902e+03
-2.845835e+05 -9.975203e+04 0.000000e+00
2.921053e+05 1.572936e+05 0.000000e+00
2.935392e+05 6.550297e+04 -4.489961e+04
2.928056e+05 7.210894e+04 -4.378030e+04
2.921053e+05 6.236482e+04 -5.000000e+04
2.908383e+05 7.837891e+04 -4.129413e+04
-1.410993e+05 -1.017267e+05 -2.462206e+04
-1.518576e+05 -9.991008e+04 -2.645610e+04
-1.471690e+05 -9.361005e+04 -1.910585e+04
-1.568433e+05 -1.058751e+05 -2.959970e+04
-1.608907e+05 -9.843599e+04 -2.529509e+04
-1.565794e+05 -9.395753e+04 -2.267237e+04
-1.396774e+05 -1.120616e+05 -3.557686e+04
-1.483605e+05 -1.094072e+05 -3.217508e+04
-1.428790e+05 -1.034273e+05 -3.040409e+04
-1.661386e+05 -9.316619e+04 -2.151522e+04
-1.340729e+05 -1.060157e+05 -3.384061e+04
-1.555424e+05 -7.370633e+04 -1.426732e+04
-1.466719e+05 -8.362540e+04 -2.041899e+04
-1.461614e+05 -7.407841e+04 -1.587640e+04
-1.285792e+05 -1.040199e+05 -2.722974e+04
-1.551806e+05 -8.337583e+04 -1.798055e+04
-1.377739e+05 -7.894756e+04 -2.108391e+04
-1.262290e+05 -9.692810e+04 -2.933905e+04
-1.376991e+05 -9.385624e+04 -2.472451e+04
-1.339493e+05 -8.824126e+04 -2.504486e+04
-1.590525e+05 -8.937138e+04 -1.854775e+04
-1.543306e+05 -9.907014e+04 -1.833489e+04
-6.871820e+04 -7.704831e+04 -3.159412e+04
-7.438952e+04 -6.879869e+04 -2.702870e+04
-7.176434e+04 -5.705361e+04 -2.160210e+04
-6.845902e+04 -6.591321e+04 -2.687749e+04
-7.896876e+04 -6.043820e+04 -2.432946e+04
-6.392034e+04 -6.978847e+04 -3.272040e+04
-7.963399e+04 -5.382089e+04 -2.001201e+04
-7.612697e+04 -4.811457e+04 -1.825821e+04
-6.926724e+04 -4.814966e+04 -2.023095e+04
-5.868959e+04 -6.059345e+04 -2.965721e+04
-6.174150e+04 -6.527966e+04 -2.747848e+04
-6.619953e+04 -6.011062e+04 -2.589551e+04
-6.344810e+04 -5.510308e+04 -2.457410e+04
-5.627483e+04 -5.390136e+04 -2.540310e+04
-6.159475e+04 -4.616263e+04 -2.000355e+04
-7.568480e+04 -3.997299e+04 -1.434227e+04
-6.588341e+04 -3.915556e+04 -1.560778e+04
-1.652650e+05 -5.526172e+04 -5.462032e+03
-1.612535e+05 -6.552090e+04 -9.216416e+03
-1.580912e+05 -5.767963e+04 -7.161290e+03
-1.693011e+05 -6.335885e+04 -7.897438e+03
-1.586748e+05 -5.088379e+04 -4.920855e+03
-1.729717e+05 -5.441818e+04 -2.754759e+03
-1.792746e+05 -5.782530e+04 -4.101192e+03
-1.719721e+05 -5.745713e+04 -4.974812e+03
-1.653447e+05 -5.226504e+04 -3.148734e+03
-1.774760e+05 -6.396403e+04 -6.294283e+03
-9.032155e+04 -1.931042e+04 -4.666656e+03
-9.228763e+04 -2.724551e+04 -6.947568e+03
-8.169157e+04 -3.053720e+04 -8.881592e+03
-8.026077e+04 -1.997887e+04 -6.390388e+03
-8.650033e+04 -1.487285e+04 -3.147593e+03
-9.781034e+04 -2.187769e+04 -4.490491e+03
-9.566103e+04 -1.732224e+04 -2.618479e+03
-2.945799e+05 -1.676766e+05 -3.103055e+04
-2.929985e+05 -1.757441e+05 -3.634228e+04
-2.859893e+05 -1.701426e+05 -3.417745e+04
-2.867284e+05 -1.544984e+05 -2.654340e+04
-2.875188e+05 -1.623294e+05 -3.049671e+04
-2.923968e+05 -1.595801e+05 -2.742504e+04
-2.936493e+05 -1.534288e+05 -2.344286e+04
-2.931449e+05 -1.647365e+05 -2.335874e+04
-2.849746e+05 -1.225184e+05 -1.132213e+04
-2.932089e+05 -1.209109e+05 -9.249906e+03
-2.926102e+05 -1.277315e+05 -1.304114e+04
-2.930231e+05 -1.371855e+05 -1.318216e+04
-2.927830e+05 -1.452905e+05 -1.844953e+04
-2.859034e+05 -1.399916e+05 -1.678209e+04
-2.856412e+05 -1.324691e+05 -1.434178e+04
2.918153e+05 1.411402e+05 -8.543764e+03
2.843529e+05 1.276532e+05 -1.099694e+04
2.937490e+05 1.252654e+05 -1.662217e+04
2.929783e+05 1.321332e+05 -1.150408e+04
2.826064e+05 1.382599e+05 -7.213624e+03
2.918087e+05 9.521967e+04 -3.094955e+04
2.841639e+05 1.127796e+05 -1.923915e+04
2.937778e+05 1.089107e+05 -2.342503e+04
2.913778e+05 1.181303e+05 -1.858129e+04
2.908055e+05 1.001672e+05 -2.314207e+04
2.874886e+05 1.049032e+05 -2.507074e+04
2.861091e+05 6.906621e+04 -4.171067e+04
2.870378e+05 6.145404e+04 -4.316719e+04
2.782757e+05 5.789649e+04 -4.490193e+04
2.778368e+05 6.409734e+04 -4.259640e+04
2.842105e+05 5.884986e+04 -5.000000e+04
2.763158e+05 5.533490e+04 -5.000000e+04
2.766718e+05 7.043985e+04 -3.985440e+04
2.726774e+05 5.565061e+04 -4.603193e+04
2.702027e+05 5.988696e+04 -4.059426e+04
2.688424e+05 6.895482e+04 -3.560092e+04
2.679169e+05 5.129637e+04 -5.000000e+04
2.594125e+05 6.215276e+04 -3.673483e+04
2.612038e+05 5.485302e+04 -4.298456e+04
2.600222e+05 4.778141e+04 -5.000000e+04
2.438383e+05 5.596403e+04 -3.904444e+04
2.438867e+05 4.645836e+04 -4.212156e+04
2.533668e+05 5.134971e+04 -4.148034e+04
2.521274e+05 4.426644e+04 -5.000000e+04
2.442327e+05 4.075148e+04 -5.000000e+04
2.413348e+05 3.794278e+04 -4.354470e+04
2.348499e+05 4.520878e+04 -4.332737e+04
2.361646e+05 3.716787e+04 -5.000000e+04
2.361477e+05 5.192240e+04 -3.757364e+04
2.268841e+05 4.751071e+04 -3.837826e+04
2.288405e+05 4.081774e+04 -4.413868e+04
2.282699e+05 3.365291e+04 -5.000000e+04
2.119517e+05 4.020532e+04 -3.989266e+04
2.137131e+05 3.357641e+04 -4.436025e+04
2.217874e+05 3.754967e+04 -4.287636e+04
2.203751e+05 3.013794e+04 -5.000000e+04
2.124804e+05 2.662298e+04 -5.000000e+04
2.047848e+05 4.024836e+04 -3.511160e+04
2.065436e+05 3.064489e+04 -4.234155e+04
1.976318e+05 3.401569e+04 -3.930950e+04
1.982881e+05 2.661805e+04 -4.399627e+04
1.966579e+05 1.966663e+04 -5.000000e+04
2.045526e+05 2.318159e+04 -5.000000e+04
1.823736e+05 2.725532e+04 -3.939716e+04
1.828188e+05 1.993725e+04 -4.422198e+04
1.910502e+05 2.361909e+04 -4.278422e+04
1.887631e+05 1.615167e+04 -5.000000e+04
1.808684e+05 1.263670e+04 -5.000000e+04
1.771584e+05 1.765736e+04 -4.144472e+04
1.755215e+05 2.721038e+04 -3.479286e+04
1.624503e+05 1.857882e+04 -3.810051e+04
1.698006e+05 2.166553e+04 -3.899296e+04
1.694573e+05 1.516705e+04 -4.234024e+04
1.729731e+05 9.122938e+03 -5.000000e+04
1.637293e+05 1.085423e+04 -4.344017e+04
1.650784e+05 5.607975e+03 -5.000000e+04
1.448229e+05 1.121523e+04 -3.915569e+04
1.463179e+05 3.278960e+03 -4.378710e+04
1.555266e+05 7.065009e+03 -4.101552e+04
1.571836e+05 2.093012e+03 -5.000000e+04
1.492889e+05 -1.421951e+03 -5.000000e+04
1.383431e+05 7.520393e+03 -3.997077e+04
1.321454e+05 4.519950e+03 -4.061331e+04
1.383641e+05 1.086127e+03 -4.300315e+04
1.413942e+05 -4.936915e+03 -5.000000e+04
1.308286e+05 -3.305617e+03 -4.064140e+04
1.334994e+05 -8.451878e+03 -5.000000e+04
1.126053e+05 -2.746347e+03 -3.870966e+04
1.137711e+05 -1.247358e+04 -4.275353e+04
1.210906e+05 -5.853581e+03 -4.123703e+04
1.256047e+05 -1.196684e+04 -5.000000e+04
1.177100e+05 -1.548180e+04 -5.000000e+04
1.023365e+05 -1.100513e+04 -4.096362e+04
9.945597e+04 -1.796928e+04 -4.190031e+04
1.066306e+05 -1.403289e+04 -4.505829e+04
1.019205e+05 -2.251173e+04 -5.000000e+04
1.098152e+05 -1.899677e+04 -5.000000e+04
1.056543e+05 -5.329125e+03 -3.965233e+04
8.200709e+04 -1.746795e+04 -4.138098e+04
8.327628e+04 -2.502702e+04 -4.413731e+04
9.010937e+04 -2.008393e+04 -4.246016e+04
9.402575e+04 -2.602669e+04 -5.000000e+04
8.613101e+04 -2.954166e+04 -5.000000e+04
6.937080e+04 -2.354098e+04 -4.051147e+04
7.597441e+04 -2.011671e+04 -3.839143e+04
7.551673e+04 -2.698788e+04 -4.283040e+04
7.823627e+04 -3.305662e+04 -5.000000e+04
6.816088e+04 -3.130798e+04 -4.154166e+04
7.034153e+04 -3.657158e+04 -5.000000e+04
5.241963e+04 -3.176255e+04 -4.100324e+04
5.217588e+04 -4.104302e+04 -4.285179e+04
5.961270e+04 -3.414505e+04 -4.253460e+04
6.244680e+04 -4.008655e+04 -5.000000e+04
5.455206e+04 -4.360151e+04 -5.000000e+04
4.665732e+04 -4.711647e+04 -5.000000e+04
4.251659e+04 -3.924898e+04 -4.310291e+04
3.465941e+04 -3.546679e+04 -3.800842e+04
3.615986e+04 -4.403525e+04 -4.321329e+04
4.463782e+04 -3.339471e+04 -3.759719e+04
3.876259e+04 -5.063144e+04 -5.000000e+04
1.856649e+04 -4.355168e+04 -3.810596e+04
2.088873e+04 -5.201736e+04 -4.357058e+04
2.884568e+04 -4.841443e+04 -4.241970e+04
3.086785e+04 -5.414640e+04 -5.000000e+04
2.297311e+04 -5.766136e+04 -5.000000e+04
2.012421e+04 -6.101508e+04 -4.260849e+04
1.305108e+04 -5.548473e+04 -4.268670e+04
7.183640e+03 -6.469129e+04 -5.000000e+04
6.387210e+03 -6.068844e+04 -4.309371e+04
1.507838e+04 -6.117633e+04 -5.000000e+04
1.282416e+04 -4.873798e+04 -3.970106e+04
5.882183e+03 -5.214705e+04 -3.841418e+04
-3.323628e+03 -6.184051e+04 -4.244304e+04
-7.110969e+02 -6.820625e+04 -5.000000e+04
-8.605834e+03 -7.172122e+04 -5.000000e+04
-1.117899e+04 -6.779460e+04 -4.291319e+04
-1.090173e+04 -5.935883e+04 -3.977142e+04
-2.532303e+04 -7.695146e+04 -4.277975e+04
-2.456368e+04 -6.940982e+04 -4.259778e+04
-1.889263e+04 -6.555607e+04 -4.296127e+04
-1.880626e+04 -7.141130e+04 -4.370026e+04
-2.580412e+04 -6.310662e+04 -3.830569e+04
-1.650057e+04 -7.523618e+04 -5.000000e+04
-2.439531e+04 -7.875114e+04 -5.000000e+04
-1.738935e+04 -6.025811e+04 -3.819735e+04
-5.200420e+04 -8.169504e+04 -4.058673e+04
-5.949700e+04 -7.681502e+04 -3.651435e+04
-5.786776e+04 -8.618684e+04 -4.304511e+04
-5.540729e+04 -7.324572e+04 -2.974394e+04
-5.226852e+04 -6.623308e+04 -3.187492e+04
-4.568396e+04 -7.171672e+04 -3.718268e+04
-4.647018e+04 -7.708119e+04 -3.495429e+04
-4.569078e+04 -6.321575e+04 -3.317526e+04
-3.171313e+04 -7.115554e+04 -4.125416e+04
-3.301141e+04 -7.887524e+04 -4.370376e+04
-4.167118e+04 -8.397848e+04 -4.245345e+04
-3.922752e+04 -7.609168e+04 -4.098643e+04
-3.911376e+04 -6.854552e+04 -3.819521e+04
-3.229004e+04 -8.226611e+04 -5.000000e+04
-4.018478e+04 -8.578107e+04 -5.000000e+04
-5.597425e+04 -9.281100e+04 -5.000000e+04
-4.807952e+04 -8.929603e+04 -5.000000e+04
-3.917661e+04 -8.015139e+04 -3.457805e+04
-7.711704e+04 -7.710634e+04 -3.338078e+04
-7.165670e+04 -8.506739e+04 -3.742508e+04
-7.269469e+04 -9.755646e+04 -4.284456e+04
-7.810692e+04 -8.811539e+04 -3.717978e+04
-8.317815e+04 -8.126070e+04 -3.299692e+04
-6.452672e+04 -9.124439e+04 -4.248600e+04
-6.386899e+04 -9.632596e+04 -5.000000e+04
-7.176373e+04 -9.984092e+04 -5.000000e+04
-8.077025e+04 -1.005083e+05 -4.351305e+04
-8.187771e+04 -9.716275e+04 -3.559223e+04
-8.699917e+04 -1.054848e+05 -4.184656e+04
-9.269338e+04 -1.023522e+05 -3.600371e+04
-8.755320e+04 -1.068709e+05 -5.000000e+04
-7.965847e+04 -1.033559e+05 -5.000000e+04
-9.334071e+04 -9.425492e+04 -3.622681e+04
-8.554214e+04 -9.056367e+04 -3.679088e+04
-9.121886e+04 -8.359072e+04 -3.192900e+04
-1.148241e+05 -1.130266e+05 -3.953350e+04
-1.249520e+05 -1.095069e+05 -3.717139e+04
-1.216056e+05 -1.164185e+05 -4.284800e+04
-1.207009e+05 -1.062981e+05 -3.345468e+04
-1.107508e+05 -1.079843e+05 -3.575680e+04
-1.174270e+05 -1.003531e+05 -3.441445e+04
-1.085669e+05 -1.016408e+05 -3.837555e+04
-1.139977e+05 -9.268798e+04 -3.063083e+04
-1.002880e+05 -1.033351e+05 -3.911861e+04
-9.666799e+04 -1.080136e+05 -4.239853e+04
-1.038673e+05 -1.129732e+05 -4.423871e+04
-1.038303e+05 -1.078695e+05 -4.042101e+04
-9.544794e+04 -1.103858e+05 -5.000000e+04
-1.033427e+05 -1.139008e+05 -5.000000e+04
-1.006608e+05 -9.775284e+04 -3.966644e+04
-1.041344e+05 -8.994790e+04 -3.315737e+04
-1.191321e+05 -1.209307e+05 -5.000000e+04
-1.112374e+05 -1.174157e+05 -5.000000e+04
-1.466333e+05 -1.155022e+05 -3.863010e+04
-1.392356e+05 -1.179959e+05 -4.074445e+04
-1.381141e+05 -1.254491e+05 -4.462554e+04
-1.455238e+05 -1.228399e+05 -4.195443e+04
-1.532394e+05 -1.195831e+05 -3.721577e+04
-1.293973e+05 -1.209937e+05 -4.150443e+04
-1.270269e+05 -1.244457e+05 -5.000000e+04
-1.349216e+05 -1.279606e+05 -5.000000e+04
-1.474138e+05 -1.314024e+05 -4.319241e+04
-1.521480e+05 -1.256761e+05 -4.323182e+04
-1.507111e+05 -1.349906e+05 -5.000000e+04
-1.428164e+05 -1.314756e+05 -5.000000e+04
-1.590432e+05 -1.276146e+05 -4.213494e+04
-1.565978e+05 -1.333239e+05 -4.315896e+04
-1.631609e+05 -1.382707e+05 -4.542858e+04
-1.649167e+05 -1.326953e+05 -4.285846e+04
-1.669553e+05 -1.274067e+05 -4.022196e+04
-1.586058e+05 -1.385055e+05 -5.000000e+04
-1.665006e+05 -1.420205e+05 -5.000000e+04
-1.739090e+05 -1.276587e+05 -3.760908e+04
-1.814876e+05 -1.336272e+05 -3.876592e+04
-1.716552e+05 -1.378397e+05 -4.162042e+04
-1.822900e+05 -1.490504e+05 -5.000000e+04
-1.814705e+05 -1.426386e+05 -4.313172e+04
-1.743953e+05 -1.455354e+05 -5.000000e+04
-1.889249e+05 -1.471884e+05 -4.104100e+04
-1.901848e+05 -1.525654e+05 -5.000000e+04
-1.980795e+05 -1.560803e+05 -5.000000e+04
-1.974681e+05 -1.520069e+05 -4.427361e+04
-1.988015e+05 -1.452820e+05 -3.999461e+04
-2.021146e+05 -1.551887e+05 -4.621245e+04
-2.059006e+05 -1.516443e+05 -4.188801e+04
-2.058338e+05 -1.427803e+05 -3.574096e+04
-2.151009e+05 -1.487133e+05 -3.816276e+04
-2.059743e+05 -1.595953e+05 -5.000000e+04
-2.132168e+05 -1.555871e+05 -4.378507e+04
-2.138690e+05 -1.631103e+05 -5.000000e+04
-2.321387e+05 -1.538951e+05 -3.640279e+04
-2.309178e+05 -1.636303e+05 -4.323751e+04
-2.219845e+05 -1.579376e+05 -4.249009e+04
-2.217637e+05 -1.666252e+05 -5.000000e+04
-2.296585e+05 -1.701402e+05 -5.000000e+04
-2.342732e+05 -1.690316e+05 -4.593914e+04
-2.392645e+05 -1.676925e+05 -4.193939e+04
-2.474797e+05 -1.638674e+05 -3.711748e+04
-2.397770e+05 -1.602472e+05 -3.887294e+04
-2.453725e+05 -1.771938e+05 -5.000000e+04
-2.464479e+05 -1.730051e+05 -4.248887e+04
-2.374777e+05 -1.736788e+05 -5.000000e+04
-2.766539e+05 -1.911452e+05 -5.000000e+04
-2.775157e+05 -1.852637e+05 -4.359206e+04
-2.705921e+05 -1.798095e+05 -4.227774e+04
-2.687591e+05 -1.876303e+05 -5.000000e+04
-2.801423e+05 -1.774600e+05 -3.801547e+04
-2.719175e+05 -1.714128e+05 -3.747832e+04
-2.559444e+05 -1.745579e+05 -4.238030e+04
-2.532672e+05 -1.807087e+05 -5.000000e+04
-2.611619e+05 -1.842237e+05 -5.000000e+04
-2.618871e+05 -1.806095e+05 -4.469350e+04
-2.639143e+05 -1.736731e+05 -4.052032e+04
-2.700093e+05 -9.971835e+04 -3.400139e+03
-2.687940e+05 -9.272210e+04 0.000000e+00
-2.766888e+05 -9.623707e+04 0.000000e+00
-2.533428e+05 -8.588652e+04 0.000000e+00
-2.612375e+05 -8.940149e+04 0.000000e+00
-2.537640e+05 -9.207834e+04 -3.431584e+03
-2.617851e+05 -9.845763e+04 -4.262114e+03
-2.375533e+05 -7.885660e+04 0.000000e+00
-2.454481e+05 -8.237156e+04 0.000000e+00
-2.378813e+05 -8.758411e+04 -4.295344e+03
-2.217637e+05 -7.182694e+04 0.000000e+00
-2.296585e+05 -7.534191e+04 0.000000e+00
-2.220114e+05 -7.954325e+04 -4.141129e+03
-2.304570e+05 -8.084810e+04 -3.605540e+03
-1.901856e+05 -5.784066e+04 0.000000e+00
-1.980803e+05 -6.135562e+04 0.000000e+00
-1.867485e+05 -6.037565e+04 -2.587683e+03
-1.919881e+05 -6.952084e+04 -5.209077e+03
-2.059743e+05 -6.479702e+04 0.000000e+00
-2.138690e+05 -6.831198e+04 0.000000e+00
-2.089732e+05 -7.182410e+04 -3.019848e+03
-2.016816e+05 -7.060063e+04 -4.598774e+03
-1.743961e+05 -5.081073e+04 0.000000e+00
-1.822909e+05 -5.432569e+04 0.000000e+00
-1.741031e+05 -5.151800e+04 -1.425046e+03
-1.662469e+05 -4.816553e+04 -1.708908e+03
-1.665006e+05 -4.722220e+04 0.000000e+00
-1.613420e+05 -4.454918e+04 -1.295907e+03
-1.586058e+05 -4.370724e+04 0.000000e+00
-1.428164e+05 -3.667731e+04 0.000000e+00
-1.507111e+05 -4.019227e+04 0.000000e+00
-1.430060e+05 -3.646773e+04 -1.295794e+03
-1.270269e+05 -2.964738e+04 0.000000e+00
-1.349216e+05 -3.316235e+04 0.000000e+00
-1.304678e+05 -3.154891e+04 -1.408781e+03
-1.358121e+05 -3.538159e+04 -2.063711e+03
-9.544794e+04 -1.558753e+04 0.000000e+00
-1.033427e+05 -1.910249e+04 0.000000e+00
-1.001441e+05 -1.806593e+04 -1.268205e+03
-1.065448e+05 -2.264282e+04 -2.350256e+03
-1.112374e+05 -2.261746e+04 0.000000e+00
-1.191321e+05 -2.613242e+04 0.000000e+00
-1.125223e+05 -2.280238e+04 -1.319892e+03
-7.163412e+04 -1.282982e+04 -3.360902e+03
-7.965847e+04 -8.557605e+03 0.000000e+00
-8.200849e+04 -1.224131e+04 -1.843923e+03
-8.755320e+04 -1.207257e+04 0.000000e+00
-6.386899e+04 -1.527678e+03 0.000000e+00
-7.176373e+04 -5.042641e+03 0.000000e+00
-6.291472e+04 -9.451389e+03 -4.139445e+03
-4.807952e+04 5.502248e+03 0.000000e+00
-5.597425e+04 1.987285e+03 0.000000e+00
-4.869732e+04 4.943621e+02 -3.251353e+03
-3.287594e+04 6.290526e+03 -3.432231e+03
-4.018478e+04 9.017212e+03 0.000000e+00
-4.119068e+04 2.118205e+02 -5.069600e+03
-3.229004e+04 1.253218e+04 0.000000e+00
-1.650057e+04 1.956210e+04 0.000000e+00
-2.439531e+04 1.604714e+04 0.000000e+00
-1.809098e+04 1.209421e+04 -3.637197e+03
-7.110969e+02 2.659203e+04 0.000000e+00
-8.605834e+03 2.307706e+04 0.000000e+00
-1.326236e+03 2.036054e+04 -3.410074e+03
-9.945777e+03 1.323320e+04 -4.620183e+03
1.507838e+04 3.362195e+04 0.000000e+00
7.183640e+03 3.010699e+04 0.000000e+00
1.341722e+04 2.625621e+04 -3.674781e+03
2.133834e+04 2.757634e+04 -4.658063e+03
2.297311e+04 3.713692e+04 0.000000e+00
3.046199e+04 3.447609e+04 -3.574649e+03
3.086785e+04 4.065188e+04 0.000000e+00
4.665732e+04 4.768181e+04 0.000000e+00
3.876259e+04 4.416684e+04 0.000000e+00
4.557514e+04 4.204202e+04 -3.298615e+03
5.265780e+04 4.418575e+04 -4.655519e+03
5.455206e+04 5.119677e+04 0.000000e+00
6.227794e+04 4.641551e+04 -3.716839e+03
6.244680e+04 5.471173e+04 0.000000e+00
7.034153e+04 5.822670e+04 0.000000e+00
7.707550e+04 5.614924e+04 -3.490609e+03
7.823627e+04 6.174166e+04 0.000000e+00
8.457241e+04 5.516770e+04 -5.260286e+03
8.613101e+04 6.525662e+04 0.000000e+00
9.335662e+04 6.243451e+04 -3.436240e+03
9.402575e+04 6.877159e+04 0.000000e+00
1.082472e+05 6.820881e+04 -3.634894e+03
1.098152e+05 7.580151e+04 0.000000e+00
1.019205e+05 7.228655e+04 0.000000e+00
1.164892e+05 6.947296e+04 -4.573982e+03
1.177100e+05 7.931648e+04 0.000000e+00
1.249950e+05 7.660848e+04 -3.408473e+03
1.256047e+05 8.283144e+04 0.000000e+00
1.396964e+05 8.247694e+04 -3.659527e+03
1.413942e+05 8.986137e+04 0.000000e+00
1.334994e+05 8.634640e+04 0.000000e+00
1.476105e+05 8.372114e+04 -4.671242e+03
1.492889e+05 9.337633e+04 0.000000e+00
1.569080e+05 9.071245e+04 -3.586361e+03
1.571836e+05 9.689129e+04 0.000000e+00
1.719979e+05 9.803077e+04 -3.571670e+03
1.729731e+05 1.039212e+05 0.000000e+00
1.650784e+05 1.004063e+05 0.000000e+00
1.798965e+05 9.691278e+04 -5.224168e+03
1.809011e+05 1.073621e+05 0.000000e+00
1.892151e+05 1.039851e+05 -3.430922e+03
1.887959e+05 1.108770e+05 0.000000e+00
2.035139e+05 1.123064e+05 -3.504791e+03
2.045853e+05 1.179069e+05 0.000000e+00
1.966906e+05 1.143920e+05 0.000000e+00
2.113263e+05 1.109934e+05 -5.250399e+03
2.126399e+05 1.214093e+05 0.000000e+00
2.200104e+05 1.184846e+05 -3.469229e+03
2.205347e+05 1.249243e+05 0.000000e+00
2.351834e+05 1.242254e+05 -3.593396e+03
2.363241e+05 1.319542e+05 0.000000e+00
2.284294e+05 1.284393e+05 0.000000e+00
2.437102e+05 1.252823e+05 -4.725863e+03
2.446788e+05 1.355932e+05 0.000000e+00
2.528543e+05 1.313822e+05 -4.226352e+03
2.525735e+05 1.391081e+05 0.000000e+00
2.842105e+05 1.537786e+05 0.000000e+00
2.763158e+05 1.502637e+05 0.000000e+00
2.857436e+05 1.456741e+05 -3.805710e+03
2.693808e+05 1.389784e+05 -4.403800e+03
2.764639e+05 1.440806e+05 -3.797990e+03
2.683630e+05 1.461381e+05 0.000000e+00
2.604683e+05 1.426231e+05 0.000000e+00
-1.297068e+05 -7.712613e+04 -2.205750e+04
-1.244611e+05 -7.182249e+04 -2.159225e+04
-1.317940e+05 -7.017309e+04 -1.876982e+04
-1.183956e+05 -8.559172e+04 -2.812523e+04
-1.223656e+05 -7.938840e+04 -2.363000e+04
-1.283552e+05 -8.435309e+04 -2.329469e+04
-1.131166e+05 -7.978352e+04 -2.293412e+04
-1.257637e+05 -6.513639e+04 -1.809216e+04
-1.184872e+05 -6.631357e+04 -1.977841e+04
-1.176998e+05 -7.301118e+04 -2.253671e+04
-1.111466e+05 -6.903814e+04 -2.151197e+04
-1.210103e+05 -7.458777e+04 -1.665938e+04
-9.276107e+04 -6.851639e+04 -2.543862e+04
-8.734237e+04 -7.353469e+04 -2.841301e+04
-8.603183e+04 -6.364802e+04 -2.283010e+04
-9.300505e+04 -6.084479e+04 -2.224046e+04
-9.427367e+04 -7.654006e+04 -2.965036e+04
-9.943785e+04 -7.103024e+04 -2.589748e+04
-1.004967e+05 -8.080646e+04 -3.064279e+04
-1.057737e+05 -7.676973e+04 -2.596928e+04
-9.854999e+04 -6.294979e+04 -2.271965e+04
-1.062610e+05 -5.937233e+04 -1.796128e+04
-1.048448e+05 -6.712555e+04 -2.323009e+04
-9.955128e+04 -5.529167e+04 -1.886111e+04
-9.722775e+04 -6.966819e+04 -1.913500e+04
-1.030850e+05 -2.590633e+04 -5.039352e+03
-1.102260e+05 -2.849096e+04 -5.733130e+03
-1.040130e+05 -3.284332e+04 -7.257873e+03
-1.103705e+05 -2.653924e+04 -3.586333e+03
-1.146485e+05 -2.729162e+04 -2.166780e+03
-1.240684e+05 -3.011024e+04 -2.734185e+03
-1.163288e+05 -3.129417e+04 -4.307803e+03
-1.251979e+05 -3.497534e+04 -4.170600e+03
-1.157175e+05 -3.805718e+04 -6.895491e+03
-1.088940e+05 -3.589791e+04 -7.598638e+03
-1.437951e+05 -4.330144e+04 -4.334957e+03
-1.514118e+05 -4.761583e+04 -4.591176e+03
-1.429490e+05 -5.049098e+04 -6.673008e+03
-1.535512e+05 -4.362861e+04 -2.529032e+03
-1.440768e+05 -4.009096e+04 -2.255997e+03
-1.313499e+05 -3.759885e+04 -4.736648e+03
-1.384664e+05 -3.853534e+04 -3.473503e+03
-1.372922e+05 -3.984655e+04 -5.382438e+03
-1.312425e+05 -4.322906e+04 -6.534828e+03
-1.366380e+05 -4.635035e+04 -7.162651e+03
-2.680784e+05 -1.156660e+05 -1.024103e+04
-2.775537e+05 -1.111678e+05 -5.621010e+03
-2.760284e+05 -1.216427e+05 -1.230272e+04
-2.703774e+05 -1.068561e+05 -7.066884e+03
-2.687359e+05 -1.252376e+05 -1.509717e+04
-2.625157e+05 -1.057380e+05 -7.661484e+03
-2.612735e+05 -1.115421e+05 -1.091068e+04
-2.539795e+05 -1.067780e+05 -9.882768e+03
-2.558092e+05 -1.142941e+05 -1.367792e+04
-2.618535e+05 -1.176736e+05 -1.428354e+04
-2.617118e+05 -1.250198e+05 -1.593754e+04
-2.536198e+05 -1.210778e+05 -1.685799e+04
4.435934e+04 2.218645e+04 -1.005735e+04
3.486491e+04 2.728523e+04 -7.306751e+03
3.491754e+04 1.846165e+04 -1.147227e+04
4.522454e+04 3.363645e+04 -5.941927e+03
5.375766e+04 3.479007e+04 -6.762136e+03
5.284344e+04 2.664472e+04 -1.099218e+04
6.105395e+04 3.237295e+04 -1.032326e+04
5.222621e+04 1.141461e+04 -1.860690e+04
4.456821e+04 9.910563e+03 -1.738581e+04
4.286588e+04 1.634138e+04 -1.498096e+04
5.048824e+04 1.785270e+04 -1.429236e+04
6.147980e+04 1.369692e+04 -1.646112e+04
5.844822e+04 2.326762e+04 -1.379008e+04
3.635997e+04 1.172642e+04 -1.375050e+04
6.757699e+04 4.208982e+04 -7.238326e+03
6.898345e+04 3.474953e+04 -1.126465e+04
7.621839e+04 4.036718e+04 -9.873617e+03
7.556856e+04 4.834699e+04 -6.664541e+03
8.277057e+04 4.845571e+04 -8.305273e+03
8.271518e+04 4.278359e+04 -1.144716e+04
9.107786e+04 4.520514e+04 -1.007786e+04
6.649265e+04 2.580984e+04 -1.323786e+04
7.455832e+04 3.143374e+04 -1.329689e+04
7.612356e+04 2.462264e+04 -1.641600e+04
8.379730e+04 2.608275e+04 -1.814572e+04
8.318422e+04 3.397885e+04 -1.202960e+04
9.215765e+04 2.737401e+04 -1.710184e+04
9.340570e+04 3.718227e+04 -1.246612e+04
1.080780e+05 5.323207e+04 -1.012202e+04
1.072050e+05 6.062440e+04 -7.365683e+03
9.977112e+04 5.644744e+04 -5.650978e+03
9.975303e+04 4.784783e+04 -1.120695e+04
1.152446e+05 6.169047e+04 -8.104101e+03
1.161972e+05 5.465326e+04 -1.148079e+04
1.238590e+05 6.051706e+04 -1.020127e+04
9.963404e+04 4.082411e+04 -1.494388e+04
1.057386e+05 4.522868e+04 -1.395325e+04
1.074681e+05 3.843271e+04 -1.722143e+04
1.151615e+05 3.981814e+04 -1.862670e+04
1.130043e+05 4.625589e+04 -1.388635e+04
1.242704e+05 4.193365e+04 -1.667903e+04
1.215209e+05 5.135616e+04 -1.407646e+04
1.148271e+05 4.906318e+04 -8.415882e+03
1.394223e+05 6.830591e+04 -9.899618e+03
1.387154e+05 7.535283e+04 -7.242082e+03
1.315580e+05 7.139739e+04 -5.667655e+03
1.320731e+05 6.289988e+04 -1.112366e+04
1.460127e+05 7.655308e+04 -8.142329e+03
1.459026e+05 7.090635e+04 -1.143198e+04
1.541512e+05 7.344695e+04 -1.012367e+04
1.294248e+05 5.382113e+04 -1.330662e+04
1.376691e+05 5.942674e+04 -1.325825e+04
1.393926e+05 5.251188e+04 -1.642595e+04
1.464265e+05 6.192002e+04 -1.204716e+04
1.565316e+05 6.550456e+04 -1.249415e+04
1.483856e+05 5.248464e+04 -1.808036e+04
1.547090e+05 5.789076e+04 -1.753561e+04
1.627647e+05 7.597917e+04 -1.138831e+04
1.711813e+05 8.161183e+04 -1.004844e+04
1.616174e+05 8.364857e+04 -7.010576e+03
1.704643e+05 8.981225e+04 -7.003758e+03
1.782440e+05 8.954097e+04 -8.439679e+03
1.789126e+05 8.265850e+04 -1.168365e+04
1.851110e+05 8.726813e+04 -1.100862e+04
1.627172e+05 6.901265e+04 -1.499366e+04
1.688040e+05 7.341077e+04 -1.395105e+04
1.705038e+05 6.662283e+04 -1.720237e+04
1.781238e+05 6.800526e+04 -1.866202e+04
1.759163e+05 7.442239e+04 -1.391266e+04
1.842650e+05 7.933710e+04 -1.426432e+04
1.870833e+05 7.003537e+04 -1.683359e+04
1.777384e+05 7.745045e+04 -8.511111e+03
2.023410e+05 9.608791e+04 -9.841049e+03
2.021557e+05 1.045138e+05 -6.714427e+03
1.947894e+05 9.959011e+04 -7.394539e+03
1.935300e+05 9.045619e+04 -9.801247e+03
2.096753e+05 1.035828e+05 -8.424149e+03
2.098642e+05 9.605980e+04 -1.209778e+04
2.197846e+05 9.919446e+04 -1.070907e+04
1.921073e+05 8.158488e+04 -1.321502e+04
2.000361e+05 8.704969e+04 -1.282011e+04
2.018744e+05 8.002125e+04 -1.646490e+04
2.084970e+05 8.755864e+04 -1.195396e+04
2.095433e+05 8.100334e+04 -1.812979e+04
2.168833e+05 9.057470e+04 -1.462438e+04
2.177871e+05 8.103147e+04 -1.707383e+04
2.368254e+05 1.076021e+05 -1.127384e+04
2.346794e+05 1.164214e+05 -7.521937e+03
2.272971e+05 1.124385e+05 -5.834046e+03
2.289418e+05 1.021755e+05 -1.183623e+04
2.429788e+05 1.178022e+05 -8.513836e+03
2.418751e+05 1.111713e+05 -1.250377e+04
2.501088e+05 1.131658e+05 -1.221917e+04
2.370514e+05 9.908498e+04 -1.652654e+04
2.459730e+05 9.846095e+04 -1.626120e+04
2.473601e+05 1.058410e+05 -1.488988e+04
2.671696e+05 1.212192e+05 -1.234966e+04
2.750838e+05 1.152606e+05 -1.644922e+04
2.767529e+05 1.236271e+05 -1.249434e+04
2.679358e+05 1.299666e+05 -6.270568e+03
2.674304e+05 1.132115e+05 -1.647340e+04
2.596487e+05 1.261806e+05 -8.339405e+03
2.592390e+05 1.165136e+05 -1.142836e+04
-2.804335e+05 -1.604443e+05 -2.928347e+04
-2.789537e+05 -1.521614e+05 -2.450750e+04
-2.681567e+05 -1.482909e+05 -2.167416e+04
-2.728496e+05 -1.553227e+05 -2.825712e+04
-2.797482e+05 -1.448039e+05 -2.070952e+04
-2.713754e+05 -1.629417e+05 -3.296033e+04
-2.727040e+05 -1.309226e+05 -1.636801e+04
-2.777483e+05 -1.368059e+05 -1.828835e+04
-2.695253e+05 -1.391982e+05 -2.102892e+04
-2.465604e+05 -1.539956e+05 -3.381328e+04
-2.557816e+05 -1.602105e+05 -3.520898e+04
-2.643332e+05 -1.570428e+05 -3.063122e+04
-2.563550e+05 -1.512681e+05 -2.982748e+04
-2.499796e+05 -1.457957e+05 -2.875819e+04
-2.629205e+05 -1.672223e+05 -3.558273e+04
-2.642600e+05 -1.343932e+05 -1.921234e+04
-2.600013e+05 -1.424586e+05 -2.408202e+04
-2.521238e+05 -1.366950e+05 -2.343059e+04
-2.583402e+05 -1.522959e+05 -2.305992e+04
-2.684673e+05 -1.590132e+05 -2.365040e+04
1.264643e+04 1.899031e+04 -7.173649e+03
5.249967e+03 1.516291e+04 -5.634545e+03
1.418156e+04 1.142361e+04 -9.970316e+03
5.380496e+03 6.948612e+03 -1.089636e+04
1.999252e+04 2.034571e+04 -8.051677e+03
2.080397e+04 1.377136e+04 -1.114592e+04
2.764997e+04 1.923175e+04 -1.021107e+04
2.677417e+04 1.091920e+04 -1.314834e+04
1.904294e+04 4.848157e+03 -1.367081e+04
2.992558e+04 4.486975e+02 -1.617216e+04
1.071278e+04 3.445754e+03 -1.300141e+04
3.325406e+03 -2.684317e+03 -1.415992e+04
1.265586e+04 -3.548203e+03 -1.652957e+04
2.062277e+04 -1.904931e+03 -1.840445e+04
1.598870e+04 3.897758e+03 -8.510576e+03
-1.803460e+04 -1.934267e+03 -1.008669e+04
-2.627147e+04 9.241550e+02 -5.698688e+03
-2.637742e+04 -7.201637e+03 -1.100149e+04
-1.890719e+04 4.838419e+03 -7.269640e+03
-1.122820e+04 5.631736e+03 -8.216403e+03
-1.028538e+04 -1.224636e+03 -1.169243e+04
-2.032153e+03 3.260716e+03 -1.046961e+04
-5.251802e+03 -4.563503e+03 -1.423356e+04
-1.358880e+04 -9.494733e+03 -1.355353e+04
-2.237177e+03 -1.399674e+04 -1.672737e+04
-2.786432e+04 -1.510021e+04 -1.410058e+04
-2.101594e+04 -1.067684e+04 -1.351968e+04
-1.941619e+04 -1.758382e+04 -1.667764e+04
-1.144156e+04 -1.613384e+04 -1.850160e+04
-1.129084e+04 -5.633894e+03 -8.448212e+03
2.760494e+05 8.458150e+04 -3.232446e+04
2.769226e+05 7.743556e+04 -3.649319e+04
2.853768e+05 8.262038e+04 -3.646981e+04
2.841995e+05 9.015843e+04 -3.150077e+04
2.819978e+05 9.522816e+04 -2.580337e+04
2.770695e+05 8.945039e+04 -2.729619e+04
2.686287e+05 1.051172e+05 -1.847222e+04
2.708368e+05 9.580788e+04 -2.400619e+04
2.796294e+05 1.018735e+05 -2.322762e+04
2.682336e+05 7.639239e+04 -3.447467e+04
2.675836e+05 8.234868e+04 -3.183152e+04
2.615524e+05 7.879992e+04 -3.044966e+04
2.540414e+05 9.388838e+04 -2.141172e+04
2.580724e+05 8.836863e+04 -2.520344e+04
2.632396e+05 9.255012e+04 -2.299717e+04
2.571726e+05 1.010265e+05 -1.710239e+04
2.684856e+05 8.569191e+04 -2.392785e+04
2.583662e+05 8.250022e+04 -2.629553e+04
-5.381119e+04 -2.708679e+04 -1.182802e+04
-5.573193e+04 -3.885991e+04 -1.649333e+04
-4.947447e+04 -3.300217e+04 -1.707725e+04
-5.867912e+04 -2.169166e+04 -1.063393e+04
-7.033113e+04 -2.215530e+04 -7.797941e+03
-6.215516e+04 -3.063214e+04 -1.382860e+04
-6.396084e+04 -1.629209e+04 -7.604794e+03
-5.014686e+04 -7.952295e+03 -4.610408e+03
-5.647832e+04 -1.405004e+04 -7.319017e+03
-4.867241e+04 -1.826261e+04 -9.851567e+03
-3.377051e+04 -1.070277e+04 -1.021696e+04
-4.322114e+04 -8.649580e+03 -8.412581e+03
-4.229099e+04 -1.606401e+04 -1.149249e+04
-3.517555e+04 -2.018170e+04 -1.361314e+04
-4.495025e+04 -2.572957e+04 -1.494893e+04
-3.486218e+04 -2.986478e+04 -1.803530e+04
-4.279508e+04 -3.156719e+04 -1.935394e+04
-4.768637e+04 -2.747806e+04 -9.186104e+03
2.435153e+05 6.984615e+04 -3.036789e+04
2.448391e+05 6.359687e+04 -3.463086e+04
2.517256e+05 6.811682e+04 -3.421950e+04
2.535222e+05 7.459138e+04 -2.828535e+04
2.373601e+05 6.080748e+04 -3.305117e+04
2.352379e+05 6.888133e+04 -2.950641e+04
2.287003e+05 6.517090e+04 -3.098906e+04
2.273074e+05 8.600623e+04 -1.701488e+04
2.401981e+05 8.250586e+04 -2.403165e+04
2.377902e+05 9.090755e+04 -1.889492e+04
2.259185e+05 7.767863e+04 -2.180099e+04
2.290522e+05 7.232530e+04 -2.650654e+04
2.371313e+05 7.574684e+04 -2.343621e+04
2.501401e+05 8.640180e+04 -2.344319e+04
2.503212e+05 8.024410e+04 -2.380979e+04
2.451594e+05 7.596737e+04 -2.628576e+04
2.386769e+05 6.756877e+04 -2.321625e+04
2.128303e+05 5.668473e+04 -3.105976e+04
2.128925e+05 4.854525e+04 -3.532975e+04
2.199314e+05 5.368207e+04 -3.488774e+04
2.213572e+05 6.085021e+04 -2.954709e+04
2.053941e+05 4.934554e+04 -3.237821e+04
2.064095e+05 5.701795e+04 -3.070141e+04
2.007285e+05 5.468982e+04 -2.969602e+04
1.952715e+05 6.594406e+04 -2.200485e+04
1.969889e+05 5.998007e+04 -2.680879e+04
2.060234e+05 6.183230e+04 -2.463062e+04
2.036172e+05 7.167056e+04 -1.949541e+04
2.122542e+05 7.250258e+04 -2.100514e+04
2.141948e+05 6.508564e+04 -2.632020e+04
2.219291e+05 6.931360e+04 -2.560612e+04
1.835299e+05 4.403269e+04 -3.076545e+04
1.832817e+05 3.526059e+04 -3.460021e+04
1.922149e+05 4.015244e+04 -3.466547e+04
1.935626e+05 4.990804e+04 -2.827680e+04
1.751696e+05 3.600359e+04 -3.212343e+04
1.759036e+05 4.345379e+04 -3.051133e+04
1.701019e+05 4.105274e+04 -2.969017e+04
1.633905e+05 5.210036e+04 -2.062873e+04
1.656727e+05 4.620312e+04 -2.657436e+04
1.750582e+05 4.851395e+04 -2.457425e+04
1.721854e+05 5.839212e+04 -1.959272e+04
1.809359e+05 5.987977e+04 -2.107351e+04
1.834647e+05 5.216551e+04 -2.611638e+04
1.897392e+05 5.771348e+04 -2.543256e+04
1.644307e+05 2.700765e+04 -3.483066e+04
1.554467e+05 2.244624e+04 -3.630120e+04
1.480221e+05 2.714147e+04 -3.255247e+04
1.560264e+05 3.044772e+04 -3.157953e+04
1.466654e+05 1.838533e+04 -3.488634e+04
1.638053e+05 3.579425e+04 -2.927638e+04
1.402903e+05 2.563430e+04 -3.003439e+04
1.325246e+05 3.796217e+04 -2.180327e+04
1.346763e+05 3.154415e+04 -2.673627e+04
1.437027e+05 3.351815e+04 -2.439208e+04
1.405782e+05 4.421506e+04 -1.893025e+04
1.489788e+05 4.380099e+04 -2.235960e+04
1.533420e+05 3.673211e+04 -2.545371e+04
1.586344e+05 4.333644e+04 -2.490700e+04
1.522343e+05 2.863850e+04 -2.620760e+04
1.332218e+05 2.101603e+04 -2.901636e+04
1.247415e+05 1.595103e+04 -3.098548e+04
1.330172e+05 1.142957e+04 -3.450796e+04
1.250516e+05 7.072858e+03 -3.600407e+04
1.167468e+05 1.302319e+04 -3.207296e+04
1.149152e+05 4.471269e+03 -3.471840e+04
1.087344e+05 1.172554e+04 -2.982560e+04
1.008391e+05 2.394786e+04 -2.181727e+04
1.030903e+05 1.764813e+04 -2.670449e+04
1.122512e+05 2.002911e+04 -2.407561e+04
1.092147e+05 3.015976e+04 -1.954118e+04
1.181705e+05 3.150003e+04 -2.088779e+04
1.216299e+05 2.382559e+04 -2.604698e+04
1.273769e+05 2.932287e+04 -2.539733e+04
1.216370e+05 1.528921e+04 -2.387200e+04
8.272582e+04 -1.776728e+03 -3.093244e+04
8.254307e+04 -1.097563e+04 -3.632955e+04
9.461868e+04 -7.662001e+03 -3.526796e+04
1.014429e+05 7.419410e+03 -2.882684e+04
9.249459e+04 1.793893e+03 -3.005783e+04
1.008092e+05 -1.181583e+03 -3.403235e+04
7.305373e+04 -6.717177e+03 -3.186718e+04
6.995846e+04 9.961303e+03 -2.166902e+04
7.352835e+04 2.748838e+03 -2.661334e+04
8.040497e+04 8.464790e+03 -2.438001e+04
7.799722e+04 1.646284e+04 -1.930221e+04
8.661390e+04 1.775981e+04 -2.093503e+04
8.980694e+04 9.901736e+03 -2.587782e+04
9.569516e+04 1.541375e+04 -2.539152e+04
8.850666e+04 1.460952e+03 -2.174370e+04
6.889307e+04 -1.688147e+04 -3.259885e+04
6.217933e+04 -2.180607e+04 -3.670314e+04
5.396721e+04 -1.785317e+04 -3.228883e+04
5.993555e+04 -1.377868e+04 -3.059760e+04
5.465974e+04 -2.550814e+04 -3.734281e+04
6.499449e+04 -8.044240e+03 -2.995319e+04
4.641678e+04 -2.477735e+04 -3.390728e+04
4.669274e+04 -1.610110e+04 -3.104030e+04
3.960414e+04 -1.851846e+04 -2.833622e+04
4.635231e+04 1.706372e+03 -1.964028e+04
5.542243e+04 2.591303e+03 -2.049714e+04
5.815534e+04 -5.196124e+03 -2.579335e+04
4.865596e+04 -9.939671e+03 -2.368146e+04
6.659024e+04 -3.363644e+02 -2.500808e+04
3.775624e+04 -4.139467e+03 -2.166402e+04
3.941020e+04 -1.020921e+04 -2.667669e+04
5.816067e+04 -1.451660e+04 -2.363551e+04
2.210069e+04 -2.567804e+04 -3.087274e+04
2.101256e+04 -3.616489e+04 -3.279610e+04
2.836546e+04 -2.964172e+04 -3.441048e+04
3.114873e+04 -2.258929e+04 -2.898031e+04
1.423773e+04 -2.914354e+04 -2.929699e+04
1.442488e+04 -1.185644e+04 -1.913143e+04
5.982841e+03 -1.799648e+04 -2.183971e+04
1.659964e+04 -2.078804e+04 -2.453164e+04
2.332274e+04 -1.070343e+04 -2.058304e+04
2.452403e+04 -1.816903e+04 -2.634039e+04
3.212817e+04 -1.339260e+04 -2.552888e+04
8.231388e+03 -2.415122e+04 -2.657042e+04
6.775934e+03 -3.432734e+04 -2.775608e+04
-1.599863e+03 -4.040168e+04 -3.054759e+04
7.090319e+03 -4.340251e+04 -3.481915e+04
-1.144371e+03 -4.851522e+04 -3.683107e+04
-8.026433e+03 -4.581535e+04 -3.226825e+04
-7.277027e+03 -5.345295e+04 -3.758967e+04
-2.378402e+04 -4.842468e+04 -3.019470e+04
-1.480616e+04 -5.134256e+04 -3.423812e+04
-1.537445e+04 -4.358610e+04 -2.937854e+04
-1.753348e+04 -2.573543e+04 -1.919709e+04
-2.563468e+04 -3.249078e+04 -2.198678e+04
-1.487837e+04 -3.414218e+04 -2.442290e+04
-8.426309e+03 -2.438947e+04 -2.080048e+04
-5.132415e+03 -3.272241e+04 -2.561588e+04
8.783034e+02 -2.674982e+04 -2.516990e+04
-2.175374e+04 -3.952454e+04 -2.676016e+04
-7.209982e+03 -4.292027e+04 -2.262687e+04
-4.317491e+04 -5.641171e+04 -3.115680e+04
-4.296083e+04 -4.810701e+04 -2.716991e+04
-4.978450e+04 -5.182930e+04 -2.750295e+04
-4.682448e+04 -4.076342e+04 -2.071199e+04
-3.783251e+04 -6.181327e+04 -3.400916e+04
-2.986535e+04 -5.634538e+04 -3.414180e+04
-3.731772e+04 -5.365981e+04 -3.135975e+04
-3.065678e+04 -4.960746e+04 -3.092995e+04
-3.897530e+04 -3.950300e+04 -2.243728e+04
-3.573951e+04 -4.643572e+04 -2.809027e+04
-2.958927e+04 -4.164749e+04 -2.660648e+04
-3.707632e+04 -5.145636e+04 -2.392545e+04
-2.108715e+05 -7.843447e+04 -5.820338e+03
-2.164046e+05 -8.298598e+04 -7.073594e+03
-2.088217e+05 -8.545695e+04 -9.180334e+03
-2.174496e+05 -8.877513e+04 -9.355181e+03
-2.258026e+05 -8.608670e+04 -6.777473e+03
-2.234680e+05 -9.320084e+04 -1.019878e+04
-2.009524e+05 -7.856926e+04 -7.140715e+03
-2.020214e+05 -8.642385e+04 -1.136415e+04
-1.945868e+05 -8.317181e+04 -1.130665e+04
-2.141616e+05 -9.453390e+04 -1.121713e+04
-2.208726e+05 -1.012550e+05 -1.343039e+04
-2.106318e+05 -1.014397e+05 -1.558552e+04
-2.026639e+05 -9.974732e+04 -1.737618e+04
-2.064070e+05 -9.359841e+04 -1.252605e+04
-1.981982e+05 -9.169513e+04 -1.446950e+04
-2.032535e+05 -9.061774e+04 -8.050880e+03
-1.655473e+05 -1.038455e+05 -2.585768e+04
-1.635664e+05 -1.092367e+05 -3.093388e+04
-1.672771e+05 -1.140665e+05 -3.376246e+04
-1.723334e+05 -1.096047e+05 -2.906568e+04
-1.596861e+05 -1.150317e+05 -3.488352e+04
-1.752273e+05 -1.024339e+05 -2.551269e+04
-1.661964e+05 -1.206721e+05 -3.665701e+04
-1.733342e+05 -1.144813e+05 -3.402833e+04
-1.792686e+05 -1.174129e+05 -3.224648e+04
-1.729345e+05 -1.199028e+05 -3.679850e+04
-1.806771e+05 -1.101303e+05 -2.790141e+04
-2.385875e+05 -9.474363e+04 -8.107828e+03
-2.468322e+05 -9.782351e+04 -5.944657e+03
-2.378999e+05 -1.026391e+05 -1.151041e+04
-2.462167e+05 -1.055646e+05 -1.142143e+04
-2.297752e+05 -9.800190e+04 -1.023054e+04
-2.489983e+05 -1.131155e+05 -1.381510e+04
-2.419279e+05 -1.088900e+05 -1.413596e+04
-2.400044e+05 -1.152781e+05 -1.740963e+04
-2.292725e+05 -1.036371e+05 -1.393549e+04
-2.349137e+05 -1.089918e+05 -1.546717e+04
-2.240378e+05 -1.121804e+05 -1.699476e+04
-2.326276e+05 -1.144356e+05 -1.911779e+04
-2.372991e+05 -1.100709e+05 -1.061728e+04
-1.867388e+05 -1.203828e+05 -2.838085e+04
-1.973489e+05 -1.266623e+05 -3.059655e+04
-1.896431e+05 -1.293266e+05 -3.503876e+04
-1.965720e+05 -1.370643e+05 -3.574147e+04
-2.053679e+05 -1.341006e+05 -3.297646e+04
-2.065554e+05 -1.265568e+05 -2.886788e+04
-2.147050e+05 -1.325933e+05 -2.992458e+04
-2.076951e+05 -1.093299e+05 -1.859180e+04
-2.150801e+05 -1.158418e+05 -2.143150e+04
-2.033926e+05 -1.183281e+05 -2.366371e+04
-1.993111e+05 -1.082524e+05 -1.990179e+04
-1.953873e+05 -1.157273e+05 -2.536166e+04
-1.915856e+05 -1.057746e+05 -2.179019e+04
-1.880850e+05 -1.118863e+05 -2.564295e+04
-2.125288e+05 -1.227343e+05 -2.592754e+04
-2.030981e+05 -1.278641e+05 -2.259698e+04
-2.236570e+05 -1.337567e+05 -2.915734e+04
-2.329666e+05 -1.374533e+05 -2.883371e+04
-2.224023e+05 -1.440787e+05 -3.195291e+04
-2.326730e+05 -1.450590e+05 -3.357671e+04
-2.421730e+05 -1.427031e+05 -2.740530e+04
-2.472837e+05 -1.281128e+05 -2.019084e+04
-2.429165e+05 -1.346488e+05 -2.531424e+04
-2.362325e+05 -1.294606e+05 -2.418278e+04
-2.382895e+05 -1.225982e+05 -1.978175e+04
-2.298136e+05 -1.220509e+05 -2.124593e+04
-2.284272e+05 -1.296127e+05 -2.622852e+04
-2.199387e+05 -1.257210e+05 -2.502336e+04
-2.311888e+05 -1.336485e+05 -2.064276e+04
-1.732806e+05 -8.949733e+04 -1.867144e+04
-1.821424e+05 -8.803788e+04 -1.640429e+04
-1.774883e+05 -9.616557e+04 -2.028008e+04
-1.709035e+05 -7.181528e+04 -8.994127e+03
-1.717960e+05 -8.029547e+04 -1.398195e+04
-1.635748e+05 -8.001713e+04 -1.457190e+04
-1.662871e+05 -8.773221e+04 -1.534626e+04
-1.749617e+05 -8.626223e+04 -1.516069e+04
-1.806558e+05 -7.157735e+04 -7.304295e+03
-1.790265e+05 -8.024401e+04 -1.229572e+04
-1.872726e+05 -7.573112e+04 -9.352104e+03
-1.872582e+05 -8.312787e+04 -1.311995e+04
-1.907671e+05 -9.070878e+04 -1.458518e+04
-1.868524e+05 -9.637638e+04 -1.946946e+04
-1.780101e+05 -8.762111e+04 -1.117557e+04
-9.200444e+04 -5.567568e+04 -1.876157e+04
-8.626308e+04 -5.006353e+04 -1.799851e+04
-9.242428e+04 -4.868726e+04 -1.636987e+04
-8.262778e+04 -4.507867e+04 -1.480529e+04
-9.121436e+04 -4.276930e+04 -1.359005e+04
-9.202113e+04 -3.515415e+04 -9.210269e+03
-9.884832e+04 -3.864224e+04 -1.049862e+04
-9.735678e+04 -5.027047e+04 -1.674163e+04
-9.820282e+04 -4.407951e+04 -1.361740e+04
-1.042722e+05 -4.718387e+04 -1.371407e+04
-1.060944e+05 -4.066335e+04 -1.046382e+04
-9.452321e+04 -4.750809e+04 -1.027713e+04
-1.502414e+05 -6.094100e+04 -9.237918e+03
-1.455429e+05 -6.720453e+04 -1.485205e+04
-1.441782e+05 -6.143223e+04 -1.298287e+04
-1.383540e+05 -6.648956e+04 -1.491756e+04
-1.445241e+05 -5.579579e+04 -9.717165e+03
-1.381434e+05 -5.830393e+04 -1.232429e+04
-1.191819e+05 -6.001017e+04 -1.573977e+04
-1.253763e+05 -5.867494e+04 -1.398371e+04
-1.261331e+05 -5.223005e+04 -1.262697e+04
-1.203178e+05 -5.101553e+04 -1.163108e+04
-1.128406e+05 -5.474690e+04 -1.629988e+04
-1.318447e+05 -5.497330e+04 -1.248978e+04
-1.114344e+05 -4.973607e+04 -1.246872e+04
-1.199985e+05 -4.404440e+04 -7.983684e+03
-1.258742e+05 -4.616052e+04 -9.407903e+03
-1.318617e+05 -5.053200e+04 -9.196739e+03
-2.874793e+05 -1.786972e+05 -3.904198e+04
-2.943360e+05 -1.834129e+05 -3.698911e+04
-2.782079e+05 -1.679766e+05 -3.428440e+04
-2.803479e+05 -1.740976e+05 -3.095173e+04
-2.863188e+05 -1.143292e+05 -7.123395e+03
-2.780346e+05 -1.018254e+05 -3.953709e+03
-2.797109e+05 -1.285484e+05 -1.436060e+04
-2.780560e+05 -1.262811e+05 -9.309037e+03
-2.555471e+05 -1.001106e+05 -6.606922e+03
2.929046e+05 1.491697e+05 -4.537286e+03
2.764848e+05 1.347357e+05 -8.241325e+03
2.802077e+05 1.392173e+05 -2.897231e+03
2.925150e+05 8.835480e+04 -3.514339e+04
2.834381e+05 7.582169e+04 -3.897227e+04
2.778905e+05 7.001298e+04 -3.389284e+04
2.603386e+05 7.081170e+04 -3.316665e+04
2.880852e+05 7.729177e+04 -3.567208e+04
2.776466e+05 1.087162e+05 -2.020796e+04
-1.543438e+05 -6.486976e+04 -1.082234e+04
-1.383219e+05 -7.266507e+04 -1.873479e+04
-1.319796e+05 -6.190948e+04 -1.387832e+04
-1.233781e+05 -9.044404e+04 -2.774756e+04
-1.306036e+05 -7.850197e+04 -1.584869e+04
-1.625363e+05 -7.256444e+04 -1.252820e+04
-1.696197e+05 -9.861837e+04 -2.294205e+04
-1.697244e+05 -9.321220e+04 -1.466498e+04
-1.844604e+05 -6.545466e+04 -6.519576e+03
-1.540260e+05 -1.108763e+05 -3.478628e+04
-1.298704e+05 -1.135593e+05 -3.921037e+04
-1.603625e+05 -1.221004e+05 -3.918503e+04
-1.629890e+05 -1.111170e+05 -2.493019e+04
-1.300484e+05 -1.114841e+05 -2.866589e+04
-1.095424e+05 -8.315071e+04 -2.949038e+04
-1.505611e+05 -5.402999e+04 -6.522926e+03
-1.832636e+05 -1.042492e+05 -2.238912e+04
-5.173568e+04 -5.849608e+04 -3.087683e+04
-5.393382e+04 -4.493646e+04 -2.210879e+04
-8.502912e+04 -5.675482e+04 -2.144027e+04
-8.461343e+04 -5.189119e+04 -1.284987e+04
-8.338938e+04 -3.716317e+04 -1.285195e+04
-7.167708e+04 -3.199286e+04 -1.229381e+04
-6.099045e+04 -4.444916e+04 -1.309940e+04
-3.264817e+04 -6.469246e+04 -3.820669e+04
-4.083238e+04 -6.031957e+04 -2.703877e+04
-6.459930e+04 -8.190639e+04 -3.824094e+04
-7.534018e+04 -1.618696e+04 -5.474065e+03
-8.107269e+04 -7.029200e+04 -2.606213e+04
-3.297547e+04 -3.505073e+04 -2.373630e+04
-1.052629e+05 -5.199011e+04 -1.644583e+04
-9.719364e+04 -5.519177e+04 -1.356522e+04
-8.652107e+04 -8.096650e+04 -2.529188e+04
-9.763998e+04 -8.747686e+04 -3.478406e+04
-9.848174e+04 -2.960945e+04 -8.101175e+03
-1.800078e+05 -5.586026e+04 -1.863975e+03
-1.587490e+05 -4.897656e+04 -2.613545e+03
-1.380372e+05 -5.328942e+04 -9.831722e+03
-1.944412e+05 -7.592538e+04 -8.705916e+03
-1.525284e+05 -4.007613e+04 -1.187238e+03
-9.127927e+04 -1.504045e+04 -1.400495e+03
-5.640792e+04 -3.402901e+03 -3.466985e+03
-1.027750e+05 -2.130923e+04 -3.116489e+03
-1.226545e+05 -2.795497e+04 -1.214183e+03
-1.065044e+05 -2.930479e+04 -2.288606e+03
-1.115923e+05 -4.353963e+04 -1.028862e+04
-1.033953e+05 -4.195840e+04 -7.095961e+03
-2.861810e+05 -1.483140e+05 -2.108613e+04
-2.924247e+05 -1.545535e+05 -1.720726e+04
-2.534126e+05 -1.679017e+05 -3.876306e+04
-2.686260e+05 -1.702735e+05 -3.054048e+04
-2.786874e+05 -1.433119e+05 -1.341928e+04
-2.554307e+05 -1.297224e+05 -1.996675e+04
-2.676589e+05 -1.327626e+05 -1.153401e+04
2.845807e+05 1.218615e+05 -1.608906e+04
2.602882e+05 1.365374e+05 -3.560738e+03
2.581002e+05 1.090514e+05 -1.551196e+04
2.511282e+05 6.008101e+04 -3.776790e+04
2.282181e+05 5.614404e+04 -3.330946e+04
2.473724e+05 9.270098e+04 -2.208385e+04
2.193575e+05 4.587953e+04 -3.891452e+04
2.131377e+05 3.911673e+04 -3.368397e+04
1.987192e+05 4.574277e+04 -3.463012e+04
2.188028e+05 7.681810e+04 -2.316233e+04
1.895078e+05 3.249542e+04 -3.797726e+04
1.839514e+05 2.606000e+04 -3.270208e+04
1.699802e+05 3.207511e+04 -3.456685e+04
1.948507e+05 3.114158e+04 -3.297460e+04
1.875117e+05 6.422116e+04 -2.293648e+04
1.679545e+05 1.873696e+04 -3.294193e+04
1.567667e+05 1.453911e+04 -3.956591e+04
1.554593e+05 4.999774e+04 -2.123705e+04
1.391409e+05 1.650716e+04 -3.541209e+04
1.236148e+05 4.176930e+02 -4.036963e+04
1.073982e+05 2.809831e+03 -3.518375e+04
1.246877e+05 3.599174e+04 -2.283522e+04
9.222865e+04 -1.398423e+04 -4.076454e+04
7.318451e+04 -1.336325e+04 -3.581931e+04
9.302890e+04 2.197100e+04 -2.293862e+04
6.135935e+04 -2.804111e+04 -4.125712e+04
3.727385e+04 -2.875001e+04 -3.265892e+04
6.211845e+04 7.370432e+03 -2.260850e+04
7.058666e+04 -9.474343e+03 -2.446657e+04
2.755369e+04 -4.077927e+04 -3.878282e+04
2.990783e+04 -6.272808e+03 -2.268486e+04
1.196806e+04 -3.837058e+04 -3.460505e+04
1.208796e+04 -5.150359e+04 -3.351072e+04
3.534360e+02 -5.579080e+04 -3.987430e+04
-1.796962e+03 -2.009368e+04 -2.277695e+04
1.438258e+03 -6.132903e+04 -3.637564e+04
-2.224542e+04 -5.543056e+04 -3.533939e+04
-8.981327e+03 -5.778122e+04 -3.247299e+04
-2.428512e+04 -6.013596e+04 -3.135720e+04
-2.544874e+04 -7.304088e+04 -3.747295e+04
-2.354179e+04 -4.506665e+04 -2.253946e+04
-1.127359e+05 -6.190419e+04 -1.772030e+04
-1.811433e+05 -1.261231e+05 -3.389198e+04
-1.669398e+05 -1.281669e+05 -3.410635e+04
-1.887594e+05 -1.383420e+05 -3.863773e+04
-1.984949e+05 -1.457835e+05 -3.285975e+04
-2.133562e+05 -1.397998e+05 -3.375118e+04
-2.234798e+05 -1.505734e+05 -3.885847e+04
-2.143452e+05 -1.608838e+05 -4.077265e+04
-2.397982e+05 -1.493004e+05 -3.194615e+04
-2.228356e+05 -1.181890e+05 -2.282246e+04
-2.198451e+05 -1.334694e+05 -2.277188e+04
-2.516161e+05 -1.741645e+05 -3.573092e+04
-2.407263e+05 -1.627133e+05 -3.223566e+04
-2.427523e+05 -1.379620e+05 -1.977995e+04
-2.467543e+05 -8.873230e+04 -4.297897e+03
-2.471313e+05 -1.106707e+05 -8.852655e+03
-2.457332e+05 -1.198153e+05 -1.824680e+04
-2.314164e+05 -9.162230e+04 -7.227151e+03
-2.161765e+05 -7.400656e+04 -3.905406e+03
-2.268874e+05 -8.512403e+04 -2.850396e+03
-2.163774e+05 -1.075209e+05 -1.716674e+04
-2.272913e+05 -1.052469e+05 -9.410537e+03
-1.946816e+05 -9.914515e+04 -1.726286e+04
-1.878472e+05 -8.737575e+04 -9.879057e+03
-1.309621e+05 -3.461683e+04 -2.899849e+03
-1.355804e+05 -4.147208e+04 -2.211573e+03
-1.240393e+05 -3.965615e+04 -6.422160e+03
-3.521538e+04 -2.523405e+03 -7.046522e+03
-4.186464e+04 -8.697168e+03 -4.796821e+03
-2.609258e+04 9.974268e+03 -4.184171e+03
-2.682200e+04 -2.395470e+04 -1.660131e+04
-3.695342e+03 1.150885e+04 -6.951368e+03
5.479364e+03 2.408415e+04 -4.165213e+03
6.057782e+03 -9.574174e+03 -1.770100e+04
-5.931428e+02 -4.196541e+03 -9.915811e+03
2.712057e+04 2.577193e+04 -6.950792e+03
3.852018e+04 3.632420e+04 -4.614633e+03
5.971633e+04 3.915014e+04 -7.884538e+03
3.702966e+04 3.071030e+04 -2.923878e+03
3.806730e+04 4.449199e+03 -1.791845e+04
3.037738e+04 1.420163e+04 -7.893737e+03
7.008523e+04 5.082827e+04 -4.184893e+03
8.021499e+04 5.163110e+04 -2.908192e+03
9.058577e+04 5.363337e+04 -7.119472e+03
6.827364e+04 2.962848e+04 -8.149822e+03
6.955537e+04 1.866970e+04 -1.759735e+04
1.001933e+05 6.611559e+04 -4.202809e+03
1.002984e+05 3.243556e+04 -1.677564e+04
1.227021e+05 6.782107e+04 -6.761265e+03
1.317877e+05 8.032424e+04 -4.164206e+03
1.534896e+05 8.175972e+04 -7.058015e+03
1.308838e+05 5.728863e+04 -8.209210e+03
1.324504e+05 4.663653e+04 -1.754293e+04
1.650287e+05 9.264026e+04 -4.657445e+03
1.752747e+05 9.308684e+04 -2.982543e+03
1.873349e+05 9.462217e+04 -6.697373e+03
1.640775e+05 8.726970e+04 -2.908495e+03
1.631355e+05 6.081649e+04 -1.664334e+04
1.965984e+05 1.072647e+05 -4.159871e+03
2.067370e+05 1.077732e+05 -2.922680e+03
2.178235e+05 1.092470e+05 -7.211315e+03
1.952892e+05 7.445294e+04 -1.768321e+04
2.268266e+05 1.221632e+05 -4.240920e+03
2.518810e+05 1.220697e+05 -7.169294e+03
2.271413e+05 9.489265e+04 -1.537235e+04
-1.140364e+05 -4.496681e+04 -6.345773e+03
-2.466456e+05 -1.234885e+05 -1.406974e+04
1.486028e+05 4.304648e+04 -1.532046e+04
-3.568658e+05 -1.206740e+05 -1.383496e+05
-3.206978e+05 -1.298646e+05 -1.357100e+05
-3.265806e+05 -9.932471e+04 -1.384220e+05
-3.513893e+05 -1.017728e+05 -1.197413e+05
-3.246239e+05 -1.124946e+05 -1.059323e+05
-3.331800e+05 -7.266751e+04 -1.199645e+05
-3.345746e+05 -1.372571e+05 -1.045895e+05
-3.646536e+05 -1.044119e+05 -9.633726e+04
-3.318565e+05 -7.948727e+04 -9.848453e+04
-3.706626e+05 -1.310617e+05 -1.104901e+05
-3.788555e+05 -1.032888e+05 -1.107410e+05
-3.808468e+05 -1.041534e+05 -1.289417e+05
1.249048e+05 -3.614706e+05 -1.390517e+05
1.306497e+05 -3.235495e+05 -1.343915e+05
1.039640e+05 -3.250348e+05 -1.380517e+05
1.061107e+05 -3.553948e+05 -1.192530e+05
1.046653e+05 -3.729551e+05 -9.056713e+04
1.291093e+05 -3.693539e+05 -1.162369e+05
1.028245e+05 -3.807526e+05 -1.135940e+05
1.402710e+05 -3.326518e+05 -1.116527e+05
1.291721e+05 -3.629637e+05 -8.472680e+04
1.095930e+05 -3.257610e+05 -1.019094e+05
1.103271e+05 -3.808563e+05 -1.437769e+05
7.247421e+04 -3.413478e+05 -1.144191e+05
8.652219e+04 -3.602806e+05 -1.388755e+05
8.804698e+04 -3.525694e+05 -9.090290e+04
-3.522906e+05 2.132173e+05 -7.209577e+04
-3.276944e+05 1.947726e+05 -9.382854e+04
-3.511307e+05 1.875957e+05 -7.055729e+04
-3.498658e+05 1.623423e+05 -7.122581e+04
-3.797213e+05 1.619648e+05 -8.150987e+04
-3.799985e+05 1.904086e+05 -7.613354e+04
8.695652e+04 -4.000000e+05 -1.600000e+05
6.956522e+04 -3.681566e+05 -1.600000e+05
6.817304e+04 -4.000000e+05 -1.298395e+05
1.043478e+05 -3.681566e+05 -1.600000e+05
1.217391e+05 -4.000000e+05 -1.600000e+05
1.043457e+05 -4.000000e+05 -1.313395e+05
5.972946e+04 -3.652626e+05 -1.344208e+05
3.469557e+04 -4.000000e+05 -1.283199e+05
6.510982e+04 -3.782528e+05 -1.134928e+05
4.519865e+04 -3.390143e+05 -1.070675e+05
4.096892e+04 -3.758549e+05 -9.240514e+04
3.748877e+04 -3.665594e+05 -1.241388e+05
8.674306e+04 -4.000000e+05 -1.107005e+05
7.225402e+04 -3.701783e+05 -9.058535e+04
8.971314e+04 -3.702954e+05 -1.189591e+05
1.028567e+05 -3.469829e+05 -7.041763e+04
1.255485e+05 -3.269887e+05 -7.684760e+04
1.369708e+05 -3.474513e+05 -7.121087e+04
1.558136e+05 -3.172066e+05 -7.110381e+04
1.537251e+05 -3.492478e+05 -8.730372e+04
1.561918e+05 -3.795632e+05 -8.145153e+04
7.049389e+04 -3.238334e+05 -9.456669e+04
9.237273e+04 -3.245432e+05 -6.880104e+04
6.739916e+04 -3.477020e+05 -7.190887e+04
6.583440e+04 -3.190827e+05 -7.103188e+04
3.872968e+04 -3.424664e+05 -7.292651e+04
-3.000000e+05 1.493633e+04 -8.591195e+04
-3.347808e+05 1.331720e+04 -8.317129e+04
8.740823e+04 -3.730893e+05 -6.765873e+04
-3.533857e+05 3.741315e+05 -1.047790e+05
-3.242833e+05 3.524604e+05 -1.056931e+05
-3.537486e+05 3.580498e+05 -8.404614e+04
-3.499620e+05 3.370275e+05 -1.081179e+05
-3.348156e+05 3.318562e+05 -8.935092e+04
-3.298503e+05 3.038167e+05 -1.150901e+05
-3.271709e+05 3.346290e+05 -1.207325e+05
-3.601708e+05 3.301355e+05 -1.362018e+05
-3.521317e+05 3.319378e+05 -7.379930e+04
-3.764248e+05 3.467011e+05 -1.070163e+05
2.607573e+05 -4.000000e+05 -9.928420e+04
2.496090e+05 -3.642457e+05 -1.039249e+05
2.757889e+05 -3.833495e+05 -9.883073e+04
2.653363e+05 -3.781619e+05 -1.194118e+05
2.608696e+05 -4.000000e+05 -1.600000e+05
2.782609e+05 -3.681566e+05 -1.600000e+05
2.560312e+05 -3.594858e+05 -1.345823e+05
2.782176e+05 -4.000000e+05 -1.283450e+05
3.009981e+05 -3.757139e+05 -1.081051e+05
2.946896e+05 -3.621713e+05 -1.355330e+05
2.746403e+05 -3.463666e+05 -1.089586e+05
4.000000e+05 -8.698509e+04 -9.927827e+04
4.000000e+05 -1.043478e+05 -1.280850e+05
4.000000e+05 -1.217663e+05 -9.927598e+04
3.661621e+05 -1.117830e+05 -1.042057e+05
3.681566e+05 -2.086957e+05 -1.600000e+05
3.362016e+05 -2.260870e+05 -1.600000e+05
3.564652e+05 -2.277995e+05 -1.380399e+05
3.482349e+05 -2.000996e+05 -1.371780e+05
3.681566e+05 -1.739130e+05 -1.600000e+05
3.766648e+05 -1.923947e+05 -1.311267e+05
-1.049358e+05 3.333333e+04 -1.200000e+05
-7.157111e+04 1.986197e+04 -1.600000e+05
-7.134091e+04 1.666667e+04 -1.200000e+05
-9.315557e+04 -1.554681e+03 -1.405346e+05
3.362016e+05 -1.913043e+05 -1.600000e+05
3.588808e+05 -1.573380e+05 -1.387198e+05
3.362016e+05 -1.565217e+05 -1.600000e+05
3.199761e+05 -1.665869e+05 -1.399486e+05
3.665357e+05 -1.824822e+05 -1.073172e+05
3.691462e+05 -2.173267e+05 -1.063512e+05
3.185158e+05 -1.972529e+05 -1.388634e+05
-3.727963e+05 -3.718404e+05 -7.752309e+04
-4.000000e+05 -3.505277e+05 -8.131819e+04
-3.725279e+05 -3.459010e+05 -9.850799e+04
-4.000000e+05 -3.502330e+05 -1.288831e+05
-4.000000e+05 -3.680273e+05 -1.051488e+05
-3.726395e+05 -3.498141e+05 -1.299023e+05
-3.741366e+05 -3.725600e+05 -1.312610e+05
-3.489427e+05 -3.569485e+05 -1.089509e+05
-3.756031e+05 -3.273934e+05 -1.262122e+05
-4.000000e+05 -3.243637e+05 -1.049024e+05
-3.809854e+05 -3.249135e+05 -8.462722e+04
-3.000000e+05 -1.486363e+05 -8.614176e+04
-3.317284e+05 -1.615958e+05 -7.195199e+04
-3.214974e+05 -1.622928e+05 -1.001603e+05
-3.000000e+05 -1.817838e+05 -8.623652e+04
-3.213181e+05 -1.870530e+05 -1.006364e+05
-3.232505e+05 -1.919959e+05 -7.466022e+04
-3.415428e+05 -1.747776e+05 -1.108995e+05
-3.185080e+05 -1.612013e+05 -1.297572e+05
-3.000000e+05 -1.333333e+05 -1.200000e+05
-3.000000e+05 -1.666667e+05 -1.200000e+05
3.439444e+05 -3.086558e+03 -7.305795e+04
3.732270e+05 2.255010e+02 -7.621959e+04
3.779499e+05 -2.040329e+04 -7.407506e+04
4.000000e+05 -2.655909e+01 -7.886343e+04
4.000000e+05 -1.742320e+04 -9.927559e+04
3.759764e+05 -4.685456e+04 -1.124686e+05
3.811585e+05 -5.064195e+04 -8.341053e+04
3.699021e+05 -2.162429e+04 -1.082337e+05
3.419405e+05 -3.069689e+04 -7.330965e+04
-3.124769e+05 3.319642e+05 -7.272064e+04
-3.301108e+05 3.623284e+05 -7.068197e+04
-3.082505e+05 3.511523e+05 -7.967350e+04
-3.018045e+05 3.735162e+05 -1.112118e+05
-2.953081e+05 3.782168e+05 -7.437989e+04
-3.221603e+05 3.766746e+05 -8.721186e+04
1.217391e+05 4.000000e+05 -1.600000e+05
1.391304e+05 3.681566e+05 -1.600000e+05
1.565217e+05 4.000000e+05 -1.600000e+05
1.391304e+05 4.000000e+05 -1.280850e+05
-3.011383e+05 3.408039e+05 -1.070471e+05
-2.717865e+05 3.301744e+05 -9.325610e+04
-2.793811e+05 3.563120e+05 -9.050814e+04
3.342468e+05 -3.338795e+05 -9.268087e+04
3.486044e+05 -3.231954e+05 -1.074108e+05
3.158632e+05 -3.114179e+05 -1.055989e+05
3.360180e+05 -3.077346e+05 -8.789312e+04
1.217391e+05 3.362016e+05 -1.600000e+05
1.043478e+05 3.681566e+05 -1.600000e+05
8.695652e+04 3.362016e+05 -1.600000e+05
1.031029e+05 3.323798e+05 -1.383631e+05
3.711428e+05 -2.975264e+05 -1.078237e+05
3.743549e+05 -3.275584e+05 -8.197977e+04
3.538592e+05 -3.003953e+05 -7.216789e+04
3.284961e+05 -2.781826e+05 -8.977740e+04
3.000000e+05 -3.000000e+05 -8.495216e+04
3.150028e+05 -3.304953e+05 -7.271740e+04
-3.675888e+05 8.104388e+04 -1.041894e+05
-3.772127e+05 9.537243e+04 -8.226052e+04
-3.549977e+05 8.225829e+04 -6.958204e+04
-3.324667e+05 1.034303e+05 -7.925349e+04
-3.287902e+05 8.019708e+04 -7.308929e+04
-3.000000e+05 8.178708e+04 -8.607626e+04
-3.376704e+05 5.826876e+04 -7.711464e+04
-3.269060e+05 1.013053e+05 -1.061264e+05
3.789447e+05 5.231046e+04 -7.156224e+04
3.797246e+05 2.662904e+04 -7.238984e+04
3.542481e+05 2.424647e+04 -7.232165e+04
3.654870e+05 4.658106e+04 -1.037918e+05
3.547521e+05 5.634106e+04 -7.296276e+04
4.000000e+05 1.739649e+04 -9.927617e+04
3.698862e+05 6.078781e+03 -1.040874e+05
2.980772e+05 -3.371077e+05 -8.895828e+04
2.694544e+05 -3.278863e+05 -7.704647e+04
2.797547e+05 -3.262575e+05 -1.016748e+05
2.527082e+05 -3.000000e+05 -8.345500e+04
-2.719249e+05 -1.217391e+05 -1.600000e+05
-2.395442e+05 -1.391304e+05 -1.600000e+05
-2.395442e+05 -1.043478e+05 -1.600000e+05
-2.531935e+05 -1.270462e+05 -1.412263e+05
3.000000e+05 -3.000000e+05 -1.200000e+05
3.002856e+05 -3.361068e+05 -1.088331e+05
4.000000e+05 -2.434889e+05 -7.885642e+04
3.793392e+05 -2.648916e+05 -8.068382e+04
3.773868e+05 -2.421247e+05 -7.266637e+04
4.000000e+05 -2.086686e+05 -7.886305e+04
3.675359e+05 -2.097586e+05 -8.075709e+04
4.000000e+05 -2.261070e+05 -9.928569e+04
3.538497e+05 -2.348893e+05 -7.459450e+04
3.725675e+05 -2.463970e+05 -1.017909e+05
3.502225e+05 -2.616785e+05 -8.717221e+04
-3.526018e+05 -1.921227e+05 -7.792871e+04
-3.488942e+05 -1.732468e+05 -8.314813e+04
1.499856e+05 3.000000e+05 -8.329321e+04
1.166523e+05 3.000000e+05 -8.329321e+04
1.329251e+05 3.268223e+05 -7.013189e+04
-1.886870e+05 3.730787e+05 -1.111892e+05
-2.163489e+05 3.704449e+05 -1.083083e+05
-2.096737e+05 3.321578e+05 -1.140410e+05
-2.082357e+05 3.525732e+05 -8.350742e+04
-3.776219e+05 -1.479261e+05 -8.363896e+04
-3.430748e+05 -1.312463e+05 -7.599970e+04
3.541603e+05 -2.821504e+05 -9.271434e+04
-1.820311e+05 -3.674944e+05 -1.066294e+05
-1.862064e+05 -3.801092e+05 -8.404529e+04
-1.553976e+05 -3.544035e+05 -7.132013e+04
-1.889466e+05 -3.550334e+05 -7.367200e+04
3.523144e+05 -3.371922e+05 -7.289987e+04
-2.344389e+05 -1.677927e+05 -1.200000e+05
-2.191247e+05 -1.851129e+05 -1.406584e+05
-2.385126e+05 -1.748481e+05 -1.600000e+05
-2.214382e+05 -1.455630e+05 -1.397973e+05
3.322704e+05 -3.667648e+05 -7.044632e+04
-4.000000e+05 -1.218925e+05 -1.107028e+05
-4.000000e+05 -1.217391e+05 -1.600000e+05
-4.000000e+05 -1.405259e+05 -1.298366e+05
-4.000000e+05 -8.695652e+04 -1.600000e+05
-4.000000e+05 -1.043457e+05 -1.313395e+05
2.757320e+05 -3.596770e+05 -8.128904e+04
2.526677e+05 -3.805400e+05 -8.128545e+04
3.362544e+05 -2.990569e+05 -1.111961e+05
3.266733e+05 -3.082666e+05 -1.371659e+05
3.613661e+05 -2.932343e+05 -1.384815e+05
3.554121e+05 -3.294513e+05 -1.412466e+05
3.771145e+05 -3.326690e+05 -1.265093e+05
3.428318e+05 -3.378143e+05 -1.187164e+05
2.608696e+05 3.362016e+05 -1.600000e+05
2.714985e+05 3.170017e+05 -1.365486e+05
2.775699e+05 3.039950e+05 -1.600000e+05
2.797787e+05 3.382295e+05 -1.395869e+05
2.788003e+05 3.378270e+05 -1.117099e+05
2.474775e+05 3.389799e+05 -1.392141e+05
-2.678710e+05 -8.333333e+04 -1.200000e+05
-2.678710e+05 -1.166667e+05 -1.200000e+05
-2.904171e+05 -1.112369e+05 -1.391889e+05
-2.555169e+05 -9.682524e+04 -1.402866e+05
2.824718e+05 3.663948e+05 -1.055757e+05
2.959311e+05 3.589048e+05 -1.397249e+05
2.590913e+05 3.661097e+05 -1.372947e+05
2.782609e+05 3.681566e+05 -1.600000e+05
8.695652e+04 -2.719249e+05 -1.600000e+05
6.956522e+04 -2.395442e+05 -1.600000e+05
5.217391e+04 -2.719249e+05 -1.600000e+05
6.319997e+04 -2.557667e+05 -1.401726e+05
-2.785021e+05 3.251119e+05 -1.272357e+05
-3.002700e+05 3.189674e+05 -1.379951e+05
-3.034350e+05 3.603599e+05 -1.382371e+05
-2.956522e+05 4.000000e+05 -1.600000e+05
-2.782609e+05 3.681566e+05 -1.600000e+05
-2.788799e+05 3.636924e+05 -1.346020e+05
-3.133237e+05 3.678989e+05 -1.600000e+05
-3.368657e+05 3.551824e+05 -1.305197e+05
-3.342262e+05 3.338343e+05 -1.600000e+05
-3.801035e+05 2.190929e+05 -8.319083e+04
-3.533714e+05 2.398432e+05 -8.626974e+04
-3.000000e+05 2.523672e+05 -8.611874e+04
-3.000000e+05 2.162533e+05 -8.625174e+04
-3.259986e+05 2.266223e+05 -9.019499e+04
-3.318981e+05 2.414929e+05 -1.137588e+05
-3.345406e+05 2.561148e+05 -9.852520e+04
-3.701547e+05 2.501547e+05 -1.069430e+05
-3.518063e+05 2.761182e+05 -7.671645e+04
3.346903e+05 -2.761351e+05 -1.238005e+05
3.660199e+05 -2.702916e+05 -1.245767e+05
3.553617e+05 -2.690581e+05 -6.493289e+04
7.547977e+04 3.676812e+05 -1.106071e+05
8.294269e+04 3.768294e+05 -8.416766e+04
4.626576e+04 3.802995e+05 -8.294341e+04
6.096621e+04 3.509441e+05 -8.167214e+04
6.691802e+04 3.276856e+05 -7.174740e+04
4.259522e+04 3.446781e+05 -7.311338e+04
8.699490e+04 3.311984e+05 -9.213406e+04
9.056374e+04 3.525373e+05 -7.973589e+04
7.370599e+04 3.325201e+05 -1.145908e+05
-3.341779e+05 -2.421356e+05 -1.120532e+05
-3.560125e+05 -2.343508e+05 -8.043179e+04
-3.796900e+05 -2.453125e+05 -1.085205e+05
-3.528142e+05 -2.690229e+05 -1.010561e+05
-3.655259e+05 -2.504799e+05 -1.321877e+05
-3.281913e+05 -2.558759e+05 -9.675740e+04
-2.719249e+05 -8.695652e+04 -1.600000e+05
-2.395442e+05 -6.956522e+04 -1.600000e+05
-2.545568e+05 -6.121680e+04 -1.402276e+05
-2.806203e+05 -6.893915e+04 -1.426109e+05
-2.356282e+05 -6.666667e+04 -1.200000e+05
-2.205744e+05 -7.462390e+04 -1.390381e+05
-3.641955e+05 3.144023e+05 -1.045214e+05
-3.505277e+05 4.000000e+05 -8.131819e+04
-2.678710e+05 -1.500000e+05 -1.200000e+05
-2.864875e+05 -1.420901e+05 -1.398766e+05
-3.736317e+05 3.752376e+05 -7.414284e+04
1.560388e+05 3.353157e+05 -8.697388e+04
1.567363e+05 3.526897e+05 -7.130788e+04
1.810827e+05 3.562413e+05 -7.442492e+04
2.151724e+05 3.534301e+05 -7.338357e+04
1.544275e+05 3.803119e+05 -8.317155e+04
1.883870e+05 3.812793e+05 -8.508411e+04
6.424145e+04 3.203384e+05 -9.496082e+04
1.012261e+05 3.342194e+05 -7.071452e+04
8.331894e+04 3.000000e+05 -8.329321e+04
4.998496e+04 3.000000e+05 -8.329322e+04
3.284538e+05 9.540126e+04 -7.951105e+04
3.312606e+05 1.065653e+05 -1.074623e+05
3.683934e+05 1.070655e+05 -8.969836e+04
3.495344e+05 7.879828e+04 -9.365725e+04
3.268468e+05 7.557056e+04 -1.120410e+05
3.251911e+05 5.884781e+04 -8.121688e+04
-3.150076e+05 2.685035e+05 -1.383322e+05
-3.373715e+05 2.794638e+05 -1.402213e+05
-3.217391e+05 3.010418e+05 -1.414765e+05
-3.606130e+05 2.925556e+05 -1.381030e+05
-3.378862e+05 2.955357e+05 -1.600000e+05
-3.039601e+05 2.776001e+05 -1.600000e+05
-2.356282e+05 -1.000000e+05 -1.200000e+05
-3.000000e+05 3.000000e+05 -1.200000e+05
-2.869159e+05 2.821512e+05 -1.431206e+05
-3.392425e+05 2.756614e+05 -1.100435e+05
-3.478261e+04 -3.041301e+05 -1.600000e+05
-1.739130e+04 -2.719249e+05 -1.600000e+05
-5.217391e+04 -2.719249e+05 -1.600000e+05
-3.458760e+04 -2.823612e+05 -1.390763e+05
-3.374152e+05 -2.996575e+05 -1.089555e+05
-3.390939e+05 -3.357408e+05 -8.788030e+04
-3.361962e+05 -3.320952e+05 -1.214115e+05
-3.161102e+05 -3.216845e+05 -1.091760e+05
-3.375180e+05 -3.134151e+05 -1.369899e+05
-3.191132e+05 -2.917448e+05 -1.381858e+05
-2.966676e+05 -3.414558e+05 -1.151813e+05
-3.131701e+05 -3.251804e+05 -1.377263e+05
-3.174039e+05 -3.490882e+05 -1.037990e+05
2.356282e+05 -1.000000e+05 -1.200000e+05
2.032595e+05 -8.333333e+04 -1.200000e+05
2.221334e+05 -7.262533e+04 -1.398798e+05
2.227094e+05 -1.113932e+05 -1.400164e+05
2.539370e+05 -9.562638e+04 -1.406147e+05
2.538217e+05 -1.278023e+05 -1.398248e+05
1.733548e+05 3.288862e+05 -1.137218e+05
1.565192e+05 3.583084e+05 -1.384334e+05
1.888874e+05 3.593239e+05 -1.332406e+05
1.648905e+05 3.216430e+05 -1.374607e+05
2.395442e+05 -1.043478e+05 -1.600000e+05
2.068996e+05 -8.695652e+04 -1.600000e+05
-1.217391e+05 -2.719249e+05 -1.600000e+05
-1.043478e+05 -2.395442e+05 -1.600000e+05
-1.391304e+05 -2.395442e+05 -1.600000e+05
-1.278392e+05 -2.537650e+05 -1.398856e+05
-2.777065e+05 3.807590e+05 -9.879603e+04
2.107502e+05 -3.319772e+05 -1.137426e+05
2.253359e+05 -3.662599e+05 -1.359941e+05
1.919526e+05 -3.649458e+05 -1.375296e+05
2.099710e+05 -3.402652e+05 -1.406117e+05
2.086957e+05 -3.681566e+05 -1.600000e+05
2.260870e+05 -3.362016e+05 -1.600000e+05
1.913043e+05 -3.362016e+05 -1.600000e+05
2.086957e+05 -3.041301e+05 -1.600000e+05
1.913773e+05 -3.146025e+05 -1.372478e+05
1.758953e+05 -3.362413e+05 -1.422051e+05
-3.688221e+05 -3.500681e+05 -1.600000e+05
-3.352637e+05 -3.322868e+05 -1.600000e+05
-3.681566e+05 -3.130435e+05 -1.600000e+05
-3.531038e+05 -3.280164e+05 -1.355506e+05
-3.690868e+05 -2.980250e+05 -1.048797e+05
-3.681586e+05 -2.703892e+05 -1.228333e+05
-3.810868e+05 -2.773860e+05 -9.418688e+04
-4.000000e+05 -2.782176e+05 -1.283450e+05
-4.000000e+05 -2.607573e+05 -9.928420e+04
3.243565e+05 4.000000e+05 -1.049219e+05
3.168388e+05 3.640166e+05 -1.106362e+05
3.223848e+05 3.735116e+05 -8.948123e+04
2.976563e+05 3.816830e+05 -1.190021e+05
2.956522e+05 4.000000e+05 -1.600000e+05
2.782143e+05 4.000000e+05 -1.283436e+05
3.130435e+05 3.681566e+05 -1.600000e+05
3.125173e+05 4.000000e+05 -1.301628e+05
3.228441e+05 3.629638e+05 -1.417137e+05
2.946250e+05 4.000000e+05 -9.901240e+04
2.981007e+05 3.722054e+05 -8.022206e+04
-1.310588e+05 3.346299e+05 -1.184881e+05
-1.033174e+05 3.264889e+05 -1.380827e+05
-1.159509e+05 3.505871e+05 -1.406853e+05
-1.076911e+05 3.599592e+05 -1.194173e+05
-8.901169e+04 3.598959e+05 -1.368890e+05
-9.838853e+04 3.347370e+05 -1.010503e+05
-8.234433e+04 3.620925e+05 -1.069407e+05
-1.156819e+05 3.805415e+05 -1.260112e+05
-1.081346e+05 3.700923e+05 -9.911058e+04
2.678710e+05 -8.333333e+04 -1.200000e+05
2.617463e+05 -6.311778e+04 -1.426845e+05
2.846123e+05 -7.326232e+04 -1.400928e+05
2.719249e+05 -8.695652e+04 -1.600000e+05
2.395442e+05 -6.956522e+04 -1.600000e+05
2.356282e+05 -6.666667e+04 -1.200000e+05
4.000000e+05 3.505277e+05 -8.131819e+04
3.520548e+05 3.556714e+05 -8.866634e+04
3.740941e+05 3.748935e+05 -7.668317e+04
3.693491e+05 3.527386e+05 -1.129123e+05
4.000000e+05 3.680273e+05 -1.051488e+05
3.680197e+05 4.000000e+05 -1.051716e+05
3.717219e+05 3.765005e+05 -1.334576e+05
3.414481e+05 3.423780e+05 -1.261565e+05
3.481801e+05 3.766901e+05 -1.126761e+05
-6.956522e+04 -3.041301e+05 -1.600000e+05
3.557328e+05 3.331286e+05 -1.369775e+05
4.000000e+05 3.502330e+05 -1.288831e+05
3.781815e+05 3.297676e+05 -1.306815e+05
4.000000e+05 3.243637e+05 -1.049024e+05
4.211759e+04 3.379552e+05 -1.083247e+05
3.885047e+04 3.709111e+05 -1.075086e+05
1.000000e+05 3.000000e+05 -1.200000e+05
6.666667e+04 3.000000e+05 -1.200000e+05
3.333333e+04 3.000000e+05 -1.200000e+05
3.000000e+05 -2.666667e+05 -1.200000e+05
3.187951e+05 -2.631824e+05 -1.378062e+05
3.000000e+05 -2.333333e+05 -1.200000e+05
3.174011e+05 -2.245365e+05 -1.354943e+05
3.281649e+05 -2.459964e+05 -1.122478e+05
3.035370e+05 -2.439911e+05 -1.600000e+05
-3.332165e+05 -3.553967e+05 -1.359642e+05
-3.346540e+05 -3.782093e+05 -1.238793e+05
2.874458e+05 -2.497647e+05 -1.391840e+05
3.039911e+05 -2.775321e+05 -1.600000e+05
-2.719249e+05 1.739130e+04 -1.600000e+05
-2.826753e+05 3.503674e+04 -1.391989e+05
-3.041301e+05 3.478261e+04 -1.600000e+05
-3.115436e+05 1.840331e+04 -1.389328e+05
-3.000000e+05 -5.093170e-11 -1.200000e+05
-2.746089e+05 1.050338e+03 -1.416863e+05
-3.000000e+05 3.333333e+04 -1.200000e+05
-3.331446e+05 4.073741e+04 -1.113941e+05
-3.164404e+05 5.087217e+04 -1.381715e+05
-3.000000e+05 -3.333333e+04 -1.200000e+05
-3.000000e+05 -6.666667e+04 -1.200000e+05
-3.317892e+05 -4.353548e+04 -1.081199e+05
-3.166340e+05 -4.326699e+04 -1.401997e+05
-3.362016e+05 1.739130e+04 -1.600000e+05
-3.225524e+05 -5.986571e+03 -1.383427e+05
-3.235132e+05 1.000651e+03 -1.113586e+05
-2.960438e+05 -3.361295e+05 -1.600000e+05
-2.943995e+05 -3.606180e+05 -1.382537e+05
1.333333e+05 2.356282e+05 -1.200000e+05
1.105039e+05 2.212296e+05 -1.398069e+05
1.249245e+05 2.521534e+05 -1.392766e+05
1.455348e+05 2.214541e+05 -1.397987e+05
1.166667e+05 2.032595e+05 -1.200000e+05
1.284076e+05 1.879654e+05 -1.398200e+05
1.524480e+05 2.027703e+05 -1.200000e+05
1.640963e+05 1.880196e+05 -1.396027e+05
-3.537655e+05 1.207186e+05 -6.836610e+04
-3.346748e+05 1.515852e+05 -9.071502e+04
-3.676691e+05 1.147419e+05 -1.059898e+05
-3.111299e+05 -3.056411e+05 -1.600000e+05
-3.598764e+05 -2.936677e+05 -1.353525e+05
-3.585840e+05 -3.203424e+05 -1.052444e+05
-3.378229e+05 -2.953198e+05 -1.600000e+05
3.663238e+05 2.538164e+05 -1.024527e+05
3.834123e+05 2.783705e+05 -1.007247e+05
3.627054e+05 2.737281e+05 -1.260407e+05
3.507880e+05 2.761448e+05 -9.823604e+04
3.311965e+05 2.714751e+05 -8.365962e+04
3.572057e+05 2.651780e+05 -7.002368e+04
3.475544e+05 2.958076e+05 -7.827046e+04
3.375563e+05 2.436990e+05 -1.153693e+05
3.299643e+05 2.758340e+05 -1.238268e+05
-1.665413e+04 -3.000000e+05 -8.329317e+04
-4.998587e+04 -3.000000e+05 -8.329321e+04
-2.601966e+04 -3.285836e+05 -9.877344e+04
-3.446698e+04 -3.299068e+05 -6.924722e+04
4.000000e+05 1.217391e+05 -1.600000e+05
3.681566e+05 1.391304e+05 -1.600000e+05
3.681566e+05 1.043478e+05 -1.600000e+05
3.580602e+05 1.217777e+05 -1.396667e+05
2.783777e+05 4.000000e+05 -7.878626e+04
-5.052546e+04 -3.309674e+05 -9.183418e+04
-5.620160e+04 -3.540753e+05 -7.670382e+04
-2.046762e+04 -3.643808e+05 -7.496459e+04
-7.037346e+04 -3.324822e+05 -7.062181e+04
1.376571e+05 -4.000000e+05 -8.037280e+04
1.505493e+05 -3.783686e+05 -1.138928e+05
1.736685e+05 -4.000000e+05 -7.888604e+04
3.140961e+05 4.000000e+05 -7.845318e+04
3.505272e+05 4.000000e+05 -8.132527e+04
3.362016e+05 -5.217391e+04 -1.600000e+05
3.195942e+05 -4.482227e+04 -1.387418e+05
3.041301e+05 -6.956522e+04 -1.600000e+05
3.205782e+05 -7.539281e+04 -1.380867e+05
3.362016e+05 -8.695652e+04 -1.600000e+05
3.041301e+05 -1.043478e+05 -1.600000e+05
3.187811e+05 -1.148330e+05 -1.402316e+05
1.000000e+05 1.707417e+05 -1.200000e+05
9.189960e+04 1.865961e+05 -1.389566e+05
1.148768e+05 1.546255e+05 -1.368822e+05
7.743013e+04 1.563114e+05 -1.404688e+05
1.191100e+05 1.387995e+05 -1.200000e+05
1.345503e+05 1.346733e+05 -1.600000e+05
9.742559e+04 1.230477e+05 -1.389992e+05
8.355784e+04 1.378368e+05 -1.200000e+05
-1.217391e+05 -3.362016e+05 -1.600000e+05
-1.323012e+05 -3.213508e+05 -1.369109e+05
-1.219594e+05 -3.578387e+05 -1.391762e+05
-1.028335e+05 -3.286354e+05 -1.382524e+05
1.735595e+05 -3.321052e+05 -1.101129e+05
1.570338e+05 -3.595204e+05 -1.384536e+05
-1.043478e+05 -3.681566e+05 -1.600000e+05
-8.696670e+04 -3.577645e+05 -1.389717e+05
-8.695652e+04 -3.362016e+05 -1.600000e+05
-1.000000e+05 -3.000000e+05 -1.200000e+05
-7.102973e+04 -3.338262e+05 -1.175129e+05
-1.075014e+05 -3.345156e+05 -1.128419e+05
-2.980316e+05 -3.667055e+05 -7.945175e+04
-3.080349e+05 -3.329330e+05 -8.003112e+04
-3.298635e+05 -3.788338e+05 -8.740268e+04
-2.666667e+05 -3.000000e+05 -1.200000e+05
-2.380634e+05 -3.390141e+05 -1.159522e+05
-2.525080e+05 -3.272850e+05 -9.706860e+04
-2.732143e+05 -3.316515e+05 -1.339710e+05
-8.333333e+04 -2.678710e+05 -1.200000e+05
-6.666667e+04 -2.356282e+05 -1.200000e+05
-5.000000e+04 -2.678710e+05 -1.200000e+05
-5.968996e+04 -2.540483e+05 -1.396370e+05
-1.716409e+05 3.337521e+05 -1.214094e+05
-1.363782e+05 3.308092e+05 -9.306128e+04
-1.828968e+05 3.262214e+05 -1.015700e+05
-1.576742e+05 3.140296e+05 -1.055110e+05
-1.666667e+05 3.000000e+05 -1.200000e+05
-1.833845e+05 3.000000e+05 -8.611600e+04
-1.583106e+05 3.162124e+05 -1.365351e+05
-1.333333e+05 3.000000e+05 -1.200000e+05
-1.500133e+05 3.000000e+05 -8.610009e+04
-1.166259e+05 3.000000e+05 -8.611795e+04
-1.607208e+05 3.195410e+05 -7.059258e+04
-1.043478e+05 4.000000e+05 -8.191444e+04
-8.674306e+04 4.000000e+05 -1.107005e+05
-7.412110e+04 3.810288e+05 -9.527988e+04
-6.817304e+04 4.000000e+05 -1.298395e+05
-5.785271e+04 3.651033e+05 -1.080486e+05
-8.567813e+04 3.647594e+05 -7.452096e+04
-4.520918e+04 3.802174e+05 -8.234298e+04
-6.743501e+04 3.380905e+05 -7.434805e+04
2.028206e+05 1.522475e+05 -1.200000e+05
1.884981e+05 1.646624e+05 -1.402555e+05
2.192335e+05 1.842154e+05 -1.400994e+05
2.213393e+05 1.455647e+05 -1.397752e+05
-3.000000e+05 2.000000e+05 -1.200000e+05
-3.000000e+05 2.333333e+05 -1.200000e+05
-2.678710e+05 2.166667e+05 -1.200000e+05
-2.864836e+05 2.144109e+05 -1.394916e+05
2.385113e+05 1.749207e+05 -1.600000e+05
2.067812e+05 1.581076e+05 -1.600000e+05
2.395442e+05 1.391304e+05 -1.600000e+05
2.539874e+05 1.628911e+05 -1.412055e+05
2.537575e+05 1.278292e+05 -1.398854e+05
-1.742320e+04 -4.000000e+05 -9.927559e+04
-1.285938e+04 -3.767857e+05 -1.123095e+05
-4.439346e+04 -3.652336e+05 -1.055155e+05
-2.655909e+01 -4.000000e+05 -7.886343e+04
1.836252e+04 -3.744702e+05 -7.759073e+04
-1.508940e+02 -3.462602e+05 -7.467556e+04
7.517284e+04 3.218108e+05 -1.388949e+05
8.695813e+04 3.654841e+05 -1.389329e+05
1.043478e+05 3.041301e+05 -1.600000e+05
1.298632e+05 3.231402e+05 -1.362837e+05
1.226725e+05 3.589361e+05 -1.391477e+05
4.000000e+05 -3.140961e+05 -7.845318e+04
4.000000e+05 -2.946250e+05 -9.901240e+04
3.772990e+05 -2.957310e+05 -7.444332e+04
-1.391304e+05 -3.041301e+05 -1.600000e+05
-1.096302e+05 -2.853313e+05 -1.399615e+05
-1.428026e+05 -2.846639e+05 -1.405595e+05
-1.739130e+05 -3.041301e+05 -1.600000e+05
-1.753409e+05 -2.855523e+05 -1.397875e+05
-1.687652e+05 -3.223244e+05 -1.386850e+05
-1.565217e+05 -2.719249e+05 -1.600000e+05
-2.921385e+05 -3.776993e+05 -1.132375e+05
-3.349663e+05 -3.545696e+05 -7.381739e+04
-3.000000e+05 -3.000000e+05 -8.477016e+04
-3.000000e+05 -3.000000e+05 -1.200000e+05
-3.350914e+05 -3.113411e+05 -7.767101e+04
-6.666667e+04 -3.000000e+05 -1.200000e+05
-8.263961e+04 -2.887334e+05 -1.409726e+05
-3.000000e+05 4.827948e+04 -8.600299e+04
-4.000000e+05 -3.304348e+05 -1.600000e+05
-4.000000e+05 -3.126723e+05 -1.301611e+05
1.276533e+05 3.317978e+05 -9.054769e+04
1.201649e+05 3.547008e+05 -7.278313e+04
-1.974795e+04 7.152023e+04 -1.600000e+05
-4.139530e+04 4.128208e+04 -1.600000e+05
1.719833e+00 3.550959e+04 -1.600000e+05
-2.041869e+04 2.404160e+04 -1.392927e+05
1.864017e+05 -3.554915e+05 -7.296123e+04
1.818916e+05 -3.723680e+05 -1.119353e+05
1.897408e+05 -3.340808e+05 -9.120013e+04
-3.628343e+04 3.384427e+04 -1.200000e+05
-5.689482e+04 1.386405e+03 -1.384230e+05
-1.918886e+05 3.605326e+05 -1.391807e+05
-1.524495e+05 3.608869e+05 -1.371731e+05
-1.801864e+05 3.349747e+05 -1.414757e+05
-2.108018e+05 3.389507e+05 -1.391972e+05
-1.918535e+05 3.147595e+05 -1.383976e+05
-1.739130e+05 3.041301e+05 -1.600000e+05
-1.565217e+05 3.362016e+05 -1.600000e+05
-1.913043e+05 3.362016e+05 -1.600000e+05
-3.278399e+05 -2.121816e+05 -1.113336e+05
-3.709837e+05 -2.169516e+05 -1.110218e+05
-3.641512e+05 -1.921080e+05 -1.375465e+05
-3.637814e+05 -2.250183e+05 -1.392971e+05
-3.368361e+05 -2.112062e+05 -1.426227e+05
-3.362016e+05 -1.913043e+05 -1.600000e+05
-3.041301e+05 -2.086957e+05 -1.600000e+05
-3.122589e+05 -1.934281e+05 -1.378339e+05
-3.681566e+05 -2.086957e+05 -1.600000e+05
-3.362016e+05 -2.260870e+05 -1.600000e+05
-3.216090e+05 -2.360331e+05 -1.388418e+05
4.000000e+05 2.782176e+05 -1.283450e+05
3.681566e+05 2.782609e+05 -1.600000e+05
4.000000e+05 2.608696e+05 -1.600000e+05
3.615793e+05 2.543116e+05 -1.354206e+05
3.595792e+05 2.269444e+05 -1.404645e+05
3.192117e+05 2.314231e+05 -1.377077e+05
3.362016e+05 2.608696e+05 -1.600000e+05
4.000000e+05 2.434783e+05 -1.280850e+05
3.684242e+05 2.112036e+05 -1.034806e+05
2.945753e+05 -3.749979e+05 -7.076551e+04
2.535295e+05 -3.539661e+05 -7.449091e+04
5.093170e-11 -3.000000e+05 -1.200000e+05
-9.558458e+03 -3.202974e+05 -1.417715e+05
-3.333333e+04 -3.000000e+05 -1.200000e+05
-1.747847e+03 -2.773050e+05 -1.408560e+05
2.480015e+05 -3.298654e+05 -1.116346e+05
-3.362016e+05 -2.608696e+05 -1.600000e+05
-3.303797e+05 -2.719198e+05 -1.208055e+05
-3.000000e+05 -2.666667e+05 -1.200000e+05
-3.039924e+05 -2.775377e+05 -1.600000e+05
-1.739130e+04 -3.362016e+05 -1.600000e+05
0.000000e+00 -3.041301e+05 -1.600000e+05
-2.653768e+05 -3.503116e+05 -7.424369e+04
-2.796190e+05 -3.465122e+05 -9.847872e+04
-2.646309e+05 -3.801076e+05 -8.429266e+04
3.264927e+05 3.106662e+05 -7.147641e+04
-2.608696e+05 4.000000e+05 -1.600000e+05
-2.573185e+05 3.591953e+05 -1.390177e+05
-2.608696e+05 3.362016e+05 -1.600000e+05
-2.434783e+05 4.000000e+05 -1.280850e+05
-2.254511e+05 3.593125e+05 -1.394184e+05
-1.780435e+05 2.852227e+05 -1.402487e+05
-1.438359e+05 2.872969e+05 -1.392458e+05
-2.402394e+05 3.301397e+05 -1.150553e+05
-2.321313e+05 3.177895e+05 -1.390789e+05
-2.497951e+05 3.700954e+05 -1.060583e+05
3.734041e+05 2.954327e+05 -7.957092e+04
3.818622e+05 2.596809e+05 -8.474575e+04
3.524395e+05 2.334063e+05 -7.158576e+04
-2.345509e+05 3.279415e+05 -8.705571e+04
-2.007966e+05 3.334146e+05 -7.267083e+04
-1.777549e+05 3.452988e+05 -7.814795e+04
1.738834e+05 4.000000e+05 -7.886346e+04
1.913303e+05 4.000000e+05 -9.927549e+04
2.086686e+05 4.000000e+05 -7.886305e+04
3.613133e+04 3.374353e+04 -1.200000e+05
-8.228082e+02 6.139230e+02 -1.200000e+05
-1.150141e+02 3.761993e+04 -1.200000e+05
1.717829e+04 1.544615e+04 -1.382692e+05
-1.873328e+05 3.797412e+05 -8.073100e+04
-2.243532e+05 3.720768e+05 -8.205252e+04
1.980828e+05 1.978631e+05 -1.200000e+05
2.356494e+05 1.999895e+05 -1.200000e+05
2.197115e+05 2.153108e+05 -1.422331e+05
2.719263e+05 2.275942e+05 -1.600000e+05
2.416112e+05 2.453977e+05 -1.600000e+05
2.389676e+05 2.100898e+05 -1.600000e+05
2.559241e+05 2.327629e+05 -1.421881e+05
4.000000e+05 -3.652174e+05 -1.600000e+05
4.000000e+05 -3.501965e+05 -1.288965e+05
3.688242e+05 -3.500640e+05 -1.600000e+05
3.720518e+05 -3.727925e+05 -1.335208e+05
4.000000e+05 -3.304348e+05 -1.600000e+05
3.000000e+05 2.000000e+05 -1.200000e+05
2.678710e+05 2.166667e+05 -1.200000e+05
3.000000e+05 2.333333e+05 -1.200000e+05
2.867049e+05 2.156084e+05 -1.410928e+05
4.000000e+05 -3.680197e+05 -1.051716e+05
3.530879e+05 -3.756700e+05 -1.034588e+05
3.612436e+05 -3.533516e+05 -1.210941e+05
3.773665e+05 -3.503606e+05 -1.020402e+05
3.306276e+05 -3.780997e+05 -1.243609e+05
3.290626e+05 -3.556762e+05 -1.049495e+05
-3.392450e+05 3.035376e+05 -8.223835e+04
3.567390e+05 -3.574374e+05 -8.824109e+04
3.372237e+05 -3.538885e+05 -1.380366e+05
3.242329e+05 -3.787698e+05 -8.814652e+04
3.000000e+05 2.666667e+05 -1.200000e+05
2.693404e+05 2.487109e+05 -1.200000e+05
2.825941e+05 2.455001e+05 -1.402185e+05
3.502330e+05 -4.000000e+05 -1.288831e+05
3.243637e+05 -4.000000e+05 -1.049024e+05
-2.782143e+05 -4.000000e+05 -1.283436e+05
-2.689351e+05 -3.665866e+05 -1.303293e+05
-2.782609e+05 -3.681566e+05 -1.600000e+05
3.701569e+05 -1.499576e+05 -1.071851e+05
3.712729e+05 -1.564690e+05 -7.365265e+04
3.812158e+05 -1.175201e+05 -8.574524e+04
3.518041e+05 -1.372469e+05 -7.658151e+04
4.000000e+05 -1.391011e+05 -7.886349e+04
4.000000e+05 -1.565486e+05 -9.927571e+04
4.000000e+05 -1.738834e+05 -7.886346e+04
4.000000e+05 1.043478e+05 -8.191444e+04
3.599563e+05 1.229469e+05 -7.187138e+04
3.796621e+05 1.291761e+05 -9.724331e+04
4.000000e+05 1.405259e+05 -1.298366e+05
3.630001e+05 1.527620e+05 -1.075445e+05
3.650671e+05 1.241458e+05 -1.196061e+05
3.817257e+05 9.959551e+04 -1.183402e+05
-1.739130e+05 -3.681566e+05 -1.600000e+05
-1.391304e+05 -3.681566e+05 -1.600000e+05
-1.565217e+05 -3.362016e+05 -1.600000e+05
-1.565724e+05 -3.582596e+05 -1.389664e+05
4.997838e+04 -3.000000e+05 -8.327081e+04
8.330193e+04 -3.000000e+05 -8.602101e+04
4.000000e+05 -2.782143e+05 -1.283436e+05
4.000000e+05 -2.607512e+05 -9.928644e+04
-3.330944e+05 -5.811203e+04 -7.013833e+04
-3.566494e+05 -5.882095e+04 -9.313549e+04
-3.621342e+05 -5.308939e+04 -6.573692e+04
-3.512932e+05 -3.568439e+04 -7.561349e+04
-3.804443e+05 -2.254032e+04 -8.647785e+04
-3.527094e+05 -1.444827e+04 -7.525729e+04
-3.647532e+05 -1.446970e+04 -1.138606e+05
-3.283372e+05 -2.220295e+04 -8.436945e+04
-3.253079e+05 7.743906e+04 -1.082848e+05
-1.499856e+05 -3.000000e+05 -8.329321e+04
-1.666667e+05 -3.000000e+05 -1.200000e+05
-1.333333e+05 -3.000000e+05 -1.200000e+05
-1.413289e+05 -3.345082e+05 -1.128397e+05
-3.807833e+05 5.663550e+04 -8.181605e+04
-3.531516e+05 3.149645e+04 -7.529187e+04
-3.000000e+05 3.000000e+05 -8.477016e+04
1.833847e+05 -3.000000e+05 -8.611600e+04
2.167935e+05 -3.000000e+05 -8.327929e+04
2.013859e+05 -3.314688e+05 -7.187453e+04
2.149990e+05 -3.698566e+05 -7.942937e+04
2.252703e+05 -3.319500e+05 -8.947278e+04
-3.755072e+05 1.384237e+04 -1.111884e+05
-3.743001e+05 4.483425e+04 -1.076687e+05
-3.798422e+05 2.253095e+04 -8.302009e+04
-3.685140e+05 1.825946e+05 -1.040933e+05
-3.652989e+05 2.167926e+05 -1.064876e+05
3.000000e+05 1.221674e+05 -8.290755e+04
3.419195e+05 1.317315e+05 -8.549653e+04
3.504614e+05 1.624292e+05 -7.122406e+04
3.338430e+05 1.592798e+05 -8.684311e+04
3.321503e+05 1.741665e+05 -7.054219e+04
3.571403e+03 -3.289128e+05 -1.191748e+05
1.348909e+04 -3.581063e+05 -1.059720e+05
1.857755e+04 -3.591539e+05 -1.365791e+05
3.698998e+05 -7.845498e+04 -1.065093e+05
3.301609e+05 -5.607397e+04 -9.312087e+04
3.391335e+05 -6.414115e+04 -7.341201e+04
-9.262680e-02 -4.000000e+05 -1.280849e+05
-1.867420e+04 -3.604828e+05 -1.371614e+05
1.739130e+04 -3.362016e+05 -1.600000e+05
4.734478e+04 -3.263883e+05 -1.315701e+05
1.739130e+04 -4.000000e+05 -1.600000e+05
3.478261e+04 -3.681566e+05 -1.600000e+05
5.217391e+04 -3.362016e+05 -1.600000e+05
3.777484e+05 1.554158e+05 -8.343334e+04
3.314353e+05 1.379533e+05 -6.381337e+04
-1.739130e+05 -4.000000e+05 -1.280850e+05
-1.565217e+05 -4.000000e+05 -1.600000e+05
2.185949e+05 3.808745e+05 -8.742323e+04
2.405982e+05 3.573470e+05 -7.851404e+04
1.807815e+05 3.681710e+05 -1.060398e+05
1.967358e+05 3.330771e+05 -9.185727e+04
2.322623e+05 3.303577e+05 -8.798371e+04
-3.800010e+05 -2.197636e+05 -8.451470e+04
-3.807599e+05 -1.868193e+05 -8.248717e+04
-3.250220e+05 -2.264749e+05 -7.642614e+04
-3.613953e+05 -3.285711e+05 -7.159529e+04
-1.913043e+05 -4.000000e+05 -1.600000e+05
-2.086957e+05 -3.681566e+05 -1.600000e+05
-2.086956e+05 -4.000000e+05 -1.280850e+05
-1.911201e+05 -3.581054e+05 -1.392859e+05
-3.186071e+05 -1.367069e+04 -6.821624e+04
-3.806984e+05 -5.254013e+04 -8.493002e+04
-2.560307e+05 3.803455e+05 -8.491938e+04
-2.540811e+05 3.542355e+05 -7.320200e+04
4.000000e+05 2.782569e+05 -7.878860e+04
4.000000e+05 2.945883e+05 -9.902611e+04
3.641509e+05 3.014011e+05 -1.013311e+05
-3.799949e+05 2.556599e+05 -8.617868e+04
-3.035270e+05 2.439898e+05 -1.600000e+05
-3.147747e+05 2.276227e+05 -1.373035e+05
-2.868194e+05 2.483705e+05 -1.395354e+05
-3.720957e+05 2.880321e+05 -1.082954e+05
-3.256101e+05 2.766196e+05 -8.595918e+04
-3.801414e+05 2.897876e+05 -8.588792e+04
-2.482022e+05 -3.644393e+05 -1.007522e+05
-2.371113e+05 -3.479198e+05 -7.625771e+04
3.000000e+05 1.544053e+05 -8.291246e+04
3.000000e+05 1.867109e+05 -8.289146e+04
3.372006e+05 1.904478e+05 -8.839521e+04
3.362016e+05 1.913043e+05 -1.600000e+05
3.041301e+05 2.086957e+05 -1.600000e+05
3.144794e+05 1.939724e+05 -1.372360e+05
3.374297e+05 2.110565e+05 -1.399472e+05
-2.223964e+05 -3.326085e+05 -7.982793e+04
-1.940502e+05 -3.284717e+05 -9.264115e+04
3.360417e+05 2.133856e+05 -1.128137e+05
3.567371e+05 1.898037e+05 -1.356233e+05
3.316821e+05 1.790909e+05 -1.132637e+05
1.561033e+05 -4.000000e+05 -9.947019e+04
3.674103e+05 8.184101e+04 -1.133854e+05
3.000000e+05 9.019610e+04 -8.367325e+04
3.796634e+05 8.493709e+04 -8.924391e+04
3.544459e+05 8.850666e+04 -7.303195e+04
-3.321149e+05 1.765425e+05 -1.121468e+05
-3.285405e+05 1.422019e+05 -1.088791e+05
-3.635779e+05 1.565257e+05 -1.389968e+05
-3.382300e+05 1.765375e+05 -1.395562e+05
-3.153701e+05 1.573725e+05 -1.389804e+05
-3.362016e+05 1.913043e+05 -1.600000e+05
-3.136701e+05 1.929041e+05 -1.359026e+05
-3.378401e+05 2.141979e+05 -1.399409e+05
-3.041301e+05 1.739130e+05 -1.600000e+05
-3.681566e+05 1.739130e+05 -1.600000e+05
-3.362016e+05 1.565217e+05 -1.600000e+05
-3.655951e+05 1.913079e+05 -1.389902e+05
-3.332617e+05 2.117734e+05 -1.171837e+05
-3.362016e+05 2.260870e+05 -1.600000e+05
-3.348053e+05 2.456459e+05 -1.381640e+05
-3.636036e+05 2.271663e+05 -1.342656e+05
-3.041301e+05 2.086957e+05 -1.600000e+05
-3.681566e+05 2.086957e+05 -1.600000e+05
2.440764e+05 -3.035382e+05 -1.600000e+05
2.672438e+05 -3.204977e+05 -1.341813e+05
2.272569e+05 -3.142109e+05 -1.356556e+05
2.403630e+05 -3.379403e+05 -1.424917e+05
2.434783e+05 -3.681566e+05 -1.600000e+05
-2.271030e+05 -3.567118e+05 -1.381191e+05
-4.000000e+05 2.434889e+05 -7.885642e+04
-3.481145e+04 -4.000000e+05 -7.886354e+04
-4.905633e+04 -3.792642e+05 -8.186303e+04
5.255098e+04 -4.000000e+05 -9.946212e+04
7.828015e+04 -3.193245e+05 -1.379402e+05
-1.043478e+05 -3.041301e+05 -1.600000e+05
-8.695652e+04 -2.719249e+05 -1.600000e+05
-7.852416e+04 -3.185053e+05 -1.394390e+05
3.608726e+05 -2.509947e+05 -1.338818e+05
4.000000e+05 -2.434775e+05 -1.283328e+05
3.681566e+05 -2.782609e+05 -1.600000e+05
3.362016e+05 -2.608696e+05 -1.600000e+05
4.000000e+05 -2.608696e+05 -1.600000e+05
2.260870e+05 3.362016e+05 -1.600000e+05
2.264256e+05 3.693631e+05 -1.346486e+05
2.093199e+05 3.410775e+05 -1.392640e+05
1.913043e+05 3.362016e+05 -1.600000e+05
2.086957e+05 3.681566e+05 -1.600000e+05
2.087768e+05 3.349291e+05 -1.173473e+05
1.914067e+05 3.150556e+05 -1.393012e+05
-1.391304e+05 3.041301e+05 -1.600000e+05
-3.725208e+05 -2.926186e+05 -7.448070e+04
-3.276406e+05 -2.753324e+05 -8.864053e+04
1.218925e+05 -4.000000e+05 -1.107028e+05
2.523107e+05 3.752911e+05 -1.098327e+05
2.151583e+05 3.733888e+05 -1.111979e+05
2.710273e+05 3.483111e+05 -7.455573e+04
2.602928e+05 3.328770e+05 -9.201210e+04
2.434889e+05 4.000000e+05 -7.885642e+04
3.041301e+05 -1.391304e+05 -1.600000e+05
3.285626e+05 -1.386144e+05 -1.385286e+05
3.000000e+05 -1.333333e+05 -1.200000e+05
3.344910e+05 -1.076509e+05 -1.158159e+05
3.607714e+05 -1.220629e+05 -1.382294e+05
-8.398695e+04 -3.552910e+05 -7.376573e+04
-1.196694e+05 -3.558357e+05 -7.237163e+04
-1.004207e+05 -3.278855e+05 -7.078945e+04
-1.211130e+05 -3.326504e+05 -9.003026e+04
-1.344122e+05 -3.303435e+05 -7.154988e+04
2.068996e+05 -1.217391e+05 -1.600000e+05
2.395442e+05 -1.391304e+05 -1.600000e+05
-8.331903e+04 -3.000000e+05 -8.329321e+04
-1.166523e+05 -3.000000e+05 -8.329321e+04
-9.102901e+04 -3.325131e+05 -9.388667e+04
-1.043478e+05 -4.000000e+05 -1.280850e+05
-1.129357e+05 -3.697349e+05 -1.062010e+05
2.872055e+05 -2.142640e+05 -1.404425e+05
2.720042e+05 -2.275154e+05 -1.600000e+05
2.556359e+05 -2.340817e+05 -1.426909e+05
3.041301e+05 -2.086957e+05 -1.600000e+05
-4.000000e+05 -3.139008e+05 -7.844374e+04
-3.509195e+05 -2.609721e+05 -7.401554e+04
-3.813190e+05 -2.563488e+05 -8.587463e+04
-4.000000e+05 -2.782569e+05 -7.878860e+04
2.434783e+05 3.681566e+05 -1.600000e+05
2.440477e+05 3.035535e+05 -1.600000e+05
2.267664e+05 3.156164e+05 -1.373610e+05
2.461663e+05 3.349927e+05 -1.139968e+05
3.674401e+05 3.135020e+05 -1.600000e+05
3.688712e+05 3.466760e+05 -1.600000e+05
3.322610e+05 3.352834e+05 -1.600000e+05
-3.681566e+05 -2.782609e+05 -1.600000e+05
-4.000000e+05 -2.434783e+05 -1.280850e+05
4.000000e+05 1.043457e+05 -1.313395e+05
3.631617e+05 8.597303e+04 -1.381798e+05
4.000000e+05 6.817304e+04 -1.298395e+05
4.000000e+05 8.674306e+04 -1.107005e+05
4.000000e+05 1.218925e+05 -1.107028e+05
-3.681566e+05 -1.739130e+05 -1.600000e+05
-3.362016e+05 -1.565217e+05 -1.600000e+05
-3.615025e+05 -1.541096e+05 -1.344083e+05
-3.426345e+05 -1.764801e+05 -1.393196e+05
-3.041301e+05 -1.739130e+05 -1.600000e+05
3.500648e+05 3.688250e+05 -1.600000e+05
-3.762696e+05 -1.842764e+05 -1.069770e+05
1.592930e+05 -3.170377e+05 -1.370588e+05
4.000000e+05 3.652174e+05 -1.600000e+05
4.000000e+05 3.304348e+05 -1.600000e+05
1.739130e+05 -3.681566e+05 -1.600000e+05
1.739130e+05 -3.041301e+05 -1.600000e+05
3.813359e+05 -1.921984e+05 -8.591650e+04
3.518238e+05 -1.823870e+05 -7.378730e+04
3.275337e+05 -1.978429e+05 -9.180642e+04
3.301231e+05 -2.311287e+05 -9.065818e+04
3.319852e+05 -1.680413e+05 -8.908766e+04
-3.000000e+05 1.154838e+05 -8.613212e+04
-3.000000e+05 1.489662e+05 -8.618289e+04
-3.681566e+05 1.391304e+05 -1.600000e+05
-3.640511e+05 1.217448e+05 -1.389051e+05
-3.335266e+05 1.375064e+05 -1.382581e+05
-3.041301e+05 1.391304e+05 -1.600000e+05
-3.362016e+05 1.217391e+05 -1.600000e+05
-3.681566e+05 2.434783e+05 -1.600000e+05
-3.621672e+05 2.615433e+05 -1.319598e+05
-3.362016e+05 2.608696e+05 -1.600000e+05
3.602645e+05 3.256132e+05 -7.246930e+04
3.787377e+05 3.265297e+05 -8.835245e+04
4.000000e+05 2.607573e+05 -9.928420e+04
3.000000e+05 3.000000e+05 -8.447793e+04
3.341871e+05 2.985951e+05 -1.100538e+05
3.487469e+05 3.201884e+05 -1.127670e+05
3.071424e+05 3.320139e+05 -1.163308e+05
3.252252e+05 3.077831e+05 -1.391754e+05
3.726729e+04 -3.592433e+02 -1.200000e+05
3.560177e+04 7.008440e+01 -1.600000e+05
3.357161e+04 -3.612072e+04 -1.200000e+05
1.409406e+04 -1.647658e+04 -1.381960e+05
3.336773e+05 3.327663e+05 -8.981409e+04
3.580254e+05 2.935213e+05 -1.383093e+05
4.000000e+05 5.255098e+04 -9.946212e+04
4.000000e+05 3.126723e+05 -1.301611e+05
-1.913043e+05 4.000000e+05 -1.600000e+05
-2.086957e+05 4.000000e+05 -1.280849e+05
-2.086957e+05 3.681566e+05 -1.600000e+05
-3.681566e+05 2.782609e+05 -1.600000e+05
1.714284e+04 7.022933e+04 -1.200000e+05
1.990620e+04 7.150684e+04 -1.600000e+05
2.623744e+03 8.832498e+04 -1.361770e+05
4.424111e+04 9.214457e+04 -1.424314e+05
7.201007e+04 1.050251e+05 -1.600000e+05
6.318665e+04 1.247095e+05 -1.414214e+05
3.643424e+04 1.045196e+05 -1.600000e+05
6.872083e+04 1.014279e+05 -1.200000e+05
8.123891e+04 8.534062e+04 -1.437782e+05
4.972581e+04 7.148942e+04 -1.200000e+05
6.709380e+04 6.696860e+04 -1.600000e+05
4.144918e+04 4.128015e+04 -1.600000e+05
-1.010835e+05 3.452607e+05 -7.452781e+04
-1.302335e+05 3.522697e+05 -7.415265e+04
-1.562859e+05 3.798669e+05 -7.936875e+04
-1.376571e+05 4.000000e+05 -8.037280e+04
-1.360992e+05 3.727173e+05 -1.104573e+05
-1.565957e+05 3.639199e+05 -1.109133e+05
-1.167958e+05 3.170552e+05 -6.941762e+04
-1.542828e+05 3.558091e+05 -7.496121e+04
3.294722e+05 1.347730e+04 -7.919222e+04
-1.191143e+05 -1.387840e+05 -1.200000e+05
-1.504256e+05 -1.535374e+05 -1.446976e+05
-1.346052e+05 -1.346505e+05 -1.600000e+05
-1.138379e+05 -1.539101e+05 -1.367448e+05
4.000000e+05 3.490296e+04 -7.889057e+04
-2.608696e+05 -4.000000e+05 -1.600000e+05
-2.434775e+05 -4.000000e+05 -1.283328e+05
-2.513653e+05 -3.613926e+05 -1.340570e+05
-2.320877e+05 -3.218284e+05 -1.365489e+05
-2.169504e+05 -3.680216e+05 -1.085294e+05
3.294562e+05 -1.294828e+05 -9.248932e+04
3.427425e+05 -9.999228e+04 -7.363016e+04
3.317864e+05 -1.431540e+05 -1.138043e+05
-3.732696e+05 3.721106e+05 -1.335312e+05
-3.313354e+05 3.781646e+05 -1.305904e+05
-3.000000e+05 -2.127379e+05 -8.354694e+04
-3.000000e+05 -2.000000e+05 -1.200000e+05
-3.000000e+05 -2.333333e+05 -1.200000e+05
2.782569e+05 -4.000000e+05 -7.878860e+04
2.945883e+05 -4.000000e+05 -9.902611e+04
-4.000000e+05 3.680197e+05 -1.051716e+05
-3.502330e+05 4.000000e+05 -1.288831e+05
-3.243637e+05 4.000000e+05 -1.049024e+05
-3.680273e+05 4.000000e+05 -1.051488e+05
5.000000e+04 2.032595e+05 -1.200000e+05
1.918383e+04 1.844066e+05 -1.395384e+05
3.851222e+04 2.155621e+05 -1.399350e+05
6.060842e+04 1.912471e+05 -1.387547e+05
5.217391e+04 2.068996e+05 -1.600000e+05
3.478261e+04 1.738276e+05 -1.600000e+05
3.333333e+04 1.707417e+05 -1.200000e+05
3.526645e+04 1.527845e+05 -1.410405e+05
1.739649e+04 -4.000000e+05 -9.927617e+04
3.490296e+04 -4.000000e+05 -7.889057e+04
1.699525e+04 -3.298672e+05 -9.110564e+04
-4.000000e+05 5.220474e+04 -9.927827e+04
-4.000000e+05 8.698509e+04 -9.927827e+04
-1.833217e+05 -3.000000e+05 -8.329321e+04
-1.522631e+05 -3.345752e+05 -8.881210e+04
-2.173893e+05 -3.782194e+05 -8.048404e+04
-2.434889e+05 -4.000000e+05 -7.885642e+04
3.037851e+05 3.432561e+05 -8.382545e+04
2.649902e+05 3.812361e+05 -8.332056e+04
2.823837e+05 3.199858e+05 -8.015513e+04
-4.000000e+05 3.505272e+05 -8.132527e+04
-3.792876e+05 3.211276e+05 -8.433529e+04
-4.000000e+05 3.243565e+05 -1.049219e+05
-4.000000e+05 3.501965e+05 -1.288965e+05
-4.000000e+05 3.125173e+05 -1.301628e+05
3.000000e+05 6.666667e+04 -1.200000e+05
3.277061e+05 3.993311e+04 -1.078252e+05
3.169722e+05 4.668534e+04 -1.366023e+05
2.953182e+05 3.378247e+05 -1.600000e+05
3.056201e+05 3.263275e+05 -1.395467e+05
3.000000e+05 3.000000e+05 -1.200000e+05
-3.799314e+05 -1.218853e+05 -8.420446e+04
-4.000000e+05 -1.043478e+05 -8.191444e+04
-3.625630e+05 -8.745900e+04 -6.938972e+04
-3.508961e+05 -1.097921e+05 -7.383195e+04
-3.000000e+05 -2.498389e+05 -8.408605e+04
-2.782569e+05 4.000000e+05 -7.878860e+04
-2.945883e+05 4.000000e+05 -9.902611e+04
-2.782176e+05 4.000000e+05 -1.283450e+05
-2.607573e+05 4.000000e+05 -9.928420e+04
7.100429e+04 -4.000000e+05 -8.036529e+04
-4.000000e+05 2.783777e+05 -7.878626e+04
3.362016e+05 1.739130e+04 -1.600000e+05
3.041301e+05 3.478261e+04 -1.600000e+05
3.041301e+05 0.000000e+00 -1.600000e+05
3.081335e+05 1.698602e+04 -1.394488e+05
3.362016e+05 5.217391e+04 -1.600000e+05
4.000000e+05 -3.505272e+05 -8.132527e+04
4.000000e+05 -3.243565e+05 -1.049219e+05
3.734108e+05 -3.748598e+05 -8.616514e+04
3.505277e+05 -4.000000e+05 -8.131819e+04
3.680273e+05 -4.000000e+05 -1.051488e+05
3.271961e+05 -2.071098e+05 -1.086359e+05
3.285733e+05 -1.793684e+05 -1.133102e+05
4.000000e+05 -1.913043e+05 -1.600000e+05
4.000000e+05 -2.086956e+05 -1.280850e+05
4.000000e+05 -1.739130e+05 -1.280850e+05
-3.675725e+05 -7.864370e+04 -1.172375e+05
-3.813642e+05 -7.225619e+04 -9.727906e+04
-3.759738e+05 1.507309e+05 -1.124731e+05
-3.800065e+05 1.246116e+05 -8.340977e+04
-7.100429e+04 4.000000e+05 -8.036529e+04
4.000000e+05 -2.783777e+05 -7.878626e+04
-3.776203e+05 -4.369759e+04 -1.067110e+05
-4.000000e+05 -6.817304e+04 -1.298395e+05
-4.000000e+05 -8.674306e+04 -1.107005e+05
-3.681566e+05 -1.043478e+05 -1.600000e+05
-3.468183e+05 -7.693770e+04 -1.387174e+05
-3.681566e+05 -6.956522e+04 -1.600000e+05
3.334171e+05 3.511289e+05 -7.258117e+04
2.719249e+05 1.739130e+04 -1.600000e+05
1.666667e+04 -1.380126e+05 -1.200000e+05
-2.290452e+04 -1.269000e+05 -1.405071e+05
1.739130e+04 -1.402315e+05 -1.600000e+05
-8.548959e+01 -1.535099e+05 -1.399443e+05
2.164996e+05 -3.671897e+05 -1.042835e+05
-2.167935e+05 3.000000e+05 -8.327928e+04
1.912075e+05 -4.000000e+05 -9.927319e+04
2.086377e+05 -4.000000e+05 -7.886463e+04
3.478261e+04 -1.738276e+05 -1.600000e+05
6.956522e+04 -1.738276e+05 -1.600000e+05
5.238855e+04 -1.400419e+05 -1.600000e+05
3.880988e+04 -1.536267e+05 -1.397563e+05
2.260443e+05 -4.000000e+05 -9.927425e+04
-1.666667e+04 -1.380126e+05 -1.200000e+05
6.984919e-10 -1.707417e+05 -1.200000e+05
-3.333333e+04 -1.707417e+05 -1.200000e+05
-3.680197e+05 -4.000000e+05 -1.051716e+05
-4.000000e+05 -3.652174e+05 -1.600000e+05
0.000000e+00 -1.738276e+05 -1.600000e+05
-4.000000e+05 -1.736685e+05 -7.888604e+04
-2.086957e+05 3.041301e+05 -1.600000e+05
-1.739130e+05 3.681566e+05 -1.600000e+05
-2.260870e+05 3.362016e+05 -1.600000e+05
-1.380126e+05 8.333333e+04 -1.200000e+05
-1.268566e+05 6.854598e+04 -1.394006e+05
-1.565558e+05 7.769888e+04 -1.402151e+05
-1.211298e+05 9.564796e+04 -1.397763e+05
-4.000000e+05 -2.086377e+05 -7.886463e+04
-1.387787e+05 1.191040e+05 -1.200000e+05
-1.048015e+05 1.024129e+05 -1.200000e+05
7.792538e+04 -2.220069e+05 -1.401264e+05
3.575965e+04 -2.214182e+05 -1.396161e+05
2.434429e+05 -4.000000e+05 -7.886194e+04
4.000000e+05 -8.695652e+04 -1.600000e+05
4.000000e+05 -1.217391e+05 -1.600000e+05
3.681566e+05 -1.043478e+05 -1.600000e+05
-4.000000e+05 2.434775e+05 -1.283328e+05
-4.000000e+05 2.260870e+05 -1.600000e+05
-4.000000e+05 2.086956e+05 -1.280850e+05
-1.000000e+05 -2.356282e+05 -1.200000e+05
-1.107850e+05 -2.213969e+05 -1.398182e+05
-8.333333e+04 -2.032595e+05 -1.200000e+05
-7.859487e+04 -2.226709e+05 -1.395983e+05
-9.330394e+04 -2.538129e+05 -1.393161e+05
-8.695652e+04 -2.068996e+05 -1.600000e+05
2.960439e+05 -3.361296e+05 -1.600000e+05
3.008154e+05 -3.196529e+05 -1.370367e+05
2.783186e+05 -3.040552e+05 -1.600000e+05
2.666667e+05 -3.000000e+05 -1.200000e+05
2.479376e+05 -2.887112e+05 -1.401337e+05
2.769891e+05 -2.821500e+05 -1.407434e+05
2.333333e+05 -3.000000e+05 -1.200000e+05
2.608696e+05 -3.362016e+05 -1.600000e+05
2.686869e+05 -2.686612e+05 -1.600000e+05
2.688976e+05 -2.516326e+05 -1.200000e+05
-3.122916e+04 -3.356740e+05 -1.180529e+05
-2.333333e+05 -3.000000e+05 -1.200000e+05
-2.447001e+05 -2.827339e+05 -1.393235e+05
-2.127655e+05 -2.865654e+05 -1.407419e+05
-2.166861e+05 -2.677974e+05 -1.200000e+05
-2.339207e+05 -2.543886e+05 -1.413251e+05
-2.440698e+05 -3.035211e+05 -1.600000e+05
-2.686858e+05 -2.686614e+05 -1.600000e+05
-2.783150e+05 -3.040582e+05 -1.600000e+05
-2.486724e+05 -2.693333e+05 -1.200000e+05
2.395442e+05 -3.478261e+04 -1.600000e+05
2.485906e+05 -1.715885e+04 -1.398453e+05
2.395442e+05 0.000000e+00 -1.600000e+05
2.168231e+05 -3.022529e+04 -1.408181e+05
2.068996e+05 -1.739130e+04 -1.600000e+05
2.026534e+05 -5.350998e+03 -1.376083e+05
1.833961e+05 -2.228164e+04 -1.406160e+05
2.356282e+05 2.328306e-10 -1.200000e+05
2.032595e+05 -1.666667e+04 -1.200000e+05
2.434783e+05 -4.000000e+05 -1.280850e+05
2.260870e+05 -4.000000e+05 -1.600000e+05
2.086957e+05 -4.000000e+05 -1.280849e+05
3.056438e+05 3.111328e+05 -1.600000e+05
2.666667e+05 3.000000e+05 -1.200000e+05
2.432167e+05 2.902233e+05 -1.401667e+05
2.333333e+05 3.000000e+05 -1.200000e+05
-1.980843e+05 1.978751e+05 -1.200000e+05
-2.029311e+05 1.523034e+05 -1.200000e+05
-2.191502e+05 1.850844e+05 -1.406563e+05
-1.900803e+05 1.662190e+05 -1.394545e+05
-1.715785e+05 1.707464e+05 -1.200000e+05
-1.654013e+05 1.873258e+05 -1.409798e+05
-1.525833e+05 1.549682e+05 -1.454118e+05
-1.693969e+05 1.358422e+05 -1.200000e+05
-1.871806e+05 1.274171e+05 -1.393594e+05
-1.721062e+05 1.058906e+05 -1.600000e+05
-1.398440e+05 8.944303e+04 -1.600000e+05
-1.346767e+05 1.346077e+05 -1.600000e+05
-1.549519e+05 1.129133e+05 -1.371363e+05
-4.000000e+05 -1.376571e+05 -8.037280e+04
-3.704370e+05 -1.553955e+05 -1.074902e+05
3.478261e+04 -3.041301e+05 -1.600000e+05
1.789418e+04 -3.094846e+05 -1.407433e+05
3.333333e+04 -3.000000e+05 -1.200000e+05
4.281695e+04 -2.827321e+05 -1.414515e+05
1.666667e+04 2.678710e+05 -1.200000e+05
3.333333e+04 2.356282e+05 -1.200000e+05
1.763864e+04 2.337465e+05 -1.400243e+05
3.296485e+04 2.743989e+05 -1.391541e+05
5.843314e+03 2.734076e+05 -1.364105e+05
5.217391e+04 2.719249e+05 -1.600000e+05
3.478261e+04 2.395442e+05 -1.600000e+05
5.323870e+04 2.505357e+05 -1.390686e+05
6.666667e+04 -3.000000e+05 -1.200000e+05
-2.068996e+05 -5.217391e+04 -1.600000e+05
-2.194044e+05 -3.446866e+04 -1.386886e+05
-1.933115e+05 -6.499384e+04 -1.392710e+05
-1.953250e+05 -3.442611e+04 -1.385607e+05
-2.032595e+05 -5.000000e+04 -1.200000e+05
2.027700e+05 -1.524482e+05 -1.200000e+05
1.695536e+05 -1.357939e+05 -1.200000e+05
1.891877e+05 -1.303448e+05 -1.393357e+05
1.897632e+05 -1.667064e+05 -1.394881e+05
1.707325e+05 -1.715726e+05 -1.200000e+05
1.534788e+05 -1.504703e+05 -1.446851e+05
1.637401e+05 -1.890496e+05 -1.402101e+05
2.190953e+05 -1.851612e+05 -1.406991e+05
1.978518e+05 -1.980866e+05 -1.200000e+05
1.707417e+05 6.666667e+04 -1.200000e+05
1.562932e+05 8.092587e+04 -1.395582e+05
1.878690e+05 9.262639e+04 -1.394976e+05
1.885053e+05 6.090182e+04 -1.386523e+05
1.720917e+05 1.058328e+05 -1.600000e+05
1.876222e+05 1.284296e+05 -1.398940e+05
1.560255e+05 1.149282e+05 -1.385579e+05
1.707417e+05 1.000000e+05 -1.200000e+05
2.678710e+05 5.000000e+04 -1.200000e+05
2.852090e+05 8.133736e+04 -1.398175e+05
2.827537e+05 3.897912e+04 -1.406770e+05
3.182879e+05 8.120963e+04 -1.373552e+05
3.041301e+05 6.956522e+04 -1.600000e+05
2.719249e+05 5.217391e+04 -1.600000e+05
-2.782921e+05 3.040519e+05 -1.600000e+05
-2.686814e+05 2.686452e+05 -1.600000e+05
-2.454583e+05 2.820720e+05 -1.366863e+05
-2.166917e+05 2.677849e+05 -1.200000e+05
-2.333333e+05 3.000000e+05 -1.200000e+05
-2.154606e+05 2.882084e+05 -1.415647e+05
-2.666667e+05 3.000000e+05 -1.200000e+05
-2.517329e+05 2.689000e+05 -1.200000e+05
-2.440810e+05 3.035467e+05 -1.600000e+05
2.678710e+05 -5.000000e+04 -1.200000e+05
2.678710e+05 -1.666667e+04 -1.200000e+05
2.826751e+05 -3.496653e+04 -1.391158e+05
2.719249e+05 -5.217391e+04 -1.600000e+05
3.000000e+05 -6.666667e+04 -1.200000e+05
3.378269e+05 -2.952146e+05 -1.600000e+05
2.678710e+05 -1.833333e+05 -1.200000e+05
2.865386e+05 -1.794766e+05 -1.401743e+05
3.000000e+05 -2.000000e+05 -1.200000e+05
-4.000000e+05 -1.912075e+05 -9.927319e+04
-3.693033e+05 3.467098e+05 -1.600000e+05
-3.652174e+05 4.000000e+05 -1.600000e+05
-3.500253e+05 3.687974e+05 -1.600000e+05
-4.000000e+05 3.652174e+05 -1.600000e+05
-7.325831e+04 -3.684711e+05 -1.069485e+05
-8.515001e+04 -3.802005e+05 -8.188289e+04
-8.698509e+04 -4.000000e+05 -9.927827e+04
-1.215556e+05 -3.811574e+05 -8.455518e+04
-6.956677e+04 -4.000000e+05 -7.886432e+04
-5.220474e+04 -4.000000e+05 -9.927827e+04
2.527111e+05 3.000000e+05 -8.343282e+04
1.666667e+04 2.032595e+05 -1.200000e+05
1.739130e+04 2.068996e+05 -1.600000e+05
-3.068140e+03 2.038704e+05 -1.417741e+05
-2.328306e-10 2.356282e+05 -1.200000e+05
-2.328306e-10 2.395442e+05 -1.600000e+05
1.380126e+05 8.333333e+04 -1.200000e+05
1.673365e+05 1.357683e+05 -1.200000e+05
1.388633e+05 1.163554e+05 -1.200000e+05
1.507681e+05 1.536731e+05 -1.446231e+05
1.398299e+05 8.943766e+04 -1.600000e+05
1.222331e+05 1.011701e+05 -1.414090e+05
-1.261037e+05 -1.017999e+05 -1.419271e+05
-1.397986e+05 -8.949262e+04 -1.600000e+05
-1.562397e+05 -1.153915e+05 -1.385359e+05
-1.722874e+05 -1.402878e+05 -1.600000e+05
-1.720780e+05 -1.058531e+05 -1.600000e+05
-1.891930e+05 -9.485814e+04 -1.399379e+05
-1.875930e+05 -1.286204e+05 -1.397607e+05
-1.388774e+05 -1.163625e+05 -1.200000e+05
-1.707417e+05 -8.149073e-10 -1.200000e+05
-1.840055e+05 2.214932e+04 -1.416603e+05
-1.738276e+05 -2.328306e-10 -1.600000e+05
-2.089031e+05 1.467747e+01 -1.409364e+05
2.719249e+05 1.913043e+05 -1.600000e+05
2.531025e+05 1.951760e+05 -1.400627e+05
2.859555e+05 1.790985e+05 -1.413730e+05
2.678710e+05 1.833333e+05 -1.200000e+05
2.344444e+05 1.677934e+05 -1.200000e+05
-2.032595e+05 -8.333333e+04 -1.200000e+05
-1.707417e+05 -6.666667e+04 -1.200000e+05
-1.707417e+05 -3.333333e+04 -1.200000e+05
-2.068996e+05 -8.695652e+04 -1.600000e+05
-1.738276e+05 -6.956522e+04 -1.600000e+05
-1.738276e+05 -3.478261e+04 -1.600000e+05
3.035218e+05 2.440674e+05 -1.600000e+05
4.000000e+05 -1.913303e+05 -9.927549e+04
-2.275922e+05 -2.719319e+05 -1.600000e+05
-2.000184e+05 -2.356194e+05 -1.200000e+05
-1.943907e+05 -2.522761e+05 -1.392353e+05
1.707417e+05 -3.333333e+04 -1.200000e+05
1.568597e+05 -3.374592e+04 -1.409491e+05
1.510152e+05 5.384846e+00 -1.385884e+05
1.402315e+05 -1.739130e+04 -1.600000e+05
1.402315e+05 1.739130e+04 -1.600000e+05
1.174196e+05 1.449295e+04 -1.397629e+05
1.707417e+05 3.333333e+04 -1.200000e+05
1.617280e+05 5.057684e+04 -1.380523e+05
1.839969e+05 2.130218e+04 -1.409930e+05
1.380126e+05 1.666667e+04 -1.200000e+05
1.380126e+05 5.000000e+04 -1.200000e+05
1.380126e+05 -1.666667e+04 -1.200000e+05
1.707417e+05 5.820766e-10 -1.200000e+05
1.738276e+05 3.478261e+04 -1.600000e+05
1.739130e+04 1.402315e+05 -1.600000e+05
-1.739130e+04 1.402315e+05 -1.600000e+05
1.832567e+04 1.189354e+05 -1.375923e+05
-3.773584e+01 1.494297e+05 -1.409962e+05
-1.666667e+04 1.380126e+05 -1.200000e+05
-3.499918e+04 1.281139e+05 -1.371312e+05
-4.346493e+04 1.577545e+05 -1.406056e+05
-3.333333e+04 1.707417e+05 -1.200000e+05
-2.226941e+04 1.835872e+05 -1.404112e+05
-3.478261e+04 1.738276e+05 -1.600000e+05
2.270076e+05 2.729557e+05 -1.600000e+05
2.135052e+05 2.908076e+05 -1.391696e+05
2.295031e+05 2.562640e+05 -1.396457e+05
1.913043e+05 2.719249e+05 -1.600000e+05
2.341238e+05 2.339819e+05 -1.200000e+05
1.999994e+05 2.356044e+05 -1.200000e+05
2.166944e+05 2.677786e+05 -1.200000e+05
-4.000000e+05 1.217663e+05 -9.927598e+04
-2.678710e+05 5.000000e+04 -1.200000e+05
-2.593552e+05 6.773348e+04 -1.390666e+05
-2.489960e+05 1.719232e+04 -1.395079e+05
-2.356282e+05 3.333333e+04 -1.200000e+05
-2.719249e+05 5.217391e+04 -1.600000e+05
-2.395442e+05 -2.328306e-10 -1.600000e+05
-2.395442e+05 3.478261e+04 -1.600000e+05
2.719249e+05 -1.739130e+04 -1.600000e+05
2.766304e+05 -2.872398e+03 -1.394987e+05
2.356282e+05 -3.333333e+04 -1.200000e+05
-1.984317e+04 -2.498985e+05 -1.383330e+05
0.000000e+00 -2.395442e+05 -1.600000e+05
-3.478261e+04 -2.395442e+05 -1.600000e+05
-3.681566e+05 -2.434783e+05 -1.600000e+05
-4.000000e+05 -2.608696e+05 -1.600000e+05
4.000000e+05 -3.481145e+04 -7.886354e+04
4.000000e+05 -5.220474e+04 -9.927827e+04
-3.000000e+05 -1.151793e+05 -8.608024e+04
-3.000000e+05 2.666667e+05 -1.200000e+05
5.000000e+04 -2.678710e+05 -1.200000e+05
3.333333e+04 -2.356282e+05 -1.200000e+05
1.733860e+04 -2.490902e+05 -1.395665e+05
2.328306e-10 -2.356282e+05 -1.200000e+05
3.478261e+04 -2.395442e+05 -1.600000e+05
1.739130e+04 -2.719249e+05 -1.600000e+05
-4.000000e+05 -1.561033e+05 -9.947019e+04
-5.000000e+04 -1.380126e+05 -1.200000e+05
-5.978685e+04 -1.236046e+05 -1.408106e+05
-4.513459e+04 -1.576251e+05 -1.380876e+05
-6.956522e+04 -1.738276e+05 -1.600000e+05
-5.217391e+04 -1.402315e+05 -1.600000e+05
-7.691059e+04 -1.558623e+05 -1.399118e+05
-6.666667e+04 -1.707417e+05 -1.200000e+05
-2.607512e+05 -4.000000e+05 -9.928644e+04
3.000000e+05 -1.666667e+05 -1.200000e+05
3.000000e+05 -1.496054e+05 -8.615635e+04
3.000000e+05 -1.830222e+05 -8.616206e+04
-2.356282e+05 1.000000e+05 -1.200000e+05
-2.032595e+05 1.166667e+05 -1.200000e+05
-2.032595e+05 8.333333e+04 -1.200000e+05
-2.233929e+05 1.106626e+05 -1.398096e+05
-2.608696e+05 -3.362016e+05 -1.600000e+05
-4.000000e+05 1.043478e+05 -1.280850e+05
-3.581197e+05 8.697683e+04 -1.391302e+05
-4.000000e+05 1.043221e+05 -7.886357e+04
-5.820766e-10 1.707417e+05 -1.200000e+05
-2.328306e-10 1.738276e+05 -1.600000e+05
-6.956522e+04 1.738276e+05 -1.600000e+05
-7.633568e+04 1.550521e+05 -1.404828e+05
-5.217391e+04 1.402315e+05 -1.600000e+05
-6.260612e+04 1.228200e+05 -1.419040e+05
-6.666667e+04 1.707417e+05 -1.200000e+05
-5.000000e+04 1.380126e+05 -1.200000e+05
-3.603673e+05 -5.391040e+04 -1.366511e+05
-4.000000e+05 -5.217391e+04 -1.600000e+05
-4.000000e+05 -3.469557e+04 -1.283199e+05
2.016214e+05 2.015328e+05 -1.600000e+05
-6.956522e+04 3.041301e+05 -1.600000e+05
-8.055913e+04 2.877735e+05 -1.407965e+05
-5.217391e+04 2.719249e+05 -1.600000e+05
-4.823110e+04 2.874815e+05 -1.412460e+05
-1.043478e+05 3.041301e+05 -1.600000e+05
-1.128322e+05 2.875355e+05 -1.400969e+05
-8.695652e+04 2.719249e+05 -1.600000e+05
-3.290142e+04 3.431258e+05 -7.298615e+04
-6.666667e+04 3.000000e+05 -1.200000e+05
-8.195936e+04 3.178827e+05 -1.384259e+05
-7.108471e+04 -1.685331e+04 -1.200000e+05
-3.802298e+04 1.847309e+02 -1.200000e+05
-7.191324e+04 5.226663e+04 -1.200000e+05
-3.466305e+05 -3.688687e+05 -1.600000e+05
-3.652174e+05 -4.000000e+05 -1.600000e+05
9.262680e-02 4.000000e+05 -1.280849e+05
3.654028e+03 3.592214e+05 -1.050176e+05
-2.203616e+04 3.619075e+05 -1.060623e+05
-1.673315e+04 3.597046e+05 -1.372891e+05
-9.254203e+03 3.253927e+05 -9.469121e+04
2.214112e+03 3.384934e+05 -7.665085e+04
-1.828034e+04 3.690857e+05 -7.797918e+04
9.693687e+03 3.324314e+05 -1.157351e+05
2.719249e+05 1.217391e+05 -1.600000e+05
2.395442e+05 1.043478e+05 -1.600000e+05
2.552886e+04 3.272941e+05 -8.998423e+04
1.673731e+04 3.758770e+05 -8.412148e+04
2.343052e+04 3.555948e+05 -1.367523e+05
3.000000e+05 -4.933536e+04 -8.612806e+04
2.719249e+05 1.565217e+05 -1.600000e+05
2.848877e+05 1.429229e+05 -1.395100e+05
2.487096e+05 -2.693798e+05 -1.200000e+05
2.320966e+05 -2.571051e+05 -1.417254e+05
2.270575e+05 -2.729148e+05 -1.600000e+05
2.166667e+05 -2.678710e+05 -1.200000e+05
2.153277e+05 -2.881662e+05 -1.407451e+05
2.678710e+05 1.166667e+05 -1.200000e+05
2.678710e+05 8.333333e+04 -1.200000e+05
2.356282e+05 1.000000e+05 -1.200000e+05
2.538079e+05 9.328198e+04 -1.393206e+05
-1.666667e+04 2.032595e+05 -1.200000e+05
-2.410236e+04 2.444244e+05 -1.414520e+05
-3.333333e+04 2.356282e+05 -1.200000e+05
-4.497965e+04 2.209353e+05 -1.400115e+05
-1.739130e+04 2.068996e+05 -1.600000e+05
2.068996e+05 1.739130e+04 -1.600000e+05
2.219653e+05 3.643894e+04 -1.399105e+05
1.738276e+05 0.000000e+00 -1.600000e+05
2.032595e+05 1.666667e+04 -1.200000e+05
-2.100029e+05 -2.389328e+05 -1.600000e+05
4.000000e+05 3.139008e+05 -7.844374e+04
1.500224e+05 -3.000000e+05 -8.610013e+04
2.498860e+05 1.754257e+04 -1.389978e+05
2.556918e+05 6.292704e+04 -1.401364e+05
3.362016e+05 1.217391e+05 -1.600000e+05
3.041301e+05 1.043478e+05 -1.600000e+05
3.235424e+05 1.065464e+05 -1.325011e+05
3.231688e+05 1.357279e+05 -1.382874e+05
4.000000e+05 -4.000000e+05 -8.686567e+04
-5.000000e+04 2.032595e+05 -1.200000e+05
-6.228956e+04 1.901196e+05 -1.404162e+05
-5.217391e+04 2.068996e+05 -1.600000e+05
-3.000000e+05 6.666667e+04 -1.200000e+05
-3.574052e+05 1.981216e+04 -1.385934e+05
-3.575984e+05 5.272560e+04 -1.383803e+05
-3.362016e+05 5.217391e+04 -1.600000e+05
-3.041301e+05 6.956522e+04 -1.600000e+05
-3.177023e+05 8.157478e+04 -1.389546e+05
2.032595e+05 1.166667e+05 -1.200000e+05
2.213924e+05 1.107686e+05 -1.398197e+05
2.032595e+05 8.333333e+04 -1.200000e+05
2.222307e+05 7.825976e+04 -1.401721e+05
2.356282e+05 1.333333e+05 -1.200000e+05
-2.956522e+05 -4.000000e+05 -1.600000e+05
5.239457e+04 1.400489e+05 -1.600000e+05
6.666667e+04 1.707417e+05 -1.200000e+05
5.000000e+04 1.380126e+05 -1.200000e+05
6.956522e+04 1.738276e+05 -1.600000e+05
3.000000e+05 5.093170e-11 -1.200000e+05
2.678710e+05 1.666667e+04 -1.200000e+05
3.000000e+05 3.333333e+04 -1.200000e+05
-3.432051e+04 3.274129e+05 -1.210456e+05
-5.973317e+04 3.231663e+05 -9.031704e+04
-1.739649e+04 4.000000e+05 -9.927617e+04
-3.469557e+04 4.000000e+05 -1.283199e+05
2.068996e+05 8.695652e+04 -1.600000e+05
2.068996e+05 1.217391e+05 -1.600000e+05
1.722540e+05 1.406055e+05 -1.600000e+05
1.715724e+05 1.707332e+05 -1.200000e+05
-4.000000e+05 1.391304e+05 -1.280850e+05
-4.000000e+05 1.217391e+05 -1.600000e+05
-3.681566e+05 1.043478e+05 -1.600000e+05
-3.139985e+05 -8.545945e+04 -1.388013e+05
-3.362016e+05 -5.217391e+04 -1.600000e+05
-3.041301e+05 -6.956522e+04 -1.600000e+05
-3.362016e+05 -8.695652e+04 -1.600000e+05
-3.041301e+05 -1.043478e+05 -1.600000e+05
-9.137405e+04 -1.869088e+05 -1.388494e+05
-6.025436e+04 -1.889784e+05 -1.400089e+05
-5.000000e+04 -2.032595e+05 -1.200000e+05
-2.322030e+04 -1.857355e+05 -1.414286e+05
-2.068996e+05 8.695652e+04 -1.600000e+05
-1.738276e+05 6.956522e+04 -1.600000e+05
-1.876222e+05 9.245133e+04 -1.398986e+05
-1.871783e+05 6.152677e+04 -1.402527e+05
-2.032595e+05 5.000000e+04 -1.200000e+05
-1.707417e+05 3.333333e+04 -1.200000e+05
-2.202506e+05 7.320148e+04 -1.393676e+05
-2.068996e+05 5.217391e+04 -1.600000e+05
-1.738276e+05 3.478261e+04 -1.600000e+05
6.666667e+04 -1.707417e+05 -1.200000e+05
8.003026e+04 -1.553381e+05 -1.412410e+05
9.493700e+04 -1.892474e+05 -1.399786e+05
6.442874e+04 -1.912657e+05 -1.405626e+05
5.217391e+04 -2.068996e+05 -1.600000e+05
3.303151e+04 -1.945706e+05 -1.378762e+05
8.695652e+04 -2.068996e+05 -1.600000e+05
1.886153e+05 -5.941084e+04 -1.397835e+05
1.872936e+05 -9.150616e+04 -1.391784e+05
1.707417e+05 -6.666667e+04 -1.200000e+05
1.565206e+05 -7.848934e+04 -1.380323e+05
2.032595e+05 -5.000000e+04 -1.200000e+05
-2.344458e+05 1.677955e+05 -1.200000e+05
-2.385189e+05 1.749640e+05 -1.600000e+05
-2.522836e+05 1.943795e+05 -1.392354e+05
-2.719249e+05 1.913043e+05 -1.600000e+05
-2.865474e+05 1.794707e+05 -1.401731e+05
-2.539587e+05 1.631803e+05 -1.401582e+05
-2.678710e+05 1.500000e+05 -1.200000e+05
-2.857572e+05 1.445432e+05 -1.403042e+05
-6.956522e+04 2.395442e+05 -1.600000e+05
-7.589744e+04 2.200971e+05 -1.409178e+05
-6.666667e+04 2.356282e+05 -1.200000e+05
-3.333333e+04 -2.356282e+05 -1.200000e+05
-3.441478e+04 -2.172508e+05 -1.393605e+05
-1.666667e+04 -2.032595e+05 -1.200000e+05
-1.739130e+04 -2.068996e+05 -1.600000e+05
-6.956522e+04 -2.395442e+05 -1.600000e+05
-5.217391e+04 -2.068996e+05 -1.600000e+05
-2.678710e+05 1.166667e+05 -1.200000e+05
-2.538774e+05 1.279315e+05 -1.399244e+05
-2.897805e+05 1.171749e+05 -1.406809e+05
-3.000000e+05 1.000000e+05 -1.200000e+05
-2.875897e+05 8.240411e+04 -1.403072e+05
6.666667e+04 -2.356282e+05 -1.200000e+05
5.000000e+04 -2.032595e+05 -1.200000e+05
8.333333e+04 -2.032595e+05 -1.200000e+05
1.666667e+04 -2.032595e+05 -1.200000e+05
2.894695e+05 1.119724e+05 -1.391502e+05
3.000000e+05 1.000000e+05 -1.200000e+05
3.041301e+05 1.391304e+05 -1.600000e+05
-4.000000e+05 3.478257e+04 -1.280850e+05
-4.000000e+05 6.956517e+04 -1.280850e+05
2.719249e+05 8.695652e+04 -1.600000e+05
-4.000000e+05 -7.100429e+04 -8.036529e+04
-4.000000e+05 -5.255098e+04 -9.946212e+04
-3.570383e+05 -1.911625e+04 -1.388121e+05
8.944607e+04 1.398009e+05 -1.600000e+05
1.091743e+05 1.089504e+05 -1.600000e+05
-4.000000e+05 2.655909e+01 -7.886343e+04
-4.000000e+05 -1.739649e+04 -9.927617e+04
-1.913303e+05 -4.000000e+05 -9.927549e+04
-2.261070e+05 -4.000000e+05 -9.928569e+04
-1.472773e+05 -3.700580e+05 -1.064682e+05
1.739130e+04 4.000000e+05 -1.600000e+05
-2.328306e-10 3.681566e+05 -1.600000e+05
3.478261e+04 3.681566e+05 -1.600000e+05
-2.026737e+05 -1.523523e+05 -1.200000e+05
-1.674190e+05 -1.357878e+05 -1.200000e+05
-1.885043e+05 -1.648103e+05 -1.398593e+05
-1.707487e+05 -1.715662e+05 -1.200000e+05
-1.641479e+05 -1.881894e+05 -1.398187e+05
-1.980755e+05 -1.978855e+05 -1.200000e+05
-1.591292e+05 -4.179163e+04 -1.408152e+05
-2.068996e+05 -1.739130e+04 -1.600000e+05
-2.032595e+05 -1.666667e+04 -1.200000e+05
-2.395442e+05 -3.478261e+04 -1.600000e+05
-2.540818e+05 -2.486799e+04 -1.392900e+05
-4.000000e+05 -4.000000e+05 -1.234328e+05
-2.356282e+05 6.666667e+04 -1.200000e+05
-2.530826e+05 9.159006e+04 -1.385134e+05
-2.719249e+05 8.695652e+04 -1.600000e+05
-2.678710e+05 8.333333e+04 -1.200000e+05
-2.395442e+05 6.956522e+04 -1.600000e+05
-1.217663e+05 -4.000000e+05 -9.927598e+04
-1.535953e+05 -3.808304e+05 -8.493493e+04
-1.391011e+05 -4.000000e+05 -7.886349e+04
2.000000e+05 -3.000000e+05 -1.200000e+05
-5.543598e+04 -3.575193e+05 -1.384315e+05
-4.298740e+04 -3.253286e+05 -1.403533e+05
3.481145e+04 4.000000e+05 -7.886354e+04
1.742320e+04 4.000000e+05 -9.927559e+04
1.084221e+05 3.620514e+05 -1.039354e+05
5.220474e+04 4.000000e+05 -9.927827e+04
6.956677e+04 4.000000e+05 -7.886432e+04
1.739130e+04 2.719249e+05 -1.600000e+05
-2.328306e-10 3.041301e+05 -1.600000e+05
1.900862e+04 3.057443e+05 -1.401006e+05
-1.666667e+04 2.678710e+05 -1.200000e+05
-1.739130e+04 2.719249e+05 -1.600000e+05
-5.093170e-11 3.000000e+05 -1.200000e+05
-2.959249e+05 3.361641e+05 -1.600000e+05
-1.402315e+05 5.217391e+04 -1.600000e+05
-1.241660e+05 2.674819e+04 -1.390687e+05
-1.045588e+05 3.651038e+04 -1.600000e+05
-1.380126e+05 1.666667e+04 -1.200000e+05
-1.049358e+05 -2.211891e-09 -1.200000e+05
-1.164564e+05 -1.569292e+04 -1.408605e+05
-1.402315e+05 1.739130e+04 -1.600000e+05
-1.500083e+05 1.632338e+02 -1.406130e+05
-1.380126e+05 5.000000e+04 -1.200000e+05
-1.217391e+05 -2.068996e+05 -1.600000e+05
-1.297928e+05 -1.885184e+05 -1.401762e+05
-1.456069e+05 -2.213852e+05 -1.397896e+05
-1.166667e+05 -2.032595e+05 -1.200000e+05
-2.207850e+05 -1.097264e+05 -1.396445e+05
-2.852279e+05 -1.763025e+05 -1.423598e+05
2.356282e+05 6.666667e+04 -1.200000e+05
2.032595e+05 5.000000e+04 -1.200000e+05
2.395442e+05 6.956522e+04 -1.600000e+05
2.068996e+05 5.217391e+04 -1.600000e+05
-3.653383e+04 1.045305e+05 -1.600000e+05
-3.769598e+04 8.998646e+04 -1.406423e+05
-4.999861e+04 7.153512e+04 -1.200000e+05
-6.708374e+04 6.697873e+04 -1.600000e+05
-6.890632e+04 1.013940e+05 -1.200000e+05
-7.479845e+04 8.169469e+04 -1.401810e+05
-7.194872e+04 1.050311e+05 -1.600000e+05
-1.760551e+05 -3.342057e+05 -1.115133e+05
-1.913043e+05 -3.362016e+05 -1.600000e+05
-1.391304e+05 -4.000000e+05 -1.280850e+05
-2.719228e+05 2.275803e+05 -1.600000e+05
-2.553986e+05 2.336154e+05 -1.417356e+05
1.738276e+05 -3.478261e+04 -1.600000e+05
2.068996e+05 -5.217391e+04 -1.600000e+05
3.581069e+05 -8.697565e+04 -1.391332e+05
3.287138e+05 -9.155889e+04 -9.389248e+04
-4.000000e+05 5.217391e+04 -1.600000e+05
3.343025e+05 -7.365244e+04 -1.128931e+05
-8.949834e+04 1.398020e+05 -1.600000e+05
-1.000478e+05 1.238115e+05 -1.415949e+05
-3.333333e+04 1.049358e+05 -1.200000e+05
-8.374010e+04 1.374776e+05 -1.200000e+05
1.357945e+05 1.695530e+05 -1.200000e+05
1.403667e+05 1.723665e+05 -1.600000e+05
1.746658e+05 1.755961e+05 -1.600000e+05
-2.031626e+05 -1.169172e+05 -1.200000e+05
-1.707417e+05 -1.000000e+05 -1.200000e+05
-2.069555e+05 -1.580129e+05 -1.600000e+05
-2.068996e+05 -1.217391e+05 -1.600000e+05
1.050118e+05 -7.193059e+04 -1.600000e+05
1.245615e+05 -6.419732e+04 -1.408108e+05
1.045284e+05 -3.653090e+04 -1.600000e+05
8.944564e+04 -4.525420e+04 -1.343840e+05
1.049358e+05 -3.333333e+04 -1.200000e+05
1.232054e+05 -2.817809e+04 -1.413598e+05
1.014263e+05 -6.872323e+04 -1.200000e+05
1.244299e+05 -9.913637e+04 -1.402895e+05
1.380126e+05 -5.000000e+04 -1.200000e+05
1.033503e+05 6.896374e+04 -1.200000e+05
1.049358e+05 3.333333e+04 -1.200000e+05
1.045436e+05 3.640608e+04 -1.600000e+05
1.230636e+05 5.957254e+04 -1.367858e+05
1.400419e+05 5.238884e+04 -1.600000e+05
1.049003e+05 7.208962e+04 -1.600000e+05
-1.739130e+04 4.000000e+05 -1.600000e+05
-3.478261e+04 3.681566e+05 -1.600000e+05
2.086956e+05 4.000000e+05 -1.280850e+05
7.110128e+04 1.679517e+04 -1.200000e+05
7.158057e+04 1.970622e+04 -1.600000e+05
5.620330e+04 3.958194e+03 -1.395858e+05
2.340001e+04 -1.195564e+05 -1.382810e+05
3.333333e+04 -1.049358e+05 -1.200000e+05
2.095476e-09 -1.049358e+05 -1.200000e+05
9.755689e+02 -8.670819e+04 -1.384945e+05
5.000000e+04 -1.380126e+05 -1.200000e+05
5.511804e+04 -1.266289e+05 -1.364397e+05
3.640706e+04 -1.045471e+05 -1.600000e+05
0.000000e+00 -1.063301e+05 -1.600000e+05
1.666667e+04 1.380126e+05 -1.200000e+05
3.333333e+04 1.049358e+05 -1.200000e+05
-2.678710e+05 -2.166667e+05 -1.200000e+05
-2.882316e+05 -2.160383e+05 -1.416341e+05
-2.568206e+05 -2.324907e+05 -1.417704e+05
-2.816841e+05 -2.436333e+05 -1.381074e+05
-3.035529e+05 -2.439984e+05 -1.600000e+05
6.666667e+04 2.356282e+05 -1.200000e+05
8.695652e+04 2.719249e+05 -1.600000e+05
6.956522e+04 2.395442e+05 -1.600000e+05
9.583964e+04 2.548785e+05 -1.403493e+05
8.048912e+04 2.233466e+05 -1.406734e+05
8.333333e+04 2.678710e+05 -1.200000e+05
2.203401e+05 -1.443571e+05 -1.403906e+05
1.721038e+05 -1.057896e+05 -1.600000e+05
1.538969e+05 -1.138158e+05 -1.365642e+05
2.032595e+05 -1.166667e+05 -1.200000e+05
1.707417e+05 -1.000000e+05 -1.200000e+05
2.068171e+05 -1.581054e+05 -1.600000e+05
1.723503e+05 -1.404896e+05 -1.600000e+05
-4.000000e+05 1.738834e+05 -7.886346e+04
-4.000000e+05 1.913303e+05 -9.927549e+04
-4.000000e+05 1.565486e+05 -9.927571e+04
-4.000000e+05 1.391011e+05 -7.886349e+04
-2.729443e+05 -2.270052e+05 -1.600000e+05
-2.520784e+05 -1.938867e+05 -1.394684e+05
3.466752e+05 -3.688682e+05 -1.600000e+05
-2.690028e+05 -2.516963e+05 -1.200000e+05
-2.340650e+05 -2.340612e+05 -1.200000e+05
-2.453042e+05 -2.415858e+05 -1.600000e+05
-2.196878e+05 -2.153719e+05 -1.422400e+05
-2.356494e+05 -1.999896e+05 -1.200000e+05
1.043478e+05 2.395442e+05 -1.600000e+05
1.217391e+05 2.068996e+05 -1.600000e+05
1.000000e+05 2.356282e+05 -1.200000e+05
8.333333e+04 2.032595e+05 -1.200000e+05
1.391304e+05 2.395442e+05 -1.600000e+05
1.670285e+05 2.566652e+05 -1.417575e+05
-3.650838e+04 -1.045550e+05 -1.600000e+05
-8.355797e+04 -1.378368e+05 -1.200000e+05
-9.795356e+04 -1.230381e+05 -1.389479e+05
-6.872140e+04 -1.014269e+05 -1.200000e+05
-8.944324e+04 -1.398423e+05 -1.600000e+05
-7.202360e+04 -1.049081e+05 -1.600000e+05
-3.000000e+05 1.333333e+05 -1.200000e+05
4.000000e+05 -9.262680e-02 -1.280849e+05
-2.434783e+05 -3.681566e+05 -1.600000e+05
-3.125173e+05 -4.000000e+05 -1.301628e+05
-3.243565e+05 -4.000000e+05 -1.049219e+05
-3.133062e+05 -3.676789e+05 -1.600000e+05
-1.217391e+05 3.362016e+05 -1.600000e+05
-1.303718e+05 3.202957e+05 -1.389442e+05
1.169131e+05 -2.031588e+05 -1.200000e+05
1.000000e+05 -1.707417e+05 -1.200000e+05
1.285825e+05 -1.878573e+05 -1.398435e+05
1.217391e+05 -2.068996e+05 -1.600000e+05
1.455382e+05 -2.214177e+05 -1.398100e+05
1.118663e+05 -2.219993e+05 -1.400997e+05
1.580297e+05 -2.069484e+05 -1.600000e+05
1.404758e+05 -1.722527e+05 -1.600000e+05
1.357746e+05 -1.673258e+05 -1.200000e+05
1.152451e+05 -1.560956e+05 -1.384044e+05
-1.402315e+05 -1.739130e+04 -1.600000e+05
-1.300598e+05 -5.967999e+04 -1.415877e+05
-1.045294e+05 -3.653312e+04 -1.600000e+05
-1.033489e+05 -6.896275e+04 -1.200000e+05
-1.049358e+05 -3.333333e+04 -1.200000e+05
-1.050304e+05 -7.194551e+04 -1.600000e+05
-1.380126e+05 -5.000000e+04 -1.200000e+05
-1.576183e+05 -7.867471e+04 -1.412691e+05
8.333333e+04 -2.678710e+05 -1.200000e+05
9.316640e+04 -2.539652e+05 -1.400417e+05
1.128223e+05 -2.889815e+05 -1.386816e+05
8.047631e+04 -2.881783e+05 -1.398780e+05
1.166667e+05 -2.678710e+05 -1.200000e+05
1.271478e+05 -2.530497e+05 -1.416448e+05
1.429401e+05 -2.847834e+05 -1.415136e+05
1.000000e+05 -3.000000e+05 -1.200000e+05
1.043478e+05 -3.041301e+05 -1.600000e+05
1.217391e+05 -2.719249e+05 -1.600000e+05
-2.260870e+05 4.000000e+05 -1.600000e+05
-2.434783e+05 3.681566e+05 -1.600000e+05
-1.565486e+05 -4.000000e+05 -9.927571e+04
-2.071544e+05 -3.375765e+05 -1.137158e+05
-2.719249e+05 1.217391e+05 -1.600000e+05
-3.207786e+05 1.100960e+05 -1.392160e+05
1.565486e+05 4.000000e+05 -9.927571e+04
1.476507e+05 3.685569e+05 -1.021504e+05
-3.041301e+05 -2.328306e-10 -1.600000e+05
-2.678710e+05 -5.000000e+04 -1.200000e+05
-2.841889e+05 -3.268608e+04 -1.400918e+05
-3.041301e+05 -3.478261e+04 -1.600000e+05
-2.719249e+05 -1.739130e+04 -1.600000e+05
-3.362016e+05 -1.739130e+04 -1.600000e+05
1.400516e+05 -5.239500e+04 -1.600000e+05
1.049358e+05 2.444722e-09 -1.200000e+05
9.228256e+04 -1.692759e+03 -1.403086e+05
1.063301e+05 0.000000e+00 -1.600000e+05
-2.202333e+05 1.440609e+05 -1.407098e+05
-2.395442e+05 1.391304e+05 -1.600000e+05
-2.356282e+05 1.333333e+05 -1.200000e+05
1.166667e+05 2.678710e+05 -1.200000e+05
1.500000e+05 2.678710e+05 -1.200000e+05
3.648220e+05 1.817226e+05 -1.042434e+05
3.800906e+05 1.845767e+05 -8.416583e+04
3.544854e+05 1.906790e+05 -7.363960e+04
4.000000e+05 1.739894e+05 -1.283231e+05
3.598311e+05 1.562622e+05 -1.379228e+05
-1.166667e+05 -2.678710e+05 -1.200000e+05
-1.912075e+05 4.000000e+05 -9.927319e+04
-2.260443e+05 4.000000e+05 -9.927425e+04
1.043478e+05 -2.395442e+05 -1.600000e+05
1.217391e+05 2.719249e+05 -1.600000e+05
1.103306e+05 2.854308e+05 -1.404100e+05
8.586945e+04 2.922097e+05 -1.393735e+05
1.565217e+05 2.719249e+05 -1.600000e+05
3.501965e+05 4.000000e+05 -1.288965e+05
-1.217391e+05 2.719249e+05 -1.600000e+05
-1.285153e+05 2.541292e+05 -1.405136e+05
-9.390686e+04 2.538473e+05 -1.399556e+05
-6.221529e+04 2.512363e+05 -1.383700e+05
-1.043478e+05 2.395442e+05 -1.600000e+05
-1.033462e+05 6.870396e+04 -1.200000e+05
-1.578345e+05 4.560864e+04 -1.400739e+05
-1.049093e+05 7.202634e+04 -1.600000e+05
-2.000059e+05 2.356096e+05 -1.200000e+05
-1.851798e+05 2.190633e+05 -1.406921e+05
-2.091376e+05 2.390795e+05 -1.600000e+05
-1.942784e+05 2.522867e+05 -1.392758e+05
-2.154479e+05 2.195871e+05 -1.422362e+05
-1.678490e+05 2.343961e+05 -1.200000e+05
-1.523939e+05 2.026609e+05 -1.200000e+05
-1.456067e+05 2.213614e+05 -1.397957e+05
-1.748442e+05 2.384935e+05 -1.600000e+05
-1.581177e+05 2.067783e+05 -1.600000e+05
1.167334e+05 -3.000000e+05 -8.610189e+04
1.677925e+05 -2.344442e+05 -1.200000e+05
1.748500e+05 -2.384967e+05 -1.600000e+05
1.937979e+05 -2.518908e+05 -1.391131e+05
1.631577e+05 -2.539471e+05 -1.401912e+05
1.565217e+05 -2.719249e+05 -1.600000e+05
1.771248e+05 -2.871343e+05 -1.393697e+05
1.913043e+05 -2.719249e+05 -1.600000e+05
1.500000e+05 -2.678710e+05 -1.200000e+05
-1.711363e+04 7.032093e+04 -1.200000e+05
-2.211891e-09 1.049358e+05 -1.200000e+05
-2.328306e-10 1.063301e+05 -1.600000e+05
-1.063301e+05 -2.328306e-10 -1.600000e+05
-7.150436e+04 -1.973126e+04 -1.600000e+05
-4.000000e+05 -2.434429e+05 -7.886194e+04
-1.913043e+05 -2.719249e+05 -1.600000e+05
-1.631793e+05 -2.539559e+05 -1.401709e+05
-2.086957e+05 -3.041301e+05 -1.600000e+05
-1.500000e+05 -2.678710e+05 -1.200000e+05
3.681566e+05 2.434783e+05 -1.600000e+05
3.362016e+05 2.260870e+05 -1.600000e+05
3.681566e+05 2.086957e+05 -1.600000e+05
4.000000e+05 -2.260870e+05 -1.600000e+05
3.681566e+05 -2.434783e+05 -1.600000e+05
1.833217e+05 3.000000e+05 -8.329321e+04
-1.738834e+05 -4.000000e+05 -7.886346e+04
2.608696e+05 4.000000e+05 -1.600000e+05
2.434775e+05 4.000000e+05 -1.283328e+05
8.069815e+01 -3.564421e+04 -1.600000e+05
2.747606e+02 -5.813291e+02 -1.600000e+05
-1.528834e+04 -1.198499e+04 -1.373234e+05
-3.627207e+04 -3.367666e+04 -1.200000e+05
-4.125419e+04 -4.138280e+04 -1.600000e+05
-3.554287e+04 1.464614e+02 -1.600000e+05
-1.707417e+05 1.000000e+05 -1.200000e+05
-2.068996e+05 1.217391e+05 -1.600000e+05
-2.270144e+05 2.729494e+05 -1.600000e+05
-2.332327e+05 2.561573e+05 -1.417868e+05
-2.000000e+05 3.000000e+05 -1.200000e+05
-1.833333e+05 2.678710e+05 -1.200000e+05
-3.478261e+04 -1.738276e+05 -1.600000e+05
-1.058975e+05 -1.721035e+05 -1.600000e+05
-1.561033e+05 4.000000e+05 -9.947019e+04
-1.739894e+05 4.000000e+05 -1.283231e+05
4.000000e+05 2.086377e+05 -7.886463e+04
4.000000e+05 1.736685e+05 -7.888604e+04
1.738276e+05 -6.956522e+04 -1.600000e+05
-2.356282e+05 -2.328306e-10 -1.200000e+05
-2.032595e+05 1.666667e+04 -1.200000e+05
-2.164308e+05 3.126051e+04 -1.405115e+05
-2.068996e+05 1.739130e+04 -1.600000e+05
4.000000e+05 2.260870e+05 -1.600000e+05
1.522464e+05 -2.028208e+05 -1.200000e+05
1.851440e+05 -2.191151e+05 -1.406645e+05
1.391304e+05 -2.395442e+05 -1.600000e+05
-2.719249e+05 1.565217e+05 -1.600000e+05
-3.000000e+05 1.666667e+05 -1.200000e+05
-1.565217e+05 2.719249e+05 -1.600000e+05
-1.631416e+05 2.539364e+05 -1.401820e+05
1.666667e+05 -3.000000e+05 -1.200000e+05
2.686633e+05 2.686880e+05 -1.600000e+05
2.719249e+05 -1.565217e+05 -1.600000e+05
2.536811e+05 -1.625731e+05 -1.409792e+05
2.356282e+05 -1.333333e+05 -1.200000e+05
2.678710e+05 -1.166667e+05 -1.200000e+05
1.163560e+05 -1.388648e+05 -1.200000e+05
1.010738e+05 -1.259248e+05 -1.422498e+05
1.346492e+05 -1.345454e+05 -1.600000e+05
8.333333e+04 -1.380126e+05 -1.200000e+05
1.058206e+05 -1.720939e+05 -1.600000e+05
8.943287e+04 -1.398293e+05 -1.600000e+05
-2.000000e+05 -3.000000e+05 -1.200000e+05
-1.981832e+05 -3.194281e+05 -1.388422e+05
-1.333333e+05 2.356282e+05 -1.200000e+05
-1.108111e+05 2.213869e+05 -1.398453e+05
-1.000000e+05 2.356282e+05 -1.200000e+05
-2.678710e+05 1.833333e+05 -1.200000e+05
1.333333e+05 -2.356282e+05 -1.200000e+05
1.666667e+04 -2.678710e+05 -1.200000e+05
1.333333e+05 -3.000000e+05 -1.200000e+05
-5.217391e+04 -3.362016e+05 -1.600000e+05
-2.783777e+05 -4.000000e+05 -7.878626e+04
-3.501965e+05 -4.000000e+05 -1.288965e+05
-3.139008e+05 4.000000e+05 -7.844374e+04
-2.719249e+05 -5.217391e+04 -1.600000e+05
1.405517e+05 3.347211e+05 -1.120479e+05
2.416515e+05 -2.451064e+05 -1.600000e+05
3.333333e+04 -1.707417e+05 -1.200000e+05
1.739130e+04 -2.068996e+05 -1.600000e+05
-3.354112e+01 -2.139745e+05 -1.408447e+05
1.739130e+04 3.362016e+05 -1.600000e+05
7.018499e+04 -1.717190e+04 -1.200000e+05
7.152041e+04 -1.990616e+04 -1.600000e+05
-1.707417e+05 6.666667e+04 -1.200000e+05
-2.086377e+05 4.000000e+05 -7.886463e+04
2.000000e+05 3.000000e+05 -1.200000e+05
1.764509e+05 2.845546e+05 -1.398667e+05
1.666667e+05 3.000000e+05 -1.200000e+05
2.086957e+05 3.041301e+05 -1.600000e+05
1.090027e+05 3.370001e+05 -1.119946e+05
5.082812e+04 3.274594e+05 -1.371132e+05
2.356282e+05 3.333333e+04 -1.200000e+05
2.395442e+05 3.478261e+04 -1.600000e+05
-2.741846e+05 -3.265852e+05 -9.236895e+04
-1.402315e+05 -5.217391e+04 -1.600000e+05
1.738276e+05 6.956522e+04 -1.600000e+05
-4.387251e+04 -9.488755e+04 -1.401055e+05
-3.333333e+04 -1.049358e+05 -1.200000e+05
3.574341e+05 1.596460e+04 -1.374077e+05
2.356043e+05 -1.999994e+05 -1.200000e+05
2.389380e+05 -2.098709e+05 -1.600000e+05
2.150393e+05 -2.199198e+05 -1.422258e+05
2.090048e+05 -2.392770e+05 -1.600000e+05
1.999842e+05 -2.356490e+05 -1.200000e+05
2.332938e+05 -2.346131e+05 -1.200000e+05
1.000000e+05 -2.356282e+05 -1.200000e+05
1.580089e+05 2.069782e+05 -1.600000e+05
4.000000e+05 3.469557e+04 -1.283199e+05
3.261380e+05 -2.589225e+03 -1.061366e+05
3.302810e+05 1.465875e+05 -1.115425e+05
3.185729e+05 1.643400e+05 -1.377013e+05
3.000000e+05 1.333333e+05 -1.200000e+05
3.041301e+05 1.739130e+05 -1.600000e+05
3.000000e+05 1.666667e+05 -1.200000e+05
-3.000000e+05 1.825210e+05 -8.622176e+04
-1.913043e+05 2.719249e+05 -1.600000e+05
-1.166667e+05 2.678710e+05 -1.200000e+05
-1.500000e+05 2.678710e+05 -1.200000e+05
-1.391304e+05 2.395442e+05 -1.600000e+05
1.678493e+05 2.343980e+05 -1.200000e+05
1.748484e+05 2.384997e+05 -1.600000e+05
1.815765e+05 2.168363e+05 -1.397160e+05
1.444582e+05 2.856938e+05 -1.407484e+05
1.833333e+05 2.678710e+05 -1.200000e+05
3.801132e+05 -8.507357e+04 -8.523688e+04
4.000000e+05 -1.043221e+05 -7.886357e+04
4.000000e+05 2.086957e+05 -1.280849e+05
4.000000e+05 1.912075e+05 -9.927319e+04
1.405259e+05 -4.000000e+05 -1.298366e+05
1.391304e+05 -3.681566e+05 -1.600000e+05
7.147912e+04 -4.972213e+04 -1.200000e+05
6.697243e+04 -6.709626e+04 -1.600000e+05
-3.505272e+05 -4.000000e+05 -8.132527e+04
-3.140961e+05 -4.000000e+05 -7.845318e+04
9.037168e+04 -8.674425e+04 -1.457976e+05
3.184160e+05 -1.353811e+04 -1.381961e+05
3.000000e+05 -3.333333e+04 -1.200000e+05
-7.971711e+04 3.272585e+05 -1.119771e+05
-8.332757e+04 3.000000e+05 -8.326376e+04
-2.341335e+05 2.339742e+05 -1.200000e+05
-2.356490e+05 1.999842e+05 -1.200000e+05
4.000000e+05 2.260443e+05 -9.927425e+04
-5.000527e+04 3.000000e+05 -8.613302e+04
-3.681566e+05 -3.478261e+04 -1.600000e+05
-4.000000e+05 9.262680e-02 -1.280849e+05
-3.681566e+05 -2.328306e-10 -1.600000e+05
-4.000000e+05 -1.739130e+04 -1.600000e+05
-2.719249e+05 -1.565217e+05 -1.600000e+05
-2.719249e+05 -1.913043e+05 -1.600000e+05
-1.217391e+05 2.068996e+05 -1.600000e+05
-1.274138e+05 1.871553e+05 -1.393689e+05
-9.376765e+04 1.881093e+05 -1.397998e+05
-1.404230e+05 1.722861e+05 -1.600000e+05
-1.166667e+05 2.032595e+05 -1.200000e+05
3.000000e+05 2.192388e+05 -8.287994e+04
3.323713e+05 2.333461e+05 -9.024469e+04
3.000000e+05 2.540784e+05 -8.302462e+04
3.352865e+05 -3.322238e+05 -1.600000e+05
-5.532821e+04 3.557981e+05 -1.362602e+05
3.135024e+05 -3.674392e+05 -1.600000e+05
1.913043e+05 -4.000000e+05 -1.600000e+05
-1.000000e+05 -1.707417e+05 -1.200000e+05
3.041301e+05 -3.478261e+04 -1.600000e+05
1.565217e+05 -4.000000e+05 -1.600000e+05
1.739894e+05 -4.000000e+05 -1.283231e+05
2.091380e+05 2.390844e+05 -1.600000e+05
1.739130e+05 3.681566e+05 -1.600000e+05
1.739130e+05 4.000000e+05 -1.280850e+05
-5.217391e+04 -4.000000e+05 -1.600000e+05
-3.478261e+04 -3.681566e+05 -1.600000e+05
-6.956522e+04 -3.681566e+05 -1.600000e+05
3.362016e+05 8.695652e+04 -1.600000e+05
2.168278e+05 3.000000e+05 -8.329348e+04
-8.333333e+04 2.678710e+05 -1.200000e+05
-1.000000e+05 3.000000e+05 -1.200000e+05
-5.000000e+04 2.678710e+05 -1.200000e+05
-3.333333e+04 3.000000e+05 -1.200000e+05
-7.414677e+03 3.230204e+05 -1.429564e+05
4.000000e+05 2.956522e+05 -1.600000e+05
-3.478261e+04 2.395442e+05 -1.600000e+05
-2.389559e+05 2.099792e+05 -1.600000e+05
-1.754511e+05 -1.747225e+05 -1.600000e+05
-1.405423e+05 -1.722713e+05 -1.600000e+05
-4.567686e+04 3.191677e+05 -1.407773e+05
-3.000000e+05 -8.164136e+04 -8.601122e+04
-3.268551e+05 -9.369619e+04 -7.362191e+04
-3.000000e+05 -1.000000e+05 -1.200000e+05
3.805481e+05 2.219840e+05 -8.332384e+04
4.000000e+05 4.000000e+05 -1.600000e+05
3.652174e+05 4.000000e+05 -1.600000e+05
-1.333333e+05 -2.356282e+05 -1.200000e+05
4.000000e+05 4.000000e+05 -8.686567e+04
5.217391e+04 3.362016e+05 -1.600000e+05
6.956522e+04 3.041301e+05 -1.600000e+05
5.000000e+04 2.678710e+05 -1.200000e+05
-1.739130e+04 -1.402315e+05 -1.600000e+05
-4.000000e+05 2.608696e+05 -1.600000e+05
-2.016233e+05 -2.015700e+05 -1.600000e+05
-2.392910e+05 -2.089820e+05 -1.600000e+05
-2.693837e+05 2.487343e+05 -1.200000e+05
8.695652e+04 2.068996e+05 -1.600000e+05
3.000000e+05 -2.166121e+05 -8.616654e+04
3.303595e+05 -4.053909e+04 -1.098520e+05
-1.851842e+05 -2.190814e+05 -1.406866e+05
1.057864e+05 1.721070e+05 -1.600000e+05
-2.527125e+05 -3.000000e+05 -8.344652e+04
2.677785e+05 -2.166944e+05 -1.200000e+05
2.527762e+05 -1.941689e+05 -1.403804e+05
1.565217e+05 -3.362016e+05 -1.600000e+05
4.000000e+05 -1.391304e+05 -1.280850e+05
3.681566e+05 -1.391304e+05 -1.600000e+05
-2.527072e+05 3.000000e+05 -8.344645e+04
-1.736685e+05 4.000000e+05 -7.888604e+04
3.681566e+05 -3.130435e+05 -1.600000e+05
3.304348e+05 4.000000e+05 -1.600000e+05
2.261070e+05 4.000000e+05 -9.928569e+04
-3.000000e+05 -1.666667e+04 -8.774823e+04
2.260870e+05 4.000000e+05 -1.600000e+05
3.361297e+05 2.960439e+05 -1.600000e+05
3.139008e+05 -4.000000e+05 -7.844374e+04
-1.833333e+05 -2.678710e+05 -1.200000e+05
7.187213e+04 5.226948e+04 -1.200000e+05
-3.304348e+05 4.000000e+05 -1.600000e+05
-3.126723e+05 4.000000e+05 -1.301611e+05
2.343980e+05 -1.678493e+05 -1.200000e+05
2.385089e+05 -1.749478e+05 -1.600000e+05
2.678710e+05 -1.500000e+05 -1.200000e+05
2.847033e+05 -1.427829e+05 -1.400431e+05
1.739130e+05 3.041301e+05 -1.600000e+05
2.607512e+05 4.000000e+05 -9.928644e+04
-1.043221e+05 -4.000000e+05 -7.886357e+04
-4.000000e+05 1.739130e+04 -1.600000e+05
-4.000000e+05 -3.490296e+04 -7.889057e+04
-4.000000e+05 3.481145e+04 -7.886354e+04
-1.754526e+05 1.747151e+05 -1.600000e+05
-1.357691e+05 1.674170e+05 -1.200000e+05
-1.165357e+05 1.384056e+05 -1.200000e+05
-1.164920e+05 1.579235e+05 -1.403025e+05
-1.722842e+05 1.404513e+05 -1.600000e+05
1.217391e+05 -3.362016e+05 -1.600000e+05
1.391304e+05 -3.041301e+05 -1.600000e+05
-1.358428e+05 -1.693970e+05 -1.200000e+05
-3.681566e+05 3.478261e+04 -1.600000e+05
1.388027e+05 -1.191104e+05 -1.200000e+05
1.749878e+05 -1.755568e+05 -1.600000e+05
-2.434429e+05 4.000000e+05 -7.886194e+04
3.362016e+05 -1.217391e+05 -1.600000e+05
3.041301e+05 -1.739130e+05 -1.600000e+05
4.000000e+05 8.695652e+04 -1.600000e+05
2.016386e+05 -2.015772e+05 -1.600000e+05
1.397935e+05 -8.944397e+04 -1.600000e+05
-4.000000e+05 6.956677e+04 -7.886432e+04
-1.678544e+05 -2.344040e+05 -1.200000e+05
-1.749066e+05 -2.384977e+05 -1.600000e+05
-1.523456e+05 -2.029172e+05 -1.200000e+05
-1.581117e+05 -2.067848e+05 -1.600000e+05
-2.395442e+05 1.043478e+05 -1.600000e+05
-3.041301e+05 -1.391304e+05 -1.600000e+05
-3.000000e+05 -4.829274e+04 -8.592147e+04
-4.000000e+05 -1.739894e+05 -1.283231e+05
4.000000e+05 -3.125173e+05 -1.301628e+05
-4.000000e+05 -1.565217e+05 -1.600000e+05
-3.681566e+05 -1.391304e+05 -1.600000e+05
-2.946250e+05 -4.000000e+05 -9.901240e+04
-4.000000e+05 -2.086957e+05 -1.280849e+05
-4.000000e+05 -2.260443e+05 -9.927425e+04
-2.016184e+05 2.015286e+05 -1.600000e+05
-2.678710e+05 -1.833333e+05 -1.200000e+05
-2.540572e+05 -1.625886e+05 -1.415517e+05
-2.069497e+05 1.580081e+05 -1.600000e+05
-1.038887e+05 -1.040150e+05 -1.200000e+05
3.000000e+05 -1.000000e+05 -1.200000e+05
3.000000e+05 -8.275500e+04 -8.614300e+04
3.681566e+05 -3.478261e+04 -1.600000e+05
3.362016e+05 -1.739130e+04 -1.600000e+05
3.574764e+05 -1.869785e+04 -1.381305e+05
3.593271e+05 -5.742295e+04 -1.372977e+05
-1.090331e+05 -1.092915e+05 -1.600000e+05
4.000000e+05 -6.956517e+04 -1.280850e+05
4.000000e+05 2.434429e+05 -7.886194e+04
4.000000e+05 4.000000e+05 -1.234328e+05
2.516624e+05 2.689869e+05 -1.200000e+05
4.000000e+05 1.376571e+05 -8.037280e+04
4.000000e+05 -6.956677e+04 -7.886432e+04
3.478261e+04 3.041301e+05 -1.600000e+05
3.000000e+05 -2.525812e+05 -8.602933e+04
-5.217391e+04 3.362016e+05 -1.600000e+05
-8.695652e+04 3.362016e+05 -1.600000e+05
-8.695652e+04 4.000000e+05 -1.600000e+05
-1.043457e+05 4.000000e+05 -1.313395e+05
-1.043478e+05 3.681566e+05 -1.600000e+05
-6.956522e+04 3.681566e+05 -1.600000e+05
4.000000e+05 -2.956522e+05 -1.600000e+05
1.043478e+05 -4.000000e+05 -8.191444e+04
-4.000000e+05 1.913043e+05 -1.600000e+05
-4.000000e+05 1.739130e+05 -1.280850e+05
-4.000000e+05 -2.945883e+05 -9.902611e+04
-2.168279e+05 -3.000000e+05 -8.329350e+04
-2.086686e+05 -4.000000e+05 -7.886305e+04
3.000000e+05 -1.510782e+04 -8.605336e+04
3.000000e+05 2.173049e+04 -8.370447e+04
-1.217391e+05 -4.000000e+05 -1.600000e+05
6.956517e+04 4.000000e+05 -1.280850e+05
5.278092e+04 3.572828e+05 -1.383181e+05
-8.522698e+04 -8.876957e+04 -1.460265e+05
-1.380126e+05 -8.333333e+04 -1.200000e+05
1.378391e+05 -8.355658e+04 -1.200000e+05
-3.362016e+05 8.695652e+04 -1.600000e+05
-3.041301e+05 1.043478e+05 -1.600000e+05
2.891854e+05 -1.163477e+05 -1.408758e+05
-3.119811e+05 3.063039e+05 -1.600000e+05
2.678710e+05 1.500000e+05 -1.200000e+05
3.111347e+05 -3.056378e+05 -1.600000e+05
4.125781e+04 -4.141257e+04 -1.600000e+05
-2.003338e+02 -5.937081e+04 -1.400145e+05
-1.093100e+05 1.090522e+05 -1.600000e+05
-4.287154e+02 -3.739944e+04 -1.200000e+05
1.391011e+05 4.000000e+05 -7.886349e+04
4.000000e+05 1.565217e+05 -1.600000e+05
3.681566e+05 1.739130e+05 -1.600000e+05
4.000000e+05 1.739130e+04 -1.600000e+05
-4.000000e+05 -4.000000e+05 -8.686567e+04
-4.000000e+05 4.000000e+05 -8.686567e+04
7.208942e+04 -1.048952e+05 -1.600000e+05
3.478257e+04 4.000000e+05 -1.280850e+05
-8.333333e+04 2.032595e+05 -1.200000e+05
-1.380126e+05 -1.666667e+04 -1.200000e+05
1.678740e+04 -7.109847e+04 -1.200000e+05
-2.356282e+05 -1.333333e+05 -1.200000e+05
-1.717716e+04 -7.014628e+04 -1.200000e+05
-1.969860e+04 -7.157166e+04 -1.600000e+05
-3.478261e+04 3.041301e+05 -1.600000e+05
5.217391e+04 -4.000000e+05 -1.600000e+05
-3.478257e+04 -4.000000e+05 -1.280850e+05
-1.739130e+04 -4.000000e+05 -1.600000e+05
-3.362016e+05 -1.217391e+05 -1.600000e+05
1.565217e+05 3.362016e+05 -1.600000e+05
8.695652e+04 -3.362016e+05 -1.600000e+05
-6.956517e+04 -4.000000e+05 -1.280850e+05
-2.260870e+05 -3.362016e+05 -1.600000e+05
-8.695652e+04 -4.000000e+05 -1.600000e+05
-4.000000e+05 2.086686e+05 -7.886305e+04
-4.000000e+05 2.261070e+05 -9.928569e+04
3.000000e+05 5.622310e+04 -8.377629e+04
3.040554e+05 2.783185e+05 -1.600000e+05
4.000000e+05 -3.478257e+04 -1.280850e+05
3.681566e+05 3.478261e+04 -1.600000e+05
-1.672344e+04 3.000000e+05 -8.327969e+04
1.664613e+04 3.000000e+05 -8.329336e+04
-3.490296e+04 4.000000e+05 -7.889057e+04
-5.255098e+04 4.000000e+05 -9.946212e+04
-1.565217e+05 4.000000e+05 -1.600000e+05
4.000000e+05 -4.000000e+05 -1.234328e+05
3.126723e+05 -4.000000e+05 -1.301611e+05
4.000000e+05 -4.000000e+05 -1.600000e+05
3.652174e+05 -4.000000e+05 -1.600000e+05
3.362016e+05 1.565217e+05 -1.600000e+05
-1.391304e+05 3.681566e+05 -1.600000e+05
-1.217391e+05 4.000000e+05 -1.600000e+05
-1.405259e+05 4.000000e+05 -1.298366e+05
1.333333e+05 3.000000e+05 -1.200000e+05
-4.000000e+05 3.140961e+05 -7.845318e+04
-8.695652e+04 2.068996e+05 -1.600000e+05
3.000000e+05 -1.162224e+05 -8.614706e+04
2.719249e+05 -1.913043e+05 -1.600000e+05
1.038876e+05 1.040158e+05 -1.200000e+05
2.719249e+05 -1.217391e+05 -1.600000e+05
-2.678710e+05 -1.666667e+04 -1.200000e+05
-1.666667e+04 -2.678710e+05 -1.200000e+05
1.391304e+05 3.041301e+05 -1.600000e+05
-2.356282e+05 -3.333333e+04 -1.200000e+05
4.000000e+05 -1.565217e+05 -1.600000e+05
-7.186379e+04 -5.227682e+04 -1.200000e+05
-4.972039e+04 -7.146925e+04 -1.200000e+05
-6.696770e+04 -6.708310e+04 -1.600000e+05
-4.000000e+05 -2.260870e+05 -1.600000e+05
-4.000000e+05 -1.913043e+05 -1.600000e+05
4.000000e+05 7.100429e+04 -8.036529e+04
-4.000000e+05 8.695652e+04 -1.600000e+05
3.612401e+05 5.287682e+04 -1.328907e+05
-4.000000e+05 2.946250e+05 -9.901240e+04
-3.681566e+05 3.130435e+05 -1.600000e+05
-4.000000e+05 3.304348e+05 -1.600000e+05
2.655909e+01 4.000000e+05 -7.886343e+04
1.043221e+05 4.000000e+05 -7.886357e+04
4.000000e+05 1.561033e+05 -9.947019e+04
1.204108e+05 3.817537e+05 -8.235668e+04
1.217663e+05 4.000000e+05 -9.927598e+04
-4.000000e+05 4.000000e+05 -1.234328e+05
6.893678e+04 -1.033534e+05 -1.200000e+05
1.985018e+04 -7.157278e+04 -1.600000e+05
5.226118e+04 -7.186132e+04 -1.200000e+05
-2.678710e+05 1.666667e+04 -1.200000e+05
8.698509e+04 4.000000e+05 -9.927827e+04
-4.000000e+05 1.742320e+04 -9.927559e+04
1.043478e+05 4.000000e+05 -1.280850e+05
8.695652e+04 4.000000e+05 -1.600000e+05
6.956522e+04 3.681566e+05 -1.600000e+05
-3.681566e+05 6.956522e+04 -1.600000e+05
3.304348e+05 -4.000000e+05 -1.600000e+05
0.000000e+00 -3.681566e+05 -1.600000e+05
1.833333e+05 -2.678710e+05 -1.200000e+05
-4.000000e+05 2.607512e+05 -9.928644e+04
-4.000000e+05 2.782143e+05 -1.283436e+05
1.040932e+05 -1.038957e+05 -1.200000e+05
-1.739130e+04 3.362016e+05 -1.600000e+05
3.681566e+05 6.956522e+04 -1.600000e+05
4.000000e+05 5.217391e+04 -1.600000e+05
-5.217391e+04 4.000000e+05 -1.600000e+05
-4.000000e+05 4.000000e+05 -1.600000e+05
1.913043e+05 4.000000e+05 -1.600000e+05
1.666705e+04 -3.000000e+05 -8.329597e+04
2.956522e+05 -4.000000e+05 -1.600000e+05
1.089297e+05 -1.091614e+05 -1.600000e+05
-4.000000e+05 1.565217e+05 -1.600000e+05
-2.260870e+05 -4.000000e+05 -1.600000e+05
6.956522e+04 -3.041301e+05 -1.600000e+05
-3.304348e+05 -4.000000e+05 -1.600000e+05
-4.000000e+05 -4.000000e+05 -1.600000e+05
-4.000000e+05 2.956522e+05 -1.600000e+05
-1.218925e+05 4.000000e+05 -1.107028e+05
5.217391e+04 4.000000e+05 -1.600000e+05
4.000000e+05 1.913043e+05 -1.600000e+05
-4.000000e+05 -2.956522e+05 -1.600000e+05
-1.000178e+05 1.707390e+05 -1.200000e+05
-1.058741e+05 1.720765e+05 -1.600000e+05
3.681566e+05 0.000000e+00 -1.600000e+05
4.000000e+05 -1.739130e+04 -1.600000e+05
3.681566e+05 -6.956522e+04 -1.600000e+05
-2.416021e+05 2.453027e+05 -1.600000e+05
4.000000e+05 -5.217391e+04 -1.600000e+05
-3.000000e+05 -2.027433e+05 -6.677347e+04
-3.116253e+05 -1.923722e+05 -6.233011e+04
-3.000000e+05 -1.872662e+05 -6.811826e+04
3.142269e+05 8.489494e+04 -6.475552e+04
3.125956e+05 6.661821e+04 -6.560844e+04
3.000000e+05 6.530586e+04 -6.688814e+04
3.232051e+05 7.909659e+04 -5.737776e+04
3.000000e+05 8.229236e+04 -6.683663e+04
3.142915e+05 5.755451e+04 -5.780422e+04
-3.000000e+05 -1.977459e+05 -5.838674e+04
-3.000000e+05 -1.900074e+05 -5.905913e+04
-3.058126e+05 -1.925604e+05 -5.616505e+04
3.071135e+05 7.964178e+04 -5.737776e+04
3.062978e+05 7.050341e+04 -5.780422e+04
3.000000e+05 6.984724e+04 -5.844407e+04
3.116026e+05 7.674260e+04 -5.368888e+04
3.000000e+05 7.834049e+04 -5.841831e+04
3.071457e+05 6.597156e+04 -5.390211e+04
2.801389e+05 2.381197e+05 -9.877925e+04
2.505327e+05 2.284920e+05 -9.617282e+04
2.226288e+05 2.033200e+05 -9.594444e+04
2.312062e+05 2.637803e+05 -9.405533e+04
2.684317e+05 2.667073e+05 -8.504804e+04
2.485009e+05 2.410051e+05 -7.164609e+04
2.515736e+05 1.889728e+05 -9.887857e+04
2.762120e+05 2.061525e+05 -8.871282e+04
2.463581e+05 1.970759e+05 -7.379087e+04
2.735748e+05 2.344226e+05 -7.494972e+04
2.221950e+05 1.431548e+05 -7.615813e+04
2.147370e+05 1.748725e+05 -7.457564e+04
2.019718e+05 1.437669e+05 -9.694178e+04
1.876717e+05 1.602797e+05 -7.397010e+04
1.921206e+05 1.320074e+05 -7.458605e+04
-2.315161e+05 -9.843240e+04 -9.740697e+04
-1.928249e+05 -9.772051e+04 -9.675134e+04
-1.625931e+05 -9.411975e+04 -9.480094e+04
-1.595829e+05 -1.281444e+05 -9.675794e+04
-1.926034e+05 -1.176210e+05 -7.287798e+04
-1.895493e+05 -8.166538e+04 -7.272223e+04
-1.955649e+05 -1.252477e+05 -9.805408e+04
-1.957755e+05 -2.776864e+05 -8.099785e+04
-1.910338e+05 -2.537543e+05 -9.429273e+04
4.808500e+04 -2.178865e+04 -8.240320e+04
-1.656490e+05 -2.692253e+05 -9.828636e+04
-1.696297e+05 -2.404224e+05 -8.205084e+04
-2.198811e+05 -2.451132e+05 -9.536954e+04
2.226553e+05 2.368114e+05 -8.784653e+04
2.202922e+05 2.493586e+05 -6.705577e+04
2.342815e+05 2.746282e+05 -7.181451e+04
2.019367e+05 2.761628e+05 -8.504713e+04
-2.080321e+04 -1.657347e+04 -7.106467e+04
-2.176044e+04 1.688766e+04 -8.838057e+04
1.051346e+04 -9.779078e+02 -8.572553e+04
1.944878e+05 2.491943e+05 -7.450291e+04
-2.532744e+04 4.646562e+04 -7.406937e+04
-2.138289e+04 7.801169e+04 -7.093202e+04
-2.081852e+05 1.742579e+05 -1.002982e+05
-2.106661e+05 1.987558e+05 -8.403694e+04
-1.827438e+05 1.843228e+05 -9.560732e+04
-1.990305e+05 1.707913e+05 -7.563428e+04
-2.076774e+05 2.249746e+05 -7.102951e+04
-1.799669e+05 1.982845e+05 -7.214840e+04
1.288378e+04 2.783248e+04 -8.751254e+04
1.624229e+04 6.056317e+04 -9.817566e+04
1.921328e+04 8.795856e+04 -7.388989e+04
4.136423e+04 5.859777e+04 -8.072806e+04
9.825454e+03 5.526480e+04 -7.200868e+04
3.112261e+04 8.745931e+04 -9.944024e+04
-5.147545e+03 8.960762e+04 -9.111757e+04
-1.285395e+04 5.539956e+04 -9.583882e+04
-1.822962e+04 2.352275e+05 -9.058857e+04
1.488707e+05 1.396105e+05 -7.337026e+04
1.668251e+05 1.131801e+05 -7.278055e+04
1.951886e+05 9.509138e+04 -7.485425e+04
1.522396e+05 1.280562e+05 -9.723935e+04
8.610265e+04 -1.089813e+05 -8.564423e+04
5.864731e+04 -1.261831e+05 -7.820155e+04
2.979507e+04 -1.210674e+05 -7.102058e+04
4.695652e+04 -1.073613e+05 -9.634651e+04
2.461695e+04 -1.339568e+05 -9.614351e+04
4.442950e+04 -1.545242e+05 -7.469131e+04
2.164686e+04 1.870194e+05 -9.846995e+04
-9.757752e+03 1.726774e+05 -9.653640e+04
1.644124e+04 1.610710e+05 -9.827010e+04
-3.229976e+03 1.479412e+05 -7.526485e+04
2.725105e+03 1.412654e+05 -9.981842e+04
2.023283e+04 1.729615e+05 -7.538283e+04
5.022865e+04 1.702060e+05 -9.701389e+04
4.392403e+04 1.900347e+05 -7.648497e+04
3.624789e+04 1.423657e+05 -9.676299e+04
2.679417e+04 1.438997e+05 -7.334835e+04
4.573967e+04 2.420615e+05 -7.330164e+04
8.465189e+04 2.411137e+05 -7.979061e+04
6.494406e+04 2.663322e+05 -9.733729e+04
6.810179e+04 2.699081e+05 -7.260850e+04
8.347663e+03 -3.006432e+04 -8.874487e+04
3.350331e+04 -2.072844e+03 -7.051614e+04
3.399015e+04 2.678819e+05 -9.072041e+04
-4.216206e+04 -2.520326e+05 -9.654430e+04
-6.551474e+04 -2.767371e+05 -8.799824e+04
9.348171e+04 2.683968e+05 -9.746547e+04
2.546825e+05 1.268411e+05 -7.197239e+04
1.192235e+05 -3.548768e+04 -9.655005e+04
1.205747e+05 3.668935e+03 -9.727839e+04
9.151117e+04 -6.066004e+03 -9.937511e+04
9.821974e+04 2.410960e+04 -9.762794e+04
6.909419e+04 3.797878e+04 -8.703329e+04
9.026036e+04 -4.710708e+04 -9.849791e+04
6.833804e+04 -1.555539e+03 -8.511282e+04
9.429162e+04 -1.926459e+04 -7.722510e+04
7.517972e+04 1.452909e+05 -9.532722e+04
5.724922e+04 1.503774e+05 -7.234166e+04
4.838268e+04 1.056544e+05 -8.313644e+04
7.432181e+04 1.102180e+05 -7.165259e+04
8.550197e+04 1.142088e+05 -9.542014e+04
9.675964e+04 1.278921e+05 -7.152696e+04
7.131604e+04 7.946714e+04 -9.557886e+04
2.515220e+05 9.706322e+04 -9.696193e+04
2.766167e+05 1.216705e+05 -9.824540e+04
2.478454e+05 1.311590e+05 -9.592358e+04
2.611413e+05 1.595387e+05 -9.932200e+04
2.740204e+05 1.432976e+05 -7.631984e+04
2.754095e+05 7.516439e+04 -7.724722e+04
2.454134e+05 6.397067e+04 -9.578889e+04
2.778742e+05 6.438525e+04 -9.812559e+04
2.515874e+05 6.339043e+04 -7.655073e+04
2.765761e+05 4.317657e+04 -7.860065e+04
-9.624011e+04 -8.208480e+04 -8.531319e+04
-7.451574e+04 -1.115134e+05 -7.649783e+04
-1.216816e+05 -1.165715e+05 -9.634922e+04
-5.423143e+04 -8.814104e+04 -7.606474e+04
-4.335396e+04 -1.069374e+05 -7.799150e+04
-6.734811e+04 -1.402339e+05 -8.539746e+04
-9.274013e+04 -1.273267e+05 -1.003743e+05
-1.036146e+05 -1.254188e+05 -7.591851e+04
-2.656506e+05 -6.344618e+04 -9.801070e+04
-2.456358e+05 -3.461436e+04 -9.649929e+04
-2.746532e+05 -2.813678e+04 -9.277781e+04
-2.580275e+05 -3.299672e+04 -7.203762e+04
2.156366e+05 -2.126829e+05 -7.487700e+04
2.448630e+05 -2.199709e+05 -8.010220e+04
2.362731e+05 -2.486119e+05 -7.325471e+04
2.189418e+05 -2.292182e+05 -9.536582e+04
1.894802e+05 -2.273948e+05 -9.462254e+04
2.109908e+05 -2.522450e+05 -9.861632e+04
2.423428e+05 -2.547527e+05 -9.794466e+04
-2.104666e+05 2.237527e+05 -9.678929e+04
-2.046779e+05 2.671045e+05 -9.619811e+04
-2.271203e+05 2.425804e+05 -9.074098e+04
-2.539506e+05 2.424900e+05 -7.419242e+04
-2.566173e+05 2.449119e+05 -9.916029e+04
-2.412764e+05 2.698607e+05 -9.564717e+04
-2.353819e+05 2.159207e+05 -7.211054e+04
-2.249107e+05 2.626509e+05 -7.170319e+04
-1.897318e+05 2.428964e+05 -7.550925e+04
-1.990047e+05 2.729166e+05 -7.087590e+04
-2.616440e+05 1.755346e+05 -9.537931e+04
-2.494639e+05 1.667037e+05 -7.074401e+04
-2.743741e+05 1.573381e+05 -8.321784e+04
-2.607039e+05 1.303618e+05 -7.451178e+04
-1.344218e+05 -1.394235e+05 -7.571830e+04
2.047320e+05 2.247229e+05 -9.719717e+04
1.786155e+05 2.259648e+05 -9.665917e+04
1.651177e+05 2.029399e+05 -8.423579e+04
1.953239e+05 2.236455e+05 -7.056172e+04
1.597621e+05 2.384268e+05 -7.341727e+04
1.466457e+05 2.375552e+05 -9.654201e+04
1.908091e+05 1.931858e+05 -8.237470e+04
-1.267363e+05 3.251370e+04 -9.109323e+04
-1.029367e+05 5.314927e+04 -7.432921e+04
-1.039015e+05 2.197830e+04 -8.646528e+04
-8.777213e+04 4.212368e+04 -9.699806e+04
-8.028486e+04 8.208320e+03 -9.147341e+04
-8.322061e+04 2.990558e+04 -7.185797e+04
-1.014993e+05 3.312977e+03 -7.155501e+04
-1.908968e+05 -2.246969e+05 -9.381641e+04
-2.206811e+05 -2.181975e+05 -8.328980e+04
-2.367259e+05 -2.481267e+05 -7.363716e+04
-2.526687e+05 -2.234758e+05 -9.484680e+04
-2.045987e+05 -2.455764e+05 -7.163956e+04
-2.263779e+05 -2.740488e+05 -8.636359e+04
-2.489599e+05 -2.565799e+05 -9.119492e+04
1.356522e+05 2.126081e+05 -7.452754e+04
1.056264e+05 2.213370e+05 -7.096876e+04
1.184687e+05 2.458326e+05 -7.714105e+04
1.199701e+05 2.216087e+05 -9.661402e+04
1.260479e+05 2.666815e+05 -9.832011e+04
9.426789e+04 2.083577e+05 -9.801422e+04
-1.603349e+05 7.237787e+04 -9.570152e+04
-1.917385e+05 8.031199e+04 -9.729382e+04
-2.263204e+05 8.927544e+04 -9.819424e+04
-2.197501e+05 5.725820e+04 -9.883470e+04
-1.962240e+05 5.489834e+04 -8.112296e+04
-2.202591e+05 8.161998e+04 -7.512041e+04
-2.513881e+05 2.118709e+05 -9.633002e+04
-2.634806e+05 1.991360e+05 -7.261362e+04
-2.343080e+05 1.820918e+05 -8.548371e+04
1.903205e+05 -2.083017e+04 -9.902063e+04
1.864632e+05 1.276677e+04 -9.954477e+04
2.142081e+05 1.297699e+04 -8.240845e+04
2.179858e+05 -1.295834e+04 -1.018493e+05
2.182516e+05 -2.345906e+04 -7.657029e+04
2.183108e+05 -4.384278e+04 -1.005373e+05
2.491166e+05 -3.885337e+04 -9.525541e+04
2.422476e+05 -2.582479e+03 -9.856275e+04
2.086778e+05 -8.277727e+04 -9.909273e+04
1.901318e+05 -5.029911e+04 -9.391018e+04
2.197649e+05 -5.733704e+04 -7.512566e+04
2.174941e+04 -1.671959e+04 -1.042950e+05
4.538256e+04 1.274370e+04 -9.612844e+04
-2.184350e+04 -1.285954e+04 -9.688827e+04
2.481712e+05 -1.905349e+05 -7.278599e+04
2.296371e+05 -2.026946e+05 -9.794766e+04
2.632940e+05 -2.286114e+05 -9.966224e+04
2.517814e+05 -1.888018e+05 -9.771577e+04
2.751097e+05 -2.019794e+05 -8.762431e+04
-2.101184e+05 -1.717486e+05 -8.320145e+04
-2.329438e+05 -1.902756e+05 -8.911945e+04
-1.961612e+05 -1.992844e+05 -7.662554e+04
-1.885541e+05 -2.231463e+05 -7.027929e+04
-2.236614e+05 1.524086e+05 -8.195379e+04
-2.162229e+05 1.232302e+05 -8.469136e+04
-1.881518e+05 1.416732e+05 -9.085805e+04
-1.858415e+05 1.073729e+05 -7.472262e+04
-2.483691e+05 1.443284e+05 -9.716659e+04
-2.382348e+05 1.102319e+05 -8.233229e+04
-2.690932e+04 -2.256630e+05 -7.337697e+04
-3.525295e+03 -2.465891e+05 -7.205381e+04
-3.851111e+04 -2.580645e+05 -7.112629e+04
-2.093930e+04 1.169517e+05 -7.339885e+04
-4.362871e+04 8.510963e+04 -8.601975e+04
-2.754173e+05 -2.734640e+05 -8.512967e+04
7.382420e+04 -1.565772e+05 -9.928248e+04
1.125012e+05 -1.737977e+05 -9.771599e+04
9.526967e+04 -1.379910e+05 -9.095101e+04
4.155819e+03 2.046860e+05 -7.472956e+04
1.195970e+05 -1.186720e+05 -8.459745e+04
-2.738285e+05 -1.319965e+05 -8.687624e+04
-2.476825e+05 -1.231009e+05 -7.633767e+04
-2.526333e+05 -1.543093e+05 -1.010066e+05
-2.563138e+05 -1.589324e+05 -7.905508e+04
-2.792800e+05 -1.634517e+05 -9.227972e+04
-7.404482e+04 -2.213181e+05 -9.710033e+04
-4.927018e+04 -2.158431e+05 -9.400463e+04
-7.566036e+04 -1.876734e+05 -9.908944e+04
-7.485025e+04 -1.903161e+05 -7.499362e+04
1.702497e+05 -2.493756e+05 -7.222650e+04
1.497733e+05 -2.714165e+05 -8.814615e+04
-2.012426e+04 -2.153542e+05 -9.585403e+04
-5.833346e+04 -2.261689e+05 -7.223720e+04
-4.014446e+04 -1.916539e+05 -9.541825e+04
-1.787327e+05 2.151384e+05 -9.582125e+04
1.595674e+05 6.038349e+04 -9.821120e+04
1.543591e+05 4.910267e+04 -7.583265e+04
1.910203e+05 4.539869e+04 -8.994135e+04
1.823704e+05 6.456028e+04 -7.175193e+04
2.978910e+04 -4.006700e+04 -7.701272e+04
2.699222e+04 -7.277720e+04 -8.165404e+04
6.535852e+04 -4.752357e+04 -8.240741e+04
1.319385e+05 1.858237e+05 -9.199644e+04
1.087883e+05 1.668865e+05 -9.777050e+04
1.356642e+05 1.547993e+05 -9.308657e+04
1.162626e+05 1.594101e+05 -7.286451e+04
1.165365e+05 1.284671e+05 -9.294851e+04
1.665937e+05 1.599240e+05 -9.579320e+04
1.537530e+05 1.716979e+05 -7.168162e+04
-1.467811e+05 1.762020e+05 -7.287115e+04
-1.576245e+05 1.475621e+05 -9.666934e+04
-1.708804e+05 1.600737e+05 -7.597115e+04
-1.495583e+05 1.845776e+05 -9.584371e+04
-1.571699e+05 1.214780e+05 -7.319381e+04
-1.336252e+05 1.443874e+05 -7.063882e+04
-9.091144e+04 8.087953e+04 -9.257425e+04
-6.853556e+04 1.128084e+05 -8.792336e+04
-1.030258e+05 1.326212e+05 -9.515231e+04
-9.651090e+04 1.097433e+05 -7.963695e+04
-7.113825e+04 1.380318e+05 -7.039741e+04
-6.268973e+04 1.450355e+05 -9.304414e+04
-4.977454e+04 1.183940e+05 -7.248859e+04
-3.954266e+04 1.173810e+05 -9.769993e+04
-1.200000e+05 -2.000000e+04 -8.000000e+04
-9.565012e+04 -1.925340e+04 -9.473492e+04
-9.471789e+04 -3.569337e+04 -7.155815e+04
-1.151989e+05 -3.995031e+04 -9.512732e+04
-1.421339e+05 -3.355947e+04 -9.681653e+04
-1.246684e+05 -6.411521e+04 -9.067820e+04
-9.312768e+04 -5.222522e+04 -9.456538e+04
-1.331406e+05 -4.656419e+04 -7.163209e+04
-2.047206e+05 2.830320e+04 -9.958658e+04
-1.976938e+05 2.785851e+04 -7.267190e+04
-1.780290e+05 3.882225e+04 -9.527502e+04
-1.530811e+05 4.380872e+04 -1.009984e+05
-1.569173e+05 1.834602e+04 -9.554322e+04
-1.610014e+05 4.537705e+04 -7.492266e+04
9.971510e+04 1.133822e+04 -7.073585e+04
4.627995e+04 2.110441e+04 -7.061311e+04
6.093464e+04 -8.477024e+04 -8.053685e+04
1.624004e+05 2.677307e+05 -9.708941e+04
1.914027e+05 2.525813e+05 -9.786282e+04
-2.015620e+04 -1.273851e+05 -9.370655e+04
-4.005778e+04 -1.391672e+05 -6.872712e+04
-1.430083e+04 -1.558225e+05 -7.297483e+04
-4.250580e+04 -1.597743e+05 -8.878751e+04
9.288810e+04 -4.689613e+04 -7.571789e+04
1.110367e+05 -6.185350e+04 -7.304429e+04
1.474859e+05 -6.462086e+04 -7.521317e+04
1.222592e+05 -8.108447e+04 -9.079999e+04
1.081405e+05 -9.425597e+04 -6.895900e+04
1.221387e+05 -3.074828e+04 -7.092322e+04
-1.859200e+05 -5.161054e+04 -7.356722e+04
-1.832748e+05 -2.038524e+04 -7.380207e+04
-1.611661e+05 -4.482753e+04 -7.466839e+04
-1.752127e+05 -3.953192e+04 -9.556460e+04
-1.543756e+05 -6.091446e+04 -9.672159e+04
-1.537540e+05 -7.496427e+04 -7.285490e+04
-1.498908e+05 -2.000000e+04 -7.147520e+04
2.585328e+05 9.828960e+04 -7.210889e+04
2.279420e+05 1.684078e+05 -9.808705e+04
1.985919e+05 1.728004e+05 -9.804287e+04
-2.883303e+04 1.448556e+05 -9.363916e+04
1.268430e+05 -2.437713e+05 -7.351856e+04
1.363733e+05 -2.149731e+05 -9.710276e+04
1.123000e+05 -1.981392e+05 -7.590147e+04
1.483081e+05 -2.164396e+05 -7.161304e+04
-6.850359e+04 -6.675958e+04 -9.837354e+04
-5.400923e+04 -8.878171e+04 -9.703576e+04
-3.235102e+03 -6.280028e+04 -9.978586e+04
-4.195419e+04 -6.015021e+04 -8.021280e+04
-2.325332e+04 -8.995461e+04 -8.242091e+04
-2.448928e+05 6.612325e+04 -9.874275e+04
-2.597347e+05 1.015691e+05 -9.843181e+04
-2.594687e+05 6.905124e+04 -7.884976e+04
2.736158e+05 -1.673224e+05 -8.517801e+04
2.489102e+05 -1.588062e+05 -7.335477e+04
1.679489e+05 -1.981791e+05 -8.737457e+04
-2.769401e+05 2.300031e+05 -8.538777e+04
1.556817e+05 -2.381325e+05 -9.375333e+04
1.767055e+05 -2.573377e+05 -9.800851e+04
1.703477e+05 2.688828e+05 -7.258349e+04
1.580191e+05 -7.374983e+04 -9.721361e+04
1.588300e+05 -3.890894e+04 -8.843494e+04
9.073990e+04 -2.469091e+05 -7.457976e+04
1.233316e+05 -2.536184e+05 -9.843959e+04
8.637031e+04 -2.502901e+05 -9.943033e+04
1.028959e+05 -2.237752e+05 -9.353219e+04
1.538332e+05 -1.069314e+04 -9.286158e+04
1.559062e+05 -1.054108e+05 -8.356761e+04
1.364588e+05 -1.011245e+05 -1.018094e+05
9.937778e+04 -2.739240e+05 -8.546606e+04
7.003507e+04 -2.741902e+05 -8.740901e+04
5.418672e+04 -2.511730e+05 -9.940751e+04
2.174532e+05 4.548985e+04 -9.999111e+04
-1.060613e+05 -2.238376e+05 -9.396550e+04
-1.095870e+05 -2.206030e+05 -6.995249e+04
-8.460395e+04 -2.258240e+05 -7.200526e+04
-7.639923e+04 -2.496099e+05 -8.748916e+04
-9.705431e+04 -2.758663e+05 -8.804222e+04
2.150882e+05 1.128516e+05 -9.748997e+04
1.831377e+05 1.171236e+05 -9.790233e+04
1.895699e+05 7.940672e+04 -9.831672e+04
-7.250358e+04 -6.393057e+04 -7.331459e+04
2.338392e+04 -2.561724e+05 -9.896617e+04
2.666104e+04 -2.484036e+05 -7.413468e+04
4.038759e+04 -2.736271e+05 -8.213936e+04
1.974314e+03 -2.746543e+05 -8.401056e+04
1.313120e+05 7.435987e+04 -9.525468e+04
1.381198e+05 1.023175e+05 -9.820829e+04
1.634428e+05 9.184509e+04 -9.761188e+04
1.588372e+05 8.270831e+04 -7.542090e+04
1.336545e+05 1.036827e+05 -7.253258e+04
-2.633368e+05 2.208680e+02 -1.003501e+05
-2.501238e+05 -9.040643e+02 -7.738554e+04
-2.218892e+05 -2.419090e+03 -9.876175e+04
-2.455989e+05 3.100247e+04 -9.995400e+04
2.473110e+05 2.928572e+04 -7.718927e+04
2.769452e+05 8.198610e+03 -8.262780e+04
2.531327e+05 -5.749822e+03 -7.697014e+04
2.708449e+05 -2.703477e+05 -8.394477e+04
2.305260e+05 -2.738445e+05 -7.959473e+04
2.047624e+05 -2.466973e+05 -7.402861e+04
2.002191e+05 -2.746257e+05 -8.435054e+04
2.219415e+05 2.141198e+05 -7.207525e+04
2.272946e+05 1.138247e+05 -7.394820e+04
1.258815e+04 2.435091e+05 -7.359922e+04
3.366902e+04 2.150412e+05 -8.813935e+04
-3.173580e+03 2.056194e+05 -9.824706e+04
1.703043e+04 2.366635e+05 -9.750989e+04
2.220014e+05 4.281156e+04 -7.652244e+04
2.092720e+05 6.714013e+04 -8.151239e+04
2.203209e+05 8.223821e+04 -9.846717e+04
-1.071264e+05 2.069768e+05 -7.802404e+04
-1.122747e+05 1.749665e+05 -9.188478e+04
-1.395996e+05 2.147892e+05 -1.000904e+05
-1.329476e+05 1.406835e+05 -9.505173e+04
-2.284934e+05 4.929101e+04 -7.319593e+04
1.066076e+05 1.944327e+05 -7.393345e+04
-2.095266e+05 3.937318e+02 -7.417486e+04
-2.244724e+05 2.638431e+04 -8.471470e+04
-2.604364e+05 3.230393e+04 -7.960449e+04
-1.826473e+05 7.964979e+04 -7.253683e+04
-9.749054e+04 1.517980e+05 -7.227815e+04
-8.119867e+04 8.493829e+04 -6.998829e+04
-3.895203e+04 1.480746e+05 -7.017025e+04
2.674647e+05 -2.347845e+05 -7.374769e+04
-1.630849e+05 1.075641e+05 -9.660118e+04
-6.783943e+04 -3.774283e+04 -9.182351e+04
-1.800306e+04 -3.874141e+04 -9.057351e+04
-4.569826e+04 -2.509096e+04 -8.075672e+04
-5.194102e+04 -2.130465e+03 -9.909548e+04
-5.616163e+04 3.216098e+04 -8.638871e+04
-6.986709e+04 5.984716e+04 -7.882386e+04
4.845960e+04 -1.719033e+05 -9.665570e+04
5.924762e+04 -1.875009e+05 -7.396412e+04
8.189386e+04 -1.918697e+05 -9.588910e+04
8.017827e+04 -1.608736e+05 -7.479699e+04
8.898938e+04 -1.835755e+05 -7.127507e+04
7.925001e+04 -2.157901e+05 -7.206933e+04
1.162801e+05 -1.575119e+05 -7.415647e+04
1.906493e+05 -1.218326e+05 -8.606285e+04
2.150577e+05 -1.474802e+05 -8.539707e+04
1.760962e+05 -1.565217e+05 -8.539281e+04
1.451956e+05 -1.785508e+05 -9.391904e+04
1.450487e+05 -1.787118e+05 -7.001218e+04
1.921491e+05 -1.821910e+05 -8.280761e+04
1.451199e+05 -1.401843e+05 -8.614474e+04
2.742726e+05 1.739342e+05 -8.128501e+04
2.492989e+05 1.614171e+05 -7.472590e+04
7.370260e+04 7.407587e+04 -7.141893e+04
1.018415e+05 9.263677e+04 -8.528201e+04
1.020407e+05 2.704869e+05 -7.290595e+04
-2.087582e+05 -4.113601e+04 -9.479747e+04
-2.288368e+05 -6.525776e+04 -9.592873e+04
-2.226096e+05 -5.961816e+04 -7.346467e+04
-2.198836e+05 -2.895650e+04 -7.341764e+04
-1.912694e+05 -1.881378e+04 -9.894095e+04
1.816886e+05 2.720099e+04 -7.640912e+04
1.846682e+05 -1.206495e+04 -7.644781e+04
-1.844498e+05 2.443090e+05 -9.894135e+04
-1.920573e+03 -5.853452e+04 -7.774866e+04
1.428150e+04 1.171705e+05 -8.520336e+04
-1.232329e+04 1.217213e+05 -9.730658e+04
-5.626609e+04 2.363374e+05 -9.723145e+04
-8.159505e+04 2.360926e+05 -7.286357e+04
-4.772758e+04 2.383281e+05 -7.349691e+04
-6.693547e+04 2.664496e+05 -8.282159e+04
-2.701067e+04 2.643903e+05 -7.276589e+04
-3.540406e+04 2.646548e+05 -9.709285e+04
-1.093976e+05 -2.524691e+05 -9.842718e+04
-1.311050e+05 6.706082e+04 -8.170319e+04
4.036750e+04 -9.700661e+04 -6.957864e+04
8.256687e+03 -1.023164e+05 -8.347019e+04
-1.737533e+05 -1.497661e+05 -7.869592e+04
-1.585502e+05 -1.671259e+05 -8.645340e+04
-1.866611e+05 -1.522879e+05 -9.904390e+04
-2.226568e+05 -1.366717e+05 -7.566833e+04
-2.258633e+05 -1.399813e+05 -9.776209e+04
-1.759294e+05 -1.890199e+05 -9.859658e+04
1.368746e+05 2.676384e+05 -7.419681e+04
-2.607158e+05 -1.979012e+05 -7.548526e+04
-2.715388e+05 -2.345964e+05 -7.817927e+04
2.581809e+05 -3.645177e+04 -7.063881e+04
-1.630196e+05 -2.680518e+05 -7.375614e+04
-1.338555e+05 -2.469204e+05 -7.389833e+04
-1.301433e+05 -2.744079e+05 -8.711018e+04
-1.414443e+05 -2.493887e+05 -9.790204e+04
-1.027424e+05 -2.491318e+05 -7.137398e+04
7.990899e+04 1.740515e+05 -7.403658e+04
8.314681e+04 1.822014e+05 -9.760933e+04
7.109277e+04 2.101062e+05 -7.505042e+04
6.437201e+04 1.995978e+05 -9.805459e+04
-1.234628e+04 -1.609371e+05 -9.768121e+04
7.124204e+03 -1.385771e+05 -7.347189e+04
1.650151e+04 -1.656552e+05 -8.965382e+04
-1.655723e+05 -2.079253e+05 -7.767085e+04
-1.223097e+05 -1.887344e+05 -8.575800e+04
-2.504394e+04 -1.142740e+05 -6.685392e+04
-2.737090e+05 2.734562e+05 -8.608672e+04
2.280603e+05 8.312407e+04 -7.317759e+04
2.751375e+05 -6.698405e+04 -8.261596e+04
2.489721e+05 -7.380588e+04 -7.193602e+04
2.438090e+05 -7.332863e+04 -9.724701e+04
8.669601e+04 -7.661322e+04 -8.498250e+04
-4.442415e+04 5.556522e+04 -9.618585e+04
2.772525e+04 -1.949498e+05 -9.595283e+04
8.021611e+03 -2.259176e+05 -9.662448e+04
1.139368e+04 -2.169979e+05 -7.275353e+04
-1.947712e+03 -1.890566e+05 -8.409641e+04
-3.241241e+04 -1.849491e+05 -7.242190e+04
2.936147e+04 -1.865111e+05 -7.174403e+04
2.486551e+05 -1.562195e+05 -9.777005e+04
-1.334474e+04 -2.525050e+05 -9.438322e+04
-2.658713e+05 -1.940344e+05 -9.846438e+04
2.723362e+05 -9.681935e+04 -8.460716e+04
-1.395107e+05 -2.201498e+05 -8.353353e+04
2.440307e+05 -1.040165e+05 -9.480229e+04
2.651488e+05 -1.313213e+05 -8.416701e+04
2.499981e+05 -1.048469e+05 -6.937251e+04
-1.262820e+05 -4.850255e+03 -9.656536e+04
-1.600725e+05 -9.451561e+03 -9.653598e+04
-1.869833e+05 8.410326e+03 -9.711467e+04
-1.216172e+05 2.373699e+05 -9.598020e+04
-1.556419e+05 2.392571e+05 -7.872240e+04
-1.395014e+05 2.124278e+05 -7.351728e+04
-1.401012e+05 1.916587e+03 -7.156925e+04
-1.207535e+05 9.768321e+03 -7.154515e+04
-2.585453e+05 9.664563e+04 -7.271273e+04
-1.732375e+05 1.151805e+04 -7.257956e+04
2.287172e+05 -1.268545e+05 -7.603273e+04
2.230261e+05 -1.757023e+05 -8.560142e+04
-1.307440e+05 -8.912179e+04 -9.737760e+04
-1.830424e+05 -7.032915e+04 -9.780792e+04
-1.008018e+05 -1.548660e+05 -8.774370e+04
-2.154984e+05 -1.006966e+05 -7.443907e+04
-2.691074e+05 -9.782974e+04 -8.450571e+04
-5.743547e+04 1.754877e+05 -7.300546e+04
-1.264121e+05 1.054972e+05 -7.239637e+04
5.345059e+04 2.343656e+05 -9.721929e+04
-1.939954e+05 1.071260e+05 -9.920743e+04
-1.683912e+05 2.693132e+05 -8.742017e+04
1.846829e+05 -8.479677e+04 -7.816959e+04
1.844194e+05 -5.043078e+04 -7.162485e+04
-5.124121e+04 4.278597e+03 -7.231697e+04
-7.141165e+04 -1.513564e+04 -8.128501e+04
-1.294885e+05 9.996199e+04 -9.689126e+04
-1.544193e+05 8.769819e+04 -7.335078e+04
3.871191e+04 -2.268143e+05 -9.703632e+04
4.713275e+04 -2.154924e+05 -7.596857e+04
2.174894e+05 -1.176642e+05 -9.946792e+04
-1.574040e+05 -1.098855e+05 -7.491272e+04
2.212063e+05 -9.208167e+04 -7.440390e+04
-1.108658e+05 -4.832527e+04 -7.155516e+04
-1.240688e+05 -9.468867e+04 -7.671781e+04
1.859884e+05 -2.188914e+05 -7.075967e+04
-6.490423e+04 2.100202e+05 -7.172400e+04
-3.681665e+04 2.038852e+05 -9.510458e+04
-2.965085e+04 2.105100e+05 -7.155705e+04
-3.074922e+03 2.688429e+05 -9.612537e+04
-2.562371e+05 -6.515969e+04 -7.363778e+04
-2.057116e+05 -7.346044e+04 -9.279621e+04
1.289884e+05 -3.717381e+03 -7.731707e+04
-1.156936e+05 2.406635e+05 -7.214259e+04
1.310590e+05 2.554039e+04 -7.079268e+04
1.540425e+05 2.506438e+04 -9.658490e+04
1.572143e+05 1.063273e+04 -7.628331e+04
1.275988e+05 4.175789e+04 -9.639399e+04
9.957430e+04 5.453401e+04 -8.441418e+04
-2.517057e+05 -1.202195e+05 -1.018407e+05
-7.164754e+04 2.011293e+05 -9.537790e+04
-9.043228e+04 2.357654e+05 -9.605801e+04
-9.872503e+04 2.665023e+05 -7.191752e+04
1.346179e+03 2.734627e+05 -7.070984e+04
-9.044183e+04 -1.478487e+04 -7.139805e+04
-8.154837e+04 1.678459e+05 -9.675533e+04
-4.764609e+04 1.717739e+05 -9.707477e+04
-8.471619e+04 1.845828e+05 -7.167970e+04
1.276977e+05 6.678253e+04 -7.114014e+04
6.033608e+04 -2.458481e+05 -7.520121e+04
7.335171e+04 -2.253795e+05 -9.632569e+04
-1.040115e+05 2.655745e+05 -9.619091e+04
-1.319778e+05 2.668278e+05 -7.442450e+04
-2.016441e+04 1.806914e+05 -7.385240e+04
-1.372789e+05 2.651197e+05 -9.883703e+04
-2.805614e+05 -1.796308e+05 -6.402140e+04
-2.870134e+05 -1.944469e+05 -6.456612e+04
-2.658950e+05 -1.867496e+05 -6.296674e+04
-2.915582e+05 -2.146105e+05 -5.851518e+04
2.823555e+05 6.040233e+04 -6.572985e+04
2.883659e+05 7.406907e+04 -6.367818e+04
2.739645e+05 7.146801e+04 -6.195803e+04
2.727886e+05 5.481720e+04 -6.227071e+04
2.609171e+05 6.032724e+04 -6.382129e+04
2.436288e+05 5.498821e+04 -6.395488e+04
2.568877e+05 7.552505e+04 -5.700420e+04
2.413713e+05 3.840004e+04 -5.971620e+04
2.303282e+05 3.969401e+04 -6.354016e+04
2.291967e+05 6.329239e+04 -6.396049e+04
2.142230e+05 3.931158e+04 -6.169790e+04
2.053980e+05 5.183317e+04 -6.858306e+04
2.033244e+05 3.740938e+04 -6.948131e+04
1.983071e+05 3.050106e+04 -6.138047e+04
1.939339e+05 4.696537e+04 -6.329416e+04
2.088144e+05 2.504740e+04 -6.404645e+04
1.800284e+05 2.292457e+04 -6.272402e+04
1.808467e+05 2.560950e+03 -6.323227e+04
1.668949e+05 9.557723e+03 -6.353431e+04
1.500936e+05 1.076812e+04 -6.224085e+04
1.699433e+05 3.584743e+04 -5.707792e+04
1.392549e+05 1.109140e+04 -5.796221e+04
1.377963e+05 -2.009159e+03 -6.404139e+04
1.185775e+05 -4.370638e+03 -6.259488e+04
1.076315e+05 -3.384133e+03 -5.778983e+04
1.037127e+05 -1.614154e+04 -6.408003e+04
8.587521e+04 -1.821269e+04 -6.273056e+04
1.152259e+05 -1.781659e+04 -5.861784e+04
7.008421e+04 -1.183121e+04 -6.898715e+04
7.344347e+04 -3.525368e+04 -6.607614e+04
8.691680e+04 -3.676274e+04 -6.375652e+04
5.625342e+04 -4.307714e+04 -6.459996e+04
6.154498e+04 -2.322252e+04 -6.464915e+04
5.163170e+04 -3.098565e+04 -6.128589e+04
4.019114e+04 -4.033752e+04 -6.358564e+04
2.090521e+04 -4.491635e+04 -6.340355e+04
5.997662e+04 -5.712397e+04 -5.793532e+04
2.232855e+04 -6.248815e+04 -6.332898e+04
8.322271e+03 -5.847270e+04 -6.379367e+04
-8.514973e+03 -5.981011e+04 -6.299146e+04
1.831964e+04 -5.714039e+04 -7.271039e+04
-3.132174e+04 -6.360556e+04 -6.403804e+04
-1.913347e+04 -8.003445e+04 -6.558709e+04
-4.580902e+04 -7.197182e+04 -6.284159e+04
-3.814550e+04 -8.318725e+04 -6.539869e+04
-5.117022e+04 -8.432552e+04 -6.151364e+04
-4.544676e+04 -8.955714e+04 -6.080145e+04
-6.161352e+04 -7.735570e+04 -6.265580e+04
-3.810704e+04 -9.488948e+04 -5.911642e+04
-7.431828e+04 -7.951663e+04 -6.067848e+04
-6.629184e+04 -9.388715e+04 -6.629766e+04
-7.583347e+04 -1.021078e+05 -6.033421e+04
-8.560331e+04 -8.788271e+04 -6.755313e+04
-8.770096e+04 -1.084295e+05 -6.330335e+04
-9.864974e+04 -9.598022e+04 -6.549256e+04
-1.179229e+05 -9.799044e+04 -6.244741e+04
-1.119297e+05 -1.184337e+05 -6.256205e+04
-9.676771e+04 -7.429459e+04 -6.001918e+04
-1.337419e+05 -1.140229e+05 -6.577569e+04
-1.288197e+05 -1.266793e+05 -6.240736e+04
-1.026507e+05 -1.287877e+05 -5.778541e+04
-1.394011e+05 -1.290201e+05 -6.021925e+04
-1.509719e+05 -1.206351e+05 -6.374700e+04
-1.675286e+05 -1.221292e+05 -6.130643e+04
-1.723603e+05 -1.442197e+05 -6.362648e+04
-1.506270e+05 -1.370379e+05 -6.253318e+04
-1.828055e+05 -1.290454e+05 -6.332229e+04
-1.944352e+05 -1.492913e+05 -6.426198e+04
-1.993628e+05 -1.350474e+05 -6.018958e+04
-1.861337e+05 -1.166338e+05 -5.669343e+04
-2.055339e+05 -1.642616e+05 -6.557497e+04
-2.311050e+05 -1.496085e+05 -6.165849e+04
-2.127972e+05 -1.445089e+05 -6.439335e+04
-2.249262e+05 -1.639581e+05 -6.532985e+04
-2.171664e+05 -1.323735e+05 -5.719782e+04
-2.328655e+05 -1.796192e+05 -6.763297e+04
-2.473682e+05 -1.635738e+05 -6.662568e+04
-2.444538e+05 -1.809042e+05 -6.159933e+04
-2.641115e+05 -1.697410e+05 -6.178239e+04
-2.761214e+05 -1.670844e+05 -7.021613e+04
-2.590509e+05 -1.996708e+05 -5.731360e+04
-2.844567e+05 -1.903288e+05 -5.716821e+04
-2.885177e+05 -1.839339e+05 -5.800900e+04
-2.930178e+05 -1.925063e+05 -5.723338e+04
-2.957791e+05 -2.036796e+05 -5.425759e+04
2.907883e+05 6.735351e+04 -5.629911e+04
2.942072e+05 7.334033e+04 -5.718077e+04
2.877557e+05 7.279158e+04 -5.510329e+04
2.838891e+05 6.333281e+04 -5.739711e+04
2.766138e+05 6.247686e+04 -5.655216e+04
2.809139e+05 7.049391e+04 -5.666564e+04
2.727976e+05 6.727446e+04 -5.456984e+04
2.709079e+05 5.904060e+04 -5.571094e+04
2.658383e+05 6.057490e+04 -5.670408e+04
2.572730e+05 5.769661e+04 -5.573880e+04
2.630101e+05 6.763244e+04 -5.366029e+04
2.495181e+05 5.427256e+04 -5.690567e+04
2.399410e+05 5.002308e+04 -5.619477e+04
2.334099e+05 4.172941e+04 -5.566480e+04
2.387535e+05 4.242304e+04 -5.382567e+04
2.331945e+05 5.379282e+04 -5.713492e+04
2.243303e+05 3.919221e+04 -5.670038e+04
2.167227e+05 3.727873e+04 -5.501078e+04
2.101664e+05 3.770974e+04 -5.468606e+04
2.058097e+05 4.201445e+04 -5.866080e+04
2.059730e+05 3.440597e+04 -5.967885e+04
2.016303e+05 3.129777e+04 -5.429544e+04
2.002175e+05 3.903161e+04 -5.674256e+04
2.071529e+05 2.967532e+04 -5.624316e+04
1.948881e+05 2.788641e+04 -5.552638e+04
1.865710e+05 2.228933e+04 -5.572894e+04
1.775122e+05 2.196020e+04 -5.480337e+04
1.778737e+05 1.052703e+04 -5.614689e+04
1.709766e+05 1.293443e+04 -5.633899e+04
1.612305e+05 1.040571e+04 -5.690380e+04
1.723702e+05 2.728122e+04 -5.340204e+04
1.533803e+05 9.015536e+03 -5.531802e+04
1.454560e+05 8.803772e+03 -5.543123e+04
1.408370e+05 4.920603e+02 -5.625825e+04
1.409891e+05 7.311865e+03 -5.321844e+04
1.305739e+05 -2.578186e+03 -5.709961e+04
1.219243e+05 -5.308519e+03 -5.563846e+04
1.138576e+05 -6.156300e+03 -5.533368e+04
1.074993e+05 -1.308925e+04 -5.611920e+04
1.091860e+05 -6.991859e+03 -5.300369e+04
9.933225e+04 -1.590403e+04 -5.621512e+04
1.124791e+05 -1.356499e+04 -5.360328e+04
9.157557e+04 -1.768896e+04 -5.696412e+04
8.260458e+04 -2.012368e+04 -5.530879e+04
7.427841e+04 -1.805691e+04 -5.860112e+04
7.633027e+04 -2.966622e+04 -5.745936e+04
8.339403e+04 -3.013975e+04 -5.670151e+04
6.109169e+04 -2.839593e+04 -5.726048e+04
6.672012e+04 -3.464522e+04 -5.779496e+04
6.970334e+04 -2.442611e+04 -5.684758e+04
5.959152e+04 -3.863766e+04 -5.496486e+04
5.613092e+04 -3.303789e+04 -5.562211e+04
5.132322e+04 -3.326513e+04 -5.424154e+04
5.084040e+04 -4.063384e+04 -5.690797e+04
4.462968e+04 -3.834295e+04 -5.587520e+04
3.422509e+04 -4.359174e+04 -5.705061e+04
5.346067e+04 -4.730589e+04 -5.400107e+04
4.174408e+04 -3.106792e+04 -5.360397e+04
2.629485e+04 -4.701143e+04 -5.565801e+04
1.646212e+04 -4.783443e+04 -5.623550e+04
1.959409e+04 -5.606191e+04 -5.688553e+04
1.254912e+04 -5.699829e+04 -5.592687e+04
3.663326e+03 -5.864766e+04 -5.687134e+04
1.604155e+04 -5.544426e+04 -6.091678e+04
-4.475645e+03 -6.145025e+04 -5.549909e+04
-1.228418e+04 -6.149897e+04 -5.545664e+04
-2.207065e+04 -6.385061e+04 -5.700870e+04
-1.640630e+04 -7.257263e+04 -5.710455e+04
-3.169853e+04 -6.825444e+04 -5.611410e+04
-2.622526e+04 -7.527500e+04 -5.708271e+04
-3.394431e+04 -7.906871e+04 -5.787355e+04
-3.797927e+04 -7.346482e+04 -5.706418e+04
-4.595540e+04 -7.479962e+04 -5.566421e+04
-4.325883e+04 -8.049755e+04 -5.730976e+04
-4.675131e+04 -8.473370e+04 -5.554483e+04
-5.052388e+04 -8.169090e+04 -5.469381e+04
-5.524814e+04 -7.654745e+04 -5.604089e+04
-4.261646e+04 -8.710298e+04 -5.523708e+04
-6.163890e+04 -8.295358e+04 -5.494626e+04
-5.574702e+04 -8.649800e+04 -5.546998e+04
-6.276196e+04 -9.196560e+04 -5.717215e+04
-6.820199e+04 -8.507163e+04 -5.626341e+04
-7.560163e+04 -8.616753e+04 -5.466435e+04
-7.289266e+04 -9.224604e+04 -5.824695e+04
-8.100900e+04 -9.079411e+04 -5.811982e+04
-7.692031e+04 -9.752302e+04 -5.478736e+04
-8.340607e+04 -1.015517e+05 -5.541455e+04
-8.828770e+04 -9.576922e+04 -5.761594e+04
-9.522300e+04 -9.667239e+04 -5.638961e+04
-9.164299e+04 -1.043299e+05 -5.650029e+04
-8.724066e+04 -8.422936e+04 -5.499582e+04
-1.000532e+05 -1.082758e+05 -5.718345e+04
-1.042549e+05 -9.926029e+04 -5.766471e+04
-1.149025e+05 -1.031876e+05 -5.567478e+04
-1.122777e+05 -1.124650e+05 -5.606324e+04
-1.238268e+05 -1.089413e+05 -5.816074e+04
-1.212941e+05 -1.161573e+05 -5.548515e+04
-1.078767e+05 -1.190859e+05 -5.370507e+04
-1.282257e+05 -1.225338e+05 -5.555074e+04
-1.295562e+05 -1.158485e+05 -5.761829e+04
-1.391490e+05 -1.179246e+05 -5.731067e+04
-1.346906e+05 -1.226781e+05 -5.612188e+04
-1.466639e+05 -1.235717e+05 -5.678469e+04
-1.407053e+05 -1.253325e+05 -5.458689e+04
-1.536371e+05 -1.240904e+05 -5.644668e+04
-1.534319e+05 -1.317540e+05 -5.632739e+04
-1.463402e+05 -1.300879e+05 -5.495551e+04
-1.615471e+05 -1.356170e+05 -5.731447e+04
-1.611105e+05 -1.265617e+05 -5.704633e+04
-1.693919e+05 -1.288351e+05 -5.460730e+04
-1.730074e+05 -1.400631e+05 -5.593874e+04
-1.764848e+05 -1.320910e+05 -5.694639e+04
-1.815695e+05 -1.422065e+05 -5.716753e+04
-1.852658e+05 -1.363437e+05 -5.583899e+04
-1.795535e+05 -1.268850e+05 -5.381623e+04
-1.696616e+05 -1.467101e+05 -5.361370e+04
-1.898036e+05 -1.472664e+05 -5.758168e+04
-1.985726e+05 -1.476978e+05 -5.704214e+04
-1.926506e+05 -1.389145e+05 -5.613422e+04
-2.007645e+05 -1.423576e+05 -5.458472e+04
-2.045852e+05 -1.569042e+05 -5.684608e+04
-2.170933e+05 -1.519986e+05 -5.639069e+04
-2.071029e+05 -1.476697e+05 -5.744309e+04
-2.147474e+05 -1.604554e+05 -5.856245e+04
-2.104755e+05 -1.416740e+05 -5.400509e+04
-2.246505e+05 -1.535244e+05 -5.675192e+04
-2.329808e+05 -1.563577e+05 -5.523820e+04
-2.239516e+05 -1.619701e+05 -5.652518e+04
-2.307971e+05 -1.615915e+05 -5.739283e+04
-2.338793e+05 -1.707423e+05 -5.712881e+04
-2.414758e+05 -1.641018e+05 -5.857309e+04
-2.529773e+05 -1.685838e+05 -5.792752e+04
-2.499589e+05 -1.757032e+05 -5.791603e+04
-2.421208e+05 -1.721635e+05 -5.487090e+04
-2.807095e+05 -1.808748e+05 -5.526192e+04
-2.774993e+05 -1.857816e+05 -5.587189e+04
-2.679650e+05 -1.823807e+05 -5.549910e+04
-2.740413e+05 -1.795828e+05 -5.653321e+04
-2.572945e+05 -1.798344e+05 -5.512277e+04
-2.597665e+05 -1.731291e+05 -5.512767e+04
-2.653021e+05 -1.718211e+05 -5.469504e+04
-2.724284e+05 -1.723305e+05 -5.827546e+04
-2.640526e+05 -1.887014e+05 -5.365353e+04
-2.922691e+05 -1.780737e+05 -5.456775e+04
2.779915e+05 7.516881e+04 -5.365345e+04
2.470112e+05 6.107816e+04 -5.365296e+04
2.270807e+05 3.157941e+04 -5.361393e+04
1.636944e+05 3.083503e+03 -5.350028e+04
8.923526e+04 -1.006016e+04 -5.320663e+04
3.717766e+04 -5.219728e+04 -5.320001e+04
-3.885132e+04 -6.796562e+04 -5.698912e+04
-1.069585e+05 -9.260365e+04 -5.361969e+04
-1.636516e+05 -1.199011e+05 -5.348760e+04
-1.955361e+05 -1.343050e+05 -5.339967e+04
-2.273161e+05 -1.482477e+05 -5.345669e+04
-1.487615e+05 -8.092905e+04 -2.653765e+04
-1.481854e+05 -7.410809e+04 -2.307531e+04
-1.421322e+05 -7.797751e+04 -2.653765e+04
-1.542039e+05 -7.150241e+04 -2.028765e+04
-7.566966e+04 -4.978090e+04 -2.727311e+04
-8.155297e+04 -4.723023e+04 -2.454623e+04
-8.229893e+04 -5.273243e+04 -2.727311e+04
-8.111214e+04 -4.035426e+04 -2.102311e+04
-1.650889e+05 -5.264913e+04 -7.787654e+03
-1.596464e+05 -6.207577e+04 -1.403765e+04
-1.590704e+05 -5.525481e+04 -1.057531e+04
-1.584596e+05 -4.969759e+04 -7.787654e+03
-9.199708e+04 -2.150098e+04 -8.523114e+03
-8.655461e+04 -3.092762e+04 -1.477311e+04
-9.243792e+04 -2.837695e+04 -1.204623e+04
-9.862635e+04 -2.445251e+04 -8.523114e+03
-1.355029e+05 -7.502598e+04 -2.653765e+04
-1.349269e+05 -6.820501e+04 -2.307531e+04
-1.288737e+05 -7.207444e+04 -2.653765e+04
-1.155132e+05 -6.593317e+04 -2.643597e+04
-1.221425e+05 -6.888471e+04 -2.643597e+04
-1.214644e+05 -6.182556e+04 -2.287193e+04
-1.281957e+05 -6.501529e+04 -2.297362e+04
-9.555745e+04 -5.863551e+04 -2.727311e+04
-8.892819e+04 -5.568397e+04 -2.727311e+04
-9.481150e+04 -5.313331e+04 -2.454623e+04
-1.022547e+05 -6.003010e+04 -2.643597e+04
-1.088839e+05 -6.298163e+04 -2.643597e+04
-1.082059e+05 -5.592248e+04 -2.287193e+04
-1.015087e+05 -5.452789e+04 -2.370908e+04
-1.052556e+05 -2.740405e+04 -8.523114e+03
-1.056964e+05 -3.428003e+04 -1.204623e+04
-1.118849e+05 -3.035559e+04 -8.523114e+03
-1.185821e+05 -3.175018e+04 -7.685965e+03
-1.190909e+05 -3.706920e+04 -1.037193e+04
-1.252113e+05 -3.470171e+04 -7.685965e+03
-1.123937e+05 -3.567461e+04 -1.120908e+04
-1.452011e+05 -4.379452e+04 -7.787654e+03
-1.458118e+05 -4.935173e+04 -1.057531e+04
-1.518304e+05 -4.674606e+04 -7.787654e+03
-1.318406e+05 -3.765325e+04 -7.685965e+03
-1.323494e+05 -4.297228e+04 -1.037193e+04
-1.384699e+05 -4.060479e+04 -7.685965e+03
-1.390806e+05 -4.616200e+04 -1.047362e+04
-8.743628e+04 -4.467956e+04 -2.181934e+04
-9.331958e+04 -4.212890e+04 -1.909245e+04
-8.818223e+04 -5.018177e+04 -2.454623e+04
-9.406554e+04 -4.763110e+04 -2.181934e+04
-8.699544e+04 -3.780359e+04 -1.829623e+04
-9.287875e+04 -3.525292e+04 -1.556934e+04
-9.906718e+04 -3.132849e+04 -1.204623e+04
-9.950801e+04 -3.820446e+04 -1.556934e+04
-1.007628e+05 -4.902569e+04 -2.098219e+04
-1.067140e+05 -4.491807e+04 -1.741816e+04
-1.000168e+05 -4.352349e+04 -1.825531e+04
-1.062052e+05 -3.959905e+04 -1.473219e+04
-1.476094e+05 -6.728713e+04 -1.961296e+04
-1.415561e+05 -7.115655e+04 -2.307531e+04
-1.470333e+05 -6.046616e+04 -1.615061e+04
-1.409801e+05 -6.433559e+04 -1.961296e+04
-1.536279e+05 -6.468145e+04 -1.682531e+04
-1.530518e+05 -5.786049e+04 -1.336296e+04
-1.464226e+05 -5.490895e+04 -1.336296e+04
-1.524411e+05 -5.230327e+04 -1.057531e+04
-1.342489e+05 -6.114586e+04 -1.951127e+04
-1.403021e+05 -5.727643e+04 -1.604893e+04
-1.335709e+05 -5.408671e+04 -1.594724e+04
-1.396914e+05 -5.171922e+04 -1.326127e+04
-1.148352e+05 -5.887402e+04 -2.287193e+04
-1.141572e+05 -5.181486e+04 -1.930790e+04
-1.207864e+05 -5.476640e+04 -1.930790e+04
-1.201084e+05 -4.770725e+04 -1.574386e+04
-1.275177e+05 -5.795613e+04 -1.940958e+04
-1.268397e+05 -5.089698e+04 -1.584555e+04
-1.074600e+05 -5.042028e+04 -2.014504e+04
-1.134112e+05 -4.631266e+04 -1.658101e+04
-1.195997e+05 -4.238822e+04 -1.305790e+04
-1.257201e+05 -4.002074e+04 -1.037193e+04
-1.262289e+05 -4.533976e+04 -1.305790e+04
-1.129024e+05 -4.099364e+04 -1.389504e+04
-1.329601e+05 -4.852949e+04 -1.315958e+04
CELLS 17877 89385
4  6127 6128 6129 6130
4  6131 6132 6129 6130
4  6133 6134 6131 6130
4  6131 6135 6132 6130
4  6134 6136 6137 6130
4  6136 6138 6137 6130
4  6133 6136 6134 6130
4  6139 6140 6141 6142
4  6143 6144 6145 6142
4  6146 6144 6147 6142
4  6148 6147 6143 6142
4  6146 6139 6144 6142
4  6144 6149 6145 6142
4  6150 6151 6141 6142
4  6148 6152 6150 6142
4  363 6153 6154 6155
4  372 6156 6157 6155
4  364 6158 6153 6155
4  363 364 6153 6155
4  6159 6160 6161 6151
4  6159 6162 6160 6151
4  6163 6159 6164 6149
4  6161 6165 6166 6167
4  6168 6169 6170 6167
4  6171 6172 6173 6167
4  6161 6171 6173 6167
4  6172 6150 6173 6167
4  6174 6147 6175 6176
4  6177 6175 6178 6176
4  6147 6179 6178 6176
4  832 521 6175 6176
4  6180 6174 6181 6182
4  20 6183 6181 6182
4  6180 6183 6184 6182
4  880 6185 856 6186
4  752 6187 6172 6182
4  6174 6152 6187 6182
4  108 6184 409 6182
4  6188 6189 6190 6191
4  6192 6190 6189 6191
4  6193 6192 6194 6191
4  6193 6194 6195 6191
4  6196 6197 6190 6191
4  6198 6199 6200 6201
4  6202 6203 6204 6201
4  6205 6200 6206 6201
4  6205 6207 6203 6201
4  6206 6200 6208 6201
4  6209 6210 6211 6212
4  6199 6208 6200 6201
4  6213 6214 6215 6216
4  6217 6213 6218 6216
4  6219 6220 6221 6222
4  6223 6224 6225 6226
4  6227 6224 6218 6216
4  6228 6227 6218 6216
4  6217 6218 6224 6216
4  6223 6226 6229 6216
4  192 6230 6231 6232
4  6233 6234 6235 6232
4  6236 6230 6237 6232
4  6238 6235 6237 6232
4  6236 6237 6235 6232
4  6231 6239 6240 6232
4  6241 6242 6133 6243
4  6244 6245 6246 6243
4  6247 6248 6133 6243
4  6249 6248 6250 6243
4  6249 6241 6133 6243
4  6249 6133 6248 6243
4  6247 6245 6248 6243
4  652 6251 6252 6253
4  6254 6252 6255 6253
4  6255 6256 6257 6253
4  6258 6252 6251 6253
4  6256 6259 6257 6253
4  967 6260 6261 6262
4  6263 6264 6265 6262
4  6261 6189 6265 6262
4  6266 6267 6268 6269
4  6270 6271 6272 6262
4  6192 6261 6260 6262
4  6270 6260 6271 6262
4  6270 6263 6189 6262
4  6273 6274 6275 6276
4  6277 6278 6279 6280
4  6281 6274 6282 6276
4  6281 6282 6283 6276
4  501 6284 6283 6276
4  501 824 6285 6276
4  6273 6275 6286 6276
4  6285 6286 6275 6276
4  824 6273 6286 6276
4  6287 6288 6289 6290
4  6287 6290 6289 6291
4  414 6290 6292 6291
4  6287 6289 6293 6291
4  6294 6290 6287 6291
4  6292 6290 6294 6291
4  1019 834 6295 6296
4  837 6254 6252 6296
4  652 6252 6297 6296
4  6298 6295 6299 6296
4  6254 6300 6252 6296
4  6300 6298 6301 6296
4  6285 6302 6303 6304
4  843 661 6285 6303
4  6285 6303 6305 6304
4  6303 6302 6208 6304
4  6306 6307 6308 6309
4  6310 6311 6275 6304
4  6311 6302 6275 6304
4  6172 6143 6152 6187
4  20 6174 6187 6182
4  6172 6187 6152 6182
4  469 752 754 6187
4  469 6172 752 6187
4  710 6312 6313 6314
4  6315 6316 6317 6314
4  706 6318 6316 6314
4  6319 6318 6320 6314
4  6317 6228 6319 6314
4  6228 6316 6318 6314
4  6180 6181 6183 6182
4  521 21 6175 6181
4  521 6175 6174 6181
4  390 797 6321 6322
4  344 6323 6324 6325
4  6326 6327 6328 6329
4  797 6246 6321 6322
4  6247 6321 6245 6322
4  6246 6245 6321 6322
4  390 6330 6331 6322
4  6133 6242 6331 6322
4  6247 6133 6322 6243
4  6284 6332 6283 6276
4  843 6302 6285 6286
4  6333 6334 6335 6336
4  824 6283 6337 6276
4  6338 6339 6340 6341
4  998 6342 6302 6286
4  998 6302 658 6286
4  658 6302 843 6286
4  6273 6302 6342 6286
4  6343 6137 6136 6138
4  6344 6345 6127 6138
4  6344 6346 6347 6138
4  6206 6208 6200 6348
4  6199 6349 6200 6348
4  6206 6302 6208 6348
4  6350 6275 6351 6274
4  6350 6274 6281 6276
4  6350 6275 6274 6276
4  6352 6353 6354 6274
4  6355 6354 6353 6274
4  6356 6357 6358 6359
4  6360 6357 6361 6359
4  6362 6363 6364 6365
4  6360 6366 6367 6368
4  6356 6369 6368 6359
4  6369 6367 6368 6359
4  6370 6371 6372 6373
4  6270 6374 6375 6376
4  6377 6378 6379 6376
4  6380 6381 6382 6376
4  541 6153 6383 6384
4  418 6385 6386 6387
4  6388 6387 6389 6384
4  6390 6389 6391 6384
4  6350 6332 6284 6276
4  6350 6392 6284 6332
4  6350 6281 6393 6332
4  6320 6313 6394 6332
4  6395 6396 6397 6398
4  860 6399 6400 6398
4  6401 6399 6402 6398
4  6403 6401 6395 6398
4  6404 6405 6406 6407
4  6404 6406 6408 6407
4  6404 6409 6405 6407
4  6410 6411 6412 6365
4  6410 6412 6413 6365
4  6414 6412 6415 6365
4  6362 6412 6414 6365
4  6416 6197 6196 6191
4  775 6196 6197 6190
4  6265 6188 6189 6190
4  779 6417 6261 6190
4  6249 6363 6418 6419
4  775 6420 779 6190
4  676 6421 6422 6423
4  155 676 6422 6423
4  983 6424 676 6423
4  155 6422 6425 6423
4  983 6426 6424 6423
4  6403 6427 6401 6398
4  807 6428 6429 6399
4  6430 6427 6400 6399
4  6401 6428 6402 6399
4  860 6402 807 6399
4  493 155 343 6422
4  891 1079 307 6431
4  6432 6433 6431 6434
4  6435 6431 6436 6434
4  6432 6431 6435 6434
4  6193 6437 6438 6439
4  6193 6438 6440 6439
4  6441 6438 6442 6439
4  6442 6438 6437 6439
4  6362 6443 6363 6365
4  6444 6375 6445 6439
4  6193 6437 6446 6438
4  6444 6193 6375 6439
4  6447 6448 6449 6450
4  6451 6452 6453 6454
4  6451 6455 6456 6454
4  6457 6458 6459 6454
4  6453 6458 6455 6454
4  6460 6461 6462 6463
4  6460 6464 6465 6463
4  6460 6462 6464 6463
4  6466 6467 6468 6469
4  6470 6462 6471 6463
4  6472 6473 6474 6475
4  967 913 802 6262
4  6263 6476 6264 6272
4  6270 6272 6263 6262
4  6477 6478 6479 6480
4  6481 6478 6482 6480
4  6483 6484 6485 6480
4  6477 6486 6485 6480
4  6481 6479 6478 6480
4  6483 6485 6486 6480
4  6282 6337 6283 6276
4  6311 6302 6273 6275
4  6273 6275 6302 6286
4  6285 6310 6284 6275
4  6310 6351 6350 6275
4  6355 6275 6273 6274
4  6487 6488 6489 6490
4  6355 6351 6275 6274
4  6491 6492 6493 6407
4  6494 6491 6492 6493
4  6494 6492 6495 6493
4  6496 6497 6498 6499
4  6500 6501 6367 6499
4  6502 6500 6367 6499
4  6502 6503 6500 6499
4  6502 6367 6504 6499
4  6505 6506 6366 6499
4  6501 6505 6366 6499
4  6503 6497 6496 6499
4  6497 6504 6367 6499
4  6507 6508 6509 6510
4  6511 6509 6508 6510
4  6512 6511 6508 6510
4  6512 6513 6511 6510
4  6511 6514 6509 6510
4  6512 6515 6513 6510
4  6516 6517 6518 6464
4  6519 6517 6520 6464
4  6516 6521 6517 6464
4  6470 6465 6464 6463
4  6522 6523 6524 6525
4  6526 6527 6528 6525
4  6529 6528 6530 6525
4  6531 6447 6449 6450
4  6529 6532 6528 6525
4  6533 6534 6535 6525
4  6533 6528 6534 6525
4  6401 6427 6399 6398
4  6536 6537 6400 6398
4  6538 6401 6403 6427
4  6538 6403 6539 6427
4  6539 6536 6540 6427
4  6540 6536 6430 6427
4  6310 6541 6392 6542
4  6543 6544 6545 6542
4  6214 6544 6546 6542
4  6547 6237 6548 6459
4  6543 6549 6544 6542
4  6550 6546 6549 6542
4  6551 6552 6553 6554
4  6555 6552 6556 6554
4  6557 6558 6559 6554
4  6560 6561 6562 6563
4  6564 6553 6559 6554
4  6555 6565 6566 6554
4  6567 6547 6568 6458
4  6569 6570 6571 6572
4  6573 6574 6570 6572
4  6575 6576 6574 6572
4  6569 6573 6570 6572
4  335 6577 6578 6290
4  6579 6578 6577 6290
4  413 6289 6577 6290
4  335 413 6577 6290
4  6288 6577 6289 6290
4  6579 6577 6288 6290
4  6580 6458 6456 6455
4  6581 6490 6455 6582
4  6580 6456 6583 6455
4  6489 6583 6581 6455
4  6489 6490 6488 6455
4  6584 6585 6586 6587
4  6588 6589 6587 6590
4  6591 6592 6588 6587
4  6591 6586 6592 6587
4  6593 6594 6595 6596
4  6597 6598 6599 6600
4  767 511 509 6601
4  6602 6603 6604 6596
4  6602 6605 6603 6596
4  937 6605 6594 6596
4  6606 6607 6147 6179
4  6607 6178 6147 6179
4  366 6608 6606 6179
4  366 367 6608 6179
4  981 6609 6610 6498
4  6611 6612 6613 6614
4  6615 6616 6617 6614
4  6618 6619 6574 6620
4  6618 6621 6619 6620
4  6622 6623 6624 6620
4  6618 6625 6621 6620
4  6626 6627 6628 6629
4  6630 6607 6146 6631
4  6632 6633 6634 6629
4  6635 6636 6637 6629
4  6637 6636 6633 6629
4  6457 6638 6639 6459
4  6640 6548 6237 6459
4  6641 6642 6643 6644
4  6453 6459 6458 6454
4  6453 6237 6547 6459
4  6645 6646 6647 6648
4  6649 6650 6651 6652
4  6653 6651 6654 6652
4  6653 6655 6649 6652
4  6656 6657 6658 6650
4  6656 6657 6650 6652
4  6653 6649 6651 6652
4  6650 6659 6651 6652
4  6660 6515 6661 6662
4  6663 6513 6664 6662
4  6663 6661 6513 6662
4  6664 6665 6666 6662
4  6660 6665 6515 6662
4  6664 6667 6666 6665
4  6668 6669 6670 6671
4  6672 6673 6674 6675
4  6676 6670 6677 6671
4  6676 6678 6679 6671
4  6678 6680 6679 6671
4  6602 6604 6595 6596
4  6681 6682 6683 6604
4  6684 6685 6682 6604
4  73 74 756 6604
4  74 6603 937 6596
4  756 6686 6685 6604
4  74 6604 6603 6596
4  6403 6687 6688 6280
4  6538 6689 6687 6280
4  6277 6689 6690 6280
4  6277 6690 6691 6280
4  6692 6693 6282 6694
4  6281 6283 6694 6332
4  6693 6313 6281 6694
4  6695 6627 6696 6697
4  6698 6699 6700 6697
4  6698 6701 6699 6697
4  6695 6700 6627 6697
4  6457 6702 6638 6459
4  6452 6639 6703 6459
4  6452 6639 6459 6454
4  6704 6705 6457 6454
4  137 6639 6452 6706
4  6707 6635 6645 6708
4  6705 6456 6458 6454
4  880 943 6709 6293
4  612 6289 553 6293
4  6710 6489 6711 6238
4  6429 6324 6401 6428
4  6429 6428 6401 6399
4  103 6325 6324 6428
4  6712 6325 6713 6428
4  701 6402 6713 6428
4  701 807 6402 6428
4  6714 6715 6716 6717
4  367 6608 6179 6718
4  6630 6719 6720 6178
4  6175 6147 6178 6176
4  6178 6179 6718 6176
4  6177 6178 6718 6176
4  6721 6715 6717 6722
4  6719 6720 6178 6718
4  6146 6175 6147 6178
4  6630 6177 6146 6178
4  6649 6723 6724 6725
4  6649 6723 6326 6724
4  6328 6726 6723 6725
4  6328 6727 6726 6725
4  6728 6727 6655 6725
4  6729 6730 6728 6725
4  6730 6723 6726 6725
4  6731 6732 6733 6734
4  6731 6734 6733 6735
4  6736 6737 6738 6735
4  6739 6734 6740 6735
4  6404 6741 6734 6735
4  6731 6741 6404 6735
4  6737 6741 6738 6735
4  6742 6743 6744 6586
4  6744 6586 6743 6745
4  6591 6746 6747 6745
4  6748 6747 6746 6745
4  6749 6746 6750 6745
4  6591 6750 6746 6745
4  6591 6592 6586 6745
4  658 6302 6751 6348
4  998 544 658 6751
4  658 6752 6303 6348
4  658 661 843 6303
4  6753 6754 6755 6756
4  117 119 118 6400
4  6757 6303 6208 6304
4  6758 6759 6581 6456
4  6760 6705 6759 6456
4  6760 6758 6761 6456
4  6762 6763 6447 6754
4  720 136 6764 6638
4  6457 6639 6638 6765
4  6766 6638 6764 6765
4  6702 6640 6638 6459
4  852 813 890 6767
4  136 6764 6638 6639
4  6378 6768 6379 6769
4  6378 6379 6770 6769
4  6771 6772 6327 6769
4  6728 6655 6773 6774
4  6775 6772 6776 6769
4  6770 6776 6772 6769
4  6327 6775 6777 6769
4  6777 6374 6379 6769
4  6778 6587 6589 6590
4  6584 6589 6779 6587
4  6584 6588 6589 6587
4  626 6780 645 6589
4  813 6589 6588 6590
4  625 6589 813 6590
4  6328 6327 6781 6329
4  287 6782 6329 6783
4  454 6782 6781 6329
4  6784 6785 6786 6426
4  6787 6788 6789 6790
4  6327 6791 6792 6329
4  6793 6794 6670 6795
4  6796 6797 6798 6799
4  6800 6801 6802 6803
4  6804 6802 6801 6354
4  6805 6806 6807 6808
4  6809 6803 6810 6811
4  6809 6812 6801 6811
4  6355 6812 6354 6274
4  6206 6813 6207 6814
4  6813 6814 6810 6811
4  6193 6192 6815 6260
4  6355 6816 6814 6811
4  6810 6816 6812 6811
4  6311 6814 6273 6302
4  6817 6813 6803 6811
4  6817 6814 6813 6811
4  6818 6816 6810 6814
4  6819 6807 6820 6821
4  6355 6812 6816 6811
4  6822 6813 6823 6810
4  6824 6825 6826 6568
4  6822 6803 6813 6810
4  6827 6828 6829 6830
4  464 6829 6828 6830
4  6831 6827 6832 6828
4  468 464 6831 6828
4  468 6833 961 6828
4  6834 6433 6835 6836
4  6837 6838 6839 6836
4  6433 6839 6836 6840
4  409 6184 6183 6182
4  6841 6842 6843 6844
4  971 6184 6845 6183
4  22 971 6845 6183
4  6846 6183 6180 6181
4  6846 6845 6180 6183
4  6847 6281 6848 6393
4  21 22 6846 6183
4  20 409 6183 6182
4  6562 6135 6849 6850
4  857 6849 6851 6852
4  273 6853 6854 6852
4  6855 6856 6854 6852
4  256 6854 6856 6852
4  6857 6287 6293 6291
4  6858 6859 6860 6861
4  612 6862 6289 6293
4  612 880 6863 6293
4  943 6292 6293 6291
4  6292 6857 6293 6291
4  413 553 6289 6291
4  413 6289 665 6577
4  612 6288 665 6289
4  6192 6189 6261 6262
4  6263 6272 6264 6262
4  967 780 6261 6260
4  6864 6271 6270 6260
4  6864 6193 6815 6260
4  849 6815 6192 6260
4  780 849 6192 6260
4  919 802 6864 6260
4  919 849 802 6260
4  932 6865 6720 6177
4  6865 6720 6866 6867
4  6720 6868 6867 6718
4  6866 6720 6869 6867
4  272 6867 6868 6718
4  932 6867 272 6718
4  6497 6523 6529 6530
4  6524 6523 6530 6525
4  6503 6496 6497 6530
4  6610 6524 6523 6530
4  6610 6498 6496 6530
4  6709 6558 6186 6293
4  612 6863 6862 6293
4  611 6862 612 6863
4  6870 6871 6872 6863
4  880 6186 856 6863
4  546 856 6854 6863
4  6870 6854 6186 6863
4  546 6854 6872 6863
4  418 6391 6389 6384
4  6873 6153 6158 6155
4  6874 6873 6154 6153
4  6873 6154 6153 6155
4  6874 6383 6158 6153
4  323 6156 372 6155
4  363 418 6387 6153
4  363 6154 323 6155
4  6875 6432 6876 6431
4  403 6877 6878 6879
4  6432 6433 6876 6431
4  6880 6168 6881 6882
4  6883 6884 6885 6257
4  6886 6887 6682 6882
4  6888 6754 6887 6882
4  6880 6887 6754 6882
4  6168 6889 6170 6882
4  6890 6166 6891 6882
4  6891 6892 6888 6882
4  6878 6893 6877 6876
4  6835 6877 6893 6876
4  6878 6876 6877 6894
4  6895 6896 6841 6844
4  6433 6876 6835 6836
4  6838 6876 6839 6836
4  125 403 6877 6894
4  307 6894 6835 6431
4  766 6424 6897 6898
4  766 488 6424 6898
4  6899 6424 6426 6423
4  676 6424 6900 6423
4  488 6901 6424 6898
4  676 723 6900 6424
4  6732 6321 6902 6405
4  390 162 6903 6321
4  797 6246 25 6321
4  25 6321 6904 6405
4  6452 6703 6905 6232
4  6452 6582 6237 6232
4  6490 6237 6238 6235
4  6547 6237 6490 6235
4  6547 6236 6237 6235
4  6703 6640 6237 6459
4  6702 6548 6640 6459
4  6906 6907 6908 6909
4  856 6186 6854 6863
4  6870 6872 6853 6854
4  546 6872 611 6863
4  256 6910 6856 6854
4  6911 6851 6850 6852
4  273 857 6851 6852
4  6855 6854 6853 6852
4  273 6851 6911 6852
4  913 6264 6912 6272
4  6777 6781 6792 6913
4  6327 6777 6781 6792
4  6777 6792 6912 6913
4  913 6913 802 6272
4  741 6271 802 6913
4  454 6792 6781 6913
4  287 454 6792 6329
4  741 454 6781 6913
4  6914 6778 6915 6585
4  6584 6779 6585 6587
4  6916 6586 6585 6587
4  6779 6778 6585 6587
4  6914 6779 6778 6585
4  6390 6391 6917 6384
4  541 6383 6917 6384
4  6874 6153 6387 6384
4  6918 6919 6920 6437
4  6446 6815 6921 6391
4  418 6389 6387 6384
4  418 6922 6389 6391
4  848 6923 6815 6391
4  848 6815 422 6391
4  422 6815 6922 6391
4  6924 6825 6766 6765
4  6924 6764 6643 6765
4  6924 6764 6766 6925
4  6926 6878 6927 6879
4  403 6878 6926 6879
4  258 6877 403 6879
4  6927 6878 6928 6879
4  403 404 406 6879
4  6929 6930 6931 6932
4  170 6933 6934 6336
4  6935 6746 6936 6932
4  6935 6936 6937 6931
4  6935 6936 6931 6932
4  6930 6747 6931 6932
4  6591 6746 6935 6932
4  6591 6747 6746 6932
4  6869 6720 6868 6867
4  357 6869 6868 6867
4  272 357 6868 6867
4  932 832 6177 6718
4  1023 367 272 6608
4  6606 6938 6607 6179
4  272 6868 6608 6718
4  6298 6939 6435 6434
4  6940 6435 6432 6431
4  6298 6299 6941 6434
4  6942 6941 6299 6434
4  6943 6944 6945 6946
4  6943 6947 6944 6946
4  6948 6949 6950 6946
4  6951 6947 6949 6946
4  6948 6951 6949 6946
4  6952 6945 6953 6946
4  6952 6948 6954 6946
4  6953 6945 6947 6946
4  6955 6949 6943 6946
4  6955 6943 6954 6946
4  6956 6957 6958 6950
4  6959 6949 6919 6950
4  6948 6949 6959 6950
4  6960 6954 6948 6950
4  6960 6958 6954 6950
4  6961 6962 6963 6964
4  6965 6482 6478 6964
4  6757 6204 6962 6208
4  6908 6909 6907 6966
4  538 541 602 6967
4  6757 6204 6199 6478
4  69 74 6968 6969
4  6757 6478 6477 6480
4  6970 6166 6169 6167
4  6168 6889 6150 6165
4  541 683 418 6391
4  6168 6170 6889 6165
4  6891 6892 6170 6165
4  6168 6165 6150 6167
4  6161 6173 6151 6165
4  6150 6971 6151 6165
4  6892 6971 6889 6165
4  6531 6450 6449 6708
4  6972 6973 6696 6708
4  6707 6531 6974 6708
4  6319 6393 6392 6975
4  6545 6215 6228 6975
4  6976 6228 6215 6975
4  6977 6978 6393 6975
4  6979 6977 6393 6975
4  6979 6393 6976 6975
4  6979 6847 6976 6393
4  6298 6299 6436 6297
4  481 6436 6299 6297
4  652 6251 596 6297
4  834 481 6299 6297
4  6980 6361 6981 6982
4  6983 6984 6468 6982
4  6984 6981 6468 6982
4  6985 6466 6468 6986
4  6985 6986 6468 6982
4  6729 6728 6987 6655
4  6985 6468 6981 6982
4  6491 6905 6582 6706
4  6491 6988 6905 6706
4  191 6905 6988 6706
4  10 6905 191 6706
4  6704 6989 6451 6706
4  10 137 6452 6706
4  999 137 712 6706
4  6656 6653 6655 6774
4  6164 6173 6145 6149
4  6162 6139 6151 6149
4  6164 6145 6990 6149
4  6164 6161 6173 6149
4  6151 6149 6139 6142
4  6173 6145 6149 6142
4  6990 6171 6143 6145
4  74 6969 6603 6604
4  6990 6143 6144 6145
4  6991 6897 6992 6898
4  6992 6899 6900 6424
4  488 6993 6994 6898
4  766 6897 6995 6898
4  6992 6897 6424 6898
4  6225 6996 6226 6997
4  6998 6226 6996 6997
4  6998 6617 6999 6997
4  6999 6617 7000 6997
4  346 7001 7002 7003
4  583 6605 7001 7003
4  346 583 7001 7003
4  7004 7005 7002 7003
4  6470 7006 7007 6463
4  7008 7009 7010 7003
4  605 7005 7009 7003
4  6529 6530 6523 6525
4  6491 6238 6581 6582
4  135 6638 6703 6639
4  7011 7012 6633 6628
4  6453 6490 6237 6582
4  6238 6237 6582 6232
4  6451 6491 6581 6582
4  6451 6491 6582 6706
4  6546 6549 6544 7013
4  7014 7015 6549 7013
4  6546 7014 6549 7013
4  7016 6544 6229 7013
4  6491 6240 6905 6988
4  941 191 7017 6988
4  7018 6988 7019 6407
4  6491 6493 6988 6407
4  940 7018 712 6988
4  941 7020 940 6988
4  940 7019 7018 6988
4  7021 6368 6981 6361
4  7022 7023 6357 6361
4  7024 6981 6368 6361
4  7024 6991 6368 6981
4  7024 6985 6981 6982
4  7024 7023 6985 6982
4  6360 6361 6368 6359
4  7024 6360 6357 6361
4  7025 7026 7027 6532
4  7028 6492 6758 6408
4  6501 6367 6366 6368
4  6758 6741 6734 6408
4  7029 6734 6732 6408
4  6759 6408 6492 6407
4  6732 6734 6404 6408
4  7030 7031 6839 6600
4  7030 6839 7031 6840
4  6939 7031 6839 6840
4  6834 6941 6433 6840
4  6433 6941 6939 6840
4  7032 6939 7033 6840
4  365 6179 6147 6176
4  7032 7031 6939 6840
4  6834 6433 6836 6840
4  7034 6836 6839 6840
4  7035 7036 7037 7038
4  7039 6738 6248 7038
4  7036 7039 6248 7038
4  6247 7037 6133 6248
4  6247 7037 6248 7038
4  7026 7040 6532 6528
4  6247 6733 7041 7037
4  6731 6735 6733 7038
4  6731 6247 6738 7038
4  6630 6479 6631 6486
4  6630 6631 6146 7042
4  7043 7044 6533 7026
4  6477 6479 6486 6480
4  6630 6485 6477 6486
4  605 59 7009 7005
4  7045 6631 6479 6486
4  7046 6485 7042 6486
4  6483 6485 7046 6486
4  7045 6479 6483 6486
4  464 6828 0 6830
4  6832 6227 7047 6828
4  706 7047 6316 7048
4  327 6316 7049 7048
4  327 7050 7049 6316
4  327 706 6316 7048
4  6227 6316 7047 7048
4  329 7051 0 7048
4  6944 6579 6294 6290
4  335 6578 7052 6290
4  335 7053 7052 6578
4  335 412 413 6290
4  335 7052 412 6290
4  7052 6944 6294 6290
4  7054 6945 7055 7056
4  6953 6947 6945 7056
4  6953 7057 6947 7056
4  7054 7055 7058 7056
4  6955 6954 6874 6958
4  7059 7060 6958 6957
4  6388 6446 6437 6957
4  6446 6438 6437 6957
4  6956 6919 6918 6957
4  7059 7061 7060 6957
4  6918 6919 6437 6957
4  7061 6437 6438 6957
4  6916 7062 6778 7063
4  6742 6584 7064 6585
4  7065 6588 7066 6767
4  7066 6587 6916 6590
4  7066 6588 6592 6587
4  625 6778 6779 6589
4  6584 6780 6779 6589
4  7066 6592 6586 6587
4  6532 7067 6534 6525
4  7068 7069 6529 7067
4  6529 7069 6532 7067
4  7070 7071 7072 7073
4  7066 7074 6916 7067
4  946 6767 7062 6590
4  6916 6534 7075 7067
4  7076 6298 6295 6941
4  6834 7033 6941 6840
4  7076 7033 6939 6941
4  6533 7044 7077 6534
4  7078 7079 7080 6723
4  6433 6939 6941 6434
4  6433 6941 6942 6434
4  6433 6942 6431 6434
4  7081 7060 7061 6438
4  6446 7060 6438 6957
4  7081 6440 7060 6438
4  7082 7083 7084 7085
4  7086 7087 7088 7085
4  7089 7086 7090 7085
4  7089 7090 7091 7085
4  7091 7092 7083 7085
4  7091 7083 7092 7093
4  6650 7094 6515 7095
4  230 7096 7097 7095
4  7098 7096 7099 7095
4  6650 6659 7100 7095
4  72 7094 180 7095
4  589 7100 6659 7095
4  230 589 7101 7095
4  837 652 834 6296
4  6255 6252 6258 6253
4  6258 6251 6259 6253
4  958 684 652 6253
4  6301 7102 6251 6297
4  6300 6301 6252 6296
4  7103 7104 7105 7106
4  6255 6300 6301 6252
4  837 7107 6254 6296
4  6255 6301 6258 6252
4  7108 6825 7109 7110
4  7108 6826 6825 7110
4  871 135 720 6638
4  6642 7111 6966 7110
4  7109 7112 6966 7110
4  6924 6825 6644 7110
4  6642 6966 7112 7110
4  189 0 7113 6830
4  0 6828 7051 6830
4  6827 7051 6828 6830
4  6212 6829 7114 6830
4  7115 6827 6212 6830
4  7115 7051 6827 6830
4  6261 6265 6189 6190
4  6381 7116 6195 6191
4  6381 7117 7116 6188
4  6270 6189 6192 6262
4  6195 7116 6197 6191
4  6197 6188 6190 6191
4  6246 6245 6322 6243
4  6244 6246 6242 6243
4  7118 7119 6731 6245
4  7118 7119 7120 6731
4  6731 6738 6247 6245
4  7119 6250 6738 6245
4  6244 6250 6245 6243
4  6247 6738 6248 6245
4  6349 6751 6200 6348
4  7121 6198 6349 6200
4  6205 7122 6206 6200
4  7121 6751 7122 6200
4  6192 6196 6190 6191
4  7123 6197 7116 6188
4  7124 7117 7125 6188
4  6417 6188 6265 6190
4  6417 7125 6265 6188
4  7124 7126 7116 6188
4  7123 7116 7126 6188
4  7127 7128 7129 7130
4  7131 7128 7132 7130
4  7133 7134 7128 7130
4  7127 7133 7128 7130
4  6166 6170 7135 6169
4  7136 7135 6685 6169
4  6881 6168 7137 6169
4  6168 6184 7137 6169
4  6180 6184 6168 6182
4  7138 6287 7139 6862
4  6172 6169 6168 6167
4  798 7140 6858 7141
4  209 6334 685 6336
4  7135 6170 6881 6169
4  301 741 913 6913
4  170 47 6933 6925
4  6924 6766 6764 6765
4  686 7142 7143 6925
4  7143 7142 6924 6925
4  6642 7112 6933 6925
4  7112 7142 6933 6925
4  6642 6643 6924 6925
4  6366 6994 7144 6993
4  6360 6366 6994 7144
4  6366 6506 7145 6993
4  488 6994 6901 6898
4  6995 6897 6991 6898
4  488 7146 6994 6993
4  509 6506 771 6993
4  6994 7146 7144 6993
4  771 7144 490 6993
4  6311 6962 6207 6208
4  6311 6962 6208 6304
4  6205 6206 6207 6201
4  6199 6204 6208 6201
4  6311 6207 6206 6208
4  6206 6751 6302 6348
4  162 797 25 6321
4  6199 6208 6303 6348
4  6311 6206 6302 6208
4  775 6197 6420 6190
4  7147 7148 7149 6197
4  7150 6195 7116 6197
4  7151 6416 6195 6197
4  7151 7149 6416 6197
4  287 6329 6791 6783
4  6650 6651 6659 6783
4  287 457 6782 6783
4  629 6791 7096 6783
4  589 7101 6659 6783
4  629 7101 589 6783
4  162 6321 25 6405
4  6406 6902 7019 6405
4  6732 6904 6321 6405
4  7152 6435 7153 7154
4  656 6409 7018 6405
4  656 25 6904 6405
4  759 6902 162 6405
4  7155 6358 7156 6359
4  7068 6367 6504 7156
4  7027 6529 6504 7156
4  7157 7068 7069 7156
4  7027 7069 6529 7156
4  319 6331 6330 7158
4  7159 6343 6137 7158
4  7159 6137 6134 7158
4  317 7160 7161 7158
4  317 7161 319 7158
4  6134 7161 7160 7158
4  6705 6759 6451 6989
4  6704 6705 6451 6989
4  656 6409 7162 6989
4  6409 6759 6989 6407
4  7018 6989 6706 6407
4  7162 6409 6760 6989
4  6777 6912 6476 6272
4  7163 6264 7164 6476
4  6777 6476 6379 6272
4  7165 6263 6379 6476
4  7165 6777 7166 6476
4  6594 7008 6602 6605
4  7008 7010 6602 6605
4  7010 7001 6603 6605
4  6594 6605 6602 6596
4  67 6603 7001 6605
4  67 937 6603 6605
4  6324 6325 6712 6428
4  493 103 6713 6325
4  493 6713 6422 6325
4  6324 6323 6712 6325
4  343 6422 6421 6325
4  6323 6421 6712 6325
4  6180 6172 6152 6182
4  752 6172 6169 6182
4  6172 6173 6150 6152
4  6150 6152 6173 6142
4  7167 6143 6172 6187
4  378 6174 6143 6187
4  683 7168 6923 6917
4  6180 6168 6172 6182
4  6180 6152 6174 6182
4  7169 7170 7171 7172
4  6148 6143 6174 6152
4  6273 6282 6816 6274
4  6355 6273 6816 6274
4  6801 6812 6354 6811
4  7169 7173 7170 7154
4  7174 6816 6282 6812
4  7175 6282 6354 6812
4  6801 7175 6354 6812
4  7174 7176 6816 6812
4  6355 6816 6273 6814
4  566 7176 574 6816
4  574 7176 7177 6816
4  7177 7176 7178 6810
4  7009 7005 7004 7003
4  7009 6858 7004 7005
4  973 605 7002 7005
4  973 7002 6335 7005
4  7141 6335 7002 7005
4  6858 7141 7004 7005
4  6319 6228 6318 6314
4  6320 6394 6313 6314
4  46 136 999 6704
4  131 6318 706 6314
4  327 6316 706 6318
4  149 6394 6320 6318
4  327 149 7050 6318
4  7179 6229 7180 6216
4  7181 6213 7182 6218
4  7183 6227 6224 6218
4  759 7018 940 7019
4  7179 6228 6215 6216
4  6214 6544 6215 6216
4  7182 6215 6228 6218
4  797 6242 6246 6322
4  6133 6242 6322 6243
4  390 6331 244 6242
4  1046 6244 6246 6242
4  1046 797 244 6242
4  6562 6849 6856 6852
4  6134 7184 7185 6850
4  6134 6135 7184 6850
4  6562 6132 6135 6850
4  7160 6851 6849 6850
4  6132 7184 6135 6850
4  6873 6158 6157 6155
4  6873 6157 6156 6155
4  323 6154 6156 6155
4  7186 6157 7187 6156
4  374 7187 6157 6156
4  323 6578 335 6156
4  335 6156 6578 6577
4  72 6515 6660 6665
4  826 7188 639 6665
4  6515 6665 6513 6662
4  72 77 7094 6665
4  6513 7094 6667 6665
4  77 6667 7094 6665
4  709 6313 7189 6694
4  709 501 6394 6283
4  6394 6313 6694 6332
4  6273 6282 6274 6276
4  7190 7185 7184 6850
4  7191 7192 7184 7185
4  7159 6134 6137 7185
4  6562 6850 6849 6852
4  7192 6137 7184 7185
4  7159 7160 6134 7185
4  7193 6127 7194 6138
4  7195 7184 7191 6138
4  6133 6128 6127 6130
4  7184 6137 6138 6130
4  7074 7196 7062 6523
4  7170 7197 7171 7172
4  6345 6343 6136 6138
4  6347 7191 7192 6138
4  7159 6137 7192 7185
4  7198 7199 7200 7201
4  6134 6137 6136 7158
4  7202 6869 6868 6752
4  357 6868 6869 6752
4  474 357 6869 6752
4  7202 6868 6349 6752
4  658 474 6303 6752
4  544 6752 658 6348
4  6303 6208 6302 6348
4  544 6751 6349 6348
4  511 6601 6609 6506
4  509 7145 6506 6993
4  6609 6505 6498 6506
4  6497 6366 7144 6506
4  6497 6366 6506 6499
4  6654 6659 6651 6782
4  6651 6329 6782 6783
4  629 287 6791 6783
4  6654 6651 7203 6782
4  7203 6651 6328 6782
4  454 457 458 6782
4  356 6868 357 6752
4  285 272 356 6868
4  6608 7204 6719 6868
4  1023 6608 272 7205
4  932 6720 6867 6718
4  7206 7207 7208 7209
4  7205 7210 7204 6868
4  832 6177 6718 6176
4  704 706 6315 6314
4  6312 6319 6313 6314
4  6320 6318 6394 6314
4  327 7050 6316 6318
4  6315 7047 6317 6316
4  6317 6316 6228 6314
4  131 6394 6318 6314
4  706 7047 6315 6316
4  706 6316 6315 6314
4  6487 6236 6547 6235
4  7211 7212 7213 7201
4  6234 6236 6235 6232
4  7214 6236 6230 6237
4  7215 6487 6233 6236
4  7216 7209 7200 7201
4  840 7217 390 6903
4  6710 6233 6487 6238
4  6239 6238 6240 6232
4  6233 6238 6239 6232
4  7218 6776 6727 6726
4  6328 6772 6723 6726
4  6328 6327 6723 6772
4  6649 6727 6328 6725
4  7219 6723 6730 6725
4  7080 6772 7220 6726
4  6730 7218 6727 6726
4  7080 6723 6772 6726
4  1005 6498 6610 6523
4  6610 6527 6524 6530
4  1005 161 7196 6523
4  161 7063 7062 6523
4  7063 7067 6523 6525
4  7221 7222 7223 7224
4  6527 6524 6530 6525
4  6522 7063 6523 6525
4  7112 6333 6934 6336
4  685 6933 170 6336
4  7112 7142 6334 6336
4  685 7142 686 6925
4  798 170 6934 6336
4  798 6934 6335 6336
4  519 7225 162 6902
4  521 6174 6175 6176
4  378 6174 521 6176
4  6146 6175 6148 6147
4  6990 6607 6144 6147
4  656 24 711 7162
4  378 6143 6174 6147
4  6146 6147 6148 6142
4  890 7144 7074 6767
4  7068 7074 7144 6767
4  852 890 7074 6767
4  813 7065 988 6767
4  988 7065 890 6767
4  7066 6767 6588 6590
4  946 813 6767 6590
4  7226 7227 7221 7224
4  645 6588 813 6589
4  6371 6373 7228 7229
4  6199 6869 7202 6752
4  6206 6208 6207 6201
4  6206 6200 6751 6348
4  7210 6198 6199 6349
4  537 356 544 6349
4  537 7121 7230 6349
4  967 6265 6264 6262
4  6270 6374 6379 6272
4  6777 6379 6374 6272
4  6270 6192 6260 6262
4  7163 7166 6912 6476
4  958 652 837 6252
4  6381 7117 6189 6376
4  6380 7117 6381 6376
4  6210 7231 7232 7233
4  6194 6381 6189 6376
4  6270 6271 6374 6272
4  802 6272 6271 6262
4  6955 6954 6958 6950
4  6388 6874 6390 6958
4  6388 6955 6958 6950
4  7234 6390 6874 6958
4  7235 7059 7234 6958
4  7236 6874 6954 6958
4  7237 7238 7239 7240
4  6473 6475 7241 7238
4  6473 7242 7238 7240
4  7237 7241 7238 7240
4  7243 7244 7245 6962
4  7246 7247 7248 6962
4  7249 6757 6963 6962
4  7250 6204 6962 6964
4  7249 6963 7247 6962
4  6550 7251 7248 6549
4  6541 6550 6549 6542
4  7252 7248 7251 6549
4  6541 6549 6543 6542
4  6594 6602 6595 6596
4  6682 6881 6595 6686
4  6594 6602 6755 6595
4  6755 7253 6880 6595
4  6593 6755 6880 6595
4  6593 6595 7137 6686
4  6881 7137 6595 6686
4  7254 7255 7256 7111
4  7257 7256 7255 7258
4  7259 7260 7261 7255
4  6641 7259 7261 7255
4  7262 7255 7260 7258
4  7263 7264 7265 7266
4  7267 7268 7269 7266
4  7270 7271 7268 7266
4  6482 6963 6480 6964
4  7272 7202 6199 6478
4  6757 6480 6963 6964
4  7273 6481 7274 6478
4  7274 6479 7202 6478
4  6481 6483 6479 6480
4  7155 6358 7275 7156
4  7068 6367 7156 6359
4  6358 6357 7156 6359
4  7276 7277 7278 6357
4  7022 7277 6358 6357
4  7024 6357 7023 6361
4  7278 7023 7024 6357
4  7157 7276 6360 6357
4  7279 7280 7281 7282
4  7283 7284 7285 7282
4  7280 7286 7287 7282
4  6731 6321 6904 6245
4  6136 6127 6138 6130
4  6133 7037 6136 6127
4  7288 7289 7290 7291
4  6343 6330 6136 7158
4  7292 6330 6343 7158
4  6345 6136 7293 7037
4  6345 6136 6127 6138
4  6888 6889 7294 7295
4  7296 7297 6889 7295
4  7298 7299 7300 7301
4  7298 7300 7302 7301
4  7303 7304 7305 7301
4  7306 6150 6168 6889
4  6892 6889 6888 6882
4  6881 6168 6170 6882
4  759 162 25 6405
4  6892 6889 6170 6165
4  6411 6415 7307 7308
4  7307 7308 7309 7310
4  7311 6415 7308 7309
4  6414 7311 6415 7308
4  7312 7313 7314 7315
4  7316 7317 7315 7318
4  7312 7319 7320 7315
4  7321 7322 7323 7324
4  7221 7224 7223 7291
4  7325 7323 7326 7327
4  7328 7323 7322 7327
4  7329 7330 7152 7331
4  7152 7332 7333 7330
4  7333 7330 7334 7331
4  7335 6445 7336 7337
4  7338 7339 7340 7337
4  7341 7342 6445 7337
4  7343 7340 6776 7337
4  7341 7343 6776 7337
4  7344 7264 7345 7346
4  7344 6517 7264 7346
4  6613 7347 6518 7346
4  7348 6518 6612 6614
4  7348 6518 7344 7346
4  7344 6518 6517 7346
4  7349 6392 6978 6542
4  7350 7351 7352 7013
4  7014 7015 7251 6549
4  7225 6902 7353 6903
4  6214 6229 6544 6216
4  7352 6229 7179 6544
4  6541 6543 6545 6542
4  6381 6189 6188 6191
4  7354 7150 6195 7116
4  7355 7356 7124 7116
4  7357 7150 7354 7116
4  7356 6381 7117 7116
4  7012 7358 7010 7001
4  67 346 7001 7359
4  7360 7012 7361 7359
4  67 7359 7001 6969
4  7362 7363 7359 6969
4  7363 7358 7360 7359
4  6991 6993 7145 6898
4  766 7145 509 6993
4  7276 6360 7024 6994
4  488 7364 6994 7146
4  7365 7366 7367 7300
4  7304 7366 7129 7300
4  7368 7365 7367 7300
4  7368 7369 7302 7300
4  7328 7322 7370 7327
4  7328 7371 7326 7327
4  7372 6623 7373 7327
4  7325 7374 7322 7327
4  6623 7375 7374 7327
4  7105 7376 7377 7378
4  7379 7104 7105 7378
4  7380 7381 7382 7378
4  7379 7380 7382 7378
4  7383 7105 7104 7378
4  6794 6798 6795 6799
4  7384 7385 7386 7387
4  7388 7389 6679 7390
4  7391 7392 7389 6679
4  6794 6670 6798 7389
4  7393 7394 7381 7309
4  7311 7395 7309 7310
4  7396 7381 7397 7309
4  7307 7309 7398 7310
4  7399 6821 6808 6747
4  6806 6808 7389 6799
4  6806 6821 6808 6799
4  7399 6796 6808 6821
4  6388 7060 6446 6957
4  6388 6874 6955 6387
4  6833 6832 7400 7047
4  6388 6919 6955 6950
4  6388 6390 6446 7060
4  7260 7255 7401 7258
4  7257 7402 7403 7258
4  7257 7255 7262 7258
4  7257 7403 7256 7258
4  7404 7269 7405 7406
4  7407 7406 7408 7409
4  7410 7411 7412 7406
4  7413 7408 7414 7411
4  7415 7413 7406 7409
4  7416 7410 7412 7406
4  7417 7324 7411 7412
4  7410 7413 7414 7411
4  7418 7419 7420 7421
4  7133 7128 7134 7421
4  7422 7423 7424 7421
4  7425 7422 7424 7421
4  7425 7424 7426 7421
4  7427 7426 7424 7421
4  7427 7424 7419 7421
4  7428 7429 7430 7277
4  7431 7428 7429 7430
4  7432 6795 7430 6799
4  7433 7432 6795 7430
4  6350 6392 6393 6352
4  7434 7433 7431 7430
4  7139 6579 7435 6288
4  7435 6579 7187 6288
4  374 665 7187 6577
4  6579 7187 6288 6577
4  7436 7437 7438 6552
4  7436 7437 7439 7438
4  7440 7438 7437 6552
4  6551 6556 7441 7438
4  7440 7442 7437 7438
4  7443 7444 7264 7346
4  7263 7265 7267 7266
4  7443 7444 7265 7264
4  7347 7263 6517 7264
4  7345 7270 7444 7264
4  7344 6517 7445 7264
4  6449 7446 6648 6450
4  6647 6648 7446 6450
4  6448 6756 7447 7446
4  6449 7448 6648 7446
4  6406 7019 6493 6407
4  7449 6734 7029 6408
4  7029 6406 6495 6492
4  7450 7029 6492 6408
4  6758 6759 6492 6581
4  6711 6494 6491 6581
4  464 0 189 6830
4  7450 6494 7028 6492
4  7451 6255 7452 6257
4  991 7453 1024 6331
4  6610 6496 6527 6530
4  6864 7454 6385 6922
4  6241 6331 6133 6242
4  319 6331 390 6330
4  6133 6134 6136 6331
4  7453 6133 6241 6331
4  319 7161 6331 7158
4  6133 6136 7293 6331
4  7455 7456 6373 7457
4  7458 6756 7447 7457
4  6372 6373 7459 7457
4  7460 7447 6756 7457
4  390 6321 6903 6322
4  7461 7041 7293 6330
4  7461 7293 6136 6330
4  6343 7461 6136 6330
4  389 319 390 6330
4  389 390 7217 6330
4  7462 7463 7199 7464
4  7465 7466 7467 7464
4  7211 7213 7464 7201
4  7462 7468 7467 7464
4  7466 7463 7467 7464
4  6824 6702 7469 6825
4  7470 7471 7472 7051
4  7109 7469 6924 6825
4  7109 6825 6924 7110
4  7473 7474 7475 7476
4  7477 6825 6644 6568
4  6824 6702 6825 6568
4  711 7162 6704 6989
4  7108 6826 6824 6825
4  7478 6579 7479 7055
4  665 7480 7187 6288
4  6294 6579 6287 6290
4  6294 7479 6579 7055
4  6326 6328 6651 6329
4  7079 6326 6327 6723
4  6328 6775 6327 6772
4  6326 6328 6327 6723
4  6730 7218 6728 6727
4  7481 7482 7128 7421
4  7483 7484 7485 7424
4  7485 7486 7423 7424
4  7487 7488 7484 7424
4  7488 7486 7484 7424
4  7195 7489 7184 7194
4  7490 7491 7191 7489
4  7490 7191 7195 7489
4  24 7118 7162 6904
4  72 7094 6515 6665
4  639 6667 77 6665
4  180 7094 7100 7095
4  72 6515 7094 7095
4  6668 7326 6669 6671
4  6677 6670 7492 6669
4  6793 6670 6668 6669
4  7493 7494 7495 7496
4  7497 7498 7499 7494
4  822 562 6667 7500
4  7501 7502 7493 7494
4  7503 6222 6221 6722
4  6721 6717 7504 6722
4  7505 6221 6220 6715
4  6487 6490 6238 6235
4  7506 6548 6547 6236
4  7507 7506 6487 6236
4  7507 6487 7215 6236
4  7508 7509 7510 7511
4  7509 7512 7513 7514
4  7510 7515 7509 7512
4  7516 6678 7517 6680
4  7509 7513 7518 7519
4  6537 7515 7509 7520
4  7510 7509 7515 7511
4  7131 7129 7366 7128
4  7365 7481 7367 7128
4  7365 7366 7129 7128
4  7366 7367 7482 7128
4  7272 7210 6199 7202
4  7204 7202 6719 6868
4  7210 6349 7202 6868
4  6256 6259 6884 6257
4  6256 6258 6259 6253
4  7521 6885 6884 6259
4  839 601 98 6259
4  6884 6259 6885 6257
4  684 6259 601 6251
4  7522 6679 6680 7523
4  6873 6157 7186 6156
4  7524 7525 7251 7247
4  7251 7525 7526 7247
4  7527 7528 7525 7247
4  7529 7530 7531 7532
4  7368 7367 7369 7300
4  7366 7482 7132 7128
4  7481 7482 7367 7128
4  7368 7367 7533 7534
4  7535 7533 7536 7534
4  7368 7369 7367 7534
4  7537 7426 7482 7367
4  7533 7481 7426 7367
4  7270 7265 7538 7539
4  7416 7540 7268 7269
4  7265 7268 7267 7266
4  7538 7540 7268 7412
4  7445 6521 7263 6517
4  7541 7268 7416 7412
4  7074 7062 6767 6590
4  813 6588 7065 6767
4  946 6778 7062 7063
4  625 6778 6589 6590
4  7402 7542 7403 7258
4  947 7543 6914 6778
4  947 6914 625 6778
4  687 719 686 7143
4  6146 6177 6175 6178
4  1010 986 7544 6177
4  6865 6630 6720 6177
4  6630 6720 6177 6178
4  986 7544 6177 6175
4  567 574 566 7176
4  6342 6816 6818 6814
4  7329 7545 7546 7331
4  566 6282 7174 6816
4  7547 7548 7549 7550
4  7551 7174 6809 7176
4  7299 7129 7365 7300
4  7481 7482 7426 7367
4  7481 7425 7426 7421
4  7552 7425 7553 7426
4  7552 7553 7536 7426
4  7537 7536 7554 7426
4  7554 7553 7427 7426
4  7555 6558 6857 6559
4  6566 7556 6558 6554
4  6558 7556 7557 6559
4  7558 7559 7560 6559
4  7561 7323 7326 7562
4  7531 7563 7562 7564
4  7531 7565 6680 7562
4  7561 7326 6668 6671
4  7565 7561 6668 6671
4  6924 6644 6825 6765
4  6457 6644 6568 6458
4  6826 6825 7477 6568
4  6567 7477 6644 6568
4  7108 6824 7109 6825
4  7566 6824 6826 6568
4  7482 7418 7134 7421
4  7567 7087 6621 7134
4  7568 6621 7134 7130
4  7568 6621 7569 7134
4  7482 7418 7132 7134
4  7570 7567 6621 7134
4  7571 7572 7573 7172
4  7574 7510 6664 7575
4  7510 7512 7509 7514
4  7576 7510 7514 6666
4  7577 7510 6664 7511
4  7510 7500 7514 6666
4  7574 7510 7515 7511
4  7578 7579 7325 7323
4  7579 7326 7323 7562
4  7328 7326 7323 7327
4  7561 7328 7371 7326
4  7371 7326 7580 6669
4  7581 7371 7373 6669
4  6677 7580 7579 7326
4  6677 7580 7326 6669
4  6668 7371 7581 6669
4  6944 6294 6579 7055
4  7582 7186 7055 6945
4  7583 7584 7054 7055
4  6561 7585 6132 6563
4  7586 7585 7587 6563
4  7586 6132 7489 7194
4  6132 6129 7194 7585
4  7588 6129 7589 7585
4  7242 7465 7590 7591
4  7592 7591 7213 7593
4  7468 7590 7467 7591
4  7239 7590 7468 7591
4  7594 7595 7596 7597
4  7598 7597 7599 7385
4  7475 7598 7600 7597
4  7601 7602 7597 7385
4  7603 7604 7605 7606
4  7206 7607 7606 7608
4  7607 7229 7606 7608
4  7609 7605 7207 7606
4  7404 7610 7405 7269
4  6461 7611 7612 7610
4  7612 7611 7613 7610
4  7614 7610 7404 7269
4  7615 7281 7616 7617
4  7618 7617 7619 7620
4  7621 7619 7620 7622
4  7618 7616 7617 7620
4  7533 7552 7536 7426
4  7623 7624 7554 7536
4  7554 7536 7624 7553
4  7625 7552 7624 7536
4  7626 6648 6646 7627
4  7628 7627 7592 7593
4  7448 7447 7629 7627
4  7630 7631 7240 7627
4  7631 7627 7629 7593
4  6646 7240 7592 7627
4  6390 6917 6383 6384
4  7632 7622 7633 7634
4  538 541 6967 6917
4  538 6967 7168 6917
4  6857 6558 6871 7557
4  7635 6857 6294 7560
4  413 6289 6290 6291
4  6857 7557 7560 6559
4  6294 6857 7479 7560
4  7436 7636 7437 6552
4  7459 6373 7229 7457
4  7637 7638 7639 7228
4  7640 7638 7229 7608
4  7459 7229 7447 7457
4  7638 7606 7229 7608
4  7516 6680 7532 7641
4  7529 7530 7532 7641
4  7529 7642 7530 7641
4  7529 6680 7523 7641
4  7643 7523 7516 7641
4  7548 7549 7550 7641
4  7644 7645 7138 6871
4  7333 7548 7646 7330
4  7647 7648 6911 7185
4  7192 7184 6137 6138
4  7195 7194 7184 6138
4  7491 7649 7190 7489
4  7195 7191 7184 7489
4  7191 7190 7648 7185
4  6622 6623 7375 6624
4  7650 6624 6621 7087
4  6623 7650 7651 6624
4  6625 6624 6621 6620
4  7652 6853 6870 6872
4  7653 6855 6870 6853
4  7644 6871 6870 7556
4  6870 6872 6854 6863
4  6566 6870 6558 7556
4  6566 6558 6870 6186
4  686 6764 47 6925
4  7654 7112 7655 7142
4  7655 7112 6924 7142
4  7143 6924 6766 6925
4  687 686 685 7142
4  687 7143 686 7142
4  7656 7141 6335 7002
4  973 6335 57 7005
4  7656 7002 6335 7361
4  7012 7001 7002 7359
4  7656 7012 7002 7361
4  7004 7002 7001 7003
4  961 6828 7047 7048
4  6832 6827 6227 6828
4  6228 7049 7050 6316
4  6228 7047 6227 6316
4  6832 6227 7400 7047
4  7400 6227 6228 7047
4  968 706 961 7047
4  968 6315 706 7047
4  7344 6521 7445 6517
4  6521 7263 6462 7266
4  7270 7268 7265 7266
4  6519 7347 6517 6518
4  7657 7658 7659 7520
4  7443 7264 7347 7346
4  7059 6958 6956 6957
4  7347 6517 6518 7346
4  7660 7382 7661 7662
4  7663 7104 7664 7662
4  7665 6339 7660 7662
4  7395 7394 7309 7666
4  7395 7309 7310 7666
4  7667 7307 7398 7310
4  7668 7310 7308 7387
4  7669 6412 7308 7670
4  7667 7310 7386 7387
4  7671 7215 6233 6236
4  7668 7384 7310 7387
4  7672 7673 7600 7437
4  7674 7437 7673 7636
4  7675 7673 7672 7437
4  7674 7676 7673 7437
4  6645 7241 6648 6708
4  6645 7241 6646 6648
4  6647 6648 6450 6708
4  6973 7630 7241 6648
4  25 7118 6904 6246
4  7360 7358 7012 7359
4  7677 7656 7678 7361
4  7360 7012 7677 7361
4  992 973 346 7361
4  992 7679 973 7361
4  6482 6961 6963 6964
4  6311 7244 6207 6962
4  6961 7247 6963 6962
4  7249 7528 7247 6963
4  7680 6477 6485 6963
4  6757 6477 6963 6480
4  7680 6485 7528 6963
4  6636 7253 6683 7681
4  6707 6636 6974 7682
4  6637 6636 7358 6633
4  6636 7358 6683 6602
4  7683 7684 6397 7519
4  7685 6395 6401 6402
4  7686 7684 6537 6397
4  7686 6395 6396 6397
4  214 119 7683 6397
4  214 7683 7687 6397
4  7688 7302 7300 7301
4  7688 7302 7369 7300
4  106 108 7136 6685
4  7689 7302 7688 7690
4  7691 7368 7369 7302
4  7691 7369 7692 7302
4  7298 7302 7693 7690
4  7691 7369 7368 7534
4  6775 6374 6777 6769
4  7694 7335 6374 6375
4  6768 6771 6379 6769
4  6770 6374 6776 6769
4  6770 6374 7343 6776
4  7341 7343 6374 6776
4  7341 6374 7335 6445
4  6444 6374 7341 6445
4  6444 6270 6374 6375
4  7341 6271 6775 6374
4  7341 6374 6775 6776
4  7695 7696 7697 7222
4  7698 7696 7699 7700
4  7701 7696 7702 7700
4  7703 6219 7696 7222
4  7239 7592 6646 7240
4  7239 7240 7590 7591
4  7704 7705 7706 7238
4  7239 7707 7590 7238
4  6473 7241 7630 7240
4  7630 7448 7631 7627
4  7630 7240 7241 6648
4  7307 6415 7396 7309
4  7311 7393 6415 7309
4  6308 7708 7396 6415
4  6308 7708 6415 6365
4  6411 6415 6412 6365
4  6249 6248 6128 6419
4  6247 6248 6738 7038
4  7039 6248 7709 6419
4  6736 6738 7039 7038
4  6250 6738 6248 7709
4  7563 7323 7561 7562
4  7710 7711 7564 7539
4  7517 7578 7712 7564
4  7712 7532 7564 7546
4  7712 7564 7713 7539
4  7712 7546 7564 7539
4  7714 7423 7486 7715
4  7436 7675 7437 7636
4  7716 6714 7717 7715
4  7718 7719 7720 7715
4  7718 7716 7719 7715
4  7718 7720 7486 7715
4  6895 6909 6333 6844
4  7721 7656 6333 6844
4  7722 6909 6844 6700
4  6896 6842 6841 6844
4  7723 7656 6628 6844
4  6841 7722 6909 6844
4  6918 6919 6675 6920
4  6673 6674 6675 6920
4  6673 6920 6919 6437
4  7336 6920 7724 7725
4  7726 7405 7610 7269
4  7416 7540 7269 7406
4  7727 7267 7726 7269
4  7614 7727 7269 7266
4  6521 6462 7614 7266
4  6860 6627 6700 6697
4  7271 7416 7268 7269
4  780 6192 6196 6261
4  7267 7268 7540 7269
4  6998 6999 7115 6997
4  6999 6883 6212 7728
4  7576 7509 7519 7514
4  6999 7728 7000 6617
4  7115 6999 6212 7000
4  6999 7113 6212 7729
4  7730 7645 7644 7557
4  6999 6883 7731 7729
4  7732 7733 7720 7486
4  7488 7423 7734 7486
4  7488 7735 7484 7486
4  7485 7714 7423 7486
4  759 25 656 6405
4  7736 7373 7737 6576
4  7371 7372 7373 7327
4  6622 7372 6623 7373
4  7738 7737 7373 6576
4  6622 7373 6623 6620
4  7738 7737 7580 7373
4  7580 7737 6623 7373
4  7739 7382 6341 7708
4  7739 7381 7740 7382
4  7740 7382 7381 7378
4  7741 7379 7742 7382
4  6737 7039 6738 7709
4  7663 7661 7104 7662
4  7743 7744 7745 7746
4  7747 7748 7744 7746
4  7749 7750 7743 7744
4  7751 7747 7748 7744
4  7752 7753 7754 7755
4  7756 7322 7374 7755
4  7374 7375 7757 7755
4  7752 7757 7375 7755
4  7756 7322 7755 7411
4  6985 6992 6899 6900
4  7024 6985 6992 6981
4  7758 7577 7759 7511
4  7760 6992 6468 6981
4  6736 6740 6737 6735
4  6985 6468 6992 6981
4  7761 7093 7762 7763
4  6787 6790 7093 7763
4  7070 7071 6790 7763
4  7208 7764 7200 7209
4  7765 7764 7766 7767
4  7768 7765 7769 7764
4  7208 7769 7770 7764
4  7771 7764 7770 7767
4  7358 6683 6603 6969
4  7358 6683 6602 6603
4  7772 7569 7773 7420
4  7010 6603 6602 6605
4  6683 6682 6595 6604
4  6636 6683 7253 6602
4  7008 7010 6636 6602
4  6707 6636 7253 6602
4  7774 7775 7776 7777
4  6761 7260 7778 7777
4  6760 7260 6761 7777
4  7120 7775 7774 7777
4  6760 6741 7120 7777
4  7778 7775 6741 7777
4  7299 7305 7779 7129
4  7780 7781 7782 7305
4  7781 7783 7305 7129
4  7784 7782 7779 7305
4  7781 7783 7782 7305
4  7312 7314 7785 7315
4  7786 7314 7611 7787
4  7788 7789 7611 7314
4  7312 7316 7313 7315
4  7788 7785 7314 6463
4  7790 7314 7791 7315
4  7788 7314 7611 6463
4  7792 6157 7793 6158
4  7435 7186 7794 7187
4  7347 7263 6520 6517
4  7794 7186 6157 7187
4  335 374 6156 6577
4  413 414 553 6291
4  6944 6578 6579 6290
4  7186 6579 6578 7187
4  6578 6156 7187 6577
4  7480 7435 7187 6288
4  664 7480 7795 7187
4  664 665 7480 7187
4  7796 7776 7775 7777
4  7796 7797 7775 7776
4  6822 7798 6813 6803
4  7799 7800 7262 7258
4  7801 7802 7776 7258
4  7774 7797 7803 7776
4  7800 7776 7802 7258
4  7804 6571 7782 6570
4  7805 6619 6574 6570
4  7806 6570 7807 7783
4  7805 6570 6574 6572
4  7808 7809 6571 6572
4  7466 7199 7810 7463
4  7811 7812 7813 7463
4  7814 7815 7812 7463
4  7462 7467 7463 7464
4  7635 7555 7560 7636
4  7674 7673 7634 7636
4  7555 7636 7436 6552
4  7635 7555 6857 7560
4  6558 6871 6863 6293
4  6579 6288 6287 6290
4  7052 6578 6944 6290
4  7816 6294 6944 7056
4  7817 6255 6300 6301
4  7816 7052 6944 6294
4  7818 6966 7477 7110
4  7819 6702 6568 6548
4  6568 6547 6548 6459
4  6457 6568 6702 6459
4  6702 6568 6548 6459
4  6703 6638 6640 6459
4  7820 6640 6702 6548
4  7819 7820 6702 6548
4  7819 6568 7821 6548
4  6661 6515 6513 6662
4  7097 7098 6515 7095
4  6729 6987 7822 7823
4  6650 6512 7094 7100
4  7097 6515 6660 7095
4  7098 6514 6515 6510
4  7824 7605 7825 7826
4  7827 7828 7826 7829
4  7830 7831 7826 7318
4  7832 7831 7826 7833
4  7827 7826 7605 7829
4  7834 7835 7836 7700
4  7837 7838 7836 7835
4  7377 7376 7839 7835
4  7840 7835 7841 7666
4  7837 7839 7376 7835
4  7842 7843 7844 7845
4  7846 7847 7848 7844
4  7849 7842 7844 7845
4  7850 6971 7844 7845
4  7851 7847 7843 7844
4  7852 6771 7853 6772
4  7768 7769 7604 7209
4  7207 7604 7208 7209
4  7603 7768 7604 7209
4  7078 7852 7080 7079
4  6739 6733 6734 6735
4  6736 6737 7039 6738
4  6731 6738 6741 6735
4  7119 6738 7775 6741
4  6740 6741 6737 6735
4  6731 6733 6247 7038
4  6333 7656 7141 6335
4  7854 7656 6333 7678
4  7854 6895 6333 7656
4  6895 6908 6333 6909
4  7855 7721 6333 6909
4  7721 6934 6333 7141
4  7675 7673 7437 7636
4  7632 7633 7673 7634
4  7057 7856 7622 7634
4  7816 7635 7857 7634
4  7856 7633 7622 7634
4  7392 6676 6670 7389
4  7392 6676 7389 6679
4  7858 7859 6899 6425
4  6677 7492 7738 6669
4  7392 6668 6670 6671
4  7341 6445 7335 7337
4  7392 6670 6676 6671
4  501 6284 6394 6283
4  6350 6281 6332 6276
4  6281 6283 6332 6276
4  6285 6275 6284 6276
4  6350 6284 6275 6276
4  6564 7860 6553 6554
4  6561 7861 6413 7862
4  6562 6563 7649 6565
4  7860 7863 7864 7862
4  6557 6555 6566 6554
4  6555 7860 6556 7862
4  7865 6563 7863 6565
4  6273 6814 6342 6302
4  7272 6199 6198 6201
4  6273 6816 6342 6814
4  6199 6200 6208 6348
4  6207 6208 6204 6201
4  6342 6814 6818 6302
4  6311 6207 6817 6814
4  7866 7748 7744 7405
4  7867 7747 7868 7748
4  7407 7869 7748 7409
4  7415 7748 7407 7405
4  7415 7748 7867 7409
4  7615 7616 7281 7870
4  7871 7870 7633 7476
4  7615 7281 7280 7870
4  7615 7620 7616 7870
4  7872 7633 7620 7870
4  7873 6571 7806 7782
4  7806 7782 6571 6570
4  7808 6570 7805 6572
4  7804 7805 7808 6570
4  7874 7809 6569 6571
4  7875 7876 7877 6893
4  6935 6750 7875 6936
4  6937 7875 6928 6878
4  7878 7875 6936 7879
4  6937 6936 7875 7879
4  6449 7630 6973 6648
4  6472 6473 6475 7241
4  546 856 256 6854
4  6473 7630 7242 7240
4  6473 7242 7704 7238
4  7237 6646 7241 7240
4  6973 7241 6696 6708
4  7880 6475 7237 7241
4  7842 6373 7843 7845
4  7079 7881 7882 6327
4  7851 7847 7883 7843
4  6328 6727 6776 6726
4  7846 7843 7847 7844
4  6370 7844 7843 7845
4  7884 7780 7782 7885
4  7884 7782 6571 7885
4  7784 7885 7782 7886
4  7873 6569 7806 6571
4  7887 7808 7809 6571
4  7888 6504 6528 6530
4  7026 6532 6534 6528
4  7043 7026 6533 6528
4  7040 6529 6532 6528
4  7889 7890 7891 7498
4  7499 7891 7623 7892
4  7889 7890 7893 7891
4  7499 7498 7891 7494
4  7289 7223 7222 7224
4  7703 7894 6219 7222
4  7695 7701 7696 7895
4  7761 7070 6787 7763
4  7289 7222 7896 7224
4  7695 7222 7223 7895
4  7894 7896 7222 7224
4  7897 7898 7899 7900
4  7279 7897 7898 7901
4  7902 7903 7898 7904
4  7279 7898 7903 7284
4  7905 7898 7906 7904
4  6148 6174 6175 6181
4  21 6183 6846 6181
4  521 6174 20 6181
4  6846 6180 6148 6181
4  365 367 6179 6176
4  6148 6175 6174 6147
4  986 21 7907 6175
4  832 986 6177 6175
4  7908 7909 7910 7911
4  7912 7913 7914 7911
4  7915 7847 7911 7848
4  7914 7910 7909 7911
4  7915 7911 7913 7848
4  7734 7916 7716 7715
4  7917 7918 7420 7084
4  7082 7091 7083 7085
4  7917 7916 7734 7084
4  7918 6714 7083 7084
4  7697 7696 7919 6222
4  7919 6222 7696 7700
4  7699 7503 7838 6222
4  7920 6220 6222 6722
4  57 6335 7141 7005
4  605 7002 7005 7003
4  798 6934 7141 6335
4  973 7678 6335 7361
4  759 7921 6902 7019
4  57 798 7141 6335
4  209 6334 6335 7678
4  7922 7923 7403 6699
4  7924 7922 7256 6699
4  6859 6699 7925 6697
4  7922 7403 7256 6699
4  7926 7927 7928 6746
4  7179 6544 6229 6216
4  6228 6218 6215 6216
4  7400 6228 6227 6218
4  7929 6213 7930 6215
4  6545 7179 6228 6215
4  6214 6978 6215 6542
4  7120 7119 7775 6741
4  6404 6734 6741 6408
4  6404 6741 6759 6408
4  6760 6759 6404 6741
4  6731 6404 6734 6735
4  6737 7778 7775 6741
4  6760 6404 7120 6741
4  6899 6900 6424 6423
4  983 155 6426 6423
4  723 6901 6900 6424
4  7931 6900 6466 6421
4  6985 6899 6466 6900
4  7679 7677 7678 7361
4  7677 7656 7854 7678
4  6333 7656 6335 7678
4  7854 6333 6334 7678
4  972 209 973 7678
4  972 7932 209 7678
4  6356 6368 6361 6359
4  7155 6367 6369 6359
4  7021 6369 7933 6368
4  7934 6368 6991 6981
4  6980 7021 6981 6361
4  7024 6368 6360 6361
4  7935 7936 7937 7073
4  7504 6788 7937 6717
4  7938 7939 7940 7937
4  7938 7935 7939 7937
4  7938 7504 6788 7937
4  6788 7936 7937 6717
4  7941 7223 7596 7291
4  7942 7288 7287 7596
4  7594 7596 7476 7600
4  7474 7287 7941 7596
4  7943 7900 7340 7944
4  7218 7340 6727 6776
4  7218 7340 6773 6727
4  7945 7946 7340 6773
4  7103 7812 7811 7106
4  7465 7591 7947 7464
4  7462 7467 7811 7463
4  7465 7814 7948 7467
4  7465 7467 7590 7591
4  7811 7467 7812 7463
4  6326 7096 6791 6783
4  7949 6791 6326 7096
4  7070 7072 7071 7763
4  7079 7950 6326 6723
4  7950 7949 6326 7099
4  6326 6791 6329 6783
4  7950 6326 6723 6724
4  672 7951 7952 7876
4  7953 7613 7611 7610
4  7953 7866 7613 7405
4  7866 7744 7613 7405
4  7612 7613 7751 7405
4  7667 7308 7310 7387
4  7954 7955 7387 7956
4  7955 7385 7387 7956
4  7957 7386 7385 7387
4  7441 7387 7957 7956
4  6749 7926 7958 6746
4  6771 6777 6379 6769
4  6770 6772 7853 6769
4  7080 7079 7852 6772
4  7959 7828 7826 7318
4  7908 7960 7909 7828
4  7961 7847 7828 7829
4  7908 7909 7911 7828
4  7961 7847 7911 7828
4  7632 7621 7633 7622
4  7816 7057 7622 7634
4  6951 7962 7619 7622
4  7816 7057 6947 7622
4  7856 7633 7962 7622
4  7963 7619 7621 7622
4  6987 7823 6774 7498
4  7964 6773 7965 6774
4  6728 6773 7964 6774
4  6656 6655 7823 6774
4  7915 7846 7847 7848
4  7851 7848 7847 7844
4  7966 7915 7913 7848
4  7912 7911 7847 7848
4  7066 7069 7068 7067
4  6819 7157 7065 6592
4  7157 7068 7066 7069
4  7066 6586 6592 7075
4  7066 6586 6916 6587
4  6819 7065 6588 6592
4  626 6779 6780 6589
4  7066 7074 6767 6590
4  7522 6679 6678 6680
4  7516 7523 6680 7641
4  7529 7531 7565 6680
4  7529 7531 6680 7532
4  7517 6680 6678 7562
4  7517 6678 7579 7562
4  7565 6679 6680 6671
4  6820 7967 6821 6799
4  6796 6808 6821 6799
4  7399 6808 6930 6747
4  6819 6821 7399 6747
4  6807 6808 6821 6747
4  6806 6820 6807 6821
4  7968 7007 7969 6465
4  6460 6465 7970 6463
4  7971 7970 6460 6465
4  6864 6271 7341 6374
4  7970 6465 7785 6463
4  7970 6465 7969 7785
4  7832 7972 7317 7833
4  7832 7826 7825 7833
4  7972 7973 7974 7833
4  7972 7975 7973 7833
4  7825 7603 7975 7604
4  7976 7977 7604 7833
4  7825 7605 7604 7833
4  7259 7924 7256 7111
4  7477 6966 7111 7110
4  7254 6642 6641 7111
4  7978 7256 7979 7111
4  7978 7979 7855 7111
4  6653 6654 6657 6652
4  7855 7979 6966 7111
4  7356 6195 6381 7116
4  6263 6189 7117 6376
4  7694 6382 6375 6376
4  6270 6263 6379 6376
4  6378 7694 6379 6376
4  6382 6194 6381 6195
4  6380 7356 6381 7117
4  6451 6453 6455 6454
4  7980 7965 7890 7904
4  7980 7904 7890 7981
4  7893 7891 7890 7981
4  7982 7980 7890 7981
4  7962 7620 7619 7622
4  7983 7621 7619 7620
4  7618 6675 7619 7617
4  7618 7619 7962 7620
4  7621 7620 7633 7622
4  7872 7633 7870 7476
4  7816 7622 7632 7634
4  7816 7621 7632 7622
4  7962 7871 7620 7633
4  7962 7633 7620 7622
4  7856 7673 7633 7634
4  6370 7851 7883 7843
4  6370 7851 7843 7844
4  7984 7908 7911 7828
4  6826 7477 6825 7110
4  7912 7911 7961 7847
4  7912 7961 7851 7847
4  7985 6756 7460 7295
4  7986 7846 7915 7848
4  7986 7846 7848 7844
4  6762 6447 7682 6754
4  7987 6531 6974 7682
4  7988 7143 7469 6766
4  7165 7164 6263 6476
4  6417 6265 6261 6190
4  779 6417 923 6261
4  7214 6548 7989 6236
4  7125 7117 6265 6188
4  923 967 6261 6265
4  7164 6263 6264 6265
4  7566 7819 6824 6568
4  7990 7164 6264 6265
4  6555 6565 7860 7862
4  7863 6413 7991 7862
4  6561 7587 6563 6413
4  6561 7587 7585 6563
4  7865 7863 7860 6565
4  6562 7489 7649 6563
4  6561 6132 6562 6563
4  6466 6899 7859 6421
4  6466 7992 7859 6467
4  6269 7859 6691 6467
4  7992 6421 7859 6712
4  7992 6691 7859 6467
4  735 332 363 6386
4  7245 7248 7251 7247
4  7251 7015 7993 7525
4  7251 7993 7526 7525
4  7524 7251 7248 7247
4  7246 7249 7247 6962
4  7994 7603 7606 7209
4  7609 7228 7605 7606
4  7995 7229 7607 7608
4  7456 7640 7638 7229
4  7459 6373 6371 7229
4  7995 7216 7996 7608
4  7640 7996 7212 7608
4  7658 7997 7659 7520
4  7998 7868 7999 7763
4  7745 7868 7999 7746
4  7288 7223 7289 7291
4  7595 7289 7288 7223
4  7595 7695 7223 7895
4  7703 7223 7222 7895
4  8000 7223 7703 7895
4  629 7096 7101 6783
4  7099 7101 7096 6783
4  7949 6326 7099 7096
4  7949 7881 6326 6791
4  7881 6327 6326 6791
4  8001 6792 7881 6791
4  6466 6469 6468 6986
4  8002 8003 8004 6986
4  8005 6986 7429 7023
4  6980 8005 7023 6982
4  8005 8003 7429 6986
4  7477 7111 6644 7110
4  6859 6700 7721 7979
4  7721 6700 6909 7979
4  7924 7979 7256 7111
4  6859 6700 7979 6699
4  6698 7924 7979 6699
4  390 6331 6242 6322
4  6133 6331 7293 6322
4  7453 6249 6133 6131
4  6133 7293 6136 7037
4  7036 6128 7037 6248
4  6133 7037 6128 6248
4  6246 6322 6242 6243
4  6133 6131 6128 6130
4  318 317 319 7158
4  7159 6134 7160 7158
4  317 694 7161 7160
4  6136 6330 6331 7158
4  6653 7945 6654 6651
4  6649 7099 6650 6507
4  7945 6328 6649 6727
4  363 6386 6154 6387
4  6649 6328 6723 6725
4  6649 6326 7099 6724
4  6538 8006 6690 6280
4  6539 6403 6687 8007
4  6279 6687 6689 6280
4  6538 6687 6689 7886
4  6538 6539 6687 7886
4  7329 8008 7546 7545
4  8008 7539 7546 7545
4  7197 7265 7444 7545
4  7334 7546 8009 7545
4  374 7187 6156 6577
4  6704 6705 6641 8010
4  6943 6154 6873 6578
4  372 6157 6158 6155
4  323 6154 6578 6156
4  7052 7053 6944 6578
4  372 374 6157 6156
4  7377 8011 7841 7835
4  7380 7377 7841 7378
4  7740 7381 7841 7378
4  7397 7381 7380 7841
4  8011 7841 7835 7666
4  7740 7381 7394 7841
4  7394 7840 7841 7666
4  7371 7580 7326 7327
4  7414 7755 7408 7409
4  7417 7324 8012 7411
4  7321 7414 7322 7411
4  7372 7370 7375 7327
4  7370 7322 7414 7755
4  7370 7375 7322 7755
4  7810 7463 7199 8013
4  8014 7767 7771 8013
4  7771 7199 7200 7764
4  7766 7199 7771 7764
4  8014 7766 7771 7767
4  7329 7546 7330 7331
4  7170 7154 7333 7331
4  7329 7546 7530 7330
4  7572 7331 7573 7172
4  7169 8015 7154 7172
4  7572 7197 7545 7331
4  8016 7319 8017 8018
4  8017 8019 7993 8018
4  8016 7320 7319 8018
4  8020 8019 7960 8018
4  8021 8020 8018 7525
4  8020 8019 8018 7525
4  8020 7960 7320 8018
4  7680 7528 7249 6963
4  7966 7042 7913 6485
4  6757 6478 6480 6964
4  7966 6630 7042 6485
4  6630 7042 6485 6486
4  7276 7024 6360 6357
4  8005 6986 7023 6982
4  7278 7024 6985 6901
4  7984 7824 7959 7828
4  7824 7605 7826 7829
4  8022 7639 7824 7829
4  7846 8022 7984 7847
4  7846 8022 7847 7843
4  7883 7961 7827 7829
4  7961 7828 7827 7829
4  7883 7609 6371 7228
4  7822 6987 7497 7823
4  7638 7228 7229 7606
4  8023 6574 7737 6576
4  8023 6574 6576 6572
4  6575 7736 6574 6576
4  6573 6574 6619 6570
4  7817 6301 8024 8015
4  7817 6258 6255 6301
4  6301 7153 6298 8015
4  8025 6301 7102 6251
4  8024 6301 6298 8015
4  8026 7879 7550 8027
4  8028 8026 7550 8027
4  6929 8029 8027 6931
4  8030 6931 8027 7390
4  8030 7390 8027 7523
4  364 372 6158 6155
4  363 6387 6154 6153
4  6955 6874 6154 6387
4  8031 6154 6943 6578
4  6874 6154 6387 6153
4  8032 7900 7905 7965
4  7902 7905 7900 7965
4  8033 7890 8034 6774
4  7889 7964 8035 7890
4  8034 7946 6773 7965
4  7152 7330 7333 7331
4  7334 7330 7546 7331
4  7530 7710 7532 7546
4  7572 7444 7270 7545
4  7197 7334 8009 7545
4  7531 7532 7710 7564
4  8008 7710 7546 7539
4  8009 7546 7712 7539
4  7874 8036 6569 7809
4  8037 7808 8023 6572
4  6575 8038 6576 6572
4  7887 7884 6571 8039
4  7874 7809 6571 8039
4  8040 7431 7433 7809
4  7887 7809 8003 8039
4  8040 8003 7431 7809
4  7433 7431 8037 7809
4  6212 7114 7113 6830
4  850 6829 7114 8041
4  8042 6209 6829 8041
4  6209 6212 6211 6829
4  6211 6212 6827 6829
4  526 464 850 6829
4  526 6831 464 6829
4  6193 6921 6446 6815
4  6193 6446 6921 6440
4  6388 6446 6390 6389
4  6390 6446 6921 6391
4  6388 6955 6874 6958
4  7454 6446 6388 6389
4  8043 7878 8044 7875
4  7602 7597 7385 7895
4  7698 7895 7696 7702
4  7602 7701 7895 7702
4  7599 7385 7895 7702
4  7221 7703 7223 7222
4  7599 7895 7698 7702
4  8045 6631 8046 6139
4  7235 7234 7236 6958
4  6388 6958 7060 6957
4  6388 6389 6390 6384
4  6347 7192 6343 6138
4  6388 6958 6957 6950
4  6955 6943 6873 6954
4  6955 6873 6943 6154
4  7506 7821 6488 6547
4  7292 7461 6343 6330
4  6732 6903 6902 6321
4  8047 8048 7999 7746
4  8047 7999 7998 7746
4  7869 7999 7745 7868
4  8049 8050 7820 6640
4  880 6709 6185 6186
4  7743 8048 8051 7746
4  7749 8051 8047 7746
4  7747 7749 8047 7746
4  7270 7265 7444 7264
4  7347 7264 6517 7346
4  7171 8052 7444 7346
4  7169 7154 7170 7172
4  731 6864 6385 6922
4  7572 7444 7197 7172
4  7171 7197 7443 7444
4  7270 7444 7265 7545
4  7443 7265 7263 7264
4  8053 7571 8052 7444
4  8053 7345 7571 7444
4  7139 7478 6579 6287
4  7501 8054 8055 7575
4  8056 7901 8057 7725
4  6664 6667 7500 6666
4  6749 8058 7064 6584
4  7648 7491 7653 7190
4  7501 7574 8054 7575
4  8055 7575 8054 6667
4  6317 7047 6228 6316
4  474 357 993 6866
4  7510 7575 7512 7500
4  7252 7524 8021 7015
4  8059 7512 7574 7575
4  562 7575 6667 7500
4  562 8059 7575 7500
4  983 766 723 6424
4  6728 6773 6655 6727
4  7338 7945 7946 7340
4  7946 7900 6773 7965
4  8034 7946 6653 6773
4  8034 7965 6773 6774
4  6566 6562 6855 7649
4  8060 7586 7649 7489
4  161 953 6522 6524
4  7865 7649 7586 6563
4  8061 7556 6855 7649
4  8062 6564 7556 7649
4  7491 6855 7190 7649
4  8063 8060 8062 7649
4  7039 7709 8064 6419
4  7119 7775 6738 7709
4  6737 7775 8065 7709
4  574 905 976 7177
4  6757 6477 7202 6869
4  8066 8067 8068 7981
4  7906 8067 7904 7284
4  834 596 481 6297
4  6199 7202 6349 6752
4  752 20 378 6187
4  7906 8069 8067 7284
4  7963 7983 7621 7619
4  6573 6618 7807 6619
4  8070 8067 7904 7981
4  7189 6312 6848 6313
4  645 506 646 8071
4  645 8072 6588 6780
4  6807 6935 6591 8072
4  6807 6591 8073 8072
4  8073 8072 6591 6588
4  6802 6353 6817 6811
4  6802 8074 6817 6353
4  6311 6817 6207 7244
4  6663 7577 6664 8075
4  8076 7243 6207 6817
4  946 7062 6778 6590
4  6207 6813 6817 6814
4  8026 6432 6839 6876
4  7274 6481 8077 6479
4  6355 6814 6817 6811
4  7631 7240 7627 7591
4  7707 8078 7590 7705
4  7242 7631 7465 7591
4  8078 7468 7590 7467
4  7189 6848 6693 6313
4  6611 8079 6613 6612
4  749 565 569 6692
4  7242 7465 7948 7590
4  6545 6228 7179 7050
4  8040 7431 8003 7429
4  8002 7429 6986 7023
4  8080 8081 7045 6631
4  7431 8082 7428 7430
4  8002 7429 8003 6986
4  7966 7680 6865 6630
4  6983 6468 8083 6467
4  6466 6899 6468 6467
4  8084 6468 6899 6467
4  6268 8083 8084 6467
4  7273 6965 6481 6478
4  6866 6477 6869 6720
4  444 6865 6866 6867
4  6865 7544 6630 6177
4  8085 8086 8087 7681
4  932 6720 6865 6867
4  6719 6178 6607 6179
4  6719 6868 6720 6718
4  6477 7202 6869 6720
4  6599 7547 8088 6600
4  6992 6424 6901 6898
4  7276 6360 6994 7146
4  7024 6992 6901 6898
4  6992 6426 6899 6424
4  6742 6749 6584 6586
4  723 726 7931 8089
4  7278 6985 7024 7023
4  8090 7498 8091 7494
4  6983 6986 8005 6982
4  6985 6466 6899 6468
4  8092 7535 7892 7534
4  6858 7140 6859 7141
4  8087 7987 6634 7681
4  7533 7367 7536 7534
4  7298 7368 7691 7302
4  8081 8045 6938 6607
4  7693 7689 8093 8094
4  8095 6744 6742 6743
4  7495 7892 8096 7534
4  7535 7368 7533 7534
4  7872 7621 7620 7633
4  301 454 741 6913
4  7983 8057 7615 7617
4  8097 7616 7281 7617
4  7133 7772 7481 7421
4  7724 7617 8097 7725
4  8080 8045 8081 6631
4  8098 8099 7104 7664
4  454 7203 6781 6782
4  8057 8097 7617 7725
4  7983 7619 6675 7617
4  7946 7900 7340 6773
4  8093 7501 7574 8100
4  7473 7872 7474 7476
4  7338 7340 7944 7337
4  8056 7944 7901 7725
4  7338 7900 7897 7944
4  6166 6170 6891 6882
4  7957 7667 7386 7387
4  6470 7007 6465 6463
4  7206 7208 7200 7209
4  7342 7944 8056 7725
4  7395 7666 7386 7702
4  7943 7899 7900 7944
4  6861 6637 6628 6627
4  343 155 676 6422
4  7984 7959 7908 7828
4  6219 7505 6221 6220
4  6635 6637 6627 6629
4  6843 6627 6695 6700
4  7742 7379 7380 7382
4  407 8101 997 8102
4  8101 8103 7453 6131
4  7533 7481 7425 7426
4  7917 7082 7916 7084
4  6635 6972 6627 6696
4  6695 6627 6972 6696
4  7165 6379 6777 6476
4  7882 6777 6792 6912
4  802 6913 6271 6272
4  8058 6584 8104 6779
4  8105 8106 7043 6528
4  771 6498 7144 6506
4  7882 7166 6777 6912
4  1016 301 913 6912
4  1016 913 7163 6912
4  7345 7572 7571 7444
4  7237 6475 8107 7238
4  7237 7241 6475 7238
4  6701 6474 7923 6475
4  6930 6931 6808 7390
4  6701 6475 7923 6697
4  7880 6475 6696 6697
4  7155 6504 6367 7156
4  6522 8108 6526 6524
4  890 7144 7065 7146
4  7025 6532 7075 6534
4  7025 7026 6532 6534
4  6916 7063 6534 7067
4  6279 8109 8110 6687
4  8030 7391 6805 7390
4  6532 6534 6528 6525
4  6529 6523 7074 7067
4  81 7575 8055 6667
4  8111 7305 7299 7301
4  7075 6534 6532 7067
4  7356 7354 6382 6195
4  6533 7026 6534 6528
4  6535 6534 7063 6525
4  7994 7209 7216 7201
4  7466 8112 7199 7464
4  7211 7198 7212 7201
4  7211 7462 7199 7464
4  7216 7947 7593 7201
4  7339 6775 6328 6776
4  7211 7464 7199 7201
4  8113 7235 7059 7234
4  7213 7212 7593 7201
4  8114 6339 8115 7802
4  7454 8116 6673 6920
4  7801 7802 8115 7776
4  596 535 6436 7102
4  7801 7542 7802 7258
4  6315 6317 6312 6314
4  7665 6339 8114 7802
4  6550 7251 7245 7248
4  7736 6574 7737 6620
4  7804 8117 6570 7783
4  7352 7472 8118 7049
4  7402 7800 7802 7258
4  988 890 7065 7146
4  7157 7066 7065 6592
4  7348 8053 7521 8119
4  7345 7270 7572 7444
4  6926 6875 6878 6894
4  7131 7366 7132 7128
4  7481 7422 7425 7421
4  6360 7144 6994 7146
4  7077 6915 6535 6916
4  7561 7371 6668 7326
4  7402 8120 7542 7802
4  8121 7570 7650 6621
4  7665 8114 8120 7802
4  46 6704 8122 8010
4  6956 6959 6919 6950
4  7963 6947 6943 6949
4  6672 6943 6955 6949
4  6388 6957 6919 6950
4  6943 6949 6947 6946
4  8032 6773 7900 7965
4  7980 7902 7965 7904
4  6608 7204 6938 6719
4  8123 7015 8016 8124
4  871 1000 135 8050
4  7729 6885 7114 8041
4  6613 6612 6518 6614
4  7007 7006 7790 7785
4  7897 7900 7899 7944
4  67 583 937 6605
4  8032 7899 7905 7900
4  7338 7897 8056 7944
4  7338 7340 7900 7944
4  7943 7899 8032 7900
4  8000 7703 7599 7895
4  7246 6757 7249 6962
4  6968 6684 6681 6604
4  7338 7946 7897 7900
4  6704 6457 6705 8010
4  7455 7637 7842 6373
4  6386 6955 6154 6387
4  521 21 986 6175
4  544 356 474 6752
4  6637 6633 7012 6628
4  7907 7849 7986 6148
4  7045 6483 8125 6486
4  6943 6944 7186 6945
4  541 363 364 6153
4  7053 7963 6944 6578
4  990 546 176 7652
4  6386 6955 6672 6154
4  6943 6945 6954 6946
4  7441 7669 7667 7308
4  8126 7232 8127 7000
4  6672 6675 7619 6949
4  6955 6954 6950 6946
4  943 6292 6709 6293
4  7724 6920 6675 7725
4  7883 7829 7609 7228
4  7325 8012 7323 7322
4  7191 7184 7190 7185
4  6193 6416 6921 6815
4  6728 6987 6655 6774
4  6673 8116 6674 6920
4  6672 7983 7619 6675
4  6672 6674 7983 6675
4  6951 7619 6959 6949
4  6951 6947 7057 7622
4  6740 7778 6737 6741
4  6674 7617 6675 7725
4  7218 6773 6728 6727
4  7882 6777 6327 6792
4  6350 6352 6281 6274
4  6864 8128 7341 6271
4  8129 7881 7949 6791
4  6802 6354 6353 6811
4  8074 6817 6353 6351
4  6804 8130 6802 6354
4  6802 8130 6353 6354
4  8130 6352 7349 6353
4  6352 6351 6353 6274
4  852 946 813 6767
4  8106 8131 7040 7888
4  6786 6785 6897 6426
4  983 6426 6897 6424
4  789 766 983 6897
4  6995 8132 6991 6897
4  6995 6991 7145 6898
4  766 6995 7145 6898
4  7573 7153 8025 7172
4  789 6786 6995 6897
4  6210 7232 8126 7000
4  6560 6562 6566 6565
4  6557 6566 6558 6554
4  6185 6566 8133 6856
4  8095 6743 6742 7075
4  6557 6566 6185 6186
4  6870 6871 6558 7556
4  125 6835 307 6894
4  406 6928 7877 6879
4  7875 7877 6928 6877
4  258 406 7877 6879
4  125 6877 258 6893
4  274 903 6911 6851
4  274 6911 273 6851
4  7190 6911 6850 6852
4  7021 7934 8134 6981
4  903 694 7160 6851
4  7160 6911 6851 6850
4  6748 7927 6746 6747
4  8106 7888 7040 6528
4  7040 6504 6529 6528
4  694 857 6849 6851
4  6529 7067 6532 6525
4  7027 7040 6529 6532
4  6527 6496 7888 6530
4  161 6522 83 7063
4  7027 6532 6529 7069
4  7025 8135 7075 6532
4  6916 7074 7062 7063
4  6533 7026 7044 6534
4  7044 7026 7025 6534
4  7811 7812 7467 7106
4  7573 7152 7154 7331
4  7173 7332 7333 7154
4  6649 6655 6727 6725
4  6649 6724 6507 6655
4  6729 7823 6724 6655
4  6987 7823 6655 6774
4  7219 6724 6723 6725
4  6310 7246 7248 6962
4  6728 7964 6987 6774
4  7964 7965 7890 6774
4  6730 6727 6728 6725
4  7447 7995 7629 7996
4  710 749 709 7189
4  8136 7177 6823 6818
4  327 149 8118 7050
4  7640 7229 7996 7608
4  7458 7640 7229 7996
4  7447 7629 7627 7996
4  7629 7216 7593 7996
4  7628 7626 7627 7996
4  7177 6810 6818 6816
4  501 6285 6284 6276
4  7628 7593 7212 7996
4  6695 6698 6700 6697
4  7257 8137 7256 7403
4  7978 7254 7256 7111
4  7259 7256 7255 7111
4  6209 6212 6829 8041
4  357 6866 6869 6867
4  6802 8130 8074 6353
4  7259 7924 7401 7256
4  7401 7255 7256 7258
4  7254 6641 7255 7111
4  7922 7401 7256 7403
4  7338 7339 7945 7340
4  639 562 77 6667
4  7761 6787 8138 7093
4  8139 6380 8140 7117
4  7948 7590 7467 7106
4  6382 6381 6194 6376
4  7125 7117 6263 6265
4  7124 8140 7125 7117
4  6194 6381 6195 6191
4  8139 7124 7356 7117
4  6551 7441 7442 7438
4  6740 6734 6741 6735
4  826 6660 7188 6665
4  6731 6404 6732 6734
4  8033 6774 6656 7498
4  6404 6759 6409 6407
4  8141 7969 8142 7785
4  6377 6380 6378 6376
4  6270 6379 6374 6376
4  6545 6319 7050 6320
4  6312 6317 6848 6319
4  41 95 98 6885
4  6378 7853 6768 6769
4  7352 6229 6544 7013
4  7164 7125 6263 6265
4  7077 6742 6915 6916
4  6214 7016 6546 6544
4  6377 6378 6768 6379
4  7718 7716 7505 7719
4  7718 7505 7894 7719
4  7894 7719 7896 7224
4  658 843 824 6286
4  7025 8135 6743 7075
4  710 6312 7189 6313
4  7246 7252 6541 7248
4  7227 7733 7719 7224
4  6333 6335 6934 6336
4  7227 7718 7719 7733
4  7720 7719 7717 7715
4  7350 7351 8124 7969
4  7350 8143 7351 7969
4  7985 7458 7456 7457
4  7470 6226 7351 8144
4  7470 7351 8143 8144
4  8004 8003 6469 6986
4  8004 8003 7874 8039
4  7992 8006 6691 6690
4  7874 8003 7809 8039
4  8145 8003 6469 8039
4  7887 7431 8003 7809
4  6798 6670 6676 7389
4  6798 7492 6676 6670
4  7934 8146 8132 6991
4  6742 6916 6586 6585
4  6794 7389 6798 6799
4  7433 8038 8082 6795
4  645 506 8071 8072
4  6793 7492 8038 6795
4  988 490 890 7146
4  7105 7814 7812 7106
4  83 7543 946 7063
4  7432 6794 6793 6795
4  6637 7358 7012 6633
4  665 6289 6288 6577
4  8147 7360 7361 7359
4  6953 7057 6951 6947
4  230 72 180 7095
4  7723 7656 7012 6628
4  6861 6637 7012 6628
4  6637 7004 7012 7010
4  741 8128 802 6271
4  973 7679 7678 7361
4  7478 7582 6579 7055
4  6861 7012 6637 7004
4  7752 7757 8138 7090
4  6771 7882 7166 6777
4  7651 7090 7757 7375
4  735 418 731 6385
4  967 6264 913 6262
4  7752 7757 7090 7375
4  7757 7086 7092 7090
4  7651 7086 7757 7090
4  7044 7025 7077 6534
4  6857 6287 7479 7557
4  8148 8063 8062 8061
4  7586 6132 7585 6563
4  7089 6624 7086 7087
4  6636 7253 7681 7682
4  6707 6636 6635 6974
4  6584 6780 8104 6779
4  7009 6637 6635 7010
4  7009 6860 6637 7004
4  6860 6637 6861 6627
4  6637 7358 6636 7010
4  6861 7656 7012 7004
4  7454 6446 6389 6922
4  176 273 274 8149
4  990 8150 611 6872
4  8151 7285 8069 7284
4  8152 8153 7226 7285
4  8069 7285 7290 8154
4  8152 8067 8069 7284
4  273 256 857 6852
4  8151 8155 8069 7285
4  7286 8152 7226 7285
4  6164 6990 8045 6149
4  7286 7285 8155 7282
4  7986 7848 6140 7844
4  856 6186 6910 6854
4  6146 6140 6139 6142
4  7986 6146 6148 6140
4  6146 6148 6140 6142
4  8156 7850 6141 6140
4  8125 8157 6140 7042
4  7544 6146 6630 6177
4  6929 6931 6936 6932
4  6749 7958 8043 6746
4  334 412 335 7053
4  7928 6929 6936 6932
4  900 664 665 7480
4  8043 6936 6750 6746
4  7958 7928 8043 6746
4  7661 7383 7104 7378
4  6444 6193 6270 6375
4  8158 8099 7705 7664
4  7044 8095 7077 7025
4  8159 8062 6564 7556
4  615 611 8150 6862
4  848 780 849 6196
4  541 418 363 6153
4  8158 7104 7103 7106
4  8098 7664 7104 7662
4  7379 8098 8099 7104
4  7661 7379 7104 7662
4  7661 7382 7379 7662
4  7379 8099 7105 7104
4  373 374 664 7795
4  7832 7972 8160 7317
4  7832 8160 7313 7317
4  8161 7317 7831 7318
4  7316 7832 7313 7317
4  7831 7317 7974 7833
4  7832 7826 7831 7318
4  8161 7791 7317 7315
4  7714 7717 6714 7715
4  8129 8001 7881 6791
4  7508 7684 7576 7509
4  6771 7079 6327 6772
4  286 8001 287 6792
4  8162 7882 6792 6912
4  454 458 7203 6782
4  286 301 8162 6792
4  286 630 287 8001
4  6263 6379 6476 6272
4  301 6912 6792 6913
4  6998 6996 6617 6997
4  7180 6226 6224 6216
4  7115 6224 6226 6997
4  7470 6998 6226 8144
4  8127 7000 8163 6997
4  7642 7641 7332 7330
4  8164 6226 6996 8144
4  6223 6226 8164 6229
4  744 6834 262 6835
4  958 837 6254 6252
4  6160 6151 6892 6165
4  7030 8165 7032 7031
4  8017 7319 8166 8018
4  7312 7320 7316 7315
4  6927 6937 6928 6878
4  6159 6151 6161 6149
4  723 1028 726 8089
4  6591 8072 6584 6588
4  7312 7785 7319 7315
4  8141 8142 7319 7785
4  7320 7319 8166 7315
4  7276 7278 7024 6357
4  771 1005 852 7196
4  645 814 813 8073
4  7414 7753 7755 7409
4  6819 7065 8073 6588
4  813 988 890 6767
4  8167 7750 7613 7744
4  7866 7745 7743 7744
4  7408 7754 7869 7409
4  7415 7406 7407 7409
4  7415 7747 7867 7748
4  7867 7868 7753 7409
4  6707 7253 6636 7682
4  6763 6756 6448 6450
4  414 7052 6292 6290
4  6763 6756 6754 7295
4  6880 6754 7295 6882
4  6164 6161 6171 6173
4  612 6862 8168 6288
4  323 335 372 6156
4  7253 6880 6887 6754
4  6163 8046 6162 6139
4  6447 6754 6763 6450
4  412 7052 414 6290
4  6824 7469 7109 6825
4  8169 8120 8170 7403
4  7474 7280 7286 7287
4  8114 7542 8170 8120
4  7665 8171 8120 7664
4  856 6186 6185 6910
4  6732 6404 6406 6408
4  274 273 903 6851
4  7397 7380 7377 7841
4  612 665 553 6289
4  7653 7190 6855 6853
4  414 6292 943 6291
4  8171 7706 8120 7664
4  8170 8172 8120 7706
4  6340 8115 6339 7797
4  7803 8115 6339 7802
4  7195 7586 8060 7489
4  6442 6437 6445 6439
4  7871 7633 8173 7476
4  7665 7660 7663 7662
4  8174 8064 6306 6419
4  553 943 880 6293
4  7703 7696 7698 7895
4  7190 6911 7185 6850
4  6562 7190 6850 6852
4  8149 7647 7648 6911
4  7041 7293 6330 6322
4  7466 7199 7463 7464
4  7741 6341 6339 7662
4  6340 6339 7741 6341
4  7723 6628 6842 6844
4  6338 7660 6339 6341
4  21 7907 6175 6181
4  6739 6740 6736 6735
4  7665 8114 6339 7662
4  8133 6560 8175 6856
4  256 8175 6856 6910
4  8175 6856 6562 6849
4  6849 6850 6851 6852
4  7103 7105 7812 7106
4  60 798 987 7140
4  6566 6855 6856 6186
4  6185 6186 6856 6910
4  6855 6853 7190 6852
4  6641 7260 7262 7255
4  8176 7293 7041 7037
4  6133 7037 6127 6128
4  6804 6801 8177 6354
4  8178 8179 6345 7037
4  878 856 880 6185
4  7819 7820 8180 6702
4  8181 7353 8182 6732
4  6345 6136 7037 6127
4  8023 6576 8038 6572
4  7492 8038 8023 6576
4  7433 8037 8036 7809
4  6793 6575 8038 6576
4  7279 7281 8183 7282
4  7860 6556 6551 6554
4  6418 6338 8184 8185
4  7279 7280 7615 7281
4  7279 8183 7281 7901
4  7279 7615 8057 7281
4  8183 7616 8186 7281
4  8014 7199 7463 8013
4  6801 6354 6802 6811
4  7103 7376 8187 7812
4  6315 7400 6317 7047
4  8188 7348 8189 7731
4  7103 7105 7376 7812
4  8078 7103 7811 7106
4  8190 8191 6611 8192
4  7814 7467 7812 7106
4  958 43 684 7451
4  6611 8193 8192 6612
4  7105 7814 8194 7812
4  8020 7960 8019 7910
4  7830 7960 8166 7318
4  8195 6210 6209 6883
4  7182 6213 6215 6218
4  8196 7064 8058 6779
4  7959 7960 7828 7318
4  8020 7908 7960 7910
4  8197 7043 6533 6528
4  7959 7320 7960 7318
4  8140 6263 7117 6376
4  6416 6196 6192 6191
4  6819 6820 8198 7967
4  1035 620 626 8196
4  7543 6535 6915 7063
4  849 6192 6815 6196
4  7452 6883 8041 6257
4  8199 6835 6893 6836
4  7543 6522 6535 7063
4  7452 6883 6209 8041
4  7642 6875 6940 6432
4  6209 6883 6212 8041
4  1005 161 852 7196
4  6212 7114 6829 8041
4  645 8072 8073 6588
4  42 41 8200 8041
4  42 8200 8042 8041
4  569 825 824 6337
4  567 905 574 7176
4  6539 8201 8110 7303
4  6539 8201 7303 7301
4  474 6869 6303 6752
4  569 6282 6337 6283
4  7784 8111 6539 7886
4  569 6282 6283 6694
4  6541 6543 8202 6545
4  7303 7305 7780 7886
4  7303 7781 7780 7305
4  6689 7780 7885 7886
4  710 131 704 6314
4  704 6315 6312 6314
4  961 6833 7047 6828
4  6538 6689 7885 7886
4  7780 7782 7885 7886
4  6312 6317 6319 6314
4  8126 7183 6832 6827
4  7007 7785 6465 6463
4  7470 7115 7180 6226
4  6516 6460 6521 6464
4  6520 6517 6462 6464
4  6470 6464 6462 6463
4  6471 6462 7611 6463
4  7614 6462 7727 7266
4  6520 7263 7727 6462
4  6681 6683 6969 6604
4  6461 6462 7611 7610
4  7614 6462 6461 7610
4  8203 6511 8204 7502
4  8205 6663 8206 6511
4  57 7141 6858 7005
4  8207 6509 6511 6514
4  8208 8075 6663 6511
4  8208 8203 8075 6511
4  7009 6858 6860 7004
4  6661 6511 6513 6514
4  8205 8206 8207 6511
4  7736 7373 6622 6620
4  7650 6621 6624 6620
4  7133 7568 7134 7130
4  7133 7568 7569 7134
4  6163 8045 8080 8046
4  7569 6621 6625 7087
4  7570 7132 7567 7134
4  7177 7178 6823 6810
4  6813 6818 6810 6814
4  6311 6355 6273 6814
4  6809 7175 6801 6812
4  7650 6621 7567 7087
4  8209 6977 8130 6352
4  6809 6810 6812 6811
4  709 6283 6394 6694
4  7018 7019 6405 6407
4  905 7551 7177 7176
4  7978 7721 7855 7979
4  1020 8136 7121 6751
4  7140 7978 7721 6934
4  7855 7721 6909 7979
4  7721 6861 6844 6700
4  6859 6861 7721 6700
4  8101 6135 6131 8102
4  6131 6135 7161 8102
4  6135 7160 6849 6850
4  8209 6847 6977 6352
4  8177 7175 6693 6281
4  6134 7160 6135 6850
4  6750 8072 6928 7877
4  20 409 22 6183
4  754 8210 7167 6187
4  8211 7236 8212 6954
4  6943 6873 6954 6945
4  469 752 6172 6169
4  7566 6826 7821 6568
4  8212 6954 6873 6945
4  7544 7907 6146 6175
4  932 367 832 6718
4  6163 8045 8046 6139
4  6960 6956 6958 6950
4  6960 7236 6954 6958
4  378 6143 8210 6187
4  8211 6960 7236 6954
4  7020 6988 8213 6493
4  8182 6406 6902 7019
4  7958 7926 7928 6746
4  8213 6240 6491 6988
4  8078 7811 7467 7106
4  8210 6143 7167 6187
4  6606 6608 6938 6179
4  365 6606 378 6147
4  8182 6495 6406 7019
4  1029 759 940 7019
4  7140 8214 7978 6934
4  1029 940 7020 7019
4  6673 6388 6955 6387
4  6247 7041 7293 7037
4  7723 6895 7854 7656
4  7217 7461 6330 6903
4  57 798 6858 7141
4  6343 6136 6137 7158
4  6345 7461 7293 6136
4  8176 7461 7041 7293
4  687 8215 7143 7142
4  7654 6908 7112 6333
4  7493 7502 7497 7494
4  8092 7494 7501 7496
4  8091 6508 8054 7502
4  7704 7590 7705 7238
4  6642 6924 6643 6644
4  7501 7502 8054 8100
4  8203 8075 6511 7502
4  8204 6508 7497 7502
4  6457 6644 6825 6568
4  600 8216 8217 7102
4  7362 7360 8147 7359
4  7011 7723 7012 6628
4  7932 7654 8215 6334
4  7253 6683 7681 6887
4  7011 6632 8218 6628
4  652 6252 6251 6297
4  685 8215 7142 6334
4  7855 6909 7112 6966
4  8137 7256 7403 6699
4  8025 6301 8192 8015
4  68 992 346 8147
4  8216 6259 8025 6251
4  7677 7723 7854 7656
4  535 600 8217 7102
4  7679 7677 7854 7678
4  839 98 7521 6259
4  8219 6688 6395 8220
4  596 6251 7102 6297
4  8025 7153 6301 8015
4  652 684 6251 6253
4  77 81 78 8055
4  7732 7484 7733 7486
4  6328 6782 6651 6329
4  8194 8221 7376 7812
4  562 1011 8059 7500
4  8139 8140 7124 7117
4  7383 7376 7105 7378
4  8222 7376 7841 7835
4  7684 7509 6537 7519
4  7089 8138 7091 7090
4  7889 7964 7890 6774
4  7377 7839 8011 7835
4  8222 7837 8187 7376
4  8187 7376 8221 7812
4  180 77 78 7100
4  7822 7497 8204 6508
4  7343 7336 7943 7337
4  7415 7405 7407 7406
4  7953 7866 8167 7613
4  8167 7613 7750 7787
4  8034 6773 6653 6774
4  7416 7269 7404 7406
4  7751 7748 7415 7405
4  7061 6918 6442 6437
4  7540 7407 7726 7405
4  7339 8128 7203 6781
4  7079 6326 7881 6327
4  7612 8223 7751 7613
4  6442 7336 6445 6920
4  7454 6673 6385 6388
4  731 418 422 6922
4  6770 7343 7220 6776
4  6775 6776 6374 6769
4  6653 6773 7945 6727
4  6560 6561 8175 6562
4  7162 7120 6404 6904
4  7953 7726 7866 7405
4  7478 6579 6287 7479
4  7583 7478 7584 7055
4  6294 7857 7055 7056
4  7816 6947 7057 7056
4  8224 7857 7479 7560
4  7978 7979 7256 6699
4  7632 7673 7675 7634
4  7260 7801 7776 7258
4  8224 8225 7857 7560
4  7348 6612 6518 7346
4  7811 8187 7813 7812
4  73 756 6684 6604
4  170 8214 6934 6933
4  6616 6613 6518 6614
4  8188 6518 7348 6614
4  7799 7774 7800 7776
4  6998 8188 6999 6617
4  8163 6617 6996 6997
4  7774 7803 7800 7776
4  6998 6617 6996 8226
4  8188 6616 6617 8226
4  7799 7776 7260 7777
4  7922 8170 7542 7403
4  7454 7342 8116 6445
4  7454 7341 7342 6445
4  585 6594 6593 6596
4  8227 7335 6375 6445
4  7402 8120 8169 7403
4  7401 7542 7801 7258
4  8022 7847 7843 7829
4  6753 7296 6880 7295
4  7341 7335 7343 7337
4  7343 7335 7336 7337
4  521 20 21 6181
4  365 6147 378 6176
4  20 6181 6174 6182
4  6970 6166 7135 6169
4  6449 7448 7630 6648
4  69 6968 7362 6969
4  7206 7607 7207 7606
4  469 754 7167 6187
4  8022 7842 7637 7843
4  6444 6375 6374 6445
4  8081 6938 7204 6719
4  6442 6918 6920 6437
4  7454 6445 8116 6920
4  8227 6442 7335 6445
4  344 103 343 6325
4  7831 7791 7974 7317
4  7994 7216 7209 7608
4  7252 6541 7248 6549
4  6550 6546 7251 6549
4  7252 7015 8123 6549
4  6793 6794 7392 6670
4  6310 6550 6541 6542
4  258 7877 6877 6879
4  404 6927 406 6879
4  6961 7245 7251 7247
4  7030 6599 8165 7031
4  625 645 813 6589
4  645 646 814 8073
4  258 403 406 6879
4  6750 7877 7875 7876
4  7249 7528 7527 7247
4  6805 6807 6935 6747
4  7391 7392 6794 7389
4  8228 7392 7391 6679
4  7807 7783 6619 7130
4  6310 7246 6962 6304
4  7157 6360 7276 7146
4  6310 8229 7244 7248
4  6310 8229 6550 6351
4  6788 6790 7936 6717
4  664 7795 374 7187
4  7335 6374 6375 6445
4  7872 7615 7280 7870
4  7474 7941 7475 7596
4  620 672 621 7951
4  6185 6555 8133 6566
4  7916 6789 6721 6717
4  6789 6790 6788 6717
4  7940 7937 7936 6717
4  7943 7944 7340 7337
4  6721 6788 7504 6717
4  7504 7937 7940 6717
4  7072 7935 8230 8231
4  7896 7719 8232 7224
4  7072 8233 7935 8231
4  407 6849 8101 8102
4  6446 6922 6815 6391
4  6788 7936 6790 7073
4  7070 7072 6788 7073
4  7072 7071 8230 7073
4  8233 7935 7937 7073
4  494 8234 6784 6425
4  7339 6776 7340 7337
4  7218 7343 7943 7340
4  6770 7220 6772 6776
4  7392 6676 6679 6671
4  6793 6670 7492 6795
4  6569 6575 6573 6572
4  7535 7533 7552 7536
4  6806 7389 6794 6799
4  7339 7341 6775 6776
4  7945 6727 7340 6776
4  7197 7334 7545 7331
4  6793 7392 6668 6670
4  6796 7388 6808 7389
4  7945 6328 6727 6776
4  6328 6776 6775 6726
4  6787 7070 6790 7763
4  6787 7070 6788 6790
4  7093 6790 7071 7763
4  6787 6716 7093 6790
4  6787 6789 6716 6790
4  8079 7171 7443 7346
4  8235 7878 8236 7879
4  7271 7404 7416 7269
4  6789 6716 6790 6717
4  1013 6231 192 6230
4  7505 6220 7717 6715
4  192 6703 6230 6232
4  8237 7817 8024 8015
4  192 6905 6703 6232
4  8238 8049 7214 6230
4  7813 8187 8221 7812
4  7935 7071 7936 7073
4  7082 7091 6787 7093
4  775 963 779 6420
4  7212 7216 7593 7201
4  346 605 583 7003
4  7998 7999 8230 7763
4  67 937 74 6603
4  7116 6188 6197 6191
4  6173 6149 6151 6142
4  7628 7592 7213 7593
4  6263 6265 7117 6189
4  583 7008 6605 7003
4  779 6261 6196 6190
4  7976 7974 7977 7833
4  775 6196 7148 6197
4  8239 7147 7123 6420
4  7460 6372 7457 7297
4  7208 8240 7770 7769
4  7541 7416 7410 7412
4  7270 7541 7538 7268
4  7665 7663 7664 7662
4  8114 7664 8098 7662
4  7711 7324 7539 7412
4  7948 7705 7590 7106
4  209 685 798 6336
4  7713 7539 7324 7412
4  6250 7709 6248 6419
4  7442 7441 7957 7956
4  7711 7410 7324 7412
4  8222 7841 7376 7378
4  7267 7538 7540 7268
4  7713 7324 7417 7412
4  7657 7659 8241 7520
4  7789 7611 7314 7787
4  6536 6537 8220 7520
4  8171 7705 7707 7706
4  8241 8220 6537 7520
4  7661 7103 8158 7104
4  7082 6716 7083 7093
4  7595 7223 7596 7597
4  7657 7508 7658 7520
4  8101 6131 7453 8102
4  7552 7487 8242 7553
4  8103 6249 6131 6128
4  6132 7194 6129 6130
4  6561 8103 8101 6135
4  7288 7287 7596 7291
4  6135 7160 7161 8102
4  6131 6135 6134 7161
4  991 7453 6331 8102
4  7108 7109 7818 7110
4  6180 6172 6150 6152
4  7586 7489 6132 6563
4  6150 6165 6173 6167
4  6970 6172 6171 6167
4  6166 6170 6169 6167
4  6164 6173 6171 6145
4  7384 8243 7395 7702
4  6161 6151 6173 6149
4  7566 7821 7819 6568
4  6171 6172 6143 6173
4  6220 7940 6715 6722
4  7894 7896 7505 7697
4  7720 7714 7486 7715
4  6826 6567 7821 6568
4  7483 7732 7485 7484
4  501 149 6394 6284
4  499 501 6285 6284
4  7422 7772 7917 7420
4  499 501 843 6285
4  6281 6313 6393 6332
4  8033 7891 7890 7498
4  7916 7084 6714 7715
4  6355 6351 7244 6275
4  7734 7423 7918 7715
4  8244 8233 7072 8231
4  8245 6443 7739 7708
4  6310 6350 6392 6284
4  8186 7942 7287 7870
4  149 6320 6394 6284
4  8202 6545 6320 6284
4  7239 7238 7590 7240
4  7505 7716 7717 7719
4  8107 6475 7706 7238
4  8169 8120 8171 7706
4  6221 6721 7504 6722
4  6221 6715 6721 6722
4  7790 7791 8161 7315
4  7720 7717 7714 7715
4  8169 7923 8170 7706
4  7840 7838 7837 7835
4  6474 8170 7923 7706
4  8243 7699 7838 7700
4  8107 6475 7923 7706
4  7119 8184 7774 7775
4  6737 7778 7796 7775
4  7120 6741 7775 7777
4  7120 7119 7774 7775
4  7799 7774 7776 7777
4  7120 7774 7799 7777
4  8065 7775 7797 7709
4  8246 8247 7939 8231
4  7745 7748 7868 7746
4  7531 7562 7532 7564
4  7953 7613 7610 7405
4  6521 6461 7614 6462
4  7774 7775 7797 7776
4  8093 8100 7574 8094
4  7493 8248 8100 7496
4  741 454 7203 6781
4  8203 7502 7493 8100
4  8093 8100 8248 7496
4  7364 7024 6901 6994
4  7068 7144 6360 7146
4  7276 6994 7364 7146
4  488 490 7146 6993
4  6442 6918 7336 6920
4  6553 7559 6559 6552
4  7166 6777 6912 6476
4  919 802 803 6864
4  6918 7724 7336 6920
4  489 7364 488 7146
4  489 988 7065 7146
4  6653 6649 7945 6651
4  489 490 988 7146
4  8128 6781 6775 6271
4  6857 7557 7479 7560
4  6656 6653 6657 6652
4  8061 6870 7653 6855
4  6656 6655 6653 6652
4  6558 6863 6186 6293
4  8206 6663 6661 6511
4  6557 6709 6558 6186
4  752 409 20 6182
4  7907 6846 7849 6148
4  590 6657 6654 6659
4  454 458 742 7203
4  7558 7560 7557 6559
4  6870 6186 6558 6863
4  77 8055 7094 6667
4  7635 7675 7555 7636
4  7155 7027 6502 6504
4  723 8089 6900 6901
4  6650 7101 6659 7095
4  813 814 988 7065
4  926 6657 6659 7100
4  589 926 6659 7100
4  8198 7432 7430 6799
4  6930 6796 7388 6808
4  7933 6501 7934 6368
4  6928 6877 7877 6879
4  6539 6540 6430 6427
4  20 6183 21 6181
4  403 6926 404 6879
4  7789 8223 7613 7787
4  180 78 926 7100
4  6937 6936 7879 8027
4  6805 6808 6807 6747
4  6657 6658 6650 7100
4  7548 7516 7646 7641
4  8091 6656 6658 6650
4  6650 6659 7101 6783
4  6658 6512 6650 7100
4  6533 7077 6535 6534
4  7951 8058 8044 8104
4  6743 8135 6748 7075
4  6599 6598 7547 6600
4  6650 7099 7101 7095
4  6432 6600 7031 7549
4  406 6927 506 6928
4  6650 6515 6512 6507
4  6935 6928 6750 8072
4  404 6926 6927 6879
4  589 6659 7101 7095
4  6512 6513 6515 7094
4  8080 8081 8077 7045
4  7842 7637 7843 6373
4  6247 7041 6321 6322
4  6131 7161 6331 8102
4  991 6331 7161 8102
4  1046 6246 797 6242
4  7118 6246 6244 6245
4  25 6246 6904 6321
4  6731 6247 6321 6245
4  6758 6759 6741 6408
4  7119 6731 6738 6741
4  6634 6974 6972 6629
4  8080 7045 8046 6631
4  7118 6731 6904 6245
4  7120 6731 7119 6741
4  6904 6321 6246 6245
4  6757 7202 6477 6478
4  7119 6738 6731 6245
4  6736 6733 6735 7038
4  6732 6406 6404 6405
4  871 7988 8050 6638
4  7118 6731 7120 6904
4  8195 6210 6883 7728
4  8195 6883 7452 6256
4  808 807 104 6429
4  7731 6883 6256 6884
4  7731 6883 7728 8193
4  7506 6488 6487 6547
4  6494 7029 6495 6492
4  7162 6760 6704 6989
4  6557 6709 7555 6558
4  7395 8243 7666 7702
4  317 7159 7160 7158
4  7840 7834 8243 7700
4  8103 6129 7585 6364
4  7398 7309 7397 7666
4  317 694 991 7161
4  7397 7309 7841 7666
4  8175 6135 8101 6849
4  6551 7440 6553 6552
4  7840 7834 7835 7666
4  7394 7840 8222 7841
4  8184 7797 7709 8185
4  8087 8086 7987 7681
4  6488 6453 6458 6455
4  7722 6909 6700 7979
4  7855 6909 6966 7979
4  7721 6333 7656 7141
4  6159 8249 6161 6160
4  7721 6333 6909 6844
4  7140 7721 6859 7141
4  8214 7855 6934 6933
4  7855 7112 6934 6933
4  7362 7363 7360 7359
4  6642 7855 7112 6966
4  7306 7455 7842 7845
4  8250 8251 8086 6887
4  118 845 7518 6400
4  6143 6174 6152 6187
4  8210 6990 6171 6143
4  6561 7585 7587 6413
4  7592 7627 7240 7591
4  7628 7627 7593 7996
4  6965 7250 6482 6964
4  7587 7585 7589 6413
4  8252 7589 6129 6128
4  8103 6128 6129 6364
4  6267 6277 8253 6691
4  8254 6151 6139 6141
4  7589 6129 6128 6364
4  8101 8103 6131 6135
4  8103 6129 6132 7585
4  6643 6764 8010 6765
4  871 720 7988 6638
4  7273 8077 7274 6481
4  6702 6638 6766 6765
4  6819 8073 6591 6588
4  6707 6645 6647 6708
4  6807 8073 8071 8072
4  6819 6592 6591 6747
4  6632 6634 6626 6629
4  6584 6780 6750 8104
4  47 6764 6643 6925
4  8171 8158 7707 7705
4  8255 7011 7360 7358
4  686 6766 6764 6925
4  8147 7360 7677 7361
4  720 6764 6766 6638
4  6764 6638 6639 6765
4  6457 6644 8010 6765
4  47 6643 6764 8010
4  6207 6962 6204 6208
4  7243 6207 6817 7244
4  6310 7244 6311 6962
4  6593 6594 6755 6595
4  7216 8112 7947 7201
4  8074 6351 8229 7244
4  6310 6962 6311 6304
4  8256 7722 7924 7979
4  7011 7723 7677 7012
4  8229 7245 7244 7248
4  6636 7681 6633 6974
4  6636 7358 6633 7681
4  6637 6633 6628 6629
4  8255 8257 7011 6633
4  7645 7478 7139 6287
4  8258 8259 6967 6383
4  8255 6633 7358 7681
4  6632 6626 6628 6629
4  7011 6633 6632 6628
4  7061 6956 6918 6957
4  7235 6960 7059 6958
4  7011 8257 6632 6633
4  6656 6650 6507 6652
4  7954 7441 7438 7956
4  7081 7059 7061 7060
4  6654 6659 6657 6652
4  6656 6507 6655 6652
4  6654 6651 6659 6652
4  7573 7152 8260 7153
4  6651 6782 6659 6783
4  6796 6798 7389 6799
4  6796 6798 7388 7389
4  8198 7967 6820 6799
4  6797 8082 6798 6795
4  7173 7333 7170 7154
4  6797 6795 6798 6799
4  596 7102 6436 6297
4  6806 7432 6820 6799
4  6819 8261 7399 6821
4  8262 7452 6255 6256
4  6796 6821 7967 6799
4  7030 6839 6837 6600
4  8237 8024 8263 8015
4  7547 7643 7548 7550
4  8198 6820 7432 6799
4  8028 8030 8026 8027
4  8264 8265 7512 7513
4  8030 6805 6927 6937
4  6892 7294 6888 6889
4  6742 7064 6915 6585
4  6355 6816 6812 6274
4  6848 6393 6281 6313
4  749 6692 569 6694
4  639 77 72 6665
4  6693 6281 6282 6694
4  8266 7188 8267 6666
4  6355 6353 6351 6274
4  6319 6392 6393 6332
4  6281 6694 6313 6332
4  7982 8070 7980 7981
4  6273 6337 6342 6816
4  7122 6206 6751 6818
4  7625 7892 7535 7536
4  976 998 6342 6818
4  574 7177 6342 6816
4  574 7177 976 6342
4  6823 6813 6818 6810
4  6663 7577 8267 6664
4  7078 7219 8268 7950
4  998 6342 6818 6302
4  6660 7188 6665 6662
4  8055 6512 7094 6667
4  8136 7122 6751 6818
4  658 6303 6302 6348
4  7982 7890 7891 7981
4  825 6273 6342 6286
4  6649 6655 6507 6652
4  825 6273 6337 6342
4  8097 7616 8183 7281
4  7177 6818 6342 6816
4  6566 6855 7556 7649
4  7957 7602 7601 7385
4  976 7177 8136 6818
4  903 857 694 6851
4  976 8136 998 6818
4  161 83 946 7063
4  161 6522 7063 6523
4  161 946 7062 7063
4  7377 7376 7841 7378
4  7074 7062 7063 6523
4  7311 7395 7394 7309
4  6916 6778 7062 6590
4  7543 6915 6778 7063
4  7676 7601 7594 7600
4  6915 6535 6916 7063
4  8119 8192 8193 6612
4  6135 6849 7160 8102
4  8061 7653 7491 6855
4  318 7292 7159 7158
4  6753 6754 6756 7295
4  7345 7264 7444 7346
4  6613 6518 6612 7346
4  8053 8119 6612 8052
4  6705 6641 7261 7260
4  998 825 6342 6286
4  6611 8193 6612 6614
4  6785 6992 6897 6426
4  8156 8125 8157 6140
4  7846 7842 7843 7844
4  7272 6204 6199 6201
4  8002 6466 6985 6986
4  6477 7202 6479 6478
4  8269 7178 6809 6803
4  8270 6205 6206 6207
4  6285 6305 7246 6304
4  6983 6468 6469 6986
4  8004 7992 6466 6469
4  8004 7931 6466 6421
4  8269 8271 8272 6803
4  8269 6822 7178 6803
4  7883 7827 7609 7829
4  7798 6817 6813 6803
4  149 8202 7050 6320
4  8272 6802 7798 6803
4  6163 6139 6162 6149
4  8045 6144 6631 6139
4  8157 7912 7851 7848
4  8046 8125 8156 6139
4  8156 6139 8125 6140
4  7152 7642 6435 7332
4  8046 6631 8125 6139
4  6146 6631 6139 6140
4  7171 7444 8052 7172
4  6162 8254 6151 6139
4  6611 8191 8079 6612
4  8045 6990 6144 6149
4  966 7163 913 6264
4  6381 6188 7116 6191
4  7117 6265 6188 6189
4  6417 6420 6188 6190
4  8262 6256 6258 8192
4  8195 6209 7452 6883
4  8053 7444 8052 7346
4  7123 7126 6420 6188
4  8140 7165 6263 6379
4  7270 7271 7541 7268
4  6705 6580 6761 7261
4  967 6261 6265 6262
4  6599 8088 7031 6600
4  501 824 843 6285
4  7400 7182 6317 6228
4  6760 6761 6705 6456
4  6225 6996 8164 6226
4  7252 6543 6541 6549
4  7609 7976 7207 7605
4  8269 8272 6822 6803
4  6597 6599 7030 6600
4  6837 6839 7879 6600
4  6598 7879 8273 6600
4  6961 7245 7247 6962
4  8274 8207 8275 6514
4  8236 6929 8273 6936
4  7024 6991 6992 6898
4  6381 7117 6188 6189
4  7642 8028 7549 7641
4  7098 6509 6514 6510
4  6650 7098 6515 6507
4  6513 6514 6511 6510
4  7068 6529 7069 7156
4  8206 6511 6661 6514
4  6661 6513 6515 6514
4  8274 8275 8276 6514
4  7098 6507 6509 6510
4  7098 6509 6724 6514
4  7068 6504 6529 7156
4  6819 6748 6592 6747
4  7391 6794 6806 7389
4  6748 8135 8261 6592
4  8276 7098 6724 6514
4  8274 6509 8207 6514
4  7155 7275 7027 7156
4  6134 6137 7184 6130
4  6819 7967 8261 6821
4  506 6928 8071 8072
4  6749 7926 6746 6745
4  8236 8273 6598 7879
4  6132 7489 7184 6850
4  7588 7586 7194 7585
4  7195 7586 7489 7194
4  7335 6442 7336 6445
4  7932 7854 6334 7678
4  6386 6673 6955 6387
4  6861 6628 6844 6627
4  209 798 6335 6336
4  7854 6333 7654 6334
4  6441 6442 8227 6439
4  7721 6861 7656 6844
4  7220 6772 6776 6726
4  7339 7342 7341 7337
4  7059 6960 6956 6958
4  8155 7290 7285 7291
4  7395 8243 7840 7666
4  374 7795 6157 7187
4  7349 6550 6351 6542
4  7349 6352 6392 6351
4  7333 7646 7334 7330
4  626 621 506 6780
4  6545 6319 6392 6975
4  6394 6694 6283 6332
4  6310 6541 6550 7248
4  6545 6392 6542 6975
4  6545 6542 6215 6975
4  6545 6544 6215 6542
4  7930 6215 6978 6975
4  7529 7532 6680 7641
4  6382 6195 6441 6439
4  258 7876 7952 6893
4  6712 6402 6401 6428
4  7579 7326 7562 6671
4  7643 8029 7522 7523
4  7522 7388 6676 6679
4  6959 7619 7618 6675
4  6421 6713 6712 6325
4  6323 6421 7992 6712
4  8092 8090 7501 7494
4  8277 7992 8006 6712
4  8277 8006 6324 6712
4  8093 8248 8100 8094
4  7121 6349 6751 6200
4  6987 7964 7889 6774
4  7964 6773 8032 7965
4  544 6349 6752 6348
4  1020 998 8136 6751
4  6622 6625 6618 6620
4  843 6303 6285 6302
4  7982 7625 8242 7624
4  7964 7965 8035 7890
4  843 6285 824 6286
4  1020 544 998 6751
4  6645 6696 7241 6708
4  6531 6973 6972 6708
4  6695 6972 6472 6696
4  6695 6696 6472 6697
4  6473 6474 6475 7238
4  7796 7260 7776 7777
4  6472 6973 6473 7241
4  888 848 682 8278
4  6635 6696 6645 6708
4  7880 7241 6645 6696
4  6760 6761 7778 7777
4  6701 7923 6699 6697
4  6250 6418 8184 7709
4  6472 6696 6475 6697
4  7307 7308 6415 7309
4  8184 7803 7774 7797
4  7778 7796 7775 7777
4  7778 7260 7796 7777
4  7799 7776 7800 7258
4  8279 8068 7483 7553
4  7554 7536 7553 7426
4  7487 7553 7425 7424
4  7483 7553 7484 7424
4  7443 7263 7347 7264
4  7487 7484 8068 7553
4  7552 8242 7624 7553
4  7352 8118 7179 7049
4  8053 8216 7521 8119
4  6547 6236 6548 6237
4  7006 7786 7791 7314
4  6519 7347 6520 6517
4  189 0 6 8280
4  526 8042 6831 6829
4  8079 8052 7171 7346
4  6487 6490 6489 6238
4  6489 6490 6581 6238
4  7445 6521 7614 7266
4  6615 6613 6616 6614
4  7616 7620 7871 7870
4  7614 7404 7271 7269
4  6831 6211 6832 6827
4  6210 8126 6211 6212
4  8281 7351 7968 7969
4  6452 6905 6582 6232
4  6211 8126 6832 6827
4  6581 6238 6490 6582
4  6622 7375 8282 6624
4  6616 6519 8283 8226
4  7968 8283 7007 6465
4  7650 7567 7086 7087
4  7470 7351 6226 6229
4  7088 7087 7420 7085
4  7567 7420 7088 7087
4  7827 7830 7831 7826
4  8282 7090 7089 6624
4  7968 7007 8142 7969
4  7569 7773 7420 7087
4  6340 6307 8185 6341
4  7827 7831 7976 7826
4  6338 6340 8185 6341
4  8245 8185 6309 6341
4  7660 6339 6341 7662
4  6430 6536 6400 6427
4  808 807 6429 6399
4  104 6324 6429 6428
4  7685 6712 6713 6402
4  7456 7458 7229 7457
4  6712 6713 6402 6428
4  7628 7626 7592 7627
4  8254 8156 7850 6141
4  8022 7829 7843 7228
4  7639 7605 7829 7228
4  7790 7006 7791 7314
4  7639 7605 7228 7606
4  6395 6397 6537 6398
4  8284 6556 7670 7862
4  7348 8053 6612 7346
4  6403 6536 6427 6398
4  6538 8006 6403 6401
4  6538 6429 6401 6427
4  6536 7520 8220 8007
4  7659 8109 8220 7520
4  6430 6536 7518 6400
4  7311 7668 7395 7310
4  6540 6536 7515 7518
4  7586 7587 7863 6563
4  6539 6536 6403 8007
4  256 407 857 6849
4  6536 6537 7518 6400
4  8000 7599 7597 7895
4  6403 6536 6537 8220
4  8125 7042 6631 6486
4  8097 7281 8183 7901
4  7274 8077 8081 6479
4  8148 7644 8061 7556
4  6630 6477 6719 6479
4  6482 6963 6484 6480
4  6482 6480 6478 6964
4  7745 7999 8048 7746
4  7045 8125 6631 6486
4  8169 7403 8170 7923
4  8158 7103 8078 7106
4  8081 6479 7045 6631
4  6372 6371 7459 6373
4  7242 7240 7631 7591
4  8172 8120 7706 7664
4  8081 8077 7045 6479
4  7985 7457 7455 7297
4  8285 7446 6756 6450
4  7999 7071 8230 7763
4  7997 8201 8007 7690
4  7515 8094 7520 7690
4  7299 7304 7300 7301
4  7840 8243 7838 7700
4  8201 7688 7303 7301
4  6540 7298 7693 7690
4  7441 7667 7957 7387
4  7693 7302 7689 7690
4  7701 7834 7919 7700
4  7693 8094 7515 7690
4  7595 7223 7597 7895
4  7784 7873 7782 7885
4  7436 7675 7672 7437
4  7784 6538 7885 7886
4  8286 7884 8039 7885
4  6689 8110 7780 7886
4  6689 6687 8110 7886
4  7695 7701 7697 7696
4  7919 7920 6220 6222
4  7896 7717 7720 7719
4  7884 6571 8039 7885
4  6538 6689 6690 7885
4  7395 7840 7394 7666
4  7384 7386 7310 7387
4  7975 7604 7768 7769
4  7994 7198 7768 7209
4  7768 7764 7769 7209
4  7861 8287 6414 6412
4  7212 7216 7994 7608
4  7379 8098 7104 7662
4  7975 7604 7973 7833
4  8160 7974 7750 7787
4  7976 7604 7605 7833
4  6859 8137 7925 6699
4  6474 7704 8172 7706
4  7631 7947 7591 7593
4  7213 7593 7591 7464
4  6473 7704 6474 7238
4  7665 7664 8114 7662
4  7216 7206 7209 7608
4  7663 7661 8158 7104
4  7803 8115 7802 7776
4  7206 7606 7207 7209
4  7794 6873 7793 6157
4  7035 8176 6733 7037
4  364 6158 6383 6153
4  7793 6873 6874 6158
4  6873 7186 6578 6156
4  6672 6955 6943 6154
4  1017 372 7792 6158
4  7680 7527 7249 7528
4  1017 8258 364 6158
4  602 8258 6967 6383
4  6874 6158 6873 6153
4  602 364 8258 6383
4  6967 8259 6917 6383
4  8016 8017 7015 8018
4  7249 7527 7524 7247
4  541 418 6153 6384
4  8126 7232 8288 8127
4  541 6917 6391 6384
4  7661 7382 7740 7378
4  7976 7831 7974 7833
4  7742 7380 7396 7381
4  7413 7408 7406 7409
4  6793 7492 6669 6576
4  7784 7779 8111 7305
4  7485 7720 7714 7486
4  7299 7365 7368 7300
4  7806 6569 6573 6570
4  8203 8204 7493 7502
4  7772 7773 7917 7420
4  7739 7393 7381 7708
4  7396 6415 7381 7309
4  7311 7394 7393 7309
4  7307 7396 7397 7309
4  7396 7380 7397 7381
4  7397 7381 7841 7309
4  7648 7190 6911 7185
4  7482 7134 7132 7128
4  7648 7190 6853 6911
4  6134 7185 7160 6850
4  274 8149 273 6911
4  274 903 7647 6911
4  8287 7311 6414 7308
4  7072 8230 7071 7763
4  7293 6331 6330 6322
4  7333 7332 7548 7330
4  7716 7916 6714 7715
4  7290 8232 7732 7733
4  7365 7133 7481 7128
4  7461 7353 7041 6903
4  6731 6732 6904 6321
4  840 390 162 6903
4  840 162 7225 6903
4  6732 6404 6904 6405
4  7353 6732 7041 6903
4  8011 7839 7836 7835
4  8182 6406 6732 6902
4  7353 8182 6732 6902
4  6219 7696 7697 6222
4  7289 7695 7896 7222
4  519 162 759 6902
4  7837 7839 8289 8221
4  7707 7705 7590 7238
4  8172 7704 8099 7705
4  8289 8290 8291 7939
4  519 759 7921 6902
4  7227 7719 7894 7224
4  7894 7896 7697 7222
4  7896 7720 8232 7719
4  7221 7227 7894 7224
4  7103 8187 7811 7812
4  7290 8232 7733 7224
4  7839 7815 8291 8221
4  968 961 6833 7047
4  7226 7733 7227 7224
4  7814 7466 7815 7463
4  7239 8078 7468 7590
4  7226 7290 7224 7291
4  7289 7896 8232 7224
4  8246 7938 8233 8231
4  8289 8291 7920 7939
4  7226 7224 7221 7291
4  8243 7834 7702 7700
4  7384 7395 7386 7702
4  7475 7600 7596 7597
4  7698 8243 7702 7700
4  7226 7290 8153 7733
4  7698 7699 8243 7700
4  7602 7386 7701 7702
4  8213 6988 6491 6493
4  6406 6493 6492 6407
4  7695 7696 7222 7895
4  6409 6989 7018 6407
4  6452 6582 6905 6706
4  656 712 7018 6989
4  7020 7019 6988 6493
4  7018 6706 6988 6407
4  6451 6492 6491 6407
4  7765 7770 7769 7764
4  759 656 7018 6405
4  7840 7837 8222 7835
4  656 7018 6409 6989
4  712 6988 7018 6706
4  7752 7753 8138 7754
4  7869 7868 7745 7748
4  7838 7920 7836 6222
4  8014 7771 7199 8013
4  7838 8289 7836 7920
4  207 7932 8215 6334
4  7855 6333 7721 6934
4  7935 7936 7940 7937
4  170 8214 7140 6934
4  7656 6335 7678 7361
4  6831 6832 6833 6828
4  973 209 6335 7678
4  7938 7920 7940 7939
4  8292 6739 8293 8181
4  209 7932 6334 7678
4  207 209 7932 6334
4  6942 6299 6431 6434
4  995 317 7159 7160
4  468 961 464 6828
4  6249 6250 6241 6243
4  6301 6298 6297 6296
4  6298 6299 6295 6941
4  7789 7613 7611 7787
4  6247 7293 6133 7037
4  995 274 903 7647
4  7076 6939 6298 6941
4  1019 8294 7107 6295
4  891 6942 6299 6431
4  903 7160 6911 6851
4  7449 6758 6740 6734
4  6346 7191 6347 6138
4  436 891 6942 6299
4  7529 8228 8028 7523
4  1019 834 436 6295
4  759 7019 6902 6405
4  6301 6298 7102 6297
4  481 596 6436 6297
4  6343 7192 6137 6138
4  7490 8060 7491 7489
4  6298 6436 7102 6297
4  8062 8060 7865 7649
4  8037 8023 7492 8038
4  6561 6132 8103 6135
4  7492 8023 7738 6576
4  8036 8038 6575 6572
4  7805 7737 8023 6574
4  8121 6574 6619 6620
4  7736 7581 7373 6576
4  7736 7737 6574 6576
4  664 374 665 7187
4  6793 6669 7581 6576
4  8267 6664 7510 6666
4  6664 6513 6665 6662
4  8267 6664 6666 6662
4  8267 7510 7576 6666
4  7440 7442 7676 7437
4  823 8266 822 6666
4  823 7188 8266 6666
4  7583 8295 7584 7478
4  629 230 7101 7096
4  230 7101 7096 7095
4  6326 6651 7099 6783
4  7949 7099 7098 7096
4  8129 6791 7949 7096
4  7941 7221 7223 7291
4  7635 7555 6292 6857
4  7571 7444 7572 7172
4  7153 8296 8015 7154
4  8191 6612 8192 8052
4  8025 8015 8192 8052
4  8025 7153 8015 7172
4  8053 8052 6612 7346
4  7151 7149 8297 6416
4  7354 8298 6382 6195
4  6380 7356 6382 6381
4  7529 8028 7642 7641
4  7288 7596 7223 7291
4  7334 7712 8009 7546
4  6914 7064 6779 6585
4  8299 8298 7354 6195
4  6915 6778 6916 6585
4  7147 8278 7149 7148
4  8058 7064 6584 6779
4  6916 6587 6778 6590
4  1035 8196 626 6779
4  1035 6914 8196 6779
4  728 8266 8300 7514
4  7512 7500 7513 7514
4  117 7519 7513 7514
4  6545 6319 6228 7050
4  6227 7049 6316 7048
4  327 7049 329 7048
4  6319 6228 7050 6318
4  149 6320 7050 6318
4  8118 7179 7049 7050
4  6736 6735 6738 7038
4  7588 7194 6129 7585
4  8176 6345 7461 7293
4  7450 7028 7449 6408
4  390 6903 6330 6322
4  7217 7353 7461 6903
4  8174 6128 6248 6419
4  7028 6758 7449 6408
4  6250 6248 6245 6243
4  7029 8181 6732 6734
4  6737 7775 6738 6741
4  8179 8252 7193 6127
4  8103 6131 6129 6128
4  8109 6687 8220 8007
4  7589 7585 6129 6364
4  8174 6128 6419 6364
4  6233 6234 6236 6235
4  7214 6230 6640 6237
4  77 8055 78 7100
4  7068 6366 6497 6367
4  7821 6568 6567 6547
4  6567 6488 6547 6458
4  7989 6548 7506 6236
4  6487 6547 6488 6490
4  7334 7646 7712 7546
4  6457 6825 6644 6765
4  1002 695 701 8301
4  6255 6258 6256 6253
4  8119 6884 6256 6259
4  684 6885 6259 6257
4  7452 6255 6256 6257
4  7452 6256 6883 6257
4  43 684 7451 6257
4  8090 7891 8033 7498
4  43 7451 8200 6257
4  8119 6258 8025 6259
4  684 6259 6251 6253
4  8216 8119 8025 6259
4  7731 7729 6883 6884
4  7348 7731 8119 6884
4  7348 8189 7731 6884
4  7521 6884 8119 6259
4  286 8162 8001 6792
4  966 7990 7163 6264
4  7286 7287 8155 7291
4  7157 6358 7276 6357
4  6360 6368 6367 6359
4  589 180 7100 7095
4  6356 6368 7021 6361
4  7068 7156 6357 6359
4  6991 6994 6366 6993
4  7065 7144 7068 7146
4  823 639 7188 6666
4  7068 6360 6367 6359
4  8208 8207 8204 6511
4  8302 6893 6838 6836
4  6650 7101 7099 6783
4  6838 6893 6878 6876
4  6835 6876 6893 6836
4  403 6926 6878 6894
4  6649 7099 6507 6724
4  8302 7875 6838 6893
4  7941 7596 7287 7291
4  287 6792 6791 6329
4  968 6833 6315 7047
4  130 7952 8199 6893
4  130 258 7952 6893
4  695 8301 8234 8303
4  7816 6944 7963 6947
4  7816 7857 6294 7056
4  6951 7619 6947 7622
4  8145 8003 8005 6986
4  6664 7500 7510 6666
4  494 493 695 8234
4  6951 7057 7962 7622
4  6944 6947 6945 6946
4  7963 6943 6672 6949
4  7963 6672 7619 6949
4  824 6286 6285 6276
4  131 6394 149 6318
4  569 6337 824 6283
4  839 600 601 8216
4  6319 6393 6313 6332
4  709 6313 6394 6314
4  709 6394 6313 6694
4  7524 8021 7015 7525
4  7252 7251 7524 7015
4  6991 6366 7145 6993
4  7252 7251 7015 6549
4  7252 8123 6543 6549
4  6543 6549 8123 7013
4  8123 7015 8124 7013
4  493 6422 8303 6425
4  8234 8303 8304 6425
4  7123 7149 7150 6197
4  8298 6441 6382 6195
4  8304 7685 7859 8303
4  7859 8303 6713 6422
4  6269 8084 7859 6467
4  155 6425 6426 6423
4  6899 6426 6425 6423
4  494 6784 155 6425
4  923 6417 7990 6265
4  7859 6713 6421 6422
4  8239 7123 8305 7126
4  731 422 6864 6922
4  848 683 6923 6391
4  7516 6680 7517 7532
4  494 155 493 6425
4  343 676 6421 6422
4  7163 7164 7166 6476
4  7163 7990 7164 6264
4  6421 6422 6713 6325
4  676 6900 6421 6423
4  601 8216 600 6251
4  7975 8306 7973 7769
4  7977 7974 7973 7833
4  919 6864 849 6260
4  6768 7853 6771 6769
4  8140 7164 7125 6263
4  6864 7341 6444 6374
4  7977 7973 8240 7769
4  6955 6874 6873 6154
4  7963 7619 6947 6949
4  913 7163 6912 6264
4  6672 6955 6673 6919
4  6385 6388 6387 6389
4  735 6386 418 6385
4  363 332 8031 6386
4  541 6391 418 6384
4  735 363 418 6386
4  7795 7794 6157 7187
4  323 334 7053 8031
4  6642 6924 6644 7110
4  6642 6644 7111 7110
4  42 41 43 8200
4  6642 7855 6966 7111
4  8163 7728 6615 6617
4  42 526 850 8042
4  8122 7254 6933 6643
4  652 601 596 6251
4  8200 7452 8041 6257
4  837 6252 652 6296
4  7855 6333 7112 6909
4  6448 6756 7446 6450
4  6707 6647 6450 6708
4  6449 6448 7448 7446
4  6647 6646 7626 6648
4  6647 7446 8285 6450
4  6447 6763 6448 6450
4  6531 6449 6973 6708
4  6449 6450 6648 6708
4  6707 6974 6531 7682
4  6755 6754 7682 6450
4  7014 8281 8017 8124
4  7350 8124 8141 7969
4  8141 7319 8142 8124
4  8017 8142 7319 8124
4  494 159 155 6784
4  8132 6992 6991 6897
4  7350 8123 8016 8124
4  953 8108 6522 6524
4  946 7543 6778 7063
4  8281 8124 7351 7969
4  8244 8230 8307 8231
4  8244 7072 8308 8230
4  8307 8230 7935 8231
4  6560 8284 7861 7862
4  8284 7670 7861 7862
4  6305 7249 7246 6757
4  7272 7273 7274 6478
4  8156 6141 6139 6140
4  6630 6146 6607 6178
4  8284 6556 7954 7670
4  7991 6412 7669 7670
4  7680 7249 6866 6477
4  356 357 474 6752
4  7864 7441 6556 7670
4  946 6778 625 6590
4  852 7074 7062 6767
4  6481 6483 7045 6479
4  6163 6164 8045 6149
4  8210 6990 6143 6147
4  6481 6482 6483 6480
4  852 7074 7196 7062
4  161 6524 6522 6523
4  7074 6523 7063 7067
4  83 6522 7543 7063
4  8026 6839 6432 6600
4  7218 7340 8032 6773
4  7218 8032 6728 6773
4  6730 6726 6727 6725
4  6935 7875 6750 6928
4  744 262 125 6835
4  7945 7339 6328 6776
4  6432 6433 6839 6876
4  6653 6655 6773 6727
4  7945 6649 6328 6651
4  1019 6295 7107 6296
4  6324 6712 6401 6428
4  8026 6600 6432 7549
4  6757 6303 6199 6208
4  499 6285 8202 6284
4  825 658 824 6286
4  6430 6429 6427 6399
4  154 8118 149 8202
4  569 824 501 6283
4  8006 6712 7685 6401
4  7685 6395 6402 6396
4  701 6713 103 6428
4  860 701 6402 6396
4  7555 7559 7636 6552
4  7860 6551 6553 6554
4  7254 6641 7262 7255
4  7112 6933 7142 6336
4  8309 7438 6556 6552
4  346 7002 605 7003
4  7635 8225 7634 7636
4  6557 6559 6552 6554
4  6557 7436 8309 6552
4  6551 7438 7440 6552
4  7440 7437 7636 6552
4  7555 7675 7436 7636
4  7988 6766 8180 6638
4  8058 6584 6750 8104
4  687 685 8215 7142
4  621 8104 7951 7876
4  8044 8104 6750 7876
4  8044 8058 6750 8104
4  8310 7685 8303 6396
4  947 1035 625 6914
4  701 8303 6713 6396
4  7530 7532 7641 7330
4  8304 7859 7858 6425
4  8310 7685 8304 8303
4  8084 6899 7859 6467
4  493 8303 8234 6425
4  6555 8309 6556 6552
4  1035 626 625 6779
4  6557 8309 6555 6552
4  7863 6563 6413 7862
4  621 258 406 7877
4  8253 8286 8145 6469
4  7954 7441 6556 7438
4  600 8216 7102 6251
4  6411 6412 6415 7308
4  8284 7954 8287 7670
4  7864 7669 7441 7670
4  8208 8204 8203 6511
4  8092 7691 7534 7496
4  8309 7954 8284 6556
4  7759 8208 8203 8075
4  8199 6834 6835 6836
4  990 615 611 8150
4  744 125 8199 6835
4  262 891 6835 6942
4  6875 6876 6878 6894
4  273 6854 256 6852
4  7740 7841 8222 7378
4  125 6877 6835 6894
4  6835 6877 6876 6894
4  6676 6677 6678 6671
4  8228 7565 6679 6680
4  7565 7392 6679 6671
4  6794 7392 6670 7389
4  7669 7307 7667 7308
4  8228 6679 7390 7523
4  8175 6561 8101 6135
4  7190 6853 6911 6852
4  7522 7388 6679 7390
4  7388 7389 6676 6679
4  8090 7891 7498 7494
4  7693 8093 7689 7692
4  8311 6870 6871 6872
4  413 553 665 6289
4  8093 8248 7692 7496
4  7954 7668 8287 7308
4  8092 7892 8090 7494
4  7493 7499 7495 7494
4  6551 7442 7440 7438
4  880 6186 6863 6293
4  323 7053 335 6578
4  728 822 8266 7514
4  639 822 562 6667
4  7493 7495 8248 7496
4  6403 8220 6688 6687
4  8006 6688 7685 6691
4  8312 7685 6688 6691
4  823 639 826 7188
4  8313 8314 6278 6688
4  7718 7720 7719 7733
4  826 72 6660 6665
4  7735 7733 7484 7486
4  7226 8153 7227 7733
4  7079 7950 7881 6326
4  6277 6691 6278 6280
4  807 103 104 6428
4  7732 7733 7484 8154
4  7290 7733 7732 8154
4  7735 7718 7733 7486
4  6899 6425 7859 6423
4  6785 6992 8132 6897
4  7858 6899 6785 6426
4  508 506 6927 8071
4  6992 6897 6426 6424
4  7169 8015 7173 7154
4  159 983 155 6426
4  744 437 262 6834
4  159 6786 983 6426
4  404 508 406 6927
4  8043 7878 7875 6936
4  6793 6668 7581 6669
4  6991 6994 6993 6898
4  7024 6994 6991 6898
4  7875 6877 6878 6893
4  6834 6836 7034 6840
4  621 258 7877 7876
4  7697 7919 6220 6222
4  621 6780 8104 7877
4  258 7877 7876 6893
4  414 943 553 6291
4  7559 7440 7674 7636
4  7952 7876 8302 6893
4  553 6293 6289 6291
4  7645 7139 7138 6287
4  900 612 8168 6288
4  8295 7645 8315 7479
4  8302 8044 7875 7876
4  6750 8104 6780 7877
4  506 6928 8072 7877
4  621 506 6780 7877
4  7878 8302 7875 6838
4  7875 6878 6838 6893
4  7039 6248 6738 7709
4  672 621 7951 7876
4  672 7952 258 7876
4  8174 6306 7589 6364
4  7805 8117 8121 6619
4  6131 6129 6128 6130
4  694 991 7161 8102
4  407 1022 997 8101
4  7656 7004 7141 7002
4  7805 6619 8121 6574
4  7807 6570 6619 7783
4  8121 7570 6621 6619
4  7736 6618 6574 6620
4  6906 6841 6907 6909
4  6573 6618 6619 6574
4  8137 8169 7925 7923
4  6637 7012 7358 7010
4  6860 6627 6861 6700
4  6635 7880 6645 6696
4  6838 6893 6876 6836
4  6860 6861 6859 6700
4  7030 7034 6839 6840
4  6433 6939 6839 6840
4  7033 6939 6941 6840
4  8137 7402 8169 7403
4  46 47 136 8010
4  6432 6939 6433 6434
4  262 436 6942 6941
4  8006 6691 6690 6280
4  45 8214 47 8122
4  685 6933 7142 6925
4  7143 7655 7469 6924
4  8253 6467 6691 6690
4  6689 8286 6690 7885
4  6977 6978 7349 6352
4  8277 6690 6469 8039
4  7115 6999 7000 6997
4  8200 6209 8042 8041
4  8253 6690 8286 6469
4  7470 8143 6998 8144
4  8195 7231 6210 7728
4  7470 6226 7180 6229
4  8164 7968 7351 8144
4  6979 6976 7930 6975
4  8103 6132 6131 6135
4  7453 6131 6331 8102
4  6822 7178 6803 6810
4  8316 7798 8076 6813
4  7453 6131 6133 6331
4  991 997 7453 8102
4  7669 6412 6411 7308
4  407 997 991 8102
4  7177 6823 6818 6810
4  7551 6809 8269 7178
4  8130 6977 7349 6352
4  7400 6228 6317 7047
4  620 8196 7951 8104
4  8071 6928 6935 8072
4  7250 6204 6207 6962
4  6584 8072 6750 6780
4  7736 7737 7373 6620
4  620 7951 621 8104
4  403 6878 6877 6894
4  7174 7175 6809 6812
4  406 6928 506 7877
4  6584 6588 8072 6780
4  645 506 8072 6780
4  645 6780 6588 6589
4  356 272 357 6868
4  7455 7457 6373 7297
4  7827 7605 7609 7829
4  7827 7976 7605 7826
4  7136 7167 6970 6169
4  8317 6888 6762 6887
4  7639 7638 7603 7606
4  7994 7209 7606 7608
4  7639 7603 7825 7605
4  7976 7207 7605 7604
4  7609 7607 7228 7606
4  6977 6393 6978 6352
4  6978 6393 6392 6352
4  7551 7178 7177 7176
4  8074 6353 7349 6351
4  6281 6354 6282 6274
4  6801 6802 6803 6811
4  537 7230 356 6349
4  6355 6353 6817 6351
4  7175 6282 6281 6354
4  8177 6281 6352 6354
4  6630 6631 7042 6486
4  356 6349 7230 6868
4  6483 6486 6479 6480
4  8157 7848 7851 7844
4  719 7143 7988 6766
4  6861 6628 7656 6844
4  7723 6896 6895 6844
4  8214 7254 7978 7855
4  6704 6641 8122 8010
4  47 6643 6933 6925
4  8045 6144 6607 6631
4  8080 8046 8045 6631
4  7854 6895 7654 6333
4  7140 7978 6859 7721
4  8214 8122 7254 6933
4  8122 6641 7254 6643
4  7646 7532 7712 7546
4  6846 6180 7849 6148
4  6845 7296 6168 7137
4  6172 6168 6150 6167
4  6608 7205 7204 6868
4  7143 7655 6924 7142
4  7654 6908 7655 7112
4  6704 6457 8010 6639
4  285 1023 272 7205
4  6150 6889 6971 6165
4  8087 6634 6632 6633
4  6150 6141 6151 6971
4  6287 6288 6862 6289
4  272 7205 6608 6868
4  6871 6862 6872 6863
4  6968 6681 7363 6969
4  8257 8087 6632 6633
4  6338 8245 7660 6341
4  7194 6127 6129 6130
4  8064 7709 8065 8185
4  615 8150 8168 6862
4  7138 6871 6862 6872
4  6287 6862 6871 6293
4  8103 6249 7453 6131
4  8176 7461 7353 7041
4  8175 6562 6561 6135
4  8103 6362 6364 6413
4  7139 6862 6287 6288
4  756 935 6686 6604
4  970 935 936 6686
4  8181 8176 7353 7041
4  6416 6815 7148 6923
4  6482 6961 6484 6963
4  8016 7320 8141 7319
4  8166 7790 8161 7315
4  6416 7148 6196 6197
4  6546 7016 7014 7013
4  7246 7249 7524 7247
4  6546 6544 7016 7013
4  6546 7014 7251 6549
4  544 474 658 6752
4  7272 7274 7202 6478
4  932 357 272 6867
4  7149 7148 6416 6197
4  8297 6416 7148 6923
4  7149 8297 6416 7148
4  7132 7128 7134 7130
4  7131 7129 7128 7130
4  998 6751 658 6302
4  6847 6693 6848 6281
4  6546 6544 6549 6542
4  7779 7305 7783 7129
4  7680 6477 6866 6720
4  7252 8021 8123 7015
4  7243 8229 7245 7244
4  7246 7524 7252 7248
4  8121 7737 6574 6620
4  7299 7304 7305 7129
4  8111 7779 7299 7305
4  7779 7783 7127 7129
4  474 993 6305 6866
4  7369 7366 7304 7300
4  7526 7910 7528 7525
4  6482 6484 6483 6480
4  474 357 6866 6869
4  7016 6229 7351 7013
4  7971 6516 8226 6464
4  6519 6520 6470 6464
4  8164 7968 8281 7351
4  6615 6611 6613 6614
4  8123 6549 7015 7013
4  7781 7131 7783 7129
4  856 6910 256 6854
4  6855 7190 6562 6852
4  7825 7604 7975 7833
4  6460 6461 6521 6462
4  8143 7351 7969 8144
4  7183 6224 6217 6218
4  329 9 0 7471
4  8283 6465 8144 8226
4  6543 7352 8118 7179
4  7648 7190 7653 6853
4  8149 7648 6853 6911
4  7628 7458 7626 7996
4  8158 7705 8099 7106
4  6755 7253 6707 7682
4  7253 6683 6682 6595
4  73 6684 6968 6604
4  7212 7996 7216 7608
4  6645 6648 6647 6708
4  7458 7447 7229 7457
4  7652 7653 6870 6853
4  8121 6623 7737 6620
4  22 6845 6846 6183
4  8251 8317 8086 6887
4  6970 6169 6172 6167
4  7830 8161 7831 7318
4  7639 7605 7824 7829
4  7824 7826 7828 7829
4  176 7652 546 6853
4  8142 7790 8166 7319
4  7961 7909 7830 7828
4  7966 8318 7680 7913
4  176 273 8149 6853
4  6483 6484 7046 6485
4  6519 8226 6518 6464
4  7014 8281 8124 7013
4  625 626 645 6589
4  8188 6616 8226 6518
4  7971 6998 8144 8226
4  7276 7024 7364 6994
4  6996 8283 8144 8226
4  6998 6996 8144 8226
4  6956 6919 6957 6950
4  6385 6388 6673 6387
4  7236 7234 6874 6958
4  7168 8319 6923 6917
4  8259 6390 6917 6383
4  364 8258 6383 6158
4  6921 6923 6917 6391
4  8320 6921 6390 7060
4  7371 7373 7580 7327
4  8320 6390 7234 7060
4  6704 6454 6639 6706
4  10 6452 6703 6905
4  10 6703 192 6905
4  6703 6640 6230 6237
4  7377 7841 7376 7835
4  7602 7385 7386 7702
4  7398 7397 8011 7666
4  7672 7600 7598 7956
4  7957 7387 7385 7956
4  135 6703 137 6639
4  135 6640 6703 6638
4  7469 6924 6825 6766
4  7954 7439 7955 7956
4  7954 7441 7308 7670
4  136 8010 6764 6639
4  135 881 6703 6640
4  7645 7478 6287 7479
4  8232 7719 7733 7224
4  6266 8312 6278 6691
4  8310 6395 7685 6396
4  6538 6687 6403 6280
4  7992 8006 7685 6691
4  6277 8253 6691 6690
4  8310 8312 8304 7685
4  6575 7581 7736 6576
4  6267 6691 8253 6467
4  6793 6575 8036 8038
4  6278 8312 6688 6691
4  6501 6505 8146 6366
4  6266 6278 6267 6691
4  890 7074 7144 7196
4  8223 7750 7749 7744
4  8287 7668 7311 7308
4  8223 8160 7750 7787
4  1005 6610 6524 6523
4  7441 7308 7667 7387
4  1005 6524 161 6523
4  852 7196 161 7062
4  7311 7308 7668 7310
4  7955 7599 7384 7385
4  7667 7398 7386 7310
4  7195 7588 7586 7194
4  6551 7864 7441 6556
4  7394 7841 7309 7666
4  852 7074 890 7196
4  771 7144 6498 7196
4  7991 6411 7669 6412
4  6497 6498 6523 6530
4  7239 7707 8078 7590
4  7074 6498 7196 6523
4  6474 7923 6475 7706
4  6860 6859 7925 6697
4  952 1005 6610 6524
4  7814 7815 8194 7812
4  952 953 161 6524
4  6527 7888 6528 6530
4  7947 7591 7593 7464
4  7813 7812 7815 7463
4  8108 6527 6526 6524
4  6522 6524 6526 6525
4  7012 7004 7002 7001
4  7481 7772 7422 7421
4  6529 6523 7067 6525
4  7131 7132 7570 7130
4  8117 7131 7570 7130
4  8242 7487 8068 7553
4  7419 7424 7423 7421
4  7786 7611 7613 7787
4  7537 7554 7427 7426
4  6221 6220 6715 6722
4  7916 6714 6716 6717
4  7365 7127 7133 7128
4  7299 7779 7127 7129
4  7425 7553 7426 7424
4  7732 7720 7485 7486
4  7460 7459 7447 7457
4  7718 7734 7716 7715
4  7982 7981 7891 7624
4  7537 7427 7482 7426
4  7985 7460 6756 7457
4  6755 8285 6756 6450
4  6647 6648 7626 7446
4  7773 7091 7082 7085
4  7458 7447 6756 7446
4  8301 8304 8234 8303
4  6448 7447 7448 7446
4  7569 7089 7773 7087
4  7127 7129 7783 7130
4  7985 6756 7458 7457
4  6764 6639 8010 6765
4  7469 6825 6702 6766
4  7569 6625 7089 7087
4  6924 6643 6764 6925
4  7839 8194 7815 8221
4  6457 6702 6825 6765
4  7840 7835 7834 7700
4  7143 6924 7469 6766
4  7307 7397 7398 7309
4  8222 8187 7383 7376
4  7377 8194 7839 7376
4  719 7988 720 6766
4  8289 7839 7836 8291
4  8321 8306 7749 8051
4  8290 8247 8291 7939
4  7838 7503 7920 6222
4  7211 7199 7198 7201
4  8014 8246 7767 8013
4  8050 8180 6640 6638
4  7548 7550 7643 7641
4  7529 6680 8228 7523
4  7813 7837 8289 8221
4  7529 7523 8028 7641
4  7072 8230 7935 7073
4  8289 8291 8290 8221
4  7813 7463 7815 8013
4  7771 7810 7199 8013
4  8290 8247 8246 8013
4  8014 7771 7766 7199
4  7646 7516 7517 7532
4  8112 7200 7199 7201
4  7766 8246 8244 7767
4  7522 6678 7516 6680
4  8028 8030 8027 7523
4  7024 6901 6994 6898
4  767 509 766 7145
4  7580 7373 6623 7327
4  6505 8146 6366 7145
4  6505 7145 6366 6506
4  7867 7998 7761 7868
4  511 509 6601 6506
4  6995 6991 8146 7145
4  803 6864 802 8128
4  767 6601 509 7145
4  6328 6781 6782 6329
4  8322 8100 8248 8094
4  802 6271 6864 6260
4  935 6593 6686 6596
4  7574 6664 7511 8075
4  7501 8054 7574 8100
4  1079 405 307 6875
4  8093 8059 8264 7512
4  7951 8104 8044 7876
4  8093 7574 8059 7512
4  8188 8189 8280 7729
4  7501 8059 7574 7575
4  1079 6875 307 6431
4  6435 7031 8296 7332
4  7173 8015 8296 7154
4  7032 8323 8324 8296
4  7153 6435 6298 8296
4  7505 7717 7716 6715
4  8309 7439 7954 7438
4  7954 7387 7441 7956
4  405 6926 403 6894
4  7668 7384 7395 7310
4  7957 7385 7601 7956
4  6983 8253 8145 6469
4  7954 7955 7668 7387
4  7955 7598 7385 7956
4  6394 6283 6284 6332
4  8325 7759 7577 8075
4  6965 6482 6481 6478
4  8054 6513 8075 6511
4  7577 7511 6664 8075
4  7274 6719 7202 6479
4  6663 6664 6513 8075
4  8325 8208 7759 8075
4  8054 6511 8075 7502
4  7677 7723 7656 7012
4  6858 6861 6860 7004
4  1017 372 373 7792
4  67 7001 583 6605
4  6858 6859 6861 7141
4  6843 6844 6627 6700
4  6637 6628 6627 6629
4  6861 7141 7656 7004
4  7360 7011 7012 7358
4  6859 7721 6861 7141
4  8169 8107 7923 7706
4  7925 8169 8107 7923
4  8137 7403 7923 6699
4  7922 8170 7403 7923
4  8085 8257 8255 8087
4  6472 6474 6701 6475
4  6472 6475 6701 6697
4  6634 6633 7681 6974
4  7136 6970 7135 6169
4  8137 7403 8169 7923
4  8179 6344 6345 6127
4  7588 7194 6127 6129
4  7395 7310 7386 7666
4  6202 7273 7272 6965
4  7272 6965 7273 6478
4  7386 7398 7834 7666
4  7698 7702 7696 7700
4  7703 7222 7696 7895
4  6311 6208 6302 6304
4  7599 7703 7698 7895
4  7286 8155 7285 7291
4  7602 7895 7385 7702
4  7384 7385 7599 7702
4  6507 6724 7823 6655
4  6346 7193 7195 6138
4  7119 6250 8184 7709
4  8268 7950 7219 6724
4  6653 6649 6655 6727
4  7098 6507 7099 6724
4  8274 6724 6509 6514
4  8139 6380 6377 8140
4  7357 8326 8305 7116
4  7356 7117 7124 7116
4  8305 7124 7126 7116
4  8276 7098 7099 6724
4  8268 7219 8274 6724
4  7355 7124 8305 7116
4  7124 7125 7126 6188
4  6194 6189 6381 6191
4  7950 7099 6326 6724
4  7357 8305 7150 7116
4  7357 8299 7354 7150
4  8133 6566 6560 6856
4  256 6856 6849 6852
4  6870 6855 6186 6854
4  8133 6856 8175 6910
4  407 1022 8101 6849
4  8299 7150 7151 6195
4  7646 7532 7546 7330
4  7356 7357 7354 7116
4  7299 7304 7129 7300
4  6279 6688 6687 6280
4  6268 6269 6267 6467
4  8040 7874 8003 7809
4  7684 6537 6397 7519
4  8145 8286 7887 8039
4  936 935 585 6593
4  256 1022 407 6849
4  6268 8083 8327 8084
4  6247 6733 7037 7038
4  7036 6127 7037 6128
4  7508 7520 7509 7511
4  7858 8084 6899 7859
4  936 8328 971 7137
4  7041 6903 6321 6322
4  6737 6738 7775 7709
4  6404 6409 6904 6405
4  6731 6732 7041 6733
4  6985 6899 6992 6468
4  8145 7431 8005 8003
4  7278 6985 8089 6901
4  7024 6991 6360 6368
4  6268 6267 8083 6467
4  852 7062 946 6767
4  6649 6724 6655 6725
4  6980 7023 7022 6361
4  7950 8276 7949 7099
4  6980 6981 6984 6982
4  8044 6750 7875 7876
4  6512 6507 6515 6510
4  8196 8058 8104 6779
4  6749 6750 6584 6745
4  6749 8058 6584 6750
4  935 937 585 6596
4  8006 6395 6403 6401
4  8274 7822 8207 6509
4  941 191 909 7017
4  6250 6418 7709 6419
4  6249 6418 6250 6419
4  7193 8252 7588 6127
4  832 6175 6177 6176
4  8252 6127 7036 6128
4  6146 6147 6607 6178
4  409 970 971 6184
4  7968 8283 6465 8144
4  998 8136 6751 6818
4  8177 6693 6847 6281
4  6310 7246 6541 7248
4  7183 7182 7400 6218
4  8329 6202 6205 6203
4  7350 8016 8141 8124
4  6214 6215 6544 6542
4  8016 7319 8141 8124
4  8281 8142 8124 7969
4  8281 7968 8142 7969
4  7968 7969 7351 8144
4  8076 7798 8074 6817
4  8273 7550 7879 8027
4  7349 6353 6352 6351
4  6847 6393 6977 6352
4  6198 6199 6349 6200
4  8026 7879 6839 6600
4  474 6866 6305 6869
4  6310 6392 6351 6542
4  6837 7879 6598 6600
4  7213 7468 7462 7464
4  8235 6598 6837 7879
4  6937 7875 6838 7879
4  74 6968 6969 6604
4  7878 6838 7875 7879
4  7294 7460 6763 7295
4  7456 7229 6373 7457
4  6880 6595 6881 7137
4  6143 6147 6144 6142
4  8156 8157 7850 6140
4  6937 6838 8026 7879
4  7419 7423 7420 7421
4  8285 7626 7458 7446
4  7567 7418 7088 7420
4  7849 7306 7842 7845
4  7089 7773 7087 7085
4  7419 7918 7420 7423
4  7918 7088 7420 7084
4  367 832 6718 6176
4  7917 7420 7773 7084
4  7915 7908 8318 7911
4  7883 7847 7961 7829
4  7966 7544 7986 6146
4  8173 7594 7476 7600
4  6786 8132 6995 6897
4  6677 6670 6669 6671
4  7022 7428 7967 7277
4  7872 7280 7474 7870
4  8198 7967 7430 7277
4  7065 7066 6588 6592
4  7391 6679 7389 7390
4  7473 7673 7476 7600
4  7871 7942 7870 7476
4  7871 8173 7942 7476
4  7473 7633 7872 7476
4  7643 8027 8029 7523
4  8277 6690 7992 6469
4  8306 8240 8308 8051
4  469 7136 108 6169
4  8306 8240 7973 7769
4  8330 8051 7973 7750
4  6819 8261 7157 6592
4  6959 7724 6918 6675
4  7749 7743 8051 7746
4  6416 6815 6192 6196
4  6956 6959 6918 6919
4  335 374 372 6156
4  6948 6959 6956 6950
4  7749 8051 7743 7750
4  8240 8330 7743 8051
4  363 418 6386 6387
4  8267 6664 7577 7510
4  7758 7658 7508 7511
4  7997 7520 7511 8094
4  123 142 1011 8264
4  6536 7515 7520 8007
4  7759 8203 7511 8075
4  7859 6425 6422 6423
4  7658 7997 7520 7511
4  155 6784 6426 6425
4  7758 7759 7658 7511
4  6269 7859 7685 6691
4  798 6934 7140 7141
4  7022 7023 7429 7277
4  6980 6983 8005 6982
4  676 723 7931 6900
4  6843 6628 6626 6627
4  8256 6966 7979 7111
4  8084 7760 6899 6468
4  8183 7906 7905 7898
4  7902 7898 7905 7904
4  7279 7281 8057 7901
4  7983 6675 6674 7617
4  6843 6626 6695 6627
4  7957 7386 7602 7385
4  7942 7594 7596 7476
4  8186 7281 7616 7870
4  8225 7674 7856 7634
4  7722 6700 6698 7979
4  7286 7283 7285 7282
4  7474 7870 7287 7476
4  7618 7616 8097 7617
4  7925 7923 6475 6697
4  6695 6701 6698 6697
4  8331 6952 8212 6945
4  7584 8224 7058 7479
4  6944 7055 7186 6945
4  6944 6294 7055 7056
4  7816 7057 7857 7056
4  7741 7742 6307 6341
4  8064 6340 6307 8185
4  8103 6362 6363 6364
4  7039 8065 8064 7709
4  6294 7479 7055 7857
4  6338 8185 8245 6341
4  6306 6410 6364 6365
4  7036 7039 8174 6248
4  7118 6244 7119 6245
4  7741 8098 7379 7662
4  8212 6873 7186 6945
4  7803 6339 8115 7797
4  6952 6954 6945 6946
4  8255 7358 6683 7681
4  8085 8087 8255 7681
4  8064 8065 6340 8185
4  6418 8185 7709 6419
4  7119 8184 7775 7709
4  7253 6887 7681 7682
4  8318 7910 7913 7911
4  7915 8318 7913 7911
4  7046 7914 7912 7913
4  7914 8019 7909 7910
4  7966 7986 7915 7848
4  6731 7041 6732 6321
4  8125 6140 6631 7042
4  444 6866 357 6867
4  8181 6733 6732 6734
4  7119 6738 6250 7709
4  7041 6330 6903 6322
4  7036 6248 7037 7038
4  390 6242 797 6322
4  8157 7851 7850 7844
4  7984 7911 7847 7828
4  6739 8293 8181 6733
4  6372 6373 7457 7297
4  6371 7843 7228 6373
4  8148 8061 8062 7556
4  390 7217 6330 6903
4  7035 8176 8293 6733
4  7080 6730 6723 6726
4  7460 7447 6448 6756
4  7459 7995 7447 7229
4  7852 7079 6771 6772
4  7637 6373 7456 7229
4  6771 6327 7882 6777
4  7971 8143 7970 6465
4  6328 6775 6772 6726
4  7078 7219 7950 6723
4  6521 6462 7263 6517
4  6471 6462 7727 7610
4  7644 6870 8061 7556
4  6566 6562 7649 6565
4  7971 8226 6465 6464
4  6566 6855 6562 6856
4  8159 7558 7557 7556
4  8063 8062 8061 7649
4  8250 6683 6682 6887
4  6959 7619 6675 6949
4  8186 7870 7287 7282
4  7595 7597 7602 7895
4  7872 7870 7474 7476
4  6560 6562 8175 6856
4  7983 7615 7621 7620
4  8173 7633 7673 7476
4  8251 6886 8317 6887
4  6888 6762 6887 6754
4  7439 7672 7442 7437
4  7442 7957 7601 7956
4  7253 6880 6682 6887
4  7253 6682 6683 6887
4  7614 6461 7612 7610
4  8086 7987 7681 6887
4  7410 7411 7324 7412
4  7413 7867 7753 7409
4  7987 6887 6762 7682
4  8167 7866 7743 7744
4  8321 7973 8051 7750
4  7867 7761 7753 7868
4  7753 7761 8138 7762
4  7399 7967 6796 6821
4  7972 8160 7974 7973
4  8167 7743 8330 7750
4  7779 7782 7806 7783
4  6676 7492 6677 6670
4  7974 8167 7750 7787
4  7313 7791 7317 7787
4  7565 6668 7392 6671
4  7334 7546 7545 7331
4  7789 8160 8223 7787
4  6677 7326 7579 6671
4  8256 6966 6909 7979
4  8256 7477 6966 7111
4  7660 7661 7663 7662
4  7477 6644 6825 7110
4  8332 7109 6908 6966
4  8114 7741 6339 7662
4  8158 8078 7705 7106
4  6908 7112 6909 6966
4  7109 6924 7112 7110
4  7663 7104 8158 7664
4  8112 7199 7464 7201
4  7211 8014 7766 7199
4  8161 7791 7831 7317
4  8047 7072 7998 8230
4  8332 7818 7109 6966
4  913 6272 802 6262
4  8240 7743 8048 8051
4  7404 7405 7415 7406
4  6193 6192 6416 6815
4  8306 7770 8240 7769
4  7133 7134 7772 7421
4  6193 6440 6416 6195
4  6193 6815 6446 6922
4  6270 6192 6193 6260
4  6864 6193 6444 6922
4  6270 6193 6194 6375
4  6233 6235 6238 6232
4  8242 8068 7981 7624
4  192 6231 909 6905
4  7552 7425 7487 7553
4  6231 6240 6905 6232
4  6564 7556 6565 6554
4  909 191 6905 6240
4  6490 6238 6237 6582
4  7537 7536 7426 7367
4  191 6905 6240 6988
4  7482 7426 7427 7421
4  7481 7426 7482 7421
4  7661 7740 7383 7378
4  7660 7739 7661 7382
4  7840 8222 7841 7835
4  7954 7668 7308 7387
4  6561 8103 7585 6413
4  8213 6239 6491 6240
4  7386 7666 7834 7702
4  7384 7386 7395 7310
4  7386 7834 7701 7702
4  7017 6240 8213 6988
4  6382 6194 6195 6439
4  6270 6194 6193 6192
4  7840 8243 7834 7666
4  7838 7836 7835 7700
4  7397 7841 8011 7666
4  7398 7310 7309 7666
4  7398 8011 7834 7666
4  7740 7394 8222 7841
4  422 6815 6864 6922
4  7630 7240 6648 7627
4  7947 7464 7593 7201
4  7592 7468 7213 7591
4  7239 7468 7592 7591
4  6976 6215 7930 6975
4  7468 7591 7467 7464
4  7814 7812 7467 7463
4  8099 7105 7104 7106
4  6976 6319 6228 6975
4  7400 7182 6228 6218
4  7919 7836 7920 6222
4  6976 6319 6317 6228
4  7179 6227 6228 6216
4  6831 6829 6827 6828
4  7180 6827 6227 6224
4  7115 7000 6827 6224
4  7998 7070 7761 7763
4  7732 8232 7720 7733
4  7701 7919 7697 7696
4  6219 7697 7505 6220
4  7115 6212 7113 6830
4  6704 6760 6705 6989
4  7180 6827 7115 7051
4  7306 6180 6168 6150
4  7306 6971 6150 6889
4  7306 8333 6889 7297
4  6888 6763 6754 7295
4  6487 6233 6236 6235
4  6166 6891 6170 6165
4  6892 6151 6971 6165
4  6888 7294 6763 7295
4  7254 6641 6642 6643
4  6892 6971 8333 6889
4  8334 7819 7821 6548
4  7115 7000 6224 6997
4  7671 8335 7215 6236
4  990 611 546 6872
4  546 611 856 6863
4  6210 7233 7232 7000
4  6210 6212 7728 7000
4  546 256 273 6854
4  8127 6225 6224 6997
4  8126 7000 8127 6224
4  7232 7233 8127 7000
4  7652 8149 7653 6853
4  8290 8221 8291 8013
4  273 857 903 6851
4  176 546 273 6853
4  8289 7839 8291 8221
4  7813 8187 7837 8221
4  694 7161 7160 8102
4  546 6853 7652 6872
4  7191 7648 7192 7185
4  6562 7190 7489 6850
4  6856 6910 6186 6854
4  615 900 612 8168
4  6944 6579 7186 7055
4  7480 7435 7795 7187
4  8194 7815 8221 7812
4  7839 8194 8221 7376
4  7813 7815 8221 8013
4  8031 6943 7963 6578
4  602 6967 541 6383
4  6150 6173 6151 6142
4  6172 6143 6173 6152
4  6161 8249 6166 6165
4  7059 6956 7061 6957
4  7167 6171 6172 6143
4  7236 6874 6873 6954
4  7694 6375 6374 6376
4  7081 8336 8320 6440
4  6881 6170 6168 6169
4  8063 8061 7491 7649
4  6845 7137 6168 6184
4  8259 7234 6390 6874
4  6172 6168 6169 6182
4  7793 7236 8259 6874
4  6263 6265 6189 6262
4  6390 6389 6446 6391
4  7220 7218 6730 6726
4  7219 6729 6724 6725
4  7339 7203 6328 6781
4  7945 6328 7203 6651
4  7945 7203 6654 6651
4  6649 6326 6328 6651
4  6653 7945 6649 6727
4  8327 7760 8084 6468
4  6705 6761 6580 6456
4  893 1013 192 6230
4  999 712 6704 6706
4  893 192 881 6230
4  6985 7023 6986 6982
4  6983 6467 8253 6469
4  7219 7080 6730 6723
4  8276 8337 7949 7098
4  8004 6469 6466 6986
4  7760 6992 6899 6468
4  8083 6468 8084 6467
4  6729 6728 6655 6725
4  6984 7760 8327 6468
4  136 6704 8010 6639
4  6453 6547 6458 6459
4  6924 6643 6644 6765
4  639 7188 6666 6665
4  6657 6659 6650 6652
4  802 6271 6260 6262
4  6704 6457 6639 6454
4  6983 8083 8253 6467
4  8268 8276 7950 6724
4  7508 7576 7577 7510
4  7821 6568 6547 6548
4  6771 6327 6777 6769
4  6193 6440 6195 6439
4  287 6782 454 6329
4  7341 8128 6775 6271
4  629 457 287 6783
4  301 6792 454 6913
4  1016 8162 301 6912
4  6705 7261 6641 6644
4  7339 7341 8128 6775
4  6705 7261 6644 6458
4  6705 6458 6457 6454
4  6488 6458 6580 6455
4  301 8162 6792 6912
4  454 6781 6792 6329
4  7080 7220 6730 6726
4  7853 6772 6771 6769
4  789 6995 766 6897
4  6705 6580 7261 6458
4  7555 6559 7559 6552
4  6267 8253 8083 6467
4  6558 6871 7557 7556
4  8148 8062 8159 7556
4  7355 7357 7356 7116
4  7644 8311 6870 6871
4  7123 6420 6197 6188
4  6192 6196 6261 6190
4  7635 6292 6294 6857
4  7355 8305 8326 7116
4  826 639 72 6665
4  8224 7479 7557 7560
4  7645 7479 6287 7557
4  7644 7645 6871 7557
4  8277 6324 6323 6712
4  8204 6511 6509 6508
4  7730 8315 7645 7557
4  6512 6508 6507 6510
4  6557 6558 6566 6186
4  8207 7822 8204 6509
4  7188 8267 6666 6662
4  8315 8224 7479 7557
4  8300 8266 7576 7514
4  6660 6661 7188 6662
4  8275 8207 8206 6514
4  8171 7705 7706 7664
4  8158 7104 8099 7664
4  7665 8171 8169 8120
4  8114 8172 8098 7664
4  7665 7663 8171 7664
4  329 7049 7472 7051
4  6403 6537 6395 8220
4  7659 8220 8241 7520
4  7470 6998 7471 7115
4  8338 7659 8314 8220
4  6227 6828 7051 7048
4  6536 7515 6537 7520
4  8109 7520 7997 8007
4  6403 6536 8220 8007
4  8313 6278 8312 6688
4  6279 8220 8109 6687
4  8314 6279 6688 8220
4  626 8196 8104 6779
4  909 7017 191 6240
4  6935 6931 6747 6932
4  256 6849 857 6852
4  8273 6936 6929 8027
4  8273 7879 6936 8027
4  7875 7877 6877 6893
4  8043 8339 7878 6936
4  7878 8339 8236 6936
4  8064 8185 6307 6309
4  6363 6309 6419 6364
4  6308 6309 6307 7708
4  6307 6309 8185 6341
4  7701 7919 7696 7700
4  7701 7696 7895 7702
4  7840 7838 7835 7700
4  7698 6219 7699 7696
4  7838 6222 7836 7700
4  7699 6222 7838 7700
4  7701 7702 7834 7700
4  6711 6581 6491 6238
4  6494 6492 6491 6581
4  7671 6234 7214 6236
4  6451 6453 6452 6582
4  6729 7822 6509 7823
4  6656 6507 7823 6655
4  6729 6987 7823 6655
4  7497 7823 6987 7498
4  8091 7823 6508 7498
4  8091 6656 7823 7498
4  990 546 7652 6872
4  397 7683 119 7519
4  7687 8310 8301 6396
4  6566 6870 6855 6186
4  7138 8311 6871 6872
4  8150 7138 6862 6872
4  397 117 8300 7519
4  6857 6287 6871 6293
4  990 7652 8150 6872
4  397 8300 7683 7519
4  8267 7577 7576 7510
4  6507 6724 6509 7823
4  6537 6400 6397 7519
4  629 230 589 7101
4  589 926 590 6659
4  7518 7513 6400 7519
4  6771 7079 7882 6327
4  117 6400 7513 7519
4  7950 7949 7881 6326
4  287 6792 8001 6791
4  6649 6507 6650 6652
4  8300 7576 7519 7514
4  7173 8296 7332 7154
4  590 6654 458 6659
4  7188 6661 8267 6662
4  7170 7333 7334 7331
4  629 589 457 6783
4  457 6659 458 6782
4  8217 7153 8260 6436
4  8025 6301 7153 7102
4  6301 6298 7153 7102
4  8217 7153 6436 7102
4  6442 6920 6445 6437
4  7153 7154 8015 7172
4  7152 7332 6435 7154
4  7152 8260 7153 6436
4  6199 6752 6349 6348
4  8270 6207 6206 6813
4  131 709 149 6394
4  6285 6541 8202 6284
4  8271 6800 8272 6803
4  6543 7179 6545 6544
4  6324 6712 8006 6401
4  7174 6692 7175 6282
4  710 6313 709 6314
4  7551 6809 7178 7176
4  8270 8329 6205 6207
4  8270 8076 8329 6207
4  6228 6316 7050 6318
4  7109 6966 7818 7110
4  6311 6817 6355 6814
4  8147 7677 7679 7361
4  7922 6701 7923 6699
4  60 6858 798 7140
4  987 7140 170 8214
4  7922 6701 8170 7923
4  45 47 46 8122
4  6457 6458 6568 6459
4  685 686 170 6925
4  508 646 506 8071
4  7257 7402 8137 7403
4  323 334 335 7053
4  6805 6935 6931 6747
4  7030 7032 7033 6840
4  7542 8170 8120 7403
4  7402 7802 7542 7258
4  7799 7262 7260 7258
4  822 7514 7500 6666
4  7401 7256 7403 7258
4  7922 7542 7401 7403
4  8207 6511 8206 6514
4  8246 8247 7767 8013
4  6540 7515 6536 8007
4  7813 8221 8290 8013
4  8014 8290 8246 8013
4  1010 832 986 6177
4  7850 6141 6140 7844
4  7813 8290 8014 8013
4  6865 6630 7680 6720
4  6784 7858 6785 6426
4  8290 8291 8247 8013
4  8046 7045 8125 6631
4  6630 6607 6719 6178
4  6684 7135 6682 6685
4  6453 6455 6490 6582
4  6458 6456 6455 6454
4  973 209 57 6335
4  68 7362 8147 7359
4  685 170 798 6336
4  987 170 45 8214
4  6758 6581 6583 6456
4  209 798 57 6335
4  7028 6758 6492 6581
4  7020 6495 7019 6493
4  7012 7002 7361 7359
4  900 665 612 6288
4  8340 7028 6494 6581
4  8340 6711 6489 6581
4  7068 6360 6366 6367
4  6501 6366 6991 6368
4  6991 6366 6360 6368
4  6369 6502 6500 6367
4  7016 8164 8281 7351
4  590 926 6657 6659
4  493 103 701 6713
4  8245 7739 6341 7708
4  7863 6565 6563 7862
4  7016 7351 8281 7013
4  7180 6229 6226 6216
4  7861 6412 6362 6413
4  7352 7470 7180 6229
4  997 8101 7453 8102
4  991 997 1024 7453
4  6133 6127 6136 6130
4  6543 7352 7179 6544
4  6214 6223 6229 6216
4  7352 7180 7179 6229
4  7259 7401 7260 7255
4  6641 7799 7262 7260
4  6452 6703 6237 6459
4  7988 7469 8180 6766
4  7109 7469 7655 6924
4  6760 7799 6641 7260
4  6826 7477 6567 6568
4  7856 8173 7633 7673
4  7254 7262 7257 7255
4  6895 6841 6906 6909
4  7856 7674 7673 7634
4  8309 7436 7439 7438
4  8219 6395 7686 6537
4  7473 7672 7673 7600
4  7632 7872 7473 7633
4  7872 7621 7615 7620
4  6285 6310 6541 6284
4  6998 8188 8280 6999
4  7440 7437 7674 7636
4  8173 7673 7676 7600
4  6833 7400 6315 7047
4  7930 6213 6214 6215
4  8209 6847 6979 6977
4  752 6169 108 6182
4  756 6686 6184 6685
4  850 464 189 7114
4  8042 6211 6831 6829
4  756 6686 970 6184
4  6355 6351 6817 7244
4  8130 6352 6353 6354
4  8313 8312 8219 6688
4  6282 6354 6812 6274
4  971 8328 6845 7137
4  108 7136 6685 6169
4  6845 6168 6180 6184
4  108 6169 6184 6182
4  709 569 501 6283
4  6692 6693 7175 6282
4  8241 6537 7509 7520
4  7510 7500 7512 7514
4  118 7518 8265 7513
4  519 759 1029 7921
4  6258 8025 6259 6251
4  118 6400 7518 7513
4  8262 8195 7452 6256
4  8264 7512 7500 7513
4  118 845 8265 7518
4  6298 6299 6297 6296
4  117 8300 7519 7514
4  437 1019 436 8294
4  834 6299 6295 6296
4  684 98 601 6259
4  8053 7571 8025 8052
4  8241 7509 7508 7520
4  6403 6395 6537 6398
4  860 6402 6399 6398
4  6429 6401 6427 6399
4  117 6400 118 7513
4  704 706 968 6315
4  7183 6227 6827 6224
4  468 6831 6833 6828
4  7508 7576 7510 7509
4  860 6400 119 6397
4  7986 6146 6140 7042
4  7180 6227 6827 7051
4  7966 6630 6146 7042
4  6217 8127 6225 6224
4  7907 7986 6146 6148
4  7966 6630 7544 6146
4  6684 7136 7135 6685
4  8268 8274 8276 6724
4  6306 8064 6309 6419
4  106 7136 6684 6685
4  6418 6309 8185 6419
4  73 756 106 6684
4  8065 7709 7797 8185
4  8065 7797 6340 8185
4  6845 7296 7306 6168
4  8250 6682 6886 6887
4  108 970 409 6184
4  6338 6340 7797 8185
4  6886 6681 7135 6682
4  8064 7709 8185 6419
4  7907 6846 6148 6181
4  469 7167 6172 6187
4  6298 6436 6299 6434
4  756 970 108 6184
4  8269 6809 6801 6803
4  6835 6894 6876 6431
4  891 6299 481 6431
4  481 6299 6436 6431
4  6432 6435 6939 6434
4  6436 6431 6299 6434
4  6298 6941 6939 6434
4  262 6942 6433 6941
4  436 6299 6942 6941
4  437 436 262 6941
4  891 307 6835 6431
4  8250 8255 6683 7681
4  6630 6479 6719 6631
4  8085 8250 8251 8086
4  6635 6627 6972 6629
4  7202 6869 6720 6868
4  6630 6477 6479 6486
4  8255 8087 8257 6633
4  356 6349 6868 6752
4  6965 6478 6204 6964
4  7272 6199 6204 6478
4  7897 7902 7898 7900
4  932 6177 6720 6718
4  6294 6857 6287 7479
4  6857 6871 6287 7557
4  7279 7902 7903 7898
4  6650 7100 7094 7095
4  7338 7944 7342 7337
4  7584 7478 7479 7055
4  6326 7099 7096 6783
4  7945 7339 7203 6328
4  8295 8315 7584 7479
4  301 287 454 6792
4  7993 7015 8018 7525
4  8224 7557 7558 7560
4  7680 8318 7527 7528
4  7508 7510 7577 7511
4  7576 7510 7509 7514
4  190 189 6 8280
4  154 758 327 8118
4  7014 8017 7015 8124
4  8059 8264 7512 7500
4  8212 7236 6873 6954
4  6674 8057 7617 7725
4  363 8031 323 6154
4  123 8264 7500 7513
4  117 7513 7500 7514
4  7454 6445 6920 6437
4  8116 7342 7336 6445
4  7983 7617 7615 7620
4  7983 7619 7617 7620
4  7574 6664 8054 7575
4  6959 7618 7724 6675
4  6948 6951 6959 6949
4  363 323 364 6155
4  6664 6513 8054 6667
4  117 123 7500 7513
4  8337 6661 6515 6514
4  7983 6674 8057 7617
4  8057 7281 7615 7617
4  6635 6860 7880 6696
4  6474 7704 7706 7238
4  7188 6666 6665 6662
4  6472 6973 7241 6696
4  822 7500 6667 6666
4  562 7575 81 6667
4  81 8059 8055 7575
4  639 822 6667 6666
4  7306 7296 7455 7297
4  7626 7627 7996 7446
4  7458 7229 7447 7996
4  7985 7456 7455 7457
4  8055 8054 6512 6667
4  7751 7613 8223 7744
4  77 81 8055 6667
4  8167 7743 7750 7744
4  7445 7264 7263 7266
4  6520 6471 6470 6462
4  7445 7263 6521 7266
4  7917 7420 7918 7423
4  7971 8143 6465 8144
4  6519 6470 8283 6464
4  6470 6471 7006 6463
4  7734 7486 7423 7715
4  6520 7263 6462 6517
4  7488 7423 7486 7424
4  6520 7727 6471 6462
4  8166 7319 7790 7315
4  8160 7317 7974 7787
4  8016 8017 7319 8124
4  7422 7917 7734 7423
4  7488 7734 7718 7486
4  7485 7423 7419 7424
4  7714 7918 7423 7715
4  7992 6690 6467 6469
4  6678 7562 6680 6671
4  7563 7321 7323 7324
4  723 8089 7931 6900
4  6598 8273 7547 6600
4  6466 7859 7992 6421
4  7522 6676 6678 6679
4  8228 7390 8030 7523
4  8002 8004 6466 6986
4  7517 7532 6680 7562
4  7032 8024 6298 8296
4  6466 7859 6899 6467
4  6985 6992 6900 6901
4  8145 6469 8003 6986
4  7676 7442 7600 7437
4  7672 7442 7600 7956
4  7674 7676 8173 7673
4  7473 7672 7675 7673
4  98 97 7521 6885
4  7475 7476 7596 7600
4  6883 6884 7729 6885
4  41 8041 6885 6257
4  8173 7476 7673 7600
4  8173 7676 7594 7600
4  7657 7659 8338 8241
4  7758 7658 7657 7508
4  7672 7475 7598 7600
4  8119 6256 6258 6259
4  7440 7676 7674 7437
4  7784 7806 7779 7782
4  684 6885 98 6259
4  7365 7367 7366 7128
4  682 683 7168 6923
4  7780 7781 7804 7782
4  6573 7736 6618 6574
4  7781 7131 8117 7783
4  41 6885 684 6257
4  6148 6150 6141 6142
4  7369 7537 7366 7367
4  8254 6892 6151 6971
4  7779 7806 7807 7783
4  7779 7807 7127 7783
4  6143 6145 6173 6142
4  8153 7733 7290 8154
4  7579 7580 7325 7326
4  7735 7718 7227 7733
4  7580 7325 7326 7327
4  7563 7328 7561 7323
4  7735 7484 7733 8154
4  7712 7578 7713 7564
4  7531 7561 7565 7562
4  8341 7484 7735 8154
4  7572 7197 7444 7545
4  7517 7712 7532 7564
4  8341 8152 8067 8154
4  7643 7550 7523 7641
4  7710 7564 7546 7539
4  8008 7541 7711 7539
4  7517 7562 7578 7564
4  8342 7484 8068 8154
4  7066 7075 6592 7069
4  7466 7810 7815 7463
4  8078 7811 7468 7467
4  8135 8261 6592 7069
4  605 59 604 7009
4  6819 6588 6591 6592
4  6591 6747 6592 6745
4  7132 7418 7567 7134
4  6819 7399 6748 6747
4  7738 7373 7580 6669
4  7276 7364 7065 7146
4  6779 6589 6778 6587
4  6743 6586 6748 6745
4  7365 7129 7366 7300
4  7127 7568 7133 7130
4  8117 6619 7783 7130
4  7786 7953 8167 7613
4  8138 7092 7754 7762
4  6457 6825 6702 6568
4  6642 6933 6643 6925
4  7270 7265 7264 7266
4  7751 8223 7749 7744
4  7832 7825 7972 7833
4  7727 7726 7610 7269
4  7614 7612 7404 7610
4  6705 6644 6457 6458
4  8053 8025 8119 8052
4  983 723 676 6424
4  6641 6644 7259 7111
4  7208 7604 7769 7209
4  6641 6644 6643 8010
4  6567 6644 7261 6458
4  6471 7953 7611 7610
4  6567 7477 7261 6644
4  7422 7772 7420 7421
4  8160 7973 8321 7750
4  7741 7742 6341 7382
4  6497 7074 6498 7144
4  7394 7841 7381 7309
4  6366 7144 6506 6993
4  7321 7410 7414 7411
4  6497 7144 6498 6506
4  7726 7407 7866 7405
4  6786 6785 8132 6897
4  7372 7375 6623 7327
4  7736 6622 6618 6620
4  6845 7306 6180 6168
4  8138 7092 7762 7093
4  6168 6170 6165 6167
4  6161 6160 8249 6165
4  7849 6148 6180 6150
4  7089 7091 7773 7085
4  7992 7685 7859 6691
4  7091 7092 8138 7093
4  7089 7752 8138 7090
4  7342 7336 6445 7337
4  6377 7165 8140 6379
4  7341 7343 7335 6374
4  7165 6771 6777 6379
4  287 457 454 6782
4  6775 6271 6777 6374
4  8116 7342 8056 7725
4  8298 7151 6440 6195
4  7151 8297 8320 6921
4  6466 7992 6467 6469
4  541 6917 683 6391
4  7759 7511 7577 8075
4  926 78 6658 7100
4  7024 6992 6985 6901
4  77 562 81 6667
4  7097 7096 7098 7095
4  72 77 180 7094
4  8253 6467 6690 6469
4  6660 8337 6661 6515
4  589 180 926 7100
4  6650 6512 6515 7094
4  327 7472 329 7049
4  8304 6269 7859 7685
4  6466 6900 6899 6421
4  8084 7760 6785 6899
4  8250 7681 6683 6887
4  6755 7682 6707 6450
4  6636 7681 6974 7682
4  6632 6628 6633 6629
4  7008 6636 6707 6602
4  7152 7333 7154 7331
4  7643 7522 7516 7523
4  7107 6298 6300 6296
4  6531 7682 6447 6450
4  6626 6972 6627 6629
4  6634 6531 6972 6974
4  7107 8294 7076 6295
4  995 7159 7647 7160
4  8101 6849 6135 8102
4  7159 7647 7160 7185
4  995 7647 903 7160
4  8217 8216 8025 7102
4  694 6849 7160 6851
4  318 7159 317 7158
4  7160 7185 6911 6850
4  6132 6135 7184 6130
4  6753 7985 7296 7295
4  7433 8037 8082 8038
4  7985 7460 7457 7297
4  8333 7845 6372 7297
4  645 8071 8073 8072
4  813 814 7065 8073
4  6819 7157 8261 7967
4  7306 7455 7845 7297
4  771 852 890 7196
4  8198 7430 7434 7277
4  6748 8135 6592 7075
4  813 8073 7065 6588
4  626 621 6780 8104
4  8043 8044 8058 6750
4  7391 6806 6805 6808
4  6800 6802 8272 6803
4  6372 7845 6373 7297
4  7912 7913 7911 7848
4  7914 7913 7910 7911
4  7966 7913 7680 6485
4  8318 7910 7528 7913
4  6822 8316 8270 6813
4  7384 7386 7385 7702
4  7668 7955 7384 7387
4  7311 7309 7308 7310
4  7955 7385 7384 7387
4  7601 7602 7595 7597
4  6202 6965 7272 6204
4  7598 8000 7599 7597
4  7598 7601 7385 7956
4  6203 7243 7250 6207
4  7439 7598 7955 7956
4  544 7121 6349 6751
4  7672 7600 7442 7437
4  6580 6761 6583 6456
4  8329 8076 6203 6207
4  6758 6740 6734 6741
4  7450 7449 8292 7029
4  758 9 329 7472
4  7449 6758 6734 6408
4  6451 6492 6759 6581
4  7028 6492 6494 6581
4  6451 6759 6492 6407
4  6451 6581 6759 6456
4  6760 6758 6759 6741
4  7035 8179 8178 7037
4  7449 6739 8292 6734
4  8086 8317 6762 6887
4  8012 7323 7322 7324
4  6760 7778 6741 7777
4  6180 6148 6174 6152
4  6760 6759 6705 6989
4  7573 8217 8025 7153
4  8343 8191 8192 8015
4  6254 6300 6255 6252
4  6968 6681 6969 6604
4  7032 8324 8024 8296
4  8191 8192 8015 8052
4  6888 7295 6754 6882
4  970 6686 7137 6184
4  8125 7046 8157 7042
4  7294 6889 7297 7295
4  7306 8333 6971 6889
4  6732 7041 6903 6321
4  6758 7778 6740 6741
4  6710 6487 6489 6238
4  6760 7778 6758 6741
4  8254 6141 7850 6971
4  7215 6487 6710 6233
4  6978 6215 6542 6975
4  7214 6548 6236 6237
4  7506 6547 6487 6236
4  6760 6759 6758 6456
4  7793 6874 8259 6383
4  8336 8298 7151 6440
4  6847 6281 6393 6352
4  7349 6978 6392 6352
4  7081 6440 8320 7060
4  7358 7010 7001 6603
4  756 74 935 6604
4  67 6603 74 6969
4  6684 6682 6681 6604
4  7081 8113 7059 7060
4  6595 6604 6686 6596
4  7358 6602 7010 6603
4  7991 6410 6412 6413
4  775 779 780 6196
4  7589 7585 6364 6413
4  848 8278 7148 6923
4  8336 8298 8299 7151
4  7151 6921 8320 6440
4  6444 6193 7454 6922
4  6837 7034 8302 6836
4  8043 7875 6750 6936
4  6410 7589 6364 6413
4  7587 7991 7863 6413
4  6410 6413 6364 6365
4  8236 6936 8273 7879
4  712 7018 6989 6706
4  6451 6706 6989 6407
4  759 7018 7019 6405
4  6749 8043 6750 6746
4  6432 6839 7031 6600
4  656 7162 711 6989
4  656 711 712 6989
4  6306 6308 6410 6365
4  6664 8054 7575 6667
4  6443 7708 6309 6365
4  7657 8241 7508 7520
4  8314 6279 6278 6688
4  8313 6278 6266 8312
4  8174 6419 6306 6364
4  6249 6419 6128 6364
4  8103 6364 7585 6413
4  7587 7589 6410 6413
4  7304 7366 7131 7129
4  860 847 119 6400
4  117 119 6400 7519
4  6306 6419 6309 6364
4  6541 6545 8202 6284
4  131 709 6394 6314
4  8004 8277 7992 6469
4  860 7687 6396 6397
4  7325 6623 7374 7327
4  6739 6736 7035 6733
4  7120 6731 6404 6904
4  499 8202 149 6284
4  6350 6393 6392 6332
4  7120 6404 6731 6741
4  7449 6740 6739 6734
4  6597 8165 7030 6599
4  149 8202 6320 6284
4  8263 7173 8015 8296
4  8163 6615 6616 6617
4  8344 7817 8343 8192
4  8343 7169 8191 8015
4  652 684 601 6251
4  6642 6924 7112 6925
4  7328 7370 7372 7327
4  6999 7728 6617 6614
4  6705 6457 6644 8010
4  719 720 686 6766
4  6457 8010 6639 6765
4  6561 6413 6563 7862
4  47 6764 136 8010
4  686 6766 720 6764
4  7588 8252 7589 6129
4  8327 8084 8083 6468
4  6522 6526 6535 6525
4  47 8122 6933 6643
4  7068 7074 6497 7144
4  7025 7027 8135 6532
4  685 170 6933 6925
4  6601 8146 6505 7145
4  6500 6503 6501 6499
4  6535 6534 6916 7063
4  8195 8345 7231 7728
4  8281 8142 8017 8124
4  7233 7728 8163 7000
4  7026 7040 7027 6532
4  6742 6586 6916 7075
4  6615 7728 8193 6614
4  6819 7276 7157 7967
4  6356 7022 6358 6357
4  6210 7231 7233 7728
4  7027 7275 8135 7069
4  7632 7621 7872 7633
4  7816 7635 6294 7857
4  544 6349 356 6752
4  544 658 6751 6348
4  7618 7962 7616 7620
4  7632 7633 7473 7673
4  8057 7281 8097 7901
4  6199 6303 6869 6752
4  7338 7342 7339 7337
4  6305 6869 6757 6303
4  474 6305 661 6303
4  7618 7724 6675 7617
4  661 6305 6285 6303
4  6750 6780 8072 7877
4  7905 7899 7898 7900
4  7374 7651 7757 7375
4  6749 6584 6586 6745
4  6935 7875 6937 6936
4  6937 6936 8027 6931
4  6805 6937 6935 6928
4  6750 6928 7875 7877
4  8043 7928 6936 6746
4  8030 6937 8027 6931
4  6819 8261 6748 7399
4  6748 6592 6747 6745
4  6807 6591 6935 6747
4  6798 7492 6670 6795
4  6591 6750 6584 8072
4  6584 6588 6780 6589
4  813 6588 6767 6590
4  625 6779 626 6589
4  7688 7692 7369 7302
4  6916 6585 6778 6587
4  7806 6573 7807 6570
4  645 8073 813 6588
4  7414 7408 7755 7411
4  7997 8094 7689 7690
4  8111 7303 7305 7301
4  7692 8096 7369 7534
4  7369 7367 7366 7300
4  7298 7299 7368 7300
4  6258 6301 8025 6251
4  7754 7762 7869 7868
4  7571 7573 8217 8025
4  7688 7369 7304 7300
4  8216 8025 7102 6251
4  601 600 596 6251
4  7153 6435 8296 7154
4  7029 8181 8182 6732
4  6737 7796 8065 7775
4  6301 6251 6252 6297
4  6301 6297 6252 6296
4  7827 7828 7830 7826
4  7984 7847 8022 7829
4  7959 7828 7824 7826
4  7909 7960 7830 7828
4  8057 8097 7281 7617
4  7279 8056 7897 7901
4  6460 6462 6521 6464
4  7897 7899 7898 7901
4  8183 7905 7899 7898
4  8057 7901 8097 7725
4  8346 7901 7944 7725
4  6553 7440 7559 6552
4  7954 7438 7439 7956
4  7436 7672 7439 7437
4  8066 7904 8067 7981
4  8096 7536 7537 7534
4  8204 6511 6508 7502
4  8097 7901 8346 7725
4  7533 7426 7536 7367
4  8092 8093 7691 7496
4  6857 6871 6558 6293
4  7368 7365 7533 7367
4  546 273 6853 6854
4  7533 7365 7481 7367
4  7482 7427 7419 7421
4  6185 6856 8133 6910
4  8017 8166 8019 8018
4  6855 6856 6186 6854
4  6566 6855 6870 7556
4  7527 8021 7524 7525
4  6287 6289 6862 6293
4  7984 7828 7847 7829
4  7909 8166 7830 7960
4  880 6709 6186 6293
4  6540 7515 8265 7518
4  7447 7229 7995 7996
4  845 6430 7518 6400
4  6403 6537 6536 6398
4  8099 7705 7948 7106
4  7465 7948 7590 7467
4  8099 7948 7105 7106
4  7704 7948 8099 7705
4  847 6430 845 6400
4  7704 7590 7948 7705
4  7704 7242 7948 7590
4  845 6430 8265 7518
4  7893 7981 8279 7624
4  7982 8242 7981 7624
4  7313 7314 7791 7787
4  8033 7982 7890 7891
4  7208 7770 7200 7764
4  7786 7974 7791 7787
4  8034 7890 7965 6774
4  7980 8070 7904 7981
4  7267 7540 7726 7269
4  7753 7868 7754 7409
4  7404 7751 7415 7405
4  7422 7734 7488 7423
4  8035 7965 7905 7904
4  8034 7980 7965 7890
4  7917 7773 7082 7084
4  7570 7132 7134 7130
4  7903 7898 7904 7284
4  7289 7223 7695 7222
4  7473 7475 7672 7600
4  8035 8066 7893 7981
4  8035 7904 8066 7981
4  7595 7602 7695 7895
4  7602 7701 7695 7895
4  7594 7600 7601 7597
4  7906 8066 7904 8067
4  7980 8070 7903 7904
4  7903 7904 8070 8067
4  7133 7569 7772 7134
4  8297 8319 6921 6923
4  8297 6921 6416 6923
4  888 775 848 7148
4  7612 7751 7404 7405
4  7416 7415 7413 7406
4  7415 7867 7413 7409
4  7753 7754 7755 7409
4  7614 7269 7271 7266
4  7540 7405 7269 7406
4  682 848 683 6923
4  7761 6787 7093 7763
4  7754 7868 7869 7409
4  8223 8321 7749 7750
4  7867 7748 7868 7409
4  7407 7408 7869 7409
4  682 7168 8278 6923
4  7567 7420 7087 7134
4  7422 7423 7488 7424
4  7483 7485 7427 7424
4  7425 7422 7488 7424
4  7918 7083 7088 7084
4  7082 7083 6714 7084
4  7374 7322 7375 7755
4  406 6927 6928 6879
4  7765 8244 7770 7767
4  7935 7940 7939 7937
4  7216 7200 8112 7201
4  7771 7767 8247 8013
4  7935 8230 7071 7073
4  7998 7761 7868 7763
4  891 6835 6942 6431
4  6926 6875 8026 6878
4  307 405 403 6894
4  307 6875 405 6894
4  6875 8026 6878 6876
4  6928 6878 6877 6879
4  176 8149 7652 6853
4  7667 7308 7307 7310
4  6937 6838 7875 6878
4  6148 6143 6152 6142
4  6350 6351 6352 6274
4  7177 7176 6810 6816
4  6813 6810 6803 6811
4  6810 6814 6816 6811
4  7054 7058 6953 7056
4  7058 7479 8224 7857
4  7174 6282 7175 6812
4  6804 8177 8130 6354
4  7583 7054 8331 7582
4  7175 6693 6281 6282
4  7214 6236 6234 6230
4  7052 7635 6292 6294
4  8211 6952 6960 6954
4  6239 6238 6491 6240
4  6488 6453 6547 6458
4  6233 6711 6239 6238
4  881 192 6703 6230
4  8292 8181 7029 6734
4  6732 6902 6406 6405
4  6760 6409 6404 6759
4  6703 6639 6638 6459
4  6705 6451 6456 6454
4  7506 7821 6547 6548
4  286 301 1016 8162
4  6663 8267 6661 6662
4  6451 6581 6456 6455
4  6453 6490 6547 6237
4  6583 6456 6581 6455
4  6930 6808 6931 6747
4  7391 6806 6808 7389
4  8029 7388 7522 7390
4  8325 8205 8208 6663
4  6805 6808 6931 7390
4  6930 8029 6931 7390
4  6414 7311 7393 6415
4  8219 8312 8310 6395
4  8205 8275 8207 8206
4  8205 8207 8208 6511
4  7694 6374 6379 6376
4  7165 7166 7164 6476
4  8029 8027 6931 7390
4  7339 6775 8128 6781
4  41 7114 6885 8041
4  6770 7694 6374 6379
4  6417 6420 7126 6188
4  8280 7113 6999 7729
4  6212 7729 7114 8041
4  8189 7729 7731 6884
4  8280 7113 7729 7114
4  7097 8337 6660 6515
4  8188 6999 7731 7729
4  6515 7094 6513 6665
4  6650 6515 7098 7095
4  741 7203 8128 6781
4  6212 7729 7113 7114
4  444 357 932 6867
4  6308 7742 7396 7708
4  8195 7728 6883 8193
4  8188 7731 8189 7729
4  8021 8020 7320 8018
4  8020 7910 8019 7525
4  7471 7051 7115 7113
4  6998 7471 7115 7113
4  1010 6865 932 6177
4  6998 7115 6999 7113
4  6837 8302 6838 6836
4  6418 6363 8245 6309
4  6837 6839 7034 6836
4  7976 7977 7207 7604
4  329 7471 0 7051
4  7470 7180 7115 7051
4  8077 6481 7045 6479
4  377 378 365 6606
4  7470 7115 7471 7051
4  6444 6445 6437 6439
4  444 932 1010 6865
4  8081 6607 6719 6631
4  8188 8280 6999 7729
4  189 7113 8280 7114
4  7180 7049 6227 7051
4  329 7049 7051 7048
4  262 6834 6433 6835
4  1079 6940 6875 6431
4  8235 8236 6598 7879
4  620 621 626 8104
4  130 125 258 6893
4  7907 6148 6175 6181
4  7115 7113 7051 6830
4  6777 6271 6781 6913
4  8140 6263 7125 7117
4  125 403 258 6877
4  744 125 130 8199
4  8028 8026 6875 6432
4  301 913 6912 6913
4  741 6781 8128 6271
4  8028 6926 6875 8026
4  8302 7876 7875 6893
4  6608 6719 6179 6718
4  366 367 1023 6608
4  469 7167 7136 6169
4  8081 8045 6607 6631
4  741 803 802 8128
4  7274 8081 6719 6479
4  6748 6592 6586 7075
4  6819 6748 8261 6592
4  7157 8261 7275 7069
4  7075 6532 7069 7067
4  6420 6197 6188 6190
4  779 780 6196 6261
4  7934 6992 7760 6981
4  377 365 366 6606
4  8081 6719 6479 6631
4  7859 6422 6421 6423
4  7992 6691 6467 6690
4  6785 7760 6992 6899
4  723 488 6901 6424
4  759 656 940 7018
4  7193 7194 7195 6138
4  7293 6331 6136 6330
4  7934 6991 6992 6981
4  6865 7680 6866 6720
4  7225 7921 8182 6902
4  6305 7249 6757 6869
4  6161 6166 6970 6167
4  7249 6477 6757 6869
4  719 686 7143 6766
4  999 6704 6639 6706
4  6757 6869 6199 6303
4  6649 6328 6326 6723
4  7563 7323 7562 7564
4  8215 7654 7655 7142
4  7339 6328 6775 6781
4  7928 7927 6929 6932
4  8030 6926 8026 6878
4  741 454 742 7203
4  8199 8302 7034 6836
4  6649 7099 6326 6651
4  6775 6781 6777 6271
4  7578 7325 8012 7323
4  327 758 329 7472
4  6227 7047 6828 7048
4  7878 6837 8302 6838
4  7579 7325 7323 7326
4  7352 7179 7180 7049
4  970 7137 971 6184
4  373 7792 372 6157
4  123 8264 1011 7500
4  8258 7793 8259 6383
4  1011 8264 8059 7500
4  7574 7511 7515 8094
4  7693 8093 7574 8094
4  7693 8265 7515 7512
4  7693 7515 7574 7512
4  397 119 117 7519
4  6960 6948 6956 6950
4  142 8265 8264 7513
4  6282 6812 6816 6274
4  7816 7053 7963 6944
4  6350 6393 6281 6352
4  824 6337 6273 6276
4  7480 7139 7435 6288
4  7235 8211 6960 7236
4  6285 6302 6275 6286
4  377 378 6606 8210
4  6386 6385 6673 6387
4  998 6818 6751 6302
4  6311 6273 6355 6275
4  8210 6171 7167 6143
4  923 6261 6417 6265
4  780 802 849 6260
4  365 832 367 6176
4  6270 6189 6263 6376
4  365 521 832 6176
4  8045 6990 6607 6144
4  378 6606 8210 6147
4  365 378 521 6176
4  7061 6437 6442 6438
4  366 365 367 6179
4  775 7148 7147 6197
4  848 7148 6815 6923
4  888 7147 775 7148
4  8305 7126 7123 7116
4  749 7189 6692 6694
4  565 6692 7174 6282
4  749 569 709 6694
4  553 943 6293 6291
4  6864 6270 6193 6260
4  6416 6921 6815 6923
4  611 6872 6862 6863
4  878 880 943 6709
4  8259 6874 6390 6383
4  6557 6555 6185 6566
4  6416 7148 6815 6196
4  848 7148 775 6196
4  8328 6880 7296 7137
4  256 193 1022 8175
4  7137 6184 6685 6169
4  6593 6595 6880 7137
4  936 6593 8328 7137
4  7135 6881 6170 6882
4  6888 6889 7295 6882
4  6881 7137 6686 6685
4  6446 6389 6922 6391
4  6193 6195 6194 6439
4  7861 6414 6362 6412
4  6441 6195 6440 6439
4  256 193 8175 6910
4  7151 6416 6440 6195
4  8336 7151 8320 6440
4  8320 6440 6921 7060
4  7081 8298 8336 6440
4  6346 7195 7191 6138
4  162 6902 7225 6903
4  8328 6593 6753 6880
4  966 967 7990 6264
4  6270 6194 6192 6189
4  780 6192 849 6196
4  6416 6195 6197 6191
4  970 936 971 7137
4  189 0 8280 7113
4  6744 7958 6749 7926
4  190 8280 8189 7114
4  8028 8030 6926 8026
4  6742 6744 6749 6586
4  41 7114 95 6885
4  1019 436 8294 6295
4  436 6295 6299 6941
4  7713 7564 7578 7324
4  652 596 834 6297
4  8263 7169 8343 8015
4  190 8189 95 7114
4  7530 7710 7531 7532
4  850 464 7114 6829
4  8345 6615 7728 8193
4  8163 7000 6617 6997
4  6227 7051 7049 7048
4  41 850 7114 8041
4  6599 8088 8323 7031
4  8269 6801 6800 6803
4  6180 6172 6168 6150
4  8188 6617 6616 6614
4  8188 6999 6617 6614
4  7531 7563 7561 7562
4  6209 6210 6212 6883
4  8209 8130 8177 6352
4  7352 7351 7470 6229
4  7348 8119 7521 6884
4  8195 6883 6256 8193
4  7731 8119 8193 6614
4  8165 8323 7032 7031
4  6432 6939 6435 7031
4  7798 6802 8074 6817
4  6435 7549 7031 7332
4  6298 6435 6939 8296
4  7173 8296 7031 7332
4  8323 7173 8296 7031
4  7030 7031 7032 6840
4  8165 6599 8323 7031
4  6832 7183 7400 6227
4  8347 8345 8195 8193
4  8088 6600 7547 7549
4  8152 8069 7285 7284
4  8342 8068 8067 8154
4  8347 8195 8262 8193
4  8066 8342 8068 8067
4  8347 8262 8344 8190
4  8279 8066 8342 8068
4  8070 8242 8068 7981
4  8190 8343 8191 8192
4  8242 7487 8341 8068
4  7966 6865 7544 6630
4  6163 6162 6159 6149
4  6162 8156 8254 6139
4  6144 6139 6149 6142
4  7040 7888 6504 6528
4  932 272 367 6718
4  7544 6146 6177 6175
4  6203 6207 6204 6201
4  976 6342 7177 6818
4  6526 6524 6527 6525
4  7066 7068 7074 7067
4  8329 6203 6205 6207
4  6497 6529 6504 6530
4  7680 6477 6630 6485
4  6305 6757 7246 6304
4  8270 6206 6823 6813
4  8218 6632 6842 6628
4  7011 8257 8218 6632
4  6333 6335 6334 7678
4  6842 6628 6843 6844
4  7068 6497 6529 6504
4  6731 6247 7041 6321
4  7118 6904 6246 6245
4  656 6904 6409 6405
4  6635 6637 6636 7010
4  74 935 6604 6596
4  162 6902 6321 6405
4  656 24 7162 6904
4  6760 7120 7799 7777
4  656 25 24 6904
4  7396 7708 7381 6415
4  656 6904 7162 6409
4  7669 6411 7307 7308
4  7028 6583 6758 6581
4  6731 6732 6404 6904
4  7029 8182 6495 6406
4  8287 6414 6412 7308
4  6760 7799 7260 7777
4  7954 7308 8287 7670
4  7789 7313 8160 7787
4  8141 8124 8142 7969
4  8017 7993 7015 8018
4  7445 7614 7271 7266
4  6414 6415 6443 6365
4  97 8189 7521 6885
4  7572 7270 8008 7545
4  8195 8345 7728 8193
4  8079 7347 6613 7346
4  8079 6612 8052 7346
4  6615 6617 7728 6614
4  8345 6611 6615 8193
4  6516 6521 7344 6517
4  6410 6308 6411 6365
4  7571 8217 8216 8025
4  7344 7445 7345 7264
4  7991 7669 7864 7670
4  7991 6410 6411 6412
4  8053 7345 7444 7346
4  7626 6646 7592 7627
4  7861 7991 6412 6413
4  7362 6968 7363 6969
4  8255 7360 7363 7358
4  6561 7861 6362 6413
4  73 69 74 6968
4  6961 7247 7528 6963
4  6484 6961 7526 7528
4  8285 7458 7985 6756
4  7458 7996 7447 7446
4  6753 8285 7985 6756
4  6678 7579 7562 6671
4  7294 6372 7460 7297
4  7914 7528 7910 7913
4  6484 7528 6485 6963
4  7680 8318 7528 7913
4  7846 7842 8022 7843
4  6484 7528 7914 7913
4  7207 7977 7208 7604
4  7915 7984 7908 7911
4  6484 7913 7046 6485
4  7914 7528 7526 7910
4  7912 7847 7851 7848
4  7198 7200 7209 7201
4  7820 8180 6702 6640
4  7995 7206 7216 7608
4  7212 7198 7994 7201
4  7456 7458 7640 7229
4  7369 7537 7367 7534
4  8248 7495 7692 7496
4  7819 8180 6824 6702
4  8033 7982 7980 7890
4  7687 7686 6396 6397
4  6488 6547 6453 6490
4  7889 7891 7499 7498
4  7533 7425 7552 7426
4  72 6660 6515 7095
4  8334 7506 7989 6548
4  8334 7821 7506 6548
4  7497 7889 7499 7498
4  7141 7002 7004 7005
4  605 57 59 7005
4  7009 7004 6637 7010
4  6858 7141 6861 7004
4  59 6858 7009 7005
4  7408 7756 7755 7411
4  6668 7326 7371 6669
4  8092 7691 7535 7534
4  7495 7499 7623 7892
4  6575 7736 6573 6574
4  7495 7494 7892 7496
4  7693 7691 7692 7302
4  7495 7892 7534 7496
4  7623 7892 7624 7536
4  8092 7535 7625 7892
4  7753 8138 7754 7762
4  7578 7579 7323 7562
4  7408 7756 7754 7755
4  6622 7371 7372 7373
4  7541 7271 7416 7268
4  7692 7495 7534 7496
4  7417 7408 7540 7406
4  6682 6881 6686 6685
4  7253 6602 6683 6595
4  936 6593 7137 6686
4  7942 7596 7287 7476
4  7661 7379 7382 7378
4  7739 7740 7661 7382
4  8114 8098 7741 7662
4  7739 7393 7740 7381
4  7380 7841 7381 7378
4  970 936 7137 6686
4  6418 8245 8185 6309
4  7541 7711 7539 7412
4  8245 7739 7660 6341
4  8172 8099 8098 7664
4  8009 7539 7265 7545
4  7461 7041 6330 6903
4  7803 7665 7800 7802
4  7237 7707 7239 7238
4  7565 6680 7562 6671
4  7880 7925 8107 6475
4  8009 7546 7539 7545
4  7242 7590 7238 7240
4  7329 8008 7710 7546
4  7415 7407 7748 7409
4  8009 7712 7713 7539
4  7416 7404 7415 7406
4  7661 7104 7379 7378
4  7713 7539 7564 7324
4  8222 7376 7383 7378
4  7103 7383 8187 7376
4  7517 7579 7578 7562
4  60 57 798 6858
4  365 6606 6147 6179
4  8081 6938 6719 6607
4  7230 6349 7210 6868
4  7745 7744 7748 7746
4  6990 6144 6143 6147
4  7407 7869 7745 7748
4  8045 6144 6139 6149
4  6606 6607 6990 6147
4  7407 7745 7866 7748
4  6630 6719 6607 6631
4  6146 6607 6144 6631
4  6541 6392 6545 6284
4  6355 6354 6812 6811
4  7716 7717 6714 6715
4  7837 7838 8289 7836
4  7815 8291 8221 8013
4  7814 7467 7466 7463
4  6310 6550 8229 7248
4  7454 6389 6385 6922
4  7810 7815 7463 8013
4  683 6917 6923 6391
4  7454 6388 6385 6389
4  8187 7837 8221 7376
4  7813 8289 8290 8221
4  8090 8033 8091 7498
4  8203 8248 8322 8100
4  8091 8033 6656 7498
4  8091 6507 6508 7823
4  562 1011 81 8059
4  6446 6921 6440 7060
4  8320 8319 6390 6921
4  7157 7276 6358 7967
4  8135 7275 8261 7069
4  6193 6921 6416 6440
4  7157 7275 8261 6358
4  6446 7060 6440 6438
4  6356 6358 7155 6359
4  6534 7067 7063 6525
4  7066 6916 7074 6590
4  8227 6445 6375 6439
4  6591 6935 6747 6932
4  6673 6955 6388 6919
4  7693 7691 8093 7692
4  6748 7399 7927 6747
4  7391 7389 6808 7390
4  8236 7928 6929 6936
4  7574 8075 7511 8100
4  8093 7689 8248 8094
4  7509 7513 7519 7514
4  8342 8067 8069 8154
4  6822 6823 7178 6810
4  8270 8076 6207 6813
4  8316 8329 8270 8076
4  7902 7905 7965 7904
4  7997 7520 8094 7690
4  6875 6432 8026 6876
4  8030 6927 6926 6878
4  6760 6641 6705 7260
4  6591 6588 6584 6587
4  645 8071 646 8073
4  7108 7109 8332 7818
4  7952 7951 8044 7876
4  7507 7989 7506 6236
4  6488 6580 6583 6455
4  6805 6927 6937 6928
4  406 508 506 6927
4  506 6927 8071 6928
4  8188 6616 6518 6614
4  7483 8068 7484 7553
4  720 135 136 6638
4  7671 7989 7507 6236
4  7971 6516 8188 8226
4  7971 8144 6465 8226
4  8079 6613 6612 7346
4  6567 6580 6488 6458
4  6641 7261 7260 7255
4  6760 6761 6758 7778
4  7348 7344 8053 7346
4  6516 7344 7348 6518
4  7445 6517 7263 7264
4  6519 6518 6517 6464
4  7654 6333 7112 6334
4  6895 6841 6909 6844
4  7490 8060 8063 7491
4  7112 6934 6933 6336
4  7583 7582 7478 7055
4  8061 6855 7491 7649
4  903 7160 7647 6911
4  7721 7656 6861 7141
4  8256 7979 7924 7111
4  8060 7649 7491 7489
4  612 6862 6288 6289
4  6502 7040 8131 6504
4  6907 6909 8256 6966
4  7454 6920 6673 6437
4  6841 6843 7722 6844
4  6930 6808 7388 7390
4  6930 7388 8029 7390
4  6369 6500 7933 6501
4  771 890 7144 7196
4  7927 6746 6747 6932
4  7927 6747 6930 6932
4  8030 6805 6937 6931
4  8028 8027 7550 7523
4  7928 6746 7927 6932
4  6916 7062 7074 6590
4  125 6835 6877 6893
4  6435 6939 8296 7031
4  7032 6298 7076 6939
4  8294 7076 6295 6941
4  6298 6435 6436 6434
4  6356 7155 6369 6359
4  6984 8134 8327 7760
4  7032 6298 6939 8296
4  8197 6533 6526 6528
4  7821 6567 6488 6547
4  7028 6489 6583 6581
4  7642 6432 6435 7549
4  7642 6432 6940 6435
4  7152 6435 6940 6436
4  8340 6489 7028 6581
4  7152 6940 8260 6436
4  7173 7031 8088 7332
4  7573 7152 7153 7154
4  7153 6298 6435 6436
4  6489 6488 6583 6455
4  6832 7183 6227 6827
4  6444 6445 7454 6437
4  6380 6382 7694 6376
4  8126 8127 8288 6224
4  8139 7356 6380 7117
4  6225 6226 6224 6997
4  6770 7335 7343 6374
4  6377 6379 8140 6376
4  323 8031 7053 6578
4  6501 6991 7934 6368
4  6369 6501 7933 6368
4  7180 6224 6227 6216
4  8288 8127 6217 6224
4  749 709 7189 6694
4  8063 7491 8060 7649
4  6350 6392 6352 6351
4  6320 6394 6284 6332
4  7558 6564 6553 6559
4  8060 7586 7865 7649
4  7189 6313 6693 6694
4  7893 8066 8279 7981
4  8179 7037 7036 6127
4  6344 7193 6346 6138
4  6355 6353 6354 6811
4  8252 7036 8174 6128
4  7174 6809 7176 6812
4  6388 6437 6919 6957
4  8177 6352 8130 6354
4  8177 7175 6281 6354
4  8179 7193 6344 6127
4  7348 6612 8119 6614
4  6693 6848 6281 6313
4  8282 7752 7090 7375
4  7370 7752 7375 7755
4  7711 7564 7539 7324
4  6860 7925 7880 6697
4  8332 6908 6906 6907
4  7651 7090 7375 6624
4  6449 6648 6973 6708
4  6622 6623 7372 7375
4  6622 7372 8282 7375
4  6623 7651 7374 7375
4  8188 6516 7348 6518
4  7491 6855 7653 7190
4  684 7451 6257 6253
4  413 6290 414 6291
4  6310 6350 6284 6275
4  6319 7050 6320 6318
4  546 6853 6872 6854
4  6214 6546 6978 6542
4  7068 6366 6360 7144
4  6497 6506 6498 6499
4  6281 6352 6354 6274
4  6977 7930 6978 6975
4  7157 6358 8261 7967
4  7157 6357 7068 7156
4  6501 8146 6991 6366
4  771 6506 7144 6993
4  7278 7364 7024 6901
4  7872 7620 7615 7870
4  7068 6497 6366 7144
4  8146 6991 6366 7145
4  6505 6498 6506 6499
4  7066 6588 6587 6590
4  6819 6807 6821 6747
4  665 6288 7187 6577
4  7058 7055 7857 7056
4  6929 7927 6930 6932
4  7928 6936 6746 6932
4  6591 6586 6584 6745
4  506 8072 6780 7877
4  6951 6947 7619 6949
4  6557 7555 7436 6552
4  7875 6928 6878 6877
4  6805 8071 6927 6928
4  6807 8071 6935 8072
4  8341 7735 8153 8154
4  6980 6984 6983 6982
4  6277 8286 8253 6690
4  6983 8145 8005 6986
4  6806 6807 6808 6821
4  8152 7285 8069 8154
4  7157 6360 7068 6357
4  8149 7648 7653 6853
4  8062 7865 6564 7649
4  8342 7732 7483 7484
4  8342 7732 7484 8154
4  7861 7991 6413 7862
4  6555 6556 7860 6554
4  7587 7863 6563 6413
4  6411 7396 7307 6415
4  7487 7488 7735 7484
4  7796 7797 8065 7775
4  6340 7741 6307 6341
4  6340 8115 8114 6339
4  8184 6338 7803 7797
4  7487 7484 7553 7424
4  7803 6339 7665 7802
4  7801 7542 8115 7802
4  7732 7485 7484 7486
4  7799 7260 7776 7258
4  8341 7487 7735 7484
4  6855 6562 7190 7649
4  7796 7801 8115 7776
4  7883 7843 7847 7829
4  7883 7843 7829 7228
4  193 8133 8175 6910
4  7915 7846 7984 7847
4  7046 7913 7912 7848
4  7982 8242 8070 7981
4  6870 6558 6871 6863
4  6870 6853 6855 6854
4  7850 7844 6370 7845
4  7849 6141 6971 7844
4  7850 7851 6370 7844
4  7626 6648 7627 7446
4  6560 6563 6562 6565
4  878 6185 193 6910
4  7296 6168 6880 6889
4  878 193 856 6910
4  6185 6566 6856 6186
4  7271 7269 7268 7266
4  7612 7404 7610 7405
4  7270 7265 7539 7545
4  7849 6971 7306 7845
4  8333 7294 6889 7297
4  8333 6372 7294 7297
4  7270 7445 7271 7266
4  7270 7538 7541 7539
4  7417 7540 7412 7406
4  7345 7445 7270 7264
4  7849 6140 6141 7844
4  7849 7842 7846 7844
4  8009 7538 7265 7539
4  7563 7564 7711 7324
4  7538 7417 7540 7412
4  7265 7538 7267 7268
4  7455 6373 7842 7845
4  6370 7843 6373 7845
4  7758 8325 7759 7577
4  8028 8026 7549 7550
4  7303 7688 7304 7301
4  8088 7031 7549 7332
4  6622 6624 6625 6620
4  6371 7228 7607 7229
4  7804 6570 7782 7783
4  7806 6571 6569 6570
4  8026 6838 6839 7879
4  744 8199 6834 6835
4  7547 6600 8273 7550
4  8036 6575 6569 6572
4  8036 8037 8038 6572
4  8117 7783 7131 7130
4  7131 7783 7129 7130
4  6618 6621 7568 6619
4  6432 6839 6939 7031
4  8117 7570 8121 6619
4  7642 8028 6432 7549
4  7637 7228 6373 7229
4  7459 7607 7995 7229
4  8030 8026 6937 6878
4  7980 7903 7902 7904
4  6929 8027 6936 6931
4  8172 7706 7705 7664
4  6418 8245 6338 8185
4  6937 8026 6838 6878
4  8030 6937 6927 6878
4  7169 8052 8015 7172
4  7153 6298 6436 7102
4  7817 8343 8192 8015
4  7612 7610 7613 7405
4  8321 8051 7749 7750
4  7614 7727 6462 7610
4  6471 7786 7006 7611
4  6258 8025 6301 8192
4  7938 7935 8233 8231
4  7817 8192 6301 8015
4  6258 6301 6251 6252
4  7462 7813 8014 7463
4  7765 7770 7764 7767
4  8307 7935 8247 8231
4  8160 7974 7973 7750
4  7771 8307 8247 7767
4  7466 8112 7810 7199
4  6254 7107 6300 6296
4  262 6433 6834 6941
4  6435 7332 8296 7154
4  7771 7200 7770 7764
4  7212 7994 7216 7201
4  7198 7200 7199 7764
4  436 8294 6295 6941
4  7465 7467 7591 7464
4  7947 8112 7466 7464
4  7751 7749 7747 7744
4  7407 7748 7866 7405
4  7914 7526 8019 7910
4  7751 7747 7415 7748
4  7747 7868 7748 7746
4  7526 8019 7910 7525
4  8019 7960 7909 7910
4  7908 7909 7960 7910
4  8318 7908 8020 7910
4  7753 7762 7754 7868
4  7527 8318 8020 7910
4  7751 7613 7744 7405
4  7695 7697 7896 7222
4  7912 7914 7909 7911
4  6219 7697 6220 6222
4  7915 7984 7911 7847
4  6952 6954 8212 6945
4  6944 7186 6579 6578
4  7058 7055 7479 7857
4  7794 8212 6873 7186
4  6710 6711 6233 6238
4  6873 6578 6154 6156
4  7795 7794 7792 6157
4  8050 7988 8180 6638
4  6452 6639 6454 6706
4  1000 881 135 6640
4  8340 6710 6489 6711
4  6451 6452 6454 6706
4  6453 6452 6459 6454
4  6673 6919 6388 6437
4  6702 6766 6825 6765
4  8340 7028 7450 6494
4  10 6452 137 6703
4  6404 6408 6759 6407
4  6347 6343 6345 6138
4  629 6791 8129 7096
4  7193 7588 7195 7194
4  7159 6343 7192 6137
4  7495 7499 7892 7494
4  457 6659 6782 6783
4  6346 7195 7490 7191
4  6133 6131 6134 6331
4  6134 7184 6137 7185
4  319 6330 7292 7158
4  7035 7036 8179 7037
4  8274 8276 6724 6514
4  6249 6133 6128 6248
4  6650 7099 6651 6783
4  7097 7949 7098 7096
4  7881 6792 6327 6791
4  6327 6792 6781 6329
4  7453 6249 6241 6133
4  991 1024 244 6331
4  8276 7098 7949 7099
4  7296 6880 6168 7137
4  6886 8317 6887 6882
4  7035 7037 6733 7038
4  8178 6345 8176 7037
4  6886 6682 7135 6882
4  8179 6345 7037 6127
4  469 108 752 6169
4  8320 8319 7234 6390
4  971 7137 6845 6184
4  6845 6184 6180 6183
4  962 8239 964 6420
4  6921 6815 6923 6391
4  6886 7135 6166 6882
4  6682 6685 6686 6604
4  8113 8320 7234 7060
4  682 8278 848 6923
4  966 967 923 7990
4  569 6282 566 6337
4  565 566 569 6282
4  538 683 541 6917
4  7150 7151 6195 6197
4  574 905 7177 7176
4  7410 7413 7411 7406
4  7990 7125 7164 6265
4  574 825 6337 6342
4  363 6386 8031 6154
4  501 6283 824 6276
4  567 904 905 7176
4  6512 6513 7094 6667
4  7989 7820 7819 6548
4  6658 8055 6512 7100
4  8091 6512 8055 8054
4  8091 6512 8054 6508
4  7162 6404 6760 6409
4  8091 6650 6512 6507
4  7921 7020 6495 7019
4  1029 7020 7921 7019
4  7495 7623 8096 7892
4  65 826 72 6660
4  756 6685 6684 6604
4  7449 8292 7029 6734
4  6512 8054 6513 6667
4  6731 7041 6247 6733
4  8181 7041 6732 6733
4  8292 6739 8181 6734
4  7029 6732 6406 6408
4  6912 6264 6476 6272
4  6494 8213 6491 6493
4  6537 7518 6400 7519
4  6864 6270 6271 6374
4  8265 7515 7512 7513
4  6537 7509 7518 7519
4  159 6784 6786 6426
4  8109 8220 7520 8007
4  6540 7515 8007 7690
4  8322 7511 8100 8094
4  981 1005 771 6498
4  7155 6502 6369 6367
4  7157 7068 6360 7146
4  6527 6530 6528 6525
4  952 161 1005 6524
4  952 6610 8108 6524
4  6609 6505 6496 6498
4  6819 8198 7276 7967
4  952 1007 953 6524
4  8012 7322 7756 7411
4  7515 7509 7520 7511
4  7574 7515 7510 7512
4  7574 6664 7510 7511
4  8197 6527 7888 6528
4  6591 6584 6750 6745
4  952 8108 1007 6524
4  728 8300 117 7514
4  7658 7520 7508 7511
4  630 8001 8129 6791
4  7078 7950 7079 6723
4  8206 6661 8337 6514
4  7693 7574 8093 7512
4  6880 6682 6887 6882
4  142 118 8265 7513
4  6880 6881 6682 6882
4  8091 6656 6650 6507
4  6684 7135 6681 6682
4  710 704 6312 6314
4  8250 8086 7681 6887
4  8250 6683 6681 6682
4  6880 6881 6168 7137
4  6880 6889 6168 6882
4  947 946 7543 6778
4  8250 6886 8251 6887
4  6755 6602 7253 6595
4  6892 6170 6889 6882
4  409 6184 971 6183
4  161 953 83 6522
4  947 946 83 7543
4  6755 6880 7253 6754
4  6762 7682 6887 6754
4  6888 6763 6762 6754
4  7501 7493 7502 8100
4  7066 7074 7068 6767
4  852 161 946 7062
4  890 7065 7144 6767
4  233 629 630 8129
4  7097 7949 8337 7098
4  8203 8322 7511 8100
4  8054 6508 6511 7502
4  8203 8075 7502 8100
4  6664 8054 6513 8075
4  8174 7589 6128 6364
4  8174 7039 8064 6419
4  8174 6248 7039 6419
4  6418 6363 6309 6419
4  6249 6363 6419 6364
4  6306 8064 6307 6309
4  8064 8185 6309 6419
4  6418 8184 7709 8185
4  8184 7797 7775 7709
4  7967 7428 6797 7430
4  7334 7646 7546 7330
4  7434 7430 7429 7277
4  106 6684 756 6685
4  377 754 378 8210
4  8198 7434 7278 7277
4  7276 6358 7967 7277
4  7306 6168 7296 6889
4  7276 6358 7277 6357
4  7278 7277 7023 6357
4  7686 6395 8310 6396
4  6395 6401 6402 6398
4  335 413 374 6577
4  8219 6395 6537 8220
4  7808 6571 6570 6572
4  7807 6619 7568 7130
4  7568 6619 6621 7130
4  7127 7783 7807 7130
4  7781 7305 7304 7129
4  7804 8117 7805 6570
4  8117 6619 6570 7783
4  7781 8117 7804 7783
4  7779 7782 7783 7305
4  754 378 8210 6187
4  469 6172 7167 6169
4  752 108 409 6182
4  7781 7804 7782 7783
4  7135 6881 6685 6169
4  6593 6595 6686 6596
4  6143 6173 6152 6142
4  20 22 21 6183
4  7253 6682 6880 6595
4  7008 6635 6636 7010
4  6634 7681 7987 6974
4  8255 8087 6633 7681
4  798 170 7140 6934
4  935 6686 6604 6596
4  7363 6681 6683 6969
4  6292 6294 6857 6291
4  373 372 374 6157
4  323 6154 8031 6578
4  8255 7358 7363 6683
4  856 193 256 6910
4  6636 7010 7358 6602
4  8250 6681 6886 6682
4  7987 6974 7681 7682
4  756 6184 108 6685
4  8085 8255 8250 7681
4  6636 6683 7358 7681
4  7987 6762 6447 7682
4  6707 7682 6531 6450
4  7699 6221 7503 6222
4  7027 6529 7040 6504
4  6564 7556 7649 6565
4  6709 6857 6558 6293
4  6560 6561 6563 7862
4  7077 7075 6916 6534
4  6564 6565 7860 6554
4  7442 7438 7441 7956
4  193 6185 8133 6910
4  8224 7559 8225 7560
4  8135 6592 7075 7069
4  318 319 389 7292
4  7066 7075 7069 7067
4  6743 6748 6586 7075
4  6250 6248 6738 6245
4  6488 6490 6453 6455
4  6489 6581 6490 6455
4  6739 6733 8181 6734
4  6711 6491 6239 6238
4  639 6666 6667 6665
4  905 904 7551 7176
4  567 7174 7551 7176
4  6663 6664 8267 6662
4  7152 7530 7642 7330
4  7574 7512 7510 7575
4  8091 6650 6658 6512
4  822 8266 7514 6666
4  7355 8326 7357 7116
4  7123 7150 7116 6197
4  961 0 6828 7048
4  7147 7123 6420 6197
4  6831 6211 6827 6829
4  6976 6317 7182 6228
4  6976 6848 6319 6393
4  6809 7178 7176 6810
4  709 569 6283 6694
4  6270 6194 6189 6376
4  8299 7354 7150 6195
4  6270 6375 6194 6376
4  8126 6827 7000 6224
4  8299 7151 8298 6195
4  6193 6195 6416 6191
4  620 626 8196 8104
4  7417 7411 7408 7406
4  366 6606 365 6179
4  6719 6178 6179 6718
4  8334 7819 7566 7821
4  8298 6440 6441 6195
4  6567 6568 6644 6458
4  7477 7259 6644 7111
4  6131 6134 6135 6130
4  8103 6131 6132 6129
4  7157 7069 7275 7156
4  6744 6749 6586 6745
4  720 6766 7988 6638
4  6742 6586 6584 6585
4  6742 6915 6916 6585
4  6742 6749 7064 6584
4  7077 8095 6742 7075
4  6591 6584 6586 6587
4  7819 6702 6824 6568
4  720 136 47 6764
4  7566 6824 7108 6826
4  7926 6748 6746 6745
4  8177 6281 6847 6352
4  7646 7517 7712 7532
4  8270 7122 6823 6206
4  108 6685 6184 6169
4  6202 6203 6965 6204
4  7246 6757 6962 6304
4  6206 6818 6814 6302
4  754 752 378 6187
4  378 20 6174 6187
4  6180 6174 6148 6181
4  6846 7306 7849 6180
4  6895 6896 6906 6841
4  7011 8218 7723 6628
4  7986 6148 7849 6140
4  8317 6888 6887 6882
4  8250 7363 6681 6683
4  8085 8250 8086 7681
4  8251 6886 6890 8317
4  6161 6173 6165 6167
4  7016 8281 7014 7013
4  6543 6544 6549 7013
4  131 327 706 6318
4  7352 7470 7472 7180
4  7349 6351 6392 6542
4  7930 6214 6978 6215
4  8157 7046 7912 7848
4  6148 6174 6143 6147
4  6484 7528 7913 6485
4  378 20 521 6174
4  8125 6483 7046 6486
4  7966 7913 7042 7848
4  6484 7914 7046 7913
4  832 521 986 6175
4  7680 7913 7528 6485
4  6161 6151 6160 6165
4  8254 6151 6141 6971
4  6484 6963 6485 6480
4  7046 7913 7042 6485
4  7245 7248 7247 6962
4  7249 6757 6477 6963
4  8157 7042 7046 7848
4  6749 8043 8058 6750
4  69 7362 67 6969
4  7237 7239 6646 7240
4  6861 6627 6844 6700
4  7009 6860 6635 6637
4  6150 6151 6173 6165
4  6180 6150 6148 6152
4  8285 7458 6756 7446
4  6151 6139 6141 6142
4  6635 6637 6860 6627
4  6626 6634 6972 6629
4  6860 6696 6627 6697
4  6146 6631 6140 7042
4  6131 7161 6134 6331
4  7360 7011 7677 7012
4  8087 6634 6633 7681
4  6344 6347 6345 6138
4  7742 7382 7381 7708
4  6134 6136 6331 7158
4  6344 6127 7193 6138
4  7587 6410 7991 6413
4  8179 7036 8252 6127
4  6134 7184 6135 6130
4  317 903 694 7160
4  8252 6129 6127 6128
4  7193 7588 7194 6127
4  8006 6403 6688 6280
4  6539 6540 6536 8007
4  7170 7154 7331 7172
4  6497 6498 7074 6523
4  7572 7545 7329 7331
4  7646 7516 7532 7641
4  7152 7642 6940 6435
4  7571 7573 8025 7172
4  7074 6498 7144 7196
4  7171 7197 7444 7172
4  7710 7564 7532 7546
4  6496 6498 6505 6499
4  490 7144 7146 6993
4  7329 7710 7530 7546
4  7531 6680 7532 7562
4  6601 7145 6505 6506
4  981 6610 1005 6498
4  981 771 6609 6498
4  6899 7859 6421 6423
4  8234 7858 6784 6425
4  8096 7554 7537 7536
4  6983 6468 6986 6982
4  7691 7368 7535 7534
4  7689 7692 7688 7302
4  7369 8096 7537 7534
4  7501 8055 8059 7575
4  7497 6508 7823 7498
4  8002 8089 6985 6900
4  7515 7518 7509 7513
4  8096 7892 7536 7534
4  7623 8279 7554 7624
4  8004 7992 6323 6421
4  7982 7891 7625 7624
4  934 6323 676 7931
4  8279 7624 8068 7553
4  7625 7535 7552 7536
4  676 7931 6323 6421
4  6793 7581 6575 6576
4  8002 6466 7931 6900
4  6591 6750 6935 6746
4  7077 6742 6916 7075
4  6529 6528 6504 6530
4  7561 7323 7328 7326
4  7740 7393 7394 7381
4  8131 7888 6503 6504
4  6742 6743 6586 7075
4  7861 8287 6412 7670
4  6502 8131 6503 6504
4  834 6297 6299 6296
4  6561 6362 8103 6413
4  7068 6529 6497 7074
4  6414 6415 6412 7308
4  7155 6502 6367 6504
4  7155 7027 6504 7156
4  752 20 6187 6182
4  378 6147 6174 6176
4  7665 7402 7800 7802
4  8114 8170 8172 8120
4  8114 8120 8172 7664
4  8114 8115 7542 7802
4  7849 6150 7306 6971
4  7660 6341 7382 7662
4  7707 7706 7705 7238
4  6683 6603 6969 6604
4  6166 6165 6170 6167
4  7736 7581 7371 7373
4  493 6713 701 8303
4  344 343 934 6323
4  7413 7408 7411 7406
4  7859 8303 6422 6425
4  8012 7374 7756 7322
4  7328 7372 7371 7327
4  7417 7756 7408 7411
4  8219 8312 6395 6688
4  7413 7753 7414 7409
4  8314 6688 8219 8220
4  8222 7837 7376 7835
4  8301 8310 8303 6396
4  7813 8221 7815 7812
4  6395 6402 6396 6398
4  8109 8110 6687 8007
4  7637 7456 7638 7229
4  8167 7613 7866 7744
4  8223 8160 8321 7750
4  6471 7953 7786 7611
4  7447 7996 7627 7446
4  8277 6323 7992 6712
4  6268 8084 6269 6467
4  6540 7693 7515 7690
4  119 7683 6397 7519
4  7992 7685 8006 6712
4  8277 8006 7992 6690
4  6277 6279 6689 6280
4  8244 7072 8230 8231
4  6278 6691 6688 6280
4  7749 7744 7743 7746
4  7683 7684 7686 6397
4  6333 7141 6934 6335
4  7747 7744 7749 7746
4  8306 7765 8308 7770
4  8308 8048 8307 8230
4  8214 7254 7855 6933
4  8047 8051 8048 7746
4  8122 6641 6643 8010
4  6895 6333 7656 6844
4  8091 6658 8055 6512
4  7693 7574 7515 8094
4  180 7094 77 7100
4  78 8055 6658 7100
4  8055 7094 6512 7100
4  77 7094 8055 7100
4  123 118 142 7513
4  6539 6403 6536 6427
4  685 6334 7142 6336
4  562 8059 81 7575
4  458 6654 7203 6782
4  6924 7142 7112 6925
4  7759 8203 8322 7511
4  7997 8322 7689 8094
4  685 7142 6933 6336
4  7501 8091 8055 8054
4  8204 7497 7493 7502
4  6650 7098 7099 7095
4  47 8122 8214 6933
4  170 47 8214 6933
4  8062 7556 8061 7649
4  8269 6800 8271 6803
4  273 8149 6853 6911
4  8272 8316 6822 7798
4  7865 6564 7649 6565
4  273 6911 6853 6852
4  8316 8076 8270 6813
4  8175 6562 6135 6849
4  694 7160 6849 8102
4  6822 8270 6823 6813
4  6562 7190 7649 7489
4  6561 6562 6132 6135
4  567 7551 904 7176
4  6249 6133 6131 6128
4  6736 7039 7036 7038
4  6345 6343 7461 6136
4  7035 8178 8176 7037
4  6132 7184 7489 7194
4  6555 6560 6566 6565
4  7865 7649 6563 6565
4  6562 6132 7489 6563
4  8181 8176 7041 6733
4  8119 6258 6256 8192
4  7451 6255 6257 6253
4  652 6297 834 6296
4  6739 7035 8293 6733
4  7455 7456 7637 6373
4  7306 7845 8333 7297
4  7459 6371 7607 7229
4  8317 6891 6888 6882
4  6890 6891 8317 6882
4  7883 6371 7843 7228
4  6522 6535 7063 6525
4  8197 7888 8106 6528
4  7027 7275 7069 7156
4  6370 7843 6371 6373
4  8108 8197 6526 6527
4  7460 6372 7459 7457
4  6805 6807 8071 6935
4  6370 7883 6371 7843
4  8022 7843 7637 7228
4  6370 6373 6372 7845
4  6880 7295 6889 6882
4  7455 6373 7845 7297
4  7871 7620 7633 7870
4  7054 6953 6945 7056
4  323 372 364 6155
4  7139 6287 6579 6288
4  8211 8331 6952 8212
4  6960 6952 6948 6954
4  6757 6962 6204 6964
4  8074 7243 6817 7244
4  6294 6287 6857 6291
4  7582 7186 6579 7055
4  8168 7139 7480 6288
4  6915 6916 6778 7063
4  6205 6202 7272 6201
4  6203 6207 7250 6204
4  7250 6207 7243 6962
4  6965 6204 7250 6964
4  6757 6199 7202 6478
4  7272 6204 6965 6478
4  6205 6203 6202 6201
4  6929 6930 8029 6931
4  6805 6935 6937 6931
4  7926 6748 7927 6746
4  6750 8104 7877 7876
4  8116 6920 7336 7725
4  7219 7950 6723 6724
4  7889 7893 7499 7891
4  7893 7891 7981 7624
4  7497 7502 7498 7494
4  7499 7891 7892 7494
4  6729 6655 6724 6725
4  7219 6729 8274 6724
4  7889 6774 7890 7498
4  8033 8034 6656 6774
4  6656 6774 7823 7498
4  7497 7502 6508 7498
4  7950 8276 7099 6724
4  7501 8091 8054 7502
4  6327 6772 6775 6769
4  7219 6730 6729 6725
4  6649 6650 7099 6651
4  7220 6776 7218 6726
4  8162 7166 7882 6912
4  6987 6774 7889 7498
4  6905 6240 6582 6232
4  7339 7341 6776 7337
4  6635 6627 6860 6696
4  6859 7978 8137 6699
4  6701 6474 8170 7923
4  6843 6844 6628 6627
4  6451 6582 6452 6706
4  7011 7012 7358 6633
4  6531 6972 6974 6708
4  6634 7987 6531 6974
4  6626 6972 6695 6627
4  973 6335 7002 7361
4  6860 6700 6859 6697
4  7723 8218 6842 6628
4  6634 6633 6974 6629
4  346 7361 7002 7359
4  7880 6475 7241 6696
4  7254 7855 6642 7111
4  8088 7547 7548 7549
4  7030 7033 7034 6840
4  7012 7010 7004 7001
4  7329 7530 7152 7330
4  6842 6626 6843 6628
4  684 6257 6259 6253
4  8119 6256 8193 8192
4  8262 8195 6256 8193
4  6433 6839 6876 6836
4  8323 8088 7173 7031
4  7731 6256 6883 8193
4  7817 6300 8024 6301
4  7032 8323 8296 7031
4  8344 7817 8237 8343
4  7032 7076 7033 6939
4  7573 7329 7152 7331
4  8200 7451 7452 6257
4  7348 8053 8119 6612
4  8263 8323 7173 8296
4  8263 7173 7169 8015
4  8025 8015 8052 7172
4  8029 7390 7522 7523
4  6709 6292 7555 6857
4  6560 6563 6565 7862
4  6999 6212 6883 7729
4  7191 7491 7648 7190
4  8061 6870 6855 7556
4  256 6856 8175 6849
4  6132 7184 7194 6130
4  6555 8309 8284 6556
4  41 98 684 6885
4  1010 932 832 6177
4  6978 6546 6550 6542
4  566 574 6337 6816
4  8119 8025 8192 8052
4  7527 7910 8020 7525
4  7243 6207 7244 6962
4  7348 8119 7731 6614
4  7107 6295 6298 6296
4  8074 6817 6351 7244
4  601 6259 8216 6251
4  7250 7245 6961 6962
4  7524 7015 7251 7525
4  8053 8216 8119 8025
4  6558 7556 6559 6554
4  8159 6564 7558 7556
4  6616 8283 6996 8226
4  6613 7347 6519 6518
4  7645 6287 7138 6871
4  7644 8311 8061 6870
4  7635 6294 7857 7560
4  6294 7479 7857 7560
4  6557 6558 7555 6559
4  464 6829 6831 6828
4  372 6157 7792 6158
4  6709 6857 7555 6558
4  8163 6616 6996 6617
4  6616 6613 6519 6518
4  7435 7582 7186 6579
4  8283 6465 8226 6464
4  6918 6675 7724 6920
4  7058 8225 7057 7857
4  7635 7857 8225 7560
4  6673 6675 6919 6920
4  6948 6953 6951 6946
4  7558 6553 7559 6559
4  6501 8146 7934 6991
4  6980 8005 7022 7023
4  7934 6991 8132 6992
4  7157 7275 6358 7156
4  7276 7967 8198 7277
4  8097 7899 8346 7901
4  8225 7560 7559 7636
4  8190 6611 8193 8192
4  8024 6301 6300 6298
4  7336 8346 7944 7725
4  7817 6258 6301 8192
4  7153 6298 8015 8296
4  8191 8015 7169 8052
4  8262 8344 8190 8192
4  6763 6754 6756 6450
4  7945 7340 7339 6776
4  7336 7944 7943 7337
4  7642 7549 6435 7332
4  7356 7354 6195 7116
4  7165 6771 7166 6777
4  7218 7343 7340 6776
4  8183 7898 7899 7901
4  6653 7946 7945 6773
4  8344 8343 8190 8192
4  7343 7943 7340 7337
4  7342 7944 7336 7337
4  6641 7259 7255 7111
4  8180 6766 6702 6638
4  7978 7254 7257 7256
4  6641 7261 7259 6644
4  7257 7262 7800 7258
4  7010 7001 6605 7003
4  7978 7257 8137 7256
4  7259 7256 7401 7255
4  7679 7854 7932 7678
4  7803 7802 7800 7776
4  346 973 7002 7361
4  7961 7830 7827 7828
4  7014 8017 7993 7015
4  6484 7526 7914 7528
4  7008 7010 6605 7003
4  7527 7528 8318 7910
4  8019 8166 7960 8018
4  7912 7909 7961 7911
4  937 6603 6605 6596
4  7358 7001 7359 6969
4  68 346 67 7359
4  8318 7908 7910 7911
4  6959 6949 6675 6919
4  7270 7539 8008 7545
4  7572 7329 7573 7331
4  7572 8008 7329 7545
4  8031 6672 6943 6154
4  8259 6390 8319 6917
4  7942 7287 7870 7476
4  7454 6388 6446 6437
4  6951 7962 7618 7619
4  8186 7616 7871 7870
4  6390 6383 6874 6384
4  8186 7871 7942 7870
4  6390 6921 6446 7060
4  7474 7280 7287 7870
4  7454 6673 6388 6437
4  7955 7598 7599 7385
4  7234 7060 6390 6958
4  6948 6950 6954 6946
4  7439 7442 7672 7956
4  7439 7672 7598 7956
4  7599 7385 7597 7895
4  7475 7596 8000 7597
4  7971 6998 8143 8144
4  7350 8141 8143 7969
4  8141 7970 7969 7785
4  7968 6465 7969 8144
4  8017 8142 8166 7319
4  7105 8194 7377 7376
4  7007 7969 6465 7785
4  7103 7383 7105 7104
4  7661 7383 7103 7104
4  7105 8194 7376 7812
4  7417 8012 7756 7411
4  7321 7414 7370 7322
4  7414 7755 7322 7411
4  6616 6996 6617 8226
4  7565 7562 7561 6671
4  7416 7268 7540 7412
4  7448 7627 6648 7446
4  8188 8226 6516 6518
4  7352 7351 6229 7013
4  7350 8143 7470 7351
4  8164 7351 6226 8144
4  8164 6996 7968 8144
4  7771 8247 7810 8013
4  7834 7836 7919 7700
4  7834 8011 7835 7666
4  7386 7310 7398 7666
4  8014 8246 7766 7767
4  8244 8308 7770 8307
4  7771 7770 8307 7767
4  7813 8014 7463 8013
4  7070 6790 7071 7073
4  7753 7761 7762 7868
4  7867 7747 7998 7868
4  7747 8047 7998 7746
4  7751 7744 7748 7405
4  8246 8247 8231 7767
4  8244 8231 8307 7767
4  8047 8048 8308 8230
4  8308 8240 7770 8048
4  8047 7998 7999 8230
4  6461 7611 6462 6463
4  7970 7785 7788 6463
4  7766 7764 7771 7767
4  7916 6714 7082 6716
4  7869 7762 7999 7868
4  8047 7999 8048 8230
4  7765 7766 8244 7767
4  7970 7312 7788 7785
4  7998 8230 7072 7763
4  8143 8141 7970 7969
4  7450 7449 7029 6408
4  7450 6492 7028 6408
4  8340 6494 6711 6581
4  6758 6492 6759 6408
4  6711 6494 8213 6491
4  940 7020 7019 6988
4  6711 8213 6239 6491
4  6247 7293 7041 6322
4  8143 7969 7970 6465
4  319 7161 991 6331
4  1046 6241 6244 6242
4  1024 7453 6241 6331
4  8178 8179 6344 6345
4  8142 7969 7007 7785
4  8142 7790 7319 7785
4  8141 7312 7970 7785
4  7541 7410 7711 7412
4  6980 7021 6984 6981
4  7541 7539 7538 7412
4  7157 7065 7066 7068
4  7711 7410 7321 7324
4  8239 7126 6417 6420
4  7538 7539 7713 7412
4  822 117 123 7500
4  8241 6537 7684 7509
4  6515 6514 6513 6510
4  7328 7323 7321 7322
4  8325 6663 8208 8075
4  7574 8054 8075 8100
4  695 8234 493 8303
4  7578 7564 7323 7324
4  7578 7323 8012 7324
4  7563 7323 7564 7324
4  7027 7040 6502 6504
4  7065 7068 7144 6767
4  6497 7074 6529 6523
4  7731 8119 6256 8193
4  6980 6356 7021 6361
4  490 7144 890 7146
4  6883 6885 7729 8041
4  41 8200 8041 6257
4  8188 7731 6999 6614
4  6369 6500 6501 6367
4  6980 7023 6361 6982
4  7278 7434 7429 7277
4  6501 6366 6367 6499
4  6883 6885 8041 6257
4  7024 6360 6991 6994
4  6999 7731 6883 7728
4  8191 8079 6612 8052
4  8347 8190 8345 8193
4  6615 8193 6611 6614
4  7435 6579 7186 7187
4  7170 7334 7197 7331
4  7081 8320 8113 7060
4  422 6922 418 6391
4  958 7451 684 6253
4  958 6252 6254 6253
4  6616 6519 8226 6518
4  6210 6212 6883 7728
4  6388 6390 7060 6958
4  7573 7154 7153 7172
4  8191 7169 7171 8052
4  6611 8192 8191 6612
4  6560 6566 6562 6856
4  7191 7190 7184 7489
4  7647 6911 7160 7185
4  6809 6810 7176 6812
4  565 567 566 7174
4  574 998 825 6342
4  6842 6632 6626 6628
4  7586 7649 7489 6563
4  7588 6127 8252 6129
4  7586 6132 7194 7585
4  6562 7489 6132 6850
4  7639 7603 7605 7606
4  7588 7587 7586 7585
4  6561 8103 6132 7585
4  6999 7731 7728 6614
4  7137 6184 6686 6685
4  6846 6845 7306 6180
4  6225 8163 6996 6997
4  6594 6707 6755 6602
4  464 7114 6829 6830
4  850 8042 6829 8041
4  7470 6998 7115 6226
4  672 258 621 7876
4  8163 7000 7728 6617
4  464 189 7114 6830
4  7470 7472 7180 7051
4  6642 7112 7855 6933
4  373 7795 7792 6157
4  8256 7259 7477 7111
4  6907 7722 8256 6909
4  8031 6672 7963 6943
4  6940 6436 6435 6431
4  8088 7031 6600 7549
4  7435 7582 7794 7186
4  7547 7549 6600 7550
4  412 414 413 6290
4  8331 8212 7582 6945
4  7054 7582 7055 6945
4  7795 7435 7794 7187
4  6952 6953 6948 6946
4  995 317 318 7159
4  318 319 7292 7158
4  7417 7412 7411 7406
4  834 6299 436 6295
4  7194 6138 6127 6130
4  7292 6343 7159 7158
4  6134 7161 6135 7160
4  8028 8026 6432 7549
4  8028 7550 7549 7641
4  1046 244 6241 6242
4  7548 7332 7549 7641
4  6311 6355 7244 6275
4  881 6703 6640 6230
4  7349 6978 6550 6542
4  6802 6817 6803 6811
4  10 192 191 6905
4  6705 6644 6641 8010
4  6801 7175 8177 6354
4  686 720 47 6764
4  45 170 47 8214
4  47 8122 6643 8010
4  7109 7112 6908 6966
4  6355 6817 6353 6811
4  611 880 856 6863
4  878 6185 880 6709
4  6311 6355 6817 7244
4  612 553 880 6293
4  822 123 562 7500
4  142 118 845 8265
4  8076 7798 6817 6813
4  6809 6801 6803 6811
4  6650 7099 7098 6507
4  8059 7512 7575 7500
4  7684 7576 7509 7519
4  7098 6507 6724 6509
4  6451 6491 6706 6407
4  596 600 7102 6251
4  6247 6133 7293 6322
4  6244 6250 7119 6245
4  6737 8065 7039 7709
4  7225 8182 7353 6902
4  6244 6241 6250 6243
4  7921 6495 8182 7019
4  6512 6513 8054 6511
4  8274 6724 6729 6509
4  6760 6705 6761 7260
4  6494 6495 8213 6493
4  7020 8213 6495 6493
4  192 909 191 6905
4  6568 6458 6547 6459
4  6452 6237 6703 6232
4  6231 6234 6239 6232
4  6729 6509 6724 7823
4  7179 6215 6544 6216
4  8276 8337 7098 6514
4  8347 7231 8195 8345
4  8091 6656 6507 7823
4  7822 7497 6508 7823
4  7822 6508 6509 7823
4  135 137 136 6639
4  6457 6459 6639 6454
4  135 8050 6640 6638
4  285 7205 272 6868
4  272 6608 367 6718
4  6482 7250 6961 6964
4  6642 7112 6924 7110
4  7121 8136 7122 6751
4  6608 6868 6719 6718
4  7254 6642 6933 6643
4  999 6704 136 6639
4  46 136 6704 8010
4  46 8122 47 8010
4  7978 7855 7721 6934
4  6502 6504 6503 6499
4  8135 7075 6532 7069
4  8105 7043 8197 6528
4  999 136 137 6639
4  7157 7065 7068 7146
4  7068 6357 6360 6359
4  6609 6601 6505 6506
4  771 6498 1005 7196
4  881 192 10 6703
4  6495 6492 6406 6493
4  7507 7989 8334 7506
4  1005 7196 6498 6523
4  6457 6638 6702 6765
4  6610 6523 6498 6530
4  6356 6361 6357 6359
4  6608 6719 6938 6179
4  6822 7798 8316 6813
4  7065 7066 7068 6767
4  6203 8076 7243 6207
4  8270 6205 7122 6206
4  6310 7248 7244 6962
4  7077 6916 6535 6534
4  7066 6916 6586 7075
4  6646 7241 7240 6648
4  6859 7721 7978 7979
4  6843 6695 6698 6700
4  6916 7074 7063 7067
4  7155 7156 6367 6359
4  6444 7341 7454 6445
4  7454 6446 6193 6437
4  8026 6838 6878 6876
4  7081 7061 6441 6438
4  6444 6437 6193 6439
4  7151 6416 8297 6921
4  6967 8259 8319 6917
4  418 6385 6387 6389
4  6864 6444 7454 6922
4  6674 6675 6920 7725
4  418 6385 6389 6922
4  7572 7197 7331 7172
4  848 6815 7148 6196
4  6432 7031 6435 7549
4  8031 6386 6672 6154
4  7152 7333 7332 7154
4  7061 6918 6437 6957
4  6959 6675 6918 6919
4  8088 7549 7548 7332
4  8123 8021 8016 7015
4  8021 8016 7015 8018
4  7350 7352 8123 7013
4  7350 8124 7351 7013
4  154 149 499 8202
4  6213 6223 6214 6216
4  7548 7332 7641 7330
4  6338 6339 7803 7797
4  8184 6338 7797 8185
4  8065 8115 6340 7797
4  6338 6340 6339 7797
4  6338 7660 7665 6339
4  7796 7260 7801 7776
4  7803 7797 8115 7776
4  7954 6556 7441 7670
4  6555 8284 6560 7862
4  7393 7381 6415 7309
4  7796 8115 7797 7776
4  7796 8115 8065 7797
4  8184 7797 7774 7775
4  8309 7954 6556 7438
4  457 589 6659 6783
4  7203 6328 6781 6782
4  7860 7864 6551 6556
4  7138 6871 6287 6862
4  7439 7437 7442 7438
4  7630 6648 7448 7627
4  7625 7624 7892 7536
4  6555 6560 8133 6566
4  8061 8311 7653 6870
4  8315 7479 7645 7557
4  6855 6562 6856 6852
4  7558 7556 6564 6559
4  7984 7824 7828 7829
4  7791 7974 7317 7787
4  7537 7536 7367 7534
4  8070 8068 8067 7981
4  7830 8166 8161 7318
4  7984 8022 7824 7829
4  7893 8279 7623 7624
4  7623 7891 7624 7892
4  7499 7893 7623 7891
4  7439 7438 7442 7956
4  8342 7484 7483 8068
4  7554 8279 7483 7553
4  7552 7624 7536 7553
4  8279 7981 8068 7624
4  7537 7482 7366 7367
4  7554 7483 7427 7553
4  7535 7536 7892 7534
4  7625 7552 8242 7624
4  6474 8172 8170 7706
4  8107 8171 7707 7706
4  8169 8171 8107 7706
4  7908 7959 7320 7960
4  8166 7315 8161 7318
4  7321 7322 7324 7411
4  7832 7831 7317 7318
4  7830 7826 7828 7318
4  8012 7324 7322 7411
4  7416 7413 7410 7406
4  7959 7826 7832 7318
4  7959 7832 7316 7318
4  7321 7324 7410 7411
4  7270 7538 7265 7268
4  7416 7412 7540 7406
4  7540 7407 7405 7406
4  7320 7316 7315 7318
4  7540 7408 7407 7406
4  8321 8306 8051 7973
4  7077 7025 8095 7075
4  7198 7766 7765 7764
4  7077 7025 7075 6534
4  7068 6529 7074 7067
4  6777 6913 6912 6272
4  6770 6379 6374 6769
4  8244 8308 8307 8230
4  7080 6723 7079 6772
4  8244 8307 7770 7767
4  6775 6776 6772 6726
4  6270 6379 6263 6272
4  8290 7938 8246 7939
4  8290 8246 8247 7939
4  7810 8247 8291 8013
4  7810 8291 7815 8013
4  7493 7497 7499 7494
4  8093 7501 8100 7496
4  8091 7498 7502 7494
4  6663 8075 6513 6511
4  6777 6374 6271 6272
4  913 6912 6913 6272
4  6327 6777 6775 6781
4  6380 8140 7117 6376
4  130 258 672 7952
4  8273 8029 7643 8027
4  7547 8273 7643 7550
4  405 404 403 6926
4  6310 7244 6351 6275
4  6319 6313 6320 6332
4  6319 6320 6313 6314
4  710 709 131 6314
4  6848 6319 6393 6313
4  6979 7930 6977 6975
4  6312 6319 6848 6313
4  6202 6204 7272 6201
4  8272 7798 6822 6803
4  6285 6310 6275 6304
4  7798 6802 6817 6803
4  710 7189 709 6313
4  6692 7189 6693 6694
4  7078 7080 7219 6723
4  566 6337 6282 6816
4  630 629 287 6791
4  6664 6513 6667 6665
4  6657 6650 6659 7100
4  8274 6729 7822 6509
4  6891 6160 6892 6165
4  6162 8046 8156 6139
4  6866 6477 7249 6869
4  6162 8254 6160 6151
4  8337 6515 7098 6514
4  7849 6148 6150 6141
4  6881 7137 6685 6169
4  8056 7897 7901 7944
4  7296 6889 6880 7295
4  7099 7096 7101 7095
4  7822 8204 6509 6508
4  6507 6509 6508 7823
4  8254 7850 8333 6971
4  6891 6170 6892 6882
4  8333 6370 6372 7845
4  8328 7296 6845 7137
4  6961 7251 7526 7247
4  8254 8333 6892 6971
4  6635 6974 6636 6629
4  67 7001 6603 6969
4  7004 7001 7010 7003
4  6682 6686 6595 6604
4  584 583 7008 6605
4  605 7009 604 7003
4  6961 7526 7528 7247
4  583 604 7008 7003
4  6760 6409 6759 6989
4  6406 6405 7019 6407
4  686 7143 6766 6925
4  6451 6491 6492 6581
4  6495 6406 7019 6493
4  7109 7655 6908 7112
4  7921 8182 6902 7019
4  7722 6844 6843 6700
4  7108 7818 6826 7110
4  7450 7029 6494 6492
4  7978 7855 7254 7111
4  7029 6732 8182 6406
4  7941 7223 8000 7596
4  7942 7594 7288 7596
4  7474 7286 7941 7287
4  7941 7287 7286 7291
4  6873 6156 6154 6155
4  8186 7942 8155 7287
4  8186 7287 8155 7282
4  7280 7283 7286 7282
4  7286 8155 7287 7282
4  7724 6675 7617 7725
4  6984 7021 8134 6981
4  7618 8097 7724 7617
4  7279 8057 8056 7901
4  8346 7901 7899 7944
4  7342 7336 7944 7725
4  7021 7933 7934 6368
4  6369 6367 6501 6368
4  7157 7066 6592 7069
4  8116 8056 6674 7725
4  509 771 490 6993
4  7792 7794 7793 6157
4  7336 7724 8346 7725
4  7058 7857 7057 7056
4  8091 6507 6512 6508
4  7098 6515 6507 6510
4  6512 6511 8054 6508
4  7526 7993 8019 7525
4  7792 7793 8258 6158
4  7477 7259 7261 6644
4  7214 6640 7820 6548
4  6641 6642 6644 7111
4  8054 7502 8075 8100
4  8091 6508 7502 7498
4  6826 7818 7477 7110
4  8332 6907 7818 6966
4  8207 8204 6511 6509
4  7573 8260 8217 7153
4  7316 7317 7313 7315
4  7152 7153 6435 6436
4  8294 7033 7076 6941
4  7173 8088 7333 7332
4  7642 8028 6875 6432
4  8130 7349 8074 6353
4  7788 7313 7789 7314
4  6461 7789 7612 7611
4  6471 7727 7953 7610
4  7006 7611 7786 7314
4  6992 6900 6901 6424
4  6980 7022 6356 6361
4  8001 8162 7882 6792
4  6471 7611 7006 6463
4  7218 7943 8032 7340
4  7786 7611 7953 7613
4  7902 7905 7898 7900
4  7964 8032 7905 7965
4  7186 7187 6578 6156
4  7963 6944 6943 6947
4  7945 6773 7340 6727
4  6340 8114 7741 6339
4  6943 6873 7186 6578
4  6943 7186 6944 6578
4  7555 6857 7560 6559
4  6338 7665 7803 6339
4  7816 7052 7053 6944
4  7851 7961 7883 7847
4  7685 6713 8303 6396
4  7961 7911 7909 7828
4  7541 7538 7268 7412
4  7270 7541 8008 7539
4  7263 7267 7727 7266
4  6471 7611 6462 7610
4  7270 7264 7445 7266
4  8034 7902 7946 7965
4  7338 7946 7900 7340
4  8034 7980 7902 7965
4  7637 7228 7843 6373
4  493 6422 343 6325
4  7943 7900 8032 7340
4  860 847 6400 6399
4  8006 6403 6395 6688
4  343 6421 6323 6325
4  7964 7905 8035 7965
4  8032 7340 7900 6773
4  6656 8034 6653 6774
4  7497 6987 7889 7498
4  7889 8035 7893 7890
4  6400 6399 6427 6398
4  8033 7980 8034 7890
4  7625 7624 7891 7892
4  7805 6574 8023 6572
4  7433 6793 8036 8038
4  8040 7433 8036 7809
4  7388 6798 6676 7389
4  6575 6574 6573 6572
4  6677 6669 7326 6671
4  8228 7565 7392 6679
4  701 6713 6402 6396
4  7522 6680 7516 7523
4  457 589 590 6659
4  926 6658 6657 7100
4  233 8129 7097 7096
4  8228 6680 6679 7523
4  7637 7638 7228 7229
4  6678 6677 7579 6671
4  7561 7562 7326 6671
4  8037 7492 8082 8038
4  233 629 8129 7096
4  6326 6329 6651 6783
4  7738 7373 6669 6576
4  6794 6798 6670 6795
4  7448 7447 7627 7446
4  7213 7593 7464 7201
4  7631 7591 7627 7593
4  6484 6961 7528 6963
4  230 180 589 7095
4  6719 7202 6720 6868
4  7465 7466 7814 7467
4  8078 7467 7590 7106
4  7948 7467 7814 7106
4  6757 7202 6199 6869
4  6719 7202 6477 6720
4  6720 6177 6178 6718
4  7953 7610 7726 7405
4  7727 7267 7269 7266
4  6630 6719 6477 6720
4  7727 7726 7953 7610
4  7540 7405 7726 7269
4  7198 7765 7768 7764
4  7374 7375 7322 7327
4  7977 8330 8240 7973
4  7756 7757 7754 7755
4  8306 8240 8051 7973
4  7567 7418 7420 7134
4  7768 7765 8306 7769
4  7418 7419 7918 7420
4  7418 7420 7134 7421
4  7482 7419 7418 7421
4  7917 7918 7734 7423
4  7198 7764 7768 7209
4  7975 8306 8321 7973
4  7482 7134 7128 7421
4  7208 7769 7764 7209
4  7977 7208 7604 7769
4  7397 7377 8011 7841
4  378 8210 6143 6147
4  7742 7380 7381 7382
4  21 6846 7907 6181
4  6163 8045 6139 6149
4  7740 8222 7383 7378
4  7380 7105 7377 7378
4  6606 6990 8210 6147
4  7837 7839 8221 7376
4  7103 7105 7383 7376
4  7567 7088 7086 7087
4  6205 6198 6200 6201
4  7772 7134 7420 7421
4  7427 7485 7419 7424
4  7422 7420 7423 7421
4  8076 6817 6207 6813
4  6310 6392 6541 6284
4  6310 8229 6351 7244
4  8209 8177 6847 6352
4  7917 7734 7918 7084
4  7418 7918 7088 7420
4  389 390 840 7217
4  998 658 825 6286
4  7217 7225 7353 6903
4  319 244 390 6331
4  825 6273 824 6337
4  6206 6818 6813 6814
4  625 6914 6779 6778
4  7490 7195 8060 7489
4  7191 7184 7192 6138
4  7191 7491 7190 7489
4  407 694 857 6849
4  8172 7705 8099 7664
4  8172 7704 7705 7706
4  8239 7123 7126 6420
4  8305 7123 7150 7116
4  7704 7242 7590 7238
4  7124 7116 7117 6188
4  7147 7149 7123 6197
4  711 999 712 6704
4  7214 6640 6548 6237
4  7592 7627 7591 7593
4  8171 8158 7705 7664
4  1029 940 941 7020
4  7663 8158 8171 7664
4  940 656 712 7018
4  8078 7590 7705 7106
4  10 191 712 6706
4  941 7017 7020 6988
4  7707 8158 8078 7705
4  6864 6270 6444 6193
4  7694 8227 7335 6375
4  8140 6379 6263 6376
4  6663 6513 6661 6511
4  8205 8208 6663 6511
4  6382 6194 6375 6376
4  7990 6417 7125 6265
4  7356 6382 6381 6195
4  6382 6375 6194 6439
4  6193 6194 6375 6439
4  8266 8267 7576 6666
4  6311 6206 6814 6302
4  6757 6199 6204 6208
4  8266 7576 7514 6666
4  7658 8322 7997 7511
4  7758 7508 7577 7511
4  8277 6538 8006 6690
4  6757 6204 6478 6964
4  7515 7520 8007 7690
4  7274 6719 7204 7202
4  565 569 6692 6282
4  567 566 7174 7176
4  565 7174 566 6282
4  569 566 825 6337
4  566 574 825 6337
4  7176 6810 6816 6812
4  7274 6481 6479 6478
4  285 7230 7205 6868
4  7122 6751 6206 6200
4  881 6640 8049 6230
4  6273 6337 6282 6276
4  6719 6477 7202 6479
4  686 47 170 6925
4  6739 6736 6733 6735
4  7035 6736 7036 7038
4  6247 6322 6245 6243
4  6731 6738 6735 7038
4  8045 6990 6938 6607
4  6824 8180 7469 6702
4  6703 6237 6230 6232
4  8050 8180 7820 6640
4  7022 8005 7428 7429
4  6785 7760 8132 6992
4  8312 6269 7685 6691
4  6146 6631 6144 6139
4  7966 6146 7986 7042
4  367 6718 6179 6176
4  344 104 103 6324
4  8125 7046 7042 6486
4  7680 7249 6477 6963
4  701 8301 8303 6396
4  7966 7915 8318 7913
4  8157 7850 6140 7844
4  8157 6140 7042 7848
4  574 6342 6337 6816
4  6409 7018 6405 6407
4  7526 7525 7528 7247
4  7162 7120 6760 6404
4  840 7225 7217 6903
4  6244 6242 6241 6243
4  8181 7353 6732 7041
4  319 991 244 6331
4  7190 7184 7489 6850
4  317 991 319 7161
4  6978 6392 6393 6975
4  7179 7180 6227 6216
4  7179 6227 7180 7049
4  1024 6241 244 6331
4  7184 6138 7194 6130
4  7652 7653 8311 6870
4  8176 7041 6733 7037
4  7029 6406 6492 6408
4  192 6231 6905 6232
4  8202 6545 7050 6320
4  7214 7820 7989 6548
4  6453 6237 6452 6582
4  7115 6212 6827 7000
4  6487 6238 6233 6235
4  7671 7214 7989 6236
4  7527 7525 7524 7247
4  6217 6224 6223 6216
4  6227 6827 7051 6828
4  8126 7183 6827 6224
4  8127 8163 6225 6997
4  8164 6226 7351 6229
4  6451 6455 6453 6582
4  893 8238 1014 6230
4  6998 8280 7471 7113
4  728 397 117 8300
4  6211 8126 6827 6212
4  7352 7180 7472 7049
4  8093 7692 7691 7496
4  822 117 7500 7514
4  8002 6986 6985 7023
4  7024 6981 6361 6982
4  1046 244 1024 6241
4  8002 8040 8003 7429
4  7278 7429 7023 7277
4  7276 7278 7364 7024
4  723 488 1028 8089
4  7022 7023 7277 6357
4  7571 8025 8052 7172
4  6543 8202 6545 7050
4  488 7364 8089 6901
4  6543 7352 6544 7013
4  6217 6225 6223 6224
4  7250 6962 6961 6964
4  6305 6866 7249 6869
4  6545 7179 6215 6544
4  6757 6208 6962 6304
4  7680 6630 6477 6720
4  444 932 6865 6867
4  6214 6223 7016 6229
4  7903 8067 8152 7284
4  6212 6883 7729 8041
4  42 850 41 8041
4  7903 8152 7283 7284
4  7279 7284 7283 7282
4  8183 8151 7906 7284
4  7906 7904 7898 7284
4  43 41 684 6257
4  6800 6801 6804 6802
4  6804 8177 8209 8130
4  7906 8069 8066 8067
4  8070 8068 8341 8067
4  125 8199 6835 6893
4  7951 8196 8058 8104
4  7642 7549 7332 7641
4  8235 6837 7878 7879
4  6433 6835 6876 6431
4  6937 7879 8026 8027
4  8030 6937 8026 8027
4  6979 6977 6847 6393
4  6979 6976 7929 7930
4  7646 7641 7532 7330
4  7548 7643 7516 7641
4  7643 7550 8027 7523
4  6976 6848 6317 6319
4  6545 6319 6320 6392
4  526 850 8042 6829
4  961 7047 706 7048
4  42 8042 850 8041
4  6310 6311 7244 6275
4  285 356 7230 6868
4  6320 6284 6392 6332
4  6545 6392 6320 6284
4  6978 6542 6392 6975
4  6477 6485 6963 6480
4  7250 7243 7245 6962
4  7230 7121 6198 6349
4  7179 6228 7049 7050
4  7272 7210 6198 6199
4  7929 6976 7182 6215
4  7274 7204 7210 7202
4  6914 6915 7064 6585
4  258 6877 7877 6893
4  6273 6282 6337 6816
4  8136 6823 7122 6818
4  7230 6198 7210 6349
4  6205 6198 7122 6200
4  8199 7952 8302 6893
4  8199 7034 6834 6836
4  7210 6199 7202 6349
4  6205 7272 6198 6201
4  7205 7230 7210 6868
4  8314 7659 8109 8220
4  7693 7689 8094 7690
4  6403 8220 6687 8007
4  6539 8110 8201 8007
4  6635 6972 6974 6629
4  987 798 170 7140
4  6540 8007 8201 7690
4  7298 7301 7302 7690
4  7849 6148 6141 6140
4  6890 6166 8249 6891
4  6160 8254 6892 6151
4  7849 7844 6971 7845
4  7790 7006 7314 7785
4  7850 6971 6141 7844
4  6543 8123 7352 7013
4  6214 6229 7016 6544
4  8333 6971 7850 7845
4  6171 6173 6143 6145
4  6566 7649 7556 6565
4  7863 7991 7864 7862
4  8284 8287 7861 7670
4  7865 7586 7863 6563
4  332 334 323 8031
4  6953 6947 6951 6946
4  6672 6673 6675 6919
4  6951 7618 6959 7619
4  6164 6171 6990 6145
4  7306 6971 8333 7845
4  7987 7681 6887 7682
4  7849 6141 6150 6971
4  6447 7682 6754 6450
4  6755 6707 6647 6450
4  871 8050 135 6638
4  6753 6880 6755 6754
4  6683 6602 6603 6604
4  802 8128 6864 6271
4  6635 6974 6972 6708
4  6635 6972 6696 6708
4  849 6864 6815 6260
4  511 771 509 6506
4  8019 8166 7909 7960
4  7527 8020 8021 7525
4  967 7990 6264 6265
4  7320 8166 7319 8018
4  7971 8188 6998 8226
4  6520 6462 6470 6464
4  8283 6470 6465 6464
4  7971 6460 6516 6464
4  8140 7165 7164 6263
4  6516 6517 7344 6518
4  6770 7694 7335 6374
4  7454 6193 6446 6922
4  6864 6444 6270 6374
4  7694 6382 8227 6375
4  7081 6441 6440 6438
4  7133 7481 7128 7421
4  6192 6261 6189 6190
4  6307 6309 6341 7708
4  7299 7127 7365 7129
4  7365 7129 7127 7128
4  7781 7304 7131 7129
4  8245 6341 6309 7708
4  8107 7706 7707 7238
4  7665 8120 7402 7802
4  7665 8120 8114 7664
4  8114 7542 8120 7802
4  6308 6307 7742 7708
4  6308 6309 7708 6365
4  6363 6443 6309 6365
4  6443 7393 7708 6415
4  7393 7381 7708 6415
4  7925 7923 8107 6475
4  6308 6415 6411 6365
4  6363 6443 8245 6309
4  7741 7379 7382 7662
4  7660 6341 7739 7382
4  6362 6413 6412 6365
4  7954 7308 7441 7387
4  7017 6239 8213 6240
4  6618 6625 7568 6621
4  6622 8282 6625 6624
4  7570 7134 6621 7130
4  8049 6640 7214 6230
4  6451 6581 6455 6582
4  6705 6580 6458 6456
4  7568 6625 7569 6621
4  8047 8308 7072 8230
4  712 6989 6704 6706
4  6489 6581 6711 6238
4  6758 6583 6761 6456
4  7574 8100 7511 8094
4  8092 7534 7892 7496
4  6705 6451 6759 6456
4  8093 7501 8059 7574
4  7878 6936 8236 7879
4  7548 7641 7646 7330
4  7642 7530 7641 7330
4  7856 7674 8173 7673
4  7081 8336 8113 8320
4  6593 6755 6753 6880
4  7358 6603 7001 6969
4  6861 7012 7656 6628
4  73 6968 74 6604
4  69 67 74 6969
4  189 7113 7114 6830
4  67 7362 7359 6969
4  7183 8288 6217 6224
4  6683 6595 6602 6604
4  7363 6683 7358 6969
4  8255 7011 7358 6633
4  7135 6881 6682 6685
4  6976 6228 7182 6215
4  7363 7358 7359 6969
4  8126 6827 6212 7000
4  6217 6223 6213 6216
4  6541 6545 6392 6542
4  8002 8004 7931 6466
4  7009 7004 7010 7003
4  7818 8256 7477 6966
4  6536 6400 6427 6398
4  1002 7687 8301 6396
4  7932 7854 7654 6334
4  6895 6908 7654 6333
4  6698 7922 7924 6699
4  6859 7979 7978 6699
4  209 6335 6334 6336
4  6636 6974 6633 6629
4  7654 7112 7142 6334
4  8301 8310 8304 8303
4  6907 8256 7818 6966
4  1002 860 7687 6396
4  860 6397 6396 6398
4  771 890 490 7144
4  7878 6837 6838 7879
4  807 6402 6428 6399
4  946 625 813 6590
4  7926 6743 6748 6745
4  6819 6591 6807 6747
4  8030 6805 6931 7390
4  6744 6743 7926 6745
4  8320 8297 8319 6921
4  541 6967 6917 6383
4  6819 8073 6807 6591
4  626 8104 6780 6779
4  731 6385 418 6922
4  731 422 919 6864
4  6744 7926 6749 6745
4  1035 625 6914 6779
4  6377 8140 6380 6376
4  767 6995 6601 7145
4  6643 8010 6644 6765
4  422 849 6864 6815
4  848 849 422 6815
4  848 422 683 6391
4  913 6264 6272 6262
4  6704 6451 6454 6706
4  6194 6192 6189 6191
4  6864 6815 6193 6922
4  7080 7853 7220 6772
4  7151 6416 6921 6440
4  8005 8003 7431 7429
4  6378 6770 7853 6769
4  6380 7694 6378 6376
4  6777 6271 6913 6272
4  7874 6571 7873 8039
4  7220 7343 7218 6776
4  6770 7220 7853 6772
4  7874 7873 8277 8039
4  7873 8039 6571 7885
4  7035 6733 6736 7038
4  8304 6269 7858 7859
4  7298 7691 7693 7302
4  6540 8265 6430 7518
4  701 103 807 6428
4  8110 7303 7780 7886
4  6378 7694 6770 6379
4  8312 7685 6395 6688
4  8145 6469 8286 8039
4  8145 7887 8003 8039
4  6689 7884 8286 7885
4  7884 7780 7804 7782
4  7685 6402 6713 6396
4  8006 7685 6395 6401
4  7784 7782 7305 7886
4  7631 7947 7465 7591
4  7213 7591 7468 7464
4  7631 7629 7947 7593
4  893 8049 8238 6230
4  7629 7593 7627 7996
4  7784 6538 7873 7885
4  860 6396 6402 6398
4  6249 6250 6248 6419
4  7036 8174 6128 6248
4  7628 7213 7212 7593
4  8103 6363 6249 6364
4  7588 7589 7587 7585
4  7349 6550 8229 6351
4  6541 6550 7248 6549
4  7252 7524 7251 7248
4  7246 7524 7248 7247
4  7603 7604 7606 7209
4  7995 7216 7629 7996
4  7212 7593 7216 7996
4  7635 7632 7675 7634
4  8200 7452 6209 8041
4  7676 7600 7673 7437
4  6223 6225 8164 6226
4  7473 7476 7475 7600
4  6223 6224 6226 6216
4  7442 7601 7600 7956
4  7016 8164 7351 6229
4  6223 8164 7016 6229
4  7350 7470 7352 7351
4  6996 8283 7968 8144
4  7676 7442 7601 7600
4  8127 6224 7000 6997
4  7474 7596 7475 7476
4  7598 7600 7601 7956
4  7594 7601 7595 7597
4  6557 6552 6555 6554
4  7475 7941 8000 7596
4  6566 6565 7556 6554
4  7652 6870 8311 6872
4  6557 6559 7555 6552
4  6564 6559 7556 6554
4  8225 7559 7674 7636
4  7559 7440 7636 6552
4  7816 6947 7963 7622
4  7598 7601 7600 7597
4  8150 7652 8311 6872
4  615 8168 612 6862
4  8168 6862 7139 6288
4  611 612 880 6863
4  7170 7331 7197 7172
4  7399 6796 6930 6808
4  6819 6820 7967 6821
4  8238 7214 6234 6230
4  7860 7864 6556 7862
4  7861 6412 7991 7670
4  7991 7670 7864 7862
4  335 412 7052 7053
4  7861 7670 7991 7862
4  900 8168 7480 6288
4  7014 7993 7251 7015
4  900 7480 665 6288
4  615 612 611 6862
4  7527 7528 7910 7525
4  8016 7015 8017 8124
4  8019 7993 8018 7525
4  6716 7936 6790 6717
4  7071 6790 7936 7073
4  8021 8018 7015 7525
4  8090 7625 7891 7892
4  7623 7554 8096 7536
4  8035 7893 7890 7981
4  7554 7624 8279 7553
4  7998 7072 7070 7763
4  7762 7093 7071 7763
4  6721 6789 6788 6717
4  7713 7578 8012 7324
4  7563 7321 7328 7323
4  7563 7711 7321 7324
4  7538 7713 7417 7412
4  7091 8138 6787 7093
4  7713 8012 7417 7324
4  972 7679 7932 7678
4  7328 7321 7370 7322
4  7531 7710 7563 7564
4  7710 7711 7563 7564
4  207 685 209 6334
4  8215 7654 7142 6334
4  7006 7611 7314 6463
4  834 481 436 6299
4  7612 7611 7789 7613
4  7614 7727 7610 7269
4  630 8129 629 6791
4  7612 7789 8223 7613
4  8223 7613 7750 7744
4  286 287 301 6792
4  8117 7570 6619 7130
4  7807 6618 7568 6619
4  8121 6619 6621 6620
4  6231 6230 6234 6232
4  7805 8117 6619 6570
4  7127 7807 7568 7130
4  8112 7771 7810 7199
4  7211 7766 7198 7199
4  7211 7462 8014 7199
4  6491 6905 6240 6582
4  6487 6547 6490 6235
4  7716 6714 7916 6715
4  8180 7469 6702 6766
4  1000 8050 8049 6640
4  7082 7083 7091 7093
4  1000 893 881 8049
4  7569 6621 7087 7134
4  7756 7374 7757 7755
4  7082 6714 7083 6716
4  7773 7084 7420 7085
4  7734 7918 7084 7715
4  6625 6621 6624 7087
4  7650 7086 7651 6624
4  7088 7084 7083 7085
4  8227 6442 6445 6439
4  7747 7998 7868 7746
4  8252 8174 7589 6128
4  7086 7092 7090 7085
4  6716 6715 7940 6717
4  8103 6249 6128 6364
4  7999 7868 7762 7763
4  389 7292 319 6330
4  8277 6538 6690 7885
4  6277 6689 8286 6690
4  6266 6269 8312 6691
4  6269 8084 7858 7859
4  8006 6688 6691 6280
4  274 7647 8149 6911
4  995 903 317 7160
4  7159 7192 7647 7185
4  6540 6430 6536 7518
4  407 694 6849 8102
4  7647 7192 7648 7185
4  1013 8238 6231 6230
4  7997 8007 7520 7690
4  8338 8314 8219 8220
4  893 1014 1013 6230
4  1000 135 8050 6640
4  8241 7684 7508 7509
4  6279 6688 8220 6687
4  6233 6239 6234 6232
4  7859 7685 6712 6713
4  7515 7511 7520 8094
4  8241 8219 7686 6537
4  7020 7017 8213 6988
4  8313 8219 8314 6688
4  709 501 149 6394
4  6234 6230 6236 6232
4  6491 6240 6238 6582
4  135 881 10 6703
4  137 6703 6452 6639
4  8049 7820 7214 6640
4  1013 909 192 6231
4  6543 8118 8202 7050
4  6310 6392 6350 6351
4  7017 6231 6239 6240
4  149 8202 8118 7050
4  489 488 490 7146
4  676 723 726 7931
4  7278 8089 7364 6901
4  7278 8002 6985 7023
4  7072 8233 6788 7073
4  7894 7697 6219 7222
4  7505 7717 7896 7719
4  7894 7505 7896 7719
4  7894 7505 6219 7697
4  789 983 6786 6897
4  8278 8297 7149 7148
4  8152 8153 7285 8154
4  779 963 923 6417
4  8342 8069 7290 8154
4  7226 8153 7290 7285
4  7024 6992 6991 6981
4  8111 7298 6540 7301
4  771 6609 6498 6506
4  6983 6469 8145 6986
4  7068 6367 6497 6504
4  6356 6369 7021 6368
4  766 7145 6993 6898
4  981 952 1005 6610
4  511 6609 771 6506
4  6610 6609 6496 6498
4  8004 6469 8003 8039
4  6601 6995 8146 7145
4  7434 8040 8002 7429
4  8277 8039 7873 7885
4  7433 8036 8037 8038
4  7887 7884 7808 6571
4  6908 7112 6333 6909
4  611 8150 6862 6872
4  207 8215 685 6334
4  972 973 7679 7678
4  7656 7012 7004 7002
4  6539 8111 7303 7886
4  972 207 209 7932
4  847 6430 6400 6399
4  7691 7692 7534 7496
4  7573 7331 7154 7172
4  119 847 118 6400
4  118 847 845 6400
4  233 230 629 7096
4  6539 6687 8110 8007
4  7097 8129 7949 7096
4  230 7097 72 7095
4  7433 8082 7431 7430
4  6798 8082 7492 6795
4  7313 7791 7314 7315
4  999 6639 137 6706
4  7976 7826 7831 7833
4  893 881 8049 6230
4  7824 7825 7832 7826
4  135 10 137 6703
4  6704 6451 6705 6454
4  8097 8183 7899 7901
4  7897 7899 7901 7944
4  983 6786 6897 6426
4  6674 8056 8057 7725
4  8005 7431 7428 7429
4  934 676 726 7931
4  7336 8346 7943 7944
4  7946 7902 7897 7900
4  789 983 159 6786
4  59 57 6858 7005
4  584 583 604 7008
4  493 155 6422 6425
4  6899 6421 6900 6423
4  346 973 605 7002
4  7008 7009 6635 7010
4  159 155 6784 6426
4  8262 6256 6255 6258
4  8119 8025 6258 8192
4  6785 6899 6992 6426
4  103 6713 6325 6428
4  839 98 97 7521
4  839 7521 8216 6259
4  8162 7163 7166 6912
4  966 913 967 6264
4  1016 7163 8162 6912
4  6451 6989 6759 6407
4  519 7921 7225 6902
4  967 802 6260 6262
4  7061 6438 7060 6957
4  6555 6556 8284 7862
4  6134 6331 7161 7158
4  162 6902 6903 6321
4  8070 8341 8152 8067
4  8342 7290 7732 8154
4  8069 8155 7290 7285
4  909 6905 6231 6240
4  7286 7283 8152 7285
4  6859 6700 6699 6697
4  6695 6472 6701 6697
4  8275 8206 8276 6514
4  8268 8274 8275 8276
4  7683 8300 7684 7519
4  6538 6539 6403 6687
4  847 808 845 6430
4  8300 7576 7684 7519
4  8109 7997 8201 8007
4  860 6400 6397 6398
4  968 961 468 6833
4  704 131 706 6314
4  131 149 327 6318
4  8347 8262 8190 8193
4  7859 7685 6713 8303
4  766 6993 488 6898
4  444 993 357 6866
4  7858 8084 6785 6899
4  8304 8303 7859 6425
4  8076 8074 7243 6817
4  658 6303 843 6302
4  825 824 6273 6286
4  658 474 661 6303
4  8074 8229 7243 7244
4  8074 7349 8229 6351
4  569 6692 6282 6694
4  499 149 501 6284
4  8241 7686 7684 6537
4  7907 6148 6146 6175
4  8002 7931 8089 6900
4  8004 6466 7992 6421
4  6990 6145 6144 6149
4  6161 6970 6171 6167
4  6164 6159 6161 6149
4  1010 7544 6865 6177
4  6606 6938 6990 6607
4  934 343 676 6323
4  7451 6254 6255 6253
4  43 8200 41 6257
4  6883 6256 6884 6257
4  7286 7285 7226 7291
4  8000 7596 7223 7597
4  7221 7894 7703 7222
4  7972 7974 7317 7833
4  7790 7785 7314 7315
4  7959 7316 7320 7318
4  6768 7853 7852 6771
4  6728 8032 7964 6773
4  6433 6942 6835 6431
4  6653 6773 6655 6774
4  6834 7034 7033 6840
4  8199 6893 8302 6836
4  7878 8302 8044 7875
4  8035 7890 7965 7904
4  262 891 307 6835
4  437 8294 436 6941
4  7724 8097 8346 7725
4  262 436 891 6942
4  537 285 356 7230
4  7122 6823 6206 6818
4  7946 7902 7900 7965
4  6991 6360 6366 6994
4  6983 6468 6467 6469
4  7278 7429 8002 7023
4  1020 537 544 7121
4  537 544 7121 6349
4  7022 7429 7428 7277
4  8002 8040 8004 8003
4  7887 8037 7431 7809
4  6806 6820 6821 6799
4  8249 6160 6891 6165
4  6890 6886 6166 6882
4  6166 7135 6170 6882
4  6890 8317 6886 6882
4  7671 6233 6234 6236
4  7967 7430 6797 6799
4  8261 7967 7399 6821
4  7135 6682 6881 6882
4  6148 6141 6140 6142
4  8328 6753 7296 6880
4  106 756 108 6685
4  7962 7871 7616 7620
4  7057 7856 7962 7622
4  937 6594 585 6596
4  7582 8212 7794 7186
4  6953 7058 7057 7056
4  7963 6947 7619 7622
4  7963 6672 7983 7619
4  6672 6675 6949 6919
4  584 7008 6594 6605
4  937 584 6594 6605
4  6560 7861 6561 7862
4  7860 6565 7863 7862
4  7986 7849 7846 7844
4  8333 7850 6370 7845
4  7849 6180 7306 6150
4  8157 6140 7848 7844
4  6938 6719 6607 6179
4  7966 7680 6630 6485
4  7986 7042 6140 7848
4  7046 7042 7913 7848
4  7966 7042 7986 7848
4  7986 6140 7849 7844
4  6449 6448 7446 6450
4  7880 7237 6645 7241
4  935 585 6593 6596
4  7237 8107 7707 7238
4  7626 7996 7458 7446
4  7239 7592 7240 7591
4  6594 7008 6707 6602
4  6557 6185 6709 6186
4  604 7009 7008 7003
4  7632 7473 7675 7673
4  8309 7436 7438 6552
4  7501 8090 8091 7494
4  8090 7982 8033 7891
4  8090 7892 7891 7494
4  190 97 95 8189
4  526 468 464 6831
4  233 65 230 7097
4  458 6659 6654 6782
4  992 346 8147 7361
4  7742 7381 7396 7708
4  823 822 639 6666
4  7462 7468 7811 7467
4  7211 7213 7462 7464
4  7947 8112 7464 7201
4  6664 6667 7575 7500
4  7462 7811 7813 7463
4  7462 8014 7199 7463
4  7198 7199 7766 7764
4  7994 7198 7209 7201
4  8112 7200 7771 7199
4  7216 7206 7200 7209
4  6386 6673 6672 6955
4  8047 8308 8048 8051
4  6491 6988 6706 6407
4  8306 8308 7749 8051
4  7963 6943 6944 6578
4  6388 6874 6387 6384
4  418 6387 6153 6384
4  7793 6157 6873 6158
4  8150 8311 7138 6872
4  363 332 323 8031
4  6955 6950 6949 6946
4  8066 8069 8342 8067
4  7906 8151 8069 7284
4  8341 8153 8152 8154
4  7903 8070 8152 8067
4  7920 7940 6220 6722
4  7505 7697 7717 6220
4  7916 6715 6714 6717
4  8116 7336 7342 7725
4  8116 6674 6920 7725
4  7432 6794 6795 6799
4  8247 7935 7939 8231
4  6797 8082 6795 7430
4  7433 6795 8082 7430
4  7530 7546 7532 7330
4  7735 7733 8153 8154
4  7504 6717 7940 6722
4  6716 7071 7093 6790
4  7734 7084 7916 7715
4  8088 7548 7333 7332
4  7716 7916 6721 6715
4  7505 7716 6721 6715
4  8228 7391 8030 7390
4  8028 7523 7550 7641
4  8228 6679 7391 7390
4  7671 7507 8335 6236
4  8273 6929 8029 8027
4  7522 7390 6679 7523
4  6432 6433 6939 6839
4  8028 8228 8030 7523
4  8029 8027 7390 7523
4  7183 6217 7181 6218
4  8325 7577 6663 8075
4  7658 7759 8322 7511
4  7977 7973 7604 7833
4  7929 7182 6213 6215
4  7183 8288 7181 6217
4  7974 8330 7973 7750
4  7972 7974 8160 7317
4  7433 7432 6793 6795
4  7434 7432 7433 7430
4  7434 7431 7429 7430
4  8198 7432 7434 7430
4  6797 7430 6795 6799
4  7434 7433 8040 7431
4  7391 6808 6805 7390
4  7388 6808 7389 7390
4  7080 7852 7853 6772
4  8026 7879 6600 7550
4  8126 8288 7183 6224
4  6833 6832 7047 6828
4  7180 7115 6224 6226
4  7179 6228 6227 7049
4  7040 7888 8131 6504
4  8043 7928 8339 6936
4  6935 6937 7875 6928
4  8235 7878 8339 8236
4  7115 6212 6999 7113
4  8042 6209 6211 6829
4  95 8189 97 6885
4  7731 6256 8119 6884
4  6502 8131 6500 6503
4  7888 6503 6504 6530
4  7888 6496 6503 6530
4  161 7062 7196 6523
4  6496 6498 6497 6530
4  6503 6496 6505 6499
4  6503 6505 6501 6499
4  1028 488 489 7364
4  766 509 488 6993
4  509 7145 6601 6506
4  6444 7454 6193 6437
4  6193 6446 6440 6438
4  6382 8227 6375 6439
4  7978 7256 8137 6699
4  7924 7922 7401 7256
4  8256 6909 7722 7979
4  6698 7979 6700 6699
4  489 7065 7364 7146
4  6503 6504 6497 6499
4  723 488 8089 6901
4  676 6900 7931 6421
4  8214 7855 7978 6934
4  1016 913 966 7163
4  6841 7722 6907 6909
4  780 6192 6261 6260
4  7722 6843 6698 6700
4  7109 6924 7655 7112
4  779 967 780 6261
4  923 7990 967 6265
4  7164 6264 6263 6476
4  8256 7924 7259 7111
4  7722 6698 7924 7979
4  7985 7460 7297 7295
4  65 72 7097 6660
4  233 7097 230 7096
4  6892 8333 7294 6889
4  6168 6184 6169 6182
4  6755 6647 8285 6450
4  7296 7985 7297 7295
4  65 72 230 7097
4  6753 6880 6754 7295
4  7296 7985 7455 7297
4  72 7097 6660 7095
4  7692 7495 8096 7534
4  8092 7625 8090 7892
4  7893 7623 7891 7624
4  630 287 8001 6791
4  7097 7098 8337 6515
4  8090 7625 7982 7891
4  8168 7138 7139 6862
4  7413 7414 7408 7409
4  7688 7300 7304 7301
4  6539 6540 8201 7301
4  8111 7305 7303 7886
4  7804 7808 6571 6570
4  7752 7754 7757 7755
4  7806 7782 6570 7783
4  8037 8023 8038 6572
4  7752 8138 7757 7754
4  6573 6619 7807 6570
4  8138 7757 7754 7092
4  7279 7283 7280 7282
4  7805 8121 7737 6574
4  7570 6621 6619 7130
4  7570 7567 7650 6621
4  8121 6621 7650 6620
4  7948 7814 7105 7106
4  8183 8151 7284 7282
4  8158 8099 7104 7106
4  8277 6690 8039 7885
4  7379 7105 7380 7378
4  6279 6278 6688 6280
4  7741 7382 6341 7662
4  6551 6556 6552 6554
4  7739 7381 7382 7708
4  7742 6341 7382 7708
4  7325 7322 7323 7327
4  7325 7374 8012 7322
4  6553 6552 6559 6554
4  7555 7560 7559 6559
4  327 758 7472 8118
4  8289 8291 7836 7920
4  7837 8289 7839 7836
4  7837 7836 7839 7835
4  7992 7859 7685 6712
4  7834 8011 7836 7835
4  909 6231 7017 6240
4  8004 6323 7931 6421
4  7088 7083 7092 7085
4  7569 7087 7420 7134
4  7773 7420 7087 7085
4  7772 7569 7420 7134
4  6788 7937 7936 7073
4  7685 6401 6712 6402
4  7938 7940 7504 7937
4  7070 6788 6790 7073
4  7082 6787 6789 6716
4  6716 7936 7071 6790
4  344 6324 103 6325
4  7916 6716 6789 6717
4  191 6988 712 6706
4  8293 8176 8181 6733
4  7035 8178 8293 8176
4  6221 6222 6220 6722
4  7938 7504 7940 6722
4  7503 7938 7920 6722
4  8233 7937 6788 7073
4  888 962 775 7147
4  6716 7940 7936 6717
4  7938 6788 8233 7937
4  7320 7315 8166 7318
4  373 374 7795 6157
4  7832 7317 7831 7833
4  602 364 1017 8258
4  1017 364 372 6158
4  6238 6582 6240 6232
4  7903 7904 8067 7284
4  8238 6234 6231 6230
4  7279 8183 7284 7282
4  7279 7903 7283 7284
4  8186 8155 8151 7282
4  8152 8069 8067 8154
4  7941 7286 7226 7291
4  7226 7285 7290 7291
4  8183 7281 8186 7282
4  6536 6537 7515 7518
4  7594 7595 7288 7596
4  7941 7226 7221 7291
4  8155 7288 7290 7291
4  8312 6269 8304 7685
4  8338 8219 8241 8220
4  8338 8314 8313 8219
4  8314 8109 6279 8220
4  7290 7289 8232 7224
4  6540 7693 8265 7515
4  214 860 119 6397
4  7941 7221 8000 7223
4  7595 7695 7289 7223
4  7595 7223 7288 7596
4  8335 7507 7215 6236
4  8139 7355 7356 7124
4  6784 7858 6426 6425
4  8165 8324 7032 8323
4  6805 6935 8071 6928
4  789 767 766 6995
4  7278 8002 8089 6985
4  1002 8301 701 6396
4  6538 6324 8006 6401
4  7997 7511 8322 8094
4  6538 6403 8006 6280
4  7030 7034 6837 6839
4  6538 6429 6324 6401
4  74 937 935 6596
4  191 6240 7017 6988
4  7659 7997 8109 7520
4  8328 6593 6880 7137
4  6539 6430 6429 6427
4  6823 6813 6206 6818
4  936 935 6593 6686
4  728 117 822 7514
4  823 728 822 8266
4  1029 7921 759 7019
4  6809 6803 7178 6810
4  6285 6275 6302 6304
4  941 940 191 6988
4  8180 6702 6640 6638
4  437 6834 8294 6941
4  7162 6904 6404 6409
4  940 712 191 6988
4  7515 7509 7512 7513
4  214 7687 860 6397
4  7687 7683 7686 6397
4  7061 6442 6441 6438
4  469 106 108 7136
4  7167 6172 6970 6169
4  8319 6921 6923 6917
4  541 364 6383 6153
4  8212 7236 7793 6873
4  8258 7793 6383 6158
4  7236 7234 8259 6874
4  6519 8283 8226 6464
4  7081 6441 8298 6440
4  8287 7308 6412 7670
4  6228 6227 7049 6316
4  6443 6415 7708 6365
4  7884 7804 6571 7782
4  10 712 137 6706
4  7019 6988 6493 6407
4  7873 6571 7782 7885
4  7887 7808 8037 7809
4  7887 6571 7809 8039
4  8001 7882 7881 6792
4  7874 6569 7873 6571
4  8040 7874 8004 8003
4  8277 7873 6538 7885
4  6539 8110 6687 7886
4  8108 6610 6527 6524
4  953 1007 8108 6524
4  6503 6497 6504 6530
4  7112 6334 6333 6336
4  8197 6526 6527 6528
4  6597 6837 6598 6600
4  621 406 506 7877
4  7880 7925 6475 6697
4  6646 6648 7240 7627
4  7183 7400 6227 6218
4  961 706 329 7048
4  6543 7179 8118 7050
4  7929 7182 7181 6213
4  7181 6217 6213 6218
4  1020 7121 544 6751
4  1020 998 976 8136
4  7152 7642 7332 7330
4  7260 7401 7801 7258
4  6555 6560 6565 7862
4  6555 7860 6565 6554
4  6206 6751 6818 6302
4  574 976 998 6342
4  6199 6303 6752 6348
4  6857 6558 7557 6559
4  7204 7210 7202 6868
4  7272 7274 7210 7202
4  7121 7122 6198 6200
4  474 6869 6305 6303
4  6305 6303 6757 6304
4  7254 6642 7855 6933
4  6895 6906 6908 6909
4  7865 7860 6564 6565
4  7157 6592 8261 7069
4  6805 6931 6808 6747
4  7927 7399 6930 6747
4  7263 7727 6462 7266
4  8283 6470 7007 6465
4  6461 7788 7789 7611
4  7312 7313 7788 7314
4  6827 6829 6212 6830
4  6 8280 0 7471
4  327 329 706 7048
4  98 6885 7521 6259
4  6998 8188 6617 8226
4  6998 7115 6226 6997
4  6998 6996 6226 8144
4  6516 6518 8226 6464
4  6319 6320 6392 6332
4  329 7472 7471 7051
4  95 7114 8189 6885
4  8188 7348 7731 6614
4  8119 6612 8193 6614
4  7521 8189 6884 6885
4  6763 7460 6448 6756
4  6755 7253 7682 6754
4  8086 6762 7987 6887
4  6880 6682 6881 6595
4  6755 6707 7253 6602
4  135 136 6638 6639
4  8021 7320 8016 8018
4  6461 7788 7611 6463
4  8142 7007 7790 7785
4  7786 7791 7314 7787
4  6521 6462 6517 6464
4  8286 8039 6690 7885
4  6539 8201 6540 8007
4  7786 8167 7974 7787
4  7007 7006 7785 6463
4  8161 7315 7317 7318
4  7908 7959 7960 7828
4  8020 7908 7320 7960
4  7320 7960 8166 8018
4  7320 8166 7960 7318
4  7790 7319 7785 7315
4  8141 7320 7312 7319
4  8004 7874 8277 8039
4  8286 6469 6690 8039
4  488 7364 6901 6994
4  8008 7711 7710 7539
4  1014 8238 1013 6230
4  8009 7713 7538 7539
4  6539 8111 6540 7301
4  8286 7884 7887 8039
4  7197 8009 7265 7545
4  6279 8110 6689 6687
4  8265 7518 7515 7513
4  7691 7692 7369 7534
4  8334 7989 7819 6548
4  7298 7368 7302 7300
4  8093 8248 7689 7692
4  7784 7873 7806 7782
4  7091 7090 7092 7085
4  7859 6712 6421 6713
4  8026 6839 6838 6876
4  474 993 661 6305
4  7414 7753 7752 7755
4  7864 7670 6556 7862
4  7408 7755 7754 7409
4  6403 6395 6688 8220
4  24 25 7118 6904
4  7089 7087 7086 7085
4  7091 8138 7092 7090
4  711 6704 712 6989
4  7221 7894 7222 7224
4  1002 701 860 6396
4  8183 8186 8151 7282
4  119 6397 6400 7519
4  7735 7227 8153 7733
4  538 7168 683 6917
4  7793 7236 6874 6873
4  6955 6919 6949 6950
4  7235 7236 6960 6958
4  7720 8232 7719 7733
4  8113 7234 7059 7060
4  7718 7720 7733 7486
4  7703 6219 7698 7696
4  7716 7717 7719 7715
4  7227 7718 7894 7719
4  8000 7221 7703 7223
4  7226 7290 7733 7224
4  8211 8212 6952 6954
4  7254 7257 7256 7255
4  8203 7511 8075 8100
4  562 123 1011 7500
4  7574 8054 6664 8075
4  6955 6873 6874 6954
4  7645 6287 6871 7557
4  7584 7479 7058 7055
4  8159 7557 7644 7556
4  117 118 123 7513
4  7693 8264 8265 7512
4  7730 7644 8159 7557
4  8295 7730 8315 7645
4  103 6324 104 6428
4  7139 7478 7435 6579
4  7169 7171 8052 7172
4  7730 8148 8159 7644
4  839 8216 601 6259
4  7730 8159 8315 7557
4  8168 8150 7138 6862
4  8295 7478 7645 7479
4  7644 7138 8311 6871
4  8148 8159 7644 7556
4  6472 7241 6475 6696
4  6363 6309 6364 6365
4  6306 6309 6308 6365
4  6307 6341 7742 7708
4  6362 6364 6413 6365
4  7521 8119 8216 6259
4  7501 7493 8100 7496
4  8245 6309 6443 7708
4  6306 6364 6309 6365
4  6362 6414 6443 6365
4  6308 7396 6411 6415
4  481 596 535 6436
4  850 189 95 7114
4  327 8118 7472 7049
4  961 329 0 7048
4  154 327 149 8118
4  7278 7434 8002 7429
4  6210 7728 7233 7000
4  7231 8345 7233 7728
4  8262 8193 6256 8192
4  6537 6397 6400 6398
4  8345 8190 6611 8193
4  8004 8277 6323 7992
4  807 104 6429 6428
4  6569 6571 7809 6572
4  7313 7317 8160 7787
4  6159 6162 6151 6149
4  7974 8167 8330 7750
4  8254 6139 8156 6141
4  8345 6615 7233 7728
4  7472 7049 7180 7051
4  7972 8321 8160 7973
4  0 7051 7113 6830
4  6998 6999 8280 7113
4  7731 8193 7728 6614
4  7638 7994 7603 7606
4  7995 7607 7206 7608
4  6294 6287 6579 7479
4  8331 7054 6952 6945
4  7607 7229 7228 7606
4  6371 7609 7607 7228
4  7054 7584 7058 7055
4  7638 7994 7606 7608
4  7207 7606 7604 7209
4  8315 7558 8224 7557
4  7639 7228 7638 7606
4  7994 7768 7603 7209
4  7583 7054 7582 7055
4  6944 6945 6947 7056
4  7640 7212 7994 7608
4  8341 8067 8068 8154
4  8279 8066 8068 7981
4  741 6781 6271 6913
4  8322 8248 7689 8094
4  7483 7427 7553 7424
4  8092 7501 8093 7496
4  7501 7494 7493 7496
4  8341 7487 7484 8068
4  7171 7444 7443 7346
4  7443 7197 7265 7444
4  7344 7345 8053 7346
4  8242 8068 7624 7553
4  7971 6465 6460 6464
4  8141 7319 7312 7785
4  8306 7765 7770 7769
4  8143 7969 6465 8144
4  8225 7674 7634 7636
4  6625 8282 7089 6624
4  7650 7086 6624 7087
4  8092 7892 7494 7496
4  7737 6623 7373 6620
4  7370 7752 8282 7375
4  7372 7370 8282 7375
4  7089 7090 7086 6624
4  7651 7086 7090 6624
4  8138 7757 7092 7090
4  6625 6624 7089 7087
4  8121 7650 6623 6620
4  7635 7560 8225 7636
4  7370 7414 7752 7755
4  7773 7082 7084 7085
4  7086 7088 7092 7085
4  7635 8225 7857 7634
4  8282 7752 7089 7090
4  7761 8138 7762 7093
4  7761 7762 7868 7763
4  7999 7762 7071 7763
4  7555 7559 7560 7636
4  7816 7632 7635 7634
4  6267 6269 6691 6467
4  7869 7868 7748 7409
4  6406 6492 6408 6407
4  6497 6367 6366 6499
4  7434 7431 8040 7429
4  519 840 162 7225
4  8331 7582 7054 6945
4  509 490 488 6993
4  7053 8031 7963 6578
4  7054 6953 6952 6945
4  7794 8212 7793 6873
4  7059 7060 7234 6958
4  7794 7186 6873 6157
4  6388 6390 6874 6384
4  766 488 723 6424
4  7276 8198 7278 7277
4  8002 6985 6466 6900
4  6806 6794 7432 6799
4  7022 8005 7429 7023
4  7433 8037 7431 8082
4  7024 6361 7023 6982
4  767 766 6995 7145
4  1028 8089 488 7364
4  6984 7760 6468 6981
4  8134 7934 7760 6981
4  775 7147 6420 6197
4  8145 7887 7431 8003
4  8089 6985 6900 6901
4  8203 7493 8248 8100
4  992 8147 7679 7361
4  207 687 685 8215
4  967 802 780 6260
4  621 7877 8104 7876
4  6914 7543 6915 6778
4  626 506 645 6780
4  8339 7928 8236 6936
4  6417 7126 7125 6188
4  962 964 963 6420
4  913 741 802 6913
4  962 7147 8239 6420
4  6984 8327 8083 6468
4  8105 8197 8106 6528
4  6983 6984 8083 6468
4  7021 7933 8134 7934
4  7021 6368 7934 6981
4  6984 8134 7760 6981
4  6748 6586 6592 6745
4  7934 8132 7760 6992
4  6591 6935 6750 8072
4  6995 8132 8146 6991
4  8278 8297 7148 6923
4  6441 6440 6438 6439
4  7150 7149 7151 6197
4  538 682 683 7168
4  6875 6940 6432 6431
4  6837 6839 6838 7879
4  437 262 6834 6941
4  125 307 403 6894
4  405 6875 6926 6894
4  7723 6842 6896 6844
4  7723 6895 7656 6844
4  7721 6844 6909 6700
4  583 605 604 7003
4  59 57 60 6858
4  7858 6899 6426 6425
4  68 8147 346 7359
4  68 67 7362 7359
4  343 676 6323 6421
4  7012 7358 7001 7359
4  7855 7112 6333 6934
4  6538 6690 6689 6280
4  847 807 808 6399
4  8234 8304 7858 6425
4  992 972 973 7679
4  779 6420 6417 6190
4  779 923 967 6261
4  779 963 6417 6420
4  6266 6267 6269 6691
4  511 981 771 6609
4  6874 6383 6153 6384
4  6672 6949 6955 6919
4  1017 7792 8258 6158
4  602 541 364 6383
4  7072 7935 8233 7073
4  7765 8244 8308 7770
4  8277 6538 6324 8006
4  8308 8048 7770 8307
4  8246 7939 7938 8231
4  8241 8219 6537 8220
4  8307 8231 8247 7767
4  756 935 970 6686
4  7501 8091 7502 7494
4  68 67 69 7362
4  8000 7597 7223 7895
4  8201 7688 7301 7690
4  7303 7304 7781 7305
4  307 6875 6894 6431
4  7784 7305 8111 7886
4  7140 6934 7721 7141
4  6973 6648 7241 6708
4  436 481 891 6299
4  6834 7033 8294 6941
4  719 871 720 7988
4  1000 8049 881 6640
4  8238 7214 7671 6234
4  6473 7238 7241 7240
4  6972 6973 6472 6696
4  6707 6450 6531 6708
4  10 6452 6905 6706
4  7245 7244 7248 6962
4  6550 7245 8229 7248
4  6310 6351 6550 6542
4  6281 6283 6282 6694
4  6285 7246 6310 6304
4  6311 6206 6207 6814
4  566 7174 7176 6816
4  986 7907 7544 6175
4  6973 7630 6473 7241
4  6707 6974 6635 6708
4  7987 6447 6531 7682
4  7967 7428 7430 7277
4  7544 7907 7986 6146
4  7167 6171 6970 6172
4  6796 7967 6797 6799
4  8125 6139 6631 6140
4  6796 7389 6808 6799
4  535 8217 6436 7102
4  837 1019 7107 6296
4  7032 8024 7076 6298
4  958 652 6252 6253
4  8324 8263 8024 8296
4  7107 7076 6298 6295
4  6871 6862 6863 6293
4  8237 8263 8343 8015
4  262 6835 6433 6942
4  7558 7557 7556 6559
4  7644 7557 6871 7556
4  7958 8339 8043 7928
4  7689 7688 8201 7690
4  344 343 6323 6325
4  7997 7689 8201 7690
4  6540 8201 7301 7690
4  7609 7829 7605 7228
4  7027 8135 6532 7069
4  7959 7824 7832 7826
4  8022 7639 7829 7228
4  6533 6535 6526 6525
4  7977 7604 7973 7769
4  7825 7975 7972 7833
4  7043 8106 7040 6528
4  6533 6526 6528 6525
4  7064 6584 6779 6585
4  7274 8081 7204 6719
4  7825 7605 7603 7604
4  8111 7299 7298 7301
4  8215 7655 7143 7142
4  7976 7605 7826 7833
4  6453 6452 6237 6459
4  7207 7605 7604 7606
4  8217 8025 7153 7102
4  7825 7826 7605 7833
4  8024 8015 6298 8296
4  7780 7305 7782 7886
4  6539 7303 8111 7301
4  7693 7692 7689 7302
4  7580 6623 7325 7327
4  7370 7322 7375 7327
4  6623 7651 7375 6624
4  7639 7825 7824 7605
4  8282 7375 7090 6624
4  8279 8342 7483 8068
4  8070 8242 8341 8068
4  8035 7890 7904 7981
4  7830 7828 7960 7318
4  7699 6219 6221 6222
4  7505 7896 7717 7697
4  7503 7920 6222 6722
4  7609 7207 7607 7606
4  7384 7698 8243 7702
4  7699 7696 6219 6222
4  6219 7697 7696 7222
4  7827 7976 7609 7605
4  8243 7834 7666 7702
4  7699 7696 6222 7700
4  7384 7599 7698 7702
4  7635 7634 7675 7636
4  7856 8173 7871 7633
4  7916 6721 6715 6717
4  7916 7082 6789 6716
4  7473 7673 7633 7476
4  7675 7634 7673 7636
4  7916 7082 6714 7084
4  7088 7420 7084 7085
4  7918 6714 7084 7715
4  7257 7800 7402 7258
4  7718 7486 7734 7715
4  7714 6714 7918 7715
4  7422 7420 7917 7423
4  7419 7714 7918 7423
4  7488 7718 7735 7486
4  7299 7305 7304 7301
4  7478 7582 7435 6579
4  8246 8233 8244 8231
4  7582 8212 7186 6945
4  7816 7635 7052 6294
4  8289 7938 8290 7939
4  8246 8231 8244 7767
4  7082 6787 6716 7093
4  6537 7509 7515 7518
4  7919 7836 6222 7700
4  7938 7939 7935 8231
4  413 665 374 6577
4  7938 8233 7935 7937
4  7058 8224 8225 7857
4  7881 7882 6327 6792
4  457 590 458 6659
4  7816 7857 7057 7634
4  7816 6944 6947 7056
4  7816 7963 7621 7622
4  7052 6294 6292 6290
4  7057 8225 7856 7634
4  741 742 803 8128
4  6328 6327 6775 6781
4  6943 7186 6873 6945
4  7856 7871 7962 7633
4  7338 8056 7342 7944
4  7279 7897 7902 7898
4  7943 8346 7899 7944
4  7057 7857 8225 7634
4  8006 6395 7685 6688
4  741 742 8128 7203
4  7279 7898 8183 7901
4  7157 7276 7065 7146
4  6356 7022 6357 6361
4  6664 7575 7510 7500
4  6540 7301 7298 7690
4  7428 8082 6797 7430
4  8109 8201 8110 8007
4  7693 8093 8264 7512
4  7688 7302 7301 7690
4  7030 6599 7031 6600
4  8273 7643 7550 8027
4  8198 7430 7967 6799
4  8024 8263 8015 8296
4  6597 7030 6837 6600
4  8026 6600 7549 7550
4  8153 7290 7285 8154
4  7348 7521 8189 6884
4  8262 6258 7817 8192
4  8262 8190 8193 8192
4  837 834 1019 6296
4  7076 8024 6300 6298
4  8079 7443 7347 7346
4  7032 8296 6939 7031
4  8324 8323 8263 8296
4  8223 7750 7613 7787
4  7066 6916 7075 7067
4  8043 8044 6750 7875
4  6935 6750 6936 6746
4  947 625 946 6778
4  8196 6914 7064 6779
4  961 0 464 6828
4  7180 7115 6827 6224
4  6 0 9 7471
4  256 8175 1022 6849
4  407 991 694 8102
4  1022 8175 8101 6849
4  6768 6771 7165 6379
4  8319 6390 6921 6917
4  6377 6768 7165 6379
4  7079 6723 6327 6772
4  7043 7040 7026 6528
4  7793 6874 6383 6158
4  8095 7025 6743 7075
4  422 849 919 6864
4  8004 8277 6469 8039
4  7157 6358 6357 7156
4  8315 8159 7558 7557
4  7022 7967 6358 7277
4  8295 7584 7478 7479
4  7677 7012 7656 7361
4  67 346 583 7001
4  7584 8315 8224 7479
4  6944 7055 6945 7056
4  8262 6255 7817 6258
4  937 583 584 6605
4  8262 7817 8344 8192
4  7723 8218 6896 6842
4  775 779 6196 6190
4  973 57 605 7005
4  346 7002 7001 7359
4  888 848 8278 7148
4  888 8278 7147 7148
4  962 775 7147 6420
4  6999 7728 6212 7000
4  848 775 780 6196
4  848 849 6815 6196
4  962 963 775 6420
4  8127 7233 8163 7000
4  963 8239 6417 6420
4  963 964 8239 6420
4  8206 8337 8276 6514
4  8033 7890 6774 7498
4  8116 6445 7336 6920
4  8259 7234 8319 6390
4  6382 6441 8227 6439
4  7350 8123 8124 7013
4  683 422 418 6391
4  7168 8319 8297 6923
4  7014 8124 7015 7013
4  8281 7351 8124 7013
4  6753 6756 7985 7295
4  7168 6967 8319 6917
4  6753 6755 8285 6756
4  7866 7748 7745 7744
4  6755 6756 6754 6450
4  6860 7880 6696 6697
4  7448 7629 7631 7627
4  6647 7626 8285 7446
4  8240 8330 8051 7973
4  7998 7999 7868 7746
4  7743 7745 8048 7746
4  8137 7923 7925 6699
4  7942 7288 8155 7287
4  8151 7285 7284 7282
4  7924 7256 7979 6699
4  6698 6701 7922 6699
4  7665 8169 7402 8120
4  7402 7542 8120 7403
4  8155 7287 7288 7291
4  7283 8152 7285 7284
4  7925 6699 7923 6697
4  7598 7601 7597 7385
4  7401 7403 7542 7258
4  8169 8170 8120 7706
4  7474 7287 7596 7476
4  7594 7596 7600 7597
4  8173 7594 7942 7476
4  7475 8000 7598 7597
4  7623 8096 7892 7536
4  7289 7223 7224 7291
4  8341 8068 7484 8154
4  7629 7216 7947 7593
4  7529 7565 8228 6680
4  7578 7562 7323 7564
4  7517 7532 7562 7564
4  7628 7640 7458 7996
4  7441 7669 7308 7670
4  6443 7393 7739 7708
4  6306 6410 7589 6364
4  7465 7947 7466 7464
4  6414 7393 6443 6415
4  8036 7809 8037 6572
4  7995 7996 7229 7608
4  6793 8038 7492 6576
4  8037 7809 7808 6572
4  7492 7738 6669 6576
4  6677 7738 7580 6669
4  7371 7580 7373 6669
4  6793 7492 6670 6669
4  7242 7590 7240 7591
4  8035 7905 7906 7904
4  8023 7737 7738 6576
4  7736 7371 6622 7373
4  7279 8183 7898 7284
4  7290 7289 7224 7291
4  7581 6669 7373 6576
4  6623 7650 6624 6620
4  7630 7631 7242 7240
4  7880 8107 7237 6475
4  8330 7743 8051 7750
4  6645 7237 6646 7241
4  7975 7973 7604 7769
4  7749 8308 8047 8051
4  7786 7613 8167 7787
4  6474 7706 6475 7238
4  8306 8308 8240 7770
4  8308 8240 8048 8051
4  7808 7805 8023 6572
4  7977 8240 7208 7769
4  1002 860 214 7687
4  8036 6569 7809 6572
4  7433 6793 8038 6795
4  8310 8312 7685 6395
4  860 807 847 6399
4  214 119 397 7683
4  7687 7686 8310 6396
4  860 701 807 6402
4  8219 8310 7686 6395
4  8082 8038 7492 6795
4  6539 7303 8110 7886
4  983 6897 766 6424
4  983 676 155 6423
4  7686 6537 6395 6397
4  695 701 8301 8303
4  494 493 8234 6425
4  695 493 701 8303
4  493 6713 8303 6422
4  493 343 103 6325
4  8040 8036 7874 7809
4  7884 7804 7808 6571
4  6689 7780 7884 7885
4  6567 7261 6580 6458
4  6705 7261 6761 7260
4  6146 6144 6607 6147
4  6757 6963 6962 6964
4  6965 6203 7250 6204
4  6545 6228 6319 6975
4  329 9 7471 7472
4  7929 7930 6976 6215
4  8237 8024 8324 8263
4  7183 7181 7182 6218
4  7008 6635 6707 6636
4  6847 6848 6976 6393
4  8250 8255 7363 6683
4  937 584 585 6594
4  8189 7729 6884 6885
4  190 189 8280 7114
4  6210 8126 6212 7000
4  6326 6791 6327 6329
4  8280 7729 8189 7114
4  346 8147 7361 7359
4  0 7051 7471 7113
4  6860 6861 6637 7004
4  95 97 98 6885
4  41 850 95 7114
4  535 8217 8260 6436
4  596 600 535 7102
4  958 6254 7451 6253
4  0 7471 8280 7113
4  8189 7114 7729 6885
4  7107 7076 6300 6298
4  389 7217 7292 6330
4  390 797 162 6321
4  7162 7118 7120 6904
4  7353 6902 6732 6903
4  8176 6345 7293 7037
4  190 95 189 7114
4  7292 7217 7461 6330
4  244 6331 6241 6242
4  390 244 797 6242
4  327 8118 7049 7050
4  6213 6215 6218 6216
4  0 7051 6828 7048
4  7233 6615 8163 7728
4  6538 6539 6429 6427
4  6267 6278 6277 6691
4  808 6429 6430 6399
4  6543 6545 7179 7050
4  6976 6393 6319 6975
4  8278 7168 8297 6923
4  8151 8155 7285 7282
4  6390 6921 6917 6391
4  7784 6539 6538 7886
4  6193 6416 6192 6191
4  7163 6912 6264 6476
4  847 808 6430 6399
4  7503 7504 7938 6722
4  7503 6221 7504 6722
4  7505 6721 6221 6715
4  6715 7940 6717 6722
4  7938 7940 7920 6722
4  8289 7920 7938 7939
4  8289 7503 7938 7920
4  7838 7503 8289 7920
4  7603 7768 7975 7604
4  125 262 307 6835
4  6597 6837 8235 6598
4  130 8199 125 6893
4  7952 8044 8302 7876
4  7972 7975 8321 7973
4  7977 7974 8330 7973
4  7316 7832 7317 7318
4  8332 6908 6907 6966
4  8022 7637 7639 7228
4  7198 7200 7764 7209
4  7975 7768 8306 7769
4  7206 7606 7209 7608
4  8249 6891 6166 6165
4  7640 7994 7638 7608
4  8053 7571 8216 8025
4  7571 8052 7444 7172
4  8191 7171 8079 8052
4  8119 8192 6612 8052
4  7306 6889 7296 7297
4  7628 7212 7640 7996
4  6460 7788 6461 6463
4  7294 7297 7460 7295
4  409 971 22 6183
4  6763 7460 6756 7295
4  7253 6887 7682 6754
4  6709 6292 6857 6293
4  6460 7970 7788 6463
4  6551 6556 7438 6552
4  878 856 6185 6910
4  6579 6578 7187 6577
4  8224 7558 7559 7560
4  7427 7426 7553 7424
4  7487 7425 7488 7424
4  7485 7484 7486 7424
4  7485 7714 7419 7423
4  7006 7314 7785 6463
4  7789 7314 7313 7787
4  7313 7317 7791 7315
4  123 142 8264 7513
4  7312 7314 7788 7785
4  8183 7906 7898 7284
4  8338 8241 7659 8220
4  8186 7281 7870 7282
4  8237 8343 7817 8015
4  7615 7617 7616 7620
4  7280 7870 7281 7282
4  7280 7287 7870 7282
4  6875 6876 6894 6431
4  8273 6600 7879 7550
4  8035 7906 8066 7904
4  1048 8348 1042 25
4  8348 7118 1042 25
4  1042 7118 24 25
4  8349 8350 8348 6246
4  8350 6244 8348 6246
4  8348 6244 7118 6246
4  1041 1045 8349 797
4  1045 1046 8349 797
4  8349 1046 6246 797
4  8349 8348 1048 6246
4  8348 7118 25 6246
4  1048 8348 25 6246
4  1045 8350 8349 1046
4  8350 6244 6246 1046
4  8349 8350 6246 1046
4  1041 8349 1048 797
4  8349 6246 1048 797
4  1048 6246 25 797
4  1077 1076 8351 1079
4  1076 891 8351 1079
4  8351 891 6431 1079
4  8352 1082 8353 6436
4  1082 535 8353 6436
4  8353 535 8260 6436
4  8351 1074 8352 6431
4  1074 481 8352 6431
4  8352 481 6436 6431
4  6431 481 891 8354
4  1076 1074 8351 8354
4  8351 1074 6431 8354
4  481 6431 1074 8354
4  1074 1076 481 8354
4  891 481 1076 8354
4  1076 8351 891 8354
4  6431 891 8351 8354
4  8352 8353 8355 6436
4  8353 8260 8355 6436
4  8355 8260 6940 6436
4  6436 535 481 8356
4  1074 1082 8352 8356
4  8352 1082 6436 8356
4  535 6436 1082 8356
4  1082 1074 535 8356
4  481 535 1074 8356
4  1074 8352 481 8356
4  6436 481 8352 8356
4  1077 8351 8355 1079
4  8351 6431 8355 1079
4  8355 6431 6940 1079
4  8351 8352 8355 6431
4  8352 6436 8355 6431
4  8355 6436 6940 6431
4  8357 1114 1107 1104
4  1114 8357 1107 1048
4  8357 8348 1107 1048
4  1107 8348 1042 1048
4  8358 8359 8357 1104
4  8359 8358 8357 8349
4  8358 8350 8357 8349
4  8357 8350 8348 8349
4  1113 1106 8359 1104
4  1106 1113 8359 1041
4  1113 1045 8359 1041
4  8359 1045 8349 1041
4  8357 8359 1114 1104
4  8359 8357 1114 8349
4  8357 8348 1048 8349
4  1114 8357 1048 8349
4  8358 1113 8359 1104
4  1113 8358 8359 1045
4  8358 8350 8349 1045
4  8359 8358 8349 1045
4  8359 1106 1114 1104
4  1106 8359 1114 1041
4  8359 8349 1114 1041
4  1114 8349 1048 1041
4  1148 1153 8360 1146
4  1153 1148 8360 1077
4  1148 1076 8360 1077
4  8360 1076 8351 1077
4  1155 8361 8362 1146
4  8361 1155 8362 8352
4  1155 1082 8362 8352
4  8362 1082 8353 8352
4  1145 8360 8361 1146
4  8360 1145 8361 8351
4  1145 1074 8361 8351
4  8361 1074 8352 8351
4  8360 1145 1148 1146
4  8351 1074 1076 8363
4  1148 1145 8360 8363
4  8360 1145 8351 8363
4  1074 8351 1145 8363
4  1145 1148 1074 8363
4  1076 1074 1148 8363
4  1148 8360 1076 8363
4  8351 1076 8360 8363
4  8362 8361 8364 1146
4  8361 8362 8364 8352
4  8362 8353 8364 8352
4  8364 8353 8355 8352
4  8361 1155 1145 1146
4  8352 1082 1074 8365
4  1145 1155 8361 8365
4  8361 1155 8352 8365
4  1082 8352 1155 8365
4  1155 1145 1082 8365
4  1074 1082 1145 8365
4  1145 8361 1074 8365
4  8352 1074 8361 8365
4  8360 1153 8364 1146
4  1153 8360 8364 1077
4  8360 8351 8364 1077
4  8364 8351 8355 1077
4  8361 8360 8364 1146
4  8360 8361 8364 8351
4  8361 8352 8364 8351
4  8364 8352 8355 8351
4  6806 8366 6820 8367
4  7432 8368 6794 8367
4  8369 8370 8371 8367
4  6794 8368 8372 8367
4  6806 8372 8373 8367
4  8374 8375 8373 8367
4  8376 8377 8378 8379
4  1634 8376 8380 8379
4  7739 7393 8381 8382
4  8383 8384 8385 8382
4  8386 8383 8385 8382
4  7739 8387 7740 8382
4  7740 8387 8384 8382
4  7257 8388 8137 8389
4  7998 7070 7072 8390
4  8169 8391 8392 8389
4  7257 7402 8393 8389
4  8137 8391 8169 8389
4  1585 8371 8394 8395
4  8369 8371 8396 8395
4  1271 8396 1277 8395
4  1277 8371 1585 8395
4  8369 8396 8397 8395
4  1481 8398 8399 8400
4  8369 8394 8371 8395
4  1271 8401 8397 8395
4  1378 1582 8402 8403
4  8057 8404 7279 8405
4  7279 8404 8406 8405
4  8406 8404 8407 8405
4  1511 8408 8409 8405
4  6787 6789 8410 8411
4  8412 8413 8414 8411
4  7091 8413 8415 8411
4  8412 8414 8416 8411
4  7916 8417 6789 8411
4  7916 8416 8417 8411
4  7535 7533 7368 8418
4  1593 8419 1612 8420
4  1625 8419 1593 8420
4  1623 1624 8421 8420
4  8419 8422 8380 8420
4  4555 8423 4533 8424
4  4430 4598 8425 8424
4  7768 8426 8427 8424
4  8425 8427 8426 8424
4  4598 4533 8428 8424
4  7481 8429 8430 8431
4  8430 8432 8433 8431
4  8434 8429 8435 8431
4  8434 8436 8435 8429
4  7772 8433 8437 8431
4  8434 8435 8437 8431
4  8434 8437 8438 8431
4  8439 8440 8441 8442
4  1800 8443 8400 8444
4  8439 8441 8445 8442
4  6594 8446 6755 8447
4  8440 8448 8441 8442
4  1759 1982 1618 8449
4  6430 8445 8441 8442
4  6429 8441 8448 8442
4  6430 8441 6429 8442
4  7867 8450 8451 8452
4  7761 8453 8454 8452
4  8455 8456 8457 8452
4  7998 7761 8456 8452
4  8458 8459 8460 8461
4  8458 8460 8462 8461
4  8463 8458 8462 8461
4  8464 8462 8460 8461
4  1546 8460 1321 8461
4  1600 1321 8459 8461
4  7529 8465 7530 8466
4  6940 7530 8465 8466
4  8467 8468 8469 8466
4  7642 7529 7530 8466
4  6926 6875 8469 8466
4  8028 7529 7642 8466
4  7529 8467 8465 8466
4  8465 8470 8471 8472
4  6940 8465 7530 8472
4  6940 8260 8470 8472
4  8473 8470 8474 8472
4  8471 8470 8473 8472
4  7152 7329 7573 8472
4  7573 7329 8474 8472
4  8187 7813 8475 8476
4  8187 8475 8477 8476
4  4305 8478 8479 8476
4  4305 8480 4586 8476
4  8481 8477 8482 8476
4  4586 8480 8482 8476
4  7861 8483 8484 8485
4  8486 8484 8483 8485
4  1380 8175 193 8486
4  6560 8175 7861 8485
4  6555 8133 6560 8485
4  8487 8488 8489 8490
4  7320 8487 8491 8490
4  8020 7320 8491 8490
4  7753 8138 7761 8453
4  8492 8489 8493 8490
4  8020 8491 8492 8490
4  7897 8494 8495 8496
4  8056 8494 7897 8496
4  8497 8498 8499 8496
4  1259 8408 8500 8496
4  6560 8133 8175 8485
4  1259 8497 8501 8496
4  8408 8501 8502 8496
4  1259 8501 8408 8496
4  8495 8502 8501 8496
4  8495 8503 8501 8502
4  1455 8504 8505 8506
4  334 8031 1455 8506
4  1530 8505 8507 8506
4  8385 8384 8387 8382
4  7661 7103 7383 8384
4  8158 8508 7103 8384
4  7103 8477 7383 8384
4  7740 8384 8383 8382
4  7383 8477 8383 8384
4  7740 7383 8383 8384
4  7433 6793 8509 8510
4  6793 6575 8511 8510
4  8401 8512 8513 8510
4  6575 8514 8511 8510
4  8509 8512 8510 8515
4  1522 1506 8516 8517
4  7699 6219 8516 8518
4  8519 8520 8521 8518
4  8522 8520 7699 8518
4  6219 8519 8516 8518
4  7402 8523 8524 8393
4  8525 8526 8524 8393
4  8527 8388 8528 8389
4  8525 8527 8528 8393
4  8525 8529 8526 8393
4  8530 8531 8532 8533
4  8534 8514 8532 8533
4  7806 8535 6573 8533
4  6569 6575 8514 8533
4  7941 8000 8536 8537
4  7475 8537 8538 8539
4  7598 8000 8537 8540
4  8541 8537 8540 8539
4  7598 8540 8537 8539
4  8494 8542 8500 8496
4  1453 8543 8497 8500
4  1453 1590 8543 8500
4  8494 8500 8542 8405
4  1453 8497 1259 8500
4  1590 1511 1446 8405
4  1590 8544 8543 8500
4  8545 8546 8547 8548
4  8545 8549 8550 8548
4  8551 8550 8549 8548
4  7270 8547 7541 8548
4  7270 7445 8552 8548
4  8552 8549 8547 8548
4  193 6185 1502 8133
4  8551 8549 8552 8548
4  8553 8554 8555 8550
4  8554 8549 8555 8550
4  7569 7773 7089 8460
4  8390 8556 8443 8400
4  7070 6788 8556 8400
4  7133 7481 7772 8431
4  7070 8557 8410 8400
4  6788 8399 8558 8400
4  8557 8410 8400 8444
4  1800 8400 1672 8444
4  8390 8400 8443 8444
4  8233 6788 8443 8556
4  7072 8233 8443 8556
4  7072 8443 8390 8556
4  8489 8488 8493 8490
4  4458 8487 8559 8488
4  4424 4458 8559 8488
4  8560 8488 8487 8490
4  8021 8488 8560 8490
4  8560 8561 8562 8488
4  4424 8488 8559 8563
4  8559 8488 8562 8563
4  7665 8564 8565 8566
4  4376 4289 4609 8566
4  4609 8567 8524 8566
4  7127 7133 7568 8435
4  4376 8524 8565 8566
4  4376 8565 8564 8566
4  7872 7280 8568 8569
4  1509 8570 8571 8569
4  8572 8507 8573 8569
4  7280 7474 8570 8569
4  1532 8570 1509 8569
4  4361 8574 8575 8576
4  1498 8573 8507 8569
4  1498 1539 8573 8569
4  1599 8577 8416 8403
4  1582 1599 8416 8403
4  1582 1599 8412 8416
4  1582 8403 8416 8414
4  8417 8403 8402 8414
4  8577 8578 8416 8403
4  1378 8578 1372 8403
4  7257 8529 7262 8528
4  7978 7257 7254 8528
4  8214 7978 7254 8528
4  4335 8122 8529 8528
4  4335 8529 8122 8579
4  45 8214 8122 8528
4  8122 7262 8529 8528
4  7825 8580 8581 8582
4  1436 1375 1279 8583
4  8321 8584 8423 8582
4  7975 8321 8423 8582
4  7825 7975 8580 8582
4  1674 1024 7453 8585
4  8586 8587 8588 8585
4  8588 8587 8589 8585
4  6418 8589 8587 8585
4  1024 6241 7453 8585
4  489 1277 1028 7364
4  6646 8590 8446 8591
4  8592 8593 8590 8591
4  6593 8285 6755 8446
4  4444 4479 8594 8595
4  7592 8592 8590 8591
4  8574 8596 8446 8591
4  8593 8597 8590 8591
4  8598 8596 8574 8591
4  8409 8408 8599 8405
4  8406 8409 8599 8405
4  6593 6755 6594 8446
4  8407 8570 8568 8404
4  8057 7615 8404 8544
4  7615 8568 8404 8544
4  8406 8570 8407 8404
4  7283 8570 8406 8404
4  7279 7283 8406 8404
4  8600 8601 8602 8603
4  1800 1805 8443 8604
4  7072 8605 8606 8604
4  7736 8607 8608 8609
4  7736 6622 7371 8422
4  8610 8419 8611 8609
4  7736 8422 7371 8612
4  8612 8613 8607 8609
4  8614 8615 8616 8617
4  8618 8570 8616 8615
4  1532 1509 8570 8616
4  1532 8570 8407 8616
4  1669 8619 8618 8616
4  7718 8620 8578 8621
4  8622 8623 8621 8624
4  8625 8621 8626 8624
4  8053 7348 7521 7344
4  7488 8627 8625 8621
4  7718 8623 8620 8621
4  8628 8629 8630 8631
4  7840 8632 8633 8631
4  7837 8633 8634 8631
4  8635 8632 8628 8631
4  8630 8629 8634 8631
4  8635 8633 8632 8631
4  8636 8637 8638 8540
4  8639 8640 8641 8638
4  7867 8453 7761 8452
4  1793 8456 8390 8444
4  8642 8456 8454 8452
4  1789 1793 8643 8456
4  8557 8456 8643 8444
4  1789 8643 8642 8456
4  8643 8454 8642 8456
4  7975 8423 8426 8424
4  7975 8426 7768 8424
4  8306 8644 8308 8426
4  8306 8308 7765 8426
4  8428 8427 8425 8424
4  7768 7765 8427 8426
4  8433 8432 8438 8431
4  8645 8646 8513 8510
4  7133 8435 8429 8431
4  7127 7133 8435 8429
4  8647 8479 8480 8648
4  4537 8649 8650 8648
4  4519 8649 4537 8648
4  4551 8651 4583 8652
4  8651 8455 8450 8652
4  8653 8450 8654 8652
4  4412 8654 8655 8652
4  1828 8586 8588 8585
4  4412 8653 8654 8652
4  4583 8656 4412 8652
4  4583 4635 4412 8656
4  1499 8657 8658 8659
4  8658 8657 8660 8659
4  8660 8661 8632 8659
4  8635 8661 8662 8659
4  1633 8657 1499 8659
4  8635 8663 8632 8659
4  1693 8473 8664 8470
4  6940 8664 8465 8470
4  7152 7530 7329 8472
4  6940 7530 7152 8472
4  8378 8612 8380 8379
4  7433 8036 6793 8510
4  8378 8377 8665 8666
4  1309 8613 8515 8379
4  6793 8666 8368 8515
4  8667 8627 8577 8626
4  1313 1320 1646 8530
4  6793 8511 7581 8515
4  7581 8511 8612 8515
4  8530 8607 8511 8613
4  1313 1320 8530 8613
4  1313 8530 8511 8613
4  8612 8511 8613 8515
4  8668 8669 8670 8671
4  1309 8515 8377 8379
4  8612 8515 8613 8379
4  8672 8478 8475 8673
4  7813 8479 8673 8476
4  8246 8674 8675 8676
4  8676 8479 8478 8673
4  8036 6569 6575 8514
4  7473 7675 8677 8678
4  7632 7635 7675 8678
4  8538 8677 8679 8678
4  7635 6292 7675 8678
4  7675 6292 8679 8678
4  7470 7350 7472 8680
4  7470 7352 7472 7350
4  8559 8562 8681 8680
4  7350 8680 8562 8563
4  7908 7959 8669 8682
4  6673 6674 8116 8683
4  8669 8682 8671 8684
4  7984 7908 8669 8684
4  8491 8685 8594 8684
4  7915 8595 8685 8684
4  7278 8369 8089 8397
4  7434 8040 8646 8397
4  8040 7931 8645 8397
4  1296 8401 8686 8397
4  8645 8686 8646 8397
4  726 8089 1271 8397
4  7612 7751 8687 8688
4  8689 8690 8691 8692
4  7404 8693 7415 8688
4  7612 8687 8554 8688
4  8687 8694 8654 8695
4  7789 8160 8694 8695
4  7789 8687 8223 8695
4  7972 8160 8321 8584
4  8160 8321 8584 8695
4  8321 8584 8654 8423
4  6674 6386 8542 8683
4  8223 7749 8321 8654
4  8223 8654 8321 8695
4  8689 8691 8696 8697
4  7849 8696 7842 8697
4  7455 7842 8698 8697
4  7849 7842 7306 8697
4  8008 7710 7711 8699
4  8700 8593 8701 8702
4  4498 8597 8703 8702
4  4500 8701 8593 8702
4  4498 4500 8597 8702
4  6647 8446 8703 8447
4  4434 8703 8576 8447
4  4443 8703 8447 8704
4  584 6594 7008 8447
4  6594 8576 8446 8447
4  7561 8705 8706 8707
4  7561 8378 7371 8706
4  8675 8676 8478 8673
4  7983 6674 6386 8542
4  8708 8672 8675 8478
4  7813 8673 8475 8476
4  8479 8478 8673 8476
4  4305 8479 8480 8476
4  8328 8709 8710 8711
4  8328 8710 8709 8712
4  6845 7455 8711 8697
4  7296 7455 8709 8711
4  971 6845 8328 8711
4  8328 7296 8709 8711
4  7370 8282 8713 8714
4  8715 8714 8716 8420
4  8422 8717 8611 8714
4  8715 8713 8716 8714
4  6704 6641 6705 8579
4  6704 6760 7162 8579
4  6555 8284 8718 8485
4  8133 8718 8719 8485
4  8720 8719 8721 8718
4  6555 8309 6185 8718
4  7954 8484 8720 8718
4  8284 8484 8718 8485
4  4369 8722 8474 8723
4  8217 7572 7571 8723
4  4399 8724 4369 8723
4  600 4369 535 8217
4  600 4369 8217 8723
4  4399 8216 8724 8723
4  8489 8493 8725 8726
4  4421 8725 6305 8726
4  8492 8489 8727 8726
4  6305 8493 7249 8726
4  7527 8726 8492 8728
4  7249 8493 7527 8726
4  1567 1657 8512 8395
4  8401 8512 8509 8394
4  8729 8509 8512 8394
4  8198 7432 6820 8367
4  8729 8371 8374 8367
4  7434 8369 8646 8394
4  8369 8401 8646 8394
4  8369 8401 8394 8395
4  8375 8370 8366 8367
4  8729 8394 8371 8367
4  8369 8371 8394 8367
4  1982 8730 8449 8664
4  7434 7432 8369 8394
4  1375 8583 8731 8732
4  8733 8583 8429 8732
4  8583 8436 8434 8429
4  8734 8439 8731 8732
4  7299 8734 7365 8732
4  8733 8734 8583 8732
4  8471 8699 8735 8736
4  8737 8707 8699 8736
4  8512 8511 8510 8515
4  1612 8419 8613 8379
4  1634 1309 8377 8379
4  8612 8511 8607 8613
4  1612 8380 8419 8379
4  7581 8612 8666 8515
4  1693 1764 1982 8664
4  8738 8739 8614 8617
4  8070 8739 8740 8617
4  7903 8070 8740 8617
4  8741 8615 8614 8617
4  1976 1655 1982 8730
4  7903 8406 7283 8617
4  7903 8740 8599 8617
4  7439 8636 7598 8539
4  8541 8742 8677 8539
4  7672 7475 8538 8539
4  7598 8636 8540 8539
4  8530 8533 8607 8743
4  1320 8607 8610 8743
4  7439 7672 8721 8539
4  7672 8677 8721 8539
4  8742 8721 8677 8539
4  8720 8719 8744 8745
4  8636 8744 8637 8745
4  8721 8746 8719 8745
4  8742 8746 8721 8745
4  1385 8742 8637 8745
4  1390 8742 1537 8540
4  8536 8747 8537 8540
4  1537 8541 8747 8540
4  1390 8637 8742 8540
4  7598 8636 8638 8540
4  1561 8641 8637 8540
4  1561 1598 8641 8540
4  1353 8748 1482 8624
4  7488 8625 7735 8621
4  1353 8749 8623 8621
4  7735 8622 7718 8621
4  1374 8626 8578 8621
4  8750 8625 8626 8624
4  8622 8621 8625 8624
4  8748 8623 8622 8624
4  7735 7227 7718 8622
4  8557 8643 8410 8444
4  8390 8443 8604 8444
4  1793 1672 8643 8444
4  758 7472 8118 8563
4  4381 8559 8680 8563
4  6543 8123 8561 8563
4  8561 8488 8751 8563
4  8118 8561 8751 8563
4  8741 8752 8618 8615
4  8152 7226 8741 8615
4  1810 8708 8753 8675
4  7938 8754 8558 8755
4  7938 8558 8756 8755
4  7938 8753 8675 8755
4  7938 8753 8672 8675
4  8398 8754 8675 8755
4  7505 8519 8757 8758
4  1379 8517 8749 8758
4  1379 8749 1374 8758
4  1520 8521 1379 8758
4  1520 8757 8521 8758
4  8759 8760 8761 8762
4  4534 8760 8762 8763
4  4615 8760 4534 8763
4  8761 8764 8670 8763
4  4526 8765 8670 8763
4  4615 8670 8764 8763
4  1672 8410 1477 8414
4  8413 8410 8414 8411
4  8417 8416 8403 8414
4  1544 8412 8413 8414
4  8410 8417 8402 8414
4  1477 8402 1582 8414
4  1673 1544 8413 8414
4  4449 8766 8767 8768
4  8769 8770 8682 8768
4  4590 8771 8682 8768
4  6338 7665 7660 8564
4  4590 8770 8772 8768
4  4449 8767 8771 8768
4  8030 7391 8468 8773
4  6926 8030 8468 8773
4  8468 8774 8469 8773
4  404 1463 6927 8773
4  1468 6926 8469 8773
4  404 6927 6926 8773
4  1546 8775 8460 8461
4  6625 8282 8611 8462
4  8464 8460 8775 8461
4  8611 8463 8458 8462
4  6625 8611 8458 8462
4  8282 7089 8776 8462
4  7089 8460 8464 8462
4  8504 8542 8543 8544
4  8057 8542 8504 8544
4  7615 8572 8568 8544
4  4332 4584 4609 8527
4  1361 1424 8439 8442
4  808 6430 6429 8442
4  6539 6430 8445 8441
4  8440 8777 8448 8442
4  808 6429 1339 8442
4  6429 8448 8777 8442
4  60 987 4488 8388
4  7140 8137 7978 8388
4  8137 8388 8391 8389
4  4332 8388 8214 8528
4  8214 8388 7978 8528
4  8658 8660 8657 8778
4  8779 8484 8780 8778
4  8720 8781 8484 8778
4  8780 8484 8781 8778
4  7668 8782 8720 8778
4  7311 8782 7668 8778
4  1773 1778 8601 8783
4  4335 4507 4584 8525
4  4339 8547 8784 8783
4  6641 7799 6760 8579
4  7897 8785 8494 8599
4  7897 7902 8785 8599
4  1805 8786 8675 8754
4  8558 8443 8398 8754
4  8246 8674 7938 8675
4  7938 8674 8233 8754
4  8558 8754 8398 8755
4  7917 8415 8787 8416
4  8412 8787 8415 8416
4  1372 8578 8577 8403
4  8577 8578 8627 8416
4  7799 7262 7800 8529
4  7734 8627 8578 8416
4  7917 8788 7734 8416
4  8789 8790 8791 8792
4  1665 8791 8790 8792
4  8791 8793 8794 8792
4  8059 8794 8793 8792
4  6645 8447 8703 8704
4  7880 6645 8795 8704
4  6707 6645 6635 8704
4  7008 8447 6707 8704
4  1519 8796 1419 8517
4  1506 1379 8521 8517
4  6561 8101 6362 8483
4  6561 8175 8101 8483
4  8484 8719 8718 8485
4  8284 7861 8484 8485
4  6414 8779 8484 8483
4  7765 8308 8605 8426
4  4426 8644 4555 8797
4  4555 8797 8644 8424
4  4432 8425 8798 8797
4  4432 8605 4426 8797
4  8799 8800 8801 8384
4  8802 8387 8799 8801
4  7661 8387 8801 8384
4  7660 8387 8803 8801
4  8804 8564 8800 8801
4  8799 8800 8564 8801
4  6569 8514 8534 8533
4  1336 8777 8805 8532
4  8514 8530 8532 8533
4  8526 8806 8524 8565
4  1363 8530 8531 8532
4  1363 8805 8513 8532
4  8464 8413 8460 8415
4  4507 7162 24 8807
4  7089 8464 8460 8415
4  7089 8460 7773 8415
4  1672 1673 8643 8414
4  8417 8416 8414 8411
4  8808 8724 8551 8549
4  8784 8545 8547 8549
4  4339 8547 4404 8549
4  7271 8545 8550 8548
4  4404 8547 8724 8549
4  8545 8547 8549 8548
4  6866 8726 7527 8728
4  444 6866 6865 8728
4  6865 8685 8594 8728
4  8727 8594 8685 8728
4  6865 8594 8685 8595
4  4444 8594 6865 8595
4  4418 8727 8726 8728
4  8318 8492 8685 8728
4  4472 8809 8810 8811
4  7880 8812 7925 8811
4  6635 7880 6860 8811
4  7009 6635 8811 8704
4  8795 8813 8810 8811
4  4467 8810 8813 8811
4  7880 8795 8812 8811
4  8435 8814 8458 8815
4  7811 7813 8187 8481
4  6618 8458 8608 8815
4  8816 8815 8535 8743
4  8817 8816 8814 8815
4  8608 8815 8814 8743
4  8421 8603 8716 8707
4  8600 8716 8603 8707
4  8602 8707 8603 8736
4  8421 8715 8706 8707
4  7321 7328 8715 8707
4  7563 8737 8705 8707
4  8818 8427 8647 8819
4  8428 8427 8820 8819
4  8427 8798 8647 8819
4  4522 8428 8820 8819
4  8818 8820 8427 8819
4  4637 8821 8800 8822
4  4519 4522 8649 8819
4  4519 8823 4509 8819
4  6673 6386 6674 8683
4  8497 8542 8543 8683
4  1334 6385 8497 8683
4  1453 8543 6386 8683
4  8116 8498 6385 8683
4  735 1334 1453 8683
4  6385 8498 8497 8683
4  6385 8497 8498 8824
4  1549 8419 8717 8611
4  735 6385 1334 8683
4  8600 8603 8602 8707
4  1768 8421 8825 8736
4  1768 8825 8735 8736
4  1773 8601 8603 8783
4  1680 8601 8716 8603
4  1623 1680 8716 8603
4  8421 8716 8715 8707
4  8737 8825 8421 8736
4  7521 7348 8189 8826
4  8827 8551 8808 8826
4  7344 8551 8828 8826
4  4328 8827 8808 8826
4  4555 8423 8829 8655
4  4412 8654 4415 8655
4  4411 4412 8655 8652
4  4415 8654 8584 8655
4  4366 4541 4637 8822
4  4414 4415 8584 8655
4  8654 8829 8423 8655
4  8578 8417 8402 8830
4  1378 8578 8830 8758
4  7916 8417 8578 8830
4  4366 4637 4639 8800
4  6721 8402 8417 8830
4  7916 6721 8417 8830
4  7716 8830 8578 8758
4  4639 8564 8799 8800
4  7505 8757 6721 8830
4  8831 8832 8833 8834
4  8598 8835 8596 8834
4  8831 8836 8820 8834
4  7212 8831 8820 8834
4  8428 8762 8580 8424
4  8581 8670 8765 8763
4  4615 4526 8670 8763
4  8761 8670 8581 8763
4  8760 8761 8762 8763
4  8581 8765 8762 8763
4  4414 8423 8584 8582
4  7350 8141 8562 8837
4  7975 8582 8423 8424
4  4533 8762 8428 8424
4  4414 8765 4526 8762
4  8769 8670 8770 8765
4  7972 8772 8584 8765
4  7978 8388 7257 8528
4  7972 8581 8765 8582
4  4414 8584 4619 8765
4  7432 8509 8368 8394
4  4526 8762 8765 8763
4  8710 8575 8709 8712
4  4480 8328 8710 8711
4  6593 8285 8838 8712
4  8285 7985 8838 8712
4  8328 7296 6753 7985
4  8328 7985 6753 8712
4  7985 8709 8838 8712
4  6418 8184 8587 8589
4  8588 8839 8806 8589
4  8588 8587 8839 8589
4  1046 6244 6241 8589
4  6418 6241 8589 8585
4  190 8189 8280 8840
4  1828 8588 8589 8585
4  4381 4424 4458 8559
4  8122 7254 6641 7262
4  21 7907 6846 8696
4  4595 8689 8696 8697
4  8689 8690 8668 8696
4  4492 8689 8668 8696
4  7907 8690 8668 8595
4  4637 4578 4629 8841
4  7846 8690 8691 8696
4  1326 1599 8432 8787
4  7917 8787 8788 8416
4  8788 8432 8577 8787
4  1599 8577 8787 8416
4  8467 8469 8449 8466
4  8467 8774 8449 8469
4  6926 8468 8469 8773
4  6926 8228 8028 8466
4  1759 6875 8449 8469
4  6927 8373 7391 8773
4  8071 8366 6807 8373
4  7391 6806 8372 8373
4  8071 6807 6805 8373
4  7572 7329 8722 8474
4  8073 6819 6807 8366
4  8260 7573 8474 8472
4  7329 8471 8474 8472
4  7329 7530 8471 8472
4  8471 8473 8722 8474
4  8842 8828 8827 8840
4  6516 8828 8842 8840
4  4387 8843 8844 8840
4  4547 4387 8844 8840
4  4547 8844 8827 8840
4  4637 4499 4578 8841
4  1477 8410 8399 8402
4  8410 8417 8399 8402
4  1476 1477 8399 8402
4  4499 4500 8701 8822
4  6721 8757 8402 8830
4  1378 8402 8757 8830
4  1476 8399 8757 8402
4  8243 8632 8845 8846
4  7395 8660 8632 8846
4  7395 8632 8243 8846
4  7384 8847 8782 8846
4  8116 8498 7342 8824
4  1252 8499 8497 8824
4  1252 8499 8128 8501
4  1252 8128 8499 8824
4  1252 8497 1334 8824
4  731 1252 1334 8824
4  7342 8498 8499 8824
4  803 6864 8128 8824
4  7903 8599 8406 8617
4  8741 8614 8739 8617
4  8848 8849 8740 8850
4  8070 8152 8739 8617
4  7980 8070 8848 8740
4  8738 8740 8739 8617
4  7237 7707 8107 8700
4  8070 8738 8848 8740
4  7840 8633 7837 8631
4  7838 8845 8632 8631
4  8089 8369 8396 8397
4  7278 8089 8002 8397
4  8089 8369 7364 8396
4  8700 8795 8813 8810
4  8198 7364 8369 8370
4  7638 7994 8831 8759
4  1462 8073 646 8375
4  8243 7838 7699 8845
4  8851 8516 8852 8845
4  8851 8640 8516 8845
4  8663 8628 8632 8845
4  8847 8658 8782 8846
4  7838 8629 8845 8631
4  8635 8633 8661 8632
4  8635 8632 8661 8659
4  8522 7699 8845 8518
4  7395 8661 7840 8632
4  8628 8632 8845 8631
4  1473 8541 8742 8679
4  1597 8853 8541 8679
4  8541 8537 8747 8540
4  7941 8536 8752 8537
4  1473 8541 1537 8742
4  1539 8541 8573 8569
4  7789 8694 7313 8766
4  1597 1539 8541 8573
4  8641 8640 8854 8638
4  7970 8837 8855 8767
4  7313 8766 8772 8768
4  7316 7313 8769 8768
4  4449 4572 8766 8768
4  499 8202 6285 8725
4  7970 7312 8856 8767
4  6541 8202 6543 7252
4  7316 8682 8771 8768
4  8588 8806 8839 8565
4  1828 8589 6241 8585
4  1828 8586 1823 8588
4  8803 8588 8565 8564
4  8803 8588 8586 8587
4  1823 8586 8802 8588
4  1646 1426 8531 8743
4  6573 8535 8608 8607
4  1609 8419 8610 8613
4  7736 8608 6622 8609
4  1320 8610 1558 8743
4  6622 8608 8611 8609
4  6575 8607 8530 8533
4  6575 6573 8607 8533
4  1536 8658 1384 8854
4  8663 8658 8660 8659
4  8658 8657 8781 8778
4  8662 8857 8383 8661
4  7395 8660 7394 8661
4  7840 8222 8633 8661
4  8858 8662 8383 8661
4  7352 7350 8123 8563
4  7984 8669 8690 8684
4  8668 8669 8671 8684
4  4492 7907 8668 8595
4  7986 8690 7907 8595
4  8594 8595 8668 8684
4  7966 8685 7915 8595
4  7986 7915 8690 8595
4  8823 8479 8647 8648
4  4305 8479 8823 8648
4  4305 8480 8479 8648
4  7103 8859 8481 8477
4  7462 7813 8480 8479
4  7462 8480 8647 8479
4  8823 8676 8647 8479
4  1676 8860 8381 8779
4  4526 4620 8670 8765
4  8381 8860 8387 8382
4  7739 8381 8387 8382
4  8245 7739 8381 8803
4  8385 8802 8387 8799
4  6414 8381 7393 8779
4  6362 8861 8381 8483
4  8750 8862 8625 8624
4  1420 8863 8622 8623
4  1419 8749 8620 8623
4  1419 8863 1420 8623
4  8649 8820 8818 8819
4  7212 7198 8818 8820
4  7198 8427 8818 8820
4  4522 4515 8836 8428
4  7994 8831 8759 8820
4  8831 8833 8836 8834
4  7212 8820 8818 8834
4  8525 8524 8527 8393
4  7257 7800 8529 8393
4  4488 8527 8392 8389
4  4488 8388 8527 8389
4  4332 8525 4584 8527
4  4609 8527 4584 8524
4  8525 8528 8529 8393
4  8598 8593 8592 8591
4  8700 8701 8813 8702
4  8593 8590 8597 8702
4  7237 8590 8700 8703
4  8700 8813 8703 8702
4  8590 8597 8703 8446
4  7237 7239 8700 8590
4  8534 8805 8777 8532
4  1336 6324 8805 8777
4  1336 344 1293 8805
4  8805 8645 8686 8513
4  8805 8514 8645 8513
4  6573 6618 8608 8535
4  8608 8610 8611 8609
4  6622 8608 6625 8611
4  1558 8610 8814 8743
4  8608 8610 8607 8743
4  7842 8691 8698 8697
4  8610 8611 8463 8458
4  6618 6625 8608 8458
4  8610 8458 8463 8814
4  8608 8458 8610 8814
4  7127 7568 7807 8817
4  8608 8458 8814 8815
4  97 190 4547 8826
4  7339 8495 7203 8499
4  8128 8499 7203 8501
4  7341 7342 8499 8824
4  7339 7341 7342 8499
4  7342 8498 8056 8499
4  7699 8520 6219 8518
4  8243 8632 7838 8845
4  8620 8749 8517 8758
4  7703 8639 7698 8516
4  489 1462 1277 8370
4  814 7065 8073 8370
4  8073 8366 8375 8370
4  8171 8841 7707 8822
4  8158 8078 8859 8822
4  8700 8841 8701 8822
4  1426 8816 8440 8531
4  7806 8532 8440 8533
4  7779 8864 8440 8441
4  4555 4430 8797 8424
4  7975 8580 8582 8424
4  7972 8584 8321 8582
4  4533 8423 8582 8424
4  7975 8423 8306 8426
4  8654 8829 8655 8652
4  4411 4555 8829 8655
4  8321 8654 8829 8423
4  7994 8759 8427 8820
4  4534 8760 8428 8762
4  7768 8427 8428 8424
4  8759 8428 8427 8820
4  7975 7768 8580 8424
4  7339 7338 7945 8495
4  8865 8752 8571 8537
4  6654 8495 8866 8503
4  8866 8503 8495 8502
4  7897 8495 8494 8785
4  7338 7897 8495 8496
4  8866 8495 8785 8502
4  4319 8867 8868 8555
4  4342 8868 4319 8867
4  8687 8554 8868 8867
4  8653 8687 8867 8694
4  7789 8867 8694 8766
4  4572 8694 8867 8766
4  8756 8869 8870 8755
4  8756 8869 8757 8520
4  6221 8756 6721 8757
4  7503 8756 6221 8520
4  8705 8730 8376 8380
4  1618 8730 1655 8376
4  8705 8465 8730 8737
4  8730 8465 8664 8825
4  8705 8421 8730 8380
4  8705 8737 8730 8421
4  8073 6819 8366 8370
4  8871 8872 8863 8618
4  1462 8375 8371 8370
4  1585 8729 1657 8395
4  1539 1598 1537 8747
4  4640 8836 8833 8834
4  8831 8873 8874 8833
4  8831 8873 8833 8832
4  4536 8833 8574 8596
4  4537 8835 8649 8834
4  8425 8798 8427 8819
4  8306 8308 8644 8829
4  4551 4555 8644 8829
4  8871 8536 8872 8752
4  8308 8455 8606 8829
4  8651 8606 8455 8829
4  8538 8853 8541 8573
4  1597 1498 1539 8573
4  8572 8573 8507 8678
4  4449 8771 4590 8768
4  7312 8771 8767 8768
4  7312 8875 7788 8766
4  7313 8772 8769 8768
4  1633 8635 8662 8659
4  1710 8385 8383 8876
4  8877 8553 8875 8766
4  4571 8867 4572 8694
4  1652 1810 8753 8755
4  8878 8630 8708 8634
4  8878 8708 8475 8634
4  7813 8672 7837 8475
4  8014 8479 8676 8673
4  7813 8479 8014 8673
4  8523 8821 8567 8392
4  8804 8800 8821 8822
4  4639 8821 8804 8800
4  4639 8804 8821 8566
4  8620 8749 8578 8621
4  1378 1374 8578 8758
4  7718 7716 7734 8578
4  1582 8402 8403 8414
4  1374 8749 8578 8758
4  8482 8508 8879 8477
4  4541 8508 8859 8822
4  8481 8859 8482 8477
4  8383 8857 8876 8477
4  8158 7661 8800 8384
4  8158 8859 8508 8822
4  4619 8772 8770 8765
4  8022 7637 7842 8691
4  4590 8682 8770 8768
4  4620 8770 8670 8765
4  4622 8670 8770 8671
4  7320 8771 7316 8682
4  7908 8491 7320 8682
4  4633 8771 8880 8682
4  7959 7316 8769 8682
4  7908 7320 7959 8682
4  8880 8671 8682 8684
4  7568 8435 8458 8815
4  1646 8530 1320 8743
4  8816 8535 8531 8743
4  8435 8459 8814 8436
4  1426 8814 8816 8743
4  1426 1650 8816 8814
4  1419 1415 1420 8863
4  1650 1562 8459 8814
4  7983 8504 8057 8542
4  8494 8408 8500 8405
4  1590 1446 8544 8405
4  8407 8404 8544 8405
4  8056 8542 8494 8496
4  8407 8404 8568 8544
4  8494 8500 8408 8496
4  1590 8500 1511 8405
4  8057 8544 8404 8405
4  8455 8829 8654 8652
4  7749 8450 8455 8654
4  8644 8426 8423 8424
4  4414 4533 8423 8582
4  4412 8653 4415 8654
4  4415 8653 8694 8654
4  8160 8584 8772 8695
4  1477 8410 8402 8414
4  1672 8400 8410 8444
4  8756 8757 8869 8399
4  1481 8398 8869 8399
4  8588 8839 8587 8565
4  7119 6244 8839 8589
4  7665 8565 8524 8566
4  4604 8874 8710 8833
4  4640 4522 8836 8834
4  8710 8575 8833 8832
4  4604 8710 4603 8833
4  8575 8833 8832 8574
4  8833 8832 8574 8596
4  8047 8455 7998 8606
4  8651 8829 8455 8652
4  7749 8654 8455 8829
4  7632 8572 8507 8678
4  8308 8606 8644 8829
4  4551 8644 8606 8829
4  4551 8606 8651 8829
4  8557 8400 8390 8444
4  7070 8410 6788 8400
4  6787 7070 8557 8410
4  6789 8399 8410 8417
4  1519 1415 1419 8796
4  1481 1477 8410 8399
4  8410 8417 8414 8411
4  8557 8643 8413 8410
4  7811 7813 8481 8480
4  1515 8790 8881 8738
4  1677 8635 8878 8633
4  1665 8881 1515 8790
4  8882 8881 8883 8791
4  8882 8789 8881 8791
4  1665 8791 8881 8790
4  8881 8791 8789 8790
4  8575 8574 8838 8576
4  8838 8574 8596 8446
4  8285 8838 7626 8446
4  6646 8590 8703 8446
4  8703 8446 8576 8447
4  1629 1381 1382 8781
4  7693 8265 8264 8884
4  6647 6646 8703 8446
4  8308 8644 8606 8605
4  8308 8606 7072 8605
4  7998 7072 8606 8390
4  8651 8457 8455 8606
4  8779 8885 8484 8483
4  7861 6414 8484 8483
4  8287 8484 8779 8778
4  8779 8780 8886 8778
4  7311 8779 7393 8886
4  8287 6414 8779 8484
4  8471 8735 8699 8722
4  7221 8536 7703 8796
4  1630 8872 1415 8796
4  1522 8641 1630 8796
4  8851 8852 8628 8845
4  8871 8872 8536 8796
4  8831 8836 8874 8760
4  7628 8832 7640 8834
4  993 6305 6866 8726
4  7458 8832 7628 8596
4  7456 8873 7640 8832
4  7458 8838 8709 8832
4  7456 8709 8873 8832
4  8873 8709 8710 8832
4  7458 8838 8832 8596
4  8425 8426 8797 8424
4  7941 7221 7226 8752
4  8651 8455 8457 8450
4  4426 8605 8644 8797
4  8455 8606 8457 8456
4  4551 8829 8651 8652
4  4555 8644 8423 8424
4  4426 8606 8644 8605
4  8308 8644 8605 8426
4  7103 8508 8859 8477
4  8482 8859 8508 8477
4  8187 8475 8857 8477
4  8222 8857 7837 8633
4  8662 8876 8857 8879
4  8662 8879 8857 8633
4  1548 1546 8775 8460
4  8464 8775 8776 8461
4  8437 8460 8438 8787
4  1544 8412 1321 8460
4  7772 8433 7917 8787
4  7773 8460 8437 8787
4  8412 8460 8413 8415
4  6622 8611 8422 8609
4  1609 1549 8610 8419
4  8419 8380 8612 8379
4  7773 8460 8787 8415
4  8435 8458 8459 8437
4  7569 7089 8458 8460
4  8422 8714 8715 8420
4  8419 8717 8422 8420
4  1593 1612 8419 8613
4  8377 8515 8666 8379
4  8378 8380 8612 8706
4  8422 8612 8380 8706
4  8422 8706 8380 8420
4  1624 8380 8421 8420
4  7941 8000 7221 8536
4  8571 8618 8752 8570
4  8872 8752 8571 8618
4  1539 8747 8541 8571
4  8541 8865 8571 8537
4  1666 8872 8571 8618
4  8674 8605 8786 8798
4  8290 8246 8675 8676
4  8014 8246 8290 8676
4  7766 8674 8676 8798
4  7766 8244 8674 8798
4  7751 8653 8687 8688
4  7404 8545 8693 8688
4  8554 8784 8545 8688
4  4338 8693 8784 8688
4  8451 8887 8457 8656
4  4635 8656 8693 8688
4  8451 8887 8656 8693
4  1554 6709 8679 8746
4  8847 8744 8658 8854
4  1574 8744 8637 8854
4  1574 1385 8637 8744
4  8847 8744 8720 8782
4  1385 8744 8719 8745
4  8720 8744 8719 8781
4  8720 8782 8744 8781
4  1629 1382 8744 8781
4  1384 1629 8744 8658
4  1768 1976 8825 8421
4  8699 8602 8735 8736
4  7711 8602 8699 8707
4  8730 8737 8465 8825
4  7321 8715 8600 8707
4  7711 8699 8737 8707
4  8737 8421 8707 8736
4  8421 8603 8707 8736
4  8705 8737 8421 8707
4  8847 8640 8854 8846
4  7698 8516 8639 8640
4  7384 7599 8847 8640
4  1415 1666 1399 8618
4  8372 8374 8373 8367
4  1463 8373 6927 8773
4  1463 8374 1464 8373
4  1464 8375 8374 8371
4  1463 8774 1616 8374
4  8774 8374 8372 8665
4  7788 8553 7789 8766
4  6460 7970 8842 8875
4  4625 8877 8855 8766
4  6460 8842 8553 8875
4  8842 8877 8875 8855
4  1506 8517 8521 8518
4  8554 8545 8784 8549
4  7445 8551 8552 8548
4  8784 8545 8546 8547
4  1369 8513 8401 8512
4  7271 7416 8545 8546
4  7931 8686 8645 8397
4  8784 8545 8693 8546
4  8784 8693 8545 8688
4  8828 8555 8551 8550
4  7614 7404 8554 8545
4  7384 7395 8243 8846
4  1709 8876 8662 8879
4  1677 8879 8662 8633
4  1709 1710 8662 8876
4  1633 8635 1677 8662
4  8865 8571 8752 8570
4  7286 8570 8752 8615
4  8619 8616 8614 8615
4  8646 8401 8513 8510
4  8741 8752 8871 8618
4  8871 8752 8872 8618
4  1415 8863 8872 8618
4  1399 1669 8619 8618
4  1509 1669 8618 8616
4  8619 8741 8618 8615
4  7286 8865 8752 8570
4  7286 8865 7941 8752
4  8741 8871 8863 8618
4  8752 8570 8618 8615
4  7345 8724 7572 8552
4  7311 8779 8886 8778
4  8782 8658 8781 8778
4  1381 1662 8780 8781
4  8486 8484 8719 8781
4  8287 8720 8484 8778
4  8744 8782 8658 8781
4  8287 8779 7311 8778
4  1662 8780 8781 8657
4  6668 8612 8378 8666
4  1664 1654 8729 8374
4  8774 8377 8374 8665
4  8376 8377 8774 8665
4  1634 8377 8376 8379
4  1616 8376 1634 8377
4  4609 8567 4629 8527
4  8369 8397 8401 8395
4  8809 8391 8388 8389
4  4584 8527 8525 8524
4  344 6323 1293 8805
4  4507 8807 8529 8579
4  4507 4584 8525 8807
4  4507 8525 8529 8807
4  7800 8526 8529 8393
4  508 1463 1464 8373
4  4584 8526 8525 8807
4  8386 8385 8860 8382
4  8700 8590 8593 8702
4  8700 8701 8593 8822
4  8700 8813 8701 8810
4  7707 8841 8700 8822
4  4637 4499 8841 8822
4  4499 8701 8841 8822
4  4338 4312 8868 8784
4  4635 4342 8653 8688
4  4338 8784 8868 8688
4  4635 8693 4338 8688
4  7872 8573 8572 8678
4  7473 7672 8538 8677
4  7473 8677 8538 8678
4  8742 8677 8721 8746
4  8538 8541 8677 8539
4  7675 8679 8677 8678
4  7436 7675 6292 8679
4  7436 8721 8677 8746
4  8799 8508 8800 8384
4  8385 8876 8799 8384
4  4366 4639 8799 8800
4  4639 8804 8564 8800
4  6807 6806 6805 8373
4  8409 8599 8850 8617
4  1410 8409 8849 8850
4  8738 8848 8740 8850
4  7980 8848 8849 8740
4  8738 8614 8850 8617
4  8738 8888 8848 8850
4  8008 8552 8722 8547
4  8699 8735 8602 8547
4  8724 8547 8552 8549
4  7329 8471 8008 8722
4  4404 8735 8722 8547
4  1462 814 646 8073
4  1340 1641 8503 8502
4  1641 8501 8503 8502
4  404 1463 508 6927
4  1340 8503 8866 8502
4  1382 8719 8744 8781
4  8486 8484 8885 8483
4  7954 8287 8720 8484
4  8780 8484 8486 8781
4  8720 8719 8484 8781
4  8720 8782 8781 8778
4  8780 8486 8484 8885
4  8381 8885 8779 8483
4  7531 8467 7565 8705
4  7561 8705 8378 8706
4  4635 8887 4338 8693
4  4635 8656 8887 8693
4  1783 8889 8887 8642
4  8887 8890 8891 8693
4  8887 8891 8890 8889
4  7339 7338 8495 8499
4  7279 8406 7903 8599
4  7279 7897 8494 8599
4  7946 7902 8866 8785
4  7902 8849 8866 8785
4  1629 1662 1381 8781
4  6704 6705 6760 8579
4  8849 8502 8785 8599
4  8223 8687 7751 8654
4  7789 8694 8687 8695
4  8877 8553 8867 8555
4  8687 8868 8554 8688
4  4571 8653 8867 8694
4  8653 8687 8868 8867
4  803 1252 731 8824
4  8823 8647 8798 8819
4  7768 8759 8428 8427
4  7765 8605 8798 8426
4  4522 4598 8428 8819
4  4432 8798 8605 8797
4  7861 6414 8287 8484
4  4509 8798 8425 8819
4  4432 8425 4509 8798
4  8842 8827 8828 8877
4  8842 8877 8828 8553
4  8188 8280 8189 8840
4  4625 4572 8867 8766
4  8844 8843 8842 8840
4  7970 8842 8875 8855
4  7970 8842 8855 8843
4  8610 8613 8419 8609
4  8514 8530 8513 8532
4  1363 8513 8530 8532
4  1464 8374 8375 8373
4  8816 8814 8815 8743
4  1646 8531 8530 8743
4  1363 8530 1646 8531
4  1320 8607 8530 8613
4  7779 8817 7807 8535
4  8451 8889 8892 8453
4  8892 8453 8889 8893
4  8453 8642 8454 8452
4  8451 8457 8642 8452
4  8138 8453 8893 8454
4  7761 8453 8138 8454
4  7118 8839 6244 8806
4  8526 8839 8806 8565
4  6244 8806 8839 8589
4  6338 8803 8587 8565
4  7806 7807 6573 8535
4  7970 8875 7312 8767
4  6460 8553 7788 8875
4  4610 4625 8877 8855
4  8877 8867 8553 8766
4  8844 8877 8842 8855
4  4610 8877 8844 8855
4  7445 7271 8550 8548
4  8551 8724 8552 8549
4  8784 8547 8546 8783
4  8008 8722 8699 8547
4  7541 8699 8546 8547
4  7541 8546 7271 8548
4  4404 8724 4406 8549
4  7751 8450 7749 8654
4  7614 7612 8553 8554
4  4342 4571 8653 8867
4  4571 4415 8653 8694
4  8223 8687 8654 8695
4  7740 8858 7393 8382
4  8860 8385 8387 8382
4  8803 8802 8564 8801
4  8803 8387 8802 8801
4  8860 8385 8802 8387
4  8245 8803 8894 8587
4  8803 8802 8586 8588
4  8309 8746 6185 8718
4  8742 8679 8677 8746
4  8721 8719 8746 8718
4  1473 8742 1385 8746
4  1502 6185 8746 8719
4  1502 8746 1385 8719
4  1789 8643 1675 8642
4  8309 8721 8746 8718
4  7998 8606 8455 8456
4  8557 8454 8643 8456
4  8557 8390 8456 8444
4  1675 8643 8413 8454
4  1672 8643 8410 8414
4  1675 8643 1673 8413
4  1678 8386 1662 8657
4  8780 8781 8657 8778
4  8386 8860 8780 8886
4  8858 8662 8386 8383
4  1662 8386 8860 8780
4  8858 8660 8657 8661
4  8858 8386 8662 8657
4  1633 8662 1678 8657
4  8780 8657 8886 8778
4  585 6593 6594 8576
4  6707 8447 6645 8704
4  4434 4443 8703 8447
4  6755 8285 6647 8446
4  6593 6594 8576 8446
4  585 6594 4434 8576
4  584 7008 4443 8447
4  7348 6516 8189 8826
4  6516 8828 8840 8826
4  7945 7946 6654 8495
4  4610 8827 8844 8877
4  8827 8551 8828 8555
4  4328 8827 4310 8808
4  4310 8827 4610 8877
4  8827 8828 8877 8555
4  4541 8859 8593 8822
4  8700 8810 8701 8841
4  8700 8813 8795 8703
4  8700 8593 8592 8822
4  7239 7707 8700 8822
4  8107 8700 7707 8841
4  7628 8598 7592 8596
4  4513 8593 8598 8591
4  4513 8835 8598 8593
4  839 4399 600 8216
4  8598 8835 8574 8596
4  8022 7824 7639 8692
4  8598 8592 8593 8650
4  8421 8380 8706 8420
4  8421 8706 8715 8420
4  8422 8715 8706 8420
4  8717 8776 8611 8714
4  7328 7370 8715 8714
4  8600 8716 8715 8713
4  7321 7370 8600 8715
4  8717 8713 8776 8714
4  7328 8422 7372 8714
4  7091 8413 8464 8415
4  8412 8416 8415 8411
4  8612 8666 8515 8379
4  8419 8613 8612 8609
4  8419 8422 8611 8609
4  1609 1320 1593 8613
4  8705 8421 8706 8707
4  8378 8666 8612 8379
4  7736 8422 8612 8609
4  4488 8809 8388 8389
4  8169 8841 8171 8821
4  4637 8841 4629 8821
4  936 6593 4356 8712
4  4629 8841 8810 8392
4  8169 7665 8523 8804
4  7283 8406 8570 8616
4  7474 8865 7286 8570
4  7283 8616 8615 8617
4  1509 8618 8571 8570
4  8895 8790 8896 8738
4  8896 8790 8897 8888
4  1395 8790 1575 8897
4  7501 8059 8055 8792
4  4563 8855 8681 8767
4  8844 8842 8827 8840
4  8827 8828 8551 8826
4  8188 7971 8280 8840
4  8844 8827 8842 8877
4  4310 8877 4319 8555
4  4625 4319 8877 8867
4  1320 8530 8607 8743
4  1426 1558 8814 8743
4  1583 8531 8440 8532
4  7639 7824 7825 8761
4  8491 8492 8727 8685
4  8491 8685 8727 8594
4  8668 8595 8690 8684
4  8769 8770 8671 8682
4  7320 8491 8771 8682
4  7320 8560 8487 8490
4  4338 8868 4342 8688
4  7415 8451 7867 8450
4  4411 8655 8829 8652
4  7747 8455 7749 8450
4  7751 7415 8450 8688
4  489 1277 7364 8370
4  21 22 4595 6846
4  8497 8543 8542 8500
4  1252 8497 8499 8501
4  1453 8497 8543 8683
4  7806 6573 6569 8533
4  7639 7824 8761 8692
4  1436 1375 8583 8731
4  1436 8583 1279 8883
4  7873 7806 6569 8534
4  8731 8884 8898 8445
4  8731 8898 8884 8793
4  8731 8884 8418 8793
4  1436 8898 8731 8793
4  8733 8883 8583 8418
4  8733 8583 8734 8418
4  7800 8524 8526 8393
4  4619 4590 8770 8772
4  1654 1634 1309 8377
4  7908 8491 8682 8684
4  4502 8770 4590 8682
4  7320 8771 8487 8856
4  4589 8771 4449 8856
4  6250 6244 7119 8589
4  4415 4572 4619 8772
4  4589 8880 4633 8771
4  4589 8487 8771 8856
4  8158 8800 8508 8384
4  8385 8799 8387 8384
4  4366 8799 8508 8800
4  7544 7986 7907 8595
4  1623 1680 1625 8716
4  8639 8516 8641 8640
4  1522 8641 8796 8516
4  8536 8638 8641 8540
4  8847 8854 8640 8638
4  8536 8641 8747 8540
4  1630 8641 1598 8747
4  8851 8854 8641 8640
4  1598 8747 8641 8540
4  8118 6543 8202 8561
4  8020 7320 7908 8491
4  1601 8775 8893 8454
4  1548 8413 1544 8460
4  8464 8893 8775 8454
4  7710 8465 8737 8471
4  1601 8775 1602 8893
4  7089 8464 8776 8462
4  1602 8775 1546 8461
4  8464 8776 8462 8461
4  8198 7434 7432 8369
4  1602 1586 8776 8461
4  8464 8776 8775 8893
4  7699 7503 8520 8629
4  7503 8870 8756 8520
4  6219 6221 8519 8520
4  6219 8520 8519 8518
4  6641 6760 6705 8579
4  8628 8522 8899 8629
4  8878 8630 8634 8631
4  8899 1359 8870 8520
4  1506 8516 8517 8518
4  8852 8845 8516 8518
4  6555 8309 6557 6185
4  193 878 1502 6185
4  7698 8243 7699 8845
4  8468 8372 8774 8773
4  8774 8372 8374 8773
4  1759 8449 1468 8469
4  7432 7433 6793 8509
4  7751 7415 7747 8450
4  1463 8774 8374 8773
4  8368 8374 8372 8367
4  8036 8646 8645 8510
4  8375 8366 8373 8367
4  4338 8891 8784 8693
4  6806 6794 8372 8367
4  1424 1426 1376 8816
4  1676 8381 8860 8586
4  1539 1509 1666 8571
4  8858 8657 8660 8778
4  1624 1593 1612 8420
4  7311 8886 8858 8778
4  6362 8894 8381 8861
4  8386 8860 8886 8382
4  1236 1233 1326 8438
4  7487 8900 7735 8625
4  8901 8862 8895 8900
4  6940 7642 7530 8466
4  7565 7392 6668 8665
4  8536 8639 8641 8638
4  8158 8508 8800 8822
4  8901 8862 8900 8625
4  1586 8463 8776 8461
4  1665 1604 1515 8881
4  8866 8785 8849 8502
4  1548 8775 8413 8460
4  8611 8776 8463 8462
4  1562 8610 8463 8814
4  1558 8610 1562 8814
4  7568 8435 7569 8458
4  6575 8612 8511 8607
4  1321 1326 8438 8787
4  142 8264 8265 8898
4  7127 7568 8817 8435
4  6618 7568 8458 8815
4  4356 8575 4480 8712
4  8521 8757 8869 8520
4  8260 8474 8470 8472
4  1476 8869 8757 8399
4  8756 8870 8869 8520
4  8021 8016 8560 8561
4  6721 8756 7504 8399
4  8558 8398 8869 8755
4  8558 8869 8398 8399
4  7504 8756 8558 8399
4  6305 7524 8493 8725
4  4356 6593 8838 8712
4  6541 7252 7246 8725
4  8493 8561 8751 8725
4  8202 8751 8561 8725
4  8536 8747 8752 8537
4  4493 4480 8710 8711
4  8489 8493 8751 8725
4  4354 8751 8202 8725
4  7761 6787 8557 8454
4  193 1502 8486 8485
4  7091 8138 8464 8454
4  7383 8857 8383 8477
4  1601 1548 8775 8454
4  1601 8893 8642 8454
4  6789 8417 8410 8411
4  1672 8410 8643 8444
4  8184 7774 7803 8839
4  4354 4421 4457 8489
4  1675 8413 1548 8454
4  1549 8610 8419 8611
4  6753 7985 8285 8712
4  7328 8715 8422 8714
4  1625 1549 8419 8717
4  8535 8533 8531 8743
4  7239 7468 8078 8592
4  8368 8666 8377 8515
4  21 4492 986 7907
4  7352 6543 8118 8563
4  8419 8380 8422 8612
4  8419 8422 8717 8611
4  4493 4480 4604 8710
4  6622 7372 8422 8611
4  8844 8855 8842 8843
4  7970 8856 8837 8767
4  4563 8681 8856 8767
4  7639 7825 7603 8761
4  4563 8856 4449 8767
4  22 971 4493 6845
4  8681 8837 8843 8680
4  8562 8837 8681 8680
4  4385 8681 8843 8680
4  8559 8681 8562 8856
4  7954 8287 7668 8720
4  4366 8508 4541 8822
4  9 7471 7472 8680
4  6414 6443 7393 8381
4  7350 8143 8837 8680
4  1516 8738 8902 8739
4  8848 8888 8849 8850
4  8858 8886 8386 8657
4  1515 1516 8738 8902
4  1575 8738 1413 8888
4  1575 8790 8738 8888
4  8481 8482 8480 8476
4  1536 1574 1561 8854
4  8482 8477 8475 8476
4  8857 8475 8879 8477
4  7907 7849 6846 8696
4  7955 7599 7598 8636
4  7813 8481 8480 8476
4  7592 7213 7468 8598
4  4536 4513 4537 8835
4  7468 8592 8480 8859
4  7345 7572 7270 8552
4  8876 8857 8879 8477
4  8481 8480 8482 8859
4  1380 1022 193 8175
4  8184 7119 8839 8589
4  7954 7668 7955 8720
4  4584 8526 8807 8806
4  6557 7436 7555 6709
4  7799 8529 8526 8807
4  4335 4507 8529 8579
4  7118 8526 8839 8806
4  4461 4584 8807 8806
4  7120 7799 8526 8807
4  8008 7711 7541 8699
4  1768 1623 1976 8421
4  4461 24 7118 8807
4  24 7162 7118 8807
4  8895 8902 8738 8739
4  1414 8748 8619 8739
4  1639 8849 8888 8850
4  6516 7344 8828 8826
4  1634 1612 1309 8379
4  7328 8706 8715 8707
4  8895 8900 8902 8739
4  8409 8850 8614 8617
4  7902 8740 8849 8599
4  8153 8741 8622 8739
4  8014 8676 8290 8673
4  7592 8598 8592 8591
4  8748 8900 8622 8739
4  8152 8741 8153 8739
4  8158 8078 7103 8859
4  6250 6241 6244 8589
4  8282 8776 8713 8714
4  7661 7383 7740 8384
4  6645 6647 8703 8447
4  8717 8713 8903 8776
4  1680 8717 8716 8903
4  1553 1549 8717 8463
4  60 7140 987 8388
4  1817 8860 8385 8802
4  1680 1625 8716 8717
4  4547 8840 8827 8826
4  4310 8808 8827 8555
4  6516 6460 8842 8828
4  8827 8808 8551 8555
4  4356 4361 8575 8576
4  7198 8818 8427 8647
4  4536 4361 4513 8574
4  936 8328 6593 8712
4  4356 8838 8575 8712
4  8328 6753 6593 8712
4  7985 8709 7458 8838
4  4497 8701 4500 8702
4  8597 8574 8576 8446
4  7626 7592 6646 8591
4  7626 8838 8596 8446
4  7280 8570 8568 8569
4  7872 8572 8573 8569
4  1532 8568 8407 8570
4  1532 8407 1508 8616
4  8285 7985 7458 8838
4  4513 4361 4498 8597
4  8057 8542 8544 8405
4  4603 8710 8575 8833
4  4522 8820 8836 8834
4  7872 7615 8572 8568
4  6418 8245 8894 8587
4  4356 585 4434 8576
4  7660 8803 8564 8801
4  7739 8381 8803 8387
4  4594 4604 4643 8874
4  8381 8860 8803 8387
4  8381 8803 8586 8894
4  8860 8802 8803 8387
4  412 1530 1656 8507
4  7632 8572 7621 8506
4  7621 8572 8504 8506
4  4479 4492 4613 8668
4  8833 8832 8596 8834
4  4526 4619 4620 8765
4  4493 8711 8904 8697
4  4572 4590 4619 8772
4  1530 8505 1444 8507
4  7632 7053 8507 8506
4  412 7053 1530 8507
4  7637 8873 8698 8905
4  8504 8572 8505 8506
4  7632 8507 8572 8506
4  1455 8505 1530 8506
4  7565 8705 8376 8378
4  8467 8730 8705 8465
4  4533 4526 4534 8762
4  1976 1655 8730 8380
4  8467 8449 8465 8466
4  4303 4519 4537 8648
4  8904 8691 8689 8697
4  1326 8432 8434 8438
4  4536 4603 4361 8574
4  6940 8465 8664 8466
4  6647 8285 7626 8446
4  4480 4603 4604 8710
4  1982 8730 8664 8825
4  4639 4637 8821 8800
4  1976 1623 1624 8421
4  7531 8465 8705 8737
4  4615 4643 4534 8760
4  7530 8465 7710 8471
4  4303 4537 4513 8835
4  7531 7710 8465 8737
4  8216 7345 8724 8723
4  8223 8321 8160 8695
4  4430 4533 4598 8424
4  7571 7572 7345 8723
4  8825 8471 8473 8735
4  7985 7455 7456 8709
4  4369 8722 8473 8474
4  8021 8493 8488 8490
4  8021 8561 8560 8488
4  8321 8654 8584 8695
4  8022 8691 8690 8692
4  8021 7320 8020 8490
4  8493 8751 8561 8488
4  4457 8489 8487 8488
4  7789 8223 8160 8695
4  4354 8489 4457 8751
4  4536 4640 8833 8834
4  4354 4421 8489 8725
4  4571 4572 4415 8694
4  4414 4526 4533 8762
4  8601 8891 8890 8783
4  7410 8890 8546 8602
4  8309 7436 6709 8746
4  1382 8486 8719 8781
4  1384 1382 1385 8744
4  1451 1674 997 8861
4  8600 8716 8601 8603
4  8890 8546 8602 8783
4  1489 6709 6292 8679
4  7711 8546 8699 8602
4  8699 8707 8602 8736
4  7414 8890 8600 8892
4  1768 8603 8421 8736
4  7370 7414 8600 8713
4  8577 8626 8627 8578
4  7414 8892 8600 8713
4  7766 8647 8427 8798
4  1380 193 1502 8486
4  7198 8427 7766 8647
4  8014 8647 7766 8676
4  8649 8647 8650 8648
4  4586 8482 8480 8859
4  8028 8228 7529 8466
4  7211 8818 8647 8650
4  8708 8475 8672 8478
4  8078 8592 7468 8859
4  8592 8593 8859 8822
4  4513 8597 8593 8591
4  7276 7364 8198 8370
4  1616 8774 8376 8377
4  7592 8598 7468 8592
4  7213 7468 8598 8650
4  4500 8593 8701 8822
4  8700 8592 8593 8590
4  22 4595 6846 8697
4  8689 8691 8690 8696
4  8689 8692 8691 8905
4  489 814 1462 8370
4  8022 7637 8691 8905
4  6807 8366 6806 8373
4  8698 8904 8691 8905
4  7637 8698 8691 8905
4  1321 8438 8460 8787
4  7082 8415 8416 8411
4  1693 1982 1759 8664
4  7569 8437 7773 8460
4  7091 8413 6787 8454
4  1616 1634 1654 8377
4  8464 8775 8413 8454
4  1464 8375 8071 8373
4  1783 1789 1601 8642
4  7082 7091 8415 8411
4  8412 8415 8413 8411
4  1468 1616 1463 8774
4  7917 7773 8787 8415
4  7917 7082 8415 8416
4  8592 8593 8480 8859
4  4551 4411 4555 8829
4  6555 6560 8284 8485
4  7468 8480 8592 8650
4  8851 8628 8663 8845
4  8455 8654 8450 8652
4  1602 1546 1586 8461
4  7751 8450 8653 8688
4  7747 7998 8455 8452
4  6658 8906 8897 8907
4  1420 1358 1353 8748
4  8717 8463 8611 8776
4  1789 1793 1675 8643
4  4426 8606 8605 8604
4  8175 8486 8885 8483
4  8056 8498 8542 8496
4  8497 8500 8542 8496
4  1446 8409 8407 8405
4  1359 1520 1476 8869
4  8542 8500 8544 8405
4  7615 8568 7280 8404
4  7983 6386 8031 8542
4  8543 8544 8542 8500
4  1590 8544 8500 8405
4  7505 6721 7716 8830
4  7072 8606 8390 8604
4  7813 8289 7837 8672
4  7765 8605 8244 8798
4  4432 4430 8425 8797
4  1372 1374 1483 8626
4  8667 8625 8627 8626
4  7718 8622 8623 8621
4  7625 8242 7552 8895
4  1502 1385 1382 8719
4  8748 8622 8625 8624
4  1374 8749 1353 8621
4  8748 8625 8862 8624
4  1375 1236 1403 8434
4  8471 8473 8474 8472
4  1249 142 1250 8898
4  1764 8825 8664 8473
4  1693 1764 8664 8473
4  1245 1284 1665 8791
4  8092 7535 7691 8794
4  7328 7372 7370 8714
4  8002 8089 7931 8397
4  7329 8471 8722 8474
4  535 8217 4369 8474
4  458 590 1340 6654
4  8835 8649 8818 8650
4  8600 8715 8716 8707
4  4305 4586 8480 8648
4  7530 7531 7710 8465
4  4586 4303 8480 8648
4  8649 8823 8647 8648
4  7813 8480 8479 8476
4  8647 8480 8650 8648
4  7468 8592 8598 8650
4  7668 8847 8720 8782
4  1384 1629 1382 8744
4  8287 7311 7668 8778
4  4537 8649 8835 8650
4  4303 4537 8650 8648
4  4519 8823 8649 8648
4  7718 7505 7716 8620
4  1384 8658 8744 8854
4  7872 8573 7473 8569
4  1489 1473 1554 8679
4  1539 1509 8571 8569
4  7280 7286 7283 8570
4  1511 8500 8408 8405
4  6793 6668 7392 8665
4  1446 8409 1508 8407
4  1532 1446 8407 8568
4  8504 8505 8572 8544
4  7391 6806 6794 8372
4  1444 8505 1446 8568
4  7370 8600 8715 8713
4  6575 6573 7736 8607
4  7693 7691 7298 8884
4  8093 8264 8059 8794
4  1553 8463 8717 8776
4  8282 7752 8713 8776
4  7752 8713 8776 8893
4  8601 8713 8892 8903
4  1553 8717 8903 8776
4  1468 1463 404 8773
4  1575 1413 1639 8888
4  6806 8373 8366 8367
4  1582 1599 1544 8412
4  8720 8721 8719 8745
4  8284 8484 7954 8718
4  926 1342 590 6657
4  8287 7668 8720 8778
4  6249 6241 6418 8585
4  1657 1654 1314 8512
4  1376 1650 1236 8436
4  8264 8794 8884 8793
4  8093 8884 8264 8794
4  7955 7384 7599 8847
4  8381 8894 8586 8861
4  8908 8733 8882 8883
4  1676 8860 8779 8780
4  8245 8381 6443 8894
4  1372 1483 1565 8626
4  7065 7157 6819 7276
4  8101 8885 8861 8483
4  6362 6363 8894 8861
4  7734 8788 8627 8416
4  6418 8894 6363 8585
4  1582 1372 1599 8403
4  6927 6805 8030 7391
4  1665 1284 1604 8791
4  1468 8774 1463 8773
4  1522 1506 8852 8516
4  6363 8894 8861 8585
4  6249 7453 6241 8585
4  1674 8861 8586 8585
4  6250 6418 6249 6241
4  1395 8790 8897 8792
4  8534 8777 8448 8532
4  8440 8816 8535 8531
4  1693 1759 1079 6875
4  6573 8535 8607 8533
4  535 8260 8217 8474
4  8535 8607 8533 8743
4  4399 8216 8808 8724
4  7572 7329 8008 8722
4  6575 8530 8514 8533
4  8756 8558 8869 8755
4  6539 6430 6540 8445
4  4555 4414 8423 8655
4  1583 1426 8440 8531
4  8465 8664 8825 8471
4  7806 8534 8532 8533
4  6575 8511 8530 8607
4  6926 8468 8228 8466
4  6575 8514 8530 8511
4  7774 7118 8526 8839
4  7803 8526 8524 8565
4  8525 8526 8529 8807
4  4377 4584 8806 8524
4  4377 8524 8806 8565
4  499 843 661 8725
4  8071 8375 8366 8373
4  8073 7065 6819 8370
4  7364 8396 8369 8370
4  1462 8073 8375 8370
4  7915 7984 7846 8690
4  8491 8880 8682 8684
4  4596 4594 4615 8764
4  1277 8371 8396 8370
4  1277 8396 8371 8395
4  8374 8371 8375 8367
4  6845 7306 7455 8697
4  7637 7638 8873 8905
4  8375 8371 8370 8367
4  7432 8369 8394 8367
4  8198 8370 8369 8367
4  6285 8202 6541 8725
4  193 8486 8175 8485
4  4492 4596 4613 8668
4  1259 8408 1511 8500
4  4479 986 4492 7544
4  6674 8056 8498 8542
4  8497 8499 8501 8496
4  6755 8446 6647 8447
4  6593 8576 8838 8446
4  4356 4434 4361 8576
4  1453 1334 8497 8683
4  8504 8543 8505 8544
4  1455 1590 8505 8543
4  7472 7352 8118 8563
4  8562 8681 8837 8856
4  8562 8488 8561 8563
4  4381 8680 7472 8563
4  4381 8559 8681 8680
4  936 4356 4480 8712
4  8123 8562 8016 8561
4  8560 8559 8562 8856
4  8143 8843 8837 8680
4  4356 6593 585 8576
4  4443 4467 4497 8813
4  758 4381 7472 8563
4  7237 8700 8795 8703
4  4447 8855 8844 8843
4  7472 8680 7350 8563
4  8737 8699 8471 8736
4  4628 4457 4506 8487
4  4387 4447 8844 8843
4  6541 8202 7252 8725
4  8489 8751 8493 8488
4  8637 8744 8847 8854
4  8636 8637 8847 8638
4  1561 1574 8637 8854
4  7384 8640 8847 8846
4  8851 8641 8516 8640
4  8851 1522 8641 8854
4  839 4328 4399 8808
4  8851 8663 8854 8846
4  7348 8188 8189 6516
4  8851 1536 1522 8854
4  4328 8808 7521 8826
4  8188 6998 8280 7971
4  6460 8828 6521 8553
4  6555 6185 8133 8718
4  8103 6363 6362 8861
4  8827 8840 8828 8826
4  4563 4449 8855 8767
4  4310 8827 8877 8555
4  8828 8553 8877 8555
4  8874 8761 8764 8905
4  7638 8874 8873 8905
4  7639 8761 7638 8905
4  7639 8692 8761 8905
4  8022 8692 7639 8905
4  8698 8691 8904 8697
4  22 4493 4595 8697
4  1574 1385 1390 8637
4  4493 8710 8904 8711
4  971 4480 4493 8711
4  8873 8698 8710 8709
4  7456 8698 8873 8709
4  8171 7707 8158 8822
4  4613 4622 4502 8671
4  6846 7306 6845 8697
4  8188 6516 7971 8840
4  4444 4506 4418 8727
4  8433 8438 8432 8787
4  8788 8433 8432 8787
4  1321 8460 8412 8787
4  7481 8430 7422 8433
4  8059 8794 8264 8793
4  7133 7772 8437 8431
4  8434 8438 8432 8431
4  1245 1249 1284 8793
4  6414 8381 8779 8483
4  8175 8486 8483 8485
4  1380 8175 8486 8885
4  4498 8703 8597 8576
4  4513 4361 8597 8574
4  7954 7955 7439 8720
4  1314 1654 1309 8515
4  8838 8574 8832 8596
4  8789 8791 8794 8792
4  7693 8093 7691 8884
4  1245 1011 1249 8793
4  7693 8264 8093 8884
4  4361 4603 8575 8574
4  8575 8832 8838 8574
4  7672 7598 7475 8539
4  4361 8597 8574 8576
4  4444 6865 8594 8728
4  8491 8594 8880 8684
4  7959 8769 8669 8682
4  7959 8769 8581 8669
4  6185 8719 8133 8718
4  8769 8670 8669 8671
4  7984 8692 8690 8669
4  8769 8670 8581 8669
4  7824 8670 8692 8669
4  8381 8803 8860 8586
4  7861 8175 8483 8485
4  8689 8764 8692 8905
4  4596 8670 8692 8764
4  4596 4622 8668 8670
4  8668 8690 8692 8669
4  4444 4501 4506 8594
4  4385 4381 8681 8680
4  8689 8668 8690 8692
4  1789 8642 8457 8456
4  1502 1382 8486 8719
4  4458 4589 4563 8856
4  4418 4506 4457 8727
4  8889 8453 8642 8893
4  6845 7306 7296 7455
4  7867 8451 7753 8453
4  7350 8837 8562 8680
4  7091 8464 8413 8454
4  1673 8413 8643 8414
4  4444 4479 4501 8594
4  7252 8123 8021 8561
4  8451 8642 8453 8452
4  7954 8720 7439 8721
4  8491 8727 8492 8490
4  1502 1554 1385 8746
4  1536 8663 8658 8854
4  8847 8854 8658 8846
4  8492 8493 8489 8726
4  993 6866 4418 8726
4  7691 7535 8418 8794
4  8492 8727 8489 8490
4  7628 8818 8598 8834
4  4424 8751 8488 8563
4  8487 8491 8880 8771
4  8141 7320 8560 8856
4  1249 1436 1284 8793
4  7320 8491 8487 8771
4  8892 8889 8903 8893
4  8882 8791 8883 8418
4  8713 8903 8776 8893
4  7298 7368 7299 8734
4  1679 1602 1553 8903
4  4513 8574 8597 8591
4  4603 8833 8575 8574
4  4513 8598 8835 8574
4  8597 8576 8703 8446
4  1768 1773 1623 8603
4  8598 8835 8818 8650
4  7628 8598 8596 8834
4  1403 1236 1326 8434
4  1378 1379 1374 8758
4  1499 1629 1384 8658
4  7626 8596 7592 8591
4  8092 8090 7625 8789
4  7458 7626 8838 8596
4  7127 8435 8817 8436
4  8434 8459 8435 8436
4  7127 8435 8436 8429
4  7456 7637 8873 8698
4  7569 8458 8435 8437
4  8627 8578 8626 8621
4  7082 6789 6787 8411
4  7751 8687 8653 8654
4  1284 1279 1604 8883
4  8434 8437 8459 8438
4  8451 8450 8457 8452
4  4332 8214 45 8528
4  4434 6594 584 8447
4  8644 8605 8426 8797
4  7867 7747 8450 8452
4  4497 4499 4500 8701
4  8457 8456 8642 8452
4  8873 8904 8874 8710
4  4301 4513 4500 8593
4  7867 8451 8453 8452
4  4299 4541 4366 8508
4  8184 8587 8839 8565
4  7119 7118 7774 8839
4  8803 8588 8587 8565
4  7221 7703 7894 8796
4  7120 7162 7799 8807
4  1561 1574 1390 8637
4  8660 8657 8661 8659
4  8309 6709 6185 8746
4  7799 8529 8807 8579
4  1506 1379 1520 8521
4  7774 8526 7803 8839
4  6338 8565 7665 8564
4  6185 8746 8719 8718
4  1342 1639 1643 8849
4  1385 8719 8746 8745
4  8309 7954 8721 8718
4  7439 8720 8636 8745
4  8742 8540 8745 8539
4  8538 8865 8541 8537
4  8541 8540 8742 8539
4  7475 7598 8537 8539
4  7299 7127 7779 8864
4  8636 8720 8847 8744
4  6794 8372 8368 8665
4  1385 8637 8744 8745
4  8636 8720 8744 8745
4  8742 8745 8721 8539
4  7439 8745 8636 8539
4  8654 8423 8584 8655
4  8580 8762 8581 8582
4  8306 8829 8644 8423
4  8160 8772 8694 8695
4  4595 8696 6846 8697
4  1655 1634 8376 8380
4  6618 7568 6625 8458
4  8467 8449 8730 8465
4  7825 7832 7972 8581
4  4594 8904 8874 8764
4  8581 8762 8765 8582
4  8769 8581 8670 8765
4  7531 7565 7561 8705
4  7824 8581 8761 8670
4  8740 8850 8599 8617
4  1637 8409 8408 8502
4  1641 8408 8501 8502
4  7279 8599 8494 8405
4  1675 1548 1601 8454
4  7703 6219 7894 8516
4  7391 7392 8468 8372
4  7321 7328 7370 8715
4  7338 8499 8056 8496
4  1625 1553 1549 8717
4  7832 7972 8581 8772
4  7221 7894 7227 8871
4  4622 4620 8770 8670
4  4502 4622 8770 8671
4  8769 8770 8670 8671
4  7825 8580 8761 8581
4  7581 7736 7371 8612
4  6927 8071 6805 8373
4  1468 8449 8774 8469
4  6575 7736 7581 8612
4  7370 8282 7752 8713
4  7328 7371 7372 8422
4  7391 8373 8372 8773
4  1506 1519 1379 8517
4  1468 8469 8774 8773
4  4430 4598 4509 8425
4  1522 1561 8641 8854
4  8468 8774 8372 8665
4  1654 8729 8374 8377
4  7598 7599 8000 8638
4  1378 8830 8757 8758
4  1616 8374 8774 8377
4  7734 8578 7916 8416
4  8864 8445 8439 8441
4  1339 8440 1424 8442
4  1675 1673 1548 8413
4  6324 8448 8534 8777
4  7784 7779 8448 8441
4  7779 8440 7806 8448
4  1378 1374 1372 8578
4  1339 6429 8777 8442
4  6539 8448 6429 8441
4  7487 7488 7425 8901
4  6429 8448 6324 8777
4  7772 7422 7917 8433
4  6539 7784 6538 8448
4  6221 8756 8757 8520
4  7503 8753 8870 8629
4  8497 8542 8498 8496
4  7338 8495 8499 8496
4  1353 1483 8626 8624
4  1252 1259 8497 8501
4  7133 8437 8435 8431
4  8463 8459 8458 8461
4  8242 7487 8895 8900
4  1379 1419 1374 8749
4  1630 1666 1415 8872
4  1353 8626 8621 8624
4  8451 8889 8453 8642
4  7718 7894 7505 8620
4  1359 1476 1480 8869
4  8244 7072 8233 8674
4  1602 8776 8903 8893
4  8282 8611 8776 8714
4  1672 1673 1675 8643
4  1378 8578 8402 8830
4  8282 8776 8611 8462
4  7089 8464 7752 8776
4  8246 8244 8233 8674
4  4551 4583 4411 8652
4  8222 7383 8187 8857
4  7824 7825 8761 8581
4  8244 7072 8674 8605
4  7434 8646 7433 8509
4  7433 8646 8036 8510
4  8368 8509 8729 8394
4  7414 7752 7753 8892
4  6793 8368 8509 8515
4  1436 8731 8583 8418
4  1284 8883 1604 8791
4  7938 8233 6788 8558
4  6557 6185 8309 6709
4  1502 6185 1554 8746
4  1535 8908 8862 8883
4  1604 8883 8862 8881
4  1535 1279 8908 8883
4  6560 6561 7861 8175
4  1279 8583 8908 8883
4  7638 7603 8759 8761
4  7603 8759 8761 8580
4  8309 8721 7436 8746
4  7946 7897 7902 8785
4  7436 8677 7675 8679
4  4622 8668 8670 8671
4  8505 8507 8572 8568
4  1353 1482 1483 8624
4  7473 7675 7672 8677
4  8761 8692 8764 8905
4  8761 8692 8670 8764
4  4615 8764 8760 8763
4  7052 8507 8853 8678
4  4414 8584 8765 8582
4  1380 8486 1381 8885
4  1381 8780 8486 8781
4  412 7052 7053 8507
4  1502 8133 8719 8485
4  7436 7672 7675 8677
4  1489 1597 1473 8679
4  1395 1245 1665 8792
4  78 81 1395 8055
4  8663 8660 8658 8846
4  6672 8031 7983 6386
4  7955 8847 8636 8720
4  1554 6185 6709 8746
4  8116 6674 8498 8683
4  4596 4615 4622 8670
4  1502 8719 8486 8485
4  1502 8133 6185 8719
4  8486 8719 8484 8485
4  8908 8583 8733 8883
4  1436 8583 8883 8418
4  8583 8734 8731 8732
4  8583 8731 8734 8418
4  78 6658 8055 8897
4  1250 8439 8731 8445
4  6653 7945 7946 6654
4  1375 8434 8583 8436
4  7365 8733 8429 8732
4  1376 8816 8436 8732
4  7475 8000 7941 8537
4  8091 8055 6658 8906
4  8495 8494 8785 8502
4  8817 8436 8816 8732
4  8000 8638 8536 8540
4  1539 8571 8541 8569
4  1537 8742 8541 8540
4  8536 8747 8872 8752
4  1539 1666 8747 8571
4  4338 8887 8891 8693
4  6540 7693 7298 8265
4  8451 8457 8887 8642
4  1778 8889 1679 8903
4  8601 8892 8889 8903
4  8601 8892 8890 8889
4  4595 4594 4596 8689
4  1637 8849 8409 8502
4  1410 8409 1637 8849
4  7980 8849 8848 8909
4  7312 7788 7313 8766
4  6657 6658 8907 8909
4  8034 8866 7902 8909
4  8906 8848 8907 8909
4  8033 7980 8848 8909
4  8907 8848 8849 8909
4  1413 8888 8738 8850
4  7521 8216 7345 8551
4  190 4387 4547 8840
4  7348 7344 6516 8826
4  6657 8907 8866 8909
4  8891 8784 8693 8546
4  7665 7663 7660 8804
4  7239 8592 8700 8590
4  8451 8887 8890 8889
4  4443 604 4467 8704
4  4443 4497 4498 8813
4  7663 8158 7661 8800
4  8451 8890 8887 8693
4  7487 7735 7488 8625
4  8158 7103 7661 8384
4  8601 8890 8891 8889
4  8070 8152 8341 8739
4  4509 8823 8798 8819
4  1520 1379 1378 8758
4  8600 8890 8601 8892
4  7413 8890 7414 8892
4  1652 8753 8870 8755
4  6787 6789 6788 8410
4  7410 8600 7414 8890
4  7628 7640 7212 8834
4  8874 8764 8904 8905
4  7813 8290 8672 8673
4  8451 8890 8892 8889
4  711 999 6704 8579
4  46 6704 999 8579
4  4432 4430 4509 8425
4  6760 7799 7162 8579
4  711 7162 4507 8579
4  46 8122 6704 8579
4  8598 8593 8835 8650
4  1805 8398 8443 8754
4  4507 7162 8807 8579
4  8381 8779 8860 8886
4  8014 7766 8246 8676
4  7103 7811 8187 8481
4  1381 8780 1676 8885
4  1381 8486 8780 8885
4  1676 8779 8381 8885
4  8674 8675 8786 8754
4  7766 8674 8246 8676
4  7370 7752 7414 8713
4  8152 8741 8739 8617
4  8306 8423 8644 8426
4  7768 8428 8580 8424
4  8341 8152 8153 8739
4  8674 8786 8676 8798
4  4642 8823 8676 8798
4  4519 4522 4537 8649
4  4642 8676 4432 8798
4  8864 8817 8816 8732
4  7213 8818 7211 8650
4  8734 8864 8439 8732
4  7765 7766 8427 8798
4  4642 4509 4519 8823
4  4509 4598 4522 8819
4  8864 8816 8817 8535
4  8734 8439 8864 8445
4  8873 8698 8904 8710
4  4519 4509 4522 8819
4  8111 7299 8864 8445
4  4555 4533 4430 8424
4  7779 8864 7127 8817
4  7299 7127 8864 8732
4  8425 8426 8798 8797
4  6787 8413 8557 8454
4  1793 8643 8456 8444
4  8321 8654 7749 8829
4  4414 4619 4526 8765
4  4328 4547 8827 8826
4  7998 8557 7070 8390
4  4381 4458 4563 8559
4  8559 8562 8680 8563
4  7998 8557 8390 8456
4  7998 8456 8455 8452
4  1633 1709 1710 8662
4  6418 8245 6363 8894
4  8878 8475 8633 8634
4  7598 8636 7599 8638
4  1783 1601 8889 8642
4  8522 8521 8520 8518
4  1679 8903 8889 8893
4  7761 8454 8456 8452
4  7761 8138 6787 8454
4  7628 7212 8818 8834
4  8851 8663 1536 8854
4  1380 1382 1381 8486
4  1574 1384 1385 8744
4  1536 1384 1574 8854
4  1674 1676 1823 8586
4  7311 7395 8782 8660
4  8482 8879 8475 8477
4  6362 6363 6443 8894
4  8630 8753 8708 8634
4  7592 8596 8598 8591
4  4434 8703 4498 8576
4  4536 4513 8835 8574
4  7462 8647 8480 8650
4  489 988 814 7065
4  7768 8306 7765 8426
4  4598 8428 8425 8424
4  8835 8818 8649 8834
4  6926 8030 8028 8228
4  7468 8480 7811 8859
4  7213 8598 8818 8650
4  4305 8823 4519 8648
4  4303 4537 8835 8650
4  6593 6753 8285 8712
4  1773 1778 1680 8601
4  7321 7370 7414 8600
4  1783 1601 1679 8889
4  4480 8575 8710 8712
4  1773 1680 1623 8603
4  7711 7321 7410 8602
4  4480 8710 8328 8712
4  7533 8882 8733 8418
4  4356 8575 8838 8576
4  8710 8709 8575 8832
4  8709 8838 8575 8832
4  7298 7691 7368 8884
4  4335 8529 8525 8528
4  1250 8265 6430 8445
4  8523 8527 8393 8389
4  60 4488 8809 8388
4  4584 8525 8526 8524
4  8122 7262 6641 8579
4  7799 7262 8529 8579
4  8748 8622 8900 8625
4  1308 8750 1483 8624
4  1522 1536 1561 8854
4  7487 7488 8901 8625
4  8639 8796 8641 8516
4  7599 7698 7703 8639
4  7703 7698 6219 8516
4  1522 1519 1506 8517
4  1522 1561 1630 8641
4  1372 1565 8577 8626
4  7488 7718 8627 8621
4  1444 1532 1498 8568
4  1522 1630 1519 8796
4  8000 7599 7703 8639
4  7894 6219 8519 8516
4  7505 8757 8830 8758
4  7938 7504 8756 8558
4  7753 8451 8892 8453
4  7916 7716 6721 8830
4  1378 1372 1582 8403
4  1680 1553 1625 8717
4  1778 1679 1680 8903
4  8667 8577 8788 8432
4  8667 8750 8901 8625
4  7488 8667 8625 8627
4  7837 8633 8475 8634
4  1679 1553 1680 8903
4  1403 1326 1667 8432
4  7286 7226 8152 8615
4  1320 1309 1612 8613
4  7103 8481 8187 8477
4  8705 8380 8378 8706
4  1546 1544 1321 8460
4  6622 6625 8282 8611
4  8463 8462 8776 8461
4  1778 1680 8601 8903
4  1677 1709 8662 8879
4  8222 8857 8633 8661
4  8463 8458 8459 8814
4  8876 8879 8508 8477
4  7718 8578 8627 8621
4  6793 7581 6668 8666
4  1361 1250 6430 8445
4  7807 7568 6618 8815
4  1567 1585 1657 8395
4  7422 8667 7488 8627
4  8419 8612 8613 8379
4  8667 8750 8625 8626
4  4488 8527 4629 8392
4  1567 1657 1314 8512
4  726 1296 934 7931
4  8812 8391 8809 8392
4  1476 1378 1477 8402
4  8169 8391 8812 8392
4  4629 8567 8821 8392
4  1650 8814 8459 8436
4  7917 7734 7916 8416
4  1601 1548 1602 8775
4  4472 4629 8810 8809
4  8871 8622 8863 8623
4  1601 1602 1679 8893
4  7998 8390 8606 8456
4  8107 8812 8700 8841
4  8107 8795 8700 8812
4  1548 1544 1546 8460
4  1378 1582 1477 8402
4  1582 1544 1673 8414
4  8435 8459 8458 8814
4  8376 8378 8380 8379
4  7425 7488 7422 8667
4  8430 8583 8434 8429
4  1372 1374 8626 8578
4  1602 8776 8775 8461
4  1372 1565 1599 8577
4  1625 8716 8717 8420
4  1549 8611 8717 8463
4  7422 7488 7734 8627
4  1625 1549 1593 8419
4  1667 1599 1565 8577
4  7328 8422 8715 8706
4  6625 8458 7089 8462
4  1586 1600 8463 8461
4  1553 1586 8463 8776
4  8873 8710 8874 8833
4  4595 4493 8904 8697
4  6593 8838 8285 8446
4  8328 8709 7985 8712
4  1693 1759 6875 8664
4  7867 7761 7998 8452
4  1693 8664 6940 8470
4  6793 7581 8666 8515
4  4480 4603 8710 8575
4  4434 4498 4361 8576
4  8597 8574 8446 8591
4  8795 8703 8813 8704
4  508 8071 6927 8373
4  7432 6793 6794 8368
4  1693 6875 1079 6940
4  6645 7237 8795 8703
4  4500 8593 8597 8702
4  7626 6646 8446 8591
4  6875 7642 6940 8466
4  4498 8703 8813 8702
4  7632 8507 7052 8678
4  1498 8568 1532 8569
4  600 8216 4399 8723
4  1444 8507 8505 8568
4  839 97 4328 7521
4  1446 8407 8568 8544
4  1446 8568 8505 8544
4  585 584 4434 6594
4  7872 8572 7632 8678
4  1498 8853 8507 8573
4  7140 8809 8391 8388
4  7963 8504 8031 8506
4  7621 7615 8504 8572
4  1010 4444 6865 7544
4  986 4492 7544 7907
4  7907 8668 8690 8696
4  6250 8184 6418 8589
4  4492 8689 4596 8668
4  4613 8668 4622 8671
4  4541 4499 4637 8822
4  8668 8690 8669 8684
4  4472 4488 4629 8809
4  8118 8561 8202 8751
4  7252 8021 8493 8561
4  4472 6858 8809 8811
4  8590 8597 8446 8591
4  6418 8184 6338 8587
4  7352 8123 6543 8563
4  8016 8141 8560 8562
4  8560 8559 8487 8488
4  59 60 4472 6858
4  7880 7237 8107 8795
4  7880 8795 8811 8704
4  4289 4629 8567 8821
4  7127 8436 8817 8732
4  7365 8734 8733 8732
4  1680 1553 8717 8903
4  1601 1679 8889 8893
4  1764 1976 1982 8825
4  8217 8474 7572 8723
4  4404 4369 8724 8722
4  8892 8903 8713 8893
4  7413 8890 8451 8693
4  7415 7413 8451 8693
4  7413 7753 8451 8892
4  7415 8451 8450 8693
4  8053 7344 7521 7345
4  8143 7970 8837 8843
4  8465 8825 8737 8471
4  7561 6668 7371 8378
4  6594 6755 6707 8447
4  7471 8143 7470 8680
4  7470 8143 7350 8680
4  8141 8562 8837 8856
4  4458 4563 8559 8856
4  1455 8031 8504 8506
4  8031 6386 8543 8542
4  7473 8538 7474 8569
4  4595 4493 4594 8904
4  4479 4613 8594 8668
4  21 4492 7907 8696
4  7615 8504 8572 8544
4  8057 8504 7615 8544
4  7963 7053 7621 8506
4  8698 8710 8709 8711
4  334 1530 7053 8506
4  7963 7621 7983 8504
4  8491 8727 8880 8594
4  7908 8685 8491 8684
4  4492 7544 7907 8595
4  7907 7846 7849 8696
4  4642 4519 4305 8823
4  7966 7915 7986 8595
4  4444 8594 8727 8728
4  4642 4432 4509 8798
4  7825 7975 7603 8580
4  8309 8284 7954 8718
4  4366 8800 8508 8822
4  6865 8318 7966 8685
4  7874 8036 8645 8514
4  8645 8513 8514 8510
4  7436 8677 8679 8746
4  1561 1598 1630 8641
4  1473 8679 8742 8746
4  7983 7621 7615 8504
4  7555 7675 7635 6292
4  1293 8805 8686 8513
4  1293 8805 6323 8686
4  8637 8641 8854 8638
4  8277 6323 8534 8645
4  414 7052 1656 6292
4  1361 8439 8445 8442
4  6557 8309 7436 6709
4  1608 1375 8731 8439
4  1022 8175 1451 8101
4  6560 7861 8284 8485
4  4301 4500 4541 8593
4  7008 6707 6635 8704
4  1424 1376 8439 8816
4  1380 1451 1022 8175
4  1022 1451 997 8101
4  8805 8514 8513 8532
4  1633 8663 8635 8659
4  8810 8812 8809 8392
4  8645 8646 8686 8513
4  6865 8318 8685 8728
4  4444 4418 444 8728
4  6858 6860 7925 8811
4  7806 8448 8440 8532
4  6793 8510 8511 8515
4  1369 1314 8513 8512
4  8880 8594 8671 8684
4  1375 8439 1376 8732
4  1376 8439 8816 8732
4  604 7008 7009 8704
4  7422 7734 7917 8788
4  1363 1313 1646 8530
4  8514 8513 8511 8510
4  8716 8717 8713 8903
4  7874 8534 6569 8514
4  7365 7133 7127 8429
4  7368 7533 7365 8733
4  8036 8514 6575 8510
4  735 1453 332 6386
4  7747 8047 7749 8455
4  6940 7152 8260 8472
4  8440 8448 8777 8532
4  7614 7271 7404 8545
4  8514 8513 8530 8511
4  7572 8552 8724 8722
4  8056 8499 8498 8496
4  4583 4412 4411 8652
4  7971 6516 6460 8842
4  4610 4625 4319 8877
4  4411 4415 4414 8655
4  8519 8757 8521 8520
4  7271 7416 7404 8545
4  4625 4572 4571 8867
4  8223 7751 7749 8654
4  1520 8521 8757 8869
4  1652 8870 1359 8869
4  7614 8545 8554 8550
4  1476 1520 8757 8869
4  1520 1378 8757 8758
4  1451 1381 1676 8885
4  6789 6788 8410 8399
4  1810 8398 8675 8755
4  1359 8521 8869 8520
4  1674 1823 1828 8586
4  6338 7660 8803 8564
4  4303 8650 8480 8648
4  7660 7739 8803 8387
4  7393 8858 8886 8382
4  7311 7393 7394 8858
4  1499 1678 1629 8657
4  7393 8886 8381 8382
4  7740 7394 7393 8858
4  7661 7740 8387 8384
4  7394 8858 8383 8661
4  6875 8028 7642 8466
4  7531 7563 7710 8737
4  8217 7573 7572 8474
4  8217 7571 8216 8723
4  839 4399 8216 8808
4  7563 7321 7711 8707
4  7521 8808 8216 8551
4  8858 8386 8886 8382
4  1676 8780 8779 8885
4  7773 7082 7091 8415
4  7416 7410 7413 8890
4  7740 8383 8858 8382
4  1817 8860 2011 8385
4  7414 7752 8892 8713
4  1778 1783 1679 8889
4  7454 6444 6864 8824
4  4596 8670 8668 8692
4  7807 8817 7568 8815
4  1375 1236 8434 8436
4  8433 8437 8438 8787
4  7638 8760 8874 8761
4  104 344 1336 6324
4  1600 1321 1233 8459
4  7784 7779 7806 8448
4  8583 8436 8429 8732
4  4594 8874 4643 8764
4  8761 8581 8762 8763
4  1376 1426 1650 8816
4  4596 4615 8670 8764
4  4643 8874 8760 8764
4  8849 8740 8850 8599
4  8033 7982 8906 8848
4  8534 8514 8805 8532
4  6622 7372 7371 8422
4  8896 8848 8738 8888
4  8070 8738 8896 8848
4  8896 8906 8848 8888
4  1789 1675 1601 8642
4  7372 8611 8282 8714
4  1602 1553 8903 8776
4  1793 1672 1675 8643
4  7902 8849 8785 8599
4  7394 8222 7840 8661
4  8651 8450 8656 8652
4  7462 7813 7811 8480
4  8592 8480 8593 8650
4  7311 7394 7395 8660
4  8868 8784 8554 8688
4  1629 8744 8658 8781
4  7955 7668 7384 8847
4  4342 8868 8653 8688
4  8492 8726 8727 8728
4  1633 1499 8663 8659
4  1481 1477 1672 8410
4  7680 6865 6866 8728
4  1652 8869 1480 8755
4  1506 1520 1359 8521
4  8487 8489 8727 8490
4  7632 7816 7052 7053
4  1358 1669 1414 8619
4  1660 1340 1641 8503
4  8492 8727 8685 8728
4  8033 7980 7982 8848
4  7488 7735 7718 8621
4  7680 7966 6865 8318
4  7734 7716 7916 8578
4  1535 1667 8750 8908
4  7806 8440 8535 8533
4  8021 8020 8492 8490
4  8020 8492 8491 8685
4  8522 8520 8899 8629
4  7838 8289 8753 8634
4  4432 8676 8786 8798
4  8630 8870 8753 8629
4  4536 4537 4522 8834
4  7213 7211 7462 8650
4  7837 8672 8289 8634
4  8753 8672 8708 8634
4  7454 6385 8116 8824
4  8605 8798 8426 8797
4  7765 8244 7766 8798
4  1296 8686 7931 8397
4  1296 1369 8686 8401
4  8686 8401 8646 8397
4  7635 7052 6292 8678
4  1664 8374 8729 8371
4  8369 8646 8401 8397
4  1585 8394 8729 8395
4  7982 8242 7625 8896
4  8716 8713 8717 8714
4  7632 7816 7635 7052
4  7752 8464 8138 8893
4  7555 6709 7436 6292
4  1778 8601 8891 8889
4  8450 8693 8656 8688
4  1768 1623 8421 8603
4  1778 8601 8889 8903
4  808 1361 845 6430
4  1679 1602 8903 8893
4  7752 7753 8892 8893
4  344 6324 6323 8805
4  6865 8685 7966 8595
4  104 6429 6324 8777
4  8318 8492 8020 8685
4  1463 1664 1464 8374
4  4506 8880 8727 8594
4  7527 8492 8318 8728
4  4444 4506 8727 8594
4  22 6845 4493 8697
4  4506 8880 8487 8727
4  4589 8487 8880 8771
4  4458 8487 4589 8856
4  7339 7203 8128 8499
4  8619 8741 8614 8739
4  8862 8895 8900 8902
4  8748 8862 8900 8902
4  8242 8341 8900 8739
4  8070 8242 8738 8739
4  1414 1516 8748 8739
4  7963 8031 7053 8506
4  7341 8128 6864 8824
4  1271 1567 8401 8395
4  1641 1637 1511 8408
4  803 742 1252 8128
4  7434 8646 8369 8397
4  1313 8530 8513 8511
4  1609 1558 1320 8610
4  8729 8394 8512 8395
4  7434 8509 7432 8394
4  8057 7279 8494 8405
4  8002 7931 8040 8397
4  7339 8128 7341 8499
4  4633 8880 8671 8682
4  8036 8645 8514 8510
4  8004 8277 7874 8645
4  7716 8578 8620 8758
4  1415 8872 8863 8796
4  758 8118 4424 8563
4  4589 4633 4590 8771
4  4497 8813 8701 8702
4  1379 1419 8749 8517
4  7894 8519 8620 8517
4  4625 8855 4449 8766
4  7505 8830 7716 8758
4  7718 8620 7716 8578
4  7227 7718 8622 8623
4  4412 8656 8653 8652
4  4406 8724 8808 8549
4  4381 4424 8559 8563
4  1419 8620 8863 8623
4  997 1674 1024 7453
4  1419 8796 8620 8517
4  6249 6418 6363 8585
4  8171 8821 8841 8822
4  8620 8623 8749 8621
4  7660 7661 8387 8801
4  8786 8605 8443 8604
4  1793 8390 8604 8444
4  1805 8786 8443 8604
4  7070 8390 8557 8400
4  4513 4498 4500 8597
4  7998 7761 8557 8456
4  6788 8443 8556 8400
4  8674 8786 8675 8676
4  4426 4555 4430 8797
4  4430 8425 8797 8424
4  7091 6787 8138 8454
4  1800 8604 8443 8444
4  7698 8845 8640 8846
4  7072 8390 7070 8556
4  7840 7837 7838 8631
4  8455 8457 8450 8452
4  7072 8443 8605 8604
4  1010 986 4479 7544
4  6646 7592 7239 8590
4  4444 6865 7544 8595
4  7672 8538 8677 8539
4  7527 8021 8020 8492
4  8538 8541 8853 8679
4  7915 7908 7984 8684
4  1473 1597 8541 8679
4  7436 7672 8677 8721
4  1489 6292 8853 8679
4  7422 8667 8788 8433
4  1667 1599 8577 8432
4  7772 7773 8437 8787
4  6673 6672 6674 6386
4  8667 8908 8750 8432
4  8667 8750 8577 8432
4  8487 8727 8491 8490
4  8202 8561 7252 8725
4  4613 4501 8594 8671
4  7524 8021 7527 8493
4  7312 8771 8856 8767
4  8021 8492 8493 8490
4  1375 1403 8583 8434
4  8430 8908 8733 8882
4  7533 8430 8733 8882
4  7368 8733 8734 8418
4  6461 7789 7788 8553
4  8430 8733 8908 8583
4  8694 8584 8654 8695
4  7946 8866 6654 8495
4  7614 7404 7612 8554
4  8698 8904 8710 8711
4  1522 8796 1519 8517
4  8873 8874 8904 8905
4  4594 8689 8904 8764
4  1536 1499 1384 8658
4  7894 8620 8871 8796
4  8851 1522 8852 8516
4  4595 8904 4594 8689
4  7698 8516 8640 8845
4  4493 4604 8904 8710
4  8637 8854 8847 8638
4  4604 8874 8904 8710
4  7599 8640 8639 8638
4  7521 8808 8551 8826
4  6249 6363 8103 7453
4  7445 6521 8551 8550
4  7803 8524 7665 8565
4  7861 6362 6414 8483
4  6561 6362 7861 8483
4  6561 8103 6362 8101
4  4339 4312 8784 8549
4  4404 8722 8724 8547
4  8868 8555 8554 8549
4  8554 8545 8549 8550
4  7345 8551 8724 8552
4  4406 8808 8555 8549
4  6414 7393 7311 8779
4  1403 8434 1326 8432
4  8430 8434 8432 8431
4  8667 8430 8901 8908
4  7425 8667 7422 8430
4  8667 8788 8433 8432
4  7365 8733 7481 8429
4  7838 8634 8629 8631
4  8116 6385 8498 8824
4  1633 1677 1709 8662
4  1583 8440 8777 8532
4  7840 8222 7837 8633
4  1677 8878 8475 8633
4  1710 2011 1678 8386
4  1376 8816 1650 8436
4  1629 1678 1662 8657
4  1583 1646 1426 8531
4  1662 8386 8780 8657
4  1424 8440 1426 8816
4  7740 8222 7394 8383
4  1375 1376 8436 8732
4  8289 7938 7503 8753
4  8864 8816 8439 8732
4  839 8216 7521 8808
4  7503 8870 8520 8629
4  97 8189 190 8826
4  8522 7699 8520 8629
4  6721 8399 8417 8402
4  6521 8828 8551 8550
4  8216 7345 8551 8724
4  190 8189 8840 8826
4  4406 8808 4310 8555
4  4399 8808 4406 8724
4  7298 8265 8884 8445
4  845 1250 142 8265
4  8093 8092 7691 8794
4  1676 8885 8381 8861
4  1823 1676 8860 8586
4  1823 8860 8802 8586
4  8860 8803 8802 8586
4  405 1468 404 6926
4  1676 8381 8586 8861
4  8519 8517 8516 8518
4  6540 8265 7298 8445
4  1339 8777 8440 8442
4  8536 8872 8641 8796
4  1415 1399 8863 8618
4  1079 1759 405 6875
4  1630 8872 8641 8747
4  8000 8536 8537 8540
4  845 1250 8265 6430
4  6540 7298 8111 8445
4  7298 8884 8734 8445
4  1608 1376 1375 8439
4  1236 1326 8434 8438
4  8111 7298 7299 8445
4  1236 8434 8459 8438
4  1249 1250 1436 8898
4  1249 8264 142 8898
4  7703 7894 8796 8516
4  1419 8620 8749 8517
4  1599 8577 8432 8787
4  7384 7698 7599 8640
4  8522 1506 8521 8518
4  7227 8620 7718 8623
4  1321 8460 8459 8461
4  7133 7569 8435 8437
4  8459 8438 8437 8460
4  1336 1293 1363 8805
4  1618 8449 8730 8376
4  1321 8412 1599 8787
4  7561 7371 7328 8706
4  1321 1233 8459 8438
4  8451 8457 8450 8656
4  8538 8677 8541 8679
4  8004 7931 6323 8645
4  1655 1612 1634 8380
4  7552 8901 7425 8882
4  1498 8507 8568 8569
4  7872 7473 8573 8678
4  7535 7552 7533 8882
4  1413 1515 1516 8738
4  8789 8896 8790 8792
4  8862 8883 8882 8881
4  7533 8430 7481 8733
4  7481 8430 8433 8431
4  7533 7552 7425 8882
4  1532 8568 8570 8569
4  7368 8418 8734 8884
4  1597 8541 8853 8573
4  7473 8538 8573 8678
4  1436 8883 1284 8418
4  1481 8410 1672 8400
4  7299 7368 7365 8734
4  8277 8534 7874 8645
4  8578 8417 8416 8403
4  1462 646 1464 8375
4  6787 8410 8413 8411
4  1616 1654 1664 8374
4  7504 8558 6788 8399
4  7505 8620 8519 8758
4  8519 8521 8757 8758
4  7840 8661 8633 8632
4  8663 8632 8660 8846
4  8663 8660 8632 8659
4  1236 1650 8459 8436
4  7299 7365 7127 8732
4  1535 1279 1403 8908
4  7311 8660 8782 8778
4  8817 8814 8816 8436
4  1361 1424 1608 8439
4  7311 8858 7394 8660
4  1535 1403 1667 8908
4  7368 8733 7365 8734
4  8662 8661 8657 8659
4  7395 8782 8660 8846
4  8004 6323 8277 8645
4  8782 8658 8660 8846
4  8803 8586 8894 8587
4  1674 1676 8586 8861
4  7474 7941 7286 8865
4  1674 7453 8861 8585
4  8810 8841 8812 8392
4  1374 1419 1353 8749
4  1519 1419 1379 8517
4  1374 1353 8626 8621
4  1759 405 6875 8469
4  6806 7432 6794 8367
4  7925 8812 8169 8391
4  6858 8391 8809 8811
4  7880 8795 8107 8812
4  6926 8028 6875 8466
4  4534 4515 8428 8760
4  8836 8759 8428 8760
4  8831 8874 8836 8833
4  4643 8836 4515 8760
4  7640 8831 7212 8834
4  4643 4640 8836 8874
4  4303 4513 4301 8593
4  7626 7628 7592 8596
4  8831 8836 8759 8820
4  1759 8449 6875 8664
4  4522 8649 8820 8834
4  8649 8818 8647 8819
4  8649 8647 8818 8650
4  936 4480 971 8328
4  4537 8649 4522 8834
4  7640 8832 8831 8834
4  7237 6646 8590 8703
4  7072 8443 8674 8605
4  4432 8786 8605 8798
4  4479 7544 4492 8595
4  7765 8798 8427 8426
4  7072 8233 8674 8443
4  8169 8107 8171 8841
4  1793 8604 1800 8444
4  7008 6635 7009 8704
4  584 604 4443 7008
4  6323 8645 7931 8686
4  1293 8686 1369 8513
4  1759 1982 8449 8664
4  7433 8509 8646 8510
4  8534 8645 8805 8514
4  1567 1369 8401 8512
4  8004 7874 8040 8645
4  4385 8681 4447 8843
4  4381 8559 4563 8681
4  7970 8855 8837 8843
4  8053 8216 7571 7345
4  6460 8842 8828 8553
4  8184 8839 7803 8565
4  8141 8837 7970 8856
4  6338 8803 8565 8564
4  1674 1828 1024 8585
4  6 4387 8280 8843
4  7471 8843 8143 8680
4  6 8280 7471 8843
4  8280 6998 7471 8843
4  6998 7971 8143 8843
4  21 6846 4595 8696
4  6250 7119 8184 8589
4  7842 8696 8691 8697
4  4615 4526 4622 8670
4  1462 1464 1585 8371
4  4492 8668 7907 8696
4  7052 8853 6292 8678
4  8406 8409 8407 8616
4  7501 8092 8093 8059
4  7824 8670 8761 8692
4  7065 7276 6819 8370
4  7425 8901 8430 8882
4  8368 8394 8729 8367
4  8896 8897 8790 8792
4  8169 8841 8821 8392
4  8523 8821 8804 8566
4  8158 8800 8804 8822
4  1451 8885 1676 8861
4  8171 8804 8821 8822
4  8700 8703 8590 8702
4  6653 7946 8034 8866
4  6555 8718 8133 8485
4  1380 1381 1451 8885
4  1678 2011 1662 8386
4  1660 458 1340 8503
4  7555 7436 7675 6292
4  1530 1498 1656 8507
4  414 412 1656 7052
4  7963 7983 8031 8504
4  458 6654 1340 8503
4  1385 8744 1382 8719
4  1473 1537 1390 8742
4  1453 1259 1590 8500
4  8720 8484 8719 8718
4  7436 6292 6709 8679
4  1489 414 1656 6292
4  7203 8495 8503 8501
4  1639 1410 8849 8850
4  6653 6654 7946 8866
4  7945 7338 7946 8495
4  7345 7572 8724 8723
4  1612 8613 1309 8379
4  7432 8394 8368 8367
4  8449 8664 8465 8466
4  8646 8401 8509 8394
4  7270 8552 8008 8547
4  7571 7345 8216 8723
4  7572 8008 7270 8552
4  8071 8073 6807 8366
4  8368 8729 8374 8367
4  4399 4328 4406 8808
4  1657 8729 8512 8395
4  1654 8512 8729 8515
4  1464 8374 1664 8371
4  7736 8612 8607 8609
4  6819 6820 6807 8366
4  7531 7561 7563 8705
4  8467 8468 8774 8469
4  8630 8753 1652 8708
4  8467 8705 8730 8376
4  8290 8675 8672 8673
4  7529 8228 7565 8467
4  7529 7531 7530 8465
4  7529 7565 7531 8467
4  7563 7561 7328 8707
4  1462 8375 1464 8371
4  7565 6668 7561 8378
4  8289 7938 8753 8672
4  1656 6292 7052 8853
4  6516 7344 6521 8828
4  4328 4547 4310 8827
4  7344 6521 8828 8551
4  8828 8553 8555 8550
4  7614 8554 8553 8550
4  7983 8057 6674 8542
4  7541 8547 8546 8548
4  8040 8036 7433 8646
4  7632 7621 7053 8506
4  7473 7672 7475 8538
4  8368 8374 8729 8377
4  1489 1656 1597 8853
4  7473 7475 7474 8538
4  1314 1309 8511 8515
4  7279 7280 7283 8404
4  7983 7615 8057 8504
4  8368 8665 8377 8666
4  1314 8513 8512 8511
4  1313 8513 1314 8511
4  1630 8641 8872 8796
4  6793 8509 8510 8515
4  8580 8762 8582 8424
4  7211 7198 7766 8647
4  8368 8729 8509 8515
4  8646 8509 8401 8510
4  1657 8729 1654 8512
4  4444 7544 4479 8595
4  8428 8425 8427 8819
4  7237 6646 7239 8590
4  8817 8435 8814 8436
4  8700 8812 8810 8841
4  508 1464 646 8071
4  8817 8535 8816 8815
4  8111 8445 8864 8441
4  7299 8864 8734 8732
4  1677 8475 8879 8633
4  7211 7766 8014 8647
4  1600 1233 1562 8459
4  1250 1608 8731 8439
4  8376 8378 8377 8665
4  7299 8734 8864 8445
4  1313 1309 1320 8613
4  1375 8436 8583 8732
4  1361 8439 1250 8445
4  7365 8429 7127 8732
4  8434 8435 8459 8437
4  8040 8645 8646 8397
4  8686 8646 8401 8513
4  1424 1583 1426 8440
4  1336 1583 8777 8532
4  8817 8814 8435 8815
4  7779 7127 7807 8817
4  7874 7873 6569 8534
4  8467 8376 8774 8665
4  1424 8440 8439 8442
4  7127 8817 8864 8732
4  1369 1314 1313 8513
4  926 1647 1342 8907
4  8040 7874 8036 8645
4  7980 7902 8849 8909
4  8906 8897 8907 8888
4  1624 1625 1593 8420
4  1650 1558 1562 8814
4  1623 8421 8716 8420
4  8033 8848 8906 8909
4  1647 1639 8907 8888
4  4303 8593 8480 8650
4  7707 8078 8158 8822
4  4299 4301 4541 8859
4  7422 7734 8788 8627
4  7239 7592 7468 8592
4  4479 4492 8668 8595
4  7425 7488 8667 8901
4  4536 8574 8835 8596
4  7198 7765 7766 8427
4  8733 8882 8883 8418
4  7372 8282 7370 8714
4  7766 8676 8647 8798
4  8644 8797 8426 8424
4  8608 8535 8815 8743
4  7212 7198 7211 8818
4  1549 8610 8611 8463
4  8608 8814 8610 8743
4  8608 8607 8535 8743
4  7488 7718 7734 8627
4  1600 1562 8463 8459
4  1535 8750 8862 8908
4  7917 7082 7773 8415
4  1548 1673 1544 8413
4  7091 6787 8413 8411
4  7133 8429 7481 8431
4  8381 8886 8860 8382
4  8433 8438 8437 8431
4  1279 1403 8908 8583
4  1582 8416 8412 8414
4  8458 8459 8437 8460
4  7765 8308 8244 8605
4  8802 8799 8564 8801
4  8876 8508 8799 8384
4  4555 4414 4533 8423
4  4501 4502 4633 8671
4  4432 4426 4430 8797
4  4522 8820 8649 8819
4  4426 4551 4555 8644
4  7660 8804 7663 8801
4  7832 8160 7972 8772
4  8674 8786 8443 8754
4  8158 8859 7103 8508
4  7663 8804 8158 8800
4  7872 7621 7632 8572
4  1665 1604 8881 8791
4  7279 7615 7280 8404
4  78 8055 1395 8897
4  1575 1647 8897 8888
4  8091 8090 8055 8906
4  1489 943 414 6292
4  6656 6658 6657 8909
4  8906 8907 8848 8888
4  7338 7342 8056 8499
4  8409 8849 8850 8599
4  8092 8789 8794 8792
4  8090 8033 7982 8906
4  8907 8848 8888 8849
4  8090 7982 8896 8906
4  78 1647 926 6658
4  8091 8033 8090 8906
4  8864 8440 8816 8535
4  6538 7873 8534 8448
4  8864 8439 8440 8441
4  1336 8805 1363 8532
4  8341 7735 7487 8900
4  742 458 1660 7203
4  1453 1590 1455 8543
4  1363 8531 1583 8532
4  6538 8534 6324 8448
4  1339 6429 104 8777
4  1339 104 1336 8777
4  6543 8123 7252 8561
4  8560 8562 8559 8488
4  499 6285 843 8725
4  6305 8725 8493 8726
4  8494 8599 8408 8405
4  6543 7252 8202 8561
4  4421 8489 8725 8726
4  154 8118 8202 8751
4  154 4424 8118 8751
4  1436 8731 8418 8793
4  190 6 4387 8280
4  142 8265 1250 8898
4  8734 8731 8439 8445
4  1375 8731 8439 8732
4  1250 8731 1436 8898
4  8265 8898 8884 8445
4  1313 8511 1309 8613
4  190 8280 4387 8840
4  8608 8607 8610 8609
4  7807 6618 8535 8815
4  6819 6820 8366 8370
4  1236 8459 8434 8436
4  8700 8795 8810 8812
4  7880 8107 7925 8812
4  1586 1600 1562 8463
4  7807 8535 8817 8815
4  8184 7119 7774 8839
4  6625 8611 8608 8458
4  7455 8698 8709 8711
4  8171 8158 8804 8822
4  7345 7270 7445 8552
4  7455 8698 8711 8697
4  8047 7072 8308 8606
4  7455 8698 7456 8709
4  6645 6647 6646 8703
4  7239 8078 7707 8822
4  4356 8838 6593 8576
4  59 7009 6858 8811
4  4443 4467 8813 8704
4  4434 584 4443 8447
4  7237 7239 7707 8700
4  7626 8446 8596 8591
4  4434 8576 6594 8447
4  7458 7640 7628 8832
4  7456 7458 8709 8832
4  8021 8560 7320 8490
4  1010 4479 4444 7544
4  8078 8592 8859 8822
4  4572 4590 8772 8768
4  7680 6866 7249 7527
4  7628 8596 8832 8834
4  7527 8020 8318 8492
4  7874 8645 8534 8514
4  8277 6538 7873 8534
4  7680 8318 6865 8728
4  7806 8534 8448 8532
4  7779 8440 8864 8535
4  7806 6569 8534 8533
4  8277 7873 7874 8534
4  1293 1369 1363 8513
4  8789 8791 8418 8794
4  8882 8789 8791 8418
4  7535 8882 7533 8418
4  7691 8418 8884 8794
4  4458 4628 4589 8487
4  4312 8868 8784 8549
4  7271 8546 8545 8548
4  4399 4406 4404 8724
4  6461 7614 7612 8553
4  7751 8653 8450 8654
4  7691 8418 7368 8884
4  4411 4412 4415 8655
4  4303 8835 4513 8593
4  4299 8859 4541 8508
4  4366 4637 8800 8822
4  4412 4571 4415 8653
4  4342 8653 8868 8867
4  7468 7462 8480 8650
4  6460 6521 6461 8553
4  8653 8450 8656 8688
4  4339 4406 4312 8549
4  6460 7788 7970 8875
4  97 7521 8189 8826
4  6461 6521 7614 8553
4  4342 4312 4319 8868
4  7462 8647 8014 8479
4  8635 8878 8633 8631
4  1677 8662 8635 8633
4  1633 8662 8657 8659
4  7740 7383 8222 8383
4  1499 1629 8658 8657
4  7811 8480 8481 8859
4  7103 7811 8481 8859
4  4586 8480 4301 8859
4  4586 4299 8482 8859
4  7849 7846 7842 8696
4  8586 8894 8587 8585
4  1024 1828 1046 6241
4  8586 8861 8894 8585
4  7640 8873 8831 8832
4  4596 8689 4594 8764
4  7638 8761 8874 8905
4  1647 1639 1342 8907
4  8033 8034 7980 8909
4  8896 8897 8906 8888
4  8873 8710 8833 8832
4  8649 8818 8820 8834
4  7638 8759 8831 8760
4  7599 8636 8847 8638
4  7955 7668 8847 8720
4  6656 8034 8033 8909
4  78 1647 6658 8897
4  590 6654 6657 8866
4  7413 8451 8890 8892
4  7668 7384 8847 8782
4  7955 7599 8636 8847
4  8851 8854 8640 8846
4  7384 8782 7395 8846
4  8851 8845 8663 8846
4  1810 1480 8398 8755
4  8244 8308 7072 8605
4  7384 7698 8640 8846
4  1561 8637 8641 8854
4  7384 8243 7698 8846
4  7328 7371 8422 8706
4  8421 8715 8716 8420
4  1976 8421 1624 8380
4  1623 8716 1625 8420
4  1976 8730 8825 8421
4  1623 8716 8421 8603
4  1800 1481 1672 8400
4  1647 8907 8897 8888
4  1575 8897 8790 8888
4  7501 8092 8059 8792
4  1395 1665 1575 8790
4  926 6658 1647 8907
4  7982 8896 8906 8848
4  8895 8881 8790 8738
4  8090 7625 8789 8896
4  7625 8242 8895 8896
4  1309 8613 8511 8515
4  1609 8610 1320 8613
4  8070 8242 8896 8738
4  7736 6622 8422 8609
4  7982 8070 8896 8848
4  7917 7916 7082 8416
4  6668 7581 8612 8666
4  8467 8774 8468 8665
4  7565 8376 8467 8665
4  7565 8378 8376 8665
4  6794 8368 6793 8665
4  1567 1314 1369 8512
4  7298 7368 8734 8884
4  6324 8534 6323 8805
4  8040 8645 8036 8646
4  8734 8418 8731 8884
4  6569 6573 6575 8533
4  7298 8734 7299 8445
4  8734 8884 8731 8445
4  6573 6618 7736 8608
4  1586 1562 1549 8463
4  1306 1482 1516 8902
4  1515 1306 1516 8902
4  7982 8070 8242 8896
4  8895 8789 8896 8790
4  8264 8884 8898 8793
4  8418 8884 8794 8793
4  7481 8733 8430 8429
4  508 6927 1463 8373
4  8882 8895 8881 8789
4  8896 8738 8790 8888
4  1604 8883 8881 8791
4  943 1554 878 6709
4  1483 8750 8626 8624
4  7535 7552 8882 8789
4  7481 7422 7772 8433
4  1565 8750 8577 8626
4  8430 8434 8908 8432
4  7481 7425 7422 8430
4  1308 1667 1565 8750
4  1667 8750 8908 8432
4  1535 1667 1308 8750
4  8217 7573 7571 7572
4  8092 8789 7535 8794
4  1575 8790 1515 8738
4  1515 8738 8881 8902
4  7552 8895 8882 8789
4  8092 8090 8789 8792
4  6645 8703 8795 8704
4  7152 7573 8260 8472
4  8795 8813 8811 8704
4  4467 4472 8810 8811
4  8795 8810 8812 8811
4  7239 8592 8078 8822
4  6635 7880 8811 8704
4  8803 8802 8588 8564
4  4578 8701 8810 8841
4  6594 6707 7008 8447
4  4443 8447 7008 8704
4  4467 7009 59 8811
4  4467 4578 8813 8810
4  4497 4578 4499 8701
4  6635 6645 7880 8704
4  6645 6646 7237 8703
4  7120 7774 7119 7118
4  4443 8813 4498 8703
4  7994 7768 7198 8427
4  7640 7638 8831 8873
4  6555 8284 8309 8718
4  8759 8428 8760 8762
4  4622 4526 4620 8670
4  711 6704 7162 8579
4  1473 1597 1537 8541
4  8759 8761 8580 8762
4  7603 7768 8759 8580
4  4458 4457 8487 8488
4  6866 7249 7527 8726
4  4497 4578 8701 8813
4  4418 8726 6866 8728
4  4418 8727 4457 8489
4  1539 1666 1598 8747
4  7527 8021 8492 8493
4  7774 7800 7803 8526
4  8907 8849 8866 8909
4  8070 8739 8738 8740
4  7625 8895 8789 8896
4  1306 8881 8862 8902
4  6338 8803 8245 8587
4  1639 8888 1413 8850
4  8245 7739 6443 8381
4  8553 8554 8867 8555
4  8242 8895 8896 8738
4  1413 8738 1414 8850
4  4522 8428 8836 8820
4  7825 7603 8761 8580
4  8217 8260 7573 8474
4  7572 8474 8722 8723
4  6940 7642 7152 7530
4  8705 8376 8378 8380
4  4615 4643 8760 8764
4  7413 7414 7753 8892
4  1976 1624 1655 8380
4  7638 8759 8760 8761
4  8699 8722 8735 8547
4  7329 7710 8008 8471
4  7329 7530 7710 8471
4  1245 1284 8791 8793
4  8874 8761 8760 8764
4  4643 8874 8836 8760
4  7903 8152 8070 8617
4  1515 1604 1306 8881
4  1667 1565 8750 8577
4  6707 6647 6645 8447
4  4443 8813 8703 8704
4  4578 8701 8813 8810
4  4513 4500 8593 8597
4  7994 8759 7768 8427
4  6647 7626 6646 8446
4  8748 8900 8862 8625
4  7422 8788 7917 8433
4  8590 8703 8597 8702
4  8667 8577 8750 8626
4  8838 8576 8574 8446
4  8328 6845 7296 8711
4  8858 8886 8657 8778
4  7668 7395 7384 8782
4  1483 8750 1565 8626
4  1374 8578 8749 8621
4  7916 8578 7716 8830
4  8901 8862 8882 8895
4  7698 8243 8845 8846
4  7311 7395 7668 8782
4  7439 8721 8720 8745
4  8635 8633 8662 8661
4  1710 8386 8383 8385
4  1604 8862 1306 8881
4  8862 8882 8895 8881
4  8895 8881 8789 8790
4  7761 8454 8557 8456
4  1326 8432 8438 8787
4  7368 7533 8733 8418
4  1236 1650 1233 8459
4  1602 1586 1553 8776
4  7625 8895 7552 8789
4  8055 8897 8906 8792
4  7837 8857 8475 8633
4  1473 1385 1554 8746
4  8078 7468 7811 8859
4  4541 4500 4499 8822
4  4586 4301 4299 8859
4  1515 8881 1306 8902
4  1671 8630 1652 8708
4  8522 8845 7699 8629
4  8242 8900 8895 8739
4  8628 8630 8878 8631
4  7072 6788 8233 8556
4  7552 7487 8901 8895
4  7753 8453 8892 8893
4  8901 8862 8908 8882
4  7552 8901 8882 8895
4  1546 1321 1600 8461
4  7625 7552 7535 8789
4  7752 8776 8464 8893
4  7916 7082 8416 8411
4  8788 8577 8627 8416
4  7422 8430 8667 8433
4  8519 8620 8517 8758
4  1800 1805 1481 8398
4  8759 8580 8428 8762
4  8430 8429 8434 8431
4  8667 8788 8577 8627
4  7735 8900 8622 8625
4  4555 8644 8829 8423
4  7975 8321 8306 8423
4  4414 8765 8762 8582
4  8309 7439 7436 8721
4  7436 7439 7672 8721
4  7983 8031 8504 8542
4  7439 7598 7672 8539
4  4414 8762 4533 8582
4  1293 1296 1369 8686
4  4526 4534 8762 8763
4  8873 8904 8698 8905
4  7825 8581 7972 8582
4  4615 4534 4526 8763
4  1585 1664 8729 8371
4  8491 8880 8771 8682
4  7312 7316 8771 8768
4  7316 8769 8682 8768
4  4633 4590 8771 8682
4  8875 8855 8766 8767
4  4449 8856 8771 8767
4  7954 8720 8721 8718
4  7970 7788 7312 8875
4  4447 4563 4449 8855
4  7350 8141 8016 8562
4  6 9 4385 7471
4  7938 8675 8674 8754
4  4642 4509 8823 8798
4  4619 8770 4620 8765
4  6460 6461 7788 8553
4  758 4424 4381 8563
4  7320 8487 8560 8856
4  4415 8584 8694 8772
4  6249 6363 7453 8585
4  8769 8772 8770 8768
4  7257 8393 8528 8389
4  7312 8766 7313 8768
4  46 711 4335 8579
4  7803 8526 7800 8524
4  6338 8587 8184 8565
4  7832 8769 7313 8772
4  7925 8812 8391 8811
4  4415 4619 8584 8772
4  4415 8694 4572 8772
4  9 7472 4381 8680
4  1403 1667 8908 8432
4  7133 7569 7568 8435
4  7568 8817 8435 8815
4  4387 4385 4447 8843
4  7971 7970 8143 8843
4  4533 8582 8762 8424
4  7133 7772 7569 8437
4  8406 8599 8409 8617
4  7840 7838 8632 8631
4  8782 8660 8658 8778
4  7599 8847 8640 8638
4  8663 1499 8658 8659
4  7394 8660 8858 8661
4  7599 7698 8639 8640
4  8663 8845 8632 8846
4  7698 7699 6219 8516
4  7699 6221 6219 8520
4  7837 8289 7838 8634
4  1414 8619 1669 8614
4  8858 8657 8662 8661
4  7837 8475 8672 8634
4  1669 8614 8619 8616
4  7286 8752 7226 8615
4  7395 7840 8243 8632
4  7283 8615 8152 8617
4  7416 8890 8693 8546
4  7612 8554 8687 8867
4  4625 8867 8877 8766
4  8184 8839 8587 8589
4  1024 1828 6241 8585
4  4312 8555 8868 8549
4  7984 7908 7959 8669
4  7198 7768 7765 8427
4  7120 7774 7118 8526
4  8823 8647 8676 8798
4  1633 1710 1678 8662
4  7766 8244 8246 8674
4  7211 8818 7198 8647
4  8244 8605 8674 8798
4  1320 8610 8607 8613
4  8368 8372 8374 8665
4  7565 8705 8467 8376
4  1361 8445 6430 8442
4  1612 8419 8380 8420
4  6573 8608 7736 8607
4  8368 8374 8377 8665
4  1650 8816 8814 8436
4  1424 1376 1608 8439
4  1250 8731 8898 8445
4  1361 1608 1250 8439
4  8467 8730 8449 8376
4  1608 1375 1436 8731
4  7565 6668 8378 8665
4  7371 8612 8422 8706
4  1805 1480 1481 8398
4  8289 8290 7938 8672
4  1481 1480 1476 8869
4  7938 8756 8753 8755
4  1652 1359 1480 8869
4  7813 8672 8475 8673
4  7561 8706 7328 8707
4  8422 8717 8714 8420
4  4305 4519 4303 8648
4  8425 8427 8798 8426
4  8538 8679 8853 8678
4  7872 7473 7474 8569
4  4301 8593 4541 8859
4  4513 8598 8574 8591
4  7211 8647 7462 8650
4  7628 7213 8598 8818
4  1473 1390 1385 8742
4  4519 8649 8823 8819
4  7872 7474 7280 8569
4  6858 7140 8809 8391
4  1630 1598 1666 8747
4  1656 1498 1597 8853
4  7140 6859 7978 8137
4  4488 4332 8527 8388
4  7541 7410 7416 8546
4  1675 8642 8643 8454
4  7541 7711 7410 8546
4  6858 7925 8391 8811
4  8169 8812 8841 8392
4  4467 59 4472 8811
4  7402 8523 8393 8389
4  1313 1314 1309 8511
4  1655 1624 1612 8380
4  6668 7581 7371 8612
4  7455 7637 7456 8698
4  8169 8523 7402 8389
4  190 8840 4547 8826
4  4547 4610 4310 8827
4  7614 8553 6521 8550
4  936 585 4356 6593
4  8318 7908 7915 8685
4  971 4493 6845 8711
4  8891 8784 8546 8783
4  8868 8867 8554 8555
4  7789 8553 8867 8766
4  4447 4625 4610 8855
4  7612 8687 7789 8867
4  21 4595 4492 8696
4  22 6846 6845 8697
4  7296 7455 7985 8709
4  4443 7008 604 8704
4  7270 8552 8547 8548
4  4369 8724 8722 8723
4  7614 7271 8545 8550
4  600 8217 8216 8723
4  8216 8551 8808 8724
4  7009 6860 6858 8811
4  7237 8700 8107 8795
4  4406 8555 4312 8549
4  604 59 4467 7009
4  4332 8525 8527 8528
4  7120 8526 7118 8807
4  7257 8528 8388 8389
4  8724 8722 8552 8547
4  7572 8722 8724 8723
4  8527 8528 8393 8389
4  600 4399 4369 8723
4  8214 7254 8122 8528
4  4488 987 4332 8388
4  7978 8137 7257 8388
4  6540 6430 8265 8445
4  4461 4584 4507 8807
4  1250 8898 8265 8445
4  8111 8864 7779 8441
4  8277 6323 6324 8534
4  7784 8111 7779 8441
4  7481 8433 7772 8431
4  808 104 1339 6429
4  6539 8111 7784 8441
4  6539 6540 8111 8445
4  4501 8880 4506 8594
4  8111 7299 7779 8864
4  4457 4506 8487 8727
4  803 731 919 8824
4  8505 8572 8507 8506
4  7279 8406 8599 8405
4  7963 7816 7621 7053
4  7963 7983 6672 8031
4  7945 6654 7203 8495
4  8020 8491 7908 8685
4  4628 8487 4506 8880
4  4457 8727 8487 8489
4  6653 6657 6654 8866
4  7338 8056 7897 8496
4  1444 1446 1532 8568
4  1817 1823 8860 8802
4  1340 6654 8866 8503
4  7872 7280 7615 8568
4  7632 7053 7052 8507
4  1259 1511 1590 8500
4  8383 8876 8385 8384
4  1453 1334 1259 8497
4  8862 8881 8895 8902
4  1817 1823 1676 8860
4  7971 6460 7970 8842
4  8842 8877 8553 8875
4  6521 8553 8828 8550
4  4547 8844 4610 8827
4  1828 1046 6241 8589
4  1359 8521 1520 8869
4  6539 7784 8448 8441
4  8756 8870 8753 8755
4  8004 8040 7931 8645
4  8440 8531 8535 8533
4  1800 8398 1481 8400
4  1800 1805 8398 8443
4  7280 8568 8570 8404
4  7938 8675 8754 8755
4  1575 1665 1515 8790
4  7501 8090 8092 8792
4  7938 8233 8558 8754
4  1481 8398 1480 8869
4  1805 1810 8398 8675
4  8090 8055 8906 8792
4  8233 8443 8558 8754
4  7980 7902 7903 8740
4  7503 8756 8870 8753
4  1643 1637 1641 8502
4  1481 8399 8410 8400
4  1805 8675 8398 8754
4  1660 1641 1259 8501
4  8233 8674 8443 8754
4  8280 7971 8843 8840
4  8681 8855 8837 8767
4  4449 4590 4572 8768
4  4619 8584 8772 8765
4  7789 8867 8687 8694
4  8233 6788 8558 8443
4  7612 8553 8554 8867
4  8321 8829 8306 8423
4  4414 4415 4619 8584
4  7415 8693 8450 8688
4  7503 7938 8756 8753
4  7972 8160 8584 8772
4  7842 7637 8698 8691
4  4619 4590 4620 8770
4  1652 8870 8869 8755
4  7455 7842 7637 8698
4  7975 8306 7768 8426
4  8694 8772 8584 8695
4  8857 8879 8475 8633
4  7637 7639 7638 8905
4  7239 7592 8592 8590
4  8598 8818 8835 8834
4  8878 8634 8633 8631
4  4536 4522 4640 8834
4  7628 7212 7213 8818
4  8630 8870 1652 8753
4  4536 4640 4603 8833
4  4498 8813 4497 8702
4  7994 7603 7768 8759
4  7365 7481 7133 8429
4  4522 4598 4515 8428
4  4640 4522 4515 8836
4  8290 7938 8672 8675
4  7838 8753 7503 8629
4  7226 7221 8871 8752
4  7474 7475 7941 8865
4  8852 8516 1506 8518
4  8630 8753 8634 8629
4  1519 1630 1415 8796
4  8475 8673 8478 8476
4  8878 8630 1671 8708
4  1482 8862 8748 8902
4  8862 8908 8882 8883
4  4376 8524 4377 8565
4  8895 8881 8738 8902
4  1340 8849 1643 8502
4  7415 7867 7747 8450
4  4635 4342 4412 8653
4  8651 8450 8457 8656
4  7751 7747 7749 8450
4  7612 8223 7789 8687
4  4635 8653 4412 8656
4  1575 1515 1413 8738
4  7749 8455 8308 8829
4  1516 1482 8748 8902
4  8901 8908 8430 8882
4  7747 7998 8047 8455
4  8451 8887 8889 8642
4  8667 8901 8750 8908
4  4515 8836 8428 8760
4  7425 8901 8667 8430
4  8341 8622 8900 8739
4  1308 8862 8750 8624
4  7487 8901 8895 8900
4  1604 1535 8862 8883
4  8649 8647 8823 8819
4  4509 8425 4598 8819
4  1667 8577 8750 8432
4  4411 4414 4555 8655
4  7832 8581 8769 8772
4  4598 8425 8428 8819
4  1535 8750 1308 8862
4  7487 8901 8900 8625
4  1548 8413 8775 8454
4  1599 8787 8412 8416
4  1446 1511 8409 8405
4  7916 6721 6789 8417
4  8453 8642 8893 8454
4  1259 8500 8497 8496
4  8494 8785 8502 8599
4  7840 7838 8243 8632
4  8628 8845 8522 8629
4  7938 6788 7504 8558
4  1805 1810 1480 8398
4  1414 8614 8738 8739
4  1508 8407 8409 8616
4  8628 8852 8522 8845
4  1508 8409 8614 8616
4  1410 1508 8409 8614
4  6721 8757 8756 8399
4  1643 8849 1637 8502
4  7503 7938 7504 8756
4  1652 1480 1810 8755
4  1342 8907 1639 8849
4  6362 6443 8381 8894
4  1817 1676 2011 8860
4  8103 7453 6363 8861
4  7454 7342 7341 8824
4  1451 8101 8885 8861
4  997 7453 8101 8861
4  8245 8803 8381 8894
4  6363 8861 7453 8585
4  8057 8494 8542 8405
4  4625 4571 4319 8867
4  8116 6674 8056 8498
4  7788 8875 8553 8766
4  7788 7789 7313 8766
4  7404 7415 7751 8688
4  8653 8656 8450 8652
4  4415 8654 8694 8584
4  8057 8494 8056 8542
4  7612 7751 8223 8687
4  8090 8906 8896 8792
4  4342 4571 4412 8653
4  4583 8651 8457 8656
4  1340 590 1342 8866
4  926 6657 6658 8907
4  4502 4633 8671 8682
4  1361 1250 845 6430
4  4637 8841 8821 8822
4  7832 7313 8160 8772
4  1293 1363 8805 8513
4  1363 8513 1313 8530
4  7312 8767 8766 8768
4  4502 8671 8770 8682
4  7824 8581 8670 8669
4  8769 8770 8772 8765
4  9 758 4381 7472
4  7959 8581 7824 8669
4  7320 7312 8771 8856
4  7416 7415 7404 8693
4  4635 8653 8656 8688
4  6641 7262 7799 8579
4  8306 7749 8308 8829
4  7120 7118 7162 8807
4  8122 8529 7262 8579
4  7120 7799 7774 8526
4  8122 6641 6704 8579
4  46 4335 8122 8579
4  4488 4332 4609 8527
4  1778 8891 8601 8783
4  8791 8418 8794 8793
4  7416 7410 8890 8546
4  8600 8892 8601 8713
4  7416 7413 7415 8693
4  8810 8809 8812 8811
4  4488 4629 8809 8392
4  4639 4376 8564 8566
4  8523 8527 8567 8524
4  4639 8564 8804 8566
4  4376 4609 8524 8566
4  7880 6645 7237 8795
4  8169 8804 8523 8821
4  60 6858 7140 8809
4  8812 8809 8391 8811
4  8169 8812 8107 8841
4  4498 4497 4500 8702
4  4639 8821 4289 8566
4  7665 8524 8523 8566
4  1420 8622 8748 8623
4  8625 8627 8626 8621
4  7838 8289 7503 8753
4  8619 8863 8741 8622
4  7735 8625 8622 8621
4  7394 8383 8222 8661
4  8222 8383 8857 8661
4  926 1342 6657 8907
4  1340 1643 1641 8502
4  8341 8622 7735 8900
4  7227 8622 8871 8623
4  1342 6657 8907 8866
4  8034 7902 7980 8909
4  7226 8741 8871 8622
4  4426 4551 8644 8606
4  8047 7998 7072 8606
4  7226 8871 7227 8622
4  7279 7903 7902 8599
4  7402 7665 7800 8524
4  489 7065 814 8370
4  8198 6820 8370 8367
4  7278 7364 8089 8369
4  1340 1342 1643 8849
4  590 6657 1342 8866
4  8057 7615 7279 8404
4  8538 8573 8541 8569
4  7980 8849 7902 8740
4  7980 7903 8070 8740
4  1639 1410 1643 8849
4  8034 6657 8866 8909
4  1639 1413 1410 8850
4  1028 8089 7364 8396
4  1609 1562 1558 8610
4  1602 1548 1546 8775
4  6625 7089 8282 8462
4  7434 8646 8509 8394
4  6618 6625 6622 8608
4  8412 8787 8460 8415
4  7569 7089 6625 8458
4  1271 8397 8396 8395
4  1028 1277 1271 8396
4  6622 8282 7372 8611
4  1284 8418 8791 8793
4  7736 6618 6622 8608
4  7089 8458 8460 8462
4  8430 8583 8908 8434
4  1625 8717 8419 8420
4  1249 8264 8898 8793
4  8788 8787 8577 8416
4  7693 7298 8265 8884
4  8667 8433 8430 8432
4  1249 8898 1436 8793
4  1650 1562 1233 8459
4  1321 1326 1233 8438
4  7568 7569 6625 8458
4  1546 1600 1586 8461
4  8750 8901 8862 8908
4  1250 1608 1436 8731
4  1395 8055 81 8792
4  1395 1665 8790 8792
4  1284 8883 8791 8418
4  8053 7521 8216 7345
4  839 7521 4328 8808
4  97 4547 4328 8826
4  8560 8487 8559 8856
4  6 4385 4387 8843
4  7971 6516 8842 8840
4  1436 8418 1284 8793
4  8189 6516 8840 8826
4  7521 7344 7348 8826
4  8188 8189 6516 8840
4  97 4328 7521 8826
4  7535 8789 8418 8794
4  4387 8280 8843 8840
4  7535 8789 8882 8418
4  81 8055 8059 8792
4  1654 8729 8377 8515
4  8368 8377 8729 8515
4  8536 8641 8872 8747
4  987 8214 4332 8388
4  8536 8641 8639 8796
4  45 8122 4335 8528
4  7475 7941 8865 8537
4  8000 7703 8536 8639
4  987 45 4332 8214
4  7703 8536 8639 8796
4  7221 8536 8871 8752
4  8865 8571 8570 8569
4  4332 4335 4584 8525
4  8601 8716 8713 8903
4  1680 8716 8601 8903
4  6860 7880 7925 8811
4  1773 8601 1680 8603
4  7257 7402 7800 8393
4  8601 8890 8602 8783
4  7563 8705 7561 8707
4  489 7364 7065 8370
4  1585 1664 1657 8729
4  6819 7276 8198 8370
4  1764 1982 8664 8825
4  7710 8471 8737 8699
4  6819 8198 6820 8370
4  7533 7425 7481 8430
4  1976 8730 8421 8380
4  6575 8612 7581 8511
4  8369 8396 8371 8370
4  8825 8471 8735 8736
4  1277 8396 7364 8370
4  8290 8246 7938 8675
4  1805 8443 8786 8754
4  7118 8807 8526 8806
4  7761 6787 7070 8557
4  8674 8443 8786 8605
4  6940 8470 8465 8472
4  7530 8465 8471 8472
4  8643 8413 8410 8414
4  7072 8390 8443 8604
4  7321 8600 7410 8602
4  7563 7711 8737 8707
4  7632 7052 7635 8678
4  8152 7226 8153 8741
4  987 7140 8214 8388
4  8546 8547 8602 8783
4  8137 8169 7402 8389
4  8601 8602 8603 8783
4  7410 8600 8890 8602
4  4639 4289 4376 8566
4  8523 8524 8567 8566
4  7711 7410 8546 8602
4  7541 8699 7711 8546
4  8171 8158 7663 8804
4  8169 7665 7402 8523
4  7872 8568 8572 8569
4  4376 4609 4377 8524
4  7473 7632 7675 8678
4  7474 8538 7475 8865
4  7632 7621 7816 7053
4  1358 1399 1669 8619
4  8022 8691 8692 8905
4  1630 1666 8872 8747
4  8022 7842 7846 8691
4  4492 4595 4596 8689
4  4596 8692 8689 8764
4  7456 7638 7640 8873
4  4536 8833 4603 8574
4  4595 8904 8689 8697
4  1539 1537 8541 8747
4  8904 8764 8689 8905
4  8022 7639 7637 8905
4  7824 7832 7825 8581
4  8541 8571 8865 8569
4  4596 8668 8689 8692
4  8228 7565 8467 8468
4  7456 7637 7638 8873
4  8030 7391 8228 8468
4  8769 8772 8581 8765
4  1575 1639 1647 8888
4  1468 8449 1618 8774
4  1410 1414 8614 8850
4  7391 8372 8468 8773
4  1639 8907 8888 8849
4  8090 7982 7625 8896
4  8070 8341 8242 8739
4  7903 7283 8152 8617
4  1463 8374 8373 8773
4  7663 8800 7661 8801
4  8860 8779 8780 8886
4  8033 8906 6658 8909
4  7552 8242 7487 8895
4  1710 2011 8386 8385
4  8663 8658 8854 8846
4  7456 7640 7458 8832
4  1710 8386 8662 8383
4  4356 4603 4480 8575
4  4541 8593 4500 8822
4  4356 4361 4603 8575
4  7458 7628 7626 8596
4  7740 7394 8858 8383
4  7227 8871 8620 8623
4  1353 8623 8748 8624
4  8668 8692 8670 8669
4  1372 8626 8577 8578
4  4598 4533 4534 8428
4  7316 7313 7832 8769
4  1374 1353 1483 8626
4  7603 7975 7768 8580
4  4536 8596 8835 8834
4  7749 8047 8308 8455
4  7825 7972 7975 8582
4  7665 8804 8564 8566
4  7803 8839 8526 8565
4  4629 8527 8567 8392
4  8451 8656 8450 8693
4  7541 7416 7271 8546
4  7867 7753 7761 8453
4  4332 8527 8388 8528
4  8138 8893 8464 8454
4  1675 1601 8642 8454
4  4488 8392 8809 8389
4  731 6385 6864 8824
4  4584 8526 8806 8524
4  4332 45 4335 8528
4  919 731 6864 8824
4  7402 8524 7800 8393
4  7402 8523 7665 8524
4  8847 8744 8782 8658
4  193 8175 8133 8485
4  1629 8781 8658 8657
4  8851 8640 8845 8846
4  1342 8866 8907 8849
4  1293 934 1296 8686
4  1660 8503 1641 8501
4  7946 8866 8495 8785
4  8228 7391 7392 8468
4  8494 8408 8502 8496
4  1296 1271 8401 8397
4  8494 8502 8408 8599
4  1643 1410 1637 8849
4  8497 8499 8498 8824
4  6654 7203 8495 8503
4  934 6323 7931 8686
4  1028 1271 8089 8396
4  8034 7946 7902 8866
4  6539 6429 6430 8441
4  4604 4603 4640 8833
4  4594 4643 4615 8764
4  7849 6846 8696 8697
4  7638 8831 8873 8874
4  8123 8016 8021 8561
4  4640 8836 8874 8833
4  8021 8016 7320 8560
4  7908 8682 8669 8684
4  6285 6310 7246 8725
4  8594 8668 8671 8684
4  4332 4335 8525 8528
4  7799 8529 7800 8526
4  4335 4507 8525 8529
4  711 4507 4335 8579
4  7445 7271 7614 8550
4  7416 7404 8545 8693
4  4424 8751 4457 8488
4  843 6285 661 8725
4  4551 4411 8829 8652
4  4501 8880 8594 8671
4  4501 4633 4506 8880
4  8681 8837 8855 8843
4  8318 8020 7908 8685
4  1511 1637 8409 8408
4  7280 8570 7283 8404
4  4458 4457 4628 8487
4  1413 1516 1414 8738
4  8487 8880 8491 8727
4  6516 6521 6460 8828
4  1410 8614 8409 8850
4  4387 4447 4610 8844
4  7279 7902 7897 8599
4  8681 8837 8856 8767
4  8619 8614 8741 8615
4  1410 1414 1508 8614
4  1259 1641 8408 8501
4  878 1554 1502 6185
4  4289 8821 8567 8566
4  6646 7592 8590 8591
4  8092 8794 8059 8792
4  7665 8804 7660 8564
4  1647 6658 8897 8907
4  8449 8730 8465 8664
4  7395 7394 7840 8661
4  1634 8380 1612 8379
4  7529 8467 7531 8465
4  6875 8449 8469 8466
4  8876 8477 8508 8384
4  8228 8468 8467 8466
4  6926 6927 8030 8773
4  7311 7393 8858 8886
4  7531 8705 7563 8737
4  7311 8858 8660 8778
4  1382 1381 8486 8781
4  1420 1399 1358 8619
4  6362 6443 6414 8381
4  8467 8376 8449 8774
4  4629 8810 8809 8392
4  8381 8861 8885 8483
4  8858 8383 8386 8382
4  8071 8375 8073 8366
4  8523 8392 8527 8389
4  6858 7925 6859 8391
4  1462 814 8073 8370
4  6805 6806 7391 8373
4  4472 6858 60 8809
4  6859 7925 8137 8391
4  1414 8738 8614 8850
4  7982 7980 8070 8848
4  4472 60 4488 8809
4  7735 8153 7227 8622
4  1414 8738 1516 8739
4  8406 8409 8616 8617
4  1420 8863 8619 8622
4  8242 8895 8738 8739
4  7916 8578 8417 8416
4  1482 8748 8862 8624
4  1308 1565 1483 8750
4  7772 7917 7773 8787
4  8430 8733 8583 8429
4  8667 8430 8908 8432
4  7772 8437 8433 8787
4  1410 1413 1414 8850
4  7488 8667 8901 8625
4  7917 8433 8788 8787
4  6787 6788 7070 8410
4  8143 7970 8141 8837
4  7306 7842 7455 8697
4  7221 8871 8536 8796
4  7846 8691 7842 8696
4  4492 4595 8689 8696
4  4493 6845 8711 8697
4  7432 6793 8368 8509
4  1800 8443 8398 8400
4  1361 1339 1424 8442
4  1296 1567 1369 8401
4  8002 8004 8040 7931
4  1293 6323 934 8686
4  8000 7599 8639 8638
4  1271 1585 1567 8395
4  6538 7784 7873 8448
4  6820 8366 8370 8367
4  726 1296 7931 8397
4  1271 1277 1585 8395
4  8636 8745 8540 8539
4  1601 8889 8642 8893
4  1415 8872 1666 8618
4  7254 7257 7262 8528
4  8637 8641 8638 8540
4  7140 7978 8214 8388
4  6858 6860 6859 7925
4  6858 6859 7140 8391
4  7565 7561 8705 8378
4  7009 6635 6860 8811
4  4467 4472 4578 8810
4  604 7009 4467 8704
4  8137 7925 8169 8391
4  8730 8737 8825 8421
4  1314 8511 8512 8515
4  1982 1618 8449 8730
4  8557 8413 8643 8454
4  1369 1313 1363 8513
4  4447 4610 8844 8855
4  8530 8531 8533 8743
4  4385 8843 7471 8680
4  1609 1593 8419 8613
4  7789 8160 7313 8694
4  8016 8562 8560 8561
4  4385 4563 4447 8681
4  8877 8875 8855 8766
4  8513 8512 8511 8510
4  6793 8665 8368 8666
4  6575 7736 8612 8607
4  4385 4381 4563 8681
4  1482 1308 1483 8624
4  8729 8512 8509 8515
4  4629 8821 8841 8392
4  8523 8567 8821 8566
4  1358 8619 1414 8748
4  7640 7994 7212 8831
4  7994 8427 7198 8820
4  4598 4534 4515 8428
4  4533 4534 8428 8762
4  7998 7761 7070 8557
4  6221 7504 6721 8756
4  7703 8796 8639 8516
4  8753 8708 8672 8675
4  7639 7603 7638 8761
4  8756 8869 8558 8399
4  1481 8869 1476 8399
4  7752 8138 7753 8893
4  8600 8601 8890 8602
4  7410 7414 7413 8890
4  1549 1562 8610 8463
4  1633 1678 1499 8657
4  7753 8138 8453 8893
4  7103 8508 8477 8384
4  1544 8413 8412 8460
4  8222 8187 7837 8857
4  4303 8593 4301 8480
4  8187 8481 7813 8476
4  8187 7813 7837 8475
4  8282 7089 7752 8776
4  7089 7773 7091 8415
4  7569 8458 8437 8460
4  8464 8413 8775 8460
4  1419 8863 8620 8796
4  7312 8875 8766 8767
4  8619 8748 8622 8739
4  8871 8863 8872 8796
4  7894 8796 8516 8517
4  4625 4449 4572 8766
4  7313 8694 8160 8772
4  7313 8766 8694 8772
4  7972 8321 7975 8582
4  8321 7749 8306 8829
4  4414 8584 8423 8655
4  8872 8747 8571 8752
4  7941 8752 8865 8537
4  1667 1326 1599 8432
4  1321 1599 1326 8787
4  1399 8619 8863 8618
4  8619 8741 8863 8618
4  1353 8621 8623 8624
4  8741 8863 8871 8622
4  7226 8153 8741 8622
4  1321 8438 8459 8460
4  8578 8402 8417 8403
4  7772 7773 7569 8437
4  1544 1599 1321 8412
4  7089 7091 8464 8415
4  7813 8290 8289 8672
4  8290 8676 8675 8673
4  8047 8308 8455 8606
4  8630 8899 1652 8870
4  7227 7894 7718 8620
4  1419 1353 8749 8623
4  7227 8871 7894 8620
4  6875 8664 8449 8466
4  7462 8014 7813 8479
4  1693 6875 6940 8664
4  7454 7341 6444 8824
4  8008 8471 8699 8722
4  8471 8473 8735 8722
4  6673 6385 6386 8683
4  8878 8708 1671 8475
4  1710 8383 8662 8876
4  8187 7837 8857 8475
4  8078 7811 7103 8859
4  7103 8187 7383 8477
4  332 1455 334 8031
4  4299 8482 8859 8508
4  1482 8862 1308 8624
4  8750 8862 8901 8625
4  7902 7903 8740 8599
4  8871 8863 8620 8623
4  1419 1420 1353 8623
4  7422 8788 8667 8627
4  6656 6653 8034 6657
4  6656 6657 8034 8909
4  8242 8341 7487 8900
4  1420 8619 8748 8622
4  8896 8906 8897 8792
4  78 1395 1647 8897
4  8341 8153 8622 8739
4  81 1011 1245 8059
4  1395 81 1245 8792
4  808 1361 6430 8442
4  7873 7806 8534 8448
4  8222 8383 7383 8857
4  7395 8660 8661 8632
4  1678 8662 8386 8657
4  8635 8628 8878 8631
4  7837 8634 7838 8631
4  7531 8467 8705 8465
4  6538 6324 6429 8448
4  7226 7221 7227 8871
4  499 4421 4354 8725
4  661 993 4421 6305
4  1655 8376 8730 8380
4  7252 8021 7524 8493
4  154 499 4354 8202
4  405 6926 6875 8469
4  6875 6940 8664 8466
4  405 1468 6926 8469
4  1618 8449 8376 8774
4  7799 8807 7162 8579
4  4461 4507 24 8807
4  711 24 4507 7162
4  1616 1618 8376 8774
4  7416 8693 8545 8546
4  7959 8769 7832 8581
4  8890 8891 8546 8783
4  4339 8784 8547 8549
4  1982 1655 1618 8730
4  8228 7392 7565 8468
4  59 6858 4472 8811
4  7660 7663 7661 8801
4  4467 8811 8813 8704
4  8093 7691 8884 8794
4  8107 7707 8171 8841
4  8093 8059 8092 8794
4  8169 8392 8523 8389
4  4447 8681 4563 8855
4  4447 4449 4625 8855
4  6658 8906 8055 8897
4  4449 8766 8855 8767
4  7971 8842 8843 8840
4  1011 8059 8264 8793
4  8264 8884 8265 8898
4  8141 7312 7320 8856
4  1245 8793 8791 8792
4  1011 8264 1249 8793
4  4628 4633 4589 8880
4  4458 8559 8487 8856
4  8522 1359 8899 8520
4  4628 4506 4633 8880
4  4613 4502 4501 8671
4  7698 7699 8516 8845
4  8852 1506 8522 8518
4  7838 8634 8753 8629
4  7894 8620 8796 8517
4  8519 8517 8521 8758
4  7699 8516 8845 8518
4  1522 8516 8796 8517
4  8522 1506 1359 8521
4  1379 8521 8517 8758
4  7894 8519 7505 8620
4  1436 1279 1284 8883
4  7691 7535 7368 8418
4  7663 8804 8800 8801
4  1480 8869 8398 8755
4  6338 7660 8245 8803
4  6363 8245 6443 8894
4  8852 8522 8845 8518
4  1359 8869 8870 8520
4  458 7203 6654 8503
4  1660 7203 458 8503
4  8057 7279 8056 8494
4  7894 6219 7505 8519
4  7338 7897 7946 8495
4  1590 1446 8505 8544
4  1476 8757 1378 8402
4  1378 8402 8578 8403
4  7505 6221 6721 8757
4  6221 8757 8519 8520
4  1759 1468 405 8469
4  1463 1616 1664 8374
4  1976 8730 1982 8825
4  7573 7329 7572 8474
4  8890 8891 8693 8546
4  1593 1320 1612 8613
4  8808 8551 8555 8549
4  8280 7971 6998 8843
4  9 4381 4385 8680
4  6 7471 4385 8843
4  9 4385 7471 8680
4  8698 8904 8711 8697
4  8904 8689 8691 8905
4  6845 7455 7296 8711
4  7072 7070 6788 8556
4  971 8328 4480 8711
4  7710 8737 7711 8699
4  8008 8471 7710 8699
4  8328 7296 7985 8709
4  6593 6753 6755 8285
4  8372 8373 8374 8773
4  7565 8467 8468 8665
4  6926 8469 8468 8466
4  8284 7861 8287 8484
4  7529 8228 8467 8466
4  6794 7392 8372 8665
4  1662 8860 1676 8780
4  8277 6324 6538 8534
4  1451 997 8101 8861
4  8103 8101 7453 8861
4  8386 8886 8780 8657
4  1381 1662 1676 8780
4  1380 1451 8175 8885
4  6362 8101 8861 8483
4  193 8133 1502 8485
4  1451 8101 8175 8885
4  6461 7612 7789 8553
4  1336 1363 1583 8532
4  6539 6538 6429 8448
4  7612 7789 8553 8867
4  4583 8651 8656 8652
4  7972 8765 8584 8582
4  1340 6654 590 8866
4  4406 4310 4312 8555
4  8091 6658 8033 8906
4  1340 8866 1342 8849
4  4312 4319 8868 8555
4  8091 6656 8033 6658
4  1245 8791 1665 8792
4  8653 8868 8687 8688
4  6656 8033 6658 8909
4  1395 1575 1647 8897
4  1340 8866 8849 8502
4  7612 8554 7404 8688
4  8738 8850 8740 8617
4  7902 8866 8849 8909
4  7350 8562 8123 8563
4  7612 7404 7751 8688
4  4342 4319 4571 8867
4  154 4354 4424 8751
4  6668 7371 8378 8612
4  7350 8143 8141 8837
4  6998 8143 7471 8843
4  7350 8016 8123 8562
4  6787 8557 8413 8410
4  1567 8512 8401 8395
4  508 1464 8071 8373
4  7959 7320 7316 8682
4  8141 8560 8562 8856
4  646 8071 1464 8375
4  4457 8751 8489 8488
4  4424 4457 4458 8488
4  8016 8141 7320 8560
4  4563 4589 4449 8856
4  4628 4589 8487 8880
4  6927 6805 7391 8373
4  4613 4596 4622 8668
4  4563 8681 8559 8856
4  4547 4387 4610 8844
4  1306 1308 1482 8862
4  1535 1308 1306 8862
4  8748 8902 8900 8739
4  1654 8377 1309 8515
4  1306 8862 1482 8902
4  7089 8138 7752 8464
4  7959 7316 7832 8769
4  7082 6787 7091 8411
4  7089 7091 8138 8464
4  7070 8556 8390 8400
4  6721 8757 8399 8402
4  8401 8512 8394 8395
4  8014 8647 8676 8479
4  6672 7983 6674 6386
4  6673 8116 7454 6385
4  1252 1660 1259 8501
4  7392 8468 8372 8665
4  7321 8600 8602 8707
4  7278 7434 8369 8397
4  7278 7434 8198 8369
4  7276 7278 8198 7364
4  499 661 4421 8725
4  7321 7414 7410 8600
4  7711 7321 8602 8707
4  1314 8512 1654 8515
4  6793 6668 8665 8666
4  8716 8714 8717 8420
4  1623 1625 1624 8420
4  7563 7328 7321 8707
4  1561 8637 1390 8540
4  1419 1415 8863 8796
4  8637 8742 8540 8745
4  1385 1390 8637 8742
4  4421 4418 8489 8726
4  7915 8685 7908 8684
4  7249 7524 7527 8493
4  7966 7986 7544 8595
4  8021 8493 8561 8488
4  7246 7252 7524 8725
4  7986 7915 7846 8690
4  7270 8008 7541 8547
4  4328 4310 4406 8808
4  4479 8668 8594 8595
4  7907 8690 7846 8696
4  8152 8615 8741 8617
4  7971 8842 7970 8843
4  1509 8618 8570 8616
4  8409 8614 8616 8617
4  7699 7503 6221 8520
4  8519 8521 8517 8518
4  7505 8519 6221 8757
4  8187 8477 8481 8476
4  8851 8641 1522 8516
4  1810 8675 8753 8755
4  1420 1399 8619 8863
4  1662 2011 1676 8860
4  8287 6414 7311 8779
4  7226 8871 8741 8752
4  1629 1662 8781 8657
4  1618 1655 1634 8376
4  7226 7227 8153 8622
4  8664 8473 8471 8470
4  7226 8752 8741 8615
4  1468 1618 1616 8774
4  1532 1446 1508 8407
4  1616 1654 8374 8377
4  6721 6788 6789 8399
4  1481 1476 1477 8399
4  1414 8619 8614 8739
4  1672 1477 1673 8414
4  8558 8399 8398 8400
4  8497 8498 8542 8683
4  7283 8406 8616 8617
4  7279 7283 7903 8406
4  8056 7279 7897 8494
4  8619 8622 8741 8739
4  1516 8902 8748 8739
4  1420 8619 1358 8748
4  934 7931 1296 8686
4  46 4335 45 8122
4  8341 8153 7735 8622
4  8495 8494 8502 8496
4  8122 7254 7262 8528
4  46 999 711 8579
4  1464 1664 1585 8371
4  8198 8369 7432 8367
4  8116 8056 7342 8498
4  1664 1654 1657 8729
4  6926 8030 8228 8468
4  8495 8501 8499 8496
4  7203 8499 8495 8501
4  1252 8128 742 8501
4  8406 8407 8409 8405
4  1252 742 1660 8501
4  8523 8527 8524 8393
4  6927 7391 8030 8773
4  8022 7984 7824 8692
4  4613 8594 8668 8671
4  8022 7846 7984 8690
4  4479 4613 4501 8594
4  7257 8137 7402 8389
4  6418 6338 8245 8587
4  4572 8772 8766 8768
4  4637 4629 4289 8821
4  6794 6793 7392 8665
4  8523 8567 8527 8392
4  7434 7433 7432 8509
4  4289 8567 4609 8566
4  7391 6794 7392 8372
4  726 7931 8089 8397
4  1616 1618 1634 8376
4  7565 8468 7392 8665
4  8699 8602 8546 8547
4  7572 8008 8552 8722
4  6793 6575 7581 8511
4  4369 8474 8217 8723
4  1509 1669 1399 8618
4  8465 8664 8471 8470
4  1768 1976 1764 8825
4  1358 1516 1482 8748
4  1666 1509 1399 8618
4  7710 7563 7711 8737
4  1536 8663 1499 8658
4  8664 8825 8471 8473
4  1508 8614 1669 8616
4  7286 7941 7226 8752
4  1656 8853 7052 8507
4  1410 1508 1637 8409
4  4589 4590 4449 8771
4  7970 8855 8875 8767
4  4447 8681 8855 8843
4  8619 8618 8616 8615
4  8141 7970 7312 8856
4  7312 7313 7316 8768
4  7320 7312 7316 8771
4  8760 8764 8761 8763
4  7475 8865 8538 8537
4  8538 8537 8541 8539
4  8653 8687 8694 8654
4  7439 8721 8745 8539
4  1598 1537 8747 8540
4  8551 8555 8549 8550
4  8541 8677 8742 8679
4  1455 8505 8504 8543
4  8705 8421 8380 8706
4  1444 1498 8507 8568
4  8505 8568 8572 8544
4  4338 4339 4312 8784
4  4635 4338 4342 8688
4  6788 8558 8443 8400
4  6721 8399 6789 8417
4  8899 1359 1652 8870
4  8620 8578 8749 8758
4  7473 8573 8538 8569
4  8031 8543 8504 8542
4  735 6386 6385 8683
4  7454 6864 6385 8824
4  6386 8543 8542 8683
4  1489 6709 943 6292
4  8636 8847 8637 8744
4  332 1453 1455 8543
4  8572 8568 8507 8569
4  7963 7621 8504 8506
4  81 8059 1245 8792
4  1395 8897 8055 8792
4  1473 1554 8679 8746
4  1403 8908 8583 8434
4  8090 8896 8789 8792
4  7501 8091 8090 8055
4  7436 8679 6709 8746
4  8779 8780 8484 8885
4  936 4480 8328 8712
4  1489 1554 943 6709
4  1561 1390 1598 8540
4  4399 4404 4369 8724
4  7270 7271 7445 8548
4  7270 7541 7271 8548
4  7344 7345 7445 8551
4  8636 8637 8540 8745
4  4310 4610 4319 8877
4  7445 7614 6521 8550
4  7445 8550 8551 8548
4  7521 8551 7344 8826
4  1489 6292 1656 8853
4  7752 8892 8713 8893
4  1597 1539 1537 8541
4  8440 8532 8531 8533
4  7404 8554 8545 8688
4  8737 8471 8825 8736
4  1489 1554 6709 8679
4  4339 4404 4406 8549
4  8868 8554 8784 8549
4  8008 8699 7541 8547
4  7345 7445 8551 8552
4  7439 7955 7598 8636
4  7598 8638 8000 8540
4  7127 8429 8436 8732
4  60 8809 7140 8388
4  1336 6324 344 8805
4  1375 1376 1236 8436
4  1375 1403 1279 8583
4  7552 7487 7425 8901
4  4461 4377 4584 8806
4  8169 8171 8804 8821
4  7665 8171 7663 8804
4  4472 4629 4578 8810
4  7665 8523 8804 8566
4  4488 4609 4629 8527
4  7344 7445 6521 8551
4  4338 4312 4342 8868
4  1604 1535 1306 8862
4  7521 7345 7344 8551
4  4319 8877 8867 8555
4  4502 4622 4620 8770
4  1604 1279 1535 8883
4  8769 8671 8669 8682
4  7365 7533 7481 8733
4  7959 7832 7824 8581
4  7874 6569 8036 8514
4  8672 8675 8478 8673
4  7699 7838 7503 8629
4  7972 8581 8772 8765
4  7813 8014 8290 8673
4  8246 8233 7938 8674
4  8289 8672 8753 8634
4  8708 8672 8475 8634
4  7434 8040 7433 8646
4  1652 8753 1810 8708
4  1671 1652 1810 8708
4  4501 4633 8880 8671
4  7915 7984 8690 8684
4  2011 8860 8386 8385
4  808 1339 1361 8442
4  8864 8440 8439 8816
4  7739 7661 7740 8387
4  7739 7740 7393 8382
4  6539 8445 8111 8441
4  1339 1583 8440 8777
4  1339 1583 1424 8440
4  1710 1817 2011 8385
4  7986 7849 7907 7846
4  8383 8477 8876 8384
4  4289 4629 4609 8567
4  742 8128 7203 8501
4  742 7203 1660 8501
4  4377 4609 4584 8524
4  803 919 6864 8824
4  803 8128 1252 8824
4  8169 8171 7665 8804
4  1446 8407 8544 8405
4  7849 7306 6846 8697
4  332 8031 6386 8543
4  8022 8691 7846 8690
4  878 1554 6185 6709
4  731 1334 6385 8824
4  1372 8577 1599 8403
4  7339 7945 7203 8495
4  661 6285 6305 8725
4  4421 6305 993 8726
4  7628 7213 7592 8598
4  7474 8538 8865 8569
4  334 7053 8031 8506
4  7212 7211 7213 8818
4  7872 7615 7621 8572
4  8836 8428 8759 8820
4  4303 8835 8593 8650
4  1532 1508 1509 8616
4  7475 7598 8000 8537
4  8538 8853 8573 8678
4  4586 4303 4301 8480
4  7280 7474 7286 8570
4  1489 8853 1597 8679
4  1498 1532 1539 8569
4  1446 1511 1637 8409
4  1641 1637 8408 8502
4  1296 1271 1567 8401
4  1446 1637 1508 8409
4  7286 7283 8570 8615
4  7468 7462 7811 8480
4  8541 8571 8747 8537
4  1539 1532 1509 8569
4  4301 8480 8593 8859
4  4305 4303 4586 8648
4  6292 8853 8679 8678
4  1660 7203 8503 8501
4  7213 7462 7468 8650
4  8000 8639 8536 8638
4  8406 8407 8570 8616
4  6250 6418 6241 8589
4  1600 8459 8463 8461
4  4354 8489 8751 8725
4  4461 8807 7118 8806
4  4424 4354 4457 8751
4  8409 8408 8502 8599
4  758 154 4424 8118
4  7472 7350 7352 8563
4  7986 7846 7907 8690
4  8123 8562 8561 8563
4  7984 7824 8692 8669
4  7966 8318 7915 8685
4  7140 6859 8137 8391
4  6865 7966 7544 8595
4  8685 8595 8594 8684
4  8022 8690 7984 8692
4  1462 1585 1277 8371
4  1462 8371 1277 8370
4  4444 444 6865 8728
4  4444 8727 4418 8728
4  444 4418 6866 8728
4  7680 6866 7527 8728
4  1426 8816 8531 8743
4  1646 1320 1558 8743
4  332 1455 8031 8543
4  332 6386 1453 8543
4  646 8073 8071 8375
4  6807 6820 6806 8366
4  7454 8116 7342 8824
4  1585 8371 8729 8394
4  8378 8377 8666 8379
4  6444 7341 6864 8824
4  1677 8878 1671 8475
4  7946 8495 7897 8785
4  6793 8036 6575 8510
4  6323 8805 8534 8645
4  6323 8805 8645 8686
4  7779 8440 8448 8441
4  8662 8633 8857 8661
4  7784 7806 7873 8448
4  1334 8497 6385 8824
4  7257 7800 7262 8529
4  7383 8187 8857 8477
4  8809 8392 8391 8389
4  8662 8876 8383 8857
4  7140 8391 8137 8388
4  1010 4444 444 6865
4  7680 7527 8318 8728
4  7915 8690 8595 8684
4  4594 4604 8874 8904
4  4604 4640 8874 8833
4  1609 1593 1549 8419
4  4361 4498 8597 8576
4  1609 1549 1562 8610
4  7985 7456 7458 8709
4  7341 8499 8128 8824
4  8285 7458 7626 8838
4  8419 8612 8422 8609
4  8608 8611 8610 8458
4  1562 8463 8459 8814
4  1424 8439 8440 8816
4  4578 8810 4629 8841
4  7925 8107 8169 8812
4  4578 4499 8701 8841
4  8610 8607 8613 8609
4  7371 8378 8612 8706
4  8600 8601 8716 8713
4  7239 8700 8592 8822
4  1624 1612 8380 8420
4  4467 4578 4497 8813
4  1553 1586 1549 8463
4  1574 1384 8744 8854
4  8538 8541 8865 8569
4  7370 8713 8715 8714
4  8284 8287 7954 8484
4  1598 1390 1537 8540
4  1380 1502 1382 8486
4  7638 7603 7994 8759
4  7212 7994 7198 8820
4  6658 8906 8907 8909
4  1259 1641 1511 8408
4  726 1271 1296 8397
4  7212 8831 7994 8820
4  6673 8116 6385 8683
4  1252 1259 1334 8497
4  735 731 1334 6385
4  8558 8398 8443 8400
4  7413 7753 7867 8451
4  1011 142 1249 8264
4  1245 8059 1011 8793
4  6788 8410 8399 8400
4  1245 8059 8793 8792
4  8092 7625 7535 8789
4  7916 6789 7082 8411
4  4310 4319 4312 8555
4  7416 8890 7413 8693
4  1582 8412 1544 8414
4  1477 1582 1673 8414
4  8522 8521 1359 8520
4  8899 8520 8870 8629
4  8630 8899 8870 8629
4  8628 8899 8630 8629
4  7503 7504 6221 8756
4  1759 1618 1468 8449
4  1468 404 6926 8773
4  7660 7661 7739 8387
4  7661 8801 8800 8384
4  334 1530 412 7053
4  6443 7739 7393 8381
4  1455 1590 1444 8505
4  6674 8542 8498 8683
4  1444 1590 1446 8505
4  7474 8865 8570 8569
4  334 1455 1530 8506
4  8387 8799 8801 8384
4  1530 8507 7053 8506
4  6674 8057 8056 8542
4  7252 8493 7524 8725
4  7283 8616 8570 8615
4  8245 7660 7739 8803
4  1455 8504 8031 8543
4  1590 8505 8543 8544
4  1508 1414 1669 8614
4  8747 8571 8752 8537
4  1666 8571 1509 8618
4  7286 8152 7283 8615
4  4418 8727 8489 8726
4  154 8202 4354 8751
4  726 1028 1271 8089
4  7501 8055 8090 8792
4  6668 8378 8665 8666
4  7372 8422 8611 8714
4  1426 1558 1650 8814
4  4493 4604 4594 8904
4  7768 8428 8759 8580
4  4643 4515 4534 8760
4  6760 7799 7120 7162
4  7638 8831 8874 8760
4  997 1674 7453 8861
4  7393 8779 8381 8886
4  8103 6362 8101 8861
4  6418 8587 8894 8585
4  7065 7364 7276 8370
4  6806 6820 7432 8367
4  1674 8586 1828 8585
4  8635 8663 8628 8632
4  8628 8845 8629 8631
4  7278 8002 7434 8397
4  8002 8040 7434 8397
4  7699 8845 7838 8629
4  6305 7249 6866 8726
4  7439 7955 8636 8720
4  8309 7954 7439 8721
4  1385 8746 8742 8745
4  8401 8509 8512 8510
4  8409 8502 8849 8599
4  8831 8759 8836 8760
4  4536 8835 4537 8834
4  4536 8833 8596 8834
4  4643 4640 4515 8836
4  7257 8529 8528 8393
4  7119 6244 7118 8839
4  6653 8034 6657 8866
4  7339 7342 7338 8499
4  7799 7800 7774 8526
4  7718 7734 8627 8578
4  6721 7504 6788 8399
4  7211 8014 7462 8647
4  4434 4443 4498 8703
4  6755 6647 6707 8447
4  8709 8575 8838 8712
4  7471 7470 7472 8680
4  6998 7470 7471 8143
4  4609 8567 8527 8524
4  4502 4620 4590 8770
4  4502 4590 4633 8682
4  7984 7959 7824 8669
4  4572 8694 8766 8772
4  1646 1558 1426 8743
4  8761 8581 8580 8762
4  7779 8864 8817 8535
4  6573 7807 6618 8535
4  1369 8686 8401 8513
4  1508 1669 1509 8616
4  1363 1646 1583 8531
4  1353 1358 1482 8748
4  1358 1414 1516 8748
4  7779 7807 7806 8535
4  6618 8608 8535 8815
4  1666 8872 8747 8571
4  7779 7806 8440 8535
4  7640 7638 7994 8831
4  1236 8459 1233 8438
4  4604 4640 4643 8874
4  1403 8908 8434 8432
4  7533 7425 8430 8882
4  7527 8493 8492 8726
4  7867 7998 7747 8452
4  8175 8885 8101 8483
4  6561 7861 8175 8483
4  1793 1800 1672 8444
4  1602 8775 8776 8893
4  735 1453 6386 8683
4  1451 1676 1674 8861
4  6362 8381 6414 8483
4  6219 6221 7505 8519
4  7894 8516 8519 8517
4  7505 7716 8620 8758
4  1028 7364 1277 8396
4  1476 1520 1378 8757
4  7278 8198 7364 8369
4  7747 8455 8450 8452
4  104 6324 1336 8777
4  344 934 1293 6323
4  1271 8089 8396 8397
4  6324 8534 8805 8777
4  7415 7413 7867 8451
4  1339 1336 1583 8777
4  1710 8386 1678 8662
4  1597 8853 1498 8573
4  7660 8564 8804 8801
4  8853 8507 8573 8678
4  7941 8536 7221 8752
4  7872 7632 7473 8678
4  1656 1498 8853 8507
4  1455 1444 1530 8505
4  1530 1444 1498 8507
4  412 1656 7052 8507
4  1662 8386 2011 8860
4  4639 4637 4289 8821
4  8169 8821 8523 8392
4  1415 1399 1420 8863
4  4467 7009 8811 8704
4  8000 7703 7221 8536
4  7803 7800 7665 8524
4  8871 8620 8863 8796
4  1420 8748 1353 8623
4  6338 7803 7665 8565
4  6338 8184 7803 8565
4  4424 8118 8751 8563
4  7221 7894 8871 8796
4  6285 7246 6305 8725
4  499 4354 8202 8725
4  444 4418 993 6866
4  6285 6541 6310 8725
4  6305 7524 7249 8493
4  4421 4418 4457 8489
4  661 6305 4421 8725
4  6305 7246 7524 8725
4  6541 7246 6310 8725
4  6305 7246 7249 7524
4  7252 8561 8493 8725
4  8118 6543 8561 8563
4  4421 993 4418 8726
4  8350 8910 8911 6244
4  6244 8806 8910 8911
4  8912 8911 8910 8806
4  8911 8912 4662 8806
4  8806 4461 8912 4662
4  4663 4662 8912 4461
4  8350 8911 8348 6244
4  8911 8806 8348 6244
4  8348 8806 7118 6244
4  8911 4662 8348 8806
4  4662 4461 8348 8806
4  8348 4461 7118 8806
4  1045 1681 8350 1046
4  1046 6244 1681 8350
4  8910 8350 1681 6244
4  7118 24 4461 8913
4  4662 1042 8348 8913
4  8348 1042 7118 8913
4  24 7118 1042 8913
4  1042 4662 24 8913
4  4461 24 4662 8913
4  4662 8348 4461 8913
4  7118 4461 8348 8913
4  8914 8353 4674 8260
4  8260 535 8353 4674
4  1082 4674 8353 535
4  8353 8915 8355 8260
4  8915 8470 8355 8260
4  8355 8470 6940 8260
4  1695 1694 8916 1693
4  1693 8470 1694 8916
4  8915 8916 1694 8470
4  1694 1077 8355 1693
4  1077 1079 8355 1693
4  8355 1079 6940 1693
4  8916 8915 8914 8470
4  8470 8260 8915 8914
4  8353 8914 8915 8260
4  8915 1694 8355 8470
4  1694 1693 8355 8470
4  8355 1693 6940 8470
4  8916 8917 8918 8470
4  8917 8474 8918 8470
4  8918 8474 8473 8470
4  8919 8918 4747 8473
4  8473 4369 8918 4747
4  4744 4747 8918 4369
4  8917 4744 8918 8474
4  4744 4369 8918 8474
4  8918 4369 8473 8474
4  8917 4674 4744 8474
4  4674 535 4369 8474
4  4744 4674 4369 8474
4  1766 1765 8919 1764
4  1764 8473 1765 8919
4  8918 8919 1765 8473
4  1695 8916 8918 1693
4  8916 8470 8918 1693
4  8918 8470 8473 1693
4  8917 8914 4674 8474
4  8914 8260 4674 8474
4  4674 8260 535 8474
4  8916 8914 8917 8470
4  8914 8260 8474 8470
4  8917 8914 8474 8470
4  8473 1693 1764 8920
4  1765 1695 8918 8920
4  8918 1695 1693 8920
4  1693 8473 8918 8920
4  1695 1765 1764 8920
4  1764 1693 1695 8920
4  1765 8918 8473 8920
4  8473 1764 1765 8920
4  8921 8922 8919 8722
4  8922 8735 8919 8722
4  8919 8735 8473 8722
4  1766 8919 8923 1764
4  8919 8473 8923 1764
4  8923 8473 8825 1764
4  8921 8919 4747 8722
4  8919 8473 4747 8722
4  4747 8473 4369 8722
4  1770 1766 8923 1768
4  1766 1764 8923 1768
4  8923 1764 8825 1768
4  8921 4747 4750 8722
4  4747 4369 4750 8722
4  4750 4369 4404 8722
4  8921 4750 8922 8722
4  4750 4404 8922 8722
4  8922 4404 8735 8722
4  8922 8923 8919 8735
4  8923 8825 8473 8735
4  8919 8923 8473 8735
4  8922 1770 8923 8735
4  1770 1768 8923 8735
4  8923 1768 8825 8735
4  4750 4754 8922 4404
4  4404 8735 4754 8922
4  8924 8922 4754 8735
4  8922 8924 1770 8735
4  8735 1768 8924 1770
4  1769 1770 8924 1768
4  1769 8924 8925 1768
4  8924 8735 8925 1768
4  8925 8735 8736 1768
4  8924 8926 8925 8735
4  8926 8602 8925 8735
4  8925 8602 8736 8735
4  8927 1775 8928 8783
4  1775 1773 8928 8783
4  8928 1773 8603 8783
4  8924 8929 8926 8735
4  8929 8547 8926 8735
4  8926 8547 8602 8735
4  8926 8928 8925 8602
4  8928 8603 8925 8602
4  8925 8603 8736 8602
4  8927 8928 8926 8783
4  8928 8603 8602 8783
4  8926 8928 8602 8783
4  8927 8926 8929 8783
4  8926 8602 8547 8783
4  8929 8926 8547 8783
4  8927 8929 4760 8783
4  8929 8547 4760 8783
4  4760 8547 4339 8783
4  1769 8925 8928 1768
4  8925 8736 8603 1768
4  8928 8925 8603 1768
4  1775 1769 8928 1773
4  1769 1768 8928 1773
4  8928 1768 8603 1773
4  8927 8930 1775 8783
4  8783 1773 8930 1775
4  1774 1775 8930 1773
4  4760 4759 8930 4339
4  4339 8783 8930 4760
4  8930 8927 4760 8783
4  8929 4754 4760 8547
4  4754 4404 4760 8547
4  4760 4404 4339 8547
4  8924 4754 8929 8735
4  4754 4404 8547 8735
4  8929 4754 8547 8735
4  8930 8931 8932 8783
4  8931 8784 8932 8783
4  8932 8784 8891 8783
4  4766 4768 8932 4338
4  4338 8891 4768 8932
4  8933 8932 4768 8891
4  8930 8932 1779 8783
4  8932 8891 1779 8783
4  1779 8891 1778 8783
4  4759 8931 8930 4339
4  8931 8784 8783 4339
4  8930 8931 8783 4339
4  8783 1773 1778 8934
4  1779 1774 8930 8934
4  8930 1774 1773 8934
4  1773 8783 8930 8934
4  1774 1779 1778 8934
4  1778 1773 1774 8934
4  1779 8930 8783 8934
4  8783 1778 1779 8934
4  8932 8933 1779 8891
4  8891 1778 8933 1779
4  1782 1779 8933 1778
4  4759 4766 8931 4339
4  4766 4338 8931 4339
4  8931 4338 8784 4339
4  4766 8932 8931 4338
4  8932 8891 8784 4338
4  8931 8932 8784 4338
4  8935 8936 1785 8889
4  8936 8887 1785 8889
4  1785 8887 1783 8889
4  8935 1785 1782 8889
4  1785 1783 1782 8889
4  1782 1783 1778 8889
4  8935 1782 8933 8889
4  1782 1778 8933 8889
4  8933 1778 8891 8889
4  8933 4768 8936 8891
4  4768 4338 8936 8891
4  8936 4338 8887 8891
4  4772 4774 8936 4635
4  4635 8887 4774 8936
4  8937 8936 4774 8887
4  8936 8937 1785 8887
4  8887 1783 8937 1785
4  1784 1785 8937 1783
4  4768 4772 8936 4338
4  4772 4635 8936 4338
4  8936 4635 8887 4338
4  8935 8933 8936 8889
4  8933 8891 8936 8889
4  8936 8891 8887 8889
4  8938 8939 1788 8642
4  8939 8457 1788 8642
4  1788 8457 1789 8642
4  1790 1788 8940 1789
4  1789 8457 1788 8940
4  8939 8940 1788 8457
4  8938 8937 8939 8642
4  8937 8887 8939 8642
4  8939 8887 8457 8642
4  8941 4779 8939 8656
4  4779 4583 8939 8656
4  8939 4583 8457 8656
4  8941 8939 8937 8656
4  8939 8457 8887 8656
4  8937 8939 8887 8656
4  8941 4774 4779 8656
4  4774 4635 4779 8656
4  4779 4635 4583 8656
4  8940 8939 4778 8457
4  8457 4583 8939 4778
4  4779 4778 8939 4583
4  8938 1788 1784 8642
4  1788 1789 1784 8642
4  1784 1789 1783 8642
4  8938 1784 8937 8642
4  1784 1783 8937 8642
4  8937 1783 8887 8642
4  8941 8937 4774 8656
4  8937 8887 4774 8656
4  4774 8887 4635 8656
4  1795 1790 8942 1793
4  1790 1789 8942 1793
4  8942 1789 8456 1793
4  1790 8940 8942 1789
4  8940 8457 8942 1789
4  8942 8457 8456 1789
4  8940 8943 8942 8457
4  8943 8606 8942 8457
4  8942 8606 8456 8457
4  8940 4778 8944 8457
4  4778 4583 8944 8457
4  8944 4583 8651 8457
4  8940 8944 8943 8457
4  8944 8651 8943 8457
4  8943 8651 8606 8457
4  8943 8945 8946 8606
4  8606 8390 8945 8946
4  8947 8946 8945 8390
4  8943 8946 8942 8606
4  8946 8390 8942 8606
4  8942 8390 8456 8606
4  4784 4786 8943 4551
4  4551 8606 4786 8943
4  8945 8943 4786 8606
4  4784 8943 8944 4551
4  8943 8606 8651 4551
4  8944 8943 8651 4551
4  4778 4784 8944 4583
4  4784 4551 8944 4583
4  8944 4551 8651 4583
4  1795 8942 8946 1793
4  8942 8456 8390 1793
4  8946 8942 8390 1793
4  8946 8947 1794 8390
4  8390 1793 1794 8946
4  1794 1795 8946 1793
4  4788 8948 8945 4426
4  8948 8604 8945 4426
4  8945 8604 8606 4426
4  8947 8948 1794 8390
4  8948 8604 1794 8390
4  1794 8604 1793 8390
4  8948 8949 1798 8604
4  8604 1800 8949 1798
4  1802 1798 8949 1800
4  4426 4551 8606 8950
4  8945 4786 4788 8950
4  4788 4786 4551 8950
4  4551 4426 4788 8950
4  4786 8945 8606 8950
4  8606 4551 4786 8950
4  8945 4788 4426 8950
4  4426 8606 8945 8950
4  4788 4792 8948 4426
4  4426 8604 4792 8948
4  8949 8948 4792 8604
4  8947 8945 8948 8390
4  8945 8606 8604 8390
4  8948 8945 8604 8390
4  8948 1798 1794 8604
4  1798 1800 1794 8604
4  1794 1800 1793 8604
4  8949 4792 8951 8604
4  4792 4426 8951 8604
4  8951 4426 8605 8604
4  8951 4796 8952 8605
4  4796 4432 8952 8605
4  8952 4432 8786 8605
4  4792 4796 8951 4426
4  4796 4432 8605 4426
4  8951 4796 8605 4426
4  8952 8953 1803 8786
4  8786 1805 8953 1803
4  1807 1803 8953 1805
4  4796 4797 8952 4432
4  4432 8786 4797 8952
4  8953 8952 4797 8786
4  8952 1803 8949 8786
4  1803 1805 8949 8786
4  8949 1805 8604 8786
4  8604 8786 8605 8954
4  8951 8952 8949 8954
4  8949 8952 8786 8954
4  8786 8604 8949 8954
4  8952 8951 8605 8954
4  8605 8786 8952 8954
4  8951 8949 8604 8954
4  8604 8605 8951 8954
4  1803 1802 8949 1805
4  1802 1800 8949 1805
4  8949 1800 8604 1805
4  1807 8953 8955 1805
4  8953 8786 8955 1805
4  8955 8786 8675 1805
4  1811 1807 8955 1810
4  1807 1805 8955 1810
4  8955 1805 8675 1810
4  8953 4797 8956 8786
4  4797 4432 8956 8786
4  8956 4432 8676 8786
4  8953 8956 8955 8786
4  8956 8676 8955 8786
4  8955 8676 8675 8786
4  8957 8955 8958 8675
4  8675 8676 8955 8958
4  8956 8958 8955 8676
4  4797 4805 8956 4432
4  4805 4642 8956 4432
4  8956 4642 8676 4432
4  1812 1811 8955 1810
4  1810 8675 8955 1812
4  8955 8957 1812 8675
4  8958 8956 4806 8676
4  8676 4642 8956 4806
4  4805 4806 8956 4642
4  8959 8960 4809 8478
4  8960 8479 4809 8478
4  4809 8479 4305 8478
4  8957 8961 1812 8675
4  8961 8708 1812 8675
4  1812 8708 1810 8675
4  8960 8962 4809 8479
4  8962 8823 4809 8479
4  4809 8823 4305 8479
4  8963 8961 8964 8708
4  8708 8478 8961 8964
4  8959 8964 8961 8478
4  8960 8958 8962 8479
4  8958 8676 8962 8479
4  8962 8676 8823 8479
4  8962 4806 4809 8823
4  4806 4642 4809 8823
4  4809 4642 4305 8823
4  8958 4806 8962 8676
4  4806 4642 8823 8676
4  8962 4806 8823 8676
4  8959 8961 8957 8478
4  8961 8708 8675 8478
4  8957 8961 8675 8478
4  8964 8959 4809 8478
4  8478 4305 4809 8964
4  4809 4808 8964 4305
4  8959 8957 8958 8478
4  8957 8675 8958 8478
4  8958 8675 8676 8478
4  8961 1726 1812 8708
4  1726 1671 1812 8708
4  1812 1671 1810 8708
4  8959 8958 8960 8478
4  8958 8676 8479 8478
4  8960 8958 8479 8478
4  1729 1726 8963 1671
4  1671 8708 1726 8963
4  8961 8963 1726 8708
4  8965 8966 8964 8476
4  8966 8475 8964 8476
4  8964 8475 8478 8476
4  8965 8967 8966 8476
4  8967 8482 8966 8476
4  8966 8482 8475 8476
4  8963 8964 8966 8708
4  8964 8478 8475 8708
4  8966 8964 8475 8708
4  1729 8963 8966 1671
4  8963 8708 8966 1671
4  8966 8708 8475 1671
4  8966 8968 1814 8475
4  8968 8879 1814 8475
4  1814 8879 1677 8475
4  8969 8968 8970 8879
4  8879 8482 8968 8970
4  8967 8970 8968 8482
4  8967 8968 8966 8482
4  8968 8879 8475 8482
4  8966 8968 8475 8482
4  8965 4814 8967 8476
4  4814 4586 8967 8476
4  8967 4586 8482 8476
4  8965 4808 4814 8476
4  4808 4305 4814 8476
4  4814 4305 4586 8476
4  8475 1671 1677 8971
4  1814 1729 8966 8971
4  8966 1729 1671 8971
4  1671 8475 8966 8971
4  1729 1814 1677 8971
4  1677 1671 1729 8971
4  1814 8966 8475 8971
4  8475 1677 1814 8971
4  8965 8964 4808 8476
4  8964 8478 4305 8476
4  4808 8964 4305 8476
4  8970 8967 4815 8482
4  8482 4586 8967 4815
4  4814 4815 8967 4586
4  1713 1814 8969 1677
4  1677 8879 1814 8969
4  8968 8969 1814 8879
4  8972 8969 8970 8879
4  8879 8482 8970 8972
4  8970 8973 8972 8482
4  8973 8970 4818 8482
4  8482 4299 8970 4818
4  4819 4818 8970 4299
4  8482 4299 4586 8974
4  4815 4819 8970 8974
4  8970 4819 4299 8974
4  4299 8482 8970 8974
4  4819 4815 4586 8974
4  4586 4299 4819 8974
4  4815 8970 8482 8974
4  8482 4586 4815 8974
4  1716 1713 8969 1709
4  1713 1677 8969 1709
4  8969 1677 8879 1709
4  1707 1716 8969 1709
4  1709 8879 8969 1707
4  8969 8972 1707 8879
4  8975 8976 8972 8508
4  8976 8876 8972 8508
4  8972 8876 8879 8508
4  8977 8976 8978 8876
4  8876 8799 8976 8978
4  8979 8978 8976 8799
4  8975 4823 8979 8508
4  4823 4366 8979 8508
4  8979 4366 8799 8508
4  8978 8979 4822 8799
4  8799 4366 8979 4822
4  4823 4822 8979 4366
4  8975 8972 8973 8508
4  8972 8879 8482 8508
4  8973 8972 8482 8508
4  8975 4818 4823 8508
4  4818 4299 4823 8508
4  4823 4299 4366 8508
4  1815 1711 8977 1710
4  1710 8876 1711 8977
4  8976 8977 1711 8876
4  8976 1707 8972 8876
4  1707 1709 8879 8876
4  8972 1707 8879 8876
4  8976 1711 1707 8876
4  1711 1710 1707 8876
4  1707 1710 1709 8876
4  8975 8973 4818 8508
4  8973 8482 4818 8508
4  4818 8482 4299 8508
4  8975 8979 8976 8508
4  8979 8799 8976 8508
4  8976 8799 8876 8508
4  1815 8977 8980 1710
4  8977 8876 8980 1710
4  8980 8876 8385 1710
4  8981 8978 4827 8799
4  8799 4639 8978 4827
4  4828 4827 8978 4639
4  1818 1816 8982 1817
4  1817 8385 1816 8982
4  8980 8982 1816 8385
4  8977 8978 8980 8876
4  8978 8799 8980 8876
4  8980 8799 8385 8876
4  8385 1710 1817 8983
4  1816 1815 8980 8983
4  8980 1815 1710 8983
4  1710 8385 8980 8983
4  1815 1816 1817 8983
4  1817 1710 1815 8983
4  1816 8980 8385 8983
4  8385 1817 1816 8983
4  8982 8980 8981 8385
4  8385 8799 8980 8981
4  8978 8981 8980 8799
4  4828 8978 4822 4639
4  8978 8799 4822 4639
4  4822 8799 4366 4639
4  8981 4827 8984 8799
4  4827 4639 8984 8799
4  8984 4639 8564 8799
4  1825 1824 8985 1823
4  1823 8802 1824 8985
4  8986 8985 1824 8802
4  1818 8982 8986 1817
4  8982 8385 8986 1817
4  8986 8385 8802 1817
4  8982 8981 8986 8385
4  8981 8799 8986 8385
4  8986 8799 8802 8385
4  8987 8984 4836 8564
4  8564 4376 8984 4836
4  4834 4836 8984 4376
4  8802 1817 1823 8988
4  1824 1818 8986 8988
4  8986 1818 1817 8988
4  1817 8802 8986 8988
4  1818 1824 1823 8988
4  1823 1817 1818 8988
4  1824 8986 8802 8988
4  8802 1823 1824 8988
4  8981 8984 8986 8799
4  8984 8564 8986 8799
4  8986 8564 8802 8799
4  8985 8986 8987 8802
4  8802 8564 8986 8987
4  8984 8987 8986 8564
4  4834 8984 4827 4376
4  8984 8564 4639 4376
4  4827 8984 4639 4376
4  8987 8989 8990 8564
4  8989 8565 8990 8564
4  8990 8565 8588 8564
4  8987 4836 8989 8564
4  4836 4376 8989 8564
4  8989 4376 8565 8564
4  1826 1825 8990 1828
4  1825 1823 8990 1828
4  8990 1823 8588 1828
4  8991 8912 8990 8806
4  8806 8588 8912 8990
4  8992 8990 8912 8588
4  4842 4843 8991 4377
4  4377 8806 4843 8991
4  8912 8991 4843 8806
4  1825 8985 8990 1823
4  8985 8802 8990 1823
4  8990 8802 8588 1823
4  8990 8992 1829 8588
4  8588 1828 1829 8990
4  1829 1826 8990 1828
4  4842 8991 8989 4377
4  8991 8806 8989 4377
4  8989 8806 8565 4377
4  4842 8989 4836 4377
4  8989 8565 4376 4377
4  4836 8989 4376 4377
4  8985 8987 8990 8802
4  8987 8564 8990 8802
4  8990 8564 8588 8802
4  8991 8990 8989 8806
4  8990 8588 8565 8806
4  8989 8990 8565 8806
4  8912 8910 8993 8806
4  8910 6244 8993 8806
4  8993 6244 8589 8806
4  8806 4461 4377 8994
4  4843 4663 8912 8994
4  8912 4663 4461 8994
4  4461 8806 8912 8994
4  4663 4843 4377 8994
4  4377 4461 4663 8994
4  4843 8912 8806 8994
4  8806 4377 4843 8994
4  1681 1829 8993 1046
4  1829 1828 8993 1046
4  8993 1828 8589 1046
4  8910 1681 8993 6244
4  1681 1046 8993 6244
4  8993 1046 8589 6244
4  8992 8912 8993 8588
4  8912 8806 8993 8588
4  8993 8806 8589 8588
4  8992 8993 1829 8588
4  8993 8589 1828 8588
4  1829 8993 1828 8588
4  2024 8995 8996 2025
4  2024 8358 8997 1104
4  2024 8996 8995 8997
4  2024 8997 8358 8996
4  8358 8996 8997 8350
4  8350 8911 8996 8997
4  8995 8997 8996 8911
4  2024 4988 8995 2025
4  2024 8997 4986 1104
4  2024 8995 4988 4986
4  2024 4986 8997 8995
4  8997 8995 4986 8911
4  8911 4662 8995 4986
4  4988 4986 8995 4662
4  8997 8358 8357 1104
4  8358 8997 8357 8350
4  8997 8911 8357 8350
4  8357 8911 8348 8350
4  4986 8997 8357 1104
4  8997 4986 8357 8911
4  4986 4662 8357 8911
4  8357 4662 8348 8911
4  2024 8996 2026 2025
4  2024 1113 8358 1104
4  2024 2026 8996 8358
4  2024 8358 1113 2026
4  1113 2026 8358 1045
4  1045 8350 2026 8358
4  8996 8358 2026 8350
4  8357 1107 4986 1104
4  8348 1042 4662 8998
4  4986 1107 8357 8998
4  8357 1107 8348 8998
4  1042 8348 1107 8998
4  1107 4986 1042 8998
4  4662 1042 4986 8998
4  4986 8357 4662 8998
4  8348 4662 8357 8998
4  2052 8999 4997 2051
4  2052 1155 8362 1146
4  2052 4997 8999 8362
4  2052 8362 1155 4997
4  1155 4997 8362 1082
4  1082 8353 4997 8362
4  8999 8362 4997 8353
4  9000 8362 8364 1146
4  8362 9000 8364 8353
4  9000 8915 8364 8353
4  8364 8915 8355 8353
4  2052 2049 9001 2051
4  2052 9000 2048 1146
4  2052 9001 2049 2048
4  2052 2048 9000 9001
4  9000 9001 2048 8915
4  8915 1694 9001 2048
4  2049 2048 9001 1694
4  1153 2048 8364 1146
4  2048 1153 8364 1694
4  1153 1077 8364 1694
4  8364 1077 8355 1694
4  2052 9001 8999 2051
4  2052 8362 9000 1146
4  2052 8999 9001 9000
4  2052 9000 8362 8999
4  8362 8999 9000 8353
4  8353 8915 8999 9000
4  9001 9000 8999 8915
4  2048 9000 8364 1146
4  9000 2048 8364 8915
4  2048 1694 8364 8915
4  8364 1694 8355 8915
4  2252 5085 9002 2051
4  2252 9003 5086 2251
4  2252 9002 5085 5086
4  2252 5086 9003 9002
4  9003 9002 5086 8914
4  8914 4674 9002 5086
4  5085 5086 9002 4674
4  2252 9004 2249 2051
4  2252 2248 9005 2251
4  2252 2249 9004 9005
4  2252 9005 2248 2249
4  2248 2249 9005 1695
4  1695 8916 2249 9005
4  9004 9005 2249 8916
4  2252 9002 9004 2051
4  2252 9005 9003 2251
4  2252 9004 9002 9003
4  2252 9003 9005 9004
4  9005 9004 9003 8916
4  8916 8914 9004 9003
4  9002 9003 9004 8914
4  9006 9005 9007 2251
4  9005 9006 9007 8916
4  9006 8917 9007 8916
4  9007 8917 8918 8916
4  2261 9008 5094 2260
4  2261 5091 9007 2251
4  2261 5094 9008 9007
4  2261 9007 5091 5094
4  5091 5094 9007 4744
4  4744 8918 5094 9007
4  9008 9007 5094 8918
4  5091 9006 9007 2251
4  9006 5091 9007 8917
4  5091 4744 9007 8917
4  9007 4744 8918 8917
4  5086 9006 5091 2251
4  9006 5086 5091 8917
4  5086 4674 4744 8917
4  5091 5086 4744 8917
4  2261 2258 9008 2260
4  2261 9007 2257 2251
4  2261 9008 2258 2257
4  2261 2257 9007 9008
4  9007 9008 2257 8918
4  8918 1765 9008 2257
4  2258 2257 9008 1765
4  9005 2248 9007 2251
4  2248 9005 9007 1695
4  9005 8916 9007 1695
4  9007 8916 8918 1695
4  9003 9006 5086 2251
4  9006 9003 5086 8917
4  9003 8914 5086 8917
4  5086 8914 4674 8917
4  9003 9005 9006 2251
4  9005 9003 9006 8916
4  9003 8914 8917 8916
4  9006 9003 8917 8916
4  9007 2248 2257 2251
4  8918 1695 1765 9009
4  2257 2248 9007 9009
4  9007 2248 1695 9009
4  1695 8918 9007 9009
4  2248 2257 1765 9009
4  1765 1695 2248 9009
4  2257 9007 8918 9009
4  8918 1765 2257 9009
4  2270 5098 9010 2260
4  2270 9011 5099 2269
4  2270 9010 5098 5099
4  2270 5099 9011 9010
4  9011 9010 5099 8919
4  8919 4747 9010 5099
4  5098 5099 9010 4747
4  2270 9010 2267 2260
4  2270 2266 9011 2269
4  2270 2267 9010 9011
4  2270 9011 2266 2267
4  2266 2267 9011 1766
4  1766 8919 2267 9011
4  9010 9011 2267 8919
4  9012 9013 9011 2269
4  9013 9012 9011 8921
4  9012 8922 9011 8921
4  9011 8922 8919 8921
4  9011 2266 9014 2269
4  2266 9011 9014 1766
4  9011 8919 9014 1766
4  9014 8919 8923 1766
4  9011 9013 5099 2269
4  9013 9011 5099 8921
4  9011 8919 5099 8921
4  5099 8919 4747 8921
4  2266 2275 9014 2269
4  2275 2266 9014 1770
4  2266 1766 9014 1770
4  9014 1766 8923 1770
4  5099 9013 5102 2269
4  9013 5099 5102 8921
4  5099 4747 5102 8921
4  5102 4747 4750 8921
4  5102 9013 9012 2269
4  9013 5102 9012 8921
4  5102 4750 9012 8921
4  9012 4750 8922 8921
4  9014 9012 9011 2269
4  9012 9014 9011 8922
4  9014 8923 8919 8922
4  9011 9014 8919 8922
4  2275 9012 9014 2269
4  9012 2275 9014 8922
4  2275 1770 9014 8922
4  9014 1770 8923 8922
4  2278 9015 5106 2277
4  2278 5102 9012 2269
4  2278 5106 9015 9012
4  2278 9012 5102 5106
4  5102 5106 9012 4750
4  4750 8922 5106 9012
4  9015 9012 5106 8922
4  2278 2274 9015 2277
4  2278 9012 2275 2269
4  2278 9015 2274 2275
4  2278 2275 9012 9015
4  9012 9015 2275 8922
4  8922 1770 9015 2275
4  2274 2275 9015 1770
4  2288 5110 9016 2277
4  2288 9017 5111 2287
4  2288 9016 5110 5111
4  2288 5111 9017 9016
4  9017 9016 5111 8924
4  8924 4754 9016 5111
4  5110 5111 9016 4754
4  2288 9016 2285 2277
4  2288 2284 9017 2287
4  2288 2285 9016 9017
4  2288 9017 2284 2285
4  2284 2285 9017 1769
4  1769 8924 2285 9017
4  9016 9017 2285 8924
4  9017 2284 9018 2287
4  2284 9017 9018 1769
4  9017 8924 9018 1769
4  9018 8924 8925 1769
4  9019 9017 9018 2287
4  9017 9019 9018 8924
4  9019 8926 9018 8924
4  9018 8926 8925 8924
4  2293 9020 9021 2287
4  9020 2293 9021 8927
4  2293 1775 9021 8927
4  9021 1775 8928 8927
4  9022 9017 9019 2287
4  9017 9022 9019 8924
4  9022 8929 9019 8924
4  9019 8929 8926 8924
4  9021 9019 9018 2287
4  9019 9021 9018 8926
4  9021 8928 9018 8926
4  9018 8928 8925 8926
4  9021 9020 9019 2287
4  9020 9021 9019 8927
4  9021 8928 8926 8927
4  9019 9021 8926 8927
4  9019 9020 9022 2287
4  9020 9019 9022 8927
4  9019 8926 8929 8927
4  9022 9019 8929 8927
4  9022 9020 5117 2287
4  9020 9022 5117 8927
4  9022 8929 5117 8927
4  5117 8929 4760 8927
4  9018 2284 9021 2287
4  2284 9018 9021 1769
4  9018 8925 8928 1769
4  9021 9018 8928 1769
4  2284 2293 9021 2287
4  2293 2284 9021 1775
4  2284 1769 9021 1775
4  9021 1769 8928 1775
4  2296 2292 9023 2295
4  2296 9020 2293 2287
4  2296 9023 2292 2293
4  2296 2293 9020 9023
4  9020 9023 2293 8927
4  8927 1775 9023 2293
4  2292 2293 9023 1775
4  2296 9023 5116 2295
4  2296 5117 9020 2287
4  2296 5116 9023 5117
4  2296 9020 5117 9023
4  5117 5116 9023 4760
4  4760 8927 9023 5117
4  9023 9020 5117 8927
4  5111 9022 5117 2287
4  9022 5111 5117 8929
4  5111 4754 5117 8929
4  5117 4754 4760 8929
4  5111 9017 9022 2287
4  9017 5111 9022 8924
4  5111 4754 8929 8924
4  9022 5111 8929 8924
4  2306 9024 2303 2295
4  2306 2302 9025 2305
4  2306 2303 9024 9025
4  2306 9025 2302 2303
4  2302 2303 9025 1774
4  1774 8930 2303 9025
4  9024 9025 2303 8930
4  2306 5121 9024 2295
4  2306 9025 5122 2305
4  2306 9024 5121 5122
4  2306 5122 9025 9024
4  9025 9024 5122 8930
4  8930 4759 9024 5122
4  5121 5122 9024 4759
4  9026 9025 9027 2305
4  9025 9026 9027 8930
4  9026 8931 9027 8930
4  9027 8931 8932 8930
4  2318 9028 5130 2317
4  2318 5128 9027 2305
4  2318 5130 9028 9027
4  2318 9027 5128 5130
4  5128 5130 9027 4766
4  4766 8932 5130 9027
4  9028 9027 5130 8932
4  9027 9025 2310 2305
4  9025 9027 2310 8930
4  9027 8932 2310 8930
4  2310 8932 1779 8930
4  5122 9025 9026 2305
4  9025 5122 9026 8930
4  5122 4759 9026 8930
4  9026 4759 8931 8930
4  9025 2302 2310 2305
4  8930 1774 1779 9029
4  2310 2302 9025 9029
4  9025 2302 1774 9029
4  1774 8930 9025 9029
4  2302 2310 1779 9029
4  1779 1774 2302 9029
4  2310 9025 8930 9029
4  8930 1779 2310 9029
4  2318 2316 9028 2317
4  2318 9027 2310 2305
4  2318 9028 2316 2310
4  2318 2310 9027 9028
4  9027 9028 2310 8932
4  8932 1779 9028 2310
4  2316 2310 9028 1779
4  5128 5122 9026 2305
4  5122 5128 9026 4759
4  5128 4766 9026 4759
4  9026 4766 8931 4759
4  9027 5128 9026 2305
4  5128 9027 9026 4766
4  9027 8932 8931 4766
4  9026 9027 8931 4766
4  2324 5134 9030 2317
4  2324 9031 5135 2323
4  2324 9030 5134 5135
4  2324 5135 9031 9030
4  9031 9030 5135 8933
4  8933 4768 9030 5135
4  5134 5135 9030 4768
4  2324 9030 2321 2317
4  2324 2320 9031 2323
4  2324 2321 9030 9031
4  2324 9031 2320 2321
4  2320 2321 9031 1782
4  1782 8933 2321 9031
4  9030 9031 2321 8933
4  9032 9033 2329 2323
4  9033 9032 2329 8935
4  9032 8936 2329 8935
4  2329 8936 1785 8935
4  2329 9033 2320 2323
4  9033 2329 2320 8935
4  2329 1785 2320 8935
4  2320 1785 1782 8935
4  2320 9033 9031 2323
4  9033 2320 9031 8935
4  2320 1782 9031 8935
4  9031 1782 8933 8935
4  5135 9031 9032 2323
4  9031 5135 9032 8933
4  5135 4768 9032 8933
4  9032 4768 8936 8933
4  2332 9034 5141 2331
4  2332 5139 9032 2323
4  2332 5141 9034 9032
4  2332 9032 5139 5141
4  5139 5141 9032 4772
4  4772 8936 5141 9032
4  9034 9032 5141 8936
4  2332 2328 9034 2331
4  2332 9032 2329 2323
4  2332 9034 2328 2329
4  2332 2329 9032 9034
4  9032 9034 2329 8936
4  8936 1785 9034 2329
4  2328 2329 9034 1785
4  5139 5135 9032 2323
4  5135 5139 9032 4768
4  5139 4772 9032 4768
4  9032 4772 8936 4768
4  9031 9033 9032 2323
4  9033 9031 9032 8935
4  9031 8933 9032 8935
4  9032 8933 8936 8935
4  2342 5145 9035 2331
4  2342 9036 5146 2341
4  2342 9035 5145 5146
4  2342 5146 9036 9035
4  9036 9035 5146 8937
4  8937 4774 9035 5146
4  5145 5146 9035 4774
4  2342 9035 2339 2331
4  2342 2338 9036 2341
4  2342 2339 9035 9036
4  2342 9036 2338 2339
4  2338 2339 9036 1784
4  1784 8937 2339 9036
4  9035 9036 2339 8937
4  9037 9038 2346 2341
4  9038 9037 2346 8938
4  9037 8939 2346 8938
4  2346 8939 1788 8938
4  2347 2349 9039 2351
4  2347 9037 2346 2341
4  2347 9039 2349 2346
4  2347 2346 9037 9039
4  9037 9039 2346 8939
4  8939 1788 9039 2346
4  2349 2346 9039 1788
4  9036 9038 9037 2341
4  9038 9036 9037 8938
4  9036 8937 9037 8938
4  9037 8937 8939 8938
4  5151 9040 9037 2341
4  9040 5151 9037 8941
4  5151 4779 9037 8941
4  9037 4779 8939 8941
4  9037 9040 9036 2341
4  9040 9037 9036 8941
4  9037 8939 8937 8941
4  9036 9037 8937 8941
4  5146 9040 5151 2341
4  9040 5146 5151 8941
4  5146 4774 5151 8941
4  5151 4774 4779 8941
4  2347 9039 5150 2351
4  2347 5151 9037 2341
4  2347 5150 9039 9037
4  2347 9037 5151 5150
4  5151 5150 9037 4779
4  4779 8939 5150 9037
4  9039 9037 5150 8939
4  2346 9038 2338 2341
4  9038 2346 2338 8938
4  2346 1788 2338 8938
4  2338 1788 1784 8938
4  2338 9038 9036 2341
4  9038 2338 9036 8938
4  2338 1784 9036 8938
4  9036 1784 8937 8938
4  9036 9040 5146 2341
4  9040 9036 5146 8941
4  9036 8937 5146 8941
4  5146 8937 4774 8941
4  2357 9041 2356 2351
4  2357 2359 9042 2361
4  2357 2356 9041 9042
4  2357 9042 2359 2356
4  2359 2356 9042 1790
4  1790 8940 2356 9042
4  9041 9042 2356 8940
4  2357 5156 9041 2351
4  2357 9042 5157 2361
4  2357 9041 5156 5157
4  2357 5157 9042 9041
4  9042 9041 5157 8940
4  8940 4778 9041 5157
4  5156 5157 9041 4778
4  2359 2365 9043 2361
4  2365 2359 9043 1795
4  2359 1790 9043 1795
4  9043 1790 8942 1795
4  9042 2359 9043 2361
4  2359 9042 9043 1790
4  9042 8940 9043 1790
4  9043 8940 8942 1790
4  9044 9042 9043 2361
4  9042 9044 9043 8940
4  9044 8943 9043 8940
4  9043 8943 8942 8940
4  5157 9042 9045 2361
4  9042 5157 9045 8940
4  5157 4778 9045 8940
4  9045 4778 8944 8940
4  9045 9042 9044 2361
4  9042 9045 9044 8940
4  9045 8944 9044 8940
4  9044 8944 8943 8940
4  2368 9046 9047 2367
4  2368 9044 9048 2361
4  2368 9047 9046 9048
4  2368 9048 9044 9047
4  9044 9047 9048 8943
4  8943 8946 9047 9048
4  9046 9048 9047 8946
4  9048 9044 9043 2361
4  9044 9048 9043 8943
4  9048 8946 9043 8943
4  9043 8946 8942 8943
4  2368 9047 5163 2367
4  2368 5161 9044 2361
4  2368 5163 9047 9044
4  2368 9044 5161 5163
4  5161 5163 9044 4784
4  4784 8943 5163 9044
4  9047 9044 5163 8943
4  9044 5161 9045 2361
4  5161 9044 9045 4784
4  9044 8943 8944 4784
4  9045 9044 8944 4784
4  5161 5157 9045 2361
4  5157 5161 9045 4778
4  5161 4784 9045 4778
4  9045 4784 8944 4778
4  9043 2365 9048 2361
4  2365 9043 9048 1795
4  9043 8942 8946 1795
4  9048 9043 8946 1795
4  2368 2364 9046 2367
4  2368 9048 2365 2361
4  2368 9046 2364 9048
4  2368 2365 9048 2364
4  9048 9046 2364 8946
4  8946 1795 2364 9048
4  2364 2365 9048 1795
4  2378 9049 9050 2367
4  2378 9051 9052 2377
4  2378 9050 9049 9052
4  2378 9052 9051 9050
4  9051 9050 9052 8947
4  8947 8945 9050 9052
4  9049 9052 9050 8945
4  2378 5167 9049 2367
4  2378 9052 5168 2377
4  2378 9049 5167 5168
4  2378 5168 9052 9049
4  9052 9049 5168 8945
4  8945 4786 9049 5168
4  5167 5168 9049 4786
4  2378 9050 2375 2367
4  2378 2374 9051 2377
4  2378 2375 9050 9051
4  2378 9051 2374 2375
4  2374 2375 9051 1794
4  1794 8947 2375 9051
4  9050 9051 2375 8947
4  9053 5169 9052 2377
4  5169 9053 9052 4788
4  9053 8948 9052 4788
4  9052 8948 8945 4788
4  9051 2374 9053 2377
4  2374 9051 9053 1794
4  9051 8947 9053 1794
4  9053 8947 8948 1794
4  2388 2389 9054 2390
4  2388 9053 2382 2377
4  2388 9054 2389 2382
4  2388 2382 9053 9054
4  9053 9054 2382 8948
4  8948 1798 9054 2382
4  2389 2382 9054 1798
4  5169 5168 9052 2377
4  4788 4786 8945 9055
4  9052 5168 5169 9055
4  5169 5168 4786 9055
4  4786 4788 5169 9055
4  5168 9052 8945 9055
4  8945 4786 5168 9055
4  9052 5169 4788 9055
4  4788 8945 9052 9055
4  2388 9054 5174 2390
4  2388 5169 9053 2377
4  2388 5174 9054 9053
4  2388 9053 5169 5174
4  5169 5174 9053 4788
4  4788 8948 5174 9053
4  9054 9053 5174 8948
4  9052 9051 9053 2377
4  9051 9052 9053 8947
4  9052 8945 8948 8947
4  9053 9052 8948 8947
4  2382 9053 2374 2377
4  1798 8948 1794 9056
4  2374 9053 2382 9056
4  2382 9053 8948 9056
4  8948 1798 2382 9056
4  9053 2374 1794 9056
4  1794 8948 9053 9056
4  2374 2382 1798 9056
4  1798 1794 2374 9056
4  2393 9057 2392 2390
4  2393 2395 9058 2397
4  2393 2392 9057 9058
4  2393 9058 2395 2392
4  2395 2392 9058 1802
4  1802 8949 2392 9058
4  9057 9058 2392 8949
4  2393 5178 9057 2390
4  2393 9058 5179 2397
4  2393 9057 5178 5179
4  2393 5179 9058 9057
4  9058 9057 5179 8949
4  8949 4792 9057 5179
4  5178 5179 9057 4792
4  5179 9058 9059 2397
4  9058 5179 9059 8949
4  5179 4792 9059 8949
4  9059 4792 8951 8949
4  5184 9059 9060 2397
4  9059 5184 9060 8951
4  5184 4796 9060 8951
4  9060 4796 8952 8951
4  5184 5179 9059 2397
4  5179 5184 9059 4792
4  5184 4796 8951 4792
4  9059 5184 8951 4792
4  2406 2407 9061 2408
4  2406 9060 2400 2397
4  2406 9061 2407 2400
4  2406 2400 9060 9061
4  9060 9061 2400 8952
4  8952 1803 9061 2400
4  2407 2400 9061 1803
4  2406 9061 5182 2408
4  2406 5184 9060 2397
4  2406 5182 9061 9060
4  2406 9060 5184 5182
4  5184 5182 9060 4796
4  4796 8952 5182 9060
4  9061 9060 5182 8952
4  2400 9060 9058 2397
4  9060 2400 9058 8952
4  2400 1803 9058 8952
4  9058 1803 8949 8952
4  9058 9060 9059 2397
4  8949 8952 8951 9062
4  9059 9060 9058 9062
4  9058 9060 8952 9062
4  8952 8949 9058 9062
4  9060 9059 8951 9062
4  8951 8952 9060 9062
4  9059 9058 8949 9062
4  8949 8951 9059 9062
4  2395 2400 9058 2397
4  2400 2395 9058 1803
4  2395 1802 9058 1803
4  9058 1802 8949 1803
4  2411 9063 2410 2408
4  2411 2413 9064 2415
4  2411 2410 9063 9064
4  2411 9064 2413 2410
4  2413 2410 9064 1807
4  1807 8953 2410 9064
4  9063 9064 2410 8953
4  2411 5188 9063 2408
4  2411 9064 5189 2415
4  2411 9063 5188 5189
4  2411 5189 9064 9063
4  9064 9063 5189 8953
4  8953 4797 9063 5189
4  5188 5189 9063 4797
4  9064 2413 9065 2415
4  2413 9064 9065 1807
4  9064 8953 9065 1807
4  9065 8953 8955 1807
4  2413 2422 9065 2415
4  2422 2413 9065 1811
4  2413 1807 9065 1811
4  9065 1807 8955 1811
4  5189 9064 9066 2415
4  9064 5189 9066 8953
4  5189 4797 9066 8953
4  9066 4797 8956 8953
4  9066 9064 9065 2415
4  9064 9066 9065 8953
4  9066 8956 9065 8953
4  9065 8956 8955 8953
4  2423 9067 9068 2425
4  2423 9066 9065 2415
4  2423 9068 9067 9065
4  2423 9065 9066 9068
4  9066 9068 9065 8956
4  8956 8955 9068 9065
4  9067 9065 9068 8955
4  5197 5189 9066 2415
4  5189 5197 9066 4797
4  5197 4805 9066 4797
4  9066 4805 8956 4797
4  2423 2424 9067 2425
4  2423 9065 2422 2415
4  2423 9067 2424 9065
4  2423 2422 9065 2424
4  9065 9067 2424 8955
4  8955 1811 2424 9065
4  2424 2422 9065 1811
4  2423 9068 5198 2425
4  2423 5197 9066 2415
4  2423 5198 9068 9066
4  2423 9066 5197 5198
4  5197 5198 9066 4805
4  4805 8956 5198 9066
4  9068 9066 5198 8956
4  2441 9069 9070 2425
4  2441 9071 9072 2428
4  2441 9070 9069 9072
4  2441 9072 9071 9070
4  9071 9070 9072 8957
4  8957 8958 9070 9072
4  9069 9072 9070 8958
4  2441 9070 2440 2425
4  2441 2443 9071 2428
4  2441 2440 9070 9071
4  2441 9071 2443 2440
4  2443 2440 9071 1812
4  1812 8957 2440 9071
4  9070 9071 2440 8957
4  2441 5213 9069 2425
4  2441 9072 5214 2428
4  2441 9069 5213 5214
4  2441 5214 9072 9069
4  9072 9069 5214 8958
4  8958 4806 9069 5214
4  5213 5214 9069 4806
4  9073 9074 5216 2428
4  9074 9073 5216 8959
4  9073 8960 5216 8959
4  5216 8960 4809 8959
4  9071 2443 9075 2428
4  2443 9071 9075 1812
4  9071 8957 9075 1812
4  9075 8957 8961 1812
4  9076 9073 5216 2428
4  9073 9076 5216 8960
4  9076 8962 5216 8960
4  5216 8962 4809 8960
4  2436 9077 9078 2438
4  2436 9074 9075 2428
4  2436 9078 9077 9075
4  2436 9075 9074 9078
4  9074 9078 9075 8959
4  8959 8961 9078 9075
4  9077 9075 9078 8961
4  9072 9073 9076 2428
4  9073 9072 9076 8960
4  9072 8958 9076 8960
4  9076 8958 8962 8960
4  5214 9076 5216 2428
4  9076 5214 5216 8962
4  5214 4806 5216 8962
4  5216 4806 4809 8962
4  5214 9072 9076 2428
4  9072 5214 9076 8958
4  5214 4806 8962 8958
4  9076 5214 8962 8958
4  9075 9074 9071 2428
4  9074 9075 9071 8959
4  9075 8961 8957 8959
4  9071 9075 8957 8959
4  2436 9078 5215 2438
4  2436 5216 9074 2428
4  2436 5215 9078 5216
4  2436 9074 5216 9078
4  5216 5215 9078 4809
4  4809 8959 9078 5216
4  9078 9074 5216 8959
4  9071 9074 9072 2428
4  9074 9071 9072 8959
4  9071 8957 9072 8959
4  9072 8957 8958 8959
4  2443 2430 9075 2428
4  2430 2443 9075 1726
4  2443 1812 9075 1726
4  9075 1812 8961 1726
4  9072 9074 9073 2428
4  9074 9072 9073 8959
4  9072 8958 8960 8959
4  9073 9072 8960 8959
4  2436 2437 9077 2438
4  2436 9075 2430 2428
4  2436 9077 2437 9075
4  2436 2430 9075 2437
4  9075 9077 2437 8961
4  8961 1726 2437 9075
4  2437 2430 9075 1726
4  2446 9079 9080 2438
4  2446 9081 9082 2450
4  2446 9080 9079 9082
4  2446 9082 9081 9080
4  9081 9080 9082 8963
4  8963 8964 9080 9082
4  9079 9082 9080 8964
4  2446 5224 9079 2438
4  2446 9082 5225 2450
4  2446 9079 5224 5225
4  2446 5225 9082 9079
4  9082 9079 5225 8964
4  8964 4808 9079 5225
4  5224 5225 9079 4808
4  2446 9080 2445 2438
4  2446 2448 9081 2450
4  2446 2445 9080 9081
4  2446 9081 2448 2445
4  2448 2445 9081 1729
4  1729 8963 2445 9081
4  9080 9081 2445 8963
4  9083 9084 9082 2450
4  9084 9083 9082 8965
4  9083 8966 9082 8965
4  9082 8966 8964 8965
4  9085 9084 9083 2450
4  9084 9085 9083 8965
4  9085 8967 9083 8965
4  9083 8967 8966 8965
4  9082 9081 9083 2450
4  9081 9082 9083 8963
4  9082 8964 8966 8963
4  9083 9082 8966 8963
4  9081 2448 9083 2450
4  2448 9081 9083 1729
4  9081 8963 9083 1729
4  9083 8963 8966 1729
4  9086 9083 2457 2450
4  9083 9086 2457 8966
4  9086 8968 2457 8966
4  2457 8968 1814 8966
4  2458 9087 9088 2460
4  2458 9085 9086 2450
4  2458 9088 9087 9086
4  2458 9086 9085 9088
4  9085 9088 9086 8967
4  8967 8968 9088 9086
4  9087 9086 9088 8968
4  9086 9085 9083 2450
4  9085 9086 9083 8967
4  9086 8968 8966 8967
4  9083 9086 8966 8967
4  5231 9084 9085 2450
4  9084 5231 9085 8965
4  5231 4814 9085 8965
4  9085 4814 8967 8965
4  5225 9084 5231 2450
4  9084 5225 5231 8965
4  5225 4808 5231 8965
4  5231 4808 4814 8965
4  9083 2448 2457 2450
4  8966 1729 1814 9089
4  2457 2448 9083 9089
4  9083 2448 1729 9089
4  1729 8966 9083 9089
4  2448 2457 1814 9089
4  1814 1729 2448 9089
4  2457 9083 8966 9089
4  8966 1814 2457 9089
4  9082 9084 5225 2450
4  9084 9082 5225 8965
4  9082 8964 5225 8965
4  5225 8964 4808 8965
4  2458 9088 5230 2460
4  2458 5231 9085 2450
4  2458 5230 9088 9085
4  2458 9085 5231 5230
4  5231 5230 9085 4814
4  4814 8967 5230 9085
4  9088 9085 5230 8967
4  2458 2459 9087 2460
4  2458 9086 2457 2450
4  2458 9087 2459 2457
4  2458 2457 9086 9087
4  9086 9087 2457 8968
4  8968 1814 9087 2457
4  2459 2457 9087 1814
4  2477 9090 9091 2460
4  2477 9092 9093 2467
4  2477 9091 9090 9093
4  2477 9093 9092 9091
4  9092 9091 9093 8969
4  8969 8970 9091 9093
4  9090 9093 9091 8970
4  2477 5247 9090 2460
4  2477 9093 5248 2467
4  2477 9090 5247 5248
4  2477 5248 9093 9090
4  9093 9090 5248 8970
4  8970 4815 9090 5248
4  5247 5248 9090 4815
4  2477 9091 2476 2460
4  2477 2463 9092 2467
4  2477 2476 9091 9092
4  2477 9092 2463 2476
4  2463 2476 9092 1713
4  1713 8969 2476 9092
4  9091 9092 2476 8969
4  2471 9094 9095 2474
4  2471 9093 9092 2467
4  2471 9095 9094 9093
4  2471 9092 9093 9094
4  9093 9095 9094 8970
4  8970 8969 9094 9093
4  9094 9092 9093 8969
4  2471 9095 5251 2474
4  2471 5252 9093 2467
4  2471 5251 9095 9093
4  2471 9093 5252 5251
4  5252 5251 9093 4819
4  4819 8970 5251 9093
4  9095 9093 5251 8970
4  9093 5252 5248 2467
4  8970 4819 4815 9096
4  5248 5252 9093 9096
4  9093 5252 4819 9096
4  4819 8970 9093 9096
4  5252 5248 4815 9096
4  4815 4819 5252 9096
4  5248 9093 8970 9096
4  8970 4815 5248 9096
4  2463 2470 9092 2467
4  2470 2463 9092 1716
4  2463 1713 9092 1716
4  9092 1713 8969 1716
4  2471 2472 9094 2474
4  2471 9092 2470 2467
4  2471 9094 2472 9092
4  2471 2470 9092 2472
4  9092 9094 2472 8969
4  8969 1716 2472 9092
4  2472 2470 9092 1716
4  2494 9097 9098 2474
4  2494 9099 9100 2488
4  2494 9098 9097 9100
4  2494 9100 9099 9098
4  9099 9098 9100 8972
4  8972 8973 9098 9100
4  9097 9100 9098 8973
4  2494 5259 9097 2474
4  2494 9100 5260 2488
4  2494 9097 5259 5260
4  2494 5260 9100 9097
4  9100 9097 5260 8973
4  8973 4818 9097 5260
4  5259 5260 9097 4818
4  2494 9098 2493 2474
4  2494 2487 9099 2488
4  2494 2493 9098 9099
4  2494 9099 2487 2493
4  2487 2493 9099 1707
4  1707 8972 2493 9099
4  9098 9099 2493 8972
4  9101 9102 9099 2488
4  9102 9101 9099 8975
4  9101 8976 9099 8975
4  9099 8976 8972 8975
4  2496 9103 9104 2498
4  2496 9105 9101 2488
4  2496 9104 9103 9101
4  2496 9101 9105 9104
4  9105 9104 9101 8979
4  8979 8976 9104 9101
4  9103 9101 9104 8976
4  5264 9102 9105 2488
4  9102 5264 9105 8975
4  5264 4823 9105 8975
4  9105 4823 8979 8975
4  2496 9104 5263 2498
4  2496 5264 9105 2488
4  2496 5263 9104 9105
4  2496 9105 5264 5263
4  5264 5263 9105 4823
4  4823 8979 5263 9105
4  9104 9105 5263 8979
4  9099 9102 9100 2488
4  9102 9099 9100 8975
4  9099 8972 9100 8975
4  9100 8972 8973 8975
4  5260 9102 5264 2488
4  9102 5260 5264 8975
4  5260 4818 5264 8975
4  5264 4818 4823 8975
4  2496 2497 9103 2498
4  2496 9101 2486 2488
4  2496 9103 2497 2486
4  2496 2486 9101 9103
4  9101 9103 2486 8976
4  8976 1711 9103 2486
4  2497 2486 9103 1711
4  2487 9101 9099 2488
4  9101 2487 9099 8976
4  2487 1707 9099 8976
4  9099 1707 8972 8976
4  2486 9101 2487 2488
4  9101 2486 2487 8976
4  2486 1711 2487 8976
4  2487 1711 1707 8976
4  9100 9102 5260 2488
4  9102 9100 5260 8975
4  9100 8973 5260 8975
4  5260 8973 4818 8975
4  9105 9102 9101 2488
4  9102 9105 9101 8975
4  9105 8979 9101 8975
4  9101 8979 8976 8975
4  2501 9106 9107 2498
4  2501 9108 9109 2505
4  2501 9107 9106 9109
4  2501 9109 9108 9107
4  9108 9107 9109 8977
4  8977 8978 9107 9109
4  9106 9109 9107 8978
4  2501 5270 9106 2498
4  2501 9109 5271 2505
4  2501 9106 5270 5271
4  2501 5271 9109 9106
4  9109 9106 5271 8978
4  8978 4822 9106 5271
4  5270 5271 9106 4822
4  2501 9107 2500 2498
4  2501 2503 9108 2505
4  2501 2500 9107 9108
4  2501 9108 2503 2500
4  2503 2500 9108 1815
4  1815 8977 2500 9108
4  9107 9108 2500 8977
4  9108 2503 9110 2505
4  2503 9108 9110 1815
4  9108 8977 9110 1815
4  9110 8977 8980 1815
4  2509 9111 5275 2513
4  2509 5277 9109 2505
4  2509 5275 9111 9109
4  2509 9109 5277 5275
4  5277 5275 9109 4828
4  4828 8978 5275 9109
4  9111 9109 5275 8978
4  2509 2511 9112 2513
4  2509 9110 2508 2505
4  2509 9112 2511 2508
4  2509 2508 9110 9112
4  9110 9112 2508 8980
4  8980 1816 9112 2508
4  2511 2508 9112 1816
4  9109 9108 9110 2505
4  9108 9109 9110 8977
4  9109 8978 9110 8977
4  9110 8978 8980 8977
4  9110 2503 2508 2505
4  8980 1815 1816 9113
4  2508 2503 9110 9113
4  9110 2503 1815 9113
4  1815 8980 9110 9113
4  2503 2508 1816 9113
4  1816 1815 2503 9113
4  2508 9110 8980 9113
4  8980 1816 2508 9113
4  2509 9112 9111 2513
4  2509 9109 9110 2505
4  2509 9111 9112 9110
4  2509 9110 9109 9111
4  9109 9111 9110 8978
4  8978 8980 9111 9110
4  9112 9110 9111 8980
4  9109 5277 5271 2505
4  8978 4828 4822 9114
4  5271 5277 9109 9114
4  9109 5277 4828 9114
4  4828 8978 9109 9114
4  5277 5271 4822 9114
4  4822 4828 5277 9114
4  5271 9109 8978 9114
4  8978 4822 5271 9114
4  2519 5279 9115 2513
4  2519 9116 5280 2523
4  2519 9115 5279 5280
4  2519 5280 9116 9115
4  9116 9115 5280 8981
4  8981 4827 9115 5280
4  5279 5280 9115 4827
4  2519 9117 2518 2513
4  2519 2521 9118 2523
4  2519 2518 9117 9118
4  2519 9118 2521 2518
4  2521 2518 9118 1818
4  1818 8982 2518 9118
4  9117 9118 2518 8982
4  2519 9115 9117 2513
4  2519 9118 9116 2523
4  2519 9117 9115 9116
4  2519 9116 9118 9117
4  9118 9117 9116 8982
4  8982 8981 9117 9116
4  9115 9116 9117 8981
4  5280 9116 9119 2523
4  9116 5280 9119 8981
4  5280 4827 9119 8981
4  9119 4827 8984 8981
4  2531 2532 9120 2533
4  2531 9121 2530 2523
4  2531 9120 2532 2530
4  2531 2530 9121 9120
4  9121 9120 2530 8986
4  8986 1824 9120 2530
4  2532 2530 9120 1824
4  9118 2521 9121 2523
4  2521 9118 9121 1818
4  9118 8982 9121 1818
4  9121 8982 8986 1818
4  9116 9118 9121 2523
4  9118 9116 9121 8982
4  9116 8981 9121 8982
4  9121 8981 8986 8982
4  2531 9122 5289 2533
4  2531 5287 9119 2523
4  2531 5289 9122 9119
4  2531 9119 5287 5289
4  5287 5289 9119 4834
4  4834 8984 5289 9119
4  9122 9119 5289 8984
4  9121 2521 2530 2523
4  8986 1818 1824 9123
4  2530 2521 9121 9123
4  9121 2521 1818 9123
4  1818 8986 9121 9123
4  2521 2530 1824 9123
4  1824 1818 2521 9123
4  2530 9121 8986 9123
4  8986 1824 2530 9123
4  9119 9116 9121 2523
4  9116 9119 9121 8981
4  9119 8984 9121 8981
4  9121 8984 8986 8981
4  2531 9120 9122 2533
4  2531 9119 9121 2523
4  2531 9122 9120 9121
4  2531 9121 9119 9122
4  9119 9122 9121 8984
4  8984 8986 9122 9121
4  9120 9121 9122 8986
4  9119 5287 5280 2523
4  5287 9119 5280 4834
4  9119 8984 4827 4834
4  5280 9119 4827 4834
4  2537 9124 2536 2533
4  2537 2539 9125 2541
4  2537 2536 9124 9125
4  2537 9125 2539 2536
4  2539 2536 9125 1825
4  1825 8985 2536 9125
4  9124 9125 2536 8985
4  2537 5293 9126 2533
4  2537 9127 5294 2541
4  2537 9126 5293 5294
4  2537 5294 9127 9126
4  9127 9126 5294 8987
4  8987 4836 9126 5294
4  5293 5294 9126 4836
4  2537 9126 9124 2533
4  2537 9125 9127 2541
4  2537 9124 9126 9127
4  2537 9127 9125 9124
4  9125 9124 9127 8985
4  8985 8987 9124 9127
4  9126 9127 9124 8987
4  9128 9127 9129 2541
4  9127 9128 9129 8987
4  9128 8989 9129 8987
4  9129 8989 8990 8987
4  5294 9127 9128 2541
4  9127 5294 9128 8987
4  5294 4836 9128 8987
4  9128 4836 8989 8987
4  2539 2545 9129 2541
4  2545 2539 9129 1826
4  2539 1825 9129 1826
4  9129 1825 8990 1826
4  2549 9130 9131 2548
4  2549 9132 9129 2541
4  2549 9131 9130 9129
4  2549 9129 9132 9131
4  9132 9131 9129 8991
4  8991 8990 9131 9129
4  9130 9129 9131 8990
4  2549 9131 5299 2548
4  2549 5301 9132 2541
4  2549 5299 9131 9132
4  2549 9132 5301 5299
4  5301 5299 9132 4842
4  4842 8991 5299 9132
4  9131 9132 5299 8991
4  9125 2539 9129 2541
4  2539 9125 9129 1825
4  9125 8985 9129 1825
4  9129 8985 8990 1825
4  2549 2546 9130 2548
4  2549 9129 2545 2541
4  2549 9130 2546 9129
4  2549 2545 9129 2546
4  9129 9130 2546 8990
4  8990 1826 2546 9129
4  2546 2545 9129 1826
4  9132 5301 9128 2541
4  5301 9132 9128 4842
4  9132 8991 9128 4842
4  9128 8991 8989 4842
4  9128 5301 5294 2541
4  5301 9128 5294 4842
4  9128 8989 4836 4842
4  5294 9128 4836 4842
4  9127 9125 9129 2541
4  9125 9127 9129 8985
4  9127 8987 9129 8985
4  9129 8987 8990 8985
4  9129 9132 9128 2541
4  9132 9129 9128 8991
4  9129 8990 8989 8991
4  9128 9129 8989 8991
4  2554 9133 9134 2025
4  2554 9135 9136 2557
4  2554 9134 9133 9136
4  2554 9136 9135 9134
4  9135 9134 9136 8912
4  8912 8910 9134 9136
4  9133 9136 9134 8910
4  2554 9134 5302 2025
4  2554 5305 9135 2557
4  2554 5302 9134 9135
4  2554 9135 5305 5302
4  5305 5302 9135 4663
4  4663 8912 5302 9135
4  9134 9135 5302 8912
4  2554 2555 9133 2025
4  2554 9136 2558 2557
4  2554 9133 2555 2558
4  2554 2558 9136 9133
4  9136 9133 2558 8910
4  8910 1681 9133 2558
4  2555 2558 9133 1681
4  2568 9137 9138 2548
4  2568 9139 9135 2557
4  2568 9138 9137 9135
4  2568 9135 9139 9138
4  9139 9138 9135 8992
4  8992 8912 9138 9135
4  9137 9135 9138 8912
4  2568 5309 9137 2548
4  2568 9135 5310 2557
4  2568 9137 5309 5310
4  2568 5310 9135 9137
4  9135 9137 5310 8912
4  8912 4843 9137 5310
4  5309 5310 9137 4843
4  2568 9138 2566 2548
4  2568 2565 9139 2557
4  2568 2566 9138 9139
4  2568 9139 2565 2566
4  2565 2566 9139 1829
4  1829 8992 2566 9139
4  9138 9139 2566 8992
4  9136 9135 9140 2557
4  9135 9136 9140 8912
4  9136 8910 9140 8912
4  9140 8910 8993 8912
4  9135 5305 5310 2557
4  8912 4663 4843 9141
4  5310 5305 9135 9141
4  9135 5305 4663 9141
4  4663 8912 9135 9141
4  5305 5310 4843 9141
4  4843 4663 5305 9141
4  5310 9135 8912 9141
4  8912 4843 5310 9141
4  2565 2558 9140 2557
4  2558 2565 9140 1681
4  2565 1829 9140 1681
4  9140 1829 8993 1681
4  2558 9136 9140 2557
4  9136 2558 9140 8910
4  2558 1681 9140 8910
4  9140 1681 8993 8910
4  9135 9139 9140 2557
4  9139 9135 9140 8992
4  9135 8912 9140 8992
4  9140 8912 8993 8992
4  9139 2565 9140 2557
4  2565 9139 9140 1829
4  9139 8992 9140 1829
4  9140 8992 8993 1829
4  9134 9133 8995 2025
4  9133 9134 8995 8910
4  9134 8912 8995 8910
4  8995 8912 8911 8910
4  8995 9133 8996 2025
4  9133 8995 8996 8910
4  8995 8911 8996 8910
4  8996 8911 8350 8910
4  5302 9134 4988 2025
4  9134 5302 4988 8912
4  5302 4663 4988 8912
4  4988 4663 4662 8912
4  4988 9134 8995 2025
4  9134 4988 8995 8912
4  4988 4662 8995 8912
4  8995 4662 8911 8912
4  9133 2555 8996 2025
4  2555 9133 8996 1681
4  9133 8910 8996 1681
4  8996 8910 8350 1681
4  2555 2026 8996 2025
4  1681 1045 8350 9142
4  8996 2026 2555 9142
4  2555 2026 1045 9142
4  1045 1681 2555 9142
4  2026 8996 8350 9142
4  8350 1045 2026 9142
4  8996 2555 1681 9142
4  1681 8350 8996 9142
4  4997 8999 5085 2051
4  8999 4997 5085 8353
4  4997 1082 5085 8353
4  5085 1082 4674 8353
4  5085 8999 9002 2051
4  8999 5085 9002 8353
4  5085 4674 9002 8353
4  9002 4674 8914 8353
4  9001 2049 9004 2051
4  2049 9001 9004 1694
4  9001 8915 9004 1694
4  9004 8915 8916 1694
4  2049 2249 9004 2051
4  1694 1695 8916 9143
4  9004 2249 2049 9143
4  2049 2249 1695 9143
4  1695 1694 2049 9143
4  2249 9004 8916 9143
4  8916 1695 2249 9143
4  9004 2049 1694 9143
4  1694 8916 9004 9143
4  8999 9001 9002 2051
4  9001 8999 9002 8915
4  8999 8353 9002 8915
4  9002 8353 8914 8915
4  9002 9001 9004 2051
4  9001 9002 9004 8915
4  9002 8914 9004 8915
4  9004 8914 8916 8915
4  9098 9095 9094 2474
4  9095 9098 9094 8970
4  9098 8972 9094 8970
4  9094 8972 8969 8970
4  9097 9095 9098 2474
4  9095 9097 9098 8970
4  9097 8973 9098 8970
4  9098 8973 8972 8970
4  5251 9095 5259 2474
4  9095 5251 5259 8970
4  5251 4819 5259 8970
4  5259 4819 4818 8970
4  5259 9095 9097 2474
4  9095 5259 9097 8970
4  5259 4818 9097 8970
4  9097 4818 8973 8970
4  2472 2493 9094 2474
4  2493 2472 9094 1707
4  2472 1716 8969 1707
4  9094 2472 8969 1707
4  2493 9098 9094 2474
4  9098 2493 9094 8972
4  2493 1707 9094 8972
4  9094 1707 8969 8972
4  9078 9077 9079 2438
4  9077 9078 9079 8961
4  9078 8959 9079 8961
4  9079 8959 8964 8961
4  9079 9077 9080 2438
4  9077 9079 9080 8961
4  9079 8964 9080 8961
4  9080 8964 8963 8961
4  9079 5215 9078 2438
4  5215 9079 9078 4809
4  9079 8964 8959 4809
4  9078 9079 8959 4809
4  5224 5215 9079 2438
4  5215 5224 9079 4809
4  5224 4808 9079 4809
4  9079 4808 8964 4809
4  9080 9077 2437 2438
4  9077 9080 2437 8961
4  9080 8963 2437 8961
4  2437 8963 1726 8961
4  2445 9080 2437 2438
4  9080 2445 2437 8963
4  2445 1729 2437 8963
4  2437 1729 1726 8963
4  5094 9008 5098 2260
4  9008 5094 5098 8918
4  5094 4744 5098 8918
4  5098 4744 4747 8918
4  5098 9008 9010 2260
4  9008 5098 9010 8918
4  5098 4747 9010 8918
4  9010 4747 8919 8918
4  9008 2258 9010 2260
4  2258 9008 9010 1765
4  9008 8918 9010 1765
4  9010 8918 8919 1765
4  2258 2267 9010 2260
4  1765 1766 8919 9144
4  9010 2267 2258 9144
4  2258 2267 1766 9144
4  1766 1765 2258 9144
4  2267 9010 8919 9144
4  8919 1766 2267 9144
4  9010 2258 1765 9144
4  1765 8919 9010 9144
4  9016 5110 9015 2277
4  5110 9016 9015 4754
4  9016 8924 9015 4754
4  9015 8924 8922 4754
4  5110 5106 9015 2277
4  4754 4750 8922 9145
4  9015 5106 5110 9145
4  5110 5106 4750 9145
4  4750 4754 5110 9145
4  5106 9015 8922 9145
4  8922 4750 5106 9145
4  9015 5110 4754 9145
4  4754 8922 9015 9145
4  2285 9016 2274 2277
4  9016 2285 2274 8924
4  2285 1769 2274 8924
4  2274 1769 1770 8924
4  2274 9016 9015 2277
4  9016 2274 9015 8924
4  2274 1770 9015 8924
4  9015 1770 8922 8924
4  2303 9024 2292 2295
4  9024 2303 2292 8930
4  2303 1774 2292 8930
4  2292 1774 1775 8930
4  2292 9024 9023 2295
4  9024 2292 9023 8930
4  2292 1775 9023 8930
4  9023 1775 8927 8930
4  5121 5116 9024 2295
4  5116 5121 9024 4760
4  5121 4759 9024 4760
4  9024 4759 8930 4760
4  9024 5116 9023 2295
4  5116 9024 9023 4760
4  9024 8930 9023 4760
4  9023 8930 8927 4760
4  9030 5134 9028 2317
4  5134 9030 9028 4768
4  9030 8933 9028 4768
4  9028 8933 8932 4768
4  5134 5130 9028 2317
4  4768 4766 8932 9146
4  9028 5130 5134 9146
4  5134 5130 4766 9146
4  4766 4768 5134 9146
4  5130 9028 8932 9146
4  8932 4766 5130 9146
4  9028 5134 4768 9146
4  4768 8932 9028 9146
4  2321 9030 2316 2317
4  9030 2321 2316 8933
4  2321 1782 2316 8933
4  2316 1782 1779 8933
4  2316 9030 9028 2317
4  9030 2316 9028 8933
4  2316 1779 9028 8933
4  9028 1779 8932 8933
4  9035 5145 9034 2331
4  5145 9035 9034 4774
4  9035 8937 9034 4774
4  9034 8937 8936 4774
4  9034 5145 5141 2331
4  5145 9034 5141 4774
4  9034 8936 5141 4774
4  5141 8936 4772 4774
4  2339 9035 2328 2331
4  9035 2339 2328 8937
4  2339 1784 2328 8937
4  2328 1784 1785 8937
4  2328 9035 9034 2331
4  9035 2328 9034 8937
4  2328 1785 9034 8937
4  9034 1785 8936 8937
4  9039 2349 9041 2351
4  2349 9039 9041 1788
4  9039 8939 9041 1788
4  9041 8939 8940 1788
4  2349 2356 9041 2351
4  1788 1790 8940 9147
4  9041 2356 2349 9147
4  2349 2356 1790 9147
4  1790 1788 2349 9147
4  2356 9041 8940 9147
4  8940 1790 2356 9147
4  9041 2349 1788 9147
4  1788 8940 9041 9147
4  9039 5156 5150 2351
4  5156 9039 5150 4778
4  9039 8939 5150 4778
4  5150 8939 4779 4778
4  9041 5156 9039 2351
4  5156 9041 9039 4778
4  9041 8940 8939 4778
4  9039 9041 8939 4778
4  9050 9049 9046 2367
4  9049 9050 9046 8945
4  9050 8947 9046 8945
4  9046 8947 8946 8945
4  9046 9049 9047 2367
4  9049 9046 9047 8945
4  9046 8946 9047 8945
4  9047 8946 8943 8945
4  9049 5167 9047 2367
4  5167 9049 9047 4786
4  9049 8945 9047 4786
4  9047 8945 8943 4786
4  9047 5167 5163 2367
4  5167 9047 5163 4786
4  9047 8943 5163 4786
4  5163 8943 4784 4786
4  2375 9050 9046 2367
4  9050 2375 9046 8947
4  2375 1794 9046 8947
4  9046 1794 8946 8947
4  2364 2375 9046 2367
4  2375 2364 9046 1794
4  2364 1795 8946 1794
4  9046 2364 8946 1794
4  2392 9057 2389 2390
4  9057 2392 2389 8949
4  2392 1802 2389 8949
4  2389 1802 1798 8949
4  2389 9057 9054 2390
4  9057 2389 9054 8949
4  2389 1798 9054 8949
4  9054 1798 8948 8949
4  9057 5178 9054 2390
4  5178 9057 9054 4792
4  9057 8949 9054 4792
4  9054 8949 8948 4792
4  5178 5174 9054 2390
4  4792 4788 8948 9148
4  9054 5174 5178 9148
4  5178 5174 4788 9148
4  4788 4792 5178 9148
4  5174 9054 8948 9148
4  8948 4788 5174 9148
4  9054 5178 4792 9148
4  4792 8948 9054 9148
4  2410 9063 2407 2408
4  9063 2410 2407 8953
4  2410 1807 2407 8953
4  2407 1807 1803 8953
4  2407 9063 9061 2408
4  9063 2407 9061 8953
4  2407 1803 9061 8953
4  9061 1803 8952 8953
4  9063 5188 9061 2408
4  5188 9063 9061 4797
4  9063 8953 9061 4797
4  9061 8953 8952 4797
4  9061 5188 5182 2408
4  5188 9061 5182 4797
4  9061 8952 5182 4797
4  5182 8952 4796 4797
4  9068 9067 9069 2425
4  9067 9068 9069 8955
4  9068 8956 9069 8955
4  9069 8956 8958 8955
4  9069 9067 9070 2425
4  9067 9069 9070 8955
4  9069 8958 9070 8955
4  9070 8958 8957 8955
4  2424 2440 9067 2425
4  2440 2424 9067 1812
4  2424 1811 8955 1812
4  9067 2424 8955 1812
4  9067 2440 9070 2425
4  8955 1812 8957 9149
4  9070 2440 9067 9149
4  9067 2440 1812 9149
4  1812 8955 9067 9149
4  2440 9070 8957 9149
4  8957 1812 2440 9149
4  9070 9067 8955 9149
4  8955 8957 9070 9149
4  9068 5213 5198 2425
4  5213 9068 5198 4806
4  9068 8956 5198 4806
4  5198 8956 4805 4806
4  9069 5213 9068 2425
4  5213 9069 9068 4806
4  9069 8958 8956 4806
4  9068 9069 8956 4806
4  9088 9087 9090 2460
4  9087 9088 9090 8968
4  9088 8967 9090 8968
4  9090 8967 8970 8968
4  9090 9087 9091 2460
4  9087 9090 9091 8968
4  9090 8970 9091 8968
4  9091 8970 8969 8968
4  9088 5247 5230 2460
4  5247 9088 5230 4815
4  9088 8967 5230 4815
4  5230 8967 4814 4815
4  9090 5247 9088 2460
4  5247 9090 9088 4815
4  9090 8970 8967 4815
4  9088 9090 8967 4815
4  9087 2459 9091 2460
4  2459 9087 9091 1814
4  9087 8968 9091 1814
4  9091 8968 8969 1814
4  2459 2476 9091 2460
4  1814 1713 8969 9150
4  9091 2476 2459 9150
4  2459 2476 1713 9150
4  1713 1814 2459 9150
4  2476 9091 8969 9150
4  8969 1713 2476 9150
4  9091 2459 1814 9150
4  1814 8969 9091 9150
4  9104 9103 9106 2498
4  9103 9104 9106 8976
4  9104 8979 9106 8976
4  9106 8979 8978 8976
4  9106 9103 9107 2498
4  9103 9106 9107 8976
4  9106 8978 9107 8976
4  9107 8978 8977 8976
4  9104 5270 5263 2498
4  5270 9104 5263 4822
4  9104 8979 5263 4822
4  5263 8979 4823 4822
4  9106 5270 9104 2498
4  5270 9106 9104 4822
4  9106 8978 8979 4822
4  9104 9106 8979 4822
4  9103 2497 9107 2498
4  2497 9103 9107 1711
4  9103 8976 9107 1711
4  9107 8976 8977 1711
4  2497 2500 9107 2498
4  1711 1815 8977 9151
4  9107 2500 2497 9151
4  2497 2500 1815 9151
4  1815 1711 2497 9151
4  2500 9107 8977 9151
4  8977 1815 2500 9151
4  9107 2497 1711 9151
4  1711 8977 9107 9151
4  5275 9111 5279 2513
4  9111 5275 5279 8978
4  5275 4828 5279 8978
4  5279 4828 4827 8978
4  5279 9111 9115 2513
4  9111 5279 9115 8978
4  5279 4827 9115 8978
4  9115 4827 8981 8978
4  9112 2511 9117 2513
4  2511 9112 9117 1816
4  9112 8980 9117 1816
4  9117 8980 8982 1816
4  2511 2518 9117 2513
4  1816 1818 8982 9152
4  9117 2518 2511 9152
4  2511 2518 1818 9152
4  1818 1816 2511 9152
4  2518 9117 8982 9152
4  8982 1818 2518 9152
4  9117 2511 1816 9152
4  1816 8982 9117 9152
4  9111 9112 9115 2513
4  9112 9111 9115 8980
4  9111 8978 9115 8980
4  9115 8978 8981 8980
4  9115 9112 9117 2513
4  9112 9115 9117 8980
4  9115 8981 9117 8980
4  9117 8981 8982 8980
4  9120 2532 9124 2533
4  2532 9120 9124 1824
4  9120 8986 9124 1824
4  9124 8986 8985 1824
4  2532 2536 9124 2533
4  1824 1825 8985 9153
4  9124 2536 2532 9153
4  2532 2536 1825 9153
4  1825 1824 2532 9153
4  2536 9124 8985 9153
4  8985 1825 2536 9153
4  9124 2532 1824 9153
4  1824 8985 9124 9153
4  9122 5293 5289 2533
4  5293 9122 5289 4836
4  9122 8984 5289 4836
4  5289 8984 4834 4836
4  9126 5293 9122 2533
4  5293 9126 9122 4836
4  9126 8987 9122 4836
4  9122 8987 8984 4836
4  9120 9126 9122 2533
4  9126 9120 9122 8987
4  9120 8986 9122 8987
4  9122 8986 8984 8987
4  9124 9126 9120 2533
4  9126 9124 9120 8987
4  9124 8985 8986 8987
4  9120 9124 8986 8987
4  9138 9137 9130 2548
4  9137 9138 9130 8912
4  9138 8992 9130 8912
4  9130 8992 8990 8912
4  9130 9137 9131 2548
4  9137 9130 9131 8912
4  9130 8990 9131 8912
4  9131 8990 8991 8912
4  9137 5309 9131 2548
4  5309 9137 9131 4843
4  9137 8912 9131 4843
4  9131 8912 8991 4843
4  9131 5309 5299 2548
4  5309 9131 5299 4843
4  9131 8991 5299 4843
4  5299 8991 4842 4843
4  2566 9138 9130 2548
4  9138 2566 9130 8992
4  2566 1829 9130 8992
4  9130 1829 8990 8992
4  2546 2566 9130 2548
4  2566 2546 9130 1829
4  2546 1826 8990 1829
4  9130 2546 8990 1829
CELL_TYPES 17877
10
10
10
10
10
10
10
10
10
10
10
10
10
10
10
10
10
10
10
10
10
10
10
10
10
10
10
10
10
10
10
10
10
10
10
10
10
10
10
10
10
10
10
10
10
10
10
10
10
10
10
10
10
10
10
10
10
10
10
10
10
10
10
10
10
10
10
10
10
10
10
10
10
10
10
10
10
10
10
10
10
10
10
10
10
10
10
10
10
10
10
10
10
10
10
10
10
10
10
10
10
10
10
10
10
10
10
10
10
10
10
10
10
10
10
10
10
10
10
10
10
10
10
10
10
10
10
10
10
10
10
10
10
10
10
10
10
10
10
10
10
10
10
10
10
10
10
10
10
10
10
10
10
10
10
10
10
10
10
10
10
10
10
10
10
10
10
10
10
10
10
10
10
10
10
10
10
10
10
10
10
10
10
10
10
10
10
10
10
10
10
10
10
10
10
10
10
10
10
10
10
10
10
10
10
10
10
10
10
10
10
10
10
10
10
10
10
10
10
10
10
10
10
10
10
10
10
10
10
10
10
10
10
10
10
10
10
10
10
10
10
10
10
10
10
10
10
10
10
10
10
10
10
10
10
10
10
10
10
10
10
10
10
10
10
10
10
10
10
10
10
10
10
10
10
10
10
10
10
10
10
10
10
10
10
10
10
10
10
10
10
10
10
10
10
10
10
10
10
10
10
10
10
10
10
10
10
10
10
10
10
10
10
10
10
10
10
10
10
10
10
10
10
10
10
10
10
10
10
10
10
10
10
10
10
10
10
10
10
10
10
10
10
10
10
10
10
10
10
10
10
10
10
10
10
10
10
10
10
10
10
10
10
10
10
10
10
10
10
10
10
10
10
10
10
10
10
10
10
10
10
10
10
10
10
10
10
10
10
10
10
10
10
10
10
10
10
10
10
10
10
10
10
10
10
10
10
10
10
10
10
10
10
10
10
10
10
10
10
10
10
10
10
10
10
10
10
10
10
10
10
10
10
10
10
10
10
10
10
10
10
10
10
10
10
10
10
10
10
10
10
10
10
10
10
10
10
10
10
10
10
10
10
10
10
10
10
10
10
10
10
10
10
10
10
10
10
10
10
10
10
10
10
10
10
10
10
10
10
10
10
10
10
10
10
10
10
10
10
10
10
10
10
10
10
10
10
10
10
10
10
10
10
10
10
10
10
10
10
10
10
10
10
10
10
10
10
10
10
10
10
10
10
10
10
10
10
10
10
10
10
10
10
10
10
10
10
10
10
10
10
10
10
10
10
10
10
10
10
10
10
10
10
10
10
10
10
10
10
10
10
10
10
10
10
10
10
10
10
10
10
10
10
10
10
10
10
10
10
10
10
10
10
10
10
10
10
10
10
10
10
10
10
10
10
10
10
10
10
10
10
10
10
10
10
10
10
10
10
10
10
10
10
10
10
10
10
10
10
10
10
10
10
10
10
10
10
10
10
10
10
10
10
10
10
10
10
10
10
10
10
10
10
10
10
10
10
10
10
10
10
10
10
10
10
10
10
10
10
10
10
10
10
10
10
10
10
10
10
10
10
10
10
10
10
10
10
10
10
10
10
10
10
10
10
10
10
10
10
10
10
10
10
10
10
10
10
10
10
10
10
10
10
10
10
10
10
10
10
10
10
10
10
10
10
10
10
10
10
10
10
10
10
10
10
10
10
10
10
10
10
10
10
10
10
10
10
10
10
10
10
10
10
10
10
10
10
10
10
10
10
10
10
10
10
10
10
10
10
10
10
10
10
10
10
10
10
10
10
10
10
10
10
10
10
10
10
10
10
10
10
10
10
10
10
10
10
10
10
10
10
10
10
10
10
10
10
10
10
10
10
10
10
10
10
10
10
10
10
10
10
10
10
10
10
10
10
10
10
10
10
10
10
10
10
10
10
10
10
10
10
10
10
10
10
10
10
10
10
10
10
10
10
10
10
10
10
10
10
10
10
10
10
10
10
10
10
10
10
10
10
10
10
10
10
10
10
10
10
10
10
10
10
10
10
10
10
10
10
10
10
10
10
10
10
10
10
10
10
10
10
10
10
10
10
10
10
10
10
10
10
10
10
10
10
10
10
10
10
10
10
10
10
10
10
10
10
10
10
10
10
10
10
10
10
10
10
10
10
10
10
10
10
10
10
10
10
10
10
10
10
10
10
10
10
10
10
10
10
10
10
10
10
10
10
10
10
10
10
10
10
10
10
10
10
10
10
10
10
10
10
10
10
10
10
10
10
10
10
10
10
10
10
10
10
10
10
10
10
10
10
10
10
10
10
10
10
10
10
10
10
10
10
10
10
10
10
10
10
10
10
10
10
10
10
10
10
10
10
10
10
10
10
10
10
10
10
10
10
10
10
10
10
10
10
10
10
10
10
10
10
10
10
10
10
10
10
10
10
10
10
10
10
10
10
10
10
10
10
10
10
10
10
10
10
10
10
10
10
10
10
10
10
10
10
10
10
10
10
10
10
10
10
10
10
10
10
10
10
10
10
10
10
10
10
10
10
10
10
10
10
10
10
10
10
10
10
10
10
10
10
10
10
10
10
10
10
10
10
10
10
10
10
10
10
10
10
10
10
10
10
10
10
10
10
10
10
10
10
10
10
10
10
10
10
10
10
10
10
10
10
10
10
10
10
10
10
10
10
10
10
10
10
10
10
10
10
10
10
10
10
10
10
10
10
10
10
10
10
10
10
10
10
10
10
10
10
10
10
10
10
10
10
10
10
10
10
10
10
10
10
10
10
10
10
10
10
10
10
10
10
10
10
10
10
10
10
10
10
10
10
10
10
10
10
10
10
10
10
10
10
10
10
10
10
10
10
10
10
10
10
10
10
10
10
10
10
10
10
10
10
10
10
10
10
10
10
10
10
10
10
10
10
10
10
10
10
10
10
10
10
10
10
10
10
10
10
10
10
10
10
10
10
10
10
10
10
10
10
10
10
10
10
10
10
10
10
10
10
10
10
10
10
10
10
10
10
10
10
10
10
10
10
10
10
10
10
10
10
10
10
10
10
10
10
10
10
10
10
10
10
10
10
10
10
10
10
10
10
10
10
10
10
10
10
10
10
10
10
10
10
10
10
10
10
10
10
10
10
10
10
10
10
10
10
10
10
10
10
10
10
10
10
10
10
10
10
10
10
10
10
10
10
10
10
10
10
10
10
10
10
10
10
10
10
10
10
10
10
10
10
10
10
10
10
10
10
10
10
10
10
10
10
10
10
10
10
10
10
10
10
10
10
10
10
10
10
10
10
10
10
10
10
10
10
10
10
10
10
10
10
10
10
10
10
10
10
10
10
10
10
10
10
10
10
10
10
10
10
10
10
10
10
10
10
10
10
10
10
10
10
10
10
10
10
10
10
10
10
10
10
10
10
10
10
10
10
10
10
10
10
10
10
10
10
10
10
10
10
10
10
10
10
10
10
10
10
10
10
10
10
10
10
10
10
10
10
10
10
10
10
10
10
10
10
10
10
10
10
10
10
10
10
10
10
10
10
10
10
10
10
10
10
10
10
10
10
10
10
10
10
10
10
10
10
10
10
10
10
10
10
10
10
10
10
10
10
10
10
10
10
10
10
10
10
10
10
10
10
10
10
10
10
10
10
10
10
10
10
10
10
10
10
10
10
10
10
10
10
10
10
10
10
10
10
10
10
10
10
10
10
10
10
10
10
10
10
10
10
10
10
10
10
10
10
10
10
10
10
10
10
10
10
10
10
10
10
10
10
10
10
10
10
10
10
10
10
10
10
10
10
10
10
10
10
10
10
10
10
10
10
10
10
10
10
10
10
10
10
10
10
10
10
10
10
10
10
10
10
10
10
10
10
10
10
10
10
10
10
10
10
10
10
10
10
10
10
10
10
10
10
10
10
10
10
10
10
10
10
10
10
10
10
10
10
10
10
10
10
10
10
10
10
10
10
10
10
10
10
10
10
10
10
10
10
10
10
10
10
10
10
10
10
10
10
10
10
10
10
10
10
10
10
10
10
10
10
10
10
10
10
10
10
10
10
10
10
10
10
10
10
10
10
10
10
10
10
10
10
10
10
10
10
10
10
10
10
10
10
10
10
10
10
10
10
10
10
10
10
10
10
10
10
10
10
10
10
10
10
10
10
10
10
10
10
10
10
10
10
10
10
10
10
10
10
10
10
10
10
10
10
10
10
10
10
10
10
10
10
10
10
10
10
10
10
10
10
10
10
10
10
10
10
10
10
10
10
10
10
10
10
10
10
10
10
10
10
10
10
10
10
10
10
10
10
10
10
10
10
10
10
10
10
10
10
10
10
10
10
10
10
10
10
10
10
10
10
10
10
10
10
10
10
10
10
10
10
10
10
10
10
10
10
10
10
10
10
10
10
10
10
10
10
10
10
10
10
10
10
10
10
10
10
10
10
10
10
10
10
10
10
10
10
10
10
10
10
10
10
10
10
10
10
10
10
10
10
10
10
10
10
10
10
10
10
10
10
10
10
10
10
10
10
10
10
10
10
10
10
10
10
10
10
10
10
10
10
10
10
10
10
10
10
10
10
10
10
10
10
10
10
10
10
10
10
10
10
10
10
10
10
10
10
10
10
10
10
10
10
10
10
10
10
10
10
10
10
10
10
10
10
10
10
10
10
10
10
10
10
10
10
10
10
10
10
10
10
10
10
10
10
10
10
10
10
10
10
10
10
10
10
10
10
10
10
10
10
10
10
10
10
10
10
10
10
10
10
10
10
10
10
10
10
10
10
10
10
10
10
10
10
10
10
10
10
10
10
10
10
10
10
10
10
10
10
10
10
10
10
10
10
10
10
10
10
10
10
10
10
10
10
10
10
10
10
10
10
10
10
10
10
10
10
10
10
10
10
10
10
10
10
10
10
10
10
10
10
10
10
10
10
10
10
10
10
10
10
10
10
10
10
10
10
10
10
10
10
10
10
10
10
10
10
10
10
10
10
10
10
10
10
10
10
10
10
10
10
10
10
10
10
10
10
10
10
10
10
10
10
10
10
10
10
10
10
10
10
10
10
10
10
10
10
10
10
10
10
10
10
10
10
10
10
10
10
10
10
10
10
10
10
10
10
10
10
10
10
10
10
10
10
10
10
10
10
10
10
10
10
10
10
10
10
10
10
10
10
10
10
10
10
10
10
10
10
10
10
10
10
10
10
10
10
10
10
10
10
10
10
10
10
10
10
10
10
10
10
10
10
10
10
10
10
10
10
10
10
10
10
10
10
10
10
10
10
10
10
10
10
10
10
10
10
10
10
10
10
10
10
10
10
10
10
10
10
10
10
10
10
10
10
10
10
10
10
10
10
10
10
10
10
10
10
10
10
10
10
10
10
10
10
10
10
10
10
10
10
10
10
10
10
10
10
10
10
10
10
10
10
10
10
10
10
10
10
10
10
10
10
10
10
10
10
10
10
10
10
10
10
10
10
10
10
10
10
10
10
10
10
10
10
10
10
10
10
10
10
10
10
10
10
10
10
10
10
10
10
10
10
10
10
10
10
10
10
10
10
10
10
10
10
10
10
10
10
10
10
10
10
10
10
10
10
10
10
10
10
10
10
10
10
10
10
10
10
10
10
10
10
10
10
10
10
10
10
10
10
10
10
10
10
10
10
10
10
10
10
10
10
10
10
10
10
10
10
10
10
10
10
10
10
10
10
10
10
10
10
10
10
10
10
10
10
10
10
10
10
10
10
10
10
10
10
10
10
10
10
10
10
10
10
10
10
10
10
10
10
10
10
10
10
10
10
10
10
10
10
10
10
10
10
10
10
10
10
10
10
10
10
10
10
10
10
10
10
10
10
10
10
10
10
10
10
10
10
10
10
10
10
10
10
10
10
10
10
10
10
10
10
10
10
10
10
10
10
10
10
10
10
10
10
10
10
10
10
10
10
10
10
10
10
10
10
10
10
10
10
10
10
10
10
10
10
10
10
10
10
10
10
10
10
10
10
10
10
10
10
10
10
10
10
10
10
10
10
10
10
10
10
10
10
10
10
10
10
10
10
10
10
10
10
10
10
10
10
10
10
10
10
10
10
10
10
10
10
10
10
10
10
10
10
10
10
10
10
10
10
10
10
10
10
10
10
10
10
10
10
10
10
10
10
10
10
10
10
10
10
10
10
10
10
10
10
10
10
10
10
10
10
10
10
10
10
10
10
10
10
10
10
10
10
10
10
10
10
10
10
10
10
10
10
10
10
10
10
10
10
10
10
10
10
10
10
10
10
10
10
10
10
10
10
10
10
10
10
10
10
10
10
10
10
10
10
10
10
10
10
10
10
10
10
10
10
10
10
10
10
10
10
10
10
10
10
10
10
10
10
10
10
10
10
10
10
10
10
10
10
10
10
10
10
10
10
10
10
10
10
10
10
10
10
10
10
10
10
10
10
10
10
10
10
10
10
10
10
10
10
10
10
10
10
10
10
10
10
10
10
10
10
10
10
10
10
10
10
10
10
10
10
10
10
10
10
10
10
10
10
10
10
10
10
10
10
10
10
10
10
10
10
10
10
10
10
10
10
10
10
10
10
10
10
10
10
10
10
10
10
10
10
10
10
10
10
10
10
10
10
10
10
10
10
10
10
10
10
10
10
10
10
10
10
10
10
10
10
10
10
10
10
10
10
10
10
10
10
10
10
10
10
10
10
10
10
10
10
10
10
10
10
10
10
10
10
10
10
10
10
10
10
10
10
10
10
10
10
10
10
10
10
10
10
10
10
10
10
10
10
10
10
10
10
10
10
10
10
10
10
10
10
10
10
10
10
10
10
10
10
10
10
10
10
10
10
10
10
10
10
10
10
10
10
10
10
10
10
10
10
10
10
10
10
10
10
10
10
10
10
10
10
10
10
10
10
10
10
10
10
10
10
10
10
10
10
10
10
10
10
10
10
10
10
10
10
10
10
10
10
10
10
10
10
10
10
10
10
10
10
10
10
10
10
10
10
10
10
10
10
10
10
10
10
10
10
10
10
10
10
10
10
10
10
10
10
10
10
10
10
10
10
10
10
10
10
10
10
10
10
10
10
10
10
10
10
10
10
10
10
10
10
10
10
10
10
10
10
10
10
10
10
10
10
10
10
10
10
10
10
10
10
10
10
10
10
10
10
10
10
10
10
10
10
10
10
10
10
10
10
10
10
10
10
10
10
10
10
10
10
10
10
10
10
10
10
10
10
10
10
10
10
10
10
10
10
10
10
10
10
10
10
10
10
10
10
10
10
10
10
10
10
10
10
10
10
10
10
10
10
10
10
10
10
10
10
10
10
10
10
10
10
10
10
10
10
10
10
10
10
10
10
10
10
10
10
10
10
10
10
10
10
10
10
10
10
10
10
10
10
10
10
10
10
10
10
10
10
10
10
10
10
10
10
10
10
10
10
10
10
10
10
10
10
10
10
10
10
10
10
10
10
10
10
10
10
10
10
10
10
10
10
10
10
10
10
10
10
10
10
10
10
10
10
10
10
10
10
10
10
10
10
10
10
10
10
10
10
10
10
10
10
10
10
10
10
10
10
10
10
10
10
10
10
10
10
10
10
10
10
10
10
10
10
10
10
10
10
10
10
10
10
10
10
10
10
10
10
10
10
10
10
10
10
10
10
10
10
10
10
10
10
10
10
10
10
10
10
10
10
10
10
10
10
10
10
10
10
10
10
10
10
10
10
10
10
10
10
10
10
10
10
10
10
10
10
10
10
10
10
10
10
10
10
10
10
10
10
10
10
10
10
10
10
10
10
10
10
10
10
10
10
10
10
10
10
10
10
10
10
10
10
10
10
10
10
10
10
10
10
10
10
10
10
10
10
10
10
10
10
10
10
10
10
10
10
10
10
10
10
10
10
10
10
10
10
10
10
10
10
10
10
10
10
10
10
10
10
10
10
10
10
10
10
10
10
10
10
10
10
10
10
10
10
10
10
10
10
10
10
10
10
10
10
10
10
10
10
10
10
10
10
10
10
10
10
10
10
10
10
10
10
10
10
10
10
10
10
10
10
10
10
10
10
10
10
10
10
10
10
10
10
10
10
10
10
10
10
10
10
10
10
10
10
10
10
10
10
10
10
10
10
10
10
10
10
10
10
10
10
10
10
10
10
10
10
10
10
10
10
10
10
10
10
10
10
10
10
10
10
10
10
10
10
10
10
10
10
10
10
10
10
10
10
10
10
10
10
10
10
10
10
10
10
10
10
10
10
10
10
10
10
10
10
10
10
10
10
10
10
10
10
10
10
10
10
10
10
10
10
10
10
10
10
10
10
10
10
10
10
10
10
10
10
10
10
10
10
10
10
10
10
10
10
10
10
10
10
10
10
10
10
10
10
10
10
10
10
10
10
10
10
10
10
10
10
10
10
10
10
10
10
10
10
10
10
10
10
10
10
10
10
10
10
10
10
10
10
10
10
10
10
10
10
10
10
10
10
10
10
10
10
10
10
10
10
10
10
10
10
10
10
10
10
10
10
10
10
10
10
10
10
10
10
10
10
10
10
10
10
10
10
10
10
10
10
10
10
10
10
10
10
10
10
10
10
10
10
10
10
10
10
10
10
10
10
10
10
10
10
10
10
10
10
10
10
10
10
10
10
10
10
10
10
10
10
10
10
10
10
10
10
10
10
10
10
10
10
10
10
10
10
10
10
10
10
10
10
10
10
10
10
10
10
10
10
10
10
10
10
10
10
10
10
10
10
10
10
10
10
10
10
10
10
10
10
10
10
10
10
10
10
10
10
10
10
10
10
10
10
10
10
10
10
10
10
10
10
10
10
10
10
10
10
10
10
10
10
10
10
10
10
10
10
10
10
10
10
10
10
10
10
10
10
10
10
10
10
10
10
10
10
10
10
10
10
10
10
10
10
10
10
10
10
10
10
10
10
10
10
10
10
10
10
10
10
10
10
10
10
10
10
10
10
10
10
10
10
10
10
10
10
10
10
10
10
10
10
10
10
10
10
10
10
10
10
10
10
10
10
10
10
10
10
10
10
10
10
10
10
10
10
10
10
10
10
10
10
10
10
10
10
10
10
10
10
10
10
10
10
10
10
10
10
10
10
10
10
10
10
10
10
10
10
10
10
10
10
10
10
10
10
10
10
10
10
10
10
10
10
10
10
10
10
10
10
10
10
10
10
10
10
10
10
10
10
10
10
10
10
10
10
10
10
10
10
10
10
10
10
10
10
10
10
10
10
10
10
10
10
10
10
10
10
10
10
10
10
10
10
10
10
10
10
10
10
10
10
10
10
10
10
10
10
10
10
10
10
10
10
10
10
10
10
10
10
10
10
10
10
10
10
10
10
10
10
10
10
10
10
10
10
10
10
10
10
10
10
10
10
10
10
10
10
10
10
10
10
10
10
10
10
10
10
10
10
10
10
10
10
10
10
10
10
10
10
10
10
10
10
10
10
10
10
10
10
10
10
10
10
10
10
10
10
10
10
10
10
10
10
10
10
10
10
10
10
10
10
10
10
10
10
10
10
10
10
10
10
10
10
10
10
10
10
10
10
10
10
10
10
10
10
10
10
10
10
10
10
10
10
10
10
10
10
10
10
10
10
10
10
10
10
10
10
10
10
10
10
10
10
10
10
10
10
10
10
10
10
10
10
10
10
10
10
10
10
10
10
10
10
10
10
10
10
10
10
10
10
10
10
10
10
10
10
10
10
10
10
10
10
10
10
10
10
10
10
10
10
10
10
10
10
10
10
10
10
10
10
10
10
10
10
10
10
10
10
10
10
10
10
10
10
10
10
10
10
10
10
10
10
10
10
10
10
10
10
10
10
10
10
10
10
10
10
10
10
10
10
10
10
10
10
10
10
10
10
10
10
10
10
10
10
10
10
10
10
10
10
10
10
10
10
10
10
10
10
10
10
10
10
10
10
10
10
10
10
10
10
10
10
10
10
10
10
10
10
10
10
10
10
10
10
10
10
10
10
10
10
10
10
10
10
10
10
10
10
10
10
10
10
10
10
10
10
10
10
10
10
10
10
10
10
10
10
10
10
10
10
10
10
10
10
10
10
10
10
10
10
10
10
10
10
10
10
10
10
10
10
10
10
10
10
10
10
10
10
10
10
10
10
10
10
10
10
10
10
10
10
10
10
10
10
10
10
10
10
10
10
10
10
10
10
10
10
10
10
10
10
10
10
10
10
10
10
10
10
10
10
10
10
10
10
10
10
10
10
10
10
10
10
10
10
10
10
10
10
10
10
10
10
10
10
10
10
10
10
10
10
10
10
10
10
10
10
10
10
10
10
10
10
10
10
10
10
10
10
10
10
10
10
10
10
10
10
10
10
10
10
10
10
10
10
10
10
10
10
10
10
10
10
10
10
10
10
10
10
10
10
10
10
10
10
10
10
10
10
10
10
10
10
10
10
10
10
10
10
10
10
10
10
10
10
10
10
10
10
10
10
10
10
10
10
10
10
10
10
10
10
10
10
10
10
10
10
10
10
10
10
10
10
10
10
10
10
10
10
10
10
10
10
10
10
10
10
10
10
10
10
10
10
10
10
10
10
10
10
10
10
10
10
10
10
10
10
10
10
10
10
10
10
10
10
10
10
10
10
10
10
10
10
10
10
10
10
10
10
10
10
10
10
10
10
10
10
10
10
10
10
10
10
10
10
10
10
10
10
10
10
10
10
10
10
10
10
10
10
10
10
10
10
10
10
10
10
10
10
10
10
10
10
10
10
10
10
10
10
10
10
10
10
10
10
10
10
10
10
10
10
10
10
10
10
10
10
10
10
10
10
10
10
10
10
10
10
10
10
10
10
10
10
10
10
10
10
10
10
10
10
10
10
10
10
10
10
10
10
10
10
10
10
10
10
10
10
10
10
10
10
10
10
10
10
10
10
10
10
10
10
10
10
10
10
10
10
10
10
10
10
10
10
10
10
10
10
10
10
10
10
10
10
10
10
10
10
10
10
10
10
10
10
10
10
10
10
10
10
10
10
10
10
10
10
10
10
10
10
10
10
10
10
10
10
10
10
10
10
10
10
10
10
10
10
10
10
10
10
10
10
10
10
10
10
10
10
10
10
10
10
10
10
10
10
10
10
10
10
10
10
10
10
10
10
10
10
10
10
10
10
10
10
10
10
10
10
10
10
10
10
10
10
10
10
10
10
10
10
10
10
10
10
10
10
10
10
10
10
10
10
10
10
10
10
10
10
10
10
10
10
10
10
10
10
10
10
10
10
10
10
10
10
10
10
10
10
10
10
10
10
10
10
10
10
10
10
10
10
10
10
10
10
10
10
10
10
10
10
10
10
10
10
10
10
10
10
10
10
10
10
10
10
10
10
10
10
10
10
10
10
10
10
10
10
10
10
10
10
10
10
10
10
10
10
10
10
10
10
10
10
10
10
10
10
10
10
10
10
10
10
10
10
10
10
10
10
10
10
10
10
10
10
10
10
10
10
10
10
10
10
10
10
10
10
10
10
10
10
10
10
10
10
10
10
10
10
10
10
10
10
10
10
10
10
10
10
10
10
10
10
10
10
10
10
10
10
10
10
10
10
10
10
10
10
10
10
10
10
10
10
10
10
10
10
10
10
10
10
10
10
10
10
10
10
10
10
10
10
10
10
10
10
10
10
10
10
10
10
10
10
10
10
10
10
10
10
10
10
10
10
10
10
10
10
10
10
10
10
10
10
10
10
10
10
10
10
10
10
10
10
10
10
10
10
10
10
10
10
10
10
10
10
10
10
10
10
10
10
10
10
10
10
10
10
10
10
10
10
10
10
10
10
10
10
10
10
10
10
10
10
10
10
10
10
10
10
10
10
10
10
10
10
10
10
10
10
10
10
10
10
10
10
10
10
10
10
10
10
10
10
10
10
10
10
10
10
10
10
10
10
10
10
10
10
10
10
10
10
10
10
10
10
10
10
10
10
10
10
10
10
10
10
10
10
10
10
10
10
10
10
10
10
10
10
10
10
10
10
10
10
10
10
10
10
10
10
10
10
10
10
10
10
10
10
10
10
10
10
10
10
10
10
10
10
10
10
10
10
10
10
10
10
10
10
10
10
10
10
10
10
10
10
10
10
10
10
10
10
10
10
10
10
10
10
10
10
10
10
10
10
10
10
10
10
10
10
10
10
10
10
10
10
10
10
10
10
10
10
10
10
10
10
10
10
10
10
10
10
10
10
10
10
10
10
10
10
10
10
10
10
10
10
10
10
10
10
10
10
10
10
10
10
10
10
10
10
10
10
10
10
10
10
10
10
10
10
10
10
10
10
10
10
10
10
10
10
10
10
10
10
10
10
10
10
10
10
10
10
10
10
10
10
10
10
10
10
10
10
10
10
10
10
10
10
10
10
10
10
10
10
10
10
10
10
10
10
10
10
10
10
10
10
10
10
10
10
10
10
10
10
10
10
10
10
10
10
10
10
10
10
10
10
10
10
10
10
10
10
10
10
10
10
10
10
10
10
10
10
10
10
10
10
10
10
10
10
10
10
10
10
10
10
10
10
10
10
10
10
10
10
10
10
10
10
10
10
10
10
10
10
10
10
10
10
10
10
10
10
10
10
10
10
10
10
10
10
10
10
10
10
10
10
10
10
10
10
10
10
10
10
10
10
10
10
10
10
10
10
10
10
10
10
10
10
10
10
10
10
10
10
10
10
10
10
10
10
10
10
10
10
10
10
10
10
10
10
10
10
10
10
10
10
10
10
10
10
10
10
10
10
10
10
10
10
10
10
10
10
10
10
10
10
10
10
10
10
10
10
10
10
10
10
10
10
10
10
10
10
10
10
10
10
10
10
10
10
10
10
10
10
10
10
10
10
10
10
10
10
10
10
10
10
10
10
10
10
10
10
10
10
10
10
10
10
10
10
10
10
10
10
10
10
10
10
10
10
10
10
10
10
10
10
10
10
10
10
10
10
10
10
10
10
10
10
10
10
10
10
10
10
10
10
10
10
10
10
10
10
10
10
10
10
10
10
10
10
10
10
10
10
10
10
10
10
10
10
10
10
10
10
10
10
10
10
10
10
10
10
10
10
10
10
10
10
10
10
10
10
10
10
10
10
10
10
10
10
10
10
10
10
10
10
10
10
10
10
10
10
10
10
10
10
10
10
10
10
10
10
10
10
10
10
10
10
10
10
10
10
10
10
10
10
10
10
10
10
10
10
10
10
10
10
10
10
10
10
10
10
10
10
10
10
10
10
10
10
10
10
10
10
10
10
10
10
10
10
10
10
10
10
10
10
10
10
10
10
10
10
10
10
10
10
10
10
10
10
10
10
10
10
10
10
10
10
10
10
10
10
10
10
10
10
10
10
10
10
10
10
10
10
10
10
10
10
10
10
10
10
10
10
10
10
10
10
10
10
10
10
10
10
10
10
10
10
10
10
10
10
10
10
10
10
10
10
10
10
10
10
10
10
10
10
10
10
10
10
10
10
10
10
10
10
10
10
10
10
10
10
10
10
10
10
10
10
10
10
10
10
10
10
10
10
10
10
10
10
10
10
10
10
10
10
10
10
10
10
10
10
10
10
10
10
10
10
10
10
10
10
10
10
10
10
10
10
10
10
10
10
10
10
10
10
10
10
10
10
10
10
10
10
10
10
10
10
10
10
10
10
10
10
10
10
10
10
10
10
10
10
10
10
10
10
10
10
10
10
10
10
10
10
10
10
10
10
10
10
10
10
10
10
10
10
10
10
10
10
10
10
10
10
10
10
10
10
10
10
10
10
10
10
10
10
10
10
10
10
10
10
10
10
10
10
10
10
10
10
10
10
10
10
10
10
10
10
10
10
10
10
10
10
10
10
10
10
10
10
10
10
10
10
10
10
10
10
10
10
10
10
10
10
10
10
10
10
10
10
10
10
10
10
10
10
10
10
10
10
10
10
10
10
10
10
10
10
10
10
10
10
10
10
10
10
10
10
10
10
10
10
10
10
10
10
10
10
10
10
10
10
10
10
10
10
10
10
10
10
10
10
10
10
10
10
10
10
10
10
10
10
10
10
10
10
10
10
10
10
10
10
10
10
10
10
10
10
10
10
10
10
10
10
10
10
10
10
10
10
10
10
10
10
10
10
10
10
10
10
10
10
10
10
10
10
10
10
10
10
10
10
10
10
10
10
10
10
10
10
10
10
10
10
10
10
10
10
10
10
10
10
10
10
10
10
10
10
10
10
10
10
10
10
10
10
10
10
10
10
10
10
10
10
10
10
10
10
10
10
10
10
10
10
10
10
10
10
10
10
10
10
10
10
10
10
10
10
10
10
10
10
10
10
10
10
10
10
10
10
10
10
10
10
10
10
10
10
10
10
10
10
10
10
10
10
10
10
10
10
10
10
10
10
10
10
10
10
10
10
10
10
10
10
10
10
10
10
10
10
10
10
10
10
10
10
10
10
10
10
10
10
10
10
10
10
10
10
10
10
10
10
10
10
10
10
10
10
10
10
10
10
10
10
10
10
10
10
10
10
10
10
10
10
10
10
10
10
10
10
10
10
10
10
10
10
10
10
10
10
10
10
10
10
10
10
10
10
10
10
10
10
10
10
10
10
10
10
10
10
10
10
10
10
10
10
10
10
10
10
10
10
10
10
10
10
10
10
10
10
10
10
10
10
10
10
10
10
10
10
10
10
10
10
10
10
10
10
10
10
10
10
10
10
10
10
10
10
10
10
10
10
10
10
10
10
10
10
10
10
10
10
10
10
10
10
10
10
10
10
10
10
10
10
10
10
10
10
10
10
10
10
10
10
10
10
10
10
10
10
10
10
10
10
10
10
10
10
10
10
10
10
10
10
10
10
10
10
10
10
10
10
10
10
10
10
10
10
10
10
10
10
10
10
10
10
10
10
10
10
10
10
10
10
10
10
10
10
10
10
10
10
10
10
10
10
10
10
10
10
10
10
10
10
10
10
10
10
10
10
10
10
10
10
10
10
10
10
10
10
10
10
10
10
10
10
10
10
10
10
10
10
10
10
10
10
10
10
10
10
10
10
10
10
10
10
10
10
10
10
10
10
10
10
10
10
10
10
10
10
10
10
10
10
10
10
10
10
10
10
10
10
10
10
10
10
10
10
10
10
10
10
10
10
10
10
10
10
10
10
10
10
10
10
10
10
10
10
10
10
10
10
10
10
10
10
10
10
10
10
10
10
10
10
10
10
10
10
10
10
10
10
10
10
10
10
10
10
10
10
10
10
10
10
10
10
10
10
10
10
10
10
10
10
10
10
10
10
10
10
10
10
10
10
10
10
10
10
10
10
10
10
10
10
10
10
10
10
10
10
10
10
10
10
10
10
10
10
10
10
10
10
10
10
10
10
10
10
10
10
10
10
10
10
10
10
10
10
10
10
10
10
10
10
10
10
10
10
10
10
10
10
10
10
10
10
10
10
10
10
10
10
10
10
10
10
10
10
10
10
10
10
10
10
10
10
10
10
10
10
10
10
10
10
10
10
10
10
10
10
10
10
10
10
10
10
10
10
10
10
10
10
10
10
10
10
10
10
10
10
10
10
10
10
10
10
10
10
10
10
10
10
10
10
10
10
10
10
10
10
10
10
10
10
10
10
10
10
10
10
10
10
10
10
10
10
10
10
10
10
10
10
10
10
10
10
10
10
10
10
10
10
10
10
10
10
10
10
10
10
10
10
10
10
10
10
10
10
10
10
10
10
10
10
10
10
10
10
10
10
10
10
10
10
10
10
10
10
10
10
10
10
10
10
10
10
10
10
10
10
10
10
10
10
10
10
10
10
10
10
10
10
10
10
10
10
10
10
10
10
10
10
10
10
10
10
10
10
10
10
10
10
10
10
10
10
10
10
10
10
10
10
10
10
10
10
10
10
10
10
10
10
10
10
10
10
10
10
10
10
10
10
10
10
10
10
10
10
10
10
10
10
10
10
10
10
10
10
10
10
10
10
10
10
10
10
10
10
10
10
10
10
10
10
10
10
10
10
10
10
10
10
10
10
10
10
10
10
10
10
10
10
10
10
10
10
10
10
10
10
10
10
10
10
10
10
10
10
10
10
10
10
10
10
10
10
10
10
10
10
10
10
10
10
10
10
10
10
10
10
10
10
10
10
10
10
10
10
10
10
10
10
10
10
10
10
10
10
10
10
10
10
10
10
10
10
10
10
10
10
10
10
10
10
10
10
10
10
10
10
10
10
10
10
10
10
10
10
10
10
10
10
10
10
10
10
10
10
10
10
10
10
10
10
10
10
10
10
10
10
10
10
10
10
10
10
10
10
10
10
10
10
10
10
10
10
10
10
10
10
10
10
10
10
10
10
10
10
10
10
10
10
10
10
10
10
10
10
10
10
10
10
10
10
10
10
10
10
10
10
10
10
10
10
10
10
10
10
10
10
10
10
10
10
10
10
10
10
10
10
10
10
10
10
10
10
10
10
10
10
10
10
10
10
10
10
10
10
10
10
10
10
10
10
10
10
10
10
10
10
10
10
10
10
10
10
10
10
10
10
10
10
10
10
10
10
10
10
10
10
10
10
10
10
10
10
10
10
10
10
10
10
10
10
10
10
10
10
10
10
10
10
10
10
10
10
10
10
10
10
10
10
10
10
10
10
10
10
10
10
10
10
10
10
10
10
10
10
10
10
10
10
10
10
10
10
10
10
10
10
10
10
10
10
10
10
10
10
10
10
10
10
10
10
10
10
10
10
10
10
10
10
10
10
10
10
10
10
10
10
10
10
10
10
10
10
10
10
10
10
10
10
10
10
10
10
10
10
10
10
10
10
10
10
10
10
10
10
10
10
10
10
10
10
10
10
10
10
10
10
10
10
10
10
10
10
10
10
10
10
10
10
10
10
10
10
10
10
10
10
10
10
10
10
10
10
10
10
10
10
10
10
10
10
10
10
10
10
10
10
10
10
10
10
10
10
10
10
10
10
10
10
10
10
10
10
10
10
10
10
10
10
10
10
10
10
10
10
10
10
10
10
10
10
10
10
10
10
10
10
10
10
10
10
10
10
10
10
10
10
10
10
10
10
10
10
10
10
10
10
10
10
10
10
10
10
10
10
10
10
10
10
10
10
10
10
10
10
10
10
10
10
10
10
10
10
10
10
10
10
10
10
10
10
10
10
10
10
10
10
10
10
10
10
10
10
10
10
10
10
10
10
10
10
10
10
10
10
10
10
10
10
10
10
10
10
10
10
10
10
10
10
10
10
10
10
10
10
10
10
10
10
10
10
10
10
10
10
10
10
10
10
10
10
10
10
10
10
10
10
10
10
10
10
10
10
10
10
10
10
10
10
10
10
10
10
10
10
10
10
10
10
10
10
10
10
10
10
10
10
10
10
10
10
10
10
10
10
10
10
10
10
10
10
10
10
10
10
10
10
10
10
10
10
10
10
10
10
10
10
10
10
10
10
10
10
10
10
10
10
10
10
10
10
10
10
10
10
10
10
10
10
10
10
10
10
10
10
10
10
10
10
10
10
10
10
10
10
10
10
10
10
10
10
10
10
10
10
10
10
10
10
10
10
10
10
10
10
10
10
10
10
10
10
10
10
10
10
10
10
10
10
10
10
10
10
10
10
10
10
10
10
10
10
10
10
10
10
10
10
10
10
10
10
10
10
10
10
10
10
10
10
10
10
10
10
10
10
10
10
10
10
10
10
10
10
10
10
10
10
10
10
10
10
10
10
10
10
10
10
10
10
10
10
10
10
10
10
10
10
10
10
10
10
10
10
10
10
10
10
10
10
10
10
10
10
10
10
10
10
10
10
10
10
10
10
10
10
10
10
10
10
10
10
10
10
10
10
10
10
10
10
10
10
10
10
10
10
10
10
10
10
10
10
10
10
10
10
10
10
10
10
10
10
10
10
10
10
10
10
10
10
10
10
10
10
10
10
10
10
10
10
10
10
10
10
10
10
10
10
10
10
10
10
10
10
10
10
10
10
10
10
10
10
10
10
10
10
10
10
10
10
10
10
10
10
10
10
10
10
10
10
10
10
10
10
10
10
10
10
10
10
10
10
10
10
10
10
10
10
10
10
10
10
10
10
10
10
10
10
10
10
10
10
10
10
10
10
10
10
10
10
10
10
10
10
10
10
10
10
10
10
10
10
10
10
10
10
10
10
10
10
10
10
10
10
10
10
10
10
10
10
10
10
10
10
10
10
10
10
10
10
10
10
10
10
10
10
10
10
10
10
10
10
10
10
10
10
10
10
10
10
10
10
10
10
10
10
10
10
10
10
10
10
10
10
10
10
10
10
10
10
10
10
10
10
10
10
10
10
10
10
10
10
10
10
10
10
10
10
10
10
10
10
10
10
10
10
10
10
10
10
10
10
10
10
10
10
10
10
10
10
10
10
10
10
10
10
10
10
10
10
10
10
10
10
10
10
10
10
10
10
10
10
10
10
10
10
10
10
10
10
10
10
10
10
10
10
10
10
10
10
10
10
10
10
10
10
10
10
10
10
10
10
10
10
10
10
10
10
10
10
10
10
10
10
10
10
10
10
10
10
10
10
10
10
10
10
10
10
10
10
10
10
10
10
10
10
10
10
10
10
10
10
10
10
10
10
10
10
10
10
10
10
10
10
10
10
10
10
10
10
10
10
10
10
10
10
10
10
10
10
10
10
10
10
10
10
10
10
10
10
10
10
10
10
10
10
10
10
10
10
10
10
10
10
10
10
10
10
10
10
10
10
10
10
10
10
10
10
10
10
10
10
10
10
10
10
10
10
10
10
10
10
10
10
10
10
10
10
10
10
10
10
10
10
10
10
10
10
10
10
10
10
10
10
10
10
10
10
10
10
10
10
10
10
10
10
10
10
10
10
10
10
10
10
10
10
10
10
10
10
10
10
10
10
10
10
10
10
10
10
10
10
10
10
10
10
10
10
10
10
10
10
10
10
10
10
10
10
10
10
10
10
10
10
10
10
10
10
10
10
10
10
10
10
10
10
10
10
10
10
10
10
10
10
10
10
10
10
10
10
10
10
10
10
10
10
10
10
10
10
10
10
10
10
10
10
10
10
10
10
10
10
10
10
10
10
10
10
10
10
10
10
10
10
10
10
10
10
10
10
10
10
10
10
10
10
10
10
10
10
10
10
10
10
10
10
10
10
10
10
10
10
10
10
10
10
10
10
10
10
10
10
10
10
10
10
10
10
10
10
10
10
10
10
10
10
10
10
10
10
10
10
10
10
10
10
10
10
10
10
10
10
10
10
10
10
10
10
10
10
10
10
10
10
10
10
10
10
10
10
10
10
10
10
10
10
10
10
10
10
10
10
10
10
10
10
10
10
10
10
10
10
10
10
10
10
10
10
10
10
10
10
10
10
10
10
10
10
10
10
10
10
10
10
10
10
10
10
10
10
10
10
10
10
10
10
10
10
10
10
10
10
10
10
10
10
10
10
10
10
10
10
10
10
10
10
10
10
10
10
10
10
10
10
10
10
10
10
10
10
10
10
10
10
10
10
10
10
10
10
10
10
10
10
10
10
10
10
10
10
10
10
10
10
10
10
10
10
10
10
10
10
10
10
10
10
10
10
10
10
10
10
10
10
10
10
10
10
10
10
10
10
10
10
10
10
10
10
10
10
10
10
10
10
10
10
10
10
10
10
10
10
10
10
10
10
10
10
10
10
10
10
10
10
10
10
10
10
10
10
10
10
10
10
10
10
10
10
10
10
10
10
10
10
10
10
10
10
10
10
10
10
10
10
10
10
10
10
10
10
10
10
10
10
10
10
10
10
10
10
10
10
10
10
10
10
10
10
10
10
10
10
10
10
10
10
10
10
10
10
10
10
10
10
10
10
10
10
10
10
10
10
10
10
10
10
10
10
10
10
10
10
10
10
10
10
10
10
10
10
10
10
10
10
10
10
10
10
10
10
10
10
10
10
10
10
10
10
10
10
10
10
10
10
10
10
10
10
10
10
10
10
10
10
10
10
10
10
10
10
10
10
10
10
10
10
10
10
10
10
10
10
10
10
10
10
10
10
10
10
10
10
10
10
10
10
10
10
10
10
10
10
10
10
10
10
10
10
10
10
10
10
10
10
10
10
10
10
10
10
10
10
10
10
10
10
10
10
10
10
10
10
10
10
10
10
10
10
10
10
10
10
10
10
10
10
10
10
10
10
10
10
10
10
10
10
10
10
10
10
10
10
10
10
10
10
10
10
10
10
10
10
10
10
10
10
10
10
10
10
10
10
10
10
10
10
10
10
10
10
10
10
10
10
10
10
10
10
10
10
10
10
10
10
10
10
10
10
10
10
10
10
10
10
10
10
10
10
10
10
10
10
10
10
10
10
10
10
10
10
10
10
10
10
10
10
10
10
10
10
10
10
10
10
10
10
10
10
10
10
10
10
10
10
10
10
10
10
10
10
10
10
10
10
10
10
10
10
10
10
10
10
10
10
10
10
10
10
10
10
10
10
10
10
10
10
10
10
10
10
10
10
10
10
10
10
10
10
10
10
10
10
10
10
10
10
10
10
10
10
10
10
10
10
10
10
10
10
10
10
10
10
10
10
10
10
10
10
10
10
10
10
10
10
10
10
10
10
10
10
10
10
10
10
10
10
10
10
10
10
10
10
10
10
10
10
10
10
10
10
10
10
10
10
10
10
10
10
10
10
10
10
10
10
10
10
10
10
10
10
10
10
10
10
10
10
10
10
10
10
10
10
10
10
10
10
10
10
10
10
10
10
10
10
10
10
10
10
10
10
10
10
10
10
10
10
10
10
10
10
10
10
10
10
10
10
10
10
10
10
10
10
10
10
10
10
10
10
10
10
10
10
10
10
10
10
10
10
10
10
10
10
10
10
10
10
10
10
10
10
10
10
10
10
10
10
10
10
10
10
10
10
10
10
10
10
10
10
10
10
10
10
10
10
10
10
10
10
10
10
10
10
10
10
10
10
10
10
10
10
10
10
10
10
10
10
10
10
10
10
10
10
10
10
10
10
10
10
10
10
10
10
10
10
10
10
10
10
10
10
10
10
10
10
10
10
10
10
10
10
10
10
10
10
10
10
10
10
10
10
10
10
10
10
10
10
10
10
10
10
10
10
10
10
10
10
10
10
10
10
10
10
10
10
10
10
10
10
10
10
10
10
10
10
10
10
10
10
10
10
10
10
10
10
10
10
10
10
10
10
10
10
10
10
10
10
10
10
10
10
10
10
10
10
10
10
10
10
10
10
10
10
10
10
10
10
10
10
10
10
10
10
10
10
10
10
10
10
10
10
10
10
10
10
10
10
10
10
10
10
10
10
10
10
10
10
10
10
10
10
10
10
10
10
10
10
10
10
10
10
10
10
10
10
10
10
10
10
10
10
10
10
10
10
10
10
10
10
10
10
10
10
10
10
10
10
10
10
10
10
10
10
10
10
10
10
10
10
10
10
10
10
10
10
10
10
10
10
10
10
10
10
10
10
10
10
10
10
10
10
10
10
10
10
10
10
10
10
10
10
10
10
10
10
10
10
10
10
10
10
10
10
10
10
10
10
10
10
10
10
10
10
10
10
10
10
10
10
10
10
10
10
10
10
10
10
10
10
10
10
10
10
10
10
10
10
10
10
10
10
10
10
10
10
10
10
10
10
10
10
10
10
10
10
10
10
10
10
10
10
10
10
10
10
10
10
10
10
10
10
10
10
10
10
10
10
10
10
10
10
10
10
10
10
10
10
10
10
10
10
10
10
10
10
10
10
10
10
10
10
10
10
10
10
10
10
10
10
10
10
10
10
10
10
10
10
10
10
10
10
10
10
10
10
10
10
10
10
10
10
10
10
10
10
10
10
10
10
10
10
10
10
10
10
10
10
10
10
10
10
10
10
10
10
10
10
10
10
10
10
10
10
10
10
10
10
10
10
10
10
10
10
10
10
10
10
10
10
10
10
10
10
10
10
10
10
10
10
10
10
10
10
10
10
10
10
10
10
10
10
10
10
10
10
10
10
10
10
10
10
10
10
10
10
10
10
10
10
10
10
10
10
10
10
10
10
10
10
10
10
10
10
10
10
10
10
10
10
10
10
10
10
10
10
10
10
10
10
10
10
10
10
10
10
10
10
10
10
10
10
10
10
10
10
10
10
10
10
10
10
10
10
10
10
10
10
10
10
10
10
10
10
10
10
10
10
10
10
10
10
10
10
10
10
10
10
10
10
10
10
10
10
10
10
10
10
10
10
10
10
10
10
10
10
10
10
10
10
10
10
10
10
10
10
10
10
10
10
10
10
10
10
10
10
10
10
10
10
10
10
10
10
10
10
10
10
10
10
10
10
10
10
10
10
10
10
10
10
10
10
10
10
10
10
10
10
10
10
10
10
10
10
10
10
10
10
10
10
10
10
10
10
10
10
10
10
10
10
10
10
10
10
10
10
10
10
10
10
10
10
10
10
10
10
10
10
10
10
10
10
10
10
10
10
10
10
10
10
10
10
10
10
10
10
10
10
10
10
10
10
10
10
10
10
10
10
10
10
10
10
10
10
10
10
10
10
10
10
10
10
10
10
10
10
10
10
10
10
10
10
10
10
10
10
10
10
10
10
10
10
10
10
10
10
10
10
10
10
10
10
10
10
10
10
10
10
10
10
10
10
10
10
10
10
10
10
10
10
10
10
10
10
10
10
10
10
10
10
10
10
10
10
10
10
10
10
10
10
10
10
10
10
10
10
10
10
10
10
10
10
10
10
10
10
10
10
10
10
10
10
10
10
10
10
10
10
10
10
10
10
10
10
10
10
10
10
10
10
10
10
10
10
10
10
10
10
10
10
10
10
10
10
10
10
10
10
10
10
10
10
10
10
10
10
10
10
10
10
10
10
10
10
10
10
10
10
10
10
10
10
10
10
10
10
10
10
10
10
10
10
10
10
10
10
10
10
10
10
10
10
10
10
10
10
10
10
10
10
10
10
10
10
10
10
10
10
10
10
10
10
10
10
10
10
10
10
10
10
10
10
10
10
10
10
10
10
10
10
10
10
10
10
10
10
10
10
10
10
10
10
10
10
10
10
10
10
10
10
10
10
10
10
10
10
10
10
10
10
10
10
10
10
10
10
10
10
10
10
10
10
10
10
10
10
10
10
10
10
10
10
10
10
10
10
10
10
10
10
10
10
10
10
10
10
10
10
10
10
10
10
10
10
10
10
10
10
10
10
10
10
10
10
10
10
10
10
10
10
10
10
10
10
10
10
10
10
10
10
10
10
10
10
10
10
10
10
10
10
10
10
10
10
10
10
10
10
10
10
10
10
10
10
10
10
10
10
10
10
10
10
10
10
10
10
10
10
10
10
10
10
10
10
10
10
10
10
10
10
10
10
10
10
10
10
10
10
10
10
10
10
10
10
10
10
10
10
10
10
10
10
10
10
10
10
10
10
10
10
10
10
10
10
10
10
10
10
10
10
10
10
10
10
10
10
10
10
10
10
10
10
10
10
10
10
10
10
10
10
10
10
10
10
10
10
10
10
10
10
10
10
10
10
10
10
10
10
10
10
10
10
10
10
10
10
10
10
10
10
10
10
10
10
10
10
10
10
10
10
10
10
10
10
10
10
10
10
10
10
10
10
10
10
10
10
10
10
10
10
10
10
10
10
10
10
10
10
10
10
10
10
10
10
10
10
10
10
10
10
10
10
10
10
10
10
10
10
10
10
10
10
10
10
10
10
10
10
10
10
10
10
10
10
10
10
10
10
10
10
10
10
10
10
10
10
10
10
10
10
10
10
10
10
10
10
10
10
10
10
10
10
10
10
10
10
10
10
10
10
10
10
10
10
10
10
10
10
10
10
10
10
10
10
10
10
10
10
10
10
10
10
10
10
10
10
10
10
10
10
10
10
10
10
10
10
10
10
10
10
10
10
10
10
10
10
10
10
10
10
10
10
10
10
10
10
10
10
10
10
10
10
10
10
10
10
10
10
10
10
10
10
10
10
10
10
10
10
10
10
10
10
10
10
10
10
10
10
10
10
10
10
10
10
10
10
10
10
10
10
10
10
10
10
10
10
10
10
10
10
10
10
10
10
10
10
10
10
10
10
10
10
10
10
10
10
10
10
10
10
10
10
10
10
10
10
10
10
10
10
10
10
10
10
10
10
10
10
10
10
10
10
10
10
10
10
10
10
10
10
10
10
10
10
10
10
10
10
10
10
10
10
10
10
10
10
10
10
10
10
10
10
10
10
10
10
10
10
10
10
10
10
10
10
10
10
10
10
10
10
10
10
10
10
10
10
10
10
10
10
10
10
10
10
10
10
10
10
10
10
10
10
10
10
10
10
10
10
10
10
10
10
10
10
10
10
10
10
10
10
10
10
10
10
10
10
10
10
10
10
10
10
10
10
10
10
10
10
10
10
10
10
10
10
10
10
10
10
10
10
10
10
10
10
10
10
10
10
10
10
10
10
10
10
10
10
10
10
10
10
10
10
10
10
10
10
10
10
10
10
10
10
10
10
10
10
10
10
10
10
10
10
10
10
10
10
10
10
10
10
10
10
10
10
10
10
10
10
10
10
10
10
10
10
10
10
10
10
10
10
10
10
10
10
10
10
10
10
10
10
10
10
10
10
10
10
10
10
10
10
10
10
10
10
10
10
10
10
10
10
10
10
10
10
10
10
10
10
10
10
10
10
10
10
10
10
10
10
10
10
10
10
10
10
10
10
10
10
10
10
10
10
10
10
10
10
10
10
10
10
10
10
10
10
10
10
10
10
10
10
10
10
10
10
10
10
10
10
10
10
10
10
10
10
10
10
10
10
10
10
10
10
10
10
10
10
10
10
10
10
10
10
10
10
10
10
10
10
10
10
10
10
10
10
10
10
10
10
10
10
10
10
10
10
10
10
10
10
10
10
10
10
10
10
10
10
10
10
10
10
10
10
10
10
10
10
10
10
10
10
10
10
10
10
10
10
10
10
10
10
10
10
10
10
10
10
10
10
10
10
10
10
10
10
10
10
10
10
10
10
10
10
10
10
10
10
10
10
10
10
10
10
10
10
10
10
10
10
10
10
10
10
10
10
10
10
10
10
10
10
10
10
10
10
10
10
10
10
10
10
10
10
10
10
10
10
10
10
10
10
10
10
10
10
10
10
10
10
10
10
10
10
10
10
10
10
10
10
10
10
10
10
10
10
10
10
10
10
10
10
10
10
10
10
10
10
10
10
10
10
10
10
10
10
10
10
10
10
10
10
10
10
10
10
10
10
10
10
10
10
10
10
10
10
10
10
10
10
10
10
10
10
10
10
10
10
10
10
10
10
10
10
10
10
10
10
10
10
10
10
10
10
10
10
10
10
10
10
10
10
10
10
10
10
10
10
10
10
10
10
10
10
10
10
10
10
10
10
10
10
10
10
10
10
10
10
10
10
10
10
10
10
10
10
10
10
10
10
10
10
10
10
10
10
10
10
10
10
10
10
10
10
10
10
10
10
10
10
10
10
10
10
10
10
10
10
10
10
10
10
10
10
10
10
10
10
10
10
10
10
10
10
10
10
10
10
10
10
10
10
10
10
10
10
10
10
10
10
10
10
10
10
10
10
10
10
10
10
10
10
10
10
10
10
10
10
10
10
10
10
10
10
10
10
10
10
10
10
10
10
10
10
10
10
10
10
10
10
10
10
10
10
10
10
10
10
10
10
10
10
10
10
10
10
10
10
10
10
10
10
10
10
10
10
10
10
10
10
10
10
10
10
10
10
10
10
10
10
10
10
10
10
10
10
10
10
10
10
10
10
10
10
10
10
10
10
10
10
10
10
10
10
10
10
10
10
10
10
10
10
10
10
10
10
10
10
10
10
10
10
10
10
10
10
10
10
10
10
10
10
10
10
10
10
10
10
10
10
10
10
10
10
10
10
10
10
10
10
10
10
10
10
10
10
10
10
10
10
10
10
10
10
10
10
10
10
10
10
10
10
10
10
10
10
10
10
10
10
10
10
10
10
10
10
10
10
10
10
10
10
10
10
10
10
10
10
10
10
10
10
10
10
10
10
10
10
10
10
10
10
10
10
10
10
10
10
10
10
10
10
10
10
10
10
10
10
10
10
10
10
10
10
10
10
10
10
10
10
10
10
10
10
10
10
10
10
10
10
10
10
10
10
10
10
10
10
10
10
10
10
10
10
10
10
10
10
10
10
10
10
10
10
10
10
10
10
10
10
10
10
10
10
10
10
10
10
10
10
10
10
10
10
10
10
10
10
10
10
10
10
10
10
10
10
10
10
10
10
10
10
10
10
10
10
10
10
10
10
10
10
10
10
10
10
10
10
10
10
10
10
10
10
10
10
10
10
10
10
10
10
10
10
10
10
10
10
10
10
10
10
10
10
10
10
10
10
10
10
10
10
10
10
10
10
10
10
10
10
10
10
10
10
10
10
10
10
10
10
10
10
10
10
10
10
10
10
10
10
10
10
10
10
10
10
10
10
10
10
10
10
10
10
10
10
10
10
10
10
10
10
10
10
10
10
10
10
10
10
10
10
10
10
10
10
10
10
10
10
10
10
10
10
10
10
10
10
10
10
10
10
10
10
10
10
10
10
10
10
10
10
10
10
10
10
10
10
10
10
10
10
10
10
10
10
10
10
10
10
10
10
10
10
10
10
10
10
10
10
10
10
10
10
10
10
10
10
10
10
10
10
10
10
10
10
10
10
10
10
10
10
10
10
10
10
10
10
10
10
10
10
10
10
10
10
10
10
10
10
10
10
10
10
10
10
10
10
10
10
10
10
10
10
10
10
10
10
10
10
10
10
10
10
10
10
10
10
10
10
10
10
10
10
10
10
10
10
10
10
10
10
10
10
10
10
10
10
10
10
10
10
10
10
10
10
10
10
10
10
10
10
10
10
10
10
10
10
10
10
10
10
10
10
10
10
10
10
10
10
10
10
10
10
10
10
10
10
10
10
10
10
10
10
10
10
10
10
10
10
10
10
10
10
10
10
10
10
10
10
10
10
10
10
10
10
10
10
10
10
10
10
10
10
10
10
10
10
10
10
10
10
10
10
10
10
10
10
10
10
10
10
10
10
10
10
10
10
10
10
10
10
10
10
10
10
10
10
10
10
10
10
10
10
10
10
10
10
10
10
10
10
10
10
10
10
10
10
10
10
10
10
10
10
10
10
10
10
10
10
10
10
10
10
10
10
10
10
10
10
10
10
10
10
10
10
10
10
10
10
10
10
10
10
10
10
10
10
10
10
10
10
10
10
10
10
10
10
10
10
10
10
10
10
10
10
10
10
10
10
10
10
10
10
10
10
10
10
10
10
10
10
10
10
10
10
10
10
10
10
10
10
10
10
10
10
10
10
10
10
10
10
10
10
10
10
10
10
10
10
10
10
10
10
10
10
10
10
10
10
10
10
10
10
10
10
10
10
10
10
10
10
10
10
10
10
10
10
10
10
10
10
10
10
10
10
10
10
10
10
10
10
10
10
10
10
10
10
10
10
10
10
10
10
10
10
10
10
10
10
10
10
10
10
10
10
10
10
10
10
10
10
10
10
10
10
10
10
10
10
10
10
10
10
10
10
10
10
10
10
10
10
10
10
10
10
10
10
10
10
10
10
10
10
10
10
10
10
10
10
10
10
10
10
10
10
10
10
10
10
10
10
10
10
10
10
10
10
10
10
10
10
10
10
10
10
10
10
10
10
10
10
10
10
10
10
10
10
10
10
10
10
10
10
10
10
10
10
10
10
10
10
10
10
10
10
10
10
10
10
10
10
10
10
10
10
10
10
10
10
10
10
10
10
10
10
10
10
10
10
10
10
10
10
10
10
10
10
10
10
10
10
10
10
10
10
10
10
10
10
10
10
10
10
10
10
10
10
10
10
10
10
10
10
10
10
10
10
10
10
10
10
10
10
10
10
10
10
10
10
10
10
10
10
10
10
10
10
10
10
10
10
10
10
10
10
10
10
10
10
10
10
10
10
10
10
10
10
10
10
10
10
10
10
10
10
10
10
10
10
10
10
10
10
10
10
10
10
10
10
10
10
10
10
10
10
10
10
10
10
10
10
10
10
10
10
10
10
10
10
10
10
10
10
10
10
10
10
10
10
10
10
10
10
10
10
10
10
10
10
10
10
10
10
10
10
10
10
10
10
10
10
10
10
10
10
10
10
10
10
10
10
10
10
10
10
10
10
10
10
10
10
10
10
10
10
10
10
10
10
10
10
10
10
10
10
10
10
10
10
10
10
10
10
10
10
10
10
10
10
10
10
10
10
10
10
10
10
10
10
10
10
10
10
10
10
10
10
10
10
10
10
10
10
10
10
10
10
10
10
10
10
10
10
10
10
10
10
10
10
10
10
10
10
10
10
10
10
10
10
10
10
10
10
10
10
10
10
10
10
10
10
10
10
10
10
10
10
10
10
10
10
10
10
10
10
10
10
10
10
10
10
10
10
10
10
10
10
10
10
10
10
10
10
10
10
10
10
10
10
10
10
10
10
10
10
10
10
10
10
10
10
10
10
10
10
10
10
10
10
10
10
10
10
10
10
10
10
10
10
10
10
10
10
10
10
10
10
10
10
10
10
10
10
10
10
10
10
10
10
10
10
10
10
10
10
10
10
10
10
10
10
10
10
10
10
10
10
10
10
10
10
10
10
10
10
10
10
10
10
10
10
10
10
10
10
10
10
10
10
10
10
10
10
10
10
10
10
10
10
10
10
10
10
10
10
10
10
10
10
10
10
10
10
10
10
10
10
10
10
10
10
10
10
10
10
10
10
10
10
10
10
10
10
10
10
10
10
10
10
10
10
10
10
10
10
10
10
10
10
10
10
10
10
10
10
10
10
10
10
10
10
10
10
10
10
10
10
10
10
10
10
10
10
10
10
10
10
10
10
10
10
10
10
10
10
10
10
10
10
10
10
10
10
10
10
10
10
10
10
10
10
10
10
10
10
10
10
10
10
10
10
10
10
10
10
10
10
10
10
10
10
10
10
10
10
10
10
10
10
10
10
10
10
10
10
10
10
10
10
10
10
10
10
10
10
10
10
10
10
10
10
10
10
10
10
10
10
10
10
10
10
10
10
10
10
10
10
10
10
10
10
10
10
10
10
10
10
10
10
10
10
10
10
10
10
10
10
10
10
10
10
10
10
10
10
10
10
10
10
10
10
10
10
10
10
10
10
10
10
10
10
10
10
10
10
10
10
10
10
10
10
10
10
10
10
10
10
10
10
10
10
10
10
10
10
10
10
10
10
10
10
10
10
10
10
10
10
10
10
10
10
10
10
10
10
10
10
10
10
10
10
10
10
10
10
10
10
10
10
10
10
10
10
10
10
10
10
10
10
10
10
10
10
10
10
10
10
10
10
10
10
10
10
10
10
10
10
10
10
10
10
10
10
10
10
10
10
10
10
10
10
10
10
10
10
10
10
10
10
10
10
10
10
10
10
10
10
10
10
10
10
10
10
10
10
10
10
10
10
10
10
10
10
10
10
10
10
10
10
10
10
10
10
10
10
10
10
10
10
10
10
10
10
10
10
10
10
10
10
10
10
10
10
10
10
10
10
10
10
10
10
10
10
10
10
10
10
10
10
10
10
10
10
10
10
10
10
10
10
10
10
10
10
10
10
10
10
10
10
10
10
10
10
10
10
10
10
10
10
10
10
10
10
10
10
10
10
10
10
10
10
10
10
10
10
10
10
10
10
10
10
10
10
10
10
10
10
10
10
10
10
10
10
10
10
10
10
10
10
10
10
10
10
10
10
10
10
10
10
10
10
10
10
10
10
10
10
10
10
10
10
10
10
10
10
10
10
10
10
10
10
10
10
10
10
10
10
10
10
10
10
10
10
10
10
10
10
10
10
10
10
10
10
10
10
10
10
10
10
10
10
10
10
10
10
10
10
10
10
10
10
10
10
10
10
10
10
10
10
10
10
10
10
10
10
10
10
10
10
10
10
10
10
10
10
10
10
10
10
10
10
10
10
10
10
10
10
10
10
10
10
10
10
10
10
10
10
10
10
10
10
10
10
10
10
10
10
10
10
10
10
10
10
10
10
10
10
10
10
10
10
10
10
10
10
10
10
10
10
10
10
10
10
10
10
10
10
10
10
10
10
10
10
10
10
10
10
10
10
10
10
10
10
10
10
10
10
10
10
10
10
10
10
10
10
10
10
10
10
10
10
10
10
10
10
10
10
10
10
10
10
10
10
10
10
10
10
10
10
10
10
10
10
10
10
10
10
10
10
10
10
10
10
10
10
10
10
10
10
10
10
10
10
10
10
10
10
10
10
10
10
10
10
10
10
10
10
10
10
10
10
10
10
10
10
10
10
10
10
10
10
10
10
10
10
10
10
10
10
10
10
10
10
10
10
10
10
10
10
10
10
10
10
10
10
10
10
10
10
10
10
10
10
10
10
10
10
10
10
10
10
10
10
10
10
10
10
10
10
10
10
10
10
10
10
10
10
10
10
10
10
10
10
10
10
10
10
10
10
10
10
10
10
10
10
10
10
10
10
10
10
10
10
10
10
10
10
10
10
10
10
10
10
10
10
10
10
10
10
10
10
10
10
10
10
10
10
10
10
10
10
10
10
10
10
10
10
10
10
10
10
10
10
10
10
10
10
10
10
10
10
10
10
10
10
10
10
10
10
10
10
10
10
10
10
10
10
10
10
10
10
10
10
10
10
10
10
10
10
10
10
10
10
10
10
10
10
10
10
10
10
10
10
10
10
10
10
10
10
10
10
10
10
10
10
10
10
10
10
10
10
10
10
10
10
10
10
10
10
10
10
10
10
10
10
10
10
10
10
10
10
10
10
10
10
10
10
10
10
10
10
10
10
10
10
10
10
10
10
10
10
10
10
10
10
10
10
10
10
10
10
10
10
10
10
10
10
10
10
10
10
10
10
10
10
10
10
10
10
10
10
10
10
10
10
10
10
10
10
10
10
10
10
10
10
10
10
10
10
10
10
10
10
10
10
10
10
10
10
10
10
10
10
10
10
10
10
10
10
10
10
10
10
10
10
10
10
10
10
10
10
10
10
10
10
10
10
10
10
10
10
10
10
10
10
10
10
10
10
10
10
10
10
10
10
10
10
10
10
10
10
10
10
10
10
10
10
10
10
10
10
10
10
10
10
10
10
10
10
10
10
10
10
10
10
10
10
10
10
10
10
10
10
10
10
10
10
10
10
10
10
10
10
10
10
10
10
10
10
10
10
10
10
10
10
10
10
10
10
10
10
10
10
10
10
10
10
10
10
10
10
10
10
10
10
10
10
10
10
10
10
10
10
10
10
10
10
10
10
10
10
10
10
10
10
10
10
10
10
10
10
10
10
10
10
10
10
10
10
10
10
10
10
10
10
10
10
10
10
10
10
10
10
10
10
10
10
10
10
10
10
10
10
10
10
10
10
10
10
10
10
10
10
10
10
10
10
10
10
10
10
10
10
10
10
10
10
10
10
10
10
10
10
10
10
10
10
10
10
10
10
10
10
10
10
10
10
10
10
10
10
10
10
10
10
10
10
10
10
10
10
10
10
10
10
10
10
10
10
10
10
10
10
10
10
10
10
10
10
10
10
10
10
10
10
10
10
10
10
10
10
10
10
10
10
10
10
10
10
10
10
10
10
10
10
10
10
10
10
10
10
10
10
10
10
10
10
10
10
10
10
10
10
10
10
10
10
10
10
10
10
10
10
10
10
10
10
10
10
10
10
10
10
10
10
10
10
10
10
10
10
10
10
10
10
10
10
10
10
10
10
10
10
10
10
10
10
10
10
10
10
10
10
10
10
10
10
10
10
10
10
10
10
10
10
10
10
10
10
10
10
10
10
10
10
10
10
10
10
10
10
10
10
10
10
10
10
10
10
10
10
10
10
10
10
10
10
10
10
10
10
10
10
10
10
10
10
10
10
10
10
10
10
10
10
10
10
10
10
10
10
10
10
10
10
10
10
10
10
10
10
10
10
10
10
10
10
10
10
10
10
10
10
10
10
10
10
10
10
10
10
10
10
10
10
10
10
10
10
10
10
10
10
10
10
10
10
10
10
10
10
10
10
10
10
10
10
10
10
10
10
10
10
10
10
10
10
10
10
10
10
10
10
10
10
10
10
10
10
10
10
10
10
10
10
10
10
10
10
10
10
10
10
10
10
10
10
10
10
10
10
10
10
10
10
10
10
10
10
10
10
10
10
10
10
10
10
10
10
10
10
10
10
10
10
10
10
10
10
10
10
10
10
10
10
10
10
10
10
10
10
10
10
10
10
10
10
10
10
10
10
10
10
10
10
10
10
10
10
10
10
10
10
10
10
10
10
10
10
10
10
10
10
10
10
10
10
10
10
10
10
10
10
10
10
10
10
10
10
10
10
10
10
10
10
10
10
10
10
10
10
10
10
10
10
10
10
10
10
10
10
10
10
10
10
10
10
10
10
10
10
10
10
10
10
10
10
10
10
10
10
10
10
10
10
10
10
10
10
10
10
10
10
10
10
10
10
10
10
10
10
10
10
10
10
10
10
10
10
10
10
10
10
10
10
10
10
10
10
10
10
10
10
10
10
10
10
10
10
10
10
10
10
10
10
10
10
10
10
10
10
10
10
10
10
10
10
10
10
10
10
10
10
10
10
10
10
10
10
10
10
10
10
10
10
10
10
10
10
10
10
10
10
10
10
10
10
10
10
10
10
10
10
10
10
10
10
10
10
10
10
10
10
10
10
10
10
10
10
10
10
10
10
10
10
10
10
10
10
10
10
10
10
10
10
10
10
10
10
10
10
10
10
10
10
10
10
10
10
10
10
10
10
10
10
10
10
10
10
10
10
10
10
10
10
10
10
10
10
10
10
10
10
10
10
10
10
10
10
10
10
10
10
10
10
10
10
10
10
10
10
10
10
10
10
10
10
10
10
10
10
10
10
10
10
10
10
10
10
10
10
10
10
10
10
10
10
10
10
10
10
10
10
10
10
10
10
10
10
10
10
10
10
10
10
10
10
10
10
10
10
10
10
10
10
10
10
10
10
10
10
10
10
10
10
10
10
10
10
10
10
10
10
10
10
10
10
10
10
10
10
10
10
10
10
10
10
10
10
10
10
10
10
10
10
10
10
10
10
10
10
10
10
10
10
10
10
10
10
10
10
10
10
10
10
10
10
10
10
10
10
10
10
10
10
10
10
10
10
10
10
10
10
10
10
10
10
10
10
10
10
10
10
10
10
10
10
10
10
10
10
10
10
10
10
10
10
10
10
10
10
10
10
10
10
10
10
10
10
10
10
10
10
10
10
10
10
10
10
10
10
10
10
10
10
10
10
10
10
10
10
10
10
10
10
10
10
10
10
10
10
10
10
10
10
10
10
10
10
10
10
10
10
10
10
10
10
10
10
10
10
10
10
10
10
10
10
10
10
10
10
10
10
10
10
10
10
10
10
10
10
10
10
10
10
10
10
10
10
10
10
10
10
10
10
10
10
10
10
10
10
10
10
10
10
10
10
10
10
10
10
10
10
10
10
10
10
10
10
10
10
10
10
10
10
10
10
10
10
10
10
10
10
10
10
10
10
10
10
10
10
10
10
10
10
10
10
10
10
10
10
10
10
10
10
10
10
10
10
10
10
10
10
10
10
10
10
10
10
10
10
10
10
10
10
10
10
10
10
10
10
10
10
10
10
10
10
10
10
10
10
10
10
10
10
10
10
10
10
10
10
10
10
10
10
10
10
10
10
10
10
10
10
10
10
10
10
10
10
10
10
10
10
10
10
10
10
10
10
10
10
10
10
10
10
10
10
10
10
10
10
10
10
10
10
10
10
10
10
10
10
10
10
10
10
10
10
10
10
10
10
10
10
10
10
10
10
10
10
10
10
10
10
10
10
10
10
10
10
10
10
10
10
10
10
10
10
10
10
10
10
10
10
10
10
10
10
10
10
10
10
10
10
10
10
10
10
10
10
10
10
10
10
10
10
10
10
10
10
10
10
10
10
10
10
10
10
10
10
10
10
10
10
10
10
10
10
10
10
10
10
10
10
10
10
10
10
10
10
10
10
10
10
10
10
10
10
10
10
10
10
10
10
10
10
10
10
10
10
10
10
10
10
10
10
10
10
10
10
10
10
10
10
10
10
10
10
10
10
10
10
10
10
10
10
10
10
10
10
10
10
10
10
10
10
10
10
10
10
10
10
10
10
10
10
10
10
10
10
10
10
10
10
10
10
10
10
10
10
10
10
10
10
10
10
10
10
10
10
10
10
10
10
10
10
10
10
10
10
10
10
10
10
10
10
10
10
10
10
10
10
10
10
10
10
10
10
10
10
10
10
10
10
10
10
10
10
10
10
10
10
10
10
10
10
10
10
10
10
10
10
10
10
10
10
10
10
10
10
10
10
10
10
10
10
10
10
10
10
10
10
10
10
10
10
10
10
10
10
10
10
10
10
10
10
10
10
10
10
10
10
10
10
10
10
10
10
10
10
10
10
10
10
10
10
10
10
10
10
10
10
10
10
10
10
10
10
10
10
10
10
10
10
10
10
10
10
10
10
10
10
10
10
10
10
10
10
10
10
10
10
10
10
10
10
10
10
10
10
10
10
10
10
10
10
10
10
10
10
10
10
10
10
10
10
10
10
10
10
10
10
10
10
10
10
10
10
10
10
10
10
10
10
10
10
10
10
10
10
10
10
10
10
10
10
10
10
10
10
10
10
10
10
10
10
10
10
10
10
10
10
10
10
10
10
10
10
10
10
10
10
10
10
10
10
10
10
10
10
10
10
10
10
10
10
10
10
10
10
10
10
10
10
10
10
10
10
10
10
10
10
10
10
10
10
10
10
10
10
10
10
10
10
10
10
10
10
10
10
10
10
10
10
10
10
10
10
10
10
10
10
10
10
10
10
10
10
10
10
10
10
10
10
10
10
10
10
10
10
10
10
10
10
10
10
10
10
10
10
10
10
10
10
10
10
10
10
10
10
10
10
10
10
10
10
10
10
10
10
10
10
10
10
10
10
10
10
10
10
10
10
10
10
10
10
10
10
10
10
10
10
10
10
10
10
10
10
10
10
10
10
10
10
10
10
10
10
10
10
10
10
10
10
10
10
10
10
10
10
10
10
10
10
10
10
10
10
10
10
10
10
10
10
10
10
10
10
10
10
10
10
10
10
10
10
10
10
10
10
10
10
10
10
10
10
10
10
10
10
10
10
10
10
10
10
10
10
10
10
10
10
10
10
10
10
10
10
10
10
10
10
10
10
10
10
10
10
10
10
10
10
10
10
10
10
10
10
10
10
10
10
10
10
10
10
10
10
10
10
10
10
10
10
10
10
10
10
10
10
10
10
10
10
10
10
10
10
10
10
10
10
10
10
10
10
10
10
10
10
10
10
10
10
10
10
10
10
10
10
10
10
10
10
10
10
10
10
10
10
10
10
10
10
10
10
10
10
10
10
10
10
10
10
10
10
10
10
10
10
10
10
10
10
10
10
10
10
10
10
10
10
10
10
10
10
10
10
10
10
10
10
10
10
10
10
10
10
10
10
10
10
10
10
10
10
10
10
10
10
10
10
10
10
10
10
10
10
10
10
10
10
10
10
10
10
10
10
10
10
10
10
10
10
10
10
10
10
10
10
10
10
10
10
10
10
10
10
10
10
10
10
10
10
10
10
10
10
10
10
10
10
10
10
10
10
10
10
10
10
10
10
10
10
10
10
10
10
10
10
10
10
10
10
10
10
10
10
10
10
10
10
10
10
10
10
10
10
10
10
10
10
10
10
10
10
10
10
10
10
10
10
10
10
10
10
10
10
10
10
10
10
10
10
10
10
10
10
10
10
10
10
10
10
10
10
10
10
10
10
10
10
10
10
10
10
10
10
10
10
10
10
10
10
10
10
10
10
10
10
10
10
10
10
10
10
10
10
10
10
10
10
10
10
10
10
10
10
10
10
10
10
10
10
10
10
10
10
10
10
10
10
10
10
10
10
10
10
10
10
10
10
10
10
10
10
10
10
10
10
10
10
10
10
10
10
10
10
10
10
10
10
10
10
10
10
10
10
10
10
10
10
10
10
10
10
10
10
10
10
10
10
10
10
10
10
10
10
10
10
10
10
10
10
10
10
10
10
10
10
10
10
10
10
10
10
10
10
10
10
10
10
10
10
10
10
10
10
10
10
10
10
10
10
10
10
10
10
10
10
10
10
10
10
10
10
10
10
10
10
10
10
10
10
10
10
10
10
10
10
10
10
10
10
10
10
10
10
10
10
10
10
10
10
10
10
10
10
10
10
10
10
10
10
10
10
10
10
10
10
10
10
10
10
10
10
10
10
10
10
10
10
10
10
10
10
10
10
10
10
10
10
10
10
10
10
10
10
10
10
10
10
10
10
10
10
10
10
10
10
10
10
10
10
10
10
10
10
10
10
10
10
10
10
10
10
10
10
10
10
10
10
10
10
10
10
10
10
10
10
10
10
10
10
10
10
10
10
10
10
10
10
10
10
10
10
10
10
10
10
10
10
10
10
10
10
10
10
10
10
10
10
10
10
10
10
10
10
10
10
10
10
10
10
10
10
10
10
10
10
10
10
10
10
10
10
10
10
10
10
10
10
10
10
10
10
10
10
10
10
10
10
10
10
10
10
10
10
10
10
10
10
10
10
10
10
10
10
10
10
10
10
10
10
10
10
10
10
10
10
10
10
10
10
10
10
10
10
10
10
10
10
10
10
10
10
10
10
10
10
10
10
10
10
10
10
10
10
10
10
10
10
10
10
10
10
10
10
10
10
10
10
10
10
10
10
10
10
10
10
10
10
10
10
10
10
10
10
10
10
10
10
10
10
10
10
10
10
10
10
10
10
10
10
10
10
10
10
10
10
10
10
10
10
10
10
10
10
10
10
10
10
10
10
10
10
10
10
10
10
10
10
10
10
10
10
10
10
10
10
10
10
10
10
10
10
10
10
10
10
10
10
10
10
10
10
10
10
10
10
10
10
10
10
10
10
10
10
10
10
10
10
10
10
10
10
10
10
10
10
10
10
10
10
10
10
10
10
10
10
10
10
10
10
10
10
10
10
10
10
10
10
10
10
10
10
10
10
10
10
10
10
10
10
10
10
10
10
10
10
10
10
10
10
10
10
10
10
10
10
10
10
10
10
10
10
10
10
10
10
10
10
10
10
10
10
10
10
10
10
10
10
10
10
10
10
10
10
10
10
10
10
10
10
10
10
10
10
10
10
10
10
10
10
10
10
10
10
10
10
10
10
10
10
10
10
10
10
10
10
10
10
10
10
10
10
10
10
10
10
10
10
10
10
10
10
10
10
10
10
10
10
10
10
10
10
10
10
10
10
10
10
10
10
10
10
10
10
10
10
10
10
10
10
10
10
10
10
10
10
10
10
10
10
10
10
10
10
10
10
10
10
10
10
10
10
10
10
10
10
10
10
10
10
10
10
10
10
10
10
10
10
10
10
10
10
10
10
10
10
10
10
10
10
10
10
10
10
10
10
10
10
10
10
10
10
10
10
10
10
10
10
10
10
10
10
10
10
10
10
10
10
10
10
10
10
10
10
10
10
10
10
10
10
10
10
10
10
10
10
10
10
10
10
10
10
10
10
10
10
10
10
10
10
10
10
10
10
10
10
10
10
10
10
10
10
10
10
10
10
10
10
10
10
10
10
10
10
10
10
10
10
10
10
10
10
10
10
10
10
10
10
10
10
10
10
10
10
10
10
10
10
10
10
10
10
10
10
10
10
10
10
10
10
10
10
10
10
10
10
10
10
10
10
10
10
10
10
10
10
10
10
10
10
10
10
10
10
10
10
10
10
10
10
10
10
10
10
10
10
10
10
10
10
10
10
10
10
10
10
10
10
10
10
10
10
10
10
10
10
10
10
10
10
10
10
10
10
10
10
10
10
10
10
10
10
10
10
10
10
10
10
10
10
10
10
10
10
10
10
10
10
10
10
10
10
10
10
10
10
10
10
10
10
10
10
10
10
10
10
10
10
10
10
10
10
10
10
10
10
10
10
10
10
10
10
10
10
10
10
10
10
10
10
10
10
10
10
10
10
10
10
10
10
10
10
10
10
10
10
10
10
10
10
10
10
10
10
10
10
10
10
10
10
10
10
10
10
10
10
10
10
10
10
10
10
10
10
10
10
10
10
10
10
10
10
10
10
10
10
10
10
10
10
10
10
10
10
10
10
10
10
10
10
10
10
10
10
10
10
10
10
10
10
10
10
10
10
10
10
10
10
10
10
10
10
10
10
10
10
10
10
10
10
10
10
10
10
10
10
10
10
10
10
10
10
10
10
10
10
10
10
10
10
10
10
10
10
10
10
10
10
10
10
10
10
10
10
10
10
10
10
10
10
10
10
10
10
10
10
10
10
10
10
10
10
10
10
10
10
10
10
10
10
10
10
10
10
10
10
10
10
10
10
10
10
10
10
10
10
10
10
10
10
10
10
10
10
10
10
10
10
10
10
10
10
10
10
10
10
10
10
10
10
10
10
10
10
10
10
10
10
10
10
10
10
10
10
10
10
10
10
10
10
10
10
10
10
10
10
10
10
10
10
10
10
10
10
10
10
10
10
10
10
10
10
10
10
10
10
10
10
10
10
10
10
10
10
10
10
10
10
10
10
10
10
10
10
10
10
10
10
10
10
10
10
10
10
10
10
10
10
10
10
10
10
10
10
10
10
10
10
10
10
10
10
10
10
10
10
10
10
10
10
10
10
10
10
10
10
10
10
10
10
10
10
10
10
10
10
10
10
10
10
10
10
10
10
10
10
10
10
10
10
10
10
10
10
10
10
10
10
10
10
10
10
10
10
10
10
10
10
10
10
10
10
10
10
10
10
10
10
10
10
10
10
10
10
10
10
10
10
10
10
10
10
10
10
10
10
10
10
10
10
10
10
10
10
10
10
10
10
10
10
10
10
10
10
10
10
10
10
10
10
10
10
10
10
10
10
10
10
10
10
10
10
10
10
10
10
10
10
10
10
10
10
10
10
10
10
10
10
10
10
10
10
10
10
10
10
10
10
10
10
10
10
10
10
10
10
10
10
10
10
10
10
10
10
10
10
10
10
10
10
10
10
10
10
10
10
10
10
10
10
10
10
10
10
10
10
10
10
10
10
10
10
10
10
10
10
10
10
10
10
10
10
10
10
10
10
10
10
10
10
10
10
10
10
10
10
10
10
10
10
10
10
10
10
10
10
10
10
10
10
10
10
10
10
10
10
10
10
10
10
10
10
10
10
10
10
10
10
10
10
10
10
10
10
10
10
10
10
10
10
10
10
10
10
10
10
10
10
10
10
10
10
10
10
10
10
10
10
10
10
10
10
10
10
10
10
10
10
10
10
10
10
10
10
10
10
10
10
10
10
10
10
10
10
10
10
10
10
10
10
10
10
10
10
10
10
10
10
10
10
10
10
10
10
10
10
10
10
10
10
10
10
10
10
10
10
10
10
10
10
10
10
10
10
10
10
10
10
10
10
10
10
10
10
10
10
10
10
10
10
10
10
10
10
10
10
10
10
10
10
10
10
10
10
10
10
10
10
10
10
10
10
10
10
10
10
10
10
10
10
10
10
10
10
10
10
10
10
10
10
10
10
10
10
10
10
10
10
10
10
10
10
10
10
10
10
10
10
10
10
10
10
10
10
10
10
10
10
10
10
10
10
10
10
10
10
10
10
10
10
10
10
10
10
10
10
10
10
10
10
10
10
10
10
10
10
10
10
10
10
10
10
10
10
10
10
10
10
10
10
10
10
10
10
10
10
10
10
10
10
10
10
10
10
10
10
10
10
10
10
10
10
10
10
10
10
10
10
10
10
10
10
10
10
10
10
10
10
10
10
10
10
10
10
10
10
10
10
10
10
10
10
10
10
10
10
10
10
10
10
10
10
10
10
10
10
10
10
10
10
10
10
10
10
10
10
10
10
10
10
10
10
10
10
10
10
10
10
10
10
10
10
10
10
10
10
10
10
10
10
10
10
10
10
10
10
10
10
10
10
10
10
10
10
10
10
10
10
10
10
10
10
10
10
10
10
10
10
10
10
10
10
10
10
10
10
10
10
10
10
10
10
10
10
10
10
10
10
10
10
10
10
10
10
10
10
10
10
10
10
10
10
10
10
10
10
10
10
10
10
10
10
10
10
10
10
10
10
10
10
10
10
10
10
10
10
10
10
10
10
10
10
10
10
10
10
10
10
10
10
10
10
10
10
10
10
10
10
10
10
10
10
10
10
10
10
10
10
10
10
10
10
10
10
10
10
10
10
10
10
10
10
10
10
10
10
10
10
10
10
10
10
10
10
10
10
10
10
10
10
10
10
10
10
10
10
10
10
10
10
10
10
10
10
10
10
10
10
10
10
10
10
10
10
10
10
10
10
10
10
10
10
10
10
10
10
10
10
10
10
10
10
10
10
10
10
10
10
10
10
10
10
10
10
10
10
10
10
10
10
10
10
10
10
CELL_DATA 17877
SCALARS total_strain double 6
LOOKUP_TABLE default
3.025773e-06 -9.786761e-07 -1.204140e-06 1.470119e-06 -2.042569e-07 -6.905545e-07
2.966506e-06 -1.231839e-06 -7.481474e-07 1.083075e-06 -3.408584e-07 -5.971086e-07
2.612764e-06 -5.090445e-07 -8.913252e-07 1.081613e-06 -1.479281e-07 -2.536053e-07
3.194427e-06 -1.184983e-06 -7.944677e-07 9.732861e-07 -2.583129e-07 -8.655108e-07
2.777708e-06 -6.198037e-07 -1.138473e-06 5.382184e-07 -4.582404e-07 -4.256789e-07
3.004930e-06 -6.004362e-07 -1.338085e-06 6.048964e-07 -3.755107e-07 -1.049224e-07
2.256828e-06 -7.433795e-07 -1.140950e-06 7.919758e-07 -3.935035e-07 -5.611217e-07
2.318209e-07 4.869519e-07 -4.635814e-07 -2.804106e-07 -1.275551e-07 9.079964e-08
1.784296e-07 4.695344e-07 -3.657557e-07 -1.069877e-07 -6.705878e-08 1.120459e-07
1.644882e-07 3.878571e-07 -3.327468e-07 -1.460002e-07 -7.831838e-08 9.036333e-08
1.784948e-07 4.425783e-07 -4.011220e-07 -1.554176e-07 -1.075576e-07 1.232396e-07
1.718830e-07 3.850539e-07 -3.967732e-07 -1.478929e-07 -5.649244e-08 7.479259e-08
1.782496e-07 4.792681e-07 -4.111318e-07 -1.119154e-07 -5.025122e-08 8.943056e-08
1.105099e-07 5.922232e-07 -5.300562e-07 -2.373112e-07 -6.670916e-08 1.166949e-07
1.320290e-07 5.100261e-07 -4.208564e-07 -2.348038e-07 -1.414814e-07 1.110239e-07
3.041903e-07 2.848838e-07 -5.270482e-07 -2.639521e-07 6.721051e-07 -3.093488e-07
5.138422e-07 2.201697e-07 -4.532428e-07 -2.870182e-07 5.916742e-07 -2.205274e-07
2.567265e-07 2.708028e-07 -3.334568e-07 -1.376321e-07 4.722087e-07 -1.417069e-07
-6.706355e-08 2.817495e-07 -3.242153e-07 -9.050651e-08 5.175383e-07 -2.531435e-07
8.238897e-08 6.553951e-07 -5.405446e-07 -1.219329e-07 -4.451785e-08 1.506721e-08
1.203904e-07 6.488214e-07 -5.459016e-07 -1.175739e-07 -3.700783e-08 -1.392343e-09
1.443788e-07 5.190526e-07 -4.502290e-07 -5.097936e-08 -9.948448e-09 1.029713e-08
1.454388e-08 7.281291e-07 -4.976860e-07 -4.542566e-08 -6.669283e-08 1.064482e-07
-4.047765e-08 7.281381e-07 -5.489702e-07 -1.667872e-07 -1.377278e-07 8.732107e-08
4.511144e-08 5.302752e-07 -4.483275e-07 -8.348075e-08 -7.929870e-08 9.375018e-08
4.589672e-08 5.796499e-07 -4.622914e-07 -6.995766e-08 1.224184e-08 9.566872e-08
9.463111e-08 6.398506e-07 -4.343628e-07 -1.699665e-07 -1.218639e-07 1.204059e-07
1.293922e-07 3.250227e-07 -2.532068e-07 -1.161805e-07 -1.084294e-07 1.576470e-07
2.041198e-07 2.777459e-07 -2.316047e-07 -1.395417e-07 -1.246034e-07 1.165518e-07
1.718648e-07 2.685514e-07 -2.672318e-07 -7.736659e-08 -6.069363e-08 8.250808e-08
1.460850e-07 3.161878e-07 -2.138373e-07 -1.050291e-07 -1.351194e-07 1.524166e-07
5.351750e-08 4.031067e-07 -3.548002e-07 -1.469728e-07 -2.875551e-07 2.246717e-07
6.696251e-08 4.285372e-07 -2.255809e-07 -1.708889e-07 -2.245940e-07 1.945768e-07
-3.655281e-08 4.342786e-07 -3.990306e-07 -1.608247e-07 -2.921087e-07 2.037673e-07
2.484893e-06 -5.856031e-07 -3.930864e-07 -3.820585e-07 3.418756e-07 -8.812105e-07
2.016010e-08 4.316911e-07 -2.735327e-07 -8.003022e-08 -1.702357e-07 9.792207e-08
5.489734e-08 3.573735e-07 -3.338402e-07 -9.704361e-08 -1.864951e-07 1.819221e-07
-1.452969e-08 3.497006e-07 -2.360016e-07 -1.148130e-07 -2.554631e-07 1.738004e-07
-7.555498e-08 5.991624e-07 -2.889857e-07 -5.029260e-08 8.135376e-08 -4.681865e-08
-7.281519e-08 5.767182e-07 -3.485361e-07 -4.723986e-08 1.232771e-07 -6.021383e-08
-6.129322e-08 6.754263e-07 -3.815494e-07 -1.122656e-07 1.419531e-07 -6.059580e-08
-2.488307e-08 6.666740e-07 -4.097336e-07 -1.265427e-07 1.073534e-07 -3.651835e-08
-3.399268e-08 5.537879e-07 -3.260663e-07 -5.100117e-08 1.244158e-07 -3.172108e-08
3.465198e-07 1.376691e-07 -1.805896e-07 -2.006028e-08 -3.783527e-09 2.170313e-08
3.560367e-07 1.355100e-07 -1.882570e-07 -2.626472e-08 -2.732677e-09 6.384917e-09
3.543576e-07 1.201578e-07 -1.724911e-07 -1.682671e-08 -3.330297e-09 1.387518e-08
3.561185e-07 1.156277e-07 -1.858494e-07 -2.274277e-08 -5.750094e-09 1.148539e-08
3.584894e-07 1.155701e-07 -1.753519e-07 -2.808729e-08 -8.297394e-09 1.062591e-08
5.695896e-07 -8.912112e-08 -1.928640e-07 -6.660874e-09 -7.027008e-09 1.072094e-08
3.360804e-07 1.173900e-07 -1.800265e-07 -3.462945e-08 -4.590040e-09 2.099558e-08
4.919249e-07 -4.794475e-09 -1.928935e-07 -4.683443e-08 -1.227646e-08 -1.425564e-10
5.110617e-07 -2.837624e-08 -1.944505e-07 -3.611280e-08 5.055249e-09 8.841847e-09
-1.366907e-05 -1.100157e-05 3.779020e-05 3.862459e-06 -5.546383e-06 -6.247512e-06
5.666311e-07 -4.304100e-08 -2.358474e-07 -6.687129e-08 5.039966e-09 1.445160e-08
5.113018e-07 -4.470519e-08 -1.907163e-07 -3.678176e-08 -3.135495e-09 1.376928e-08
5.091296e-07 -2.217821e-08 -1.841598e-07 -3.217174e-08 -1.535116e-08 1.172844e-08
5.151636e-07 -4.496536e-08 -2.000209e-07 -3.722890e-08 -4.942031e-09 6.791640e-09
5.261075e-07 -3.590225e-08 -2.230784e-07 -7.728260e-08 -5.199798e-09 9.883632e-09
-1.061133e-08 5.397823e-07 -3.048000e-07 2.352723e-08 -1.034527e-07 -3.273985e-08
6.606702e-08 5.910633e-07 -5.196067e-07 -3.255537e-09 -1.158206e-07 -2.236895e-08
7.888375e-09 5.979195e-07 -4.341726e-07 5.942728e-08 -1.192526e-07 -4.616327e-08
1.868823e-08 6.830315e-07 -5.174324e-07 7.717409e-08 -1.296284e-07 -5.494683e-08
7.575221e-09 6.748134e-07 -5.261334e-07 6.201085e-08 -9.461269e-08 -3.901570e-08
3.309492e-08 5.334889e-07 -4.513782e-07 2.301029e-09 -1.879792e-07 -3.529353e-08
1.201982e-06 -1.088531e-07 -4.815917e-07 1.045906e-06 -5.856410e-07 -3.690852e-07
7.475277e-07 2.090661e-07 -6.682248e-07 1.036433e-06 -6.396613e-07 -3.745730e-07
1.370279e-06 -6.551670e-09 -9.591005e-07 1.165357e-06 -6.626806e-07 -5.624843e-07
1.850637e-06 1.206277e-07 -9.349593e-07 1.871786e-06 -3.927859e-07 -4.903504e-07
1.773180e-06 -5.279275e-08 -4.994239e-07 1.237961e-06 -8.125808e-07 -8.615092e-07
2.293518e-06 2.335245e-07 -9.081475e-07 1.637123e-06 -5.215206e-07 -2.961488e-07
1.424344e-06 2.065138e-07 -9.640170e-07 1.056071e-06 -5.657654e-07 -6.220723e-07
5.865331e-07 -1.101533e-07 -1.614216e-07 5.981817e-09 5.621166e-09 4.113543e-08
5.767780e-07 -1.112995e-07 -1.783831e-07 1.849100e-09 -8.908288e-10 1.161136e-08
5.932314e-07 -1.094412e-07 -1.895364e-07 -2.703533e-09 -3.268592e-09 1.223394e-08
5.876562e-07 -1.106021e-07 -2.006042e-07 6.565109e-09 1.374766e-09 4.528611e-08
5.887281e-07 -1.092355e-07 -1.983487e-07 -2.388610e-09 9.431307e-10 4.045230e-08
-1.014084e-07 5.502267e-07 -2.297912e-07 -4.607522e-08 1.284359e-07 -5.571232e-08
-1.187240e-07 5.795882e-07 -3.180578e-07 -3.816244e-08 9.392893e-08 -5.113768e-08
-1.002426e-07 5.936463e-07 -2.895920e-07 -2.668139e-08 8.346601e-08 -9.989445e-08
1.529499e-07 3.792882e-07 -2.700642e-07 2.912000e-08 -1.862898e-16 -3.198658e-09
-1.268347e-07 7.034247e-07 -3.503522e-07 -1.019405e-07 1.204671e-07 -8.280068e-08
-1.060035e-07 5.587023e-07 -2.855659e-07 -3.781878e-08 1.389747e-07 -7.495018e-08
-1.027758e-07 6.034428e-07 -3.591421e-07 -1.009813e-07 1.504851e-07 -8.077453e-08
-8.757487e-08 6.974773e-07 -3.373739e-07 -8.274651e-08 1.179766e-07 -6.524053e-08
3.990048e-07 6.792946e-08 -1.499956e-07 -3.327454e-08 -1.071293e-08 9.828294e-09
1.349814e-07 5.082905e-07 -3.962062e-07 1.809608e-07 2.705223e-08 4.729571e-09
4.042087e-07 5.671217e-08 -1.511117e-07 -2.076479e-08 -3.050986e-09 4.685618e-09
4.046164e-07 5.166041e-08 -1.482964e-07 -2.104304e-08 -4.620342e-09 5.781212e-09
4.140755e-07 5.768991e-08 -1.507813e-07 -3.537143e-08 -1.137457e-08 1.039746e-08
4.021333e-07 5.978160e-08 -1.493372e-07 -3.966426e-08 -1.277826e-08 1.484777e-08
3.970853e-07 6.742066e-08 -1.547507e-07 -3.515407e-08 -8.382735e-09 1.298421e-08
4.021249e-07 7.102294e-08 -1.657364e-07 -4.009588e-08 -1.713518e-08 1.750037e-08
3.825913e-07 6.538137e-08 -1.489808e-07 -2.928249e-08 -5.033479e-09 8.554431e-09
1.197903e-06 -4.995783e-07 -7.037942e-07 -3.471727e-07 5.132664e-07 -4.883423e-07
1.205238e-06 -4.716415e-07 -7.997627e-07 -3.631486e-07 3.361395e-07 -3.401914e-07
9.135282e-07 -7.486191e-08 -3.114340e-07 -7.976810e-07 1.276674e-06 -1.082051e-06
1.158783e-06 -4.835300e-07 -8.228421e-07 -6.929389e-07 5.264603e-07 -3.067866e-07
1.791800e-06 -4.086409e-07 -8.136209e-07 -5.952122e-07 5.618778e-07 -7.019267e-07
1.811834e-06 -4.512159e-07 -5.864082e-07 -6.950880e-07 6.670148e-07 -1.034078e-07
5.566297e-07 -9.389286e-08 -1.655312e-07 7.663349e-09 7.618500e-10 1.534855e-08
5.764805e-07 -1.047766e-07 -1.647939e-07 4.994292e-09 1.530958e-09 1.050158e-08
5.767618e-07 -1.077323e-07 -1.639259e-07 9.505821e-09 -1.695013e-09 3.341486e-08
5.567261e-07 -9.377002e-08 -1.924537e-07 1.345775e-08 5.304784e-09 3.366410e-08
5.774188e-07 -1.048293e-07 -1.795729e-07 4.193563e-09 2.935397e-09 1.461255e-08
5.851745e-07 -1.039695e-07 -1.829211e-07 9.165718e-09 1.329596e-09 1.294556e-08
3.766846e-07 8.039847e-08 -1.841721e-07 -5.595115e-08 -1.674977e-08 2.451850e-08
3.865876e-07 8.575871e-08 -1.591227e-07 -6.373240e-08 -2.266756e-08 3.347746e-08
3.853735e-07 9.697950e-08 -1.760927e-07 -6.860423e-08 -3.109597e-08 3.751284e-08
3.742541e-07 1.014516e-07 -1.827339e-07 -5.436462e-08 -1.123290e-08 2.507227e-08
2.284851e-06 -4.165878e-07 2.240458e-06 4.399043e-06 -3.072586e-07 -2.730404e-07
3.892691e-07 8.785373e-08 -1.806583e-07 -5.390542e-08 -2.136425e-09 2.772387e-08
3.831745e-07 9.172423e-08 -1.621649e-07 -5.173914e-08 -1.181041e-08 1.586364e-08
6.828166e-08 4.989225e-07 -3.038563e-07 -1.297306e-07 -1.056940e-07 1.102238e-07
5.780714e-08 3.551037e-07 -2.380108e-07 -1.009571e-07 -1.887508e-07 1.472576e-07
-2.974138e-09 4.534524e-07 -3.339759e-07 -7.231840e-08 -1.427413e-07 1.572848e-07
-1.021087e-08 3.388023e-07 -2.104129e-07 -1.414871e-08 -5.363732e-08 1.230973e-07
3.512599e-08 3.723038e-07 -2.809001e-07 -5.775664e-08 -7.539079e-08 1.203197e-07
4.543449e-07 2.061192e-08 -1.490769e-07 -1.233767e-08 -4.230059e-09 1.017674e-09
4.818605e-07 -3.687796e-09 -1.565021e-07 -1.294760e-08 -1.220855e-08 1.328502e-08
4.621357e-07 -5.777310e-09 -1.560782e-07 -2.516265e-08 -4.556069e-09 1.512894e-08
4.555965e-07 1.337399e-08 -1.630990e-07 -3.168965e-08 -9.789179e-09 1.818082e-08
4.738335e-07 8.805105e-09 -1.600921e-07 -1.839864e-08 -6.968979e-09 3.433555e-09
4.620929e-07 -8.487658e-09 -1.660058e-07 -2.418302e-08 -1.124688e-08 1.897943e-08
5.981911e-08 4.335569e-07 -3.883965e-07 -1.658456e-07 -2.921140e-07 2.410971e-07
1.295081e-07 1.695590e-07 -2.267478e-07 -1.130169e-07 -2.201917e-07 1.713502e-07
1.184885e-07 3.696037e-07 -2.082817e-07 -1.425453e-07 -1.570904e-07 1.667388e-07
7.192496e-08 1.585643e-07 -4.323666e-07 2.885106e-07 -7.191453e-07 -4.586154e-07
1.736175e-07 3.063693e-07 -2.024481e-07 1.661551e-07 1.294416e-07 1.082580e-07
-2.514199e-07 9.343539e-07 -4.250965e-07 -6.830108e-08 2.112602e-07 -7.543035e-08
5.693228e-07 -6.433748e-09 -2.957844e-07 4.396352e-07 -8.053316e-07 -7.194772e-07
7.989790e-07 8.973455e-08 -8.913052e-07 6.131814e-07 -6.100124e-07 -5.385344e-07
5.612437e-07 3.202757e-08 -7.505399e-07 4.430904e-07 -8.088406e-07 -6.580035e-07
1.058329e-06 -1.581186e-07 -5.483721e-07 4.132153e-07 -6.513762e-07 -2.866938e-07
1.094369e-06 -1.208015e-07 -8.270454e-07 5.901060e-07 -8.234331e-07 -7.189592e-07
1.156869e-06 -2.640699e-08 -8.240859e-07 1.086052e-06 -5.400890e-07 -3.764465e-07
4.218744e-07 5.607982e-08 -1.560814e-07 -3.923172e-08 -5.451154e-09 7.828605e-09
3.830357e-07 7.770248e-08 -1.591227e-07 -4.034267e-08 -1.283393e-08 1.771481e-08
-3.390326e-07 8.854653e-07 -5.714501e-07 3.509652e-08 -2.657732e-07 -8.110071e-08
4.059360e-07 6.063103e-08 -1.508682e-07 -2.513137e-08 -5.894544e-09 7.737157e-09
5.872516e-07 2.331131e-06 7.088943e-07 3.724767e-06 -7.533915e-08 -2.806154e-07
3.798130e-07 8.050207e-08 -1.457687e-07 -2.284645e-08 -1.033886e-08 4.666354e-09
3.820911e-07 8.714252e-08 -1.572009e-07 -2.936611e-08 -9.543990e-09 1.077994e-08
3.866968e-07 7.156498e-08 -1.559278e-07 -3.869586e-08 -1.145843e-08 1.355454e-08
3.797901e-07 7.811891e-08 -1.496296e-07 -2.582538e-08 -6.112298e-09 6.281865e-09
2.249339e-06 -7.219457e-07 -1.317620e-06 2.871368e-07 -3.743809e-07 -1.412550e-07
2.918979e-06 -7.281603e-07 -1.552363e-06 3.300275e-07 -2.074103e-07 5.733007e-08
3.048655e-06 -8.254370e-07 -1.516666e-06 1.480359e-07 -6.361686e-08 -1.528993e-08
3.600767e-07 1.151971e-07 -1.663712e-07 -2.747902e-08 -7.688244e-09 1.470491e-08
3.416627e-07 1.267932e-07 -1.749957e-07 -2.668264e-08 -1.230797e-08 1.746559e-08
3.639937e-07 9.839003e-08 -1.663921e-07 -3.493486e-08 -1.139014e-08 1.545848e-08
3.973669e-07 5.700982e-08 -1.665735e-07 -3.708822e-08 -5.950602e-09 8.307517e-09
4.135796e-07 6.193847e-08 -1.556581e-07 -2.782910e-08 -5.616431e-09 9.169465e-09
3.980700e-07 5.712570e-08 -1.538557e-07 -3.647083e-08 -4.252503e-09 1.174546e-08
3.971293e-07 5.445636e-08 -1.536440e-07 -1.834741e-08 -4.865268e-10 2.704660e-09
3.951328e-07 6.486908e-08 -1.536193e-07 -2.123696e-08 -1.287469e-09 3.248110e-09
3.113375e-07 1.494537e-07 -1.826010e-07 6.161806e-08 2.897505e-09 5.982471e-09
3.024260e-07 1.512240e-07 -1.652012e-07 6.098100e-08 4.531882e-09 4.245925e-09
3.360903e-06 -1.473181e-06 2.051697e-06 3.366723e-06 -3.095258e-07 -7.155897e-07
2.978147e-07 1.600377e-07 -1.571289e-07 3.456256e-08 6.383511e-09 1.002089e-09
3.003336e-07 1.689805e-07 -1.697101e-07 4.410779e-08 5.024002e-09 5.528470e-09
3.003358e-07 1.602002e-07 -1.608249e-07 3.753294e-08 2.356027e-09 1.044132e-08
2.857731e-07 9.497856e-07 -8.918501e-07 -1.023257e-06 -7.646326e-08 9.526113e-08
-7.978094e-08 7.676669e-07 -4.488596e-07 -1.764843e-07 9.636766e-08 -9.043738e-08
-1.122057e-07 7.739542e-07 -4.860688e-07 -7.152066e-08 1.130314e-08 -2.084735e-08
-7.209493e-08 7.256677e-07 -4.431554e-07 -1.036854e-07 1.731209e-08 -2.508854e-08
1.716703e-07 3.174880e-07 -3.818617e-07 -8.127203e-08 4.517515e-07 -1.321331e-07
1.109621e-07 6.107387e-07 -4.511744e-07 -3.524796e-07 4.541920e-07 -2.387137e-07
1.620856e-07 5.806260e-07 -6.354004e-07 -2.788167e-07 4.448285e-07 -2.357740e-07
1.650948e-07 4.434298e-07 -5.260908e-07 -1.904799e-07 4.141246e-07 -1.327758e-07
4.237315e-07 5.443587e-08 -1.607951e-07 -3.963768e-08 -1.417981e-08 1.470010e-08
4.233739e-07 5.175846e-08 -1.726124e-07 -4.367627e-08 -6.731187e-09 1.878975e-08
4.143694e-07 3.676733e-08 -1.588955e-07 -2.766908e-08 -4.024770e-09 5.348483e-09
4.409543e-07 3.246184e-08 -1.522483e-07 -2.766247e-08 -6.973002e-09 9.251152e-09
4.614445e-09 4.781022e-07 -3.014026e-07 6.760405e-08 8.271243e-08 6.941183e-08
-3.903157e-08 4.397755e-07 -2.383532e-07 1.102794e-07 1.142707e-07 8.236265e-08
2.551076e-08 4.467318e-07 -3.098552e-07 1.160167e-07 1.092474e-07 8.458804e-08
5.238955e-08 5.362370e-07 -3.344767e-07 1.720689e-07 1.229932e-07 8.178851e-08
5.491038e-07 5.586810e-07 -7.519335e-07 3.615937e-07 -5.641685e-07 -2.416255e-07
5.625678e-07 7.529713e-07 -9.311121e-07 4.237446e-07 -3.373510e-07 -1.156928e-07
2.893948e-07 5.609271e-07 -7.505946e-07 4.070375e-07 -5.668425e-07 -3.423632e-07
4.178410e-06 -3.450678e-06 5.354805e-06 3.697862e-06 2.139600e-07 -1.043399e-06
4.572053e-06 -3.423143e-06 2.379637e-06 3.154290e-06 6.240963e-07 5.504559e-07
3.646501e-06 -3.471968e-06 9.215343e-06 4.132573e-06 -3.762283e-07 9.640238e-07
3.777479e-06 -3.445971e-06 6.316610e-06 3.619197e-06 6.706489e-08 2.439882e-06
-4.433864e-08 5.708067e-07 -3.231605e-07 -6.170907e-08 1.343317e-07 -3.095587e-08
-7.234268e-08 5.385321e-07 -2.412738e-07 -1.779363e-08 1.141201e-07 -6.510510e-08
-7.622473e-08 6.038505e-07 -2.973439e-07 -4.892424e-08 7.790761e-08 -5.123693e-08
-1.020346e-07 5.509588e-07 -2.003222e-07 -1.296701e-08 5.277377e-08 -5.262899e-08
2.260350e-06 -2.811657e-07 -1.414279e-07 2.662192e-06 2.012083e-07 -1.132234e-07
-8.920183e-08 5.204990e-07 -2.171308e-07 -2.700503e-08 6.709639e-08 -2.252287e-08
1.848335e-07 2.762104e-07 -1.781666e-07 7.725736e-08 4.918762e-08 4.807653e-08
1.853876e-07 2.489722e-07 -1.652877e-07 6.314724e-08 4.223245e-08 3.373864e-08
2.252242e-07 2.256240e-07 -1.661119e-07 5.173725e-08 3.069150e-08 2.288627e-08
1.861712e-07 2.926189e-07 -1.605861e-07 5.661894e-08 2.598244e-08 3.565921e-08
2.239162e-07 2.444984e-07 -1.564794e-07 4.615587e-08 1.691609e-08 2.584328e-08
7.056457e-08 5.264257e-07 -3.682955e-07 1.833486e-07 1.782010e-07 1.111695e-07
4.543298e-08 4.255078e-07 -2.025936e-07 1.640427e-07 1.565753e-07 1.052380e-07
1.558637e-09 5.599681e-07 -3.036015e-07 1.808416e-07 1.940870e-07 1.340773e-07
6.060436e-08 4.200947e-07 -2.767522e-07 1.240380e-07 1.136645e-07 1.188829e-07
7.566617e-08 4.005565e-07 -1.992334e-07 1.261751e-07 1.365116e-07 1.049636e-07
1.515961e-07 2.783296e-07 -1.844829e-07 5.650487e-08 4.917027e-08 4.774851e-08
5.066658e-07 -5.748216e-08 -1.727202e-07 6.199364e-08 1.743970e-08 7.530101e-08
5.387310e-07 -6.861620e-08 -2.105220e-07 4.168764e-08 1.207098e-08 4.680685e-08
5.687536e-07 -8.627760e-08 -2.207066e-07 4.477041e-08 2.430506e-08 6.361382e-08
5.769977e-07 -6.687785e-08 -2.118845e-07 5.957528e-08 1.118911e-08 5.397678e-08
1.125012e-07 8.353897e-07 -5.642885e-07 -3.239896e-07 1.133024e-07 -4.954547e-08
8.476322e-08 7.335314e-07 -5.468588e-07 -2.417300e-07 1.248978e-07 -3.197474e-08
8.833493e-08 8.248051e-07 -6.326684e-07 -3.070145e-07 8.645037e-08 5.233778e-10
1.104653e-07 8.343601e-07 -7.740106e-07 -3.215769e-07 9.822108e-08 -2.056639e-08
2.689431e-06 -1.473181e-06 4.115089e-06 3.723681e-06 -9.214675e-08 7.740998e-07
3.102703e-08 8.698056e-07 -5.959309e-07 -3.015134e-07 1.496659e-07 -7.691112e-08
1.541087e-07 7.277305e-07 -6.293912e-07 -3.201209e-07 2.033560e-07 -7.344132e-08
-4.731192e-09 7.942302e-07 -5.642954e-07 -2.456797e-07 1.240595e-07 -7.287097e-08
-5.668539e-07 2.124527e-06 -1.022877e-06 -8.719646e-07 -1.881308e-07 5.949427e-08
4.545108e-08 7.124784e-07 -5.548207e-07 2.315237e-07 -2.296039e-07 -1.260681e-07
1.668503e-07 8.293258e-07 -7.341850e-07 3.504997e-07 -2.028587e-07 -8.559316e-08
-5.150199e-08 7.619645e-07 -7.060404e-07 2.084235e-07 -2.160880e-07 -1.379844e-07
3.697857e-08 7.475290e-07 -7.014987e-07 2.179340e-07 -1.950141e-07 -8.853290e-08
1.165874e-06 -2.787200e-07 -5.934771e-07 -2.491984e-07 -2.602165e-08 1.898878e-07
1.038280e-06 -1.642439e-07 -5.352564e-07 -2.187259e-07 -5.772475e-08 1.678424e-07
1.069241e-06 -2.776963e-07 -5.341769e-07 -2.202073e-07 -4.633626e-08 1.762893e-07
2.068648e-07 3.164527e-07 -2.581314e-07 1.061434e-07 3.663527e-08 2.892628e-08
1.242787e-06 -2.789789e-07 -6.172912e-07 -2.600648e-07 -3.878709e-08 1.011677e-07
-1.850757e-06 3.456764e-06 -7.051458e-07 -6.033823e-08 -3.647489e-07 -5.610052e-08
-1.463779e-07 4.901373e-07 -2.355265e-07 -1.313910e-08 1.504227e-07 -7.988329e-08
-1.424925e-07 6.817514e-07 -3.059720e-07 -3.709936e-08 8.561692e-08 -8.214067e-08
-1.375857e-07 6.973040e-07 -3.454641e-07 -8.572157e-08 1.167102e-07 -8.807183e-08
3.061209e-07 2.011209e-07 -2.731835e-07 -8.526114e-08 -2.148097e-08 2.714375e-08
3.304790e-07 1.958207e-07 -2.581453e-07 -9.001858e-08 -1.457631e-09 1.669286e-08
3.474244e-07 2.102521e-07 -3.290622e-07 -1.620860e-07 -3.145977e-09 1.885838e-08
3.216623e-07 2.317704e-07 -2.675307e-07 -1.638256e-07 -3.405222e-08 3.712580e-08
3.060694e-07 2.050332e-07 -2.609862e-07 -8.566898e-08 -7.842220e-09 2.754467e-08
3.233729e-07 2.257262e-07 -3.262331e-07 -1.626989e-07 -1.200492e-08 2.655723e-08
4.019439e-07 6.042307e-08 -1.442262e-07 -1.978598e-08 -1.180847e-08 7.032671e-09
3.833589e-07 7.479373e-08 -1.627866e-07 -3.859770e-08 -8.241254e-09 1.192780e-08
3.831378e-07 7.734429e-08 -1.515038e-07 -3.991080e-08 -2.699382e-09 9.899665e-09
4.063814e-07 6.416741e-08 -1.802493e-07 -5.250323e-08 -1.191376e-08 1.894624e-08
4.104735e-07 7.496291e-08 -1.664206e-07 -5.308095e-08 -7.660858e-09 9.938141e-09
3.995025e-07 7.379719e-08 -1.490792e-07 -3.144569e-08 -6.973335e-09 1.066828e-08
1.101796e-07 7.169386e-07 -6.807766e-07 1.487996e-07 -4.394007e-08 -5.242341e-09
4.001148e-07 7.204908e-08 -1.647625e-07 -3.059816e-08 -2.579003e-10 1.062943e-08
2.601557e-07 5.779297e-07 -7.082333e-07 1.960901e-07 -3.157088e-07 -1.239547e-07
4.055528e-07 5.583589e-07 -6.926611e-07 1.868096e-07 -3.278492e-07 -7.088300e-08
4.227443e-07 5.628569e-07 -7.025953e-07 1.540454e-07 -3.677474e-07 -6.412212e-08
3.094599e-07 1.397925e-07 -1.397399e-07 1.014546e-08 8.586117e-10 1.833810e-10
2.997240e-07 1.512977e-07 -1.507335e-07 6.774237e-09 4.060000e-10 4.705905e-09
3.101376e-07 1.509592e-07 -1.502066e-07 1.427253e-08 5.773943e-11 -7.899290e-11
3.057452e-07 1.464153e-07 -1.494780e-07 8.913145e-09 2.656956e-10 1.359475e-09
3.160811e-07 1.464711e-07 -1.492247e-07 1.626554e-08 1.699332e-09 2.479152e-09
3.016227e-07 1.569011e-07 -1.476204e-07 1.555332e-08 1.340560e-09 5.252657e-09
3.009187e-07 1.613288e-07 -1.509205e-07 1.107547e-08 -5.591328e-11 2.240857e-09
3.081001e-07 1.399503e-07 -1.434953e-07 1.074521e-08 -4.245853e-10 2.492491e-09
3.148013e-07 1.509477e-07 -1.465109e-07 1.852389e-08 -1.974457e-09 -2.275964e-10
-3.707727e-07 1.197526e-06 -6.020852e-07 -9.371112e-09 1.427866e-07 2.539705e-08
-3.192527e-07 1.233426e-06 -5.819426e-07 4.147627e-08 1.118928e-07 -6.867479e-09
-2.969649e-07 1.148991e-06 -5.983401e-07 1.267778e-07 2.123733e-07 -2.591012e-09
-2.906225e-07 9.473022e-07 -5.410327e-07 4.228285e-08 1.493125e-07 2.769173e-08
-2.979547e-07 1.038152e-06 -5.712315e-07 3.524048e-08 1.270292e-07 9.599562e-09
-2.743675e-07 9.727202e-07 -5.276998e-07 2.138748e-08 1.768174e-07 8.973899e-09
8.818365e-07 -2.237331e-07 -4.241203e-07 -9.772138e-08 -2.529094e-08 1.097745e-07
1.007375e-06 -2.123484e-07 -4.921925e-07 -1.324479e-07 -1.943243e-09 6.713781e-08
9.682163e-07 -2.143800e-07 -4.683571e-07 -1.266444e-07 -2.825855e-08 1.307095e-07
1.036923e-06 -1.616395e-07 -5.415438e-07 -2.208230e-07 -4.704600e-09 6.763899e-08
3.350157e-07 1.277891e-07 -1.395508e-07 3.346651e-09 1.433637e-09 1.942570e-09
3.318951e-07 1.260742e-07 -1.387618e-07 3.059080e-09 1.178561e-09 1.090966e-10
3.297801e-07 1.271425e-07 -1.377200e-07 8.031389e-09 2.487575e-09 3.326320e-09
-5.208965e-07 2.346586e-06 -1.022877e-06 -6.539517e-07 -3.055617e-07 4.636985e-08
3.297577e-07 1.212797e-07 -1.393103e-07 1.060188e-08 -1.360517e-09 3.996984e-09
3.351376e-07 1.166985e-07 -1.391819e-07 3.880559e-09 1.341386e-10 2.461114e-09
3.328374e-07 1.198248e-07 -1.392113e-07 4.072053e-09 -2.498442e-09 2.099015e-11
7.179542e-08 5.168152e-07 -2.831195e-07 1.809219e-07 1.713566e-07 1.223259e-07
-1.876203e-08 6.350746e-07 -3.314648e-07 1.173218e-07 1.530243e-07 9.874875e-08
4.654535e-08 5.020996e-07 -3.781362e-07 2.126711e-07 1.603635e-07 1.266139e-07
1.166688e-07 6.069296e-07 -4.180788e-07 3.152112e-07 2.163852e-07 1.354904e-07
1.413436e-08 7.467618e-07 -4.163563e-07 3.171834e-07 1.577843e-07 1.226306e-07
-2.804743e-08 7.108276e-07 -4.718521e-07 2.221125e-07 2.885188e-07 1.719429e-07
4.284067e-07 6.395203e-08 -2.052898e-07 -6.923813e-08 -5.139959e-09 8.506836e-09
4.714511e-07 2.242350e-08 -2.033680e-07 -8.272063e-08 -3.871550e-09 2.957654e-08
4.830966e-07 2.344918e-08 -2.169415e-07 -8.365054e-08 -1.374877e-08 1.213925e-09
-6.027100e-09 7.328539e-07 -5.703404e-07 8.880745e-08 -8.391939e-08 -8.576219e-08
4.654304e-07 2.290950e-08 -2.287225e-07 -9.070550e-08 -1.245793e-08 1.478468e-08
4.613836e-07 4.572704e-08 -2.189897e-07 -9.118249e-08 5.918145e-09 1.627603e-08
5.057927e-06 -2.636785e-06 1.460492e-06 -2.028016e-06 4.724580e-07 -2.974057e-07
5.011026e-06 -3.267826e-06 6.856416e-07 -1.816447e-06 -7.857054e-08 -6.666634e-07
3.863262e-06 -1.869179e-06 -1.457168e-07 -1.415182e-06 1.815576e-07 3.240733e-08
4.531408e-06 -2.778692e-06 1.010169e-07 7.634665e-07 9.285102e-08 9.119459e-08
4.531881e-06 -1.856023e-06 -7.712837e-09 -1.333259e-06 4.780002e-08 -3.271127e-07
5.318032e-06 -2.413244e-06 -2.943789e-07 -7.855754e-07 -2.043746e-07 1.827403e-07
-1.466287e-08 8.599697e-07 -7.681355e-07 1.913163e-07 -1.460273e-07 -4.692270e-08
5.150620e-07 5.078668e-07 -5.499296e-07 6.416430e-07 1.258584e-07 1.250964e-07
5.140061e-07 3.805997e-07 -7.140582e-07 7.226274e-07 1.491077e-07 1.744426e-07
7.200128e-07 3.577032e-07 -6.154264e-07 6.924110e-07 1.070313e-07 1.340617e-07
5.148784e-07 4.047869e-07 -6.201544e-07 6.566767e-07 2.117384e-07 1.142029e-07
7.283879e-07 6.980427e-08 -5.476556e-07 -4.921337e-07 7.784238e-07 -5.565599e-07
1.172390e-06 -2.010077e-08 -8.555438e-07 -5.308356e-07 5.710842e-07 -3.657406e-07
6.792389e-07 -2.761668e-07 -2.390696e-07 -2.838490e-07 8.960254e-07 -9.840107e-07
8.037135e-07 -2.007386e-07 -2.242390e-07 -1.707403e-07 8.454856e-07 -1.030487e-06
1.207382e-06 -2.587620e-07 -6.371010e-07 -3.979887e-07 7.192927e-07 -5.201396e-07
1.220734e-06 -7.070505e-08 -8.962804e-07 -5.070421e-07 6.336277e-07 -3.484934e-07
1.184818e-07 8.968310e-07 -8.306107e-07 3.367564e-07 -1.551999e-07 -4.593629e-08
1.719320e-07 7.109299e-07 -6.236399e-07 2.256795e-07 -1.549764e-07 -5.999886e-08
1.745024e-07 8.094150e-07 -8.377110e-07 3.688908e-07 -1.041407e-07 -2.544531e-08
2.411372e-07 7.530157e-07 -8.158285e-07 2.838715e-07 -1.114098e-07 -3.372851e-08
1.641300e-07 7.722705e-07 -7.071354e-07 2.110942e-07 -8.921641e-08 -2.418306e-08
3.702952e-07 7.722581e-08 -1.519622e-07 2.249846e-08 2.552159e-09 5.869247e-09
3.742638e-07 9.887291e-08 -1.498690e-07 3.361542e-08 5.872044e-09 9.666821e-09
3.711498e-07 8.547704e-08 -1.582549e-07 4.656557e-08 6.324184e-09 7.984011e-09
3.697560e-07 8.536966e-08 -1.521933e-07 4.411217e-08 8.226732e-09 4.827929e-09
-3.452498e-07 9.455913e-07 -4.986127e-07 -2.990514e-07 -5.249896e-07 1.338392e-07
5.288402e-07 -3.705966e-08 -2.121796e-07 2.743868e-08 -6.866500e-09 1.990656e-10
2.979007e-07 1.711031e-07 -1.463069e-07 7.428044e-09 2.891671e-09 5.723881e-09
-2.515761e-07 7.752729e-07 -4.907991e-07 -9.380487e-08 -5.154230e-07 1.546911e-07
-3.118994e-07 8.318546e-07 -4.683021e-07 -1.140000e-07 -4.761615e-07 1.585810e-07
-3.053963e-07 9.975908e-07 -3.156857e-07 -1.685929e-07 -5.423780e-07 1.666209e-07
1.931415e-07 3.145313e-07 -2.840295e-07 -4.498609e-08 -4.047217e-08 1.007146e-07
1.718065e-07 2.720131e-07 -2.819993e-07 -7.535315e-08 -5.314087e-08 9.309905e-08
1.976805e-07 2.740886e-07 -1.878088e-07 -2.510867e-08 -6.888615e-09 5.964996e-08
2.198628e-07 2.308370e-07 -1.939423e-07 -3.805916e-08 -2.549973e-08 6.106730e-08
3.204587e-07 1.421975e-07 -1.396638e-07 5.514030e-09 7.855528e-10 -2.208732e-09
7.116789e-07 -1.363976e-07 -2.953335e-07 -3.268877e-08 -7.935637e-09 1.588977e-08
6.891831e-07 -1.138063e-07 -2.883828e-07 -6.225307e-08 -1.312327e-08 1.771341e-08
7.556876e-07 3.650297e-07 -8.203977e-07 1.078199e-06 2.300437e-07 2.708089e-07
1.109026e-06 6.370792e-07 -8.290908e-07 1.393454e-06 2.469688e-07 2.796149e-07
1.586004e-06 2.539866e-07 -8.533377e-07 1.358502e-06 2.032757e-07 3.220113e-07
1.105391e-06 3.681456e-07 -8.164027e-07 1.362090e-06 3.529052e-07 2.908555e-07
-6.039104e-07 1.719048e-06 -9.423852e-07 -3.616520e-08 -9.805898e-08 7.846500e-09
2.662068e-07 3.381863e-07 -3.420416e-07 -1.554653e-07 -5.160053e-08 6.520970e-08
-4.851889e-07 1.688988e-06 -9.124020e-07 -9.895141e-08 -6.874694e-08 5.997125e-08
-4.976550e-07 1.887439e-06 -8.946059e-07 -1.250536e-07 -2.950434e-07 1.554928e-08
-4.971943e-07 1.695247e-06 -8.779809e-07 -1.051515e-07 -2.818639e-07 2.083301e-08
-4.332254e-08 6.573098e-07 -4.893645e-07 1.535949e-07 -2.348299e-07 -1.138472e-07
-6.124145e-09 7.068821e-07 -4.665088e-07 9.237671e-08 -1.013517e-07 -9.010882e-08
-9.300153e-08 1.239933e-06 -6.985196e-07 4.629466e-07 -3.365232e-07 -1.730896e-07
3.692653e-08 7.615525e-07 -6.947188e-07 2.150687e-07 -2.166641e-07 -7.998816e-08
-2.953078e-08 7.549559e-07 -5.660320e-07 1.359611e-07 -1.117197e-07 -8.338863e-08
-8.315546e-07 2.828830e-06 -6.288507e-07 -7.534149e-07 -2.928608e-07 1.675726e-07
-3.247970e-07 1.171793e-06 -5.382480e-07 -7.257939e-08 3.460272e-07 -4.476016e-08
-3.613800e-07 1.138324e-06 -6.402420e-07 -7.660930e-08 5.172704e-07 -9.957905e-08
-4.596386e-07 1.360098e-06 -6.686144e-07 1.133873e-08 3.259831e-07 -4.675066e-10
-3.888291e-07 1.069301e-06 -6.270033e-07 -1.419049e-08 5.278384e-07 -2.598316e-08
-4.053719e-07 1.121416e-06 -6.100180e-07 -9.008045e-08 4.834293e-07 -1.279270e-08
-3.697459e-07 1.342322e-06 -5.842584e-07 -5.955044e-08 3.751312e-07 -9.093211e-08
-3.196834e-07 1.104678e-06 -4.747590e-07 -6.792418e-08 3.851122e-07 -6.912525e-08
-2.539320e-07 8.314982e-07 -3.772951e-07 8.016245e-09 4.417147e-08 3.111407e-09
-2.527882e-07 9.420762e-07 -4.613032e-07 5.573092e-08 7.312103e-08 2.417410e-08
-2.429903e-07 9.389698e-07 -4.632816e-07 5.759974e-08 6.486694e-08 4.390276e-08
-2.173308e-07 7.624971e-07 -3.459256e-07 2.980098e-08 1.234510e-07 6.402235e-08
-2.545391e-07 7.213190e-07 -3.560330e-07 1.747069e-08 1.322070e-07 -1.183107e-10
-2.272713e-07 7.002555e-07 -4.010435e-07 5.486771e-08 2.102511e-07 2.587130e-08
7.177459e-07 6.406888e-08 -5.257230e-07 4.062002e-07 8.011824e-08 1.227157e-07
1.567270e-07 9.840892e-07 -9.218967e-07 -8.619628e-07 3.835846e-07 -2.169055e-07
6.829428e-07 5.887184e-08 -4.681079e-07 3.595015e-07 6.344893e-08 4.411628e-08
6.911530e-07 1.704311e-08 -4.335916e-07 2.983665e-07 -4.205562e-09 4.295274e-08
7.174311e-07 -7.695045e-09 -4.523955e-07 2.822068e-07 1.739038e-08 5.571751e-08
-3.357347e-07 7.029245e-07 -4.739243e-07 -1.845250e-07 -4.710814e-07 1.741837e-07
-2.214690e-07 8.532125e-07 -5.427784e-07 -1.239565e-07 -1.725374e-07 1.164609e-07
-1.205757e-07 6.375976e-07 -5.266715e-07 -4.430723e-08 -1.351000e-07 1.424633e-07
-1.938094e-07 4.106164e-07 -2.789160e-07 -1.224009e-08 -2.081229e-07 1.549967e-07
-3.358737e-07 4.578760e-07 -3.057232e-07 8.473172e-08 -4.557186e-07 1.727098e-07
-1.615404e-07 6.823074e-07 -3.000361e-07 -1.189877e-07 -2.170451e-07 1.352159e-07
-2.466410e-07 6.586900e-07 -3.013805e-07 -1.193649e-07 -2.580617e-07 1.217635e-07
1.321495e-07 5.631093e-07 -4.173062e-07 2.233104e-07 9.092012e-08 7.267201e-08
1.022649e-07 5.125281e-07 -4.609810e-07 2.742343e-07 6.551689e-08 4.560178e-08
1.738921e-07 5.139010e-07 -3.806223e-07 2.482465e-07 3.207928e-08 4.148904e-08
1.418053e-07 4.223316e-07 -3.619928e-07 1.823908e-07 3.270319e-08 2.506628e-08
4.116341e-07 5.050211e-08 -1.461178e-07 -7.202298e-09 -2.520839e-09 -5.600013e-10
4.192633e-07 4.429832e-08 -1.496358e-07 -2.272558e-08 -6.816092e-09 8.129389e-09
4.180866e-07 3.361667e-08 -1.474303e-07 -1.032414e-08 -7.169468e-09 1.778178e-09
-9.507276e-07 2.312406e-06 -9.888198e-07 6.261661e-08 -1.068772e-07 4.136792e-08
-8.644166e-07 2.186637e-06 -9.898536e-07 3.398634e-07 -1.088004e-07 2.641296e-08
-8.711330e-07 2.634582e-06 -1.020372e-06 3.971118e-07 -2.988973e-07 -3.738290e-08
-6.306414e-07 2.336256e-06 -9.871382e-07 1.500013e-07 -1.133221e-07 1.768374e-08
-4.290651e-08 8.503538e-07 -4.600617e-07 1.658148e-07 -1.458343e-07 -1.061663e-07
-4.561081e-08 5.630955e-07 -4.189676e-07 7.861659e-08 -2.297802e-07 -1.052220e-07
-3.273456e-08 7.404401e-07 -4.680124e-07 1.578677e-07 -2.589293e-07 -1.530821e-07
-2.348406e-08 8.877540e-07 -6.373546e-07 2.602354e-07 -3.943571e-07 -2.233159e-07
-2.873683e-08 5.715518e-07 -2.689065e-07 1.450449e-07 -3.282398e-07 -1.725670e-07
-6.787583e-07 2.241624e-06 -8.874472e-07 -3.392092e-07 -3.710791e-07 7.598320e-08
8.466949e-08 9.229363e-07 -7.202902e-07 4.062461e-07 -1.600854e-07 -1.460746e-07
1.201778e-06 3.199717e-07 1.139590e-07 -1.238300e-06 1.188061e-06 -1.389002e-06
6.920236e-08 -2.326988e-07 -2.379611e-07 -5.895963e-07 7.776767e-07 -8.611614e-07
1.755077e-07 6.856773e-07 -6.735508e-07 7.006111e-08 -7.231250e-08 -6.362194e-09
1.046042e-07 4.114264e-07 -2.896757e-07 1.927884e-07 1.311372e-07 1.007158e-07
4.597509e-08 4.351566e-07 -2.780972e-07 1.611054e-07 1.589824e-07 1.096814e-07
1.238915e-07 3.690974e-07 -1.888444e-07 1.547251e-07 1.102296e-07 8.310174e-08
1.007061e-07 3.435472e-07 -2.424525e-07 1.021003e-07 8.921155e-08 7.912871e-08
8.843163e-08 3.617465e-07 -2.002045e-07 9.542979e-08 8.382128e-08 6.246600e-08
3.151575e-08 3.499263e-07 -2.127223e-07 6.677448e-08 9.900214e-08 8.990871e-08
1.842404e-06 -1.856076e-06 1.414562e-05 5.672646e-06 1.607866e-06 5.485460e-07
2.170486e-07 2.224670e-07 -1.854660e-07 -4.467593e-08 -2.490652e-08 5.699912e-08
2.656617e-07 2.649153e-07 -2.799471e-07 -1.227218e-07 -6.553607e-08 1.064332e-07
2.008310e-07 3.185605e-07 -2.335393e-07 -1.159961e-07 -1.017997e-07 1.139716e-07
2.251802e-07 2.662050e-07 -2.525348e-07 -7.424351e-08 -6.297148e-08 1.167129e-07
2.146539e-07 2.350024e-07 -2.544958e-07 -1.087552e-07 -8.026956e-08 1.121028e-07
-4.595141e-07 -7.327238e-06 1.794886e-05 4.029135e-06 -2.533433e-06 -3.062852e-06
2.423563e-07 2.258410e-07 -2.191700e-07 -9.153223e-08 -5.262254e-08 8.595433e-08
2.117899e-07 3.287903e-07 -3.404372e-07 -1.265986e-07 -1.171705e-07 1.279325e-07
2.632953e-07 2.800044e-07 -3.084295e-07 -1.604065e-07 -1.038100e-07 9.868521e-08
-2.995808e-07 1.157555e-06 -6.444907e-07 -8.142859e-08 1.476272e-07 -3.908076e-08
-3.018059e-07 1.070166e-06 -5.480209e-07 -6.522383e-08 1.072017e-07 -2.210768e-08
-3.041117e-07 1.109413e-06 -5.954468e-07 -1.344758e-07 1.476551e-07 -4.046975e-08
-3.197773e-07 1.277180e-06 -5.937449e-07 -1.743438e-07 1.729753e-07 -5.378639e-08
-4.018550e-07 1.285999e-06 -7.326587e-07 -1.585835e-07 1.474492e-07 -2.974795e-08
-3.518401e-07 1.405672e-06 -6.719154e-07 -1.480473e-07 3.629399e-08 -5.791724e-09
-3.021895e-07 1.118942e-06 -6.568251e-07 -1.406960e-07 6.904500e-08 -2.811404e-08
8.823600e-07 4.284652e-07 -1.104496e-06 5.724865e-07 -2.762178e-07 -1.193446e-07
1.062755e-06 4.403253e-07 -1.097245e-06 6.525214e-07 -3.725730e-07 -2.413946e-07
1.136037e-06 6.341667e-07 -1.175608e-06 1.234401e-06 -8.668848e-08 2.264317e-09
1.074059e-06 6.081127e-07 -1.186202e-06 7.111897e-07 -7.781622e-08 7.008775e-08
8.444861e-07 5.909515e-07 -9.093777e-07 8.719770e-07 -2.984180e-07 -8.026846e-08
5.195960e-07 6.040582e-07 -1.028916e-06 7.659777e-07 -3.598083e-07 -2.774903e-07
1.108502e-06 8.966743e-07 -1.153657e-06 1.187268e-06 -2.158862e-07 -1.325274e-08
3.730802e-07 8.493738e-08 -1.527257e-07 9.917051e-09 3.663457e-09 8.089889e-10
3.850278e-07 8.187213e-08 -1.539047e-07 2.001799e-08 6.588182e-10 1.772007e-09
4.059930e-07 6.433178e-08 -1.673615e-07 4.508091e-08 7.145934e-09 1.300198e-08
4.043181e-07 6.893719e-08 -1.695535e-07 4.781227e-08 -4.911374e-09 -4.695514e-09
3.967116e-07 6.707844e-08 -1.664443e-07 2.279028e-08 8.963169e-09 7.812912e-09
4.029064e-07 6.602240e-08 -1.683764e-07 4.233742e-08 3.939931e-09 1.089133e-08
3.674869e-07 8.303110e-08 -1.698358e-07 4.001190e-08 1.601297e-09 -9.144703e-09
3.574206e-07 9.655822e-08 -1.566693e-07 -3.133746e-08 -6.799105e-09 1.077831e-08
3.645632e-07 9.978708e-08 -1.496590e-07 -2.530473e-08 -9.507219e-09 1.516822e-08
3.466109e-07 1.113071e-07 -1.539549e-07 -4.525979e-08 -1.743433e-08 3.100406e-08
3.865876e-07 8.246807e-08 -1.633249e-07 -5.340600e-08 -1.893329e-08 2.283042e-08
-3.182052e-07 1.602275e-06 -8.742841e-07 -6.532968e-07 -3.026559e-07 2.017710e-07
-8.534241e-08 4.179389e-07 -2.161416e-07 4.221580e-08 1.565125e-07 9.840097e-08
3.704208e-07 1.111762e-07 -1.804666e-07 -6.587327e-08 -1.718840e-08 2.721261e-08
2.338179e-07 7.966687e-07 -9.265341e-07 4.335966e-07 -1.567322e-07 -9.981423e-08
3.017778e-07 9.991352e-07 -8.385048e-07 5.969976e-07 -2.548509e-07 -1.657362e-07
2.593934e-07 9.253475e-07 -9.608814e-07 5.687395e-07 -1.718326e-07 -8.844881e-08
-3.461637e-07 1.555628e-06 -9.040751e-07 -5.641408e-07 -8.151169e-08 6.324196e-08
-1.231354e-07 4.382196e-07 -2.671155e-07 9.765199e-08 -2.434146e-07 -1.493297e-07
-1.116312e-07 6.470787e-07 -5.130670e-07 1.263079e-07 -2.533096e-07 -1.697085e-07
-1.490411e-07 7.208821e-07 -4.612255e-07 7.068834e-08 -2.381123e-07 -1.937684e-07
-1.080372e-07 6.967946e-07 -4.574158e-07 5.267506e-08 -1.450038e-07 -1.125051e-07
3.387260e-07 1.171387e-07 -1.464753e-07 2.989934e-08 5.911418e-09 3.520027e-09
-1.503390e-07 6.352317e-07 -3.082182e-07 1.042855e-07 -3.236792e-07 -1.970234e-07
-1.492260e-07 8.739279e-07 -4.824031e-07 -7.654637e-08 2.962971e-08 -1.578473e-08
-1.737198e-07 9.225005e-07 -4.849305e-07 -1.204024e-07 2.709153e-08 -2.655002e-08
-2.090192e-07 8.484847e-07 -4.810908e-07 -7.323473e-08 8.593155e-08 -5.019651e-08
-5.544448e-07 1.576687e-06 -7.634188e-07 -1.684731e-07 1.083784e-07 2.150710e-08
-2.088726e-07 1.023273e-06 -5.474326e-07 -1.551331e-07 1.589040e-07 -6.893139e-08
-2.073983e-07 1.021459e-06 -5.609136e-07 -1.566199e-07 1.159543e-08 -1.028696e-08
-1.993936e-07 9.033031e-07 -4.770033e-07 -1.037987e-07 9.107688e-08 -5.112268e-08
-1.731800e-07 8.178308e-07 -4.795532e-07 -1.218949e-07 9.039213e-08 -2.107553e-08
3.619098e-07 9.406904e-08 -1.487803e-07 2.339233e-08 5.549307e-09 5.748891e-09
3.840456e-07 7.568777e-08 -1.495963e-07 2.611615e-08 5.081130e-10 3.574139e-09
3.741612e-07 8.876623e-08 -1.491248e-07 3.221644e-08 4.939981e-09 9.262858e-09
3.933985e-07 7.448857e-08 -1.471073e-07 3.392617e-08 1.016326e-09 1.548362e-08
3.740128e-07 9.857641e-08 -1.449829e-07 3.429800e-08 4.831090e-09 8.705187e-09
3.687029e-07 9.222919e-08 -1.441604e-07 2.657525e-08 8.473683e-10 7.543056e-09
-2.098613e-07 9.018286e-07 -4.260385e-07 -1.447892e-07 2.264554e-07 -7.661985e-08
-2.602311e-07 6.625256e-07 -2.744678e-07 -4.144567e-08 1.975446e-07 -7.446610e-08
-2.444750e-07 7.526451e-07 -2.960549e-07 -5.591836e-08 2.638103e-07 -1.242438e-07
2.091977e-07 2.548849e-07 -1.781832e-07 1.144936e-08 6.603671e-09 2.823677e-08
3.560232e-06 -4.847138e-06 8.055627e-06 3.101666e-06 -9.975485e-07 -9.231076e-07
-2.251183e-07 7.251769e-07 -3.835354e-07 -4.135166e-08 1.596291e-07 -7.155081e-08
5.341751e-07 1.234966e-07 -3.971438e-07 3.180743e-07 1.919207e-08 9.480709e-08
4.596559e-07 1.377975e-07 -2.764758e-07 2.100296e-07 9.517309e-09 9.251383e-09
3.847662e-07 6.640593e-08 -1.428285e-07 -3.198583e-09 -7.280479e-10 8.468397e-10
3.896777e-07 6.248325e-08 -1.460143e-07 -5.022161e-09 -2.256011e-09 -3.965204e-11
4.375602e-07 6.738509e-08 -2.363037e-07 1.226604e-07 1.595835e-08 3.597844e-08
3.857920e-07 7.073548e-08 -1.444120e-07 -5.027439e-09 -4.456020e-10 1.952106e-09
3.867162e-07 6.556733e-08 -1.416822e-07 -5.924696e-09 -1.394515e-09 -1.812472e-11
3.913883e-07 6.372053e-08 -1.471809e-07 -1.630253e-08 -3.615126e-09 -7.060138e-10
3.695021e-07 8.936113e-08 -1.604414e-07 -1.736111e-08 -3.775812e-09 5.453053e-09
3.818762e-07 7.720501e-08 -1.488453e-07 -1.170793e-08 -1.585423e-09 2.120873e-09
-5.028898e-08 5.768553e-07 -4.096431e-07 -1.131769e-07 2.072126e-07 -6.602503e-08
3.839024e-07 6.788502e-08 -1.437121e-07 -1.741436e-08 -7.774430e-10 4.499482e-09
3.902454e-07 7.329195e-08 -1.451172e-07 -9.893448e-09 -5.886149e-10 8.794375e-10
3.811652e-07 7.913101e-08 -1.623854e-07 -2.588428e-08 -3.249400e-09 1.203850e-08
3.799941e-07 7.403564e-08 -1.479560e-07 -9.356448e-09 -3.110582e-09 4.015640e-09
3.848221e-07 8.071056e-08 -1.546870e-07 -1.506709e-08 -1.292095e-09 3.105011e-09
3.814322e-07 7.800616e-08 -1.445164e-07 -1.107680e-08 -4.431436e-09 7.189678e-09
3.888786e-07 9.447637e-08 -2.207920e-07 1.009868e-07 1.355160e-08 2.429439e-08
3.909161e-07 7.325124e-08 -1.457459e-07 -1.105963e-08 -4.282409e-09 1.836052e-09
3.755295e-07 7.956227e-08 -1.463724e-07 -3.541496e-09 -1.328091e-09 3.388132e-09
-1.317298e-07 9.561138e-07 -7.178802e-07 1.252200e-07 -6.741150e-08 -5.510413e-08
3.771402e-07 7.561636e-08 -1.425969e-07 -4.343483e-09 -1.035733e-09 8.523752e-10
5.473291e-07 -6.627646e-08 -1.799802e-07 -2.378066e-08 -1.482259e-08 3.436297e-08
5.462941e-07 -6.404020e-08 -1.584451e-07 -2.443698e-08 -7.809538e-09 3.155458e-08
5.353856e-07 -5.988596e-08 -1.754095e-07 -1.384682e-08 -6.444607e-09 1.308355e-08
5.290720e-07 -6.300247e-08 -1.613347e-07 -9.703436e-09 -8.308510e-09 8.753671e-09
5.178082e-07 -5.216225e-08 -1.561044e-07 -1.125073e-08 -6.181224e-09 1.344112e-08
5.198594e-07 -4.380680e-08 -1.785801e-07 1.983713e-08 3.089529e-09 1.927897e-08
5.059740e-07 -2.469197e-08 -1.795667e-07 2.808532e-08 5.969387e-09 1.338728e-08
5.245290e-07 -4.415838e-08 -1.873102e-07 2.307625e-08 1.062387e-08 1.354179e-08
-3.664975e-08 4.341530e-07 -2.201780e-07 -1.609423e-07 -2.931443e-07 2.012234e-07
-4.501027e-07 1.709019e-06 -8.890627e-07 8.066168e-08 -6.619981e-08 -1.533833e-08
-2.391605e-08 4.925582e-07 -3.387249e-07 -1.906112e-07 -4.697167e-07 3.218495e-07
-5.006319e-08 5.263051e-07 -3.186077e-07 -1.910191e-07 -4.392304e-07 3.354144e-07
3.363186e-08 4.390686e-07 -3.846684e-07 -2.250077e-07 -3.043125e-07 2.479922e-07
3.811536e-08 5.526702e-07 -3.950308e-07 -3.130836e-07 -3.226389e-07 2.330499e-07
4.326543e-07 3.652122e-08 -1.542907e-07 -1.295582e-08 -6.447827e-09 7.124112e-09
1.032439e-08 2.797909e-07 -3.111556e-07 -1.298629e-07 -3.327527e-07 3.073883e-07
-2.329297e-08 4.364061e-07 -2.036412e-07 -1.248496e-07 -2.655415e-07 2.171805e-07
2.647072e-06 -1.588771e-06 -4.146228e-07 4.908408e-07 -1.092909e-07 -1.025764e-06
1.338852e-06 -1.254385e-06 -2.015201e-07 -3.157002e-08 -4.699136e-07 -1.095974e-06
1.987316e-06 -9.666362e-07 -6.215314e-07 1.114709e-08 -8.664604e-08 -4.578308e-07
2.799265e-06 -9.713183e-07 -1.094024e-06 3.605006e-08 6.626529e-08 -1.877503e-07
1.801792e-06 -9.734498e-07 -1.952905e-07 -2.312479e-08 -5.781973e-08 -1.343123e-06
2.228218e-06 -4.264619e-07 -7.534853e-07 -9.495332e-07 7.354020e-07 -1.004108e-06
-7.125307e-07 1.616785e-06 -7.756646e-07 1.155656e-07 -7.774701e-07 -6.503527e-08
1.588069e-06 -4.472444e-07 -6.354850e-07 -5.226318e-07 4.473120e-07 -3.442885e-07
1.650698e-07 -9.373736e-07 1.266815e-07 4.482956e-08 5.494051e-07 -9.679064e-07
7.364151e-07 -7.082190e-07 3.726589e-07 -3.664279e-07 7.968232e-07 -1.046916e-06
1.539148e-06 -3.125730e-07 -5.871740e-07 -9.342660e-07 4.485538e-07 -4.225815e-07
9.784057e-07 -3.622713e-07 -9.174863e-08 -1.520570e-07 8.056571e-07 -1.224910e-06
-1.005973e-07 -2.743346e-07 -3.167262e-07 -8.447013e-08 6.633561e-07 -4.991611e-07
1.212193e-06 -3.532418e-07 -5.913793e-07 -1.695300e-07 6.227271e-07 -3.292525e-07
-1.059099e-07 5.679470e-07 -3.123200e-07 -3.881175e-08 1.399822e-07 -7.565210e-08
-1.338480e-07 6.117235e-07 -3.130089e-07 -7.002970e-08 1.078165e-07 -7.158173e-08
-9.264155e-08 5.304856e-07 -1.953444e-07 -5.830290e-08 1.345573e-07 -7.629078e-08
-1.177666e-07 6.189593e-07 -3.270226e-07 -1.352682e-07 2.022097e-07 -8.222826e-08
-5.350685e-08 5.891465e-07 -4.362509e-07 -1.174534e-07 2.552162e-07 -1.144672e-07
-6.964648e-08 5.621420e-07 -2.490896e-07 -9.348279e-08 2.167480e-07 -1.129607e-07
-9.554338e-08 4.471786e-07 -2.463140e-07 -3.656476e-08 1.927321e-07 -9.685255e-08
-3.527576e-08 5.038217e-07 -2.881619e-07 -1.370661e-07 3.132941e-07 -1.226368e-07
-1.286428e-07 4.278275e-07 -2.190588e-07 -1.690583e-08 2.152546e-07 -1.050916e-07
2.328165e-07 2.008561e-07 -2.027446e-07 -1.423857e-07 -7.996220e-08 1.067058e-07
3.335546e-07 1.874637e-07 -2.308312e-07 -1.461535e-07 -5.579696e-08 7.259092e-08
2.707677e-07 1.840941e-07 -2.093622e-07 -6.756624e-08 -6.491358e-08 6.516762e-08
3.125953e-07 1.464367e-07 -2.135515e-07 -1.086871e-07 -5.993481e-08 6.105362e-08
2.625376e-07 1.757553e-07 -1.706566e-07 -5.924486e-08 -3.826924e-08 4.160288e-08
2.442018e-07 1.714018e-07 -2.000631e-07 -5.020549e-08 -4.976354e-08 6.483054e-08
3.191629e-07 1.283154e-07 -1.398810e-07 1.215793e-08 -2.501005e-10 3.983361e-09
3.296806e-07 1.272954e-07 -1.382494e-07 8.080980e-09 3.505223e-10 1.906532e-10
3.201208e-07 1.405156e-07 -1.431966e-07 7.834736e-09 6.043858e-10 -6.450726e-10
3.324594e-07 1.313120e-07 -1.395627e-07 4.172882e-09 1.998148e-09 1.452408e-11
3.208420e-07 1.385440e-07 -1.398752e-07 6.640736e-09 -6.651141e-10 4.508871e-10
2.253608e-06 -1.078211e-06 -5.594477e-07 -7.622152e-07 3.623060e-07 -2.018937e-07
1.587889e-06 -8.865599e-07 -7.218642e-07 -3.568056e-07 6.486575e-07 -4.010983e-07
1.715434e-06 -4.433833e-07 -6.187517e-07 -5.520607e-08 4.065875e-07 -5.182761e-07
1.694460e-06 -1.168661e-06 -8.137535e-07 -1.199260e-07 2.698880e-07 -3.612062e-07
1.816218e-06 -5.857372e-07 -3.221887e-07 -2.637245e-08 3.140098e-07 -1.305954e-06
-1.074708e-07 -9.251712e-07 -5.253668e-08 -1.737912e-08 1.423955e-07 -6.324290e-07
2.855177e-06 -9.299661e-07 -1.305362e-06 -2.576507e-07 2.148600e-07 -2.631148e-07
1.832282e-06 -9.275854e-07 -6.530292e-07 -1.276283e-07 6.788792e-08 -5.926526e-07
3.764353e-08 4.230461e-07 -4.243753e-07 -1.386185e-07 4.323959e-07 -1.562163e-07
3.054794e-07 2.807982e-07 -6.972485e-07 -1.625561e-07 5.598243e-07 -2.370467e-07
5.133040e-07 4.569377e-07 -6.676302e-07 -3.573427e-07 5.263423e-07 -2.284183e-07
5.050133e-07 2.772221e-07 -6.988297e-07 -2.886912e-07 6.262190e-07 -2.874501e-07
2.320090e-07 3.077107e-07 -6.602325e-07 -1.303126e-07 4.848653e-07 -1.706655e-07
-4.217602e-08 2.257874e-07 -3.598317e-07 -1.946341e-07 6.766994e-07 -3.960545e-07
2.178908e-08 2.136681e-07 -4.310074e-07 -7.134020e-08 5.911031e-07 -2.360379e-07
1.703963e-07 9.228046e-08 -5.125219e-07 -1.033912e-07 7.074841e-07 -3.399201e-07
5.234550e-07 -5.606675e-08 -2.058941e-07 6.837834e-08 1.732072e-08 6.883134e-08
4.737155e-07 -2.117438e-09 -1.702165e-07 5.506078e-08 1.102637e-08 2.465157e-08
5.351949e-07 -4.245151e-08 -2.038552e-07 4.819347e-08 2.581621e-08 4.853472e-08
-2.629931e-08 1.063744e-06 -6.409311e-07 -3.465124e-07 -1.813529e-07 1.074629e-07
5.975246e-07 -1.127439e-07 -1.915919e-07 -2.161902e-08 -9.028656e-09 5.274132e-08
-1.751989e-07 1.029936e-06 -7.032289e-07 -1.595968e-07 -1.345622e-07 8.738654e-08
-1.630121e-07 1.338250e-06 -7.888489e-07 -3.149717e-07 1.951502e-08 3.478383e-08
-1.650226e-07 1.272456e-06 -8.112796e-07 -3.034578e-07 -2.577285e-07 8.556074e-08
-1.469740e-07 8.502394e-07 -6.448779e-07 -2.244276e-07 -1.889517e-07 1.416263e-07
-6.221977e-08 9.497618e-07 -6.686926e-07 -1.028420e-07 4.471608e-09 4.532703e-08
-3.471328e-08 1.014613e-06 -7.322619e-07 -3.615182e-07 -1.067019e-07 5.349932e-08
4.765980e-07 -2.335736e-08 -1.601698e-07 4.926737e-08 1.326495e-08 1.954653e-08
4.877806e-07 -2.487443e-08 -1.585697e-07 3.963950e-08 1.420377e-08 3.806063e-08
4.769306e-07 -2.053098e-08 -1.854437e-07 5.522461e-08 9.397475e-09 3.072439e-08
-4.184356e-07 1.484009e-06 -8.556085e-07 3.721759e-08 -3.466500e-09 -3.383056e-08
5.040375e-07 -4.834536e-08 -1.645085e-07 3.044873e-08 6.492165e-09 2.354706e-08
5.075107e-07 -1.926800e-08 -1.951579e-07 3.544819e-08 4.794239e-09 2.336893e-08
4.877460e-07 -1.504717e-08 -1.540296e-07 4.878775e-08 1.324007e-08 3.617311e-08
5.117475e-07 -4.569639e-08 -1.632221e-07 4.906111e-08 1.300081e-08 4.439313e-08
2.639417e-07 2.108606e-07 -1.556405e-07 3.756723e-08 1.083727e-08 1.760618e-08
2.629705e-07 1.842990e-07 -1.565197e-07 4.271251e-08 1.674513e-08 1.656723e-08
2.239417e-07 2.544096e-07 -2.023844e-07 4.742393e-08 1.885064e-08 2.860634e-08
2.265754e-07 2.371939e-07 -1.862831e-07 6.489938e-08 2.606189e-08 3.494042e-08
2.635014e-07 1.935911e-07 -1.615300e-07 5.468157e-08 1.794200e-08 2.687704e-08
2.287656e-07 2.206636e-07 -1.818943e-07 7.080168e-08 1.873898e-08 4.328257e-08
4.804626e-07 2.482195e-07 -7.693268e-07 2.522493e-07 -5.674721e-07 -2.060003e-07
6.159003e-07 -1.161798e-07 -4.658479e-07 1.129489e-07 -6.969674e-07 -3.238055e-07
5.486024e-07 -6.412928e-08 -2.881441e-07 2.659479e-07 -7.951911e-07 -6.201641e-07
3.763324e-07 2.566868e-07 -3.844964e-07 3.996229e-07 -8.189999e-07 -5.326643e-07
-1.445106e-09 5.554743e-07 -3.663072e-07 9.127265e-08 -2.158297e-07 -9.755479e-08
-1.155067e-09 6.376955e-07 -4.737417e-07 7.921085e-08 -1.639079e-07 -9.712658e-08
1.000296e-07 6.899304e-07 -5.920253e-07 1.008772e-07 -1.304642e-07 -6.050498e-08
5.443869e-08 7.190459e-07 -5.412872e-07 1.194512e-07 -9.187652e-08 -4.070252e-08
3.611846e-08 6.748076e-07 -5.404980e-07 6.035857e-08 -9.270651e-08 -4.879556e-08
-5.213888e-09 6.310232e-07 -4.032008e-07 1.098473e-07 -1.342735e-07 -1.020931e-07
-6.574190e-08 7.215692e-07 -4.669193e-07 9.235299e-08 -1.000095e-07 -8.447290e-08
-3.496070e-07 1.381736e-06 -8.103196e-07 7.848780e-08 6.047688e-09 -4.098285e-08
1.800512e-06 -9.289830e-07 -3.025817e-07 -2.203675e-07 3.170880e-07 -1.261268e-06
1.841961e-06 -9.640517e-07 -7.662213e-07 -1.207967e-07 2.149468e-07 -2.420295e-07
1.691764e-06 -5.380819e-07 -5.868715e-07 -1.338840e-07 2.909784e-07 -5.031509e-07
1.755844e-06 -1.093927e-06 -1.237027e-08 -1.024241e-07 2.285746e-07 -1.228078e-06
2.169939e-06 -1.082554e-06 -8.322603e-07 1.534336e-07 -2.455459e-07 -7.182871e-07
4.367308e-07 -6.694921e-07 -8.177712e-08 2.899782e-07 -1.456180e-07 -6.631286e-07
2.102745e-06 -9.775758e-07 -7.859004e-07 -3.249912e-08 4.432743e-08 -5.728249e-07
1.797417e-06 -6.953917e-07 -7.117494e-07 2.127569e-07 -1.113065e-08 -5.919564e-07
-1.617786e-07 6.477427e-07 -2.253623e-07 -3.161729e-08 1.026669e-07 -6.660827e-08
-1.849910e-07 7.485521e-07 -3.490382e-07 -8.350722e-08 1.611726e-07 -8.784523e-08
-2.022343e-07 7.451533e-07 -3.801214e-07 -6.736356e-08 1.435701e-07 -6.399416e-08
-1.997061e-07 6.568233e-07 -3.709242e-07 -4.623357e-08 1.158668e-07 -6.897550e-08
-1.612825e-07 5.064660e-07 -2.518901e-07 -3.643617e-08 1.761598e-07 -9.337287e-08
-1.716439e-07 6.123921e-07 -3.060892e-07 -5.181186e-08 2.003716e-07 -1.165569e-07
-2.063898e-07 7.153030e-07 -3.148585e-07 -4.479718e-08 2.361712e-07 -1.057850e-07
-1.763761e-07 5.944689e-07 -2.638124e-07 -9.751442e-08 2.013172e-07 -5.298879e-08
-2.089036e-07 6.813326e-07 -3.038607e-07 -6.238951e-08 2.353977e-07 -1.147101e-07
3.660545e-07 9.336859e-08 -1.436278e-07 6.216622e-09 9.182786e-10 4.317339e-09
3.710384e-07 7.832200e-08 -1.476089e-07 2.157266e-08 -1.958477e-09 1.041991e-08
3.703573e-07 9.982100e-08 -1.524516e-07 2.122279e-08 3.233404e-09 5.759756e-09
3.708454e-07 8.988441e-08 -1.428828e-07 1.713415e-08 6.832070e-09 5.118719e-09
3.722489e-07 8.661447e-08 -1.446033e-07 8.676900e-09 3.574121e-09 2.651333e-09
1.219970e-07 4.616853e-07 -5.534751e-07 -1.332186e-07 3.723555e-07 -9.831455e-08
1.685853e-07 3.986567e-07 -3.509410e-07 -1.126462e-07 3.953170e-07 -9.907160e-08
2.318785e-07 4.481252e-07 -6.435021e-07 -2.399665e-07 5.143296e-07 -1.980644e-07
1.212176e-07 9.267152e-07 -9.291471e-07 -5.698411e-07 1.212767e-07 -5.619336e-08
9.293564e-08 5.503480e-07 -4.751962e-07 -1.581701e-07 3.073005e-07 -9.391686e-08
1.718870e-07 5.627161e-07 -4.182014e-07 -2.808768e-07 4.619622e-07 -1.853793e-07
1.433504e-08 4.656547e-07 -4.307747e-07 -1.207880e-07 3.974044e-07 -2.037398e-07
-9.030644e-10 4.625588e-07 -2.967711e-07 -6.437088e-08 2.545579e-07 -5.631469e-08
-1.056355e-07 4.415201e-07 -2.643424e-07 -1.156196e-08 2.850812e-07 -8.673198e-08
5.502440e-08 5.600762e-07 -2.787192e-07 -1.609891e-07 3.371258e-07 -1.202313e-07
-1.942130e-07 8.221052e-07 -5.776637e-07 1.240195e-07 -1.853171e-07 -1.388232e-07
-1.428054e-07 9.284789e-07 -4.806671e-07 1.978793e-07 -2.714300e-07 -1.723485e-07
-2.038156e-07 7.135034e-07 -4.858546e-07 9.166659e-08 -2.201780e-07 -1.444729e-07
4.761188e-07 6.448264e-09 -1.873661e-07 8.925401e-08 2.098291e-08 3.293639e-08
4.846682e-07 1.078952e-10 -1.677406e-07 7.317085e-08 1.351711e-08 5.144505e-08
4.613885e-07 -2.827450e-09 -1.613628e-07 4.569320e-08 1.551426e-08 1.950919e-08
4.464970e-07 8.476515e-09 -1.663065e-07 6.919061e-08 7.585177e-09 4.144110e-08
4.477194e-07 5.477823e-09 -1.603574e-07 6.588112e-08 1.998541e-08 4.468418e-08
4.482782e-07 3.787135e-08 -2.124763e-07 8.081312e-08 1.167166e-08 1.527278e-10
-2.944020e-07 8.835367e-07 -4.167691e-07 1.157540e-07 -4.137619e-07 -1.409168e-07
4.304360e-07 3.957091e-08 -1.825182e-07 5.225488e-08 4.811372e-09 9.709767e-09
4.616336e-07 3.452572e-08 -1.905611e-07 7.003340e-08 1.814670e-08 1.327345e-08
4.614481e-07 4.658855e-08 -1.827309e-07 7.014363e-08 8.352172e-09 1.333512e-08
4.395878e-07 5.942106e-08 -2.184162e-07 8.083680e-08 1.856960e-08 8.575127e-09
4.162169e-07 6.265200e-08 -1.841204e-07 5.381567e-08 9.925501e-09 3.795931e-09
4.085316e-07 5.206373e-08 -1.667833e-07 6.291258e-08 1.039048e-08 1.892872e-09
3.093630e-07 1.631079e-07 -2.161563e-07 -7.976953e-08 -4.801777e-08 5.735457e-08
2.995231e-07 1.645198e-07 -1.768474e-07 -7.217907e-08 -3.587121e-08 6.519629e-08
3.053624e-07 1.645268e-07 -1.663628e-07 -7.071313e-08 -3.943006e-08 5.593233e-08
2.197785e-07 2.390537e-07 -1.798640e-07 -1.052216e-07 -9.383406e-08 1.190111e-07
2.463281e-07 1.894544e-07 -1.808824e-07 -1.972596e-08 -8.167070e-09 5.178896e-08
1.864165e-07 3.060538e-07 -2.739898e-07 -3.728176e-08 -1.925042e-08 7.724790e-08
2.763092e-07 2.126914e-07 -1.689669e-07 -3.637118e-08 -2.323374e-08 4.959353e-08
5.875900e-07 -8.102431e-08 -2.037359e-07 3.699781e-08 9.096425e-09 4.857771e-08
5.558983e-07 -6.942535e-08 -2.088554e-07 6.972044e-08 6.072127e-09 9.038161e-08
5.538560e-07 -8.707314e-08 -1.906649e-07 2.599937e-08 4.095878e-09 3.162717e-08
5.492717e-07 -7.815152e-08 -1.767144e-07 3.040540e-08 1.527078e-08 3.658352e-08
1.287347e-06 4.230573e-07 -1.073619e-06 -8.611967e-07 3.785404e-07 -2.431915e-07
1.355814e-06 3.868176e-07 -1.079595e-06 -1.077051e-06 4.284439e-07 -2.374367e-07
6.805193e-07 7.543634e-07 -1.132794e-06 -8.260090e-07 1.582954e-07 -4.956875e-08
1.011714e-06 7.889913e-07 -1.148045e-06 -1.103751e-06 2.668176e-07 -4.143362e-08
9.201561e-07 9.459459e-07 -1.163390e-06 -1.056179e-06 1.965809e-07 -1.331294e-07
1.266159e-06 4.511532e-07 -1.272661e-06 -8.593343e-07 2.275815e-07 -1.428728e-07
9.812900e-07 6.106921e-07 -1.183463e-06 -6.562714e-07 8.051723e-08 2.109364e-08
1.317830e-06 6.566016e-07 -1.255266e-06 -9.746193e-07 1.105158e-07 -1.025202e-07
6.768996e-07 6.129042e-07 -1.052254e-06 -7.783778e-07 4.245150e-07 -2.230289e-07
9.146920e-07 6.130037e-07 -1.076330e-06 -7.022290e-07 4.075786e-07 -1.955962e-07
4.989551e-07 7.960091e-07 -9.574481e-07 -5.027244e-07 1.374945e-07 -3.611028e-08
5.564799e-07 9.490235e-07 -1.086056e-06 -8.141281e-07 1.796061e-07 -5.299789e-08
6.024454e-07 8.150961e-07 -1.098426e-06 -8.308264e-07 1.099719e-07 -2.783857e-08
7.718099e-07 7.022145e-07 -1.096859e-06 -6.200778e-07 1.856510e-07 -9.448366e-08
5.848932e-07 6.139971e-07 -1.031715e-06 -4.672509e-07 1.801219e-07 -1.350690e-08
3.868612e-07 1.457215e-07 -2.592082e-07 -1.086262e-07 -2.105439e-09 2.313568e-08
3.454411e-07 1.663709e-07 -2.338177e-07 -7.700132e-08 -9.619496e-09 1.077574e-08
3.639563e-07 1.233617e-07 -2.091378e-07 -6.817887e-08 -5.556016e-09 3.054416e-08
-3.468642e-07 1.309661e-06 -8.184611e-07 1.406899e-07 -3.398859e-08 -3.463486e-08
-4.254385e-08 2.605017e-07 -3.134514e-07 -9.616758e-09 3.873606e-07 -2.771767e-08
3.401294e-07 1.424246e-07 -2.024019e-07 -6.104906e-08 -2.063850e-08 1.654432e-08
-2.172306e-07 5.630006e-07 -3.182738e-07 -1.356041e-07 -1.228092e-07 9.041613e-08
3.471414e-07 1.817374e-07 -2.784618e-07 -9.131521e-08 -1.066806e-08 3.620752e-08
-4.440095e-09 6.291005e-07 -5.060703e-07 -1.763072e-08 -3.857019e-08 1.190148e-07
6.194045e-08 8.517253e-07 -6.291624e-07 -2.969760e-07 -1.815862e-07 1.620244e-07
-8.346952e-08 3.098451e-07 -2.547788e-07 -1.444244e-09 3.516450e-07 -1.184207e-07
5.623475e-08 8.640285e-07 -6.442706e-07 -2.773829e-07 -1.859918e-07 1.301922e-07
1.298901e-10 8.477337e-07 -6.486931e-07 -2.176871e-07 -6.090133e-08 6.866578e-08
3.409529e-08 6.582104e-07 -5.679352e-07 -2.085108e-07 -1.070475e-07 9.429011e-08
5.650916e-08 6.970827e-07 -4.816598e-07 -1.345029e-07 -1.538939e-08 8.331290e-08
1.135604e-07 7.219782e-07 -5.862911e-07 -2.783322e-07 -1.127468e-07 1.060198e-07
6.382280e-08 7.949735e-07 -6.872080e-07 -3.525942e-07 -6.708308e-08 6.268511e-08
-6.989941e-07 2.375877e-06 -1.018582e-06 -6.329842e-07 -2.744173e-07 1.432653e-07
-9.316278e-07 2.610699e-06 -1.003561e-06 -2.754128e-07 -2.718835e-07 1.042743e-07
-6.329895e-07 2.132071e-06 -9.717935e-07 -5.959567e-07 -2.509667e-07 8.147942e-08
4.346253e-07 2.416157e-08 -1.690226e-07 -3.245763e-08 1.182743e-09 8.142541e-09
4.673952e-07 1.338591e-08 -1.863357e-07 -4.738085e-08 -4.296232e-09 2.022514e-08
4.556972e-07 1.763857e-08 -1.772235e-07 -2.899047e-08 -1.378357e-08 1.235753e-08
4.418574e-07 1.969172e-08 -1.649747e-07 -3.487787e-08 -2.926605e-09 -5.658180e-10
4.439639e-07 2.791218e-08 -1.649735e-07 -1.919563e-08 -2.330549e-09 1.651833e-09
4.519224e-07 2.536166e-08 -1.652050e-07 -1.739088e-08 -4.213918e-09 6.256493e-09
4.351952e-07 2.400920e-08 -1.629612e-07 -6.974585e-09 -5.885251e-09 2.587298e-09
5.626626e-07 -9.990682e-08 -1.809191e-07 2.741081e-08 1.256682e-08 5.256242e-08
5.594379e-07 -9.999508e-08 -1.677880e-07 2.805512e-08 1.091248e-08 5.655995e-08
5.661623e-07 -1.133009e-07 -1.721744e-07 1.666676e-08 -1.597345e-09 5.628388e-08
5.520588e-07 -1.000397e-07 -1.687267e-07 2.261263e-08 5.527318e-09 5.242718e-08
2.773454e-07 2.200023e-07 -2.132238e-07 6.790700e-08 6.134667e-09 1.695426e-08
2.441454e-07 2.582902e-07 -2.286808e-07 8.371975e-08 1.036927e-08 1.149352e-08
2.354386e-07 2.369571e-07 -2.084979e-07 6.677135e-08 4.806705e-09 1.721989e-08
2.475129e-07 2.742809e-07 -2.422750e-07 1.099723e-07 1.416190e-08 4.063799e-08
2.646811e-07 2.707742e-07 -2.145493e-07 1.022948e-07 2.038651e-08 1.796927e-08
-4.789759e-07 1.408022e-06 -7.207532e-07 -1.157432e-07 8.873725e-08 -1.398131e-08
2.342202e-07 2.341203e-07 -2.162193e-07 6.878592e-08 1.206005e-08 1.055294e-08
1.468758e-08 5.674405e-07 -4.474198e-07 6.437465e-08 -2.665862e-07 -1.246070e-07
2.754166e-08 4.678642e-07 -5.025292e-07 7.003551e-08 -3.442669e-07 -1.286962e-07
3.574393e-08 4.798419e-07 -2.569435e-07 8.056521e-08 -2.813053e-07 -8.283432e-08
-1.972527e-08 4.903285e-07 -2.635898e-07 1.065649e-07 -2.838201e-07 -1.185553e-07
-5.404488e-08 6.205894e-07 -5.468154e-07 2.350952e-07 -3.656421e-07 -1.434361e-07
-1.318702e-07 5.564745e-07 -2.789016e-07 6.311947e-08 -2.793048e-07 -1.322862e-07
-1.311120e-07 3.149919e-07 -2.698601e-07 1.297897e-08 -3.779858e-07 -1.923327e-07
-4.963477e-07 1.573662e-06 -7.369915e-07 -1.096629e-07 3.394096e-07 -1.895130e-08
1.340605e-07 5.245601e-07 -4.075217e-07 -8.231969e-08 -3.300439e-08 9.133788e-08
1.621653e-07 5.136535e-07 -5.004569e-07 -1.197105e-07 -2.390274e-08 3.861440e-08
1.371928e-07 5.094564e-07 -4.172880e-07 -3.241491e-08 -1.756231e-08 7.212393e-08
1.002230e-07 5.406846e-07 -4.479935e-07 -4.003378e-08 -3.582156e-09 5.175930e-08
1.622159e-07 5.289496e-07 -4.673708e-07 -1.175111e-07 -5.955910e-08 2.984163e-08
1.047001e-07 4.806449e-07 -4.129693e-07 -1.184862e-07 -5.229047e-08 7.658768e-08
1.199256e-07 4.856169e-07 -3.806150e-07 -4.266798e-08 -5.069309e-08 1.046838e-07
-2.357052e-07 7.865591e-07 -3.049659e-07 -8.189212e-08 -2.454253e-07 1.259374e-07
1.523451e-07 4.140352e-07 -3.775974e-07 -6.600294e-08 -3.905551e-08 9.445928e-08
2.622812e-07 2.063351e-07 -1.729562e-07 3.130844e-08 6.279280e-09 8.149647e-09
2.235211e-07 2.402349e-07 -1.686122e-07 5.953584e-08 3.190054e-08 2.522553e-08
2.880917e-07 1.740175e-07 -1.611303e-07 4.815948e-08 7.579987e-09 1.191993e-08
2.520394e-07 1.927759e-07 -1.475086e-07 2.152254e-08 5.492740e-09 8.105185e-09
2.650421e-07 2.196450e-07 -1.829014e-07 4.085393e-08 1.293395e-08 2.028535e-08
6.214029e-07 -6.521658e-08 -2.522945e-07 -8.630402e-08 -7.021715e-09 2.072459e-08
6.305508e-07 -6.422514e-08 -2.983650e-07 -8.943207e-08 -9.850373e-09 3.589810e-08
6.390284e-07 -9.327883e-08 -2.709273e-07 -7.534884e-08 3.236479e-09 4.897193e-08
6.142563e-07 -8.220143e-08 -2.455102e-07 -6.429492e-08 -1.442792e-08 4.126955e-08
-3.505192e-07 8.054719e-07 -3.247911e-07 -1.982678e-08 -2.690994e-07 3.159088e-08
-3.494027e-07 8.460684e-07 -3.397355e-07 -5.500715e-08 -6.159509e-07 9.052814e-08
-2.878346e-07 6.025633e-07 -3.305133e-07 -2.154935e-07 -4.998741e-07 6.309509e-08
-3.874278e-07 8.322179e-07 -5.222378e-07 -3.095818e-09 -5.349771e-07 1.168960e-08
1.127585e-06 -1.689573e-07 -5.989294e-07 -3.009153e-07 -3.468978e-08 5.554029e-08
-5.487306e-07 1.208331e-06 -5.404977e-07 -1.011490e-07 -5.610178e-07 2.353893e-08
-3.859833e-07 1.218105e-06 -3.207026e-07 -2.301631e-08 -5.556814e-07 -2.059358e-09
3.320176e-07 1.286413e-07 -1.388834e-07 9.873340e-09 3.576076e-10 3.779410e-10
1.606021e-07 6.240578e-07 -6.685753e-07 1.589545e-07 -2.141591e-07 -2.270164e-08
-8.849175e-08 6.278972e-07 -2.506965e-07 9.217186e-08 -1.438606e-07 -1.099234e-07
-4.488087e-07 1.420963e-06 -7.878604e-07 -3.518141e-08 -1.452723e-07 4.265746e-09
7.328030e-08 6.751467e-07 -6.251238e-07 1.546742e-07 -1.644756e-07 -7.468754e-08
4.966024e-08 6.378335e-07 -5.381463e-07 8.197324e-08 -1.605364e-07 -5.531069e-08
1.669991e-07 6.505100e-07 -7.215001e-07 1.889090e-07 -2.370096e-07 -9.329839e-08
1.475733e-07 6.420528e-07 -5.229673e-07 1.733241e-07 -3.258132e-07 -1.544206e-07
5.100847e-07 2.892448e-08 -2.277836e-07 -1.216204e-07 -1.081346e-08 2.613649e-08
5.180757e-07 2.858482e-08 -2.955163e-07 -1.522855e-07 -1.093083e-08 2.833800e-08
5.098629e-07 2.792899e-08 -2.578759e-07 -1.360476e-07 -2.276457e-08 6.823675e-09
5.286336e-07 -4.601924e-09 -2.525411e-07 -1.037502e-07 -6.561947e-09 2.195346e-08
5.706421e-08 4.731035e-07 -4.939946e-07 8.301303e-08 -3.203274e-07 -5.313782e-08
-1.494452e-08 4.240625e-07 -2.876601e-07 7.085940e-08 -3.154531e-07 -5.238431e-08
2.023603e-07 3.540339e-07 -5.236483e-07 9.120653e-08 -4.862930e-07 -1.716286e-07
2.637286e-07 5.765781e-07 -4.919717e-07 1.951017e-07 -3.483734e-07 -8.211458e-08
-3.617685e-08 4.195795e-07 -3.027143e-07 1.225448e-07 -4.062858e-07 -1.511226e-07
1.441341e-08 3.008321e-07 -2.982787e-07 -5.519787e-08 -3.667949e-07 -5.143292e-08
1.550152e-07 3.867029e-07 -3.099106e-07 8.091231e-08 -3.902680e-07 -1.430146e-07
2.769578e-07 1.879056e-07 -1.813106e-07 4.553845e-08 3.889323e-09 1.100201e-08
3.090223e-07 1.881262e-07 -2.141973e-07 8.296323e-08 2.767375e-09 1.768161e-08
2.761811e-07 1.879550e-07 -1.872051e-07 4.607470e-08 3.942777e-09 5.318078e-09
2.747803e-07 1.886515e-07 -1.732555e-07 4.293111e-08 9.239286e-09 1.671665e-09
2.790083e-07 2.177408e-07 -2.190057e-07 6.981770e-08 4.256490e-09 1.750776e-08
2.778855e-07 2.005273e-07 -2.127523e-07 9.100977e-08 1.301961e-08 2.307514e-08
3.019574e-07 1.788006e-07 -1.652409e-07 5.129303e-08 3.441748e-09 4.062706e-09
3.003066e-07 1.540985e-07 -1.835909e-07 6.146152e-08 1.091896e-08 1.377965e-08
3.328628e-07 1.159570e-07 -1.455958e-07 1.658923e-08 -2.559502e-11 5.651241e-10
5.516295e-07 6.697998e-07 -9.233019e-07 4.173047e-07 -1.593000e-07 -1.289170e-08
2.930092e-07 1.659083e-07 -1.552755e-07 2.218618e-08 -3.902237e-10 1.709533e-09
6.994547e-07 6.881887e-07 -9.891355e-07 6.076560e-07 -7.810609e-08 -7.304656e-09
7.166655e-07 5.679528e-07 -1.112192e-06 2.786202e-07 -3.803121e-07 -1.660196e-07
3.592132e-07 5.393135e-07 -7.950526e-07 3.452168e-07 -2.790920e-07 -1.097539e-07
6.262329e-07 5.689612e-07 -1.089664e-06 4.871538e-07 -3.272031e-07 -1.331658e-07
5.418889e-07 -5.656428e-08 -1.945005e-07 2.547093e-08 6.909592e-09 6.572361e-09
5.424052e-07 -5.279432e-08 -2.000826e-07 2.308375e-08 4.424832e-09 1.082637e-08
5.439015e-07 -5.549845e-08 -2.093042e-07 2.131812e-08 9.504924e-09 1.321973e-08
5.216279e-07 -6.108920e-08 -1.850338e-07 1.371938e-08 7.966202e-09 1.502597e-08
5.469843e-07 -5.976760e-08 -1.870489e-07 2.154296e-08 6.818312e-09 1.617593e-08
5.552834e-07 -6.235490e-08 -1.993678e-07 1.479570e-08 3.146865e-09 6.596316e-10
1.642637e-07 2.736666e-07 -2.021029e-07 -7.998584e-08 -8.498632e-08 7.375139e-08
5.656084e-07 -6.325816e-08 -2.091473e-07 1.592709e-08 8.335452e-09 9.494923e-09
5.220085e-07 -3.970637e-08 -1.851732e-07 1.657228e-08 6.200433e-09 1.479371e-08
5.164144e-07 -5.158503e-08 -1.779423e-07 1.466491e-08 1.150962e-08 1.088757e-08
2.157179e-06 2.705602e-08 -1.360815e-06 1.058222e-06 -3.069057e-07 -2.253295e-07
1.665802e-06 3.206401e-07 -9.834081e-07 1.455504e-06 -2.799871e-07 -1.673236e-07
1.758898e-06 -8.698085e-08 -1.015421e-06 1.417001e-06 -1.299021e-07 -1.057253e-07
2.120989e-06 -7.220062e-08 -1.143748e-06 1.128475e-06 -5.381960e-07 -2.934166e-07
2.130791e-06 3.232293e-07 -1.181398e-06 1.207409e-06 -4.004112e-07 -2.433278e-07
3.273568e-07 1.225228e-07 -1.411256e-07 9.207690e-09 1.089144e-09 -5.904904e-10
1.323504e-06 4.529564e-08 -1.128932e-06 6.813754e-07 -2.992493e-07 -1.627263e-07
1.404732e-06 4.330108e-07 -1.111416e-06 9.055793e-07 -3.280387e-07 -2.531833e-07
1.300751e-06 5.552813e-07 -1.160675e-06 1.184572e-06 -4.811034e-07 -3.807678e-07
2.659523e-07 2.791464e-07 -3.282569e-07 -1.258015e-07 -3.368464e-08 4.242004e-08
2.638914e-07 3.446731e-07 -3.570643e-07 -1.951432e-07 -4.716204e-08 1.045805e-07
3.320480e-07 1.174572e-07 -1.380613e-07 2.439320e-09 -7.618964e-10 -3.717018e-18
3.297350e-07 2.551676e-07 -2.733751e-07 -1.318537e-07 -2.834889e-08 2.886712e-08
3.146651e-07 2.282002e-07 -3.211230e-07 -1.582863e-07 -4.906832e-08 6.433184e-08
-3.749021e-07 6.284537e-07 -3.413455e-07 2.913397e-07 -8.452556e-07 4.941196e-09
2.659546e-07 2.865699e-07 -3.245866e-07 -1.259778e-07 -1.050049e-08 4.150927e-08
3.388959e-07 2.868033e-07 -4.046436e-07 -2.149365e-07 -1.258384e-08 5.738605e-08
3.552548e-07 2.695328e-07 -3.544681e-07 -2.012395e-07 -1.779491e-08 2.398656e-08
3.088979e-07 2.759498e-07 -3.231149e-07 -1.296602e-07 7.789352e-11 2.213335e-08
5.264990e-07 -6.511472e-08 -1.655292e-07 -3.417873e-08 -1.749401e-09 4.340803e-08
5.245151e-07 -4.146743e-08 -1.719172e-07 -1.511369e-08 -1.319994e-08 8.532632e-09
4.977797e-07 -1.640597e-08 -1.548015e-07 -2.459839e-08 -1.233267e-08 1.698560e-08
4.925024e-07 -2.616894e-08 -1.659735e-07 -4.086232e-08 -1.674123e-08 3.135447e-08
4.879677e-07 -9.610694e-09 -1.669421e-07 -5.176372e-08 -1.444854e-08 2.596408e-08
4.756890e-07 -2.252845e-08 -1.556631e-07 -3.629898e-08 -7.393337e-09 2.550654e-08
5.026145e-07 -1.633132e-08 -1.849970e-07 -2.538792e-08 -1.359741e-08 1.689068e-08
5.161983e-07 -5.528559e-08 -1.760997e-07 -4.617164e-08 -2.101854e-08 3.582242e-08
1.729581e-06 9.361677e-08 -9.204325e-07 -9.979005e-07 7.397550e-07 -8.590483e-07
1.054112e-06 4.766618e-08 -5.589497e-07 -8.074992e-07 7.978315e-07 -4.461014e-07
6.301039e-07 2.406064e-07 -6.380655e-07 -9.162873e-07 5.356587e-07 -7.579538e-07
5.011940e-08 -2.007473e-07 -2.244937e-07 -2.067394e-08 8.454013e-07 -7.822937e-07
3.194690e-07 -7.936494e-07 -1.468680e-07 2.617397e-08 1.222973e-06 -1.106830e-06
1.146271e-06 8.626254e-08 -8.335831e-07 -1.082126e-06 7.373382e-07 -7.039199e-07
1.649531e-06 1.884743e-07 -1.441104e-06 -8.773537e-07 2.693106e-07 1.446604e-08
1.322892e-06 2.530118e-07 -1.254729e-06 -1.115224e-06 1.035149e-07 -9.898949e-08
1.635373e-06 6.489154e-07 -1.232438e-06 -1.472113e-06 3.134155e-07 -2.595325e-07
1.910600e-06 1.027174e-07 -1.400308e-06 -1.097886e-06 2.514673e-07 -2.234124e-07
5.553712e-07 5.899678e-07 -8.862638e-07 -4.487882e-07 2.608404e-07 -1.314334e-07
3.181512e-07 6.735981e-07 -8.285937e-07 -3.189217e-07 1.542688e-07 -2.086742e-08
9.779121e-08 7.307326e-07 -7.735499e-07 -3.414776e-07 2.704011e-07 -1.563829e-07
9.183814e-08 7.864685e-07 -6.376931e-07 -3.713943e-07 1.812428e-07 -9.632286e-08
3.044241e-07 8.890195e-07 -9.568350e-07 -5.760253e-07 1.003740e-07 -3.255380e-08
3.029705e-07 7.665619e-07 -7.968896e-07 -3.179374e-07 9.857371e-08 -1.643060e-08
3.192187e-07 9.273435e-07 -9.397990e-07 -5.510286e-07 1.297248e-07 -1.627595e-08
8.424369e-08 7.789709e-07 -7.881370e-07 -3.638485e-07 1.106700e-07 -2.516330e-08
3.486749e-07 1.083579e-07 -1.432746e-07 1.416673e-08 2.529185e-09 1.835668e-09
3.846673e-07 8.400908e-08 -1.471237e-07 1.220857e-08 5.916768e-09 6.691966e-09
3.383410e-07 1.082606e-07 -1.478609e-07 4.314306e-08 1.033889e-08 8.400397e-09
3.538664e-07 9.675334e-08 -1.475029e-07 2.816920e-08 3.919586e-09 2.464111e-09
3.717854e-07 1.089658e-07 -1.587171e-07 4.269349e-08 5.613358e-09 8.064947e-09
3.791582e-07 9.146102e-08 -1.401228e-07 1.789054e-08 1.061789e-09 6.161097e-09
3.840653e-07 7.647456e-08 -1.541225e-07 2.671940e-08 6.918420e-09 3.476062e-09
3.694665e-07 1.090173e-07 -1.517939e-07 4.241840e-08 4.236176e-09 4.778268e-09
3.388949e-07 1.189734e-07 -1.425712e-07 1.211889e-08 2.385683e-09 -9.844466e-10
3.313580e-07 1.230342e-07 -1.497232e-07 2.795093e-08 4.354893e-10 9.360088e-09
3.402232e-07 1.242286e-07 -1.441012e-07 2.355497e-08 3.989739e-09 2.298571e-09
6.334183e-06 -4.176749e-06 4.154235e-06 1.415540e-07 2.050197e-07 -6.691874e-07
3.515533e-07 1.175396e-07 -1.442386e-07 2.571349e-08 4.382596e-09 6.395476e-09
3.474511e-07 1.104869e-07 -1.410365e-07 2.425478e-08 -1.273385e-10 8.646145e-09
3.410512e-07 1.090022e-07 -1.453970e-07 1.702469e-08 -2.414411e-10 2.537699e-09
5.703457e-07 -7.891403e-08 -1.798914e-07 1.239642e-08 8.003539e-09 1.425557e-08
5.393780e-07 -6.289690e-08 -1.823793e-07 6.708833e-09 1.070267e-08 8.161631e-09
5.544666e-07 -7.384827e-08 -1.853741e-07 1.027353e-08 6.600847e-09 1.435562e-08
3.382157e-07 1.114541e-07 -1.402250e-07 4.635557e-09 2.848142e-09 6.848330e-10
-2.518447e-07 1.005836e-06 -5.466899e-07 -4.071708e-08 3.173997e-09 -2.968916e-08
5.516173e-07 -5.379837e-08 -2.048259e-07 2.869398e-08 1.113146e-08 3.040887e-08
5.495709e-07 -5.427204e-08 -1.813903e-07 2.766682e-08 1.539246e-08 3.630548e-08
5.365073e-07 -6.932558e-08 -1.791518e-07 4.319145e-08 6.948109e-09 4.954789e-08
2.027937e-07 7.287966e-07 -7.190584e-07 -2.771244e-07 1.026437e-07 -2.167490e-08
2.348564e-07 7.934710e-07 -6.341563e-07 -3.220367e-07 1.863567e-07 -6.664339e-08
1.512262e-07 6.643406e-07 -6.681445e-07 -2.086574e-07 1.163916e-07 -2.523302e-09
1.941983e-06 -1.667227e-06 3.245314e-06 3.802967e-06 -1.522209e-07 -2.796180e-08
2.008709e-06 1.518984e-07 6.853662e-08 2.717565e-06 -6.737849e-09 2.854005e-07
2.400099e-06 2.417743e-07 -4.099122e-07 2.678718e-06 2.546822e-07 3.089085e-07
2.415288e-06 -5.703234e-07 2.822403e-07 2.659552e-06 -9.082340e-08 1.861861e-07
2.771757e-06 -8.110801e-07 1.012875e-06 2.901334e-06 2.332385e-07 5.090060e-07
2.884705e-06 -1.702297e-06 9.864555e-07 3.445682e-06 4.503644e-07 4.849887e-07
-2.737327e-07 8.585547e-07 -3.413135e-07 2.566120e-08 2.505044e-07 -2.312072e-08
-2.505706e-07 7.283182e-07 -2.328527e-07 -1.418326e-08 1.320938e-07 -4.290354e-08
-2.819489e-07 8.130428e-07 -4.023946e-07 1.010224e-08 1.552518e-07 -3.196770e-08
-3.031210e-07 7.137362e-07 -4.076622e-07 7.066674e-09 3.714803e-07 -3.064718e-08
-2.664090e-07 5.464410e-07 -2.828943e-07 3.031684e-09 2.677320e-07 -1.233106e-08
-3.028995e-07 7.101106e-07 -2.535234e-07 6.626949e-09 3.669938e-07 -3.781608e-08
-2.629028e-07 5.488936e-07 -2.768448e-07 -2.682869e-08 2.409543e-07 -4.750331e-09
5.674553e-07 -1.081847e-07 -1.659576e-07 7.644123e-09 2.565609e-09 1.711558e-08
5.955653e-07 -1.121416e-07 -1.866750e-07 3.591689e-09 -3.548388e-09 1.565081e-08
5.871332e-07 -1.238703e-07 -1.996003e-07 2.699287e-09 -8.457223e-10 4.372812e-08
5.732598e-07 -1.146572e-07 -1.735037e-07 5.072289e-10 2.368911e-09 1.810503e-08
5.942197e-07 -1.152183e-07 -1.806311e-07 1.353037e-08 3.576479e-09 5.738201e-08
5.887039e-07 -1.057057e-07 -1.871207e-07 3.253984e-09 5.568817e-09 1.531654e-08
-5.910482e-06 4.232059e-06 1.306315e-05 7.514622e-07 1.556065e-06 -7.735718e-08
5.894263e-07 -1.067903e-07 -1.890476e-07 2.614944e-09 1.723262e-09 1.663767e-08
5.679706e-07 -1.001922e-07 -1.643621e-07 3.773903e-09 -2.100789e-10 1.238863e-08
5.956276e-07 -1.138187e-07 -1.895654e-07 4.010962e-09 -8.738614e-10 1.546138e-08
-1.546407e-07 1.120501e-06 -7.291748e-07 1.308244e-07 -4.715584e-08 -3.532457e-08
-1.491075e-07 1.115775e-06 -7.349378e-07 1.272879e-07 -4.187957e-08 -3.035693e-08
-1.521552e-07 4.697887e-07 -2.648773e-07 9.005693e-09 -1.171292e-07 -1.376557e-07
-2.892918e-07 1.346818e-06 -7.543055e-07 2.337415e-07 -2.436569e-07 -1.273509e-07
-2.308351e-07 1.101909e-06 -7.190442e-07 1.361513e-07 -1.422335e-07 -1.090668e-07
-2.109433e-07 1.037217e-06 -6.904533e-07 1.959249e-07 -1.382846e-07 -6.340804e-08
-2.498192e-07 1.169517e-06 -7.470943e-07 2.098791e-07 -1.609726e-07 -7.202188e-08
5.543798e-07 -8.258670e-08 -1.809278e-07 -4.405654e-08 -1.925714e-08 4.702728e-08
5.278538e-07 -6.863583e-08 -1.821804e-07 -3.483312e-08 -1.168629e-08 3.746030e-08
5.303971e-07 -6.763231e-08 -1.798590e-07 -3.322528e-08 -1.455891e-08 3.329726e-08
5.565989e-07 -8.384434e-08 -2.013315e-07 -2.373894e-08 -1.143027e-08 3.104460e-08
5.664366e-07 -7.598277e-08 -1.943635e-07 -3.401851e-08 -9.828900e-09 3.441475e-08
5.573608e-07 -5.803897e-08 -1.947679e-07 -5.210714e-08 -1.161910e-08 4.020991e-08
-8.152431e-08 6.020250e-07 -2.645983e-07 -4.455584e-08 6.569951e-08 -4.630380e-08
-5.192980e-08 6.205785e-07 -4.036942e-07 -5.152463e-08 6.362025e-08 -2.497670e-08
-5.081797e-08 6.459161e-07 -3.400322e-07 -4.231280e-08 4.459887e-08 -2.450911e-08
-8.558561e-08 6.548712e-07 -3.464124e-07 -9.112825e-08 1.413283e-07 -5.694798e-08
-3.856337e-08 6.222361e-07 -3.939010e-07 -4.681501e-08 5.880273e-08 -3.891708e-08
-3.780266e-08 5.990682e-07 -2.872513e-07 -4.924790e-08 8.219055e-08 -3.483140e-08
1.050190e-06 2.071874e-07 -6.859019e-07 8.751032e-07 -6.525851e-07 -4.802225e-07
6.767394e-07 1.179039e-07 -6.218179e-07 7.869099e-07 -6.734615e-07 -6.570410e-07
7.494827e-07 6.161310e-07 -8.013857e-07 1.027825e-06 -8.724048e-07 -6.282385e-07
6.496164e-07 9.620729e-07 -7.679464e-07 1.122828e-06 -7.641151e-07 -5.909006e-07
9.428116e-07 4.125177e-07 -9.580246e-07 9.205774e-07 -6.063124e-07 -4.105762e-07
1.507126e-06 5.856875e-07 -1.025463e-06 1.642907e-06 -3.481690e-07 -4.120062e-07
1.183801e-06 2.179335e-07 -7.205991e-07 1.167572e-06 -8.231824e-07 -6.828469e-07
1.515320e-06 3.797406e-07 -9.630125e-07 1.373956e-06 -4.870718e-07 -3.468688e-07
3.454081e-07 1.135538e-07 -1.622982e-07 -2.276317e-08 -8.049564e-09 2.451212e-08
3.389813e-07 1.234773e-07 -1.682471e-07 -8.600575e-09 -5.473444e-09 1.616205e-08
3.516564e-07 1.039811e-07 -1.686639e-07 -1.000335e-08 -1.567034e-09 1.397467e-08
3.502437e-07 1.105591e-07 -1.559486e-07 -7.890897e-09 -4.019718e-09 1.213175e-08
-5.075563e-08 5.538155e-07 -3.333521e-07 -5.162350e-08 1.200636e-07 -7.975023e-08
-5.997947e-08 5.684827e-07 -3.430388e-07 -2.043996e-08 6.046878e-08 -2.204114e-08
-7.720675e-08 6.223844e-07 -3.425823e-07 -2.782323e-08 2.503106e-08 -3.176656e-08
-9.425798e-08 5.515065e-07 -3.000318e-07 -1.791993e-08 5.608903e-08 -3.685672e-08
-9.061983e-08 5.869019e-07 -2.824327e-07 -4.536931e-09 2.782668e-08 -4.488494e-08
-6.329802e-08 5.927284e-07 -3.320637e-07 4.285932e-09 1.766290e-08 -2.630265e-08
-6.342738e-08 5.791101e-07 -3.442418e-07 -8.006432e-09 3.124763e-08 -1.792117e-08
3.774359e-07 1.456026e-06 -8.606363e-07 1.511355e-06 2.819136e-07 2.048849e-07
3.342337e-07 1.381340e-06 -8.675041e-07 1.651065e-06 1.808025e-07 1.978033e-07
2.519023e-07 1.353090e-06 -7.491307e-07 1.872628e-06 4.645562e-07 4.121774e-07
3.581140e-07 1.082024e-06 -7.577262e-07 1.603480e-06 3.468411e-07 1.692752e-07
-6.936364e-08 8.218720e-07 -5.279412e-07 -1.250518e-07 -7.282401e-08 1.419438e-07
-1.052415e-07 6.020463e-07 -3.919991e-07 -5.737991e-09 -5.296799e-08 1.396843e-07
-8.464326e-08 6.947294e-07 -5.382487e-07 -1.845811e-07 -1.914255e-07 1.569614e-07
-4.854861e-08 6.387872e-07 -4.219174e-07 -2.343122e-07 -2.598715e-07 2.228702e-07
-3.418729e-08 4.321635e-07 -4.388745e-07 -1.527939e-07 -3.118072e-07 2.098668e-07
2.055661e-06 -6.087069e-07 -9.065348e-07 -1.355748e-07 5.753232e-07 -2.783416e-07
2.734054e-08 7.176877e-07 -4.531202e-07 -1.717568e-07 -1.413731e-07 1.681475e-07
-4.679878e-07 1.113578e-06 -4.312233e-07 1.639205e-07 -5.359444e-07 -1.443965e-07
-2.674942e-07 8.404299e-07 -3.003204e-07 5.162989e-08 -2.667501e-07 -1.054853e-07
-6.944453e-09 8.176375e-07 -5.357146e-07 -1.498506e-07 -8.299455e-08 1.411888e-07
-1.787907e-07 5.049321e-07 -2.262898e-07 -2.498300e-08 1.916714e-07 -8.669349e-08
-2.102915e-07 8.384350e-07 -4.054543e-07 5.357572e-08 -4.443240e-07 -1.797633e-07
-2.208627e-07 7.242230e-07 -4.862295e-07 7.095339e-08 -2.376997e-07 -1.513091e-07
-2.590099e-07 7.287437e-07 -2.752798e-07 3.958032e-08 -1.968186e-07 -1.181971e-07
-2.569348e-07 7.299234e-07 -4.985566e-07 3.794011e-08 -1.988688e-07 -1.221729e-07
-2.992211e-07 9.461107e-07 -5.681165e-07 6.959077e-08 -3.212402e-07 -2.019044e-07
-2.135468e-07 8.289585e-07 -5.428203e-07 1.213647e-07 -2.417860e-07 -1.443050e-07
-2.772694e-07 9.486235e-07 -5.748502e-07 2.167530e-07 -3.258582e-07 -7.461295e-08
3.106345e-07 1.632275e-07 -1.524272e-07 3.497459e-08 1.145893e-08 1.085104e-08
3.095142e-07 1.591308e-07 -1.615984e-07 3.711779e-08 5.317778e-09 1.405815e-08
3.007342e-07 1.699645e-07 -1.550728e-07 2.181166e-08 7.362584e-09 7.341496e-09
2.856440e-07 1.916584e-07 -1.582227e-07 6.029991e-08 1.488268e-08 1.806255e-08
2.536465e-07 1.929455e-07 -1.607643e-07 2.050303e-08 7.837798e-09 8.379902e-09
3.012153e-07 1.601944e-07 -1.620842e-07 4.961303e-08 1.127841e-08 1.084397e-08
3.093435e-07 1.638577e-07 -1.432496e-07 1.919086e-08 8.610234e-09 5.629488e-09
3.091461e-07 1.506663e-07 -1.549073e-07 4.459938e-08 1.818347e-08 3.130927e-09
3.064326e-07 1.501316e-07 -1.467391e-07 3.335739e-08 3.158245e-09 3.281430e-09
3.757589e-07 1.048565e-07 -1.781318e-07 -5.244997e-08 -6.977095e-09 2.029838e-08
3.793272e-07 1.049689e-07 -1.889677e-07 -5.687088e-08 -1.164634e-08 1.718467e-08
3.534622e-07 1.148433e-07 -1.669870e-07 -1.903847e-08 -2.685229e-10 1.472299e-08
3.373813e-07 1.223436e-07 -1.982407e-07 -3.799330e-08 -5.181641e-09 1.715677e-08
3.661043e-07 9.219377e-08 -1.701800e-07 -3.774519e-08 -5.772439e-09 1.116216e-08
3.556373e-07 9.325165e-08 -1.512712e-07 -2.799406e-08 -8.806897e-09 1.605963e-08
-5.492988e-08 -6.745145e-08 -2.316182e-07 -1.271616e-08 -5.918897e-07 -4.367617e-07
3.455114e-07 1.125171e-07 -1.768622e-07 -4.245083e-08 -1.819333e-08 2.051729e-08
3.660697e-07 9.215515e-08 -1.623423e-07 -3.770638e-08 -6.764260e-09 1.253984e-08
-7.707861e-08 5.359520e-07 -2.412326e-07 -1.241344e-08 5.866664e-08 -3.737468e-08
-3.290084e-08 5.350507e-07 -3.179853e-07 3.660843e-09 1.160586e-07 -3.115750e-08
-1.546385e-08 6.280231e-07 -3.839819e-07 -3.341804e-08 6.638775e-08 -2.177922e-08
2.343122e-08 5.853934e-07 -4.357609e-07 -2.669468e-08 1.203387e-07 -1.859651e-08
4.860890e-09 5.818219e-07 -4.025630e-07 -3.582709e-08 1.265754e-07 -1.716852e-08
-2.600475e-07 7.292083e-07 -2.545553e-07 -3.051181e-08 1.605459e-07 -8.152843e-08
-3.202318e-07 7.681828e-07 -4.581378e-07 -3.946855e-08 3.549245e-07 -7.256523e-08
-2.640413e-07 5.619957e-07 -2.438053e-07 7.985046e-09 2.794074e-07 -7.005646e-08
-2.517208e-07 7.378326e-07 -2.324569e-07 -1.355026e-08 1.696638e-07 -4.775817e-08
-2.669193e-07 7.432099e-07 -2.230066e-07 -1.983394e-08 3.527847e-07 -5.673622e-08
-2.672746e-07 5.707018e-07 -2.597669e-07 3.117326e-08 2.459758e-07 -4.595234e-08
6.589102e-09 2.712210e-07 -4.428271e-07 2.008975e-07 -6.632444e-07 -3.530650e-07
3.074226e-07 3.141594e-07 -6.862013e-07 1.489102e-07 -4.989051e-07 -1.038766e-07
2.974319e-07 2.378187e-07 -7.547330e-07 3.606921e-07 -6.205553e-07 -1.726946e-07
6.525749e-07 -1.020027e-07 -2.785704e-07 6.887470e-08 7.575515e-09 7.385130e-08
1.515603e-07 3.184351e-07 -4.791822e-07 1.850176e-07 -6.065724e-07 -2.418674e-07
4.373819e-07 4.899846e-08 -3.873578e-07 2.483649e-07 -7.566715e-07 -4.351885e-07
2.826637e-07 5.834255e-08 -4.070605e-07 4.576531e-08 -6.069686e-07 -2.112334e-07
3.241470e-07 1.483109e-07 -1.647282e-07 5.364488e-08 -6.891107e-10 6.515258e-09
3.124572e-07 1.375657e-07 -1.549740e-07 2.819787e-08 1.014465e-09 8.331030e-10
3.293675e-07 1.366744e-07 -1.488622e-07 2.516510e-08 -1.279178e-10 3.552270e-09
3.399707e-07 1.324696e-07 -1.583507e-07 4.359184e-08 6.143111e-09 5.082566e-09
3.265014e-07 1.221439e-07 -1.490101e-07 3.163747e-08 1.338462e-09 2.900561e-09
1.250883e-06 -3.895342e-07 -5.689831e-07 3.396314e-07 -6.735902e-07 -4.264419e-07
1.952965e-06 -6.105162e-07 -1.053432e-06 4.064187e-07 -4.956187e-07 -9.500875e-08
1.957000e-06 -3.789431e-07 -1.025412e-06 5.194795e-07 -3.910363e-07 -7.529976e-08
1.238583e-06 -6.912551e-07 -4.813469e-07 2.628051e-07 -5.847309e-07 -3.408032e-07
1.244619e-06 -3.247994e-07 -5.716674e-07 2.034866e-07 -5.612963e-07 -3.626931e-07
1.375370e-06 -6.692691e-07 -8.011989e-07 3.667233e-07 -5.688105e-07 -6.082466e-07
9.070266e-08 7.137582e-07 -7.373721e-07 3.531385e-07 -3.855443e-07 -2.108663e-07
7.937622e-08 7.487855e-07 -6.373546e-07 3.666431e-07 -4.514962e-07 -2.163072e-07
2.069895e-07 4.933928e-07 -5.260626e-07 3.505575e-07 -5.235214e-07 -3.615782e-07
2.578689e-07 6.069008e-07 -7.541321e-07 3.432262e-07 -4.290190e-07 -1.677323e-07
2.103061e-07 5.096112e-07 -5.322247e-07 2.585089e-07 -4.937330e-07 -2.273128e-07
1.788098e-07 4.985498e-07 -7.089239e-07 3.576989e-07 -5.538645e-07 -2.863026e-07
-1.632419e-07 7.028090e-07 -3.636805e-07 -5.814325e-08 1.004680e-07 -5.252997e-08
-1.409013e-07 6.282575e-07 -2.911187e-07 -3.117220e-08 3.555808e-08 -6.382031e-08
-1.659308e-07 7.029565e-07 -4.183116e-07 -5.916178e-08 9.215397e-08 -6.644382e-08
-1.294670e-07 7.798046e-07 -3.914332e-07 -5.951183e-08 4.489966e-08 -5.604941e-08
-1.499177e-07 7.325243e-07 -3.778188e-07 -4.770265e-08 3.967336e-08 -5.898689e-08
-3.993401e-07 1.089740e-06 -5.436425e-07 -2.161165e-07 -5.353371e-07 7.533970e-08
-3.880835e-07 1.165115e-06 -5.265057e-07 -1.637130e-07 -4.809634e-07 8.956118e-08
-3.175889e-07 8.506273e-07 -5.311669e-07 -8.799257e-08 -4.998433e-07 6.082018e-08
-3.037597e-07 1.062661e-06 -4.685082e-07 -1.789130e-07 -5.004879e-07 1.601289e-07
-3.139177e-07 7.480754e-07 -3.163572e-07 -6.277191e-08 -2.735018e-07 8.914082e-08
-2.338911e-07 5.646852e-07 -3.054406e-07 -2.470156e-07 -4.160831e-07 1.255751e-07
1.219658e-07 3.695579e-07 -2.324164e-07 1.513142e-07 1.188329e-07 9.390943e-08
8.546899e-08 3.095880e-07 -1.963692e-07 6.508758e-08 7.038174e-08 7.075695e-08
1.461285e-07 3.177721e-07 -1.922417e-07 8.737136e-08 5.819230e-08 3.803285e-08
1.736175e-07 3.383976e-07 -2.342025e-07 1.765839e-07 1.045961e-07 8.700459e-08
1.712484e-07 2.783554e-07 -1.880412e-07 9.878607e-08 5.016998e-08 8.129704e-08
1.600907e-07 2.910946e-07 -2.298087e-07 1.372604e-07 9.156053e-08 6.379705e-08
8.440979e-08 5.500784e-07 -3.524669e-07 -1.657983e-07 -2.091068e-07 2.075050e-07
1.188981e-08 4.268715e-07 -2.674821e-07 -9.557091e-08 -1.636498e-07 1.442521e-07
8.680988e-08 6.110629e-07 -4.199025e-07 -2.007449e-07 -1.336548e-07 1.297972e-07
1.513811e-07 5.912193e-07 -4.190408e-07 -1.949855e-07 -1.290888e-07 1.172167e-07
8.179856e-08 4.619946e-07 -3.001066e-07 -5.238707e-08 -8.034914e-08 1.180590e-07
6.595692e-08 3.266725e-07 -2.378409e-07 -6.713130e-08 -1.241441e-07 1.536715e-07
1.464352e-08 4.801765e-07 -2.905174e-07 -2.779555e-08 2.681331e-07 -5.162331e-08
2.174338e-11 5.435776e-07 -3.696355e-07 -2.275718e-07 -2.230698e-07 1.551012e-07
5.626584e-08 5.541282e-07 -3.397951e-07 -1.732205e-07 -2.014897e-07 2.018561e-07
7.134810e-07 -1.553527e-07 -3.263041e-07 4.294729e-08 2.151055e-09 2.135973e-08
1.033084e-07 4.190692e-07 -3.279691e-07 -1.625224e-07 -1.567045e-07 1.638079e-07
3.908640e-07 6.956566e-08 -1.505993e-07 -1.549588e-08 -1.649162e-09 1.214340e-08
3.842747e-07 6.661178e-08 -1.503782e-07 -2.096056e-08 -3.736614e-09 5.837933e-09
3.869486e-07 6.164960e-08 -1.417640e-07 -6.939132e-09 -7.041270e-10 2.004235e-11
7.090335e-07 -1.152404e-07 -2.975322e-07 4.972219e-08 3.780434e-09 2.205162e-08
3.938873e-07 6.261657e-08 -1.456394e-07 -8.797934e-09 -1.829590e-09 3.475206e-09
4.018783e-07 6.242915e-08 -1.448467e-07 -8.134778e-09 -2.544793e-09 -2.603462e-10
3.933217e-07 6.109832e-08 -1.434706e-07 -3.379046e-09 -2.095580e-09 1.724823e-09
3.918447e-07 7.191835e-08 -1.459461e-07 -4.470467e-09 -1.493850e-09 4.768427e-09
3.837766e-07 7.238980e-08 -1.501847e-07 -1.828488e-08 -2.679299e-09 6.329531e-09
3.918034e-07 7.265545e-08 -1.421423e-07 -4.462573e-09 -1.927151e-09 1.078644e-09
3.881171e-07 7.647997e-08 -1.415236e-07 -4.460968e-09 -3.491031e-10 7.336628e-10
3.835580e-07 7.535809e-08 -1.418762e-07 -1.904985e-09 -1.852471e-09 1.646676e-09
-3.868037e-07 1.256413e-06 -5.287159e-07 -2.216796e-08 -5.532881e-07 1.121035e-08
-5.631505e-07 1.219986e-06 -4.821536e-07 6.587327e-08 -5.152361e-07 -2.467515e-08
-3.474190e-07 5.894604e-07 -3.194657e-07 -1.981138e-07 -4.999064e-07 -2.415376e-08
-3.562164e-07 8.224575e-07 -3.288933e-07 1.447298e-08 -2.594366e-07 -3.329518e-08
-3.580468e-07 8.310695e-07 -5.438229e-07 7.004420e-09 -5.342129e-07 -6.816162e-08
-4.419464e-07 1.142958e-06 -5.431362e-07 6.064929e-08 -5.839508e-07 -3.553543e-08
4.611170e-07 7.893342e-09 -1.648510e-07 -2.405293e-08 -4.866386e-09 1.789004e-08
4.413545e-07 2.307775e-08 -1.523675e-07 -2.263044e-08 -8.672793e-09 1.092735e-08
-1.512243e-07 3.938393e-07 -3.781834e-07 7.145443e-08 -4.800227e-07 -2.357046e-07
4.617223e-07 -2.962019e-09 -1.428263e-07 -2.506692e-08 -1.134591e-08 1.375728e-08
4.721856e-07 -1.501024e-09 -1.553655e-07 -3.184517e-08 -1.012328e-08 2.543097e-08
4.431001e-07 1.758323e-08 -1.596914e-07 -3.952802e-08 -1.239735e-08 1.692584e-08
4.623914e-07 4.562862e-09 -1.642090e-07 -4.696499e-08 -2.022264e-08 2.088578e-08
5.258667e-07 -2.643628e-08 -2.117076e-07 -7.207490e-08 -1.637189e-08 1.864444e-08
4.997928e-07 -1.933129e-08 -1.860298e-07 -1.493859e-08 -5.145807e-09 -1.087764e-09
5.314901e-07 -3.597930e-08 -1.927344e-07 -2.329673e-08 -4.399742e-09 1.061791e-08
1.593642e-07 1.838573e-07 -3.634664e-07 6.150116e-08 -4.955671e-07 -1.557110e-07
4.953152e-07 -5.607107e-09 -1.925524e-07 -4.721131e-08 -9.900737e-10 2.221168e-08
4.872464e-07 -9.600196e-09 -2.057002e-07 -5.498708e-08 -3.323272e-09 9.092125e-09
4.886384e-07 -1.821716e-08 -1.780256e-07 -2.180512e-08 -5.237340e-09 2.229162e-09
8.194842e-07 1.730988e-08 -3.024010e-07 6.000324e-07 -7.979364e-07 -7.557388e-07
8.097733e-07 -2.672599e-07 -6.822432e-07 7.957572e-07 -8.010990e-07 -7.254545e-07
-1.711468e-07 -3.797236e-07 5.376453e-08 6.111154e-08 -9.665984e-07 -8.552364e-07
2.503789e-07 6.755704e-08 8.510831e-09 4.955022e-07 -1.227299e-06 -9.518499e-07
-9.738247e-08 -3.566653e-07 -1.648093e-07 -6.736054e-08 -8.516962e-07 -5.797830e-07
2.077124e-06 -1.306277e-06 -4.653089e-07 2.125254e-07 -1.549717e-07 -7.642819e-07
2.437803e-06 -8.823770e-07 -9.897097e-07 2.804452e-07 -2.974452e-07 -2.838705e-07
2.788564e-06 -9.729163e-07 -1.047142e-06 5.504426e-07 -4.080683e-07 -2.537295e-07
3.054865e-06 -1.646187e-06 -7.965420e-07 5.679780e-07 -2.677580e-07 -6.444694e-07
1.643805e-06 -7.390002e-07 -6.644395e-07 2.628185e-07 -2.847609e-07 -3.780964e-07
3.315849e-06 -1.128014e-06 -8.974194e-07 9.452065e-07 -3.917540e-07 -7.769315e-07
3.184651e-07 1.735874e-07 -7.034573e-07 -1.237968e-07 5.857099e-07 -2.453505e-07
5.943781e-07 2.206155e-07 -7.057244e-07 -2.801472e-07 5.920897e-07 -2.942015e-07
1.482644e-07 2.147210e-07 -4.988281e-07 -2.631239e-07 7.487180e-07 -4.003731e-07
5.616989e-07 2.048292e-08 -8.807098e-07 -2.066742e-07 5.992538e-07 -2.193690e-07
5.941506e-07 1.422907e-08 -5.118906e-07 -2.266875e-07 6.551818e-07 -3.299670e-07
3.874894e-07 -8.224865e-08 -5.277904e-07 -1.286555e-07 7.993629e-07 -5.251291e-07
1.327591e-07 1.391267e-08 -5.270778e-07 -2.267916e-07 8.089494e-07 -5.442010e-07
-2.529601e-07 7.310720e-07 -3.053061e-07 3.151426e-08 1.099509e-07 -3.110272e-08
-2.118285e-07 6.163145e-07 -2.404489e-07 7.895816e-08 7.800111e-08 3.204276e-08
-2.705965e-07 8.666112e-07 -3.862195e-07 1.027683e-08 1.470221e-07 2.195741e-08
-2.403973e-07 5.845727e-07 -2.767000e-07 1.168043e-07 2.615395e-07 6.247497e-09
-2.775171e-07 7.156126e-07 -4.007164e-07 4.853956e-08 2.471185e-07 2.307080e-08
-2.776374e-07 7.162867e-07 -2.959552e-07 4.811074e-08 3.490564e-07 3.580886e-08
4.294666e-07 3.626811e-08 -1.483386e-07 -8.431617e-09 2.065064e-10 -8.615941e-10
4.278561e-07 3.871893e-08 -1.475352e-07 -2.695304e-08 -2.932986e-09 1.382061e-08
4.327555e-07 3.514758e-08 -1.527636e-07 -1.957117e-08 -7.007223e-09 5.049372e-09
3.965898e-07 6.447252e-08 -1.516770e-07 -2.506037e-08 -3.992260e-09 7.812808e-09
2.574940e-06 -1.220053e-06 -9.492351e-07 1.984173e-07 -2.246415e-07 -1.722573e-07
3.269983e-06 -1.108629e-06 -1.344401e-06 -8.657226e-08 -3.110395e-07 -1.585904e-07
1.942863e-06 -8.268117e-07 -1.030235e-06 2.193401e-07 -4.475937e-07 -9.237902e-08
2.581674e-06 -1.201699e-06 -6.284176e-07 4.985338e-07 -3.262811e-07 -8.817917e-07
2.934911e-06 -8.660757e-07 -1.391944e-06 3.279595e-07 -3.389220e-07 -4.363666e-07
1.538759e-06 -8.649899e-07 -7.950894e-07 6.757217e-08 -4.982144e-07 -5.389958e-07
3.352897e-06 -9.904302e-07 -1.454776e-06 6.653544e-07 -6.410494e-08 -1.925634e-08
3.518659e-06 -1.095030e-06 -1.435622e-06 2.127177e-07 -1.044440e-07 -1.472561e-07
2.869797e-06 -5.182666e-07 -1.136061e-06 1.314846e-06 -4.913550e-07 -4.416944e-07
3.010866e-06 -1.082279e-06 -1.332828e-06 5.779030e-07 -4.315211e-07 -9.869787e-08
3.361453e-07 1.260175e-07 -1.400442e-07 1.476063e-08 3.503867e-09 2.409057e-09
8.584614e-07 -1.553527e-07 -3.263041e-07 5.505045e-08 -2.066497e-10 7.238579e-09
2.260913e-06 -5.406437e-07 -1.409832e-06 3.337069e-07 -2.930666e-07 -1.274433e-07
3.048655e-06 -1.021079e-06 -1.372733e-06 1.685789e-07 -2.831662e-07 -2.366383e-08
2.581957e-06 -8.156753e-07 -1.203869e-06 1.208503e-07 -4.368913e-07 1.950948e-08
1.190869e-06 1.065517e-06 1.449591e-06 -4.099808e-06 2.928582e-07 -1.682889e-07
2.177947e-06 -6.402449e-07 -9.817745e-07 4.166652e-07 -4.471142e-07 -2.179994e-07
3.211703e-07 1.550081e-07 -2.058752e-07 -5.440747e-08 -3.106898e-08 4.518125e-08
3.212285e-07 1.557220e-07 -1.860973e-07 -5.472700e-08 -2.667465e-08 4.242900e-08
3.201737e-07 1.326053e-07 -1.825884e-07 -6.363324e-08 -1.555905e-08 5.129858e-08
3.091837e-07 1.401122e-07 -2.032965e-07 -3.708572e-08 -1.590988e-08 3.967185e-08
3.518810e-07 1.142366e-07 -1.621955e-07 -4.920150e-08 -1.931513e-08 3.409767e-08
3.463250e-07 1.074636e-07 -1.551906e-07 -3.464367e-08 -1.503642e-08 2.163117e-08
3.755374e-07 1.098355e-07 -1.769497e-07 -4.662922e-08 -1.872030e-08 2.046265e-08
3.509496e-07 1.146144e-07 -1.493851e-07 -2.630726e-08 -4.319198e-09 1.319066e-08
3.043920e-07 1.547728e-07 -1.411589e-07 6.714981e-09 1.404036e-09 -5.131378e-10
3.008720e-07 1.686530e-07 -1.424002e-07 2.104873e-08 6.522440e-09 4.080774e-09
3.122424e-07 1.494728e-07 -1.440358e-07 9.400452e-09 -2.254134e-09 6.681968e-10
3.073770e-07 1.475222e-07 -1.462970e-07 2.247747e-08 6.218771e-09 -5.953442e-10
3.067893e-07 1.536226e-07 -1.458141e-07 1.353642e-08 4.489846e-09 1.626145e-09
-3.012001e-07 9.288671e-07 -4.318108e-07 -4.779409e-08 4.017569e-07 -9.067211e-08
-2.579932e-07 8.257277e-07 -4.075984e-07 -6.177277e-08 3.099244e-07 -9.632842e-08
-2.306959e-07 7.341967e-07 -2.302800e-07 -1.816833e-08 1.715712e-07 -5.457911e-08
-2.971502e-07 8.597204e-07 -4.335192e-07 -1.616156e-07 3.390094e-07 -9.113981e-08
-2.847856e-07 8.266659e-07 -4.399245e-07 -1.436121e-07 3.600112e-07 -9.017577e-08
-2.260556e-07 4.551360e-07 -2.404080e-07 -3.977767e-09 3.290992e-07 -8.281687e-08
3.151070e-07 1.430350e-07 -1.653312e-07 -4.095740e-08 -2.697044e-08 2.921184e-08
2.949009e-07 1.569840e-07 -1.746903e-07 -1.983203e-08 -1.448091e-08 4.107143e-08
2.616099e-07 2.254492e-07 -2.224145e-07 -3.069363e-08 -1.630163e-08 5.819680e-08
2.596205e-07 1.737719e-07 -1.674132e-07 -7.791187e-09 -1.188777e-08 3.670052e-08
2.789319e-07 2.013261e-07 -2.147545e-07 -8.437227e-08 -6.053054e-08 6.820935e-08
1.087735e-06 4.147794e-07 2.001552e-07 -2.696220e-06 -9.074718e-08 1.853313e-07
2.894763e-07 1.765141e-07 -1.915777e-07 -1.466656e-08 -7.237235e-09 3.989147e-08
2.144455e-07 2.359251e-07 -1.909387e-07 -1.093064e-07 -1.008547e-07 1.098142e-07
4.787939e-07 -4.175108e-09 -1.516389e-07 -1.150900e-08 -5.442455e-09 4.166354e-09
4.569058e-07 2.359201e-08 -1.605291e-07 -1.514913e-08 -6.848210e-09 4.609371e-09
4.584534e-07 1.703325e-08 -1.577478e-07 -2.789246e-08 -1.512404e-08 1.102339e-08
4.713109e-07 1.459662e-09 -1.683467e-07 -3.707132e-08 -1.431632e-08 1.900912e-08
4.818684e-07 -2.026321e-08 -1.616235e-07 -1.283829e-08 -2.132981e-09 1.312545e-08
4.746280e-07 -4.721205e-09 -1.653219e-07 -1.599654e-08 -1.544779e-08 5.261486e-09
4.584769e-07 1.938958e-08 -1.425435e-07 -2.721473e-08 -8.809391e-09 1.338224e-08
4.830066e-07 -2.159944e-08 -1.560703e-07 -1.553824e-08 -3.079421e-09 4.807122e-09
4.829683e-07 -1.678860e-09 -1.554585e-07 -1.516367e-08 -7.718869e-09 4.865774e-09
4.287439e-08 6.682074e-07 -6.017429e-07 6.559946e-08 -4.290350e-08 -2.974033e-08
-5.246949e-07 1.816633e-06 2.300038e-06 -3.521082e-06 7.179375e-07 -7.862309e-08
7.005155e-09 6.831350e-07 -5.262180e-07 -9.190258e-10 -9.431027e-08 -4.805237e-08
1.959744e-08 6.124037e-07 -4.338755e-07 4.550651e-08 -4.892977e-08 -8.988094e-08
6.528087e-08 6.810859e-07 -5.704937e-07 3.715554e-08 -2.835236e-08 -5.692212e-09
1.039351e-06 9.946066e-07 1.306180e-06 -3.657321e-06 7.496485e-08 1.240819e-07
2.810480e-07 -1.106439e-07 -4.357483e-07 -2.704328e-07 -6.520131e-07 -1.673865e-07
1.009266e-07 6.680429e-07 -6.209297e-07 2.593789e-08 -6.371291e-08 -1.287558e-08
9.213154e-08 5.677430e-07 -5.236566e-07 4.901150e-08 -1.635981e-07 -2.248325e-08
8.638967e-08 6.273524e-07 -5.313425e-07 6.378970e-08 -1.522650e-07 -2.929424e-08
-2.853224e-07 1.166219e-06 -7.190454e-07 -2.304630e-07 1.322669e-07 -6.626248e-08
-2.438470e-07 1.054812e-06 -5.915266e-07 -1.297152e-07 1.449882e-07 -5.591465e-08
-2.460073e-07 9.535901e-07 -5.219170e-07 -1.030017e-07 1.211583e-07 -3.044771e-08
-3.044003e-07 1.280690e-06 -6.265793e-07 -1.817521e-07 1.753484e-07 -6.176720e-08
-2.965216e-07 1.158307e-06 -6.323295e-07 -1.005652e-07 3.612899e-08 -5.134009e-08
-2.329625e-07 1.043187e-06 -5.869607e-07 -1.322524e-07 3.470088e-08 -5.953101e-08
-3.371658e-07 1.253984e-06 -6.823917e-07 -1.909120e-07 5.285922e-08 -5.253210e-08
-2.439850e-07 1.053820e-06 -5.437751e-07 -1.290190e-07 5.690107e-08 -4.661682e-08
3.228678e-07 1.322725e-07 -1.389432e-07 8.537163e-09 -2.331004e-11 -3.569141e-10
3.275516e-07 1.305658e-07 -1.377269e-07 1.718763e-09 1.211456e-09 3.306291e-10
3.370767e-07 1.348602e-07 -1.404944e-07 8.142822e-09 1.932114e-09 1.572885e-09
3.422136e-07 1.230940e-07 -1.392715e-07 1.393943e-08 1.143809e-09 -1.241515e-10
3.393670e-07 1.201551e-07 -1.389645e-07 1.105269e-08 2.217852e-09 3.027988e-09
-8.943899e-06 3.852227e-06 1.515764e-05 -1.475880e-06 -2.477090e-06 2.924490e-07
3.249018e-07 1.267568e-07 -1.364656e-07 5.650796e-09 -6.209100e-10 4.844634e-10
3.362077e-07 1.172140e-07 -1.394877e-07 8.001287e-09 8.573223e-10 1.642698e-09
-3.303785e-07 1.081302e-06 -5.597015e-07 1.099684e-07 -3.200933e-07 -1.116747e-07
-3.292522e-07 3.934004e-07 -3.944448e-07 -7.924674e-08 -4.739620e-07 -2.005029e-07
-2.896991e-07 8.427610e-07 -5.325658e-07 4.862964e-08 -2.263129e-07 -1.449317e-07
-2.470953e-07 7.082617e-07 -3.216177e-07 2.478778e-08 -2.291235e-07 -1.517399e-07
-2.829360e-07 7.691702e-07 -4.414905e-07 2.824506e-08 -4.820430e-07 -1.576902e-07
-3.335585e-07 7.710301e-07 -4.532092e-07 5.881960e-08 -4.884043e-07 -1.261744e-07
2.115749e-07 5.757107e-08 -4.137099e-07 -1.746601e-07 -5.972966e-07 -1.151047e-07
1.290259e-07 3.049804e-07 -2.113748e-07 -1.190741e-07 -1.368255e-07 1.514934e-07
1.288263e-07 2.646235e-07 -1.937412e-07 -8.739842e-08 -1.343076e-07 1.285706e-07
2.375847e-07 3.276694e-07 -3.330043e-07 -1.933663e-07 -1.452938e-07 1.421848e-07
2.123113e-07 4.050895e-07 -3.445919e-07 -6.675199e-08 -5.099266e-08 8.757463e-08
-8.514657e-08 1.213209e-07 -3.624170e-07 3.344574e-08 -7.143631e-07 -4.059301e-07
1.349172e-07 3.249159e-07 -2.388994e-07 -7.994495e-08 -1.266570e-07 1.150431e-07
2.036940e-07 4.264867e-07 -3.773176e-07 -1.855676e-07 -9.183480e-08 9.613427e-08
3.273871e-07 1.211376e-07 -1.428720e-07 2.820510e-08 2.437835e-09 2.772818e-09
3.303854e-07 1.278812e-07 -1.498306e-07 3.270469e-08 4.962736e-09 4.635739e-09
3.390456e-07 1.211412e-07 -1.434420e-07 2.850934e-08 2.426849e-09 4.736526e-09
3.437598e-07 1.197206e-07 -1.499329e-07 3.903303e-08 4.280743e-09 7.306214e-09
3.402649e-07 1.306097e-07 -1.499329e-07 4.118145e-08 8.968241e-09 5.418995e-09
3.572642e-07 1.069413e-07 -1.495347e-07 3.348824e-08 8.198402e-09 5.430661e-09
3.537542e-07 1.106183e-07 -1.461202e-07 3.179536e-08 2.681404e-09 3.187636e-09
-6.421176e-06 4.316600e-06 1.148396e-05 -9.717483e-07 -2.667318e-06 -2.242719e-07
3.804559e-07 9.320775e-08 -1.496260e-07 3.911757e-08 1.064858e-08 7.711820e-09
5.791398e-07 1.074749e-06 -9.032580e-07 -1.436811e-06 -1.338957e-07 6.288147e-08
3.253150e-07 1.547878e-07 -1.751388e-07 -5.403835e-08 -3.432440e-08 3.125702e-08
3.586501e-07 1.131785e-07 -1.704945e-07 -2.951511e-08 -3.916910e-09 9.628734e-09
3.546029e-07 1.105269e-07 -1.517312e-07 -2.219042e-08 -9.944763e-09 1.441388e-08
3.251495e-07 1.422961e-07 -1.772747e-07 -1.337973e-08 -9.111119e-09 2.389990e-08
3.346406e-07 1.269520e-07 -1.604516e-07 -1.680450e-08 -5.281545e-09 2.188109e-08
3.354382e-07 1.300048e-07 -1.518280e-07 -9.172185e-09 -4.016811e-09 1.082494e-08
-1.196192e-07 5.793000e-07 -2.003386e-07 -3.608910e-08 9.166659e-08 -7.844667e-08
-7.408935e-08 8.205248e-07 -4.166387e-07 -1.664604e-07 1.053809e-07 -6.018052e-08
-1.246500e-07 8.212867e-07 -4.170745e-07 -1.359469e-07 1.055946e-07 -7.673864e-08
-9.200493e-08 5.963070e-07 -3.481543e-07 -6.941303e-08 1.581717e-07 -6.094290e-08
-1.679446e-07 6.658512e-07 -3.057971e-07 -2.551022e-09 2.581584e-08 -6.714233e-08
5.734472e-07 -1.093929e-07 -1.705577e-07 2.151679e-09 1.510670e-09 1.771548e-08
-8.007177e-08 6.596429e-07 -3.995434e-07 -6.702279e-08 6.722184e-08 -2.389536e-08
-7.534655e-08 6.642251e-07 -4.278897e-07 -7.761977e-08 2.595810e-08 -1.741343e-08
5.938930e-07 -8.764748e-08 -2.121067e-07 -8.086400e-09 1.727622e-09 -4.720300e-16
-7.286653e-08 6.864962e-07 -3.903409e-07 -9.964013e-08 9.680195e-08 -3.229540e-08
-7.900031e-08 6.713703e-07 -4.606431e-07 -1.242484e-07 1.947041e-07 -9.362999e-08
-1.473604e-07 7.039625e-07 -2.974466e-07 -7.496084e-08 1.928536e-07 -1.002850e-07
5.556483e-07 5.921587e-07 -9.686857e-07 -4.419001e-07 2.536597e-07 -1.064153e-07
2.940087e-07 5.323951e-07 -8.365808e-07 -2.777022e-07 3.233221e-07 -1.165951e-07
4.709356e-07 7.482844e-07 -9.682725e-07 -4.864807e-07 2.949813e-07 -8.619221e-08
4.080494e-07 5.613157e-07 -8.233380e-07 -1.710315e-07 3.431205e-07 -5.288918e-08
4.801014e-07 6.458945e-07 -8.637805e-07 -1.349282e-07 9.706930e-08 7.401055e-09
6.806212e-07 5.669422e-07 -8.827004e-07 -2.625944e-07 2.653242e-07 -8.263013e-08
-2.065639e-06 3.914947e-06 1.808718e-07 -7.119660e-07 -2.172033e-07 -1.488942e-08
-1.424317e-06 3.928536e-06 -3.450254e-07 -2.588642e-07 2.179329e-08 7.369370e-08
-2.075854e-06 4.281629e-06 5.466028e-08 -7.970435e-07 -4.531318e-07 1.889153e-07
-2.062491e-06 3.644550e-06 -5.207690e-07 -6.714434e-07 -8.135066e-07 -7.310176e-10
3.885690e-07 9.308400e-08 -1.948180e-07 -6.810333e-08 6.766809e-09 1.773587e-08
4.174231e-07 1.032682e-07 -2.295317e-07 -1.171031e-07 -1.025671e-08 1.678809e-08
3.851862e-07 1.363389e-07 -2.428082e-07 -1.154284e-07 -3.286203e-08 1.485173e-08
3.602321e-07 1.301194e-07 -2.087161e-07 -7.903578e-08 -1.024938e-08 1.219993e-08
3.847399e-07 1.150793e-07 -2.699942e-07 -1.186382e-07 -8.584234e-09 1.866105e-08
4.449715e-07 6.650628e-08 -2.354348e-07 -1.169775e-07 -2.125746e-08 1.146929e-08
4.559608e-07 6.210570e-08 -2.060485e-07 -9.309812e-08 -8.684077e-09 1.864431e-08
4.606738e-07 7.265634e-08 -2.620369e-07 -1.297934e-07 -2.068102e-08 2.739523e-08
4.598334e-07 3.359516e-08 -2.148667e-07 -9.398096e-08 -2.463038e-08 1.877728e-08
-3.327509e-07 1.049931e-06 -4.741683e-07 -2.167034e-07 -4.744750e-07 1.744916e-07
-1.799880e-07 1.044606e-06 -5.019479e-07 -1.754566e-07 -3.219899e-07 1.565012e-07
-2.646717e-07 1.190262e-06 -6.756289e-07 -3.250084e-07 -6.956561e-07 2.528327e-07
-2.408316e-07 1.529273e-06 -7.256728e-07 -4.056888e-07 -4.827484e-07 1.527217e-07
-1.743396e-07 1.210070e-06 -7.010070e-07 -4.830639e-07 -6.445521e-07 2.088658e-07
-1.561014e-07 7.548145e-07 -5.405744e-07 -2.587609e-07 -3.804298e-07 1.332591e-07
-1.621559e-07 8.374733e-07 -5.012731e-07 -2.396618e-07 -3.219244e-07 1.514752e-07
-3.651406e-07 1.581449e-06 -9.299318e-07 7.085740e-07 -4.005655e-07 -1.860871e-07
-3.135018e-07 1.961236e-06 -8.672072e-07 9.697072e-07 -4.438637e-07 -2.524298e-07
-1.017550e-07 1.393657e-06 -1.021181e-06 7.038224e-07 -6.939942e-08 -1.173608e-07
-1.009753e-07 1.621565e-06 -8.676079e-07 6.771787e-07 -2.603588e-07 -9.116210e-08
5.907372e-08 1.793272e-06 -1.010376e-06 1.139597e-06 -3.710332e-07 -1.754677e-07
1.221448e-06 -3.009482e-07 -5.906417e-07 6.608985e-09 -6.017497e-10 8.215475e-08
1.688017e-06 -4.395231e-07 -7.308243e-07 7.800394e-08 -1.056727e-08 1.426528e-07
1.319726e-06 -3.887185e-07 -6.916331e-07 1.319678e-08 3.548700e-08 2.628189e-07
3.514073e-07 1.560186e-07 -2.604349e-07 -1.138712e-07 -1.241606e-08 2.072575e-08
3.219090e-07 1.592934e-07 -2.249763e-07 -3.588135e-08 -2.159250e-09 3.519401e-08
3.521467e-07 1.576333e-07 -2.297677e-07 -1.152569e-07 -1.946551e-08 2.655301e-08
3.126491e-07 1.980626e-07 -2.450929e-07 -3.511145e-08 -6.277016e-09 9.658604e-09
3.094271e-07 2.133595e-07 -2.320042e-07 -4.930907e-08 -9.396518e-09 2.129568e-08
3.211271e-07 2.313974e-07 -2.879686e-07 -1.114438e-07 -1.530267e-08 1.766173e-08
3.356102e-07 1.433324e-07 -1.609077e-07 5.538264e-08 -3.223268e-09 -4.539244e-10
3.137368e-07 1.454484e-07 -1.557573e-07 4.167349e-08 1.844133e-11 3.577965e-09
3.253811e-07 1.517713e-07 -1.845402e-07 5.577833e-08 2.057711e-09 6.871748e-09
3.195891e-07 1.575182e-07 -2.051666e-07 9.926171e-08 3.481904e-09 2.695860e-08
3.258370e-07 1.652185e-07 -2.019758e-07 9.530103e-08 1.717227e-08 -8.294275e-09
3.093387e-07 1.890781e-07 -1.858347e-07 8.212841e-08 9.009931e-09 9.919897e-09
3.090850e-07 1.823766e-07 -2.026137e-07 9.003459e-08 2.202624e-08 3.347267e-09
3.382283e-07 1.501564e-07 -1.802981e-07 6.795773e-08 9.055749e-09 7.185906e-09
-8.302855e-07 2.859527e-06 1.710939e-07 -2.118300e-06 4.940654e-07 -2.126863e-07
-1.994877e-06 4.105179e-06 5.941226e-07 -1.623282e-06 6.969975e-07 -8.921484e-08
-1.952317e-06 3.729154e-06 1.508869e-06 -2.650938e-06 6.018278e-07 2.684535e-07
9.138577e-07 4.877559e-07 -7.794874e-07 7.559370e-07 -6.392468e-07 -3.750102e-07
3.021521e-06 -5.614097e-07 -1.213488e-06 5.794499e-07 -3.057695e-07 -1.504005e-07
2.173056e-06 -3.771765e-07 -1.196798e-06 8.507511e-07 -2.625219e-07 -2.491862e-07
-5.175695e-06 4.659399e-06 7.079864e-06 -2.055424e-06 2.755162e-07 -1.525675e-07
2.206512e-06 -4.063404e-07 -9.754950e-07 2.671120e-07 -5.794115e-07 -2.424071e-07
1.249507e-06 -4.199058e-07 -8.749988e-07 1.386532e-07 -5.130930e-07 5.365222e-08
2.232339e-06 -2.863403e-07 -1.229984e-06 3.318823e-07 -4.467807e-07 -1.346643e-07
2.655102e-06 -6.567294e-07 -1.365534e-06 3.533002e-07 -4.337911e-07 -3.959554e-07
-6.631402e-08 1.158976e-06 -8.034292e-07 -5.401741e-07 -6.743625e-08 1.185223e-07
-1.296262e-07 1.020725e-06 -7.642363e-07 -5.790906e-07 -2.198449e-07 1.279726e-07
1.529976e-09 1.249526e-06 -8.002655e-07 8.428148e-07 3.696553e-07 1.506810e-07
-8.750775e-08 1.329643e-06 -7.707359e-07 7.581853e-07 2.883561e-07 1.393404e-07
1.462304e-07 1.135919e-06 -7.719680e-07 7.980746e-07 1.751471e-07 7.598804e-08
3.194878e-08 7.427164e-07 -6.652218e-07 -3.747422e-07 -2.444429e-07 1.193541e-07
-3.471328e-08 1.059029e-06 -7.243183e-07 -3.922901e-07 -8.088516e-08 2.334308e-08
-5.834341e-08 8.110874e-07 -6.478994e-07 -2.434560e-07 -1.384966e-07 8.824771e-08
-5.102026e-08 5.830911e-08 -3.618078e-07 9.499681e-09 -6.205019e-07 -2.133767e-07
-1.242766e-08 8.820672e-07 -6.890963e-07 -2.259178e-07 -6.338856e-08 4.497824e-08
2.142028e-06 -7.258291e-06 1.508821e-05 4.165698e-06 7.769127e-07 -8.581384e-07
2.484150e-06 -1.058767e-05 2.055021e-05 3.998689e-06 2.699272e-06 4.798971e-06
9.918558e-07 -7.319801e-06 2.153639e-05 5.249977e-06 5.816040e-07 3.505989e-06
3.267338e-06 -7.292710e-06 1.632201e-05 4.594400e-06 1.074654e-06 5.459733e-06
1.114203e-06 -1.135527e-07 -6.698572e-07 -5.302592e-07 -4.849228e-08 2.121472e-07
1.153529e-06 3.864077e-08 -7.205247e-07 -7.283183e-07 -1.280654e-07 2.544474e-07
9.186487e-07 -1.733153e-08 -5.669174e-07 -4.577873e-07 -1.215852e-07 1.888043e-07
1.556787e-06 -2.643638e-07 -7.878679e-07 6.015791e-07 1.652824e-07 3.333353e-07
-7.588425e-06 3.797322e-06 1.552921e-05 -2.793424e-06 -1.494972e-06 -4.606321e-07
1.249146e-06 -1.066202e-07 -7.803367e-07 6.534215e-07 3.807440e-08 1.533207e-07
1.435217e-06 -1.937491e-07 -7.566784e-07 7.528172e-07 1.339135e-07 2.904036e-07
7.491961e-07 -1.345087e-07 -3.690813e-07 1.188926e-07 2.153751e-09 8.593261e-08
6.789158e-07 -1.171698e-07 -3.154404e-07 7.831638e-08 8.015221e-09 4.563496e-08
7.789008e-07 -1.350166e-07 -3.821473e-07 1.169942e-07 2.049245e-08 3.889054e-08
-5.440175e-08 1.146583e-06 -7.817315e-07 -4.789157e-07 1.447342e-07 -1.358879e-07
-2.591716e-07 1.308080e-06 -7.575876e-07 -4.381748e-07 2.443743e-07 -7.391726e-08
-8.112876e-08 1.015507e-06 -7.237933e-07 -4.298145e-07 2.223687e-07 -5.352465e-08
-2.544489e-07 1.233459e-06 -7.261341e-07 -4.107203e-07 1.417338e-07 -1.090867e-08
-9.839375e-08 1.205746e-06 -7.079817e-07 -4.062007e-07 1.428232e-07 -6.449859e-08
9.667147e-07 -1.971398e-07 -4.571180e-07 -1.747395e-09 1.469329e-09 1.500064e-07
9.350076e-07 -2.331856e-07 -4.441621e-07 -4.258571e-08 -1.411799e-08 1.154117e-07
8.570516e-07 -1.763427e-07 -4.069570e-07 -5.581916e-08 -1.222988e-08 4.773124e-08
7.450723e-07 -1.367792e-07 -3.222701e-07 -3.868237e-08 -5.464868e-09 7.350807e-08
7.925752e-07 -1.759702e-07 -3.865934e-07 -5.113877e-08 -4.443369e-09 1.037226e-07
9.011793e-07 -1.769892e-07 -4.448169e-07 -6.635554e-08 -1.900172e-08 1.105958e-07
4.437777e-07 4.319510e-08 -1.738954e-07 -5.490438e-08 2.124966e-09 1.295092e-08
5.738189e-07 -1.243377e-08 -2.923925e-07 -1.415235e-07 -9.144020e-09 6.010371e-08
5.095869e-07 5.377910e-08 -2.834742e-07 -1.575258e-07 6.578343e-09 2.359651e-08
5.575184e-07 1.436758e-07 -7.288975e-07 7.684918e-08 -5.529167e-07 2.921510e-08
5.241429e-07 -6.146688e-09 -2.094011e-07 -7.862715e-08 -1.891992e-09 2.245607e-08
5.279222e-07 -5.158011e-09 -2.230191e-07 -9.291438e-08 -4.194310e-09 4.113765e-08
4.633381e-07 3.359516e-08 -1.929849e-07 -8.452396e-08 -1.464817e-08 3.099222e-08
-7.595505e-08 6.008360e-07 -3.798111e-07 -5.043991e-08 7.665228e-08 -3.984973e-08
-8.891080e-09 6.285620e-07 -4.281586e-07 -3.994332e-08 3.099460e-08 -7.447842e-09
-5.085499e-08 6.269134e-07 -3.726053e-07 -2.223086e-08 8.191105e-09 -6.637653e-09
-2.959780e-08 6.166129e-07 -3.884741e-07 -2.366862e-08 1.978078e-08 -7.348122e-10
-5.154713e-08 6.453918e-07 -4.010446e-07 -4.128247e-08 3.128594e-08 -1.729223e-08
-3.862112e-07 1.168414e-06 -5.562989e-07 -7.053683e-08 -3.453383e-07 4.643243e-08
-2.753018e-07 8.509750e-07 -3.140495e-07 -3.953939e-08 -2.701975e-07 6.730402e-08
-3.402823e-07 1.133086e-06 -5.612684e-07 -2.807178e-09 -1.907606e-07 2.451361e-08
-3.029413e-07 8.475724e-07 -3.251597e-07 -5.419192e-08 -2.618009e-07 8.500247e-08
-3.047871e-07 7.962892e-07 -4.842222e-07 -1.763164e-08 -5.283308e-08 6.461574e-08
-3.212416e-07 1.097070e-06 -5.508277e-07 -2.493594e-08 -1.766598e-07 6.821910e-08
2.776225e-07 1.733297e-07 -1.615335e-07 3.033725e-08 6.223384e-09 1.133328e-08
2.857302e-07 1.695125e-07 -1.462191e-07 2.468008e-08 5.709546e-09 1.247228e-08
2.996826e-07 1.512061e-07 -1.635657e-07 6.538768e-08 1.597080e-08 1.238106e-08
3.128795e-07 1.652184e-07 -1.600602e-07 6.222849e-08 1.953851e-08 1.637718e-08
1.771073e-08 1.451354e-06 -8.416297e-07 1.487105e-06 3.050562e-07 1.906882e-07
9.677721e-08 1.530669e-06 -9.019647e-07 1.246965e-06 2.774959e-07 1.556135e-07
-6.840203e-09 1.676727e-06 -8.422651e-07 1.318588e-06 4.678410e-07 2.023777e-07
-2.606017e-07 1.389032e-06 -8.723290e-07 8.320388e-07 2.797907e-07 9.776645e-08
1.441533e-06 -1.906768e-07 -7.716204e-07 8.033154e-07 9.547748e-08 2.976985e-07
1.219783e-06 -5.669251e-08 -7.193005e-07 6.993426e-07 1.928549e-07 3.131096e-07
1.221197e-06 8.875067e-08 -8.606874e-07 9.363441e-07 1.475113e-07 2.279783e-07
1.665911e-06 -1.906561e-07 -8.474409e-07 8.633182e-07 1.113505e-07 2.070368e-07
1.620851e-06 -1.080468e-07 -8.632035e-07 1.082315e-06 -1.567612e-08 9.678713e-08
-1.007708e-05 1.389021e-06 2.306859e-05 2.962127e-06 1.044326e-06 2.635596e-06
-6.580732e-06 3.373564e-06 1.194657e-05 2.980280e-06 2.056199e-06 5.575179e-07
-5.444176e-06 1.668728e-07 1.726900e-05 5.648102e-06 1.774343e-06 1.194105e-06
-5.055121e-06 1.645641e-06 1.323978e-05 4.883599e-06 -2.392392e-07 2.030504e-06
-8.587411e-06 3.383575e-06 1.623316e-05 2.580796e-06 1.611178e-06 1.638899e-06
4.717109e-07 8.838876e-08 -3.449858e-07 2.249268e-07 2.849855e-08 3.720144e-08
-3.261329e-06 -1.296075e-05 4.385911e-05 -3.009699e-06 -3.296867e-06 6.707071e-06
5.430251e-07 5.299537e-08 -2.929762e-07 2.093217e-07 1.300594e-08 4.154063e-08
5.568598e-07 5.423597e-08 -3.429650e-07 2.329030e-07 1.546385e-08 7.745707e-08
5.523283e-07 1.293655e-07 -3.426085e-07 2.856987e-07 3.699908e-08 6.009241e-08
-2.406462e-06 -4.952289e-06 2.330039e-05 6.672275e-06 3.016255e-06 8.307413e-06
-7.527271e-07 -1.053550e-05 2.817194e-05 4.113106e-06 2.552976e-06 1.145308e-05
-3.567657e-06 -5.173191e-06 2.150526e-05 5.870713e-06 2.306268e-06 -5.428255e-07
-3.018094e-06 -1.060546e-05 2.826752e-05 3.667448e-06 2.257663e-06 9.958118e-08
4.163044e-07 8.670036e-08 -1.948260e-07 1.134351e-07 9.227796e-09 2.447763e-08
4.615303e-07 9.725745e-08 -2.578780e-07 1.785953e-07 2.119885e-08 3.212926e-08
4.232678e-07 9.393761e-08 -2.589943e-07 1.423904e-07 1.919196e-08 1.612077e-08
4.100863e-07 8.910247e-08 -2.248409e-07 1.243479e-07 1.951099e-08 6.922584e-09
2.402290e-07 7.307900e-07 -7.922285e-07 -3.254134e-07 2.961762e-07 -4.691719e-08
4.101963e-07 7.040516e-07 -7.031722e-07 -4.429622e-07 4.639662e-07 -2.850018e-07
4.981237e-07 -4.034429e-08 -1.665492e-07 -4.038863e-09 -3.772189e-09 6.426543e-09
3.588864e-07 7.527251e-07 -9.348253e-07 -5.842452e-07 3.169812e-07 -1.569380e-07
2.646337e-07 7.300628e-07 -6.732288e-07 -3.221293e-07 2.809756e-07 -1.091738e-07
-1.507238e-07 1.931453e-06 -1.027891e-06 1.048236e-06 -1.617948e-07 -1.323976e-08
-5.912957e-07 2.346463e-06 -6.927008e-07 1.197356e-06 -3.042864e-07 -9.063046e-08
-3.214176e-07 1.942412e-06 -9.609396e-07 9.920831e-07 -4.859733e-07 -2.053296e-07
-5.703420e-07 2.222696e-06 -9.013557e-07 1.087258e-06 -4.963494e-07 -1.583906e-07
2.133441e-06 -8.000523e-07 -8.267942e-07 2.078961e-08 -3.705569e-08 4.326597e-07
2.801220e-06 -1.037456e-06 -8.223633e-07 3.363956e-07 7.163938e-09 1.492397e-07
1.997517e-06 -6.555276e-07 -8.232916e-07 3.735619e-07 6.950080e-08 3.469706e-07
2.085563e-06 -7.817816e-07 -8.685337e-07 6.782547e-07 9.391901e-08 3.914718e-07
2.794478e-06 -9.284702e-07 -8.974622e-07 3.816897e-07 8.265548e-08 5.483893e-07
2.106290e-06 -5.674108e-07 -8.679211e-07 2.663441e-07 4.590632e-08 4.089192e-07
1.759627e-06 -4.146210e-07 -8.536879e-07 4.457651e-07 2.110608e-08 2.381798e-07
2.025695e-06 -7.817816e-07 -7.819274e-07 5.725810e-07 -4.490527e-08 3.851095e-07
1.308714e-07 1.809596e-06 1.795737e-07 3.109270e-06 2.309668e-07 2.976385e-08
3.788479e-07 1.848603e-06 -6.714310e-07 2.377426e-06 2.391732e-07 2.806079e-07
-6.369631e-07 3.253518e-06 3.002029e-07 3.115452e-06 3.363495e-07 2.447472e-07
-7.925846e-07 2.776742e-06 4.551450e-07 2.675259e-06 2.799182e-07 -8.684738e-09
-8.483009e-07 2.690580e-06 -1.769942e-07 2.516863e-06 7.491619e-07 1.809691e-07
-8.511585e-07 2.712136e-06 1.582157e-08 2.514221e-06 -8.897671e-08 -3.735590e-08
-7.219918e-07 3.036853e-06 3.318815e-07 2.869678e-06 2.322079e-07 2.936479e-07
3.335897e-07 1.734707e-07 -2.715348e-07 1.569884e-07 2.240875e-08 1.930974e-08
3.656758e-07 2.092433e-07 -2.791797e-07 2.032778e-07 2.539709e-08 8.359012e-09
4.546181e-07 1.615410e-07 -2.980508e-07 2.250036e-07 3.331927e-08 4.628774e-08
4.313301e-07 1.525670e-07 -3.250893e-07 2.488842e-07 1.719986e-08 8.040056e-08
4.376818e-07 4.535617e-08 -1.610943e-07 -4.209598e-08 -9.827766e-09 1.429900e-08
3.964616e-07 1.946082e-07 -3.138329e-07 2.348169e-07 5.929356e-08 2.917595e-08
1.524957e-06 -2.426277e-07 -9.505689e-07 -1.300927e-07 6.574024e-07 -2.377797e-07
1.454358e-06 -2.196495e-07 -9.586583e-07 -2.088878e-07 6.646285e-07 -3.219835e-07
8.076208e-07 -2.260005e-07 -5.114302e-07 -1.809453e-07 6.571415e-07 -3.412290e-07
9.206662e-07 -2.306213e-07 -8.702597e-07 -2.872712e-07 6.512235e-07 -3.652710e-07
4.127324e-06 -2.557963e-06 2.833191e-06 -2.962308e-06 -2.061491e-07 1.733714e-07
3.395258e-06 -2.740612e-06 5.225477e-06 -3.493202e-06 -1.181969e-07 1.834215e-06
4.130916e-06 -2.555721e-06 2.334066e-06 -2.965757e-06 -3.500915e-07 5.239918e-07
5.019974e-06 -4.748457e-06 5.981101e-06 -2.643532e-06 8.608920e-07 -1.578452e-07
3.915479e-06 -2.891845e-06 5.158477e-06 -3.782857e-06 -1.425546e-07 -1.258122e-06
1.006291e-06 -1.904346e-07 -4.660775e-07 3.458700e-08 -5.370601e-09 6.616680e-08
1.367169e-06 -3.009482e-07 -6.809097e-07 2.831974e-08 2.511490e-08 1.303554e-07
1.047831e-06 -2.357861e-07 -5.126798e-07 4.613706e-09 4.737275e-08 7.095624e-08
1.113136e-06 -2.491753e-07 -5.209649e-07 -4.788528e-08 -3.153245e-08 9.265558e-08
1.005411e-06 -2.392436e-07 -4.921923e-07 4.623112e-08 -3.382890e-08 1.489845e-07
9.960485e-07 -2.501541e-07 -4.808095e-07 -6.000446e-08 1.082495e-08 1.421964e-07
-7.661551e-07 2.295032e-06 -9.347070e-07 -1.047501e-06 -3.780740e-08 6.721826e-08
-7.713340e-07 2.304172e-06 -9.616028e-07 -1.030928e-06 -5.795748e-07 1.489516e-07
-5.330008e-07 2.113014e-06 -9.227952e-07 -1.204200e-06 -8.289158e-08 1.112985e-07
-7.475308e-07 2.690514e-06 -8.537611e-07 -1.187207e-06 -2.615441e-07 1.836991e-07
2.705841e-07 4.416708e-07 -6.508512e-07 1.482293e-07 -4.256199e-07 -1.458163e-07
7.703378e-07 6.765449e-07 -1.057732e-06 3.552154e-07 -1.699387e-07 -6.452395e-09
5.167545e-07 5.168081e-07 -8.362451e-07 8.634768e-08 -3.697477e-07 -2.575198e-08
7.051555e-07 6.916086e-07 -9.909500e-07 2.319155e-07 -1.939920e-07 -6.818795e-08
3.623065e-07 7.563037e-07 -9.481042e-07 3.847421e-07 -1.907903e-07 -1.043670e-07
2.747674e-07 6.370551e-07 -6.905622e-07 5.144919e-08 -2.218141e-07 -5.313168e-08
5.292843e-07 -8.257886e-08 -1.695320e-07 -3.667188e-08 -1.375295e-08 4.534711e-08
4.506692e-07 6.135214e-07 -9.258946e-07 4.166993e-08 -1.472441e-07 -2.890636e-08
5.809253e-07 -1.103565e-07 -1.820168e-07 -3.687695e-11 -1.373408e-09 8.645125e-09
8.162013e-07 2.972429e-07 -1.157851e-07 1.039952e-06 -1.301049e-06 -1.261139e-06
3.215135e-07 1.314950e-07 -1.368492e-07 4.573971e-09 2.475028e-10 -1.285720e-09
-2.220792e-08 6.343952e-07 -5.787861e-07 -2.147897e-07 4.165162e-07 -1.804814e-07
1.231149e-06 5.629557e-08 -7.437149e-07 8.377577e-07 -6.978239e-07 -5.085667e-07
1.265646e-06 -2.373821e-07 -5.654697e-07 2.892841e-07 -6.970900e-07 -4.191351e-07
2.332407e-06 -5.051317e-07 -9.454029e-07 9.266940e-07 -6.903962e-07 -7.392188e-07
1.500696e-06 -3.365801e-07 -8.368119e-07 1.116788e-06 -1.988950e-07 -3.601171e-07
1.246443e-06 -6.366910e-07 -4.729506e-07 3.056841e-07 -5.982026e-07 -4.109331e-07
2.174490e-06 -3.518263e-07 -9.413703e-07 5.399294e-07 -7.153143e-07 -6.808231e-07
1.953825e-07 1.154623e-06 -8.330023e-07 -1.191496e-06 -3.481135e-07 1.728148e-07
-9.293310e-08 1.829340e-06 -8.495547e-07 -1.382808e-06 -3.627564e-07 1.822628e-07
1.807576e-07 1.334856e-06 -9.176384e-07 -1.228161e-06 -1.523197e-07 1.958590e-07
1.685080e-08 1.853254e-06 -9.566479e-07 -1.436231e-06 -3.702403e-07 1.666359e-07
7.681244e-07 1.465568e-07 -6.302812e-07 4.202392e-07 -6.298771e-07 -4.392862e-07
1.590747e-06 -3.983488e-09 -9.380779e-07 3.254188e-07 -6.315241e-07 -3.855089e-07
1.619823e-06 -3.151704e-07 -9.632723e-07 2.212826e-07 -5.411327e-07 -3.470209e-07
2.024826e-06 -4.367243e-07 -9.955472e-07 -3.306691e-08 -6.043298e-07 -4.559070e-07
2.862029e-08 -2.367991e-07 -4.971206e-07 3.879059e-08 -6.208276e-07 -3.444555e-07
2.913282e-07 -9.283519e-08 -5.006586e-07 3.515054e-07 -5.829829e-07 -1.872970e-07
-1.881490e-06 2.379702e-06 5.538346e-06 -4.923033e-06 2.181047e-07 -3.346891e-07
-3.078986e-06 3.906255e-06 4.668177e-06 -3.681348e-06 -1.839794e-08 -1.161669e-08
-7.731717e-07 2.268787e-06 2.710415e-06 -3.901775e-06 8.801976e-08 -6.385179e-08
-3.020285e-06 3.171420e-06 4.720690e-06 -3.499637e-06 5.966423e-07 -2.949801e-07
-3.091195e-06 3.340787e-06 7.294856e-06 -4.289038e-06 1.419411e-06 -4.729957e-07
-1.285423e-07 9.659043e-07 -5.806975e-07 1.038317e-07 -6.327682e-08 -1.111553e-07
5.351258e-07 -5.503237e-08 -2.444839e-07 -8.197537e-08 -3.828703e-08 9.009096e-08
-1.972154e-07 9.365193e-07 -6.045484e-07 -9.601103e-09 -6.508434e-08 -1.217760e-07
-1.695924e-07 1.096090e-06 -6.847944e-07 1.115919e-07 -1.106915e-07 -7.889414e-08
5.279478e-08 1.907470e-06 2.027995e-06 -4.154865e-06 -1.161999e-06 5.227005e-07
-9.342715e-08 1.050465e-06 -8.130391e-07 2.468504e-07 -1.287806e-07 -3.294074e-08
-1.116358e-07 9.601219e-07 -5.979257e-07 1.162060e-07 -4.456365e-08 -1.078416e-07
1.076872e-07 6.642418e-07 -3.956704e-07 3.470573e-07 -6.389249e-07 -3.859810e-07
-1.602971e-07 1.014162e-06 -7.066056e-07 3.120596e-08 -3.249500e-08 -6.971235e-08
2.299621e-06 -1.655321e-07 -1.254861e-06 -5.532075e-07 3.345521e-07 -2.234692e-07
8.646727e-07 -2.021146e-07 -5.103925e-07 -1.207901e-07 6.041964e-07 -4.229841e-07
1.927490e-06 -2.858507e-07 -9.227232e-07 -7.601978e-07 8.471473e-07 -8.275979e-07
1.829582e-06 -2.750835e-07 -1.214241e-06 -9.159476e-07 3.110058e-07 -1.186937e-07
-2.780964e-07 9.493980e-07 -4.394036e-07 -7.524557e-08 2.192165e-07 -1.026247e-07
-2.534317e-07 9.521351e-07 -4.939792e-07 -4.345532e-08 7.792528e-08 -5.249136e-08
-2.538718e-07 9.417751e-07 -5.064614e-07 -1.295369e-07 1.260213e-07 -4.957699e-08
-2.424135e-07 9.559183e-07 -5.446093e-07 -8.300819e-08 1.356837e-07 -4.372606e-08
-3.934018e-07 1.320963e-06 -7.081807e-07 -2.374228e-07 7.089549e-08 -1.296836e-08
-6.191965e-07 2.445056e-06 -5.236997e-07 2.101489e-06 3.412552e-07 2.692679e-07
-2.035589e-06 4.025618e-06 1.101536e-06 2.235568e-06 2.311262e-07 1.666472e-07
-1.835804e-06 3.310203e-06 2.441020e-06 3.341742e-06 -4.400440e-07 -3.684076e-07
-2.023670e-06 3.628862e-06 1.122595e-06 2.170920e-06 1.168956e-07 -1.025072e-08
-2.085174e-06 4.162238e-06 1.459059e-06 2.540552e-06 5.460370e-07 3.400577e-07
3.995503e-06 -1.425310e-06 -1.463338e-06 7.482376e-07 -2.068128e-07 -6.842695e-08
4.053759e-06 -1.354668e-06 -1.651558e-06 1.155830e-07 -4.730503e-08 5.919379e-08
4.032793e-06 -1.411956e-06 -1.581049e-06 1.622932e-07 3.959876e-09 6.203127e-08
2.488913e-07 5.689720e-07 -4.063175e-07 5.124444e-07 -8.194298e-07 -5.177096e-07
-2.506137e-07 7.187979e-07 -3.001176e-07 3.592853e-08 2.014621e-07 -1.200979e-08
-2.641376e-07 5.523908e-07 -2.702282e-07 -6.608496e-08 2.597214e-07 5.678725e-08
-2.621460e-07 7.180691e-07 -2.379095e-07 3.298381e-08 3.599700e-07 1.663244e-09
-2.679764e-07 7.123915e-07 -3.008008e-07 1.860504e-08 2.035789e-07 -6.978061e-09
8.344069e-07 5.304430e-08 -5.258525e-07 5.038358e-07 7.867710e-08 1.430835e-07
6.823196e-07 1.091000e-07 -5.143172e-07 4.205750e-07 -1.015305e-09 6.719221e-08
6.980447e-07 9.185791e-08 -4.873113e-07 4.126391e-07 1.129448e-07 1.275382e-07
-4.767084e-07 1.698023e-06 -8.516348e-07 3.723372e-07 1.442698e-07 9.339861e-08
-5.465271e-07 1.851240e-06 -8.711550e-07 1.795744e-07 1.621721e-07 5.228158e-08
-2.056548e-07 4.285307e-07 -2.488669e-07 5.816659e-08 2.969272e-07 8.325853e-08
-4.160433e-07 1.607635e-06 -7.647742e-07 3.443985e-07 1.876533e-07 4.101254e-08
-9.883152e-06 -1.483948e-05 4.103662e-05 2.490932e-06 -5.049728e-06 -7.561957e-06
-1.377290e-06 -8.268615e-06 1.936076e-05 5.043632e-06 -2.723594e-06 -3.362459e-06
-8.865993e-06 -5.813085e-06 3.731167e-05 5.771842e-06 -7.563010e-06 4.597593e-06
1.472414e-07 6.753256e-07 -5.964483e-07 1.218869e-07 -6.391189e-08 -4.120839e-09
1.441073e-08 7.899256e-07 -5.972139e-07 7.550493e-08 -4.255870e-08 -2.414740e-08
1.380074e-08 7.103537e-07 -5.615412e-07 4.520137e-08 -8.633046e-09 -1.493433e-08
6.514687e-08 7.080002e-07 -5.615412e-07 3.075464e-08 -1.256828e-08 -8.736241e-09
-1.416530e-07 7.972848e-07 -4.830775e-07 8.366854e-08 8.086794e-08 5.512130e-08
-1.007663e-07 7.026021e-07 -3.484941e-07 1.644904e-07 2.192557e-07 1.081152e-07
-1.357586e-07 7.367724e-07 -4.755848e-07 1.223136e-07 1.970413e-07 1.021387e-07
7.574657e-07 -5.933924e-08 -4.196031e-07 2.731142e-07 1.675474e-08 2.429067e-08
-1.270417e-07 6.023042e-07 -3.790966e-07 9.359976e-08 1.605812e-07 7.133581e-08
-1.100502e-07 7.995515e-07 -4.519997e-07 1.283299e-07 1.011201e-07 3.782953e-08
-1.284960e-07 7.741416e-07 -4.908561e-07 1.440935e-07 1.556593e-07 5.980350e-08
2.071529e-07 1.501914e-06 -8.783147e-07 1.521808e-06 1.265635e-07 3.208047e-08
-8.989626e-08 1.763288e-06 -6.128775e-07 1.722562e-06 2.444104e-07 1.178502e-07
-2.552605e-07 1.793534e-06 -8.411721e-07 1.436214e-06 3.221128e-07 1.887434e-07
2.162996e-08 2.014896e-06 -8.267269e-07 1.893853e-06 4.167096e-07 2.575314e-07
3.214726e-07 1.691994e-07 -1.972587e-07 -3.325793e-08 -1.888092e-08 3.152439e-08
2.847049e-07 2.280370e-07 -2.021100e-07 -4.247798e-08 -4.611677e-09 3.648393e-08
3.133337e-07 1.765377e-07 -2.026575e-07 -2.464734e-08 -1.107704e-08 4.130730e-08
5.969600e-07 -1.214047e-07 -1.983608e-07 2.398283e-09 5.528089e-10 4.067050e-08
5.904970e-07 -1.159211e-07 -1.993092e-07 -4.331573e-09 3.907594e-09 4.222272e-08
6.251163e-07 -1.219573e-07 -2.233095e-07 -1.770152e-08 -3.842352e-09 8.925734e-08
5.725051e-07 -1.259742e-07 -1.602997e-07 7.807349e-10 -2.356423e-09 9.639493e-08
5.931980e-07 -1.230317e-07 -1.836514e-07 -9.868698e-09 -3.686584e-09 5.651092e-08
5.720456e-07 -1.237451e-07 -1.889854e-07 2.393487e-09 -2.373644e-09 6.312945e-08
6.363042e-07 -7.371253e-09 -3.276337e-07 2.220351e-07 1.355899e-08 4.922753e-08
5.575689e-07 2.243783e-07 -8.407195e-07 -2.148297e-07 5.064286e-07 -2.188361e-07
4.837826e-07 1.158004e-07 -2.753156e-07 -1.803745e-07 -3.351530e-08 3.346103e-08
4.534077e-07 1.200908e-07 -3.100794e-07 -1.855591e-07 -3.371942e-08 -1.986867e-09
4.278494e-07 1.165826e-07 -3.569732e-07 -1.944925e-07 -2.156439e-08 4.390442e-08
7.767846e-07 -9.340798e-08 -4.320532e-07 1.994814e-07 3.571053e-08 1.425551e-07
-1.507656e-07 2.007609e-06 -8.797027e-07 1.151532e-06 2.724108e-07 1.142463e-07
2.578724e-07 1.819593e-06 -8.148517e-07 2.017435e-06 2.977861e-07 1.699814e-07
-3.897249e-08 1.913227e-06 -5.136752e-07 1.812229e-06 3.857113e-07 1.927774e-07
-3.968884e-07 1.890262e-06 -7.901462e-07 1.081414e-06 3.322607e-07 1.823524e-07
-5.610290e-07 2.098017e-06 -8.785104e-07 1.152906e-06 4.681108e-07 1.240064e-07
-2.113574e-07 1.994093e-06 -8.802923e-07 1.228918e-06 2.687381e-07 1.477736e-07
-5.166551e-07 2.371068e-06 -6.968695e-07 1.826400e-06 5.999935e-08 9.065036e-08
-3.371412e-07 2.201597e-06 -7.381902e-07 1.875276e-06 5.263605e-07 2.563533e-07
1.365431e-06 -3.088056e-07 -5.892189e-07 1.601231e-07 -1.125556e-08 1.023073e-07
1.739328e-06 -6.000886e-07 -8.702712e-07 9.026226e-08 2.006377e-08 2.906670e-07
1.384735e-06 -3.863225e-07 -7.219711e-07 3.457432e-08 -3.694371e-08 1.263588e-07
1.813320e-06 -5.167682e-07 -7.909305e-07 2.436763e-07 -6.025104e-08 2.321289e-07
1.051759e-06 -2.844831e-07 -5.700848e-07 -9.721354e-08 -9.138310e-09 1.358874e-07
1.687550e-06 -4.983966e-07 -7.476290e-07 1.883669e-07 9.911285e-08 2.636173e-07
3.452927e-07 1.124014e-07 -1.458622e-07 2.565596e-08 -3.259704e-09 7.249503e-10
3.369444e-07 1.140109e-07 -1.464418e-07 4.527954e-08 1.937393e-09 1.015522e-08
3.449555e-07 1.076540e-07 -1.394426e-07 1.166370e-08 2.034622e-10 1.290070e-09
3.618937e-07 9.134218e-08 -1.394838e-07 2.309076e-08 2.120042e-09 5.854358e-09
-5.933354e-07 2.393434e-06 -6.756874e-07 1.332368e-06 -3.344737e-07 -2.079211e-07
3.631427e-07 9.927850e-08 -1.411924e-07 5.863310e-09 -1.501113e-09 2.558781e-09
3.733293e-07 9.591340e-08 -1.430668e-07 1.242225e-08 1.066630e-09 -1.049772e-09
-2.170670e-07 4.860102e-07 -2.881168e-07 8.627706e-09 -5.362668e-08 -1.289407e-07
2.028885e-07 2.845740e-07 -3.339052e-07 -1.508748e-07 -1.056079e-07 1.407849e-07
1.773123e-07 2.380111e-07 -2.344523e-07 -1.443495e-07 -1.429863e-07 1.832811e-07
2.662155e-07 2.018479e-07 -2.950280e-07 -1.502718e-07 -8.961736e-08 1.095936e-07
2.729309e-07 2.571694e-07 -2.980383e-07 -1.309588e-07 -8.844779e-08 1.102876e-07
2.011806e-07 2.187407e-07 -2.517045e-07 -1.485541e-07 -1.628080e-07 1.701391e-07
3.984651e-07 7.087225e-08 -1.434140e-07 -6.132613e-09 -4.186422e-10 2.683190e-09
3.871737e-07 8.171737e-08 -1.442774e-07 -1.668566e-08 -2.128630e-09 1.905241e-09
8.893069e-07 -2.064499e-07 -4.133357e-07 1.303820e-07 2.359014e-08 1.011670e-07
3.946462e-07 6.240075e-08 -1.408431e-07 -8.570017e-09 -1.287139e-09 4.208861e-10
5.908448e-07 -4.296182e-08 -2.517009e-07 9.466129e-08 1.285057e-08 1.252491e-08
3.898956e-07 6.976496e-08 -1.421107e-07 -1.983368e-09 -1.283769e-09 2.030914e-09
6.903460e-09 1.347812e-06 -7.912928e-07 1.115846e-06 2.265503e-07 1.337980e-07
-3.956524e-07 1.957375e-06 -5.128851e-07 2.021091e-06 3.925346e-07 2.439201e-07
-5.358134e-07 2.195720e-06 -2.798808e-07 2.226220e-06 3.474642e-07 2.734352e-07
-1.087440e-06 2.862466e-06 -2.530404e-07 1.665693e-06 3.563162e-07 2.923730e-08
-1.135434e-06 2.782254e-06 -6.754313e-07 1.512212e-06 6.707341e-07 1.847387e-07
-7.432580e-07 2.645994e-06 -7.234091e-07 1.513292e-06 1.638865e-07 -7.814173e-08
-1.048436e-06 3.246873e-06 -4.350059e-07 1.816739e-06 3.448248e-07 2.837939e-07
3.256633e-06 -7.789169e-07 -3.398193e-07 -1.619405e-06 -3.829091e-08 -1.311100e-07
4.345253e-06 -1.624669e-06 -7.570747e-07 -7.351953e-07 1.366817e-07 -6.636226e-07
3.706840e-06 -1.321682e-06 -8.883019e-07 -9.095261e-07 3.648200e-07 -4.685249e-07
3.841116e-06 -1.111634e-06 -5.368568e-07 -1.869993e-06 2.692625e-07 -2.363755e-07
1.035899e-06 -1.075026e-07 -5.789435e-07 5.127643e-07 8.666059e-08 1.844299e-07
9.550015e-07 -1.461952e-07 -5.527955e-07 3.402582e-07 3.849791e-08 1.813338e-07
8.432281e-07 -7.463506e-08 -4.632837e-07 2.974066e-07 7.449593e-08 1.484063e-07
8.999181e-07 -1.963358e-08 -5.454667e-07 4.573815e-07 1.202443e-07 1.895527e-07
7.870139e-07 -2.123864e-08 -4.807497e-07 3.916217e-07 6.001439e-08 1.716316e-07
-1.245046e-07 1.042116e-06 -6.309661e-07 2.479862e-07 -1.755411e-07 -1.360748e-07
-2.555859e-08 9.647502e-07 -6.810424e-07 2.884881e-07 -1.315792e-07 -9.559898e-08
-9.056598e-08 1.140889e-06 -7.288053e-07 2.249303e-07 -4.144192e-08 -5.466477e-08
-7.461344e-08 9.637089e-07 -7.977578e-07 2.918340e-07 -1.063631e-07 -1.476485e-08
-1.723489e-07 1.007279e-06 -6.945343e-07 4.672183e-08 -2.750365e-08 -6.199818e-08
-1.114495e-07 9.467909e-07 -6.727118e-07 1.223158e-07 -4.957661e-08 -8.564408e-09
3.412199e-07 1.891187e-06 -2.410030e-07 2.570786e-06 9.701315e-08 9.729826e-08
9.252730e-07 5.537807e-07 -6.256224e-07 2.173722e-06 1.596944e-07 1.683373e-07
9.643274e-07 1.036938e-06 -8.525287e-07 1.894310e-06 3.505972e-07 3.128024e-07
9.527710e-07 6.415468e-07 -7.005285e-07 1.987400e-06 3.954227e-07 2.619066e-07
2.578724e-07 1.741384e-06 -5.663028e-07 2.404520e-06 3.485182e-07 2.773936e-07
9.361032e-07 8.669361e-07 -7.666374e-07 2.088654e-06 1.396058e-07 2.155947e-07
8.015086e-07 -1.577729e-07 -2.989310e-07 5.375606e-08 9.921656e-09 1.033528e-07
-2.130781e-07 9.014925e-07 -5.239508e-07 1.135308e-07 2.693736e-07 9.865603e-08
-1.352497e-07 7.154481e-07 -3.858688e-07 1.132756e-07 1.763132e-07 7.151859e-08
-1.683805e-07 7.252832e-07 -3.468944e-07 5.785878e-08 1.086733e-07 6.906002e-08
-2.162260e-07 8.849114e-07 -4.848536e-07 7.432338e-08 8.619840e-08 4.771745e-08
-1.513601e-07 6.721444e-07 -3.833355e-07 6.381407e-08 1.744543e-07 8.989734e-08
-1.634332e-07 9.470749e-07 -4.941394e-07 2.085897e-07 1.457631e-07 4.104290e-08
1.245358e-06 -1.273333e-07 -7.319258e-07 5.320817e-07 6.276600e-08 7.141641e-08
1.035331e-06 -1.090876e-07 -6.057327e-07 5.116329e-07 1.509762e-08 1.056216e-07
1.257420e-06 -1.040613e-07 -7.535994e-07 6.589016e-07 1.511525e-07 2.643052e-07
1.012173e-06 -7.703185e-08 -6.222962e-07 5.826400e-07 9.237264e-08 2.601680e-07
8.923907e-07 4.958618e-08 -7.143114e-07 5.846621e-07 1.014489e-07 1.649648e-07
8.773194e-07 8.113155e-08 -6.502958e-07 6.471676e-07 1.876293e-07 1.899423e-07
9.919024e-07 3.312345e-09 -6.820118e-07 5.399268e-07 6.158767e-08 5.823343e-08
9.388519e-07 4.980685e-08 -6.403269e-07 5.804705e-07 1.056617e-07 9.955822e-08
8.032040e-07 1.030075e-07 -5.513410e-07 5.613718e-07 1.020329e-07 2.143760e-07
1.765369e-06 2.974574e-08 -1.258093e-06 -9.627379e-07 2.609418e-07 -1.719831e-07
1.686577e-06 1.768300e-07 -1.215482e-06 -4.307491e-07 3.682864e-07 -7.158745e-08
2.135501e-06 -1.935670e-09 -1.514268e-06 -4.576611e-07 5.819578e-08 -6.069685e-08
4.287949e-06 -2.252442e-06 2.652708e-07 1.246444e-06 6.420394e-08 1.821072e-07
4.810795e-06 -2.284872e-06 -1.585404e-07 1.149626e-06 -2.636483e-07 -5.358168e-07
3.891100e-06 -1.550706e-06 -7.973975e-07 6.618091e-07 -1.545581e-08 -2.590371e-07
4.222683e-06 -1.239502e-06 -8.767703e-07 1.328443e-06 -2.160809e-07 -4.251157e-07
3.965367e-06 -1.564617e-06 -6.575901e-07 1.644636e-06 1.978378e-08 6.073866e-08
-2.750762e-06 4.615935e-06 1.907289e-06 -1.999255e-06 -3.308798e-07 2.255521e-07
-1.523334e-06 3.201811e-06 1.184881e-06 -2.663763e-06 -9.214054e-08 6.231246e-09
-2.787816e-06 4.684013e-06 2.774691e-06 -2.341891e-06 -2.395684e-07 3.661464e-07
-2.762645e-06 4.282252e-06 2.083188e-06 -1.966411e-06 3.251962e-07 3.456899e-08
-3.367318e-06 8.295823e-07 1.225269e-05 -5.827713e-06 -1.752225e-06 -9.963789e-07
-1.643652e-06 -5.044351e-06 2.464331e-05 -6.507320e-06 -2.851931e-06 8.201817e-06
-8.961157e-07 -4.762377e-07 1.025879e-05 -5.806067e-06 -2.156650e-06 2.731811e-07
-3.432587e-06 -5.057220e-06 2.348383e-05 -6.226851e-06 -2.631433e-06 -1.415069e-06
1.115354e-06 3.565499e-07 -5.853027e-07 -1.838648e-06 -3.289931e-07 4.782213e-07
8.114200e-07 1.300327e-06 -7.215210e-07 -2.206916e-06 -2.346203e-07 2.227132e-07
7.545850e-07 1.371562e-06 -8.556453e-07 -2.040750e-06 -1.637814e-07 8.642704e-08
1.119565e-06 7.089881e-07 -8.633184e-07 -1.811365e-06 -1.429222e-07 2.240128e-07
2.177139e-06 -5.413149e-07 -8.354956e-07 -8.571873e-08 -1.846279e-08 4.262162e-07
1.528060e-06 -4.446630e-07 -7.267275e-07 -3.244746e-07 -5.344022e-08 2.819518e-07
1.973337e-06 -4.410167e-07 -8.317867e-07 -4.048745e-07 -1.190912e-07 4.223880e-07
1.617709e-06 -5.488601e-07 -7.610355e-07 -1.535633e-07 -2.697250e-08 2.844726e-07
-2.368491e-07 1.792780e-06 -5.085719e-07 -1.949938e-06 3.194214e-07 -2.691313e-07
4.879589e-07 1.848969e-06 -1.115950e-06 -1.856670e-06 1.514553e-07 -1.712086e-07
5.493075e-07 1.123546e-06 -4.748132e-07 -1.976996e-06 6.417788e-07 -3.390318e-07
2.084922e-07 1.859430e-06 -8.360196e-07 -2.055595e-06 3.460949e-07 -1.881393e-07
-7.139291e-07 2.529433e-06 -7.300546e-07 1.427819e-06 4.852148e-07 3.142616e-07
-9.772565e-07 2.879655e-06 -8.289689e-07 9.715241e-07 2.571392e-07 1.490530e-07
-9.788156e-07 3.228373e-06 -6.264401e-07 1.088567e-06 -9.581605e-09 6.729402e-08
-9.671930e-07 2.532921e-06 -6.832380e-07 8.932986e-07 4.460916e-07 4.683871e-08
-1.028213e-06 2.921300e-06 -6.030021e-07 -1.382139e-06 -5.040113e-07 3.157959e-07
-1.002158e-06 2.891491e-06 -1.076479e-08 -2.339865e-06 -4.654288e-07 2.796463e-07
-5.898530e-07 2.633769e-06 -3.812503e-07 -1.821465e-06 -7.026879e-08 2.396315e-07
-1.457405e-06 3.769418e-06 -2.038224e-07 -1.715221e-06 -4.205028e-07 2.597923e-07
-1.046164e-06 3.034734e-06 -6.571764e-08 -2.475034e-06 -3.415277e-08 -4.587552e-08
-1.482985e-06 3.395516e-06 1.264815e-07 -1.575914e-06 -2.640646e-07 -3.646058e-08
1.697881e-07 3.975242e-07 -5.532023e-07 -1.120608e-07 3.801267e-07 -9.272307e-08
1.277288e-06 7.431910e-07 2.652765e-07 -2.528513e-06 7.480747e-07 -3.377594e-07
2.004731e-08 3.339197e-07 -3.239427e-07 6.527044e-08 3.739594e-07 -5.474622e-08
1.084953e-07 4.215378e-07 -2.760550e-07 -2.439646e-08 3.078195e-07 1.034013e-08
3.011324e-06 -1.059428e-06 -1.138754e-06 -9.749829e-07 1.074151e-07 -1.990317e-07
2.256656e-06 -4.906105e-07 -8.612714e-07 -1.675072e-06 2.567295e-07 -4.089213e-07
1.031860e-06 -2.597490e-07 -2.034324e-07 -4.664928e-07 7.878371e-07 -8.469035e-07
3.652939e-06 -1.075860e-06 -9.186164e-07 -1.494442e-06 3.476374e-07 -3.979497e-07
2.906419e-06 -4.594842e-07 -9.858920e-07 -1.307037e-06 3.357537e-07 -5.718264e-07
3.265344e-06 -1.700719e-06 3.074569e-06 -3.256996e-06 3.219549e-07 -2.925600e-07
1.213116e-07 1.398823e-06 -9.031940e-07 -1.416904e-06 -1.211138e-07 8.186905e-08
8.119846e-07 8.862895e-07 -8.839582e-07 -1.487848e-06 -3.564814e-07 2.831235e-07
3.504204e-07 1.432044e-06 -5.748296e-07 -1.979886e-06 -4.787822e-07 4.122689e-07
9.563939e-08 1.774986e-06 -9.193015e-07 -1.691320e-06 -2.649436e-07 6.006939e-08
7.997890e-07 1.391913e-06 -7.853217e-07 -2.071231e-06 -3.490195e-07 3.369120e-07
7.128912e-07 -7.821423e-08 -3.685786e-07 2.113808e-07 7.454414e-09 4.702303e-08
7.516357e-07 -9.340798e-08 -3.711642e-07 1.776160e-07 5.162604e-08 1.098818e-07
6.633324e-07 -9.340798e-08 -3.087434e-07 1.497244e-07 2.016875e-08 8.775843e-08
6.785383e-07 -3.164167e-08 -3.594093e-07 1.835233e-07 3.850324e-08 7.121711e-08
6.359112e-07 -3.812753e-08 -3.182524e-07 1.595847e-07 1.770761e-08 2.572567e-08
6.232376e-07 -4.686514e-08 -2.916169e-07 1.082231e-07 -1.588755e-09 2.993210e-08
2.827580e-06 -9.422932e-07 -1.323401e-06 -1.175341e-07 2.546106e-07 2.911297e-08
7.325642e-07 -8.460961e-08 -3.651141e-07 1.299274e-07 1.263239e-08 2.296694e-08
2.222560e-06 -1.014125e-06 -9.523484e-07 -1.071156e-07 -2.538764e-07 -9.063252e-08
3.001449e-06 -8.763025e-07 -1.312922e-06 3.658934e-07 -3.577146e-07 -2.132532e-07
3.900259e-06 -1.355899e-06 -1.443094e-06 4.017640e-07 -1.514112e-07 -1.358096e-07
4.011657e-06 -1.766886e-06 -1.400489e-06 1.306483e-07 -1.263725e-07 -3.181071e-07
3.673410e-06 -1.216278e-06 -1.456362e-06 5.182322e-07 -1.667322e-07 -9.233316e-08
2.931097e-06 -1.137306e-06 -1.305237e-06 1.581540e-07 -1.826532e-07 -3.661148e-08
1.563514e-06 2.229359e-08 -8.625813e-07 1.437222e-06 2.526047e-07 3.075659e-07
1.649371e-06 6.080652e-07 -9.068403e-07 1.953096e-06 1.362199e-07 1.377560e-07
1.319348e-06 1.484945e-08 -8.799361e-07 1.458868e-06 8.111971e-08 1.518801e-07
1.095088e-06 2.457187e-07 -8.263417e-07 1.485489e-06 2.914447e-07 4.016497e-07
1.517711e-06 -9.694633e-07 -8.390867e-07 -1.163786e-08 2.377396e-07 -4.933744e-07
3.049854e-06 -1.334709e-06 -1.167546e-06 -2.443745e-07 -1.507396e-07 -6.236589e-07
3.697684e-06 -1.164513e-06 -1.515905e-06 -2.375092e-07 3.194471e-07 -3.869604e-07
1.694608e-06 -9.278739e-07 -7.522078e-07 -1.486607e-07 1.391258e-07 -3.400281e-07
3.520999e-06 -1.540281e-06 -1.047607e-06 -6.599134e-07 -1.913034e-08 -8.468509e-08
3.514189e-06 -1.539555e-06 -5.791686e-07 -6.608046e-07 1.837164e-07 -9.997658e-07
-1.999211e-07 4.175118e-07 -3.334040e-07 6.960363e-08 -3.388609e-07 -1.427439e-07
-2.908235e-07 1.015269e-06 -5.088690e-07 3.204277e-08 -1.629645e-07 -1.370302e-07
-2.503050e-07 9.747920e-07 -5.137483e-07 8.993062e-08 -1.770894e-07 -1.143553e-07
-1.855489e-07 7.205579e-07 -4.878512e-07 7.956468e-08 -2.147842e-07 -1.498189e-07
-2.471580e-07 4.741517e-07 -3.410013e-07 -1.074092e-08 -1.606883e-07 -1.395344e-07
-2.154924e-07 5.660465e-07 -3.137432e-07 8.882549e-08 -9.109748e-08 -1.081683e-07
-3.561829e-07 1.127758e-06 -5.309823e-07 3.057952e-08 -3.584938e-07 -5.327355e-08
-3.071597e-07 5.311530e-07 -3.222596e-07 1.573203e-07 -4.795464e-07 -6.888331e-08
-3.570275e-07 9.089382e-07 -5.709246e-07 1.205993e-08 -2.649699e-07 -4.521099e-08
-3.515759e-07 8.789403e-07 -5.616988e-07 -2.816408e-08 -2.714760e-07 1.043764e-08
-4.071825e-07 9.026314e-07 -5.835387e-07 -5.825156e-09 -2.546253e-07 -1.430769e-08
-3.531776e-07 8.495047e-07 -5.199324e-07 -2.757453e-08 -5.217191e-07 -5.282995e-09
5.031997e-07 -5.034515e-08 -1.504154e-07 -2.524600e-08 -5.847778e-09 2.259704e-08
5.332205e-07 -5.079898e-08 -1.759611e-07 -1.940475e-08 -7.051425e-09 1.163949e-08
4.852307e-07 -9.653529e-09 -1.627355e-07 -5.125892e-08 -1.602881e-08 3.041811e-08
5.022868e-07 -2.041671e-08 -1.682150e-07 -2.341115e-08 -7.846279e-09 1.015262e-08
5.101631e-07 -4.034438e-08 -1.673765e-07 -8.940921e-09 -1.062101e-08 1.454070e-08
5.045177e-07 -2.029025e-08 -1.681788e-07 -2.222821e-08 -8.593650e-09 9.382622e-09
4.990108e-07 -3.354639e-08 -1.579215e-07 -1.505050e-08 -8.618452e-09 8.954921e-09
4.911649e-07 -2.340435e-08 -1.562212e-07 -9.666484e-09 -3.789204e-09 8.986073e-09
9.886238e-07 -2.844831e-07 -4.694279e-07 -7.605876e-08 1.521847e-08 1.432538e-07
1.274557e-06 -3.369634e-07 -5.699439e-07 -1.050687e-07 -3.015763e-08 1.420923e-07
1.383822e-06 -3.777939e-07 -5.766165e-07 4.672742e-08 -1.092924e-09 1.675711e-07
8.937598e-07 -1.896838e-07 -4.464830e-07 -9.414372e-08 -3.621702e-09 5.249782e-08
-8.047173e-08 7.682989e-07 -4.981846e-07 9.306271e-08 1.610826e-08 -7.303532e-09
9.702147e-07 -2.113325e-07 -4.620838e-07 -6.106706e-09 -7.971752e-09 4.745014e-08
4.187909e-07 7.501658e-07 -9.080611e-07 -4.323956e-07 1.277754e-07 -5.896964e-08
9.111086e-07 -1.780591e-07 -4.521597e-07 -6.724558e-08 -2.147309e-09 7.213342e-08
-2.856922e-06 3.015995e-06 6.411549e-06 4.339759e-06 3.594132e-08 1.329593e-06
-3.300863e-06 4.723088e-06 3.034468e-06 2.530806e-06 -5.341174e-07 -1.986161e-07
-1.159942e-06 3.023886e-06 2.464075e-06 3.283961e-06 -2.174269e-07 -3.895993e-07
-7.000895e-06 -1.201166e-05 3.908986e-05 5.379766e-06 6.573335e-06 4.431149e-06
-5.794027e-06 -1.051034e-05 4.590940e-05 3.999147e-06 1.734804e-06 8.138654e-06
-1.102673e-06 -1.105236e-05 3.021131e-05 1.963732e-06 5.923504e-07 2.029810e-06
2.503956e-06 -1.128235e-05 2.614176e-05 1.278326e-06 -8.915886e-07 3.830595e-06
5.416974e-06 -5.526126e-06 1.193778e-05 1.785417e-06 3.794795e-07 2.362551e-06
-2.757656e-06 -1.240218e-05 2.594965e-05 -1.266723e-06 -9.994708e-07 2.303126e-06
3.523987e-08 6.520955e-07 -5.585807e-07 6.943857e-09 -3.374158e-08 -6.990862e-09
-5.612506e-07 -1.323154e-05 2.663362e-05 -1.782709e-06 1.066028e-06 8.974031e-06
1.706057e-06 -5.838815e-07 5.852471e-06 -4.382334e-06 4.378323e-07 3.492797e-07
2.557614e-06 -9.666757e-07 1.095506e-06 -3.683827e-06 -3.859702e-07 1.340215e-07
1.997614e-06 -7.632148e-07 3.268771e-06 -4.032840e-06 -2.846640e-07 1.193273e-06
2.377290e-06 -8.344754e-07 2.448231e-06 -3.932954e-06 3.756316e-08 -6.121293e-07
-1.207166e-06 2.818002e-06 -9.037757e-07 -6.756199e-07 -6.597738e-07 9.432337e-08
-1.210081e-06 2.957066e-06 -6.070439e-07 -7.796227e-07 -4.037826e-07 2.153899e-08
-6.678413e-07 2.690914e-06 -9.592553e-07 -7.674549e-07 -5.428865e-07 1.646669e-07
-1.208137e-06 3.307426e-06 -7.853976e-07 -8.244557e-07 -3.696827e-07 1.565135e-07
3.943660e-07 2.931759e-07 -4.160863e-07 5.252887e-07 -7.206626e-07 -4.389956e-07
-3.883560e-07 1.112537e-06 -5.593493e-07 -3.423914e-08 -1.781665e-07 4.402002e-08
-3.474562e-07 1.158639e-06 -5.860814e-07 2.307927e-08 -1.924259e-07 -3.477564e-08
-3.604972e-07 1.145747e-06 -5.705932e-07 -7.841713e-09 -1.902813e-07 9.915772e-09
-2.818420e-07 4.742087e-07 -3.456033e-07 -5.795873e-09 -1.647525e-07 -8.674636e-09
-3.163639e-07 6.078453e-07 -3.337122e-07 1.140268e-07 -1.169305e-07 6.977021e-09
3.716747e-07 1.437709e-07 -2.626789e-07 -1.141174e-07 -5.338380e-09 1.475051e-08
3.868321e-07 9.612251e-08 -1.731395e-07 -5.500080e-08 -3.330269e-09 1.258876e-08
3.847369e-07 1.134469e-07 -2.608219e-07 -1.185677e-07 -1.222631e-08 1.880852e-08
4.293182e-07 1.635934e-07 -2.686345e-07 -1.675289e-07 -1.990431e-08 2.761672e-08
3.720055e-07 1.876856e-07 -3.028635e-07 -1.688466e-07 -5.579719e-08 2.921336e-08
3.490008e-07 1.575786e-07 -2.663937e-07 -1.144968e-07 -2.659027e-08 4.424915e-08
3.715447e-07 1.638788e-07 -3.322601e-07 -1.776219e-07 -2.847126e-08 3.694902e-08
-4.006489e-07 1.368022e-06 -7.826870e-07 -2.507895e-07 -1.741644e-07 7.031782e-08
-4.816020e-07 1.723219e-06 -8.793178e-07 -3.477192e-07 -2.471404e-07 2.093163e-08
-4.944428e-07 1.454400e-06 -8.071404e-07 -9.667527e-08 -1.959520e-07 3.540233e-08
-3.251628e-07 1.238942e-06 -7.239472e-07 -1.191652e-07 -5.431490e-07 8.200843e-08
-5.565499e-08 5.403250e-07 -2.979222e-07 3.368467e-08 3.232940e-09 6.422450e-08
7.953827e-08 4.549917e-07 -2.751085e-07 1.093143e-07 9.537397e-08 6.844389e-08
-4.907647e-08 5.806529e-07 -3.004273e-07 2.940034e-08 5.884388e-08 7.532812e-08
-4.857070e-10 5.249457e-07 -2.764918e-07 3.854077e-08 4.033129e-08 7.807889e-08
-4.829731e-08 4.654754e-07 -2.249684e-07 -1.529512e-08 4.040524e-08 7.717449e-08
-1.957311e-08 4.985350e-07 -2.082096e-07 1.825794e-08 1.648663e-08 5.460511e-08
-1.018304e-07 1.347195e-06 -7.788005e-07 7.473427e-07 1.432388e-07 6.964297e-08
-1.220568e-07 1.439162e-06 -8.265083e-07 9.256272e-07 2.160777e-07 1.448230e-08
-9.080274e-08 4.755740e-07 -2.694137e-07 -1.010566e-07 -8.621290e-08 1.401765e-07
-1.423515e-07 1.132891e-06 -7.497244e-07 5.145031e-07 1.079748e-07 9.866415e-08
-1.767748e-07 1.418980e-06 -8.725432e-07 7.325717e-07 2.801626e-07 1.038765e-07
-2.414513e-07 1.554254e-06 -8.304172e-07 6.880613e-07 1.833205e-07 8.928925e-08
-1.005450e-07 1.125457e-06 -7.237617e-07 5.610674e-07 2.892784e-07 5.961620e-08
-3.869058e-07 1.605880e-06 -8.690831e-07 8.590467e-07 3.069830e-07 1.327467e-07
-1.872089e-07 8.683014e-07 -4.783206e-07 -1.576330e-07 1.102123e-07 -5.116251e-08
-6.605717e-08 9.078023e-07 -5.611137e-07 -2.410661e-07 6.649273e-08 -4.255829e-08
-1.532242e-07 8.723514e-07 -4.802918e-07 -8.041710e-08 2.874705e-08 -2.173931e-08
-1.460289e-07 9.231735e-07 -5.612163e-07 -2.185390e-07 7.920378e-08 -3.579573e-08
-1.810400e-07 1.066698e-06 -6.085359e-07 -2.600030e-07 6.623984e-08 -7.978487e-08
-1.810504e-07 9.507590e-07 -7.067903e-07 -2.588246e-07 1.782594e-07 -8.105163e-08
-1.883442e-07 9.194855e-07 -6.437407e-07 -2.537610e-07 1.266495e-07 -7.114551e-08
-6.668602e-08 9.063006e-07 -6.500329e-07 -2.796718e-07 1.645296e-07 -1.297288e-07
-8.324274e-08 7.920470e-07 -5.242116e-07 -2.020804e-07 1.413252e-07 -6.835094e-08
-1.477746e-07 9.505286e-07 -4.595974e-07 -2.482299e-07 2.032707e-07 -9.314216e-08
-1.670727e-07 9.535038e-07 -5.958605e-07 -2.483255e-07 2.058488e-07 -4.152247e-08
-1.519258e-05 -3.619057e-06 3.809647e-05 -2.534290e-07 -6.247877e-06 -2.368215e-06
-2.341542e-05 -1.726708e-05 6.715363e-05 -8.265271e-07 -7.792287e-06 5.030556e-06
-2.142403e-05 -1.728366e-05 5.300636e-05 8.689248e-08 -4.568087e-06 2.703537e-06
-1.619301e-05 -3.470080e-06 3.500521e-05 1.024777e-06 -7.201252e-06 2.314168e-06
-1.918667e-06 3.423435e-06 2.862558e-07 -1.490858e-06 -1.949928e-07 8.610792e-08
-2.721182e-06 4.233567e-06 4.238131e-07 -1.755661e-06 -6.994449e-07 1.128737e-07
-2.302998e-06 5.115223e-06 1.211951e-06 2.968205e-07 2.918633e-07 1.794581e-07
-2.502522e-06 4.648069e-06 7.164012e-07 -7.775232e-07 -6.826806e-07 2.402745e-07
-1.605428e-06 3.674936e-06 -4.383910e-07 -7.961556e-07 1.559926e-08 -5.616079e-08
-1.067894e-06 3.630854e-06 -3.812496e-07 -1.688929e-06 -6.090608e-07 1.188537e-07
-1.210955e-06 3.708777e-06 -4.710420e-07 -9.242385e-07 -5.330105e-09 8.722039e-08
6.145268e-07 -6.589046e-06 1.902295e-05 5.674884e-06 4.794356e-07 4.352412e-06
4.878934e-07 -5.602946e-06 1.637098e-05 5.636783e-06 2.430871e-06 1.865751e-06
7.783935e-07 -2.922676e-06 1.020375e-05 5.535454e-06 7.861467e-07 -1.022238e-06
2.346077e-06 -2.934673e-06 5.526860e-06 4.935686e-06 1.369554e-06 8.020657e-07
3.616985e-06 -3.473129e-06 9.424408e-06 4.103267e-06 4.459745e-07 1.378629e-06
2.357815e-06 -2.339431e-07 -3.223340e-07 1.926416e-06 -5.131649e-07 -3.452023e-07
1.738041e-06 3.506842e-07 -1.188575e-06 1.516180e-06 -3.015723e-07 -3.162737e-07
1.934234e-06 4.188608e-07 -9.924521e-07 2.372288e-06 1.014848e-08 -2.236086e-07
1.644756e-06 6.327092e-07 -1.207513e-06 1.513624e-06 -2.187951e-07 -2.426723e-07
1.447809e-06 5.729121e-07 -6.648261e-07 1.781586e-06 -5.849681e-07 -3.241805e-07
1.137404e-06 -1.428332e-07 -6.012104e-07 4.299920e-07 1.147096e-07 2.507392e-07
1.118379e-06 -2.378739e-07 -5.982736e-07 2.818647e-07 2.570595e-08 1.962744e-07
1.080206e-06 -1.432073e-07 -6.000222e-07 3.214127e-07 3.510928e-08 5.780639e-08
9.872061e-07 -1.377225e-07 -5.394603e-07 2.442361e-07 5.024733e-09 7.121971e-08
1.206977e-06 -2.378346e-07 -6.189707e-07 2.939048e-07 4.184292e-08 1.073289e-07
1.016935e-06 -2.377637e-07 -5.394379e-07 2.537497e-07 6.651160e-09 6.984218e-08
-2.111854e-06 2.392886e-06 5.734125e-06 4.351993e-06 -9.280241e-07 -7.841144e-07
3.115363e-06 -1.120485e-06 1.598967e-06 -3.280497e-06 5.308745e-09 -7.785327e-07
-2.930305e-06 -1.434576e-07 1.332176e-05 5.069428e-06 -2.138989e-06 4.697270e-07
-3.827885e-06 4.032404e-06 7.510678e-06 4.180633e-06 -2.026927e-06 -6.179929e-07
-4.132026e-06 2.783404e-06 9.267550e-06 4.974996e-06 -2.428017e-06 -9.786591e-07
-3.925585e-06 2.512907e-06 7.705565e-06 3.752199e-06 -4.513247e-07 3.179217e-08
-4.274985e-07 1.376501e-06 -7.637873e-07 7.785259e-08 -1.267724e-07 -5.589674e-08
-3.827008e-07 1.367149e-06 -8.094103e-07 1.094672e-07 -1.981116e-07 -3.281540e-08
-4.270369e-07 1.692340e-06 -9.053857e-07 1.577128e-07 -2.333868e-08 -4.153038e-08
-4.501027e-07 1.508181e-06 -8.890627e-07 5.069934e-08 -1.894955e-08 -1.240099e-09
-4.767680e-07 1.434801e-06 -7.819489e-07 2.330719e-08 -1.314710e-07 -2.964932e-08
-4.269125e-07 1.586579e-06 -8.688633e-07 1.462955e-07 -6.199028e-08 -5.399293e-08
3.517512e-07 1.217021e-06 -9.434260e-07 -8.350157e-07 1.552688e-07 -1.018498e-07
1.371048e-07 1.217702e-06 -9.036760e-07 -8.202834e-07 2.972978e-07 -2.130817e-07
1.138774e-07 9.344500e-07 -8.987486e-07 -5.621448e-07 2.732740e-07 -1.155290e-07
2.778509e-08 1.294486e-06 -9.515141e-07 -8.202550e-07 1.111524e-07 -1.511147e-07
2.190761e-06 -5.409708e-07 -8.761155e-07 -9.223035e-08 -1.002224e-08 1.017849e-07
2.358588e-06 -5.613614e-07 -8.757955e-07 2.830054e-07 5.293631e-09 2.787497e-07
1.825459e-06 -4.261734e-07 -8.439910e-07 -7.650725e-08 -4.613141e-08 1.480814e-07
1.585262e-06 -4.230765e-07 -7.107606e-07 -1.375669e-07 -1.532898e-08 1.937723e-07
1.262478e-06 -3.433898e-07 -6.325244e-07 -1.350754e-07 -4.459809e-09 1.903594e-07
-6.190965e-07 2.265475e-06 -9.678935e-07 1.616113e-07 -5.294712e-07 -9.616902e-08
1.722411e-06 -5.448107e-07 -7.510195e-07 8.539373e-08 -6.112911e-08 2.975121e-07
-6.301227e-08 5.504372e-07 -2.302714e-07 -5.191211e-08 1.261401e-07 -4.025499e-08
1.843132e-06 -5.711127e-07 -7.808240e-07 2.839803e-08 7.098793e-08 1.831366e-07
6.316517e-07 -8.434925e-08 -2.466800e-07 -7.185361e-08 -1.219646e-08 4.753645e-08
6.034637e-07 -9.236467e-08 -2.289391e-07 -2.757009e-08 -5.565707e-09 4.010151e-08
-1.124674e-07 6.981493e-07 -3.300050e-07 4.857027e-08 9.355582e-08 1.001605e-07
6.244803e-07 -9.435228e-08 -2.495599e-07 -3.885092e-08 -7.042895e-09 3.108349e-08
5.981225e-07 -8.773077e-08 -2.122796e-07 -4.659029e-08 -8.021092e-09 3.713579e-08
5.865951e-07 -1.003774e-07 -2.301081e-07 -3.741523e-08 -1.904308e-08 5.824728e-08
3.502640e-06 -9.422932e-07 -1.654848e-06 -2.244955e-07 1.260414e-07 3.874427e-08
6.113067e-07 -1.118928e-07 -2.400584e-07 -2.997218e-08 -6.533540e-09 6.023275e-08
-4.202400e-06 4.381169e-06 5.263770e-06 2.701316e-06 2.703602e-07 3.784908e-07
-2.022517e-06 2.799110e-06 2.785319e-06 3.512434e-06 -1.963468e-07 -3.988164e-08
-2.486433e-06 4.178253e-06 2.422829e-06 2.464343e-06 2.808693e-07 -1.604884e-08
-2.096108e-06 3.139545e-06 3.140926e-06 3.769202e-06 -5.424491e-08 -2.060396e-07
-4.601270e-08 4.833803e-08 -3.688299e-07 1.055370e-08 -5.686584e-07 -2.555162e-07
7.212842e-07 1.807537e-07 -7.617645e-07 7.501857e-07 1.167292e-07 1.527165e-07
1.148153e-06 5.038988e-08 -7.599438e-07 8.570108e-07 1.004300e-07 2.507341e-07
1.081697e-06 8.162545e-08 -8.546939e-07 9.817133e-07 1.497975e-07 2.451218e-07
8.466793e-07 1.822399e-07 -6.954998e-07 7.317642e-07 1.280244e-07 5.760617e-08
1.081630e-06 1.420147e-08 -8.433145e-07 1.008255e-06 1.495097e-07 2.561045e-07
8.504583e-07 1.175221e-07 -7.871286e-07 7.147441e-07 5.081525e-08 3.530490e-08
1.210271e-06 2.435473e-07 -7.871285e-07 9.581291e-07 8.496335e-08 1.331884e-07
-1.354138e-06 3.960107e-07 9.103091e-06 5.439108e-06 -1.257370e-07 2.899381e-07
-3.035521e-06 1.767799e-07 1.410179e-05 5.848761e-06 1.534745e-06 3.756439e-06
-5.420259e-06 1.649333e-07 2.147846e-05 5.658903e-06 1.490139e-06 8.134275e-07
-2.958248e-06 1.701069e-06 9.172666e-06 5.049927e-06 -1.674402e-07 1.053468e-07
1.450094e-06 8.072284e-07 -1.055109e-06 1.890592e-06 -2.955323e-08 -8.576306e-09
-3.598244e-06 3.922400e-06 6.227650e-06 3.276645e-06 2.187846e-06 -5.101905e-07
3.298798e-06 -1.541226e-06 -2.387835e-07 -7.042946e-07 -3.797402e-08 -3.765926e-08
3.722926e-06 -1.257856e-06 -6.356437e-07 -5.092288e-07 -2.112211e-07 6.416025e-07
2.743311e-06 -8.935462e-07 -4.222825e-07 -8.609098e-07 -1.001181e-07 3.714344e-07
2.863265e-06 -1.243829e-06 -5.707657e-07 -3.932395e-07 -8.971402e-08 3.060696e-07
2.425338e-06 -9.365495e-07 -4.729840e-07 1.111240e-06 7.356637e-08 4.530887e-07
2.064747e-06 -5.151865e-07 -8.499022e-07 9.380453e-07 9.210335e-09 6.119873e-08
2.355333e-06 -4.278125e-07 -8.633875e-07 1.280387e-06 1.843440e-07 3.853780e-07
2.216496e-06 -4.302540e-07 -6.061232e-07 1.302464e-06 1.814510e-07 2.856537e-07
2.196955e-06 -4.375209e-07 -8.575057e-07 8.175398e-07 -1.844425e-08 1.350221e-07
2.235566e-07 2.364475e-07 -2.126995e-07 5.927478e-08 1.787473e-08 2.361036e-08
2.778276e-07 2.282337e-07 -1.851265e-07 7.253066e-08 2.311281e-08 2.249384e-08
-1.871573e-07 9.038821e-07 -5.257530e-07 8.286734e-08 2.895123e-08 -4.598119e-09
2.500057e-07 2.455562e-07 -1.890113e-07 3.773211e-08 6.701210e-09 1.240862e-08
1.057611e-06 6.449768e-07 -1.184874e-06 1.165019e-06 -8.436804e-08 -8.414245e-08
2.359150e-07 2.348616e-07 -1.952774e-07 6.448424e-08 1.858547e-08 1.828401e-09
4.622614e-06 -2.998204e-06 6.321071e-07 2.040440e-06 -2.524684e-07 4.213492e-07
4.917207e-06 -2.657339e-06 2.415350e-06 2.459014e-06 4.700217e-09 -2.911933e-07
4.310333e-06 -5.208047e-06 4.115370e-06 1.047490e-06 4.252937e-07 -9.241754e-08
1.816970e-06 1.239453e-07 9.826020e-07 -3.414878e-06 1.126565e-07 2.297693e-07
2.300672e-06 -1.343921e-06 3.568139e-06 -4.216882e-06 -1.774014e-08 -6.103735e-07
2.374899e-06 -6.734984e-07 1.120671e-06 -3.120616e-06 -4.669191e-08 3.928429e-07
2.222949e-06 -4.435240e-07 7.880979e-07 -3.532741e-06 -4.757435e-07 -6.592455e-08
2.522978e-06 -1.329153e-06 4.530767e-06 -4.135129e-06 1.214299e-06 4.290485e-07
-3.303876e-07 8.078229e-07 -5.759993e-07 -8.606215e-08 -2.697486e-07 8.012637e-08
-3.252736e-07 1.045541e-06 -5.648998e-07 -1.249629e-07 -3.332876e-07 9.323786e-08
8.106913e-07 6.523231e-07 2.091100e-07 2.543187e-06 6.825079e-07 6.476155e-07
-3.900179e-07 8.289873e-07 -5.268298e-07 -1.327622e-07 -4.914459e-07 9.057734e-08
-2.709708e-07 1.008700e-06 -5.065646e-07 -1.802692e-07 -2.606998e-07 1.173612e-07
-3.984023e-07 1.126385e-06 -7.112428e-07 -2.462785e-07 -4.544798e-07 1.059561e-07
-3.882129e-07 1.193838e-06 -7.058190e-07 -1.624939e-07 -4.979234e-07 9.469761e-08
-4.057517e-07 1.680160e-06 -7.146702e-07 -3.166724e-07 -4.834572e-07 1.186157e-07
1.814565e-07 1.321555e-06 -7.456116e-07 1.461951e-06 -4.731116e-07 -2.526965e-07
1.614736e-07 1.139711e-06 -1.101341e-06 9.171674e-07 -7.429823e-08 5.192320e-09
1.043742e-07 1.324941e-06 -9.637321e-07 1.007443e-06 -2.472359e-07 -1.281989e-07
3.270074e-07 1.282071e-06 -9.030869e-07 1.302378e-06 -3.056025e-07 -2.369728e-07
4.662936e-07 9.763050e-07 -1.024463e-06 9.547745e-07 -3.989692e-07 -1.302087e-07
5.941912e-07 1.310401e-06 -1.127679e-06 1.310959e-06 -1.581257e-07 -2.029392e-07
1.740077e-07 1.183170e-06 -8.192726e-07 9.540123e-07 3.082667e-07 2.601109e-07
2.231251e-07 8.053323e-07 -7.165996e-07 7.152334e-07 5.908012e-08 1.309601e-07
3.112582e-07 1.120454e-06 -7.883459e-07 1.012591e-06 1.598601e-07 8.674211e-08
2.293024e-07 6.761274e-07 -6.731372e-07 6.825569e-07 2.514387e-07 8.160844e-08
2.068736e-07 7.722027e-07 -7.832888e-07 7.846332e-07 1.231917e-07 8.273505e-08
1.084887e-06 -1.121837e-07 -6.038185e-07 -4.938952e-07 -7.435168e-08 1.736505e-07
1.629887e-06 -3.067842e-07 -8.343921e-07 -5.618160e-07 -2.038852e-08 1.548101e-07
1.294050e-06 -2.952399e-07 -7.102357e-07 -4.550503e-07 -5.508581e-08 2.894049e-07
1.049284e-06 -7.901581e-08 -6.287637e-07 -5.863409e-07 -8.617486e-08 2.715157e-07
1.188105e-06 -1.626574e-07 -6.217095e-07 -3.946887e-07 -9.635975e-08 2.189723e-07
1.258085e-06 -1.145749e-07 -7.186150e-07 -5.726438e-07 -9.185829e-08 1.441646e-07
1.268385e-06 -2.923552e-07 -6.205780e-07 -4.279059e-07 -7.938648e-08 2.405728e-07
3.806564e-07 2.015830e-07 -6.569700e-07 -8.813524e-08 5.108370e-07 -6.540523e-08
1.077620e-06 3.030675e-08 -9.328788e-07 -4.790295e-08 5.862006e-07 -1.157405e-07
1.048877e-06 -2.757375e-07 -4.908274e-07 -1.148397e-07 -2.822008e-08 4.449958e-08
9.407698e-07 1.849264e-08 -8.768972e-07 -1.385152e-07 6.079741e-07 -1.803491e-07
-1.290661e-07 -2.190651e-08 -3.626969e-07 -9.380768e-08 7.147343e-07 -5.035847e-07
-3.986223e-08 -3.591917e-07 5.726314e-08 3.750377e-08 8.384631e-07 -8.002953e-07
1.359623e-06 5.391390e-08 -8.268591e-07 -6.830858e-07 7.534914e-07 -5.107262e-07
1.057055e-06 6.756355e-08 -9.601555e-07 -5.246851e-07 5.547133e-07 -3.315736e-07
8.741509e-07 2.198681e-08 -7.289710e-07 -3.455211e-07 7.302253e-07 -3.734042e-07
9.953494e-07 -2.097698e-07 -8.583225e-07 -1.112808e-07 5.257211e-07 -7.045184e-08
8.409130e-07 -1.320457e-07 -4.578508e-07 -5.080437e-08 5.887132e-07 1.747193e-08
3.235829e-07 -2.303934e-07 -4.574730e-07 2.303773e-07 6.180729e-07 -1.176562e-07
2.008760e-07 1.412589e-06 -1.066369e-06 1.504684e-06 -1.873074e-07 -1.464598e-07
5.216565e-07 1.870971e-06 -1.111705e-06 1.931196e-06 -8.422604e-08 -1.227439e-07
3.787844e-07 7.562456e-08 -1.505548e-07 -4.490827e-09 -1.540998e-09 3.670053e-09
7.333487e-08 1.713456e-06 -8.710563e-07 1.143650e-06 -3.930777e-07 -7.299451e-08
-7.330306e-09 2.422297e-06 -1.009904e-06 1.729824e-06 -1.808968e-07 -5.783195e-08
1.294667e-08 1.896970e-06 -5.652465e-07 2.059487e-06 -4.980745e-07 -2.884056e-07
-8.193058e-09 2.401312e-06 -1.012076e-06 1.724375e-06 -6.442932e-07 -2.533030e-07
3.333267e-07 5.644552e-07 -6.841802e-07 6.252360e-07 1.012702e-07 6.984387e-08
7.551276e-07 5.781806e-07 -7.410313e-07 9.710751e-07 1.238329e-07 1.003303e-07
4.478891e-07 6.216673e-07 -7.232347e-07 8.437437e-07 2.421819e-07 1.416624e-07
5.140456e-07 3.806539e-07 -7.378019e-07 7.226839e-07 9.679140e-08 8.855185e-08
3.683634e-07 3.540143e-07 -5.669038e-07 4.773686e-07 6.076395e-08 5.426055e-08
-1.961473e-06 7.923944e-07 9.228098e-06 -5.485233e-06 6.890068e-07 -7.824321e-07
-6.518475e-06 2.828661e-06 1.246971e-05 -4.398548e-06 3.290243e-06 -1.556970e-06
-6.397583e-06 2.161124e-06 1.460182e-05 -4.340896e-06 5.969637e-07 -3.254088e-07
-3.179729e-06 3.219074e-06 5.315004e-06 -4.184535e-06 2.893814e-07 3.964958e-07
3.085877e-06 -7.464016e-07 -2.015245e-07 -2.254330e-06 2.190864e-07 -4.176892e-07
2.222231e-06 -1.860567e-07 1.106120e-06 -3.160459e-06 -9.406931e-08 6.968076e-08
3.218857e-06 -1.615291e-06 1.606443e-06 -2.751508e-06 -2.877652e-08 6.042166e-07
3.070424e-06 -7.464016e-07 -8.033756e-07 -1.989745e-06 -2.801837e-08 -8.825966e-08
2.910632e-06 -8.248977e-07 -9.577096e-07 -8.393361e-07 4.996721e-07 -8.443146e-07
1.241685e-06 -3.152605e-07 -8.690690e-07 -5.248647e-07 5.638514e-07 -3.859577e-07
1.087666e-06 3.630872e-08 -6.968633e-07 -7.766781e-07 7.577214e-07 -3.163201e-07
1.647338e-06 2.094733e-08 -1.136968e-06 -1.374941e-06 4.410330e-07 -2.216254e-07
5.917575e-07 -1.067903e-07 -1.995775e-07 2.618388e-09 1.700872e-09 1.018349e-08
1.097290e-06 1.008986e-07 -5.818482e-07 -1.232439e-06 9.406505e-07 -7.677794e-07
-2.480825e-07 1.224254e-06 -7.536645e-07 2.214833e-07 -4.715219e-08 -6.988846e-08
-5.123946e-08 8.409319e-07 -5.877147e-07 7.043601e-08 -7.193081e-08 -9.764558e-08
-3.733144e-08 7.251216e-07 -5.914058e-07 1.065887e-07 -9.675635e-08 -5.470591e-08
-8.154221e-10 8.587839e-07 -6.457951e-07 1.889245e-07 -1.206142e-07 -1.115475e-07
-6.249091e-08 7.710046e-07 -6.039527e-07 1.070407e-07 -1.079988e-07 -7.443937e-08
-1.052073e-07 6.405928e-07 -4.027841e-07 7.035780e-08 -1.596959e-07 -1.300362e-07
-6.437779e-08 6.868916e-07 -4.646504e-07 5.213255e-08 -4.165901e-08 -8.624408e-08
-6.423805e-08 7.637686e-07 -5.312125e-07 3.859794e-08 -1.510941e-08 -7.788477e-08
-1.615163e-08 8.457751e-07 -6.351847e-07 8.886193e-08 -2.615623e-08 -5.314970e-08
-2.677100e-07 9.340873e-07 -4.336244e-07 -4.387222e-09 1.114341e-07 3.414969e-08
-2.701902e-07 7.338480e-07 -4.186006e-07 1.635625e-09 1.245812e-07 -1.670669e-08
-3.781555e-07 1.473824e-06 -7.279226e-07 -2.773453e-08 9.093031e-08 -1.302905e-08
-3.370097e-07 7.505177e-07 -4.403384e-07 3.916286e-08 3.769171e-07 1.808861e-08
-2.510846e-07 7.342680e-07 -3.832454e-07 5.192224e-09 1.301596e-07 9.878185e-09
-2.837250e-07 1.015593e-06 -4.891707e-07 2.121001e-08 1.278251e-07 1.606266e-08
1.184761e-06 2.311975e-07 -8.179150e-07 -1.242605e-06 -2.887947e-07 2.673930e-07
8.029474e-07 2.500179e-07 -8.557641e-07 -9.383777e-07 -1.146715e-07 1.284430e-07
1.068600e-06 1.707358e-07 -7.989184e-07 -9.295081e-07 -2.443530e-08 1.884166e-07
1.588607e-06 1.426683e-07 -8.439939e-07 -1.164108e-06 -1.433228e-07 2.637458e-07
1.185966e-06 4.628327e-07 -8.612563e-07 -1.249240e-06 -1.306787e-07 1.300110e-07
-1.973225e-05 -1.972609e-05 6.594662e-05 5.054810e-07 1.138725e-06 1.874758e-06
-1.852321e-05 -1.899110e-05 6.793226e-05 -5.617504e-07 1.155033e-05 -6.933360e-06
-1.577403e-05 -5.682496e-06 3.923416e-05 -2.792982e-07 5.512741e-06 -1.900541e-06
-1.674455e-05 -1.122895e-05 6.689028e-05 5.381184e-06 4.890406e-06 5.383291e-06
-1.788108e-05 -5.425120e-06 4.679987e-05 1.175520e-06 7.766160e-06 -3.727657e-07
2.807619e-07 6.936825e-07 -7.344968e-07 -6.681082e-07 -1.851082e-07 2.057652e-07
4.145608e-07 4.494651e-07 -6.560536e-07 -5.527477e-07 -1.343688e-07 1.618219e-07
2.945312e-07 6.230996e-07 -6.465679e-07 -5.609669e-07 -1.913926e-07 9.036557e-08
2.951157e-07 7.237799e-07 -6.211835e-07 -5.622170e-07 -1.013372e-07 8.255213e-08
5.147625e-07 5.699003e-07 -6.689235e-07 -7.239308e-07 -9.846987e-08 6.840508e-08
-2.083298e-07 9.264856e-07 -5.063176e-07 -4.881783e-08 -1.581627e-09 -2.674451e-08
1.608228e-06 -3.701099e-08 2.889762e-07 -2.718269e-06 -4.415527e-07 5.847630e-07
1.593227e-06 4.091009e-07 -2.471309e-07 -2.573308e-06 -2.087583e-07 2.200859e-07
1.615967e-06 2.022509e-07 -1.993082e-07 -2.414266e-06 -2.308642e-07 3.474329e-07
-2.419943e-07 9.881146e-07 -5.227140e-07 -2.718290e-08 2.721579e-16 -5.006048e-09
1.144008e-06 4.242102e-07 -1.279322e-06 6.619915e-07 -2.114520e-07 1.612801e-08
1.490707e-06 8.072284e-07 -1.171711e-06 1.608349e-06 -1.330584e-07 -1.601075e-07
1.221297e-06 8.892147e-07 -1.073949e-06 1.215905e-06 -3.792187e-07 -2.886142e-07
6.889606e-07 8.669173e-07 -1.044558e-06 1.329374e-06 -4.171529e-07 -2.972147e-07
1.004118e-06 9.050951e-07 -1.165505e-06 1.143816e-06 -2.093714e-07 -1.213624e-07
1.449621e-06 3.260962e-07 -1.170727e-06 8.996951e-07 -4.317025e-07 -3.020488e-07
-3.910746e-07 1.128583e-06 -5.349480e-07 4.258005e-08 -3.560736e-07 -6.621143e-08
-3.923541e-07 1.133674e-06 -5.948055e-07 3.369964e-08 -1.931498e-07 -6.032927e-08
-3.919863e-07 1.211414e-06 -6.903779e-07 3.920166e-08 -3.991459e-08 -4.655770e-08
-3.497028e-07 1.336337e-06 -7.589254e-07 3.690125e-08 -1.223064e-07 -7.665329e-08
-4.067959e-07 1.349364e-06 -7.865153e-07 1.646695e-07 -1.885586e-07 -5.278222e-08
-3.956640e-07 1.254999e-06 -6.643428e-07 1.339023e-07 -5.223961e-07 -1.375957e-07
2.595174e-06 -9.835726e-07 1.054807e-06 -3.720562e-06 4.392850e-07 -2.462370e-07
1.714290e-06 8.208649e-07 1.535931e-08 -3.252235e-06 4.044124e-07 -4.770709e-07
1.645102e-06 6.853699e-07 -7.524030e-07 -2.320292e-06 3.504271e-07 -3.895154e-07
2.020286e-06 2.543431e-07 -7.044892e-07 -2.050788e-06 4.019558e-07 -2.960285e-07
1.272515e-06 7.578793e-07 -1.229421e-07 -2.518346e-06 9.201316e-08 -1.997149e-07
5.752997e-07 4.015952e-08 -3.965065e-07 2.646519e-07 3.520281e-08 5.751135e-08
5.791693e-07 5.402012e-08 -3.965629e-07 2.533729e-07 3.456058e-08 5.871040e-08
1.868747e-07 3.136243e-07 -2.055035e-07 4.127322e-08 1.940216e-08 3.680149e-08
7.438224e-07 1.248980e-07 -6.066882e-07 4.907072e-07 5.173011e-08 4.235790e-08
6.573059e-07 5.735358e-08 -4.622252e-07 3.503050e-07 3.282424e-08 1.297318e-07
-7.717533e-08 1.080564e-06 -6.579411e-07 -4.112001e-07 1.564698e-07 -7.126880e-08
6.699693e-07 5.574886e-08 -3.938639e-07 3.340577e-07 4.238656e-08 7.753097e-08
4.283154e-07 4.259983e-08 -1.504272e-07 -3.289249e-08 -9.729621e-09 1.292239e-08
4.140839e-07 4.588748e-08 -1.564606e-07 -3.034915e-08 -9.678396e-09 8.081299e-09
4.091727e-07 4.344387e-08 -1.479611e-07 -2.639649e-08 -6.289220e-09 7.022691e-09
4.010258e-07 5.383288e-08 -1.692582e-07 -4.468818e-08 -9.323480e-09 1.952733e-08
4.033879e-07 5.501032e-08 -1.606114e-07 -4.119756e-08 -1.383833e-08 1.446140e-08
4.594438e-06 -2.572472e-06 2.045711e-07 -1.196687e-06 1.857218e-08 -4.590622e-07
4.551983e-06 -3.609126e-06 3.212481e-06 1.622464e-06 9.830184e-08 1.169345e-06
4.443014e-06 -2.600220e-06 -5.642563e-07 2.578785e-08 -2.293395e-07 -6.342456e-07
5.593887e-06 -3.195051e-06 2.951460e-06 -2.695377e-07 3.989251e-07 -5.185495e-07
5.096673e-06 -2.308963e-06 -1.412309e-07 -1.107423e-06 -6.500144e-08 -4.681788e-08
6.019167e-06 -3.984136e-06 7.629761e-07 -6.439939e-07 -8.606012e-08 1.292378e-08
5.276608e-06 -2.554283e-06 -1.092225e-07 2.444704e-07 -2.174443e-07 -6.452310e-07
3.800779e-07 7.746294e-08 -1.481967e-07 -2.358192e-08 -6.116684e-09 9.674275e-09
3.392014e-07 1.411479e-07 -1.873915e-07 -1.713571e-08 -2.951965e-09 1.412895e-08
3.869652e-07 7.473771e-08 -1.463018e-07 -1.544902e-08 -6.323504e-09 2.575781e-09
3.360496e-07 1.148387e-07 -1.665474e-07 -3.544025e-08 -7.398601e-09 1.816417e-08
3.587530e-07 1.220115e-07 -1.877763e-07 -3.612122e-08 -6.469917e-09 2.201447e-09
3.800619e-07 8.551291e-08 -1.475833e-07 -2.065424e-08 -3.886495e-09 1.055480e-08
3.752664e-07 8.740198e-08 -1.547487e-07 -2.782515e-08 -1.197584e-08 3.492227e-09
2.774988e-06 -1.233097e-06 -8.369105e-07 -3.288114e-07 9.043053e-08 1.301378e-07
3.705019e-06 -1.521315e-06 -5.760434e-07 1.557781e-07 9.418898e-08 7.341352e-07
3.230156e-06 -1.352988e-06 -6.805043e-07 2.321889e-07 1.090241e-07 4.130468e-07
2.964123e-06 -1.060071e-06 -8.220006e-07 2.742190e-07 1.769136e-08 3.499735e-07
2.942921e-06 -1.350462e-06 -5.861041e-07 1.855031e-07 -3.538551e-08 3.370867e-07
1.517586e-07 2.718845e-06 -5.620084e-07 -2.560342e-06 3.359567e-07 -2.528665e-07
4.266662e-07 2.223353e-06 1.741129e-07 -3.526147e-06 -2.352343e-07 -2.267045e-08
-6.880799e-07 2.703766e-06 4.811199e-08 -2.273076e-06 5.222382e-07 -1.290871e-07
1.168495e-08 2.895916e-06 -5.608901e-07 -2.453109e-06 4.067264e-07 -1.353800e-07
-7.597044e-08 1.679035e-06 7.206130e-07 -2.866025e-06 6.317565e-07 -3.205386e-07
3.166702e-07 5.038727e-07 -5.784410e-07 5.405029e-07 1.830010e-07 9.332069e-08
3.262548e-07 5.644606e-07 -6.796910e-07 6.231824e-07 1.570823e-07 1.656451e-07
5.145749e-07 4.516029e-07 -6.619359e-07 6.800699e-07 1.830102e-08 1.191151e-07
4.202473e-07 4.785837e-07 -7.303254e-07 6.798738e-07 1.413337e-08 3.844941e-08
3.796042e-07 3.582642e-07 -4.864767e-07 4.312695e-07 1.422811e-07 5.985750e-08
4.490261e-07 4.669647e-09 -1.682420e-07 2.505080e-08 6.345608e-09 1.252417e-08
4.275762e-07 2.857384e-08 -1.790532e-07 3.980800e-08 6.790931e-09 1.896829e-08
4.623072e-07 1.269714e-08 -1.817574e-07 5.592142e-08 2.408938e-08 2.868921e-08
4.661566e-07 6.802600e-09 -1.759682e-07 3.259137e-08 2.600175e-09 4.766179e-09
4.694273e-07 1.113929e-08 -1.824891e-07 5.284511e-08 -4.821149e-10 1.857643e-08
-9.311783e-07 3.245498e-06 -8.249573e-07 -8.411802e-07 -4.319421e-07 5.918052e-08
-1.424955e-06 3.510921e-06 -7.260122e-07 -2.251028e-07 -3.973771e-07 9.846371e-08
-1.501515e-07 -3.531185e-07 3.236413e-09 1.046856e-07 -7.085068e-08 -7.183069e-07
-1.605428e-06 4.307600e-06 -6.485446e-08 -9.467267e-07 -4.718477e-07 6.836948e-08
-2.879104e-06 4.319355e-06 1.707300e-07 -6.184872e-07 -5.201311e-07 -5.885676e-08
-1.458036e-06 3.652541e-06 -4.903566e-07 -8.206322e-07 -8.292610e-07 2.557828e-07
-9.558636e-07 2.949842e-06 -8.812005e-07 -3.254476e-07 -5.597525e-08 5.057626e-08
-1.420330e-06 3.077939e-06 -5.424754e-07 -2.113643e-07 -4.320252e-07 -4.217728e-08
3.996407e-07 8.537297e-07 -7.385879e-07 -9.064894e-07 -2.325252e-07 2.109372e-07
-2.273913e-07 8.409359e-07 -4.337750e-07 -1.940435e-08 2.497265e-08 -5.011040e-08
5.271642e-07 5.742264e-07 -7.633557e-07 -8.074147e-07 -5.373105e-08 1.487700e-07
-2.857253e-07 1.167280e-06 -5.948049e-07 -2.305728e-07 1.587749e-07 -5.407495e-08
5.247186e-07 5.607988e-07 -6.542052e-07 -7.200956e-07 -1.687146e-07 1.782808e-07
2.907264e-07 6.962614e-07 -7.835127e-07 -6.731779e-07 -1.152253e-07 7.028321e-08
2.585683e-07 5.823863e-07 -5.692687e-07 5.022942e-07 7.783350e-08 -3.176288e-09
3.142935e-07 5.541315e-07 -5.096068e-07 5.190288e-07 8.946473e-08 5.497545e-08
2.186320e-07 6.277689e-07 -5.926665e-07 4.642833e-07 1.067849e-07 1.168438e-07
3.699634e-07 4.894064e-07 -5.192010e-07 5.407220e-07 1.768773e-07 1.508194e-07
3.772326e-07 3.887173e-07 -4.993014e-07 4.450261e-07 8.674986e-10 8.249474e-08
3.238033e-07 1.312567e-07 -1.396364e-07 5.903966e-09 9.188244e-10 -8.979569e-10
3.363697e-07 1.214935e-07 -1.409258e-07 8.722315e-09 1.410687e-09 1.226840e-09
3.300164e-07 1.215053e-07 -1.376336e-07 2.939155e-09 6.569229e-10 5.566959e-10
3.264818e-07 1.211396e-07 -1.420250e-07 1.157635e-08 -7.247386e-10 3.464424e-10
-8.767353e-07 2.094549e-06 -8.943606e-07 1.099957e-07 9.131327e-08 3.806268e-08
-7.748159e-07 2.337447e-06 -9.178730e-07 4.649484e-07 2.268376e-07 8.854196e-08
-8.771128e-07 2.503641e-06 -9.239713e-07 1.375202e-07 2.613946e-07 6.446137e-08
-5.479477e-07 2.097237e-06 -8.974195e-07 2.048035e-07 7.776405e-08 2.874696e-08
-8.991307e-06 3.826725e-06 1.321912e-05 -1.440735e-06 -3.185875e-06 1.404037e-06
-1.483090e-05 -3.181562e-06 2.245276e-05 2.449089e-06 -1.205988e-05 1.459172e-06
-1.472970e-05 -8.169270e-06 4.207758e-05 -2.984371e-06 -4.736540e-07 5.055641e-06
4.107885e-06 -3.242435e-06 2.760963e-06 1.763498e-06 -2.569017e-07 -5.279543e-07
-9.413852e-06 3.102575e-06 1.785976e-05 2.287287e-07 -3.971653e-06 -1.122792e-06
-1.021377e-05 -8.537018e-07 2.973794e-05 -4.093127e-06 -4.068815e-06 1.491361e-06
-1.110412e-05 2.890631e-06 2.125707e-05 9.331552e-07 -3.740625e-06 -3.493518e-07
-3.890767e-07 2.303810e-06 -9.262808e-07 -1.076767e-06 4.029826e-07 -1.422987e-07
-6.412428e-07 2.297017e-06 -6.985929e-07 -1.088138e-06 3.437316e-07 -1.338155e-07
-1.184506e-06 2.778136e-06 -5.982253e-07 -6.733112e-07 3.340049e-07 -9.095340e-08
-1.155095e-06 3.380583e-06 -6.416950e-07 -1.014553e-06 9.148401e-07 -1.999060e-07
-1.178760e-06 3.148656e-06 -8.130167e-07 -7.525453e-07 5.145171e-07 -5.029844e-08
1.367529e-07 3.666742e-07 -3.506222e-07 -1.493749e-07 -1.943969e-07 1.864217e-07
4.114867e-08 3.734123e-07 -3.181143e-07 -1.861682e-07 -3.253962e-07 3.077494e-07
6.031851e-08 4.023615e-07 -2.056235e-07 -1.284906e-07 -1.908244e-07 1.976481e-07
1.293439e-07 4.672143e-07 -3.500742e-07 -2.970595e-07 -2.474517e-07 1.868327e-07
1.805582e-07 2.848587e-07 -1.858619e-07 -6.434518e-08 -7.043156e-08 9.795742e-08
1.511503e-07 3.514559e-07 -3.289411e-07 -1.535826e-07 -1.773495e-07 1.659453e-07
7.582593e-08 3.322672e-07 -2.775870e-07 -1.601834e-07 -2.217726e-07 2.512318e-07
1.904035e-07 1.726327e-07 -2.234988e-07 -1.068733e-07 -1.551898e-07 1.350985e-07
5.483325e-07 2.008169e-07 -5.761939e-07 -4.537204e-07 -8.042435e-08 1.000990e-07
4.814545e-07 2.749174e-07 -4.998120e-07 -3.937505e-07 -6.720102e-08 4.237419e-10
5.734234e-07 4.078118e-07 -5.454802e-07 -5.554871e-07 -1.046360e-07 1.198346e-07
5.456845e-07 2.308197e-07 -5.027763e-07 -4.408164e-07 -1.893188e-08 1.057780e-07
4.164839e-07 2.752423e-07 -5.462488e-07 -4.035534e-07 -8.397297e-08 1.026452e-07
-1.017297e-06 1.623551e-06 7.500032e-06 5.240131e-06 -2.165132e-06 -2.468050e-06
-5.209545e-07 1.312928e-06 2.255078e-06 3.896170e-06 -1.136741e-07 4.697319e-07
2.568832e-06 -1.036365e-06 3.192782e-06 3.163503e-06 8.744952e-07 -8.769292e-07
-7.452684e-08 8.621152e-07 5.169773e-06 4.648510e-06 -1.378754e-06 -7.556314e-07
2.228532e-06 -2.827105e-07 3.546755e-06 4.560407e-06 8.464223e-08 4.550920e-07
-1.943897e-05 -1.438879e-05 5.702816e-05 7.264140e-07 -1.509472e-06 2.595357e-06
-2.116399e-05 -1.801938e-05 6.183905e-05 -1.856900e-06 -5.178744e-06 -9.971435e-07
-1.447054e-05 -2.433694e-05 6.118245e-05 9.635913e-07 -2.404513e-06 -1.132045e-05
-1.023599e-05 -1.555459e-05 4.592019e-05 3.970466e-06 -1.584077e-06 -6.976088e-06
-3.330233e-07 7.559049e-07 -4.238101e-07 3.869943e-08 -5.046345e-07 -1.517251e-07
-3.872022e-07 8.417099e-07 -3.394299e-07 -7.361596e-10 -6.483962e-07 4.069567e-09
-4.262470e-07 8.066856e-07 -4.517598e-07 6.657167e-09 -4.990439e-07 -1.276852e-07
-3.478076e-07 8.385434e-07 -3.339604e-07 1.206051e-08 -2.482231e-07 -3.009656e-08
2.303689e-07 3.204465e-07 -4.122935e-07 5.221911e-08 -4.923615e-07 -1.356534e-07
-3.304542e-07 7.703877e-07 -4.280660e-07 -1.215077e-09 -5.175722e-07 -7.485045e-08
-3.370846e-07 8.264743e-07 -3.107798e-07 2.646198e-08 -2.445607e-07 -8.783474e-08
-9.928111e-07 2.698662e-06 -9.552204e-07 8.293990e-07 -1.864971e-07 5.391732e-08
-6.572762e-07 2.312285e-06 -1.016791e-06 6.901174e-07 -2.749299e-07 -9.781022e-08
-8.701317e-07 2.233850e-06 -8.491384e-07 3.454898e-07 -4.023047e-07 -7.712777e-08
-6.662788e-07 2.537357e-06 -9.406713e-07 7.846750e-07 -1.414285e-07 -2.949867e-08
4.151406e-07 5.443633e-08 -1.693488e-07 3.985367e-08 1.691352e-09 -6.704150e-10
5.246423e-07 -7.331753e-09 -2.074748e-07 -7.911567e-08 -6.499857e-09 1.682742e-08
5.142651e-07 -4.147567e-09 -1.810533e-07 -4.191454e-08 -5.736372e-09 6.022621e-09
5.054704e-07 -2.034252e-08 -1.853994e-07 -2.162164e-08 -1.131462e-08 9.425066e-09
4.760391e-07 -5.767160e-10 -1.823811e-07 -2.296055e-08 6.650502e-09 -1.658948e-09
4.880699e-07 4.835404e-09 -1.855641e-07 -5.936429e-08 -1.126112e-08 2.600369e-08
4.652578e-07 1.990460e-08 -1.897909e-07 -6.055669e-08 1.872178e-09 1.052399e-08
7.158704e-07 9.620729e-07 -1.082530e-06 1.276995e-06 -4.533686e-07 -2.872545e-07
6.741323e-07 5.189203e-07 -9.586385e-07 5.318237e-07 -3.816316e-07 -2.137965e-07
6.118514e-07 7.533401e-07 -9.620460e-07 5.929134e-07 -3.939081e-07 -1.991983e-07
3.083422e-07 7.527601e-07 -9.945953e-07 6.242834e-07 -3.796084e-07 -3.049153e-07
9.680858e-07 6.092747e-07 -1.105800e-06 7.073602e-07 -3.828133e-07 -2.125936e-07
7.325926e-07 1.070316e-06 -1.120010e-06 1.290559e-06 -4.738435e-08 -1.027945e-07
5.552057e-07 9.763050e-07 -9.764604e-07 8.636575e-07 -2.944705e-07 -2.021215e-07
2.264401e-07 2.405863e-07 -1.941308e-07 6.453792e-08 2.720332e-08 3.601479e-08
2.056434e-07 2.574704e-07 -1.585506e-07 4.160727e-08 2.427098e-08 3.439985e-08
2.569177e-07 2.152492e-07 -1.682227e-07 7.072169e-08 2.149747e-08 2.272071e-08
2.189795e-07 2.497153e-07 -2.380070e-07 1.197086e-07 7.011571e-08 6.174996e-08
2.500842e-07 2.812083e-07 -2.049878e-07 1.017482e-07 4.032223e-08 3.792192e-08
-3.480887e-07 8.778503e-07 -5.012753e-07 7.055651e-09 -4.578855e-08 -1.966273e-08
-3.647289e-07 1.145688e-06 -5.905238e-07 7.847884e-09 -2.003250e-07 -4.455522e-08
-3.920551e-07 9.042227e-07 -5.878418e-07 2.761045e-08 -2.462650e-07 -5.876023e-08
-3.376079e-07 1.116108e-06 -5.636384e-07 3.368288e-08 -1.873786e-07 -1.028689e-07
-2.939611e-07 4.866291e-07 -3.299143e-07 -7.636986e-09 -1.550214e-07 -6.278834e-08
-3.084049e-07 6.030949e-07 -3.191183e-07 1.021423e-07 -1.059794e-07 -5.065133e-08
3.020869e-07 1.788227e-07 -1.816941e-07 5.079655e-08 3.911333e-09 1.058738e-08
3.099041e-07 1.549377e-07 -1.602759e-07 3.708893e-08 -1.573454e-09 4.325432e-09
2.866654e-07 1.820545e-07 -1.708864e-07 2.223715e-08 7.610429e-10 -2.391509e-09
2.721417e-07 1.994018e-07 -1.687608e-07 2.549844e-08 4.299339e-10 6.781039e-09
2.809729e-07 2.039581e-07 -1.906745e-07 6.020037e-08 8.233286e-09 5.028601e-09
3.020654e-07 1.788224e-07 -1.874694e-07 5.124292e-08 1.391271e-10 1.363685e-08
5.346726e-06 -7.307939e-06 1.269565e-05 7.262660e-07 1.623742e-07 -3.466855e-06
4.179038e-06 -8.192646e-06 1.689737e-05 2.887910e-06 -1.993993e-06 -5.768047e-06
1.096139e-06 -1.069042e-05 2.568248e-05 1.039190e-07 6.421836e-07 -4.375585e-06
1.049161e-06 -8.888475e-06 2.614258e-05 -8.488281e-07 -3.380404e-06 -8.258855e-08
4.200101e-06 -1.079942e-05 1.419469e-05 1.990129e-06 8.243998e-07 -5.134694e-06
5.128869e-06 -8.196154e-06 1.067102e-05 2.913257e-06 -1.656043e-06 -2.748059e-06
-4.191459e-06 3.903554e-06 7.908402e-06 -3.893090e-06 -1.276881e-06 4.194573e-07
-2.756735e-06 3.233370e-06 5.363654e-06 -4.180048e-06 -7.692285e-07 -3.917660e-07
-1.525984e-06 7.061240e-07 7.047840e-06 -5.258299e-06 -3.863591e-07 2.942096e-07
-2.773420e-06 3.207237e-06 5.543665e-06 -4.065193e-06 -3.198601e-08 7.793958e-07
-4.282964e-07 1.631039e-06 -8.858293e-07 -5.953706e-07 1.684393e-07 -7.181022e-10
-3.011110e-07 1.363149e-06 -7.415620e-07 -3.153635e-07 9.749216e-08 -1.252263e-08
-4.236203e-07 1.467101e-06 -7.412475e-07 -3.250109e-07 1.201961e-07 9.310031e-09
-4.228165e-07 1.466447e-06 -7.547420e-07 -3.517052e-07 2.895059e-07 -4.887292e-08
-6.444768e-06 4.765647e-06 1.008766e-05 -2.281798e-06 1.843011e-06 -6.294338e-07
-2.255610e-06 3.638282e-06 2.634409e-06 -3.100207e-06 1.871824e-07 -5.889892e-08
-4.158510e-06 3.244776e-06 7.691570e-06 -3.936267e-06 1.080666e-06 -5.763939e-07
-3.831136e-06 5.092633e-06 5.750717e-06 -2.310944e-06 -6.125258e-07 -5.006096e-08
-2.808844e-06 4.718159e-06 3.485676e-06 -2.306344e-06 8.101743e-07 1.055952e-07
-6.438639e-06 3.492612e-06 8.264421e-06 -3.599898e-06 7.037385e-07 -1.121440e-06
-2.510121e-07 7.378101e-07 -3.994507e-07 -1.404597e-08 1.642474e-07 -5.210236e-08
-2.509553e-07 8.316098e-07 -3.702430e-07 -8.673759e-09 8.728938e-08 -5.359259e-08
4.401567e-06 -4.278025e-06 4.103276e-06 7.314200e-07 1.224757e-07 -3.182713e-08
-2.624939e-07 9.787609e-07 -5.024609e-07 -2.042517e-08 7.541569e-08 -3.876628e-08
-2.710700e-07 9.282470e-07 -4.539213e-07 -2.396589e-08 4.055233e-08 -2.854587e-08
-2.627698e-07 7.294666e-07 -3.973981e-07 -3.106818e-08 1.631681e-07 -6.140047e-08
-3.009495e-07 1.001629e-06 -5.016405e-07 -3.491980e-08 7.105970e-08 -3.667025e-08
4.487696e-07 2.221687e-08 -1.501955e-07 8.749046e-09 8.121066e-10 5.864510e-09
1.947965e-06 -4.366317e-07 -8.536722e-07 -4.040083e-07 9.525656e-09 1.364815e-07
2.428670e-06 -7.648309e-07 -9.138854e-07 -3.921892e-07 -4.773927e-08 2.875807e-07
2.690149e-06 -7.512521e-07 -8.343725e-07 -5.111474e-07 4.646801e-08 1.317205e-07
2.123308e-06 -7.651487e-07 -7.512354e-07 -3.656646e-07 -4.210208e-08 3.108058e-07
2.479835e-06 -1.111959e-05 2.384739e-05 1.420259e-06 2.493023e-07 6.059238e-06
3.374893e-06 -7.684010e-06 1.890012e-05 -4.023997e-06 -7.384578e-07 4.022049e-06
-1.038401e-06 -8.519442e-06 2.074619e-05 -6.259000e-06 -4.403599e-07 3.071003e-06
-3.150187e-06 -1.163139e-05 2.655153e-05 -3.693199e-06 5.589441e-07 2.108096e-06
2.856278e-06 -7.495558e-06 1.876749e-05 -3.717182e-06 -1.725200e-06 1.527481e-06
4.092224e-07 6.161670e-08 -1.615853e-07 1.917176e-08 1.217702e-09 -3.862808e-09
-1.598591e-07 8.578526e-07 -4.538386e-07 -6.970124e-08 4.758582e-08 -4.375309e-08
-2.084772e-07 9.458509e-07 -5.104111e-07 -1.250007e-07 2.980727e-08 -4.372152e-08
-2.388195e-07 9.549024e-07 -5.313039e-07 -5.672164e-08 2.087341e-08 2.010686e-09
1.073312e-06 2.545352e-07 -7.049858e-07 -8.654684e-07 -1.461205e-07 2.070829e-07
7.621915e-07 2.770037e-07 -5.779990e-07 -5.963825e-07 -8.600143e-08 1.273169e-07
8.001714e-07 4.622340e-07 -7.048596e-07 -8.523498e-07 -1.115469e-07 1.126653e-07
7.639724e-07 2.839200e-07 -5.780408e-07 -5.928383e-07 -9.831104e-08 1.201293e-07
5.722079e-07 2.892931e-07 -7.048684e-07 -6.390591e-07 -8.011020e-08 8.804383e-08
1.218698e-06 1.023965e-06 -3.161884e-07 -2.514339e-06 5.629643e-07 -5.513632e-07
1.792133e-06 6.711955e-07 -9.496723e-07 -2.277570e-06 2.884573e-07 -3.452672e-07
9.196355e-07 1.130492e-06 -1.024503e-06 -1.886986e-06 2.389256e-07 -1.607504e-07
1.392957e-06 1.835328e-07 -9.513898e-07 -1.759735e-06 2.360256e-07 -2.652871e-07
1.019557e-06 1.182844e-06 -3.438780e-07 -2.644085e-06 6.582164e-08 6.215232e-08
6.430697e-07 1.138601e-06 -7.972785e-07 -1.685793e-06 3.890183e-07 -1.990648e-07
-5.824338e-07 1.586091e-06 -7.904552e-07 -1.061114e-08 8.891682e-08 1.565058e-08
-5.424197e-07 2.041905e-06 -8.939021e-07 -2.808669e-07 1.228787e-07 2.073995e-08
-5.465965e-07 1.822584e-06 -8.556003e-07 -2.238245e-07 1.747133e-07 -1.595467e-08
-4.225934e-07 1.600421e-06 -7.314529e-07 -6.522515e-08 3.164202e-07 -5.635640e-08
4.254834e-07 4.469264e-07 -5.917985e-07 -5.525445e-07 -1.170068e-07 2.051725e-07
3.964710e-07 4.545766e-07 -6.698584e-07 -5.529872e-07 -8.103534e-08 5.772075e-08
4.262055e-07 2.741864e-07 -4.784642e-07 -3.632972e-07 -1.245846e-07 6.440526e-08
5.768529e-07 4.070742e-07 -5.462090e-07 -5.557384e-07 -8.180084e-08 7.779178e-08
3.355227e-07 1.159692e-07 -1.542655e-07 3.263803e-08 6.102090e-09 5.740119e-09
3.640846e-07 1.159997e-07 -1.584646e-07 6.400134e-08 6.387892e-09 9.068672e-09
3.435632e-07 1.308762e-07 -1.546286e-07 4.518027e-08 8.185464e-09 8.775040e-09
3.697615e-07 1.039218e-07 -1.510881e-07 3.936169e-08 8.194898e-09 9.990193e-09
3.532764e-07 9.687787e-08 -1.504668e-07 2.837072e-08 3.702350e-09 3.862555e-09
3.661805e-07 1.151982e-07 -1.585952e-07 6.171075e-08 6.833575e-09 1.134862e-08
3.889496e-07 7.627681e-08 -1.401420e-07 2.655906e-08 6.716519e-09 1.174660e-08
3.510718e-07 1.206372e-07 -1.481079e-07 3.312070e-08 3.061747e-09 3.808010e-09
6.724774e-07 -5.632547e-09 -3.934996e-07 2.525276e-07 4.085440e-08 3.144625e-08
6.795160e-07 -3.224061e-08 -3.693179e-07 1.837899e-07 5.840504e-09 4.168725e-08
7.157936e-07 -7.463506e-08 -3.941243e-07 2.536251e-07 3.458072e-08 1.282450e-07
7.374748e-07 -7.771344e-08 -4.176046e-07 2.334488e-07 2.050394e-08 1.153165e-07
8.289349e-07 -5.933924e-08 -4.802464e-07 3.063583e-07 -6.736030e-09 4.195117e-08
9.054047e-07 -5.933924e-08 -5.574418e-07 3.497486e-07 3.229274e-08 3.343159e-08
7.195001e-07 -5.000246e-09 -4.505728e-07 2.846883e-07 5.335995e-08 9.900579e-08
4.150415e-07 1.335911e-07 -2.247397e-07 1.409034e-07 9.877151e-09 2.338161e-08
4.224185e-07 9.453340e-08 -2.532007e-07 1.425637e-07 1.102801e-08 2.351568e-08
4.349881e-07 7.169673e-08 -2.130732e-07 1.019835e-07 -7.430667e-09 1.437432e-08
3.956660e-07 1.024329e-07 -1.943063e-07 8.786833e-08 1.251331e-08 1.592169e-08
4.182630e-07 8.612254e-08 -2.042184e-07 1.133135e-07 1.649449e-08 1.325188e-08
4.184620e-07 1.014617e-07 -2.181666e-07 1.322300e-07 2.186811e-08 3.318064e-08
8.282382e-07 -1.035056e-07 -4.438209e-07 -2.347427e-07 -3.774736e-08 4.845107e-08
1.015694e-06 -1.742559e-07 -5.230062e-07 -2.425804e-07 -5.986030e-08 1.836148e-07
8.560853e-07 -1.742559e-07 -4.463385e-07 -2.052475e-07 -2.559939e-08 1.521480e-07
-2.384629e-08 8.820270e-07 -4.656682e-07 -3.098187e-07 2.301071e-07 -9.723764e-08
9.609925e-07 -1.766034e-07 -5.124680e-07 -2.955158e-07 -5.380617e-08 1.475472e-07
9.155010e-07 -1.014743e-07 -5.113220e-07 -2.677053e-07 -6.360035e-08 1.412202e-07
1.560936e-06 -1.320749e-07 -8.126532e-07 -1.082397e-06 -2.365950e-07 3.098208e-07
1.271668e-06 1.441437e-07 -8.209353e-07 -1.235044e-06 -1.509827e-07 3.824560e-07
2.274945e-06 -1.544537e-07 -8.758037e-07 -1.400000e-06 -1.830647e-07 4.409297e-07
1.935238e-06 -2.081134e-07 -7.535457e-07 -1.535110e-06 -2.104938e-07 3.800032e-07
1.245720e-06 3.959808e-08 -6.424146e-07 -1.755502e-06 -3.738095e-07 4.533278e-07
1.790838e-06 1.307772e-08 -8.212598e-07 -1.794359e-06 -5.542640e-08 2.048766e-07
1.768337e-06 3.540805e-07 -8.601916e-07 -1.709215e-06 -2.512055e-07 3.636591e-07
-3.619480e-07 1.789012e-06 -9.563036e-07 6.102581e-07 -7.370560e-08 -1.209493e-08
-2.509921e-07 1.337409e-06 -7.975777e-07 2.707330e-07 -1.399218e-08 -1.932233e-08
-2.070867e-07 1.277499e-06 -8.227407e-07 4.414912e-07 -2.566088e-07 -1.059415e-07
-3.916610e-07 1.839824e-06 -9.521016e-07 4.929389e-07 -3.507589e-07 -1.711865e-07
-3.623897e-07 1.570952e-06 -8.599548e-07 4.084940e-07 -2.544091e-07 -5.685738e-08
-3.681852e-07 1.225959e-06 -6.260126e-07 -1.107805e-07 4.818891e-07 -8.683763e-08
-3.608290e-07 1.393321e-06 -8.134726e-07 3.757810e-07 -2.853075e-07 -8.238056e-08
-5.379390e-08 6.278425e-07 -4.011492e-07 -4.770603e-08 2.877115e-08 -1.804930e-08
-9.543909e-08 6.739624e-07 -4.080756e-07 -6.989232e-08 6.748219e-08 -3.561365e-08
-4.546952e-08 7.692836e-07 -5.137717e-07 -1.603973e-07 4.817683e-08 6.672448e-10
-1.054612e-07 6.909339e-07 -4.288217e-07 -8.037648e-08 8.646532e-08 -4.478168e-08
-9.825052e-08 7.949325e-07 -4.811216e-07 -1.165084e-07 2.750001e-08 -3.060745e-08
-2.233696e-08 6.712345e-07 -4.807623e-07 -8.984621e-08 6.366666e-08 -2.738723e-08
-6.163750e-08 6.540583e-07 -4.141307e-07 -5.793967e-08 3.842829e-08 -2.756082e-09
4.127901e-08 7.210162e-07 -6.991549e-07 2.337571e-07 -2.114969e-07 -9.185058e-08
-8.582678e-07 2.842652e-06 -8.682051e-07 -2.699535e-07 6.273392e-07 -7.949725e-08
-1.349309e-06 2.767218e-06 -8.677303e-07 -6.901075e-08 6.106570e-07 -2.148749e-08
-8.761367e-07 2.859423e-06 -8.443841e-07 1.656727e-07 7.764926e-08 4.554457e-08
-1.023776e-06 2.844110e-06 -8.654204e-07 9.062467e-08 6.624511e-07 9.989116e-08
5.483577e-07 1.127063e-06 -8.016814e-07 -1.976672e-06 1.806062e-07 -1.374291e-07
5.511046e-07 1.341579e-06 -7.952490e-07 -1.920752e-06 5.901796e-07 -4.173703e-07
1.760341e-07 1.282916e-06 -1.044461e-06 -1.378985e-06 2.070496e-07 -1.343576e-07
5.233696e-07 1.513520e-06 -9.094250e-07 -1.904988e-06 9.655743e-08 -8.355871e-08
1.013053e-06 1.678878e-06 -5.791554e-07 -2.534905e-06 5.008937e-07 -3.139120e-07
4.227417e-07 2.247934e-06 5.777155e-07 -3.525629e-06 2.441226e-07 -2.001772e-07
1.187385e-06 6.354046e-07 -3.157856e-07 -2.115459e-06 2.792686e-07 -1.659185e-08
1.121625e-06 1.023965e-06 -8.261363e-07 -2.078062e-06 1.786441e-07 -2.191626e-07
5.497215e-07 1.674216e-06 -1.773304e-07 -2.752317e-06 2.263026e-07 -2.734807e-07
1.009286e-06 1.672563e-06 -8.845732e-07 -2.529391e-06 2.251436e-08 -9.018585e-08
1.687565e-06 7.696334e-07 -9.411380e-08 -3.214724e-06 -2.697203e-07 -6.401696e-08
4.095950e-07 6.215616e-07 -8.194222e-07 -7.949207e-07 -2.781921e-08 6.346266e-08
4.095950e-07 6.222449e-07 -7.281014e-07 -7.113706e-07 -7.886820e-08 -1.172086e-08
5.973455e-07 3.088611e-07 -6.307512e-07 -6.160576e-07 -9.649714e-08 2.181763e-07
-2.055020e-07 1.185424e-06 -7.345365e-07 2.152927e-07 -3.522301e-08 -2.822036e-08
5.718224e-07 3.490985e-07 -6.321721e-07 -5.978560e-07 -8.593687e-09 1.181060e-07
4.863979e-07 3.754485e-07 -7.132808e-07 -5.962660e-07 -3.669280e-09 3.464663e-08
-1.979466e-07 1.325534e-06 -9.131410e-07 -9.360911e-07 -2.544639e-07 1.681891e-07
4.254834e-07 4.060286e-07 -5.128620e-07 -4.639481e-07 -1.511377e-07 1.355250e-07
3.766463e-07 4.131913e-07 -5.583027e-07 -4.697111e-07 -1.600106e-07 8.773086e-08
-3.440758e-07 1.641726e-06 -9.118298e-07 -4.841874e-07 -1.508557e-07 6.659407e-08
-4.870390e-07 1.980784e-06 -9.581303e-07 -3.447176e-07 -1.707642e-07 9.105998e-08
-2.067543e-07 7.017123e-07 -4.286285e-07 2.136285e-08 -4.538941e-08 -1.373463e-07
-1.485157e-07 6.712224e-07 -3.685647e-07 -9.828957e-09 2.621082e-08 -5.730140e-08
-9.690218e-08 5.506798e-07 -2.526027e-07 -1.643851e-08 5.970899e-08 -4.252479e-08
-1.023002e-07 5.328015e-07 -2.016686e-07 -2.619592e-08 4.495531e-08 -5.397390e-08
5.598061e-09 6.964741e-07 -4.902532e-07 2.469078e-08 -1.600861e-08 -4.055132e-08
-8.216033e-08 6.150057e-07 -3.422264e-07 -2.175456e-08 2.697904e-08 -3.318763e-08
-1.224594e-07 5.247075e-07 -2.310704e-07 -8.644299e-10 6.095600e-08 -3.535788e-08
-1.186610e-07 6.538446e-07 -3.050900e-07 -2.990740e-08 3.863110e-08 -5.237461e-08
-1.006799e-07 9.055461e-07 -6.326900e-07 4.806577e-08 -1.776258e-08 -4.785807e-08
-1.266795e-07 5.865554e-07 -2.724139e-07 -5.514325e-09 2.813886e-08 -5.388912e-08
4.894003e-06 -3.402986e-06 7.922843e-07 -4.208087e-07 -2.185505e-07 -7.091300e-08
5.587069e-06 -3.650403e-06 2.726725e-06 1.343888e-06 -2.194529e-07 -5.053287e-07
5.281366e-06 -1.997099e-06 5.461707e-07 1.893798e-06 -1.216549e-07 -1.170798e-07
4.325877e-06 -2.240823e-06 5.336449e-07 1.405991e-06 -6.616066e-08 -4.496072e-09
5.148731e-06 -3.195051e-06 -1.756525e-07 -4.717188e-08 9.901336e-08 -5.221022e-07
4.480417e-06 -1.809500e-06 -5.704955e-07 2.968832e-07 -1.230485e-07 -6.315696e-07
4.376831e-06 -2.085758e-06 -6.531923e-08 9.838484e-07 4.651793e-08 -1.186475e-07
1.904648e-07 2.964246e-07 -2.431934e-07 7.817744e-08 3.179267e-08 4.635237e-08
1.978218e-07 3.515845e-07 -2.562615e-07 1.305906e-07 4.693826e-08 4.119711e-08
1.637537e-07 3.758820e-07 -2.530637e-07 7.432895e-08 1.505160e-08 2.658362e-08
1.628298e-07 3.433086e-07 -2.546647e-07 1.090755e-07 7.042501e-08 8.166282e-08
1.656771e-07 3.650006e-07 -2.691655e-07 1.136431e-07 4.567293e-08 1.638640e-08
-3.955033e-08 1.161904e-07 -2.578715e-07 -3.686784e-08 6.759206e-07 -3.404462e-07
4.233888e-07 8.803689e-08 -2.362593e-07 -1.271907e-07 -1.481533e-09 2.980254e-08
4.853776e-07 6.324466e-08 -3.379284e-07 -1.983501e-07 -1.345981e-08 3.187523e-08
4.568178e-07 9.488031e-08 -3.481135e-07 -2.009587e-07 -4.475368e-10 9.657992e-09
4.288495e-07 8.830265e-08 -2.712945e-07 -1.402665e-07 -2.353112e-08 2.412153e-08
3.988095e-07 1.072107e-07 -2.474382e-07 -1.175345e-07 -6.363337e-09 3.650890e-08
1.249115e-06 8.014546e-07 -5.455789e-07 -2.363738e-06 -5.105488e-07 4.413279e-07
1.104771e-06 8.258298e-07 -9.259863e-07 -1.665298e-06 -1.569179e-07 9.381655e-08
4.998688e-07 1.368575e-06 -7.589233e-07 -2.078378e-06 -1.875759e-07 3.723233e-08
3.504204e-07 1.355590e-06 -7.449097e-07 -1.756007e-06 -3.515297e-07 2.050236e-07
3.667450e-07 1.208089e-06 -8.803770e-07 -1.434881e-06 -4.270660e-08 -2.737769e-08
4.585340e-07 2.124177e-06 -6.448312e-07 -2.752116e-06 -3.231370e-07 2.875009e-07
2.693205e-07 1.711437e-06 -4.135886e-07 -2.457309e-06 -1.275592e-07 8.072713e-08
-8.047173e-08 8.597751e-07 -4.981846e-07 1.554534e-07 4.082253e-08 2.640884e-08
4.346743e-06 -2.883652e-06 8.832326e-07 1.498280e-07 7.891286e-08 2.744227e-07
4.476653e-06 -1.967193e-06 2.050113e-08 -2.058881e-07 2.139248e-08 6.227266e-07
-6.288286e-06 3.993523e-06 1.072412e-05 -3.316341e-06 -2.136943e-06 -7.469800e-07
-6.752565e-06 2.367687e-06 1.613622e-05 -4.186119e-06 -3.274589e-07 1.336115e-07
-9.472167e-06 -8.294045e-07 2.448726e-05 -4.443801e-06 -4.254319e-06 -1.197731e-06
-1.015419e-05 -8.709707e-07 3.682249e-05 -4.058409e-06 -5.641371e-06 2.433625e-07
-8.025308e-06 -7.480652e-07 2.333900e-05 -5.497342e-06 -4.584748e-06 6.097438e-06
-2.657365e-07 7.235644e-07 -2.233096e-07 2.423185e-09 1.647404e-07 -3.577038e-08
-2.674314e-07 7.378071e-07 -4.199830e-07 -5.930863e-09 1.914152e-07 -1.108638e-08
-2.685116e-07 8.767253e-07 -3.713466e-07 -2.792728e-08 1.090835e-07 -4.557920e-08
-2.590686e-07 8.359796e-07 -3.667655e-07 -4.993790e-09 7.748474e-08 -4.743875e-08
-2.564419e-07 8.309905e-07 -3.666218e-07 -2.471403e-08 7.878923e-08 -4.853200e-08
-2.362640e-07 6.997554e-07 -3.194995e-07 -9.876410e-09 2.455531e-08 -5.589966e-08
2.424041e-07 2.725117e-07 -2.586660e-07 1.307102e-07 2.968012e-08 2.753247e-08
2.731492e-07 2.759267e-07 -2.945373e-07 1.900011e-07 2.467459e-08 6.269014e-08
2.818859e-07 2.109324e-07 -2.622910e-07 1.455247e-07 1.679557e-08 1.529749e-08
2.919007e-07 2.236482e-07 -2.246917e-07 1.116941e-07 1.051995e-08 6.851377e-09
3.156143e-07 2.654694e-07 -2.606334e-07 1.907844e-07 2.948479e-08 2.360063e-08
-1.529514e-07 1.226483e-06 -8.146145e-07 3.461229e-07 -1.104068e-07 -5.362771e-08
-5.430940e-07 1.756173e-06 -8.651695e-07 2.747578e-07 -2.904700e-07 -6.053602e-08
-5.406681e-07 1.593943e-06 -8.410300e-07 2.796098e-07 -3.019599e-07 -5.218276e-08
-3.741395e-07 1.877958e-06 -9.738258e-07 5.188429e-07 -1.277537e-07 -2.966219e-08
-5.264441e-07 2.166730e-06 -9.442336e-07 3.756519e-07 -5.053872e-07 -1.528519e-07
-5.982415e-07 2.097214e-06 -9.855577e-07 4.734035e-07 -6.480427e-08 -1.878080e-08
4.983246e-07 -1.473907e-07 -4.224490e-07 4.563944e-07 -6.903782e-07 -3.357547e-07
2.021096e-06 -1.841262e-07 -9.494877e-07 6.605987e-07 -7.333165e-07 -7.429110e-07
1.824296e-06 -6.810861e-07 2.353380e-07 1.327552e-06 -9.096695e-07 -6.156673e-07
1.986611e-06 -2.618992e-07 -1.118677e-06 5.677284e-07 -3.574522e-07 -9.277575e-09
2.211205e-06 -1.315206e-07 -1.150724e-06 1.470104e-06 -1.402767e-07 -1.160189e-07
2.277293e-06 -2.544037e-07 -1.134771e-06 1.417554e-06 -4.717668e-07 -5.416909e-07
9.044740e-07 2.588272e-08 -7.097875e-07 6.288521e-07 -7.703371e-07 -7.397865e-07
2.636443e-06 -6.074225e-07 -8.560328e-07 1.168291e-06 -3.622950e-07 -2.889300e-07
1.184402e-07 -3.474213e-07 -4.830289e-07 1.265131e-08 -5.225721e-07 -3.097644e-07
1.439513e-06 -5.128157e-07 -8.505441e-07 2.249137e-07 -5.601574e-07 -6.727317e-07
7.497754e-08 -7.724606e-07 -5.230514e-08 -6.536596e-08 -5.459141e-07 -4.537220e-07
1.217317e-06 -3.890017e-07 -9.191155e-07 3.104846e-07 -5.420243e-07 -3.119956e-07
-3.868445e-07 1.077741e-06 -6.314683e-07 -1.913658e-07 4.647814e-07 -9.696952e-08
-3.481448e-07 9.879482e-07 -5.643268e-07 -4.887958e-08 3.053738e-07 -1.989229e-08
-2.998364e-07 1.197126e-06 -6.873031e-07 -1.838359e-07 2.465946e-07 -5.968736e-08
1.185126e-07 5.583389e-07 -5.172624e-07 -4.451578e-07 5.549985e-07 -4.346154e-07
-3.074623e-07 1.117029e-06 -6.288046e-07 -1.244404e-07 1.541046e-07 -5.733660e-08
-2.908274e-07 1.074453e-06 -5.563113e-07 -3.828306e-08 1.429018e-07 -1.771603e-08
1.711394e-07 4.992359e-07 -3.688132e-07 2.377626e-07 7.503323e-08 3.823937e-08
5.743490e-08 6.621122e-07 -4.600007e-07 2.839876e-07 1.196032e-07 5.864094e-08
1.032375e-07 5.555558e-07 -4.287091e-07 2.652593e-07 2.482124e-08 5.172551e-08
1.691990e-07 6.234093e-07 -4.598650e-07 3.604930e-07 7.873343e-08 5.616268e-08
1.166688e-07 6.231096e-07 -5.117522e-07 3.502290e-07 9.015257e-08 1.087544e-07
9.167501e-07 -2.129564e-07 -4.787049e-07 1.507542e-07 1.164262e-09 1.383989e-07
1.140277e-06 -2.194563e-07 -5.506597e-07 1.692210e-07 3.126964e-08 1.893400e-07
1.032682e-06 -2.140030e-07 -5.096346e-07 1.072844e-07 -3.245547e-08 9.190020e-08
9.940822e-07 -2.137046e-07 -5.086302e-07 1.526799e-07 3.044752e-08 6.390926e-08
6.969575e-07 -1.101926e-08 -5.204095e-07 -2.503485e-07 6.061301e-07 -2.717934e-07
-2.382045e-08 9.409657e-07 -6.373546e-07 3.883747e-07 -3.753693e-07 -2.109812e-07
7.330326e-07 3.815938e-07 -8.044898e-07 -5.803576e-07 6.996835e-07 -4.219041e-07
2.899915e-07 1.682597e-07 -4.537416e-07 -1.395943e-07 5.757933e-07 -2.045704e-07
4.737866e-07 3.529277e-07 -5.442885e-07 -4.807967e-07 6.691885e-07 -3.148514e-07
5.763271e-07 2.404449e-07 -6.149984e-07 -9.090199e-07 4.824167e-07 -5.535597e-07
5.503352e-07 -7.852757e-08 -4.527806e-07 -1.440372e-07 6.459681e-07 -2.794427e-07
-1.500677e-05 -1.016139e-05 4.701610e-05 3.728019e-06 2.047677e-06 5.759174e-06
-9.563354e-06 -1.662815e-06 2.480289e-05 4.713951e-06 3.881949e-06 -1.292103e-06
-5.900553e-06 -1.664283e-06 2.009879e-05 4.699229e-06 3.872595e-06 2.263245e-06
-6.353436e-06 -4.473787e-06 2.600281e-05 5.901789e-06 8.994836e-07 4.407132e-06
-1.679109e-05 -1.124433e-05 5.330428e-05 5.407948e-06 5.636705e-06 4.056951e-06
-6.953909e-06 -3.176014e-06 2.589368e-05 6.154995e-06 7.451374e-06 1.046823e-06
-1.220617e-05 -1.124443e-05 4.697366e-05 5.356382e-06 5.568159e-06 1.315220e-05
1.096813e-06 1.205350e-07 -7.120812e-07 7.911645e-07 1.140498e-07 2.033980e-07
2.831261e-06 -9.565926e-07 -7.900371e-07 8.524861e-07 1.150781e-07 2.414487e-07
1.665709e-06 -4.270635e-07 -8.349299e-07 5.637495e-07 1.704125e-08 1.332490e-07
1.842420e-06 -4.634216e-07 -7.631279e-07 6.912478e-07 8.875163e-08 2.725446e-07
1.643924e-06 -2.215132e-07 -8.666353e-07 9.910703e-07 2.097223e-07 4.202024e-07
2.161450e-06 -4.733268e-07 -8.623850e-07 9.309263e-07 1.806527e-07 5.788100e-07
1.918813e-06 -4.400446e-07 -8.570924e-07 1.090476e-06 1.642193e-07 4.467131e-07
-2.072365e-06 -8.996031e-07 1.328188e-05 -6.243024e-06 1.625833e-06 -1.385014e-06
5.364753e-07 -7.554352e-07 7.234722e-06 -5.501584e-06 -3.919396e-07 -1.039814e-06
1.126555e-06 -5.229984e-07 3.324876e-06 -4.794295e-06 -4.148857e-07 2.799225e-07
1.154797e-06 -1.829489e-06 5.513542e-06 -4.736133e-06 3.784503e-07 -4.232883e-08
7.294599e-07 -1.438717e-06 5.475399e-06 -5.257005e-06 9.187778e-07 -1.969196e-06
8.541529e-07 -1.382876e-07 -4.140344e-07 1.407979e-07 2.387159e-08 9.613868e-08
7.463216e-07 -1.219507e-07 -3.307005e-07 8.129180e-08 1.322793e-09 2.983424e-08
8.220811e-07 -1.335273e-07 -3.988391e-07 1.645484e-07 3.371913e-08 1.173538e-07
7.891814e-07 -1.604356e-07 -3.569985e-07 6.632853e-08 3.878540e-08 7.654563e-08
6.764020e-07 -1.248435e-07 -2.748443e-07 4.588220e-08 1.713788e-09 1.494676e-08
9.869447e-07 -1.828161e-07 -4.447331e-07 4.676208e-08 4.126903e-09 9.951451e-08
6.923689e-07 4.325989e-08 -4.037692e-07 -3.342583e-07 -4.534272e-08 8.392266e-08
5.741662e-07 6.675538e-08 -4.673490e-07 -2.779567e-07 -1.752109e-08 3.738619e-09
6.830154e-07 4.638984e-08 -4.803013e-07 -3.536561e-07 -3.200032e-08 1.327091e-07
6.661814e-07 1.516896e-07 -4.445312e-07 -4.030257e-07 -6.308318e-08 8.851770e-08
5.588060e-07 9.179249e-08 -3.907413e-07 -2.897252e-07 -2.076898e-08 1.056864e-07
5.290332e-07 8.430440e-08 -4.487177e-07 -3.046833e-07 -4.232240e-08 6.197196e-08
6.664646e-07 8.851993e-08 -4.890298e-07 -4.029789e-07 -1.164176e-07 8.816906e-08
3.856705e-07 1.655479e-07 -2.946814e-07 -1.716024e-07 -1.576832e-08 6.159171e-08
3.449651e-07 2.507113e-07 -4.208048e-07 -2.532807e-07 -4.656110e-08 6.336813e-08
3.476836e-07 1.812888e-07 -2.332453e-07 -9.189050e-08 -1.502083e-08 2.004430e-08
3.415696e-07 2.746695e-07 -3.630805e-07 -2.334457e-07 -8.805849e-08 4.575919e-08
3.387370e-07 2.997493e-07 -3.249442e-07 -2.147864e-07 -4.865264e-08 5.514055e-08
3.000167e-07 1.548389e-07 -1.804128e-07 6.650277e-08 8.697163e-09 9.641578e-09
2.812520e-07 2.380117e-07 -2.591724e-07 1.204010e-07 6.776673e-09 2.834569e-08
2.780284e-07 1.840018e-07 -1.834661e-07 8.970766e-08 2.205496e-08 2.097531e-08
8.823035e-07 3.326628e-07 -6.817472e-07 -8.321379e-07 -2.115012e-07 2.534101e-07
1.184936e-06 4.636830e-07 -8.235906e-07 -1.249725e-06 -2.059962e-07 2.660948e-07
8.114220e-07 5.551523e-07 -8.034664e-07 -1.108875e-06 -2.833987e-07 2.698045e-07
5.837571e-07 4.963171e-07 -6.593992e-07 -7.402974e-07 -2.140580e-07 2.062795e-07
5.241992e-07 4.840020e-07 -7.194313e-07 -7.676026e-07 -2.425535e-07 1.455085e-07
6.707637e-07 3.950540e-07 -8.624229e-07 -9.204592e-07 -3.128247e-08 5.915763e-08
8.011157e-07 3.785145e-07 -7.931398e-07 -9.012599e-07 -2.476074e-08 1.563144e-07
5.812178e-07 7.216769e-07 -9.173322e-07 -1.238042e-06 -7.240741e-08 1.015761e-07
-4.997784e-07 1.454688e-06 -7.279226e-07 2.288557e-08 9.093651e-08 -1.305041e-08
5.791655e-07 8.875162e-07 -7.721978e-07 -1.700299e-06 -3.505023e-07 3.641706e-07
7.196457e-07 3.243871e-07 -7.048831e-07 7.542271e-07 2.664455e-08 1.491902e-07
7.205333e-07 3.576408e-07 -6.073784e-07 6.923816e-07 9.446554e-08 9.130930e-08
7.200914e-07 2.573636e-07 -6.678035e-07 7.051406e-07 1.795791e-07 1.244976e-07
7.591436e-07 5.794627e-07 -7.172374e-07 9.733517e-07 1.770007e-07 1.871752e-07
6.073545e-07 -1.027978e-07 -2.132063e-07 4.085676e-09 2.497410e-09 1.443041e-08
5.983253e-07 -1.133433e-07 -2.011630e-07 5.180338e-09 -1.591536e-09 1.219148e-08
6.156168e-07 -1.010446e-07 -2.327510e-07 2.407095e-08 1.741618e-09 4.415931e-08
6.184336e-07 -1.223837e-07 -2.017490e-07 2.692023e-08 -1.115615e-08 6.366038e-08
5.989949e-07 -1.035375e-07 -2.131495e-07 1.192880e-08 2.368764e-09 1.822837e-08
5.049961e-07 -1.879087e-08 -2.158619e-07 8.046299e-08 7.632976e-09 2.234431e-08
5.556889e-07 -1.411333e-08 -2.324548e-07 9.867308e-08 7.130420e-09 3.872578e-08
4.831339e-07 2.274075e-08 -2.252503e-07 9.618549e-08 1.110978e-08 8.110070e-09
5.021519e-07 2.657184e-08 -2.491463e-07 1.117645e-07 1.697471e-08 2.379775e-08
5.300849e-07 1.020062e-08 -2.465738e-07 1.417638e-07 1.865043e-08 3.580992e-08
2.870585e-07 5.295683e-08 -3.808622e-07 -1.013432e-07 5.854152e-07 -1.809503e-07
1.766790e-07 5.472638e-07 -4.759082e-07 -3.663167e-07 5.552272e-07 -2.761862e-07
4.108136e-07 5.634637e-07 -7.414529e-07 -4.536697e-07 5.373878e-07 -2.791079e-07
3.657881e-07 4.089990e-07 -8.073243e-07 -6.317146e-07 7.026891e-07 -3.892416e-07
3.587648e-07 5.711278e-07 -6.605928e-07 -4.437954e-07 4.925250e-07 -2.284089e-07
-6.280744e-07 2.316210e-06 -9.419312e-07 -5.418733e-07 3.208715e-07 -5.990509e-08
-6.373853e-07 2.087992e-06 -8.921088e-07 -4.707985e-07 3.708990e-07 -1.034062e-07
-6.612570e-07 2.107189e-06 -8.631306e-07 -6.276833e-08 5.232583e-07 -2.102449e-08
-7.086105e-07 2.542057e-06 -9.231439e-07 -1.432612e-07 2.379703e-07 -5.388703e-08
-5.931672e-07 2.016564e-06 -8.419439e-07 -3.214383e-07 4.894993e-07 -9.494030e-08
7.401202e-07 -1.338023e-07 -3.143928e-07 1.107120e-07 1.014730e-08 5.429601e-08
8.540013e-07 -1.374333e-07 -4.294870e-07 1.415627e-07 3.093728e-09 5.666587e-08
8.477653e-07 -1.430996e-07 -4.512895e-07 2.043236e-07 2.561677e-08 1.343394e-07
9.756091e-07 -2.167519e-07 -4.752405e-07 6.969757e-08 5.512286e-08 1.245720e-07
1.002733e-06 -1.802101e-07 -5.386809e-07 1.356320e-07 3.477998e-08 6.260430e-08
9.631017e-07 -1.491230e-07 -5.016151e-07 2.645073e-07 6.671968e-08 1.785178e-07
1.079857e-06 -2.177064e-07 -5.367774e-07 2.072319e-07 4.190924e-08 2.082719e-07
1.076653e-06 -2.237863e-07 -5.596443e-07 2.099716e-07 2.967913e-09 4.089315e-08
4.005367e-07 3.627109e-07 -4.199403e-07 4.215582e-07 1.213743e-07 1.025532e-07
4.395355e-07 2.960174e-07 -6.038187e-07 4.894854e-07 2.293446e-09 2.024104e-08
5.400538e-07 2.344359e-07 -6.144618e-07 5.315512e-07 8.908824e-08 1.209975e-07
3.216163e-07 4.354539e-07 -4.867301e-07 4.032144e-07 5.169630e-08 -1.352814e-08
3.849765e-07 4.149791e-07 -4.332885e-07 4.085476e-07 8.211959e-08 7.766289e-08
3.823534e-07 2.571398e-07 -3.404565e-07 3.091166e-07 5.972971e-08 4.264661e-08
3.035554e-07 3.083655e-07 -4.254772e-07 3.080559e-07 4.589075e-08 3.924824e-08
3.824168e-07 3.086580e-07 -3.399271e-07 2.923313e-07 4.959402e-08 4.876271e-08
3.846539e-07 2.629830e-07 -4.046637e-07 3.341483e-07 2.660195e-08 6.335138e-08
5.677514e-07 -8.759699e-08 -1.855088e-07 -3.265300e-08 -1.619012e-08 4.632132e-08
5.622880e-07 -9.461820e-08 -1.559723e-07 -1.562570e-08 -4.818406e-09 3.494322e-08
5.647410e-07 -9.391285e-08 -1.767679e-07 -5.256808e-09 -5.767101e-09 5.526975e-09
5.672840e-07 -8.912122e-08 -1.745516e-07 -6.545322e-09 -7.816085e-09 1.730103e-08
5.606315e-07 -7.244903e-08 -1.750901e-07 -1.591827e-08 -1.053219e-08 1.540823e-08
5.464597e-07 -8.500857e-08 -1.686186e-07 -1.350490e-08 -6.983203e-09 1.413778e-08
5.406629e-07 -7.388081e-08 -1.649665e-07 -1.051068e-08 -7.346887e-11 1.394391e-08
7.098775e-08 6.455288e-07 -4.203704e-07 -1.767428e-07 2.322460e-07 -6.871463e-08
7.385588e-08 6.328927e-07 -5.552976e-07 -1.795465e-07 1.785292e-07 -6.257576e-08
2.340259e-07 7.164933e-07 -6.144125e-07 -3.003191e-07 3.704324e-07 -1.992503e-07
9.688748e-08 5.648348e-07 -4.777017e-07 -1.502400e-07 2.986757e-07 -9.691382e-08
5.087171e-07 7.412271e-07 -8.549810e-07 -5.082883e-07 3.304157e-07 -1.516993e-07
3.345395e-08 7.085308e-07 -6.135492e-07 -3.404597e-07 3.685227e-07 -2.073413e-07
4.535560e-07 2.437836e-08 -1.678046e-07 8.655317e-09 5.042138e-10 6.202876e-09
-6.260114e-06 -5.066049e-06 3.004996e-05 -6.385128e-06 -2.349175e-06 3.252955e-06
-1.665404e-05 -1.090475e-05 6.100130e-05 -5.269266e-06 -9.562409e-06 3.413591e-06
-1.289410e-05 -1.081668e-05 4.460318e-05 -4.337262e-06 -5.159158e-06 -1.303832e-06
-8.051597e-06 -1.044290e-05 3.239607e-05 -2.935152e-06 -5.400446e-06 5.313157e-06
-9.975248e-06 3.292585e-06 2.329600e-05 -3.158217e-06 -9.381556e-06 -1.080010e-06
-1.112927e-05 -1.148066e-05 4.482539e-05 -6.362122e-06 -6.392667e-06 1.253530e-05
2.310119e-07 3.943541e-07 -4.061998e-07 -1.027763e-07 -1.356914e-08 3.724630e-08
5.213577e-07 5.628214e-07 -9.253939e-07 -9.230635e-08 1.759771e-07 -4.067444e-09
2.938855e-07 6.632718e-07 -8.060588e-07 -3.013102e-07 2.225136e-07 -8.498357e-08
2.328960e-07 5.969574e-07 -6.066499e-07 -3.136172e-07 4.231222e-07 -1.900977e-07
3.048655e-06 -8.053349e-07 -1.497173e-06 1.790136e-07 -3.022169e-07 -1.660709e-08
4.702048e-07 7.848382e-07 -8.203947e-07 -4.831178e-07 2.077306e-07 -1.021441e-07
8.516093e-07 5.988612e-07 -1.033595e-06 -6.525433e-07 3.504764e-07 -1.695261e-07
7.384037e-07 6.569173e-07 -7.970280e-07 -6.398710e-07 5.605884e-07 -3.701431e-07
2.165466e-09 8.150449e-07 -6.501148e-07 1.391866e-07 -3.640586e-08 -2.227845e-08
1.155005e-06 -3.753660e-07 -8.619422e-07 6.220089e-08 -4.889578e-07 1.444134e-08
6.204017e-07 1.510234e-07 -7.674969e-07 2.255361e-07 -5.609949e-07 -1.859697e-07
3.713025e-06 -2.366421e-06 6.687828e-07 -8.261636e-07 7.946415e-08 1.743479e-07
3.938778e-06 -2.668321e-06 8.875886e-07 -5.547408e-07 1.135922e-07 4.670875e-07
4.626293e-06 -1.690264e-06 -5.039911e-08 1.240377e-08 -1.558619e-07 4.186988e-07
-8.599177e-08 6.014763e-07 -3.825248e-07 1.332967e-08 -3.700040e-08 -9.254130e-08
2.573636e-06 -1.446199e-06 -2.004861e-08 -7.625380e-07 4.028532e-07 -5.428593e-07
3.842841e-06 -1.699662e-06 -2.845634e-08 -1.143938e-06 -3.558011e-08 6.212662e-07
3.815787e-06 -1.672196e-06 -3.214335e-09 -1.172449e-06 -1.065783e-07 -6.495920e-08
4.105503e-06 -1.363515e-06 4.811041e-08 -8.462139e-07 8.694316e-08 2.016543e-07
1.005674e-06 -2.491227e-07 -5.801569e-07 4.840912e-08 9.065730e-09 1.309787e-07
9.400907e-07 -2.355081e-07 -4.517949e-07 -4.028855e-08 7.305349e-10 7.538577e-08
7.855176e-07 -1.917530e-07 -3.524507e-07 1.054478e-08 -1.458734e-08 3.443554e-08
7.116709e-07 -1.326274e-07 -3.123406e-07 4.743983e-08 1.997288e-08 2.507007e-08
-2.022628e-08 6.323812e-07 -3.216026e-07 -2.141587e-07 4.484431e-07 -2.312709e-07
8.139964e-07 -1.943450e-07 -4.464120e-07 4.519840e-08 1.501087e-08 8.047511e-08
8.557397e-07 -2.042461e-07 -4.530647e-07 3.932874e-08 1.278788e-09 4.631180e-08
1.011065e-06 -2.329210e-07 -5.801690e-07 8.568707e-08 8.283422e-09 1.311808e-07
1.087339e-06 -3.009482e-07 -5.564365e-07 2.389472e-08 -8.360366e-09 7.414826e-08
7.826191e-07 -1.615799e-07 -3.214049e-07 1.461310e-08 5.861790e-09 8.744301e-08
8.051934e-07 -1.615799e-07 -4.252985e-07 7.060559e-09 1.491367e-08 1.172575e-07
2.019778e-06 -3.290515e-07 -1.252587e-06 -3.921605e-07 4.193149e-07 -1.101513e-07
-3.585160e-07 1.081478e-06 -5.669407e-07 6.006053e-08 4.561864e-07 1.183381e-07
-2.704367e-07 1.939554e-06 -9.441494e-07 -1.153070e-06 4.030659e-07 -1.075864e-07
-2.078996e-07 6.899158e-07 -4.120863e-07 5.871212e-08 1.898649e-07 5.807574e-08
3.882180e-07 6.759270e-08 -1.542655e-07 6.997310e-09 7.801942e-09 2.892069e-09
3.113405e-06 -1.171487e-06 -1.319921e-06 3.815239e-08 -6.918989e-08 4.272725e-08
-2.812790e-07 1.261708e-06 -5.366083e-07 2.142913e-07 3.425667e-07 6.865551e-08
-2.901575e-07 8.171238e-07 -4.813904e-07 1.088094e-07 3.926083e-07 4.174545e-08
4.767107e-07 -1.889569e-08 -1.683780e-07 -1.545941e-08 -7.927094e-09 6.378200e-09
3.201661e-07 1.169710e-07 -1.664727e-07 -7.339973e-08 -5.960890e-08 6.420696e-08
-2.130334e-07 7.810694e-07 -3.781028e-07 1.400339e-07 2.383676e-07 7.399022e-08
5.011021e-07 9.891286e-08 -3.242618e-07 -1.919560e-07 -2.291731e-08 5.198624e-08
-2.106045e-07 8.562550e-07 -5.163147e-07 1.798643e-07 3.602169e-07 9.775989e-08
-2.129654e-07 7.633253e-07 -2.851095e-07 5.423530e-08 3.066330e-07 9.953657e-08
-2.683781e-07 7.937250e-07 -2.935181e-07 8.258036e-08 3.822986e-07 4.319543e-08
2.487236e-07 2.054054e-07 -1.594601e-07 4.244724e-08 2.441773e-08 1.881574e-08
-4.003664e-07 1.571029e-06 -7.637927e-07 -2.094468e-07 1.063576e-07 -5.646364e-09
-4.521340e-07 1.440172e-06 -7.472925e-07 -3.846349e-07 3.129154e-07 -3.792801e-08
-6.401448e-07 1.910705e-06 -8.426198e-07 -4.434528e-07 4.149575e-07 -1.111965e-07
-5.931672e-07 1.558901e-06 -7.737731e-07 -2.232767e-07 3.331826e-07 -1.082263e-08
-5.339234e-07 2.033925e-06 -8.328632e-07 -2.890865e-07 4.693866e-07 -1.285674e-07
3.565659e-06 -2.003072e-06 -1.021755e-06 -8.539208e-09 2.152302e-08 -9.740227e-09
4.661524e-06 -1.803585e-06 -1.416791e-06 3.248668e-07 -8.845392e-08 -1.800699e-07
3.421924e-07 1.251319e-07 -1.394610e-07 5.862065e-09 -9.039846e-10 1.524841e-11
4.588828e-06 -2.190871e-06 -7.068419e-07 2.395471e-07 9.392103e-08 8.827702e-08
3.933079e-06 -1.734314e-06 -1.316119e-06 -2.064576e-07 5.146988e-09 -3.868846e-07
4.645254e-06 -1.738897e-06 -1.417183e-06 -3.831353e-07 1.129427e-07 -2.075424e-07
4.068811e-06 -1.322697e-06 -1.357256e-06 -5.283903e-08 4.823443e-08 -4.119962e-07
4.320676e-06 -1.790771e-06 -1.360230e-06 -2.204311e-08 -4.642901e-09 -1.279973e-08
1.689711e-06 4.737962e-07 -4.864073e-07 2.600473e-06 -2.726908e-07 -3.340456e-07
1.274143e-06 1.159778e-06 -1.089513e-06 1.785981e-06 -3.643812e-07 -2.980155e-07
9.626512e-07 1.133650e-06 -9.383631e-07 1.999426e-06 -2.565605e-07 -1.263399e-07
3.892234e-07 8.095133e-08 -1.450177e-07 -3.063115e-09 -5.814411e-10 3.395083e-09
3.461712e-07 1.825677e-07 -2.131086e-07 -9.111451e-08 -4.227045e-08 4.449726e-08
-2.152764e-06 3.595881e-06 -3.640925e-07 2.956581e-07 -4.309975e-08 1.193253e-07
-1.964865e-06 3.559416e-06 -5.056857e-07 -6.090665e-07 1.143343e-07 1.350405e-07
5.550522e-07 -1.080364e-07 -1.708598e-07 2.277026e-08 1.020495e-08 5.099077e-08
3.226477e-07 1.383253e-07 -1.870255e-07 -3.769425e-08 -1.395328e-08 2.447203e-08
2.286337e-08 2.878716e-07 -1.901389e-07 -6.334366e-08 -1.131196e-07 1.451968e-07
-1.958588e-06 4.228768e-06 3.402044e-09 -7.038867e-07 7.042185e-07 4.270181e-08
6.436738e-07 1.341579e-06 -1.121220e-06 -1.632564e-06 3.233742e-07 -2.841737e-07
5.299979e-07 4.940400e-07 -8.092303e-07 9.458802e-07 3.426221e-07 3.100489e-07
-1.349467e-06 3.874997e-06 -5.843134e-07 -1.671958e-07 7.611150e-07 -1.272157e-07
4.370884e-07 2.355741e-08 -1.546082e-07 -5.224501e-09 -9.960839e-09 3.572457e-09
3.953627e-07 6.660267e-08 -1.528447e-07 5.977788e-08 1.526262e-08 3.538327e-08
4.056352e-07 8.211172e-08 -1.519237e-07 5.104279e-08 5.288753e-09 1.061031e-08
4.037199e-07 6.158670e-08 -1.660485e-07 6.570419e-08 1.048974e-08 1.861351e-08
3.977444e-07 7.759792e-08 -1.694178e-07 7.252748e-08 8.397184e-09 2.341033e-08
3.762825e-07 7.929614e-08 -1.611869e-07 5.920118e-08 1.609549e-08 2.097397e-08
3.826217e-07 6.520857e-08 -1.458447e-07 -1.576514e-08 -1.906668e-09 1.587729e-09
3.880846e-07 6.793353e-08 -1.545697e-07 -1.971489e-08 -3.268478e-09 1.991376e-09
3.783612e-07 9.026909e-08 -1.723383e-07 -3.439368e-08 -3.782122e-09 6.860290e-09
-2.218128e-07 9.538757e-07 -5.175970e-07 2.453686e-08 8.524817e-08 3.537361e-08
3.766040e-07 9.198015e-08 -1.681974e-07 -2.912562e-08 1.438725e-09 9.018231e-09
3.615959e-07 1.117775e-07 -1.400585e-07 1.997702e-08 1.289658e-09 3.808593e-09
3.719287e-07 8.195399e-08 -1.546318e-07 -1.870981e-08 -2.391186e-09 1.678267e-09
5.301623e-07 -4.005884e-08 -1.865835e-07 5.997331e-08 1.732796e-08 3.526795e-08
2.977100e-07 2.371754e-07 -2.679359e-07 -3.785240e-08 1.788238e-09 1.522141e-08
3.850432e-07 6.795188e-08 -1.548023e-07 -1.688442e-08 -2.950172e-09 3.088142e-09
-1.396781e-06 4.102847e-06 4.210012e-07 -1.976854e-06 1.934037e-07 4.850489e-08
-3.818694e-06 4.706291e-06 3.211579e-06 -4.093330e-07 6.324535e-07 -2.274672e-07
-2.070076e-06 4.504579e-06 1.530289e-06 -2.072350e-06 -5.370797e-07 1.494955e-07
-3.673419e-06 4.490661e-06 3.809515e-06 -1.927342e-06 -1.220533e-07 1.736292e-07
4.370884e-07 3.454570e-08 -1.506059e-07 -2.072137e-09 -2.909435e-09 4.907850e-09
7.127793e-07 -1.577009e-07 -2.969353e-07 -2.792733e-08 1.301251e-09 1.610602e-08
4.183289e-07 5.486593e-08 -1.451283e-07 -4.744527e-09 -3.383788e-09 3.708356e-09
-3.784654e-06 4.723746e-06 2.215195e-06 -1.829922e-06 -5.179297e-07 7.874482e-08
4.881339e-07 5.139925e-09 -1.779412e-07 -5.920067e-08 -1.322838e-08 2.529593e-08
3.065571e-07 2.407875e-07 -3.415918e-07 2.183809e-07 3.476054e-08 3.532752e-08
2.811789e-07 2.112147e-07 -2.685738e-07 1.454120e-07 1.372158e-08 2.199257e-08
2.628013e-07 3.250165e-07 -3.298420e-07 -5.373772e-08 2.379362e-09 1.849690e-08
3.634221e-07 1.907322e-07 -2.880707e-07 2.425750e-07 1.237653e-08 4.065998e-08
3.154386e-07 2.655874e-07 -2.673817e-07 1.908316e-07 2.370686e-08 2.879674e-08
3.722145e-07 2.574916e-07 -3.039975e-07 -2.217347e-07 -9.978048e-08 1.060366e-07
2.094794e-07 2.903333e-07 -2.409623e-07 8.545453e-08 5.312839e-09 2.450900e-08
2.141563e-07 2.927958e-07 -2.333426e-07 9.449458e-08 2.964888e-08 6.782791e-09
2.127970e-07 3.001393e-07 -2.199601e-07 6.034000e-08 7.522524e-09 1.729669e-08
1.989774e-07 3.249926e-07 -2.454550e-07 4.485190e-08 -5.196206e-09 9.378473e-09
3.236820e-07 1.880073e-07 -2.357404e-07 -4.130426e-08 -2.967193e-09 -7.540640e-10
3.115121e-07 1.479764e-07 -2.387906e-07 -1.115763e-07 -6.114960e-08 7.638679e-08
3.301829e-07 1.619046e-07 -1.993475e-07 -1.354463e-07 -8.107092e-08 9.110922e-08
2.932321e-07 2.511461e-07 -2.566195e-07 -1.897471e-07 -1.331315e-07 1.444016e-07
-3.538121e-07 1.389425e-06 -8.477105e-07 -1.002674e-07 -3.242671e-08 -1.083317e-08
2.869218e-07 2.081819e-07 -2.121198e-07 -1.160063e-07 -8.344523e-08 7.292751e-08
2.495191e-07 2.725205e-07 -2.730402e-07 -6.821137e-08 -5.530080e-08 6.038938e-08
2.654725e-07 2.130462e-07 -2.172591e-07 -5.927621e-08 -4.878735e-08 5.840777e-08
3.088713e-07 1.825673e-07 -2.374757e-07 -9.124791e-08 -4.216705e-08 7.601949e-08
5.625087e-07 -5.477610e-08 -2.121796e-07 5.418060e-08 7.619568e-09 -2.466084e-09
2.639498e-07 1.983458e-07 -1.744964e-07 5.284756e-08 1.527472e-08 2.597008e-08
3.066725e-07 1.566029e-07 -1.620416e-07 5.823752e-08 1.110275e-08 1.616242e-08
2.690862e-07 1.985099e-07 -1.731898e-07 5.007981e-08 1.743344e-08 2.310913e-08
2.259746e-07 2.471157e-07 -1.866747e-07 4.238492e-08 1.660646e-08 1.754639e-08
3.728235e-07 7.836222e-08 -1.526344e-07 7.026939e-09 2.605317e-09 -7.540554e-09
2.609243e-07 1.771014e-07 -1.705921e-07 1.050676e-07 4.732562e-08 5.358692e-08
2.777828e-07 1.846744e-07 -2.159271e-07 8.973360e-08 2.188420e-08 2.379964e-08
-5.489829e-07 1.619428e-06 -7.841732e-07 1.751496e-07 3.164508e-07 -6.349943e-09
2.608370e-07 2.449638e-07 -2.595841e-07 1.224084e-07 8.530917e-10 1.592984e-08
2.477028e-07 2.865127e-07 -2.218023e-07 1.019587e-07 3.024541e-08 2.825222e-08
-5.343070e-07 1.883108e-06 -8.475498e-07 7.263453e-07 3.851783e-07 2.786534e-08
-4.679878e-07 1.211315e-06 -7.649410e-07 1.620054e-07 -8.154661e-07 -1.323992e-07
-4.714097e-07 1.589421e-06 -8.477104e-07 -2.036294e-07 -4.549456e-08 5.137096e-08
-5.979911e-07 2.056833e-06 -7.601830e-07 1.191932e-06 4.479140e-07 1.415544e-07
-1.373309e-07 1.427706e-06 -7.819295e-07 7.512064e-07 3.083595e-07 1.636725e-07
2.315274e-07 3.396928e-07 -2.969962e-07 -2.054425e-08 -1.615687e-08 3.733530e-08
-2.034060e-07 1.100737e-06 -6.904155e-07 3.584203e-07 1.616339e-07 6.724600e-08
3.696421e-07 8.893340e-08 -1.476402e-07 7.860675e-09 -2.071222e-09 -3.256240e-17
-5.103812e-07 2.026097e-06 -9.253228e-07 7.439017e-07 1.733380e-07 1.242353e-07
-3.416407e-07 1.920922e-06 -8.921845e-07 1.037418e-06 3.523147e-07 1.837094e-07
3.951934e-07 1.677372e-06 -2.415267e-08 -2.645907e-06 4.280282e-07 -1.290531e-07
-2.088786e-07 5.105147e-07 -2.234631e-07 -3.159208e-08 1.964650e-07 -8.537679e-08
3.174992e-07 1.896355e-06 -9.644603e-07 -1.826154e-06 3.268772e-07 -2.048444e-07
-2.107553e-07 2.253891e-06 -8.419988e-07 -1.840161e-06 3.579040e-07 -2.562640e-07
1.171081e-07 1.490071e-06 -1.280285e-07 2.219442e-06 6.306812e-07 3.442022e-07
2.621840e-08 1.695533e-06 -9.748826e-07 -1.333204e-06 2.758852e-07 -5.236130e-08
2.316271e-07 3.382068e-07 -3.410206e-07 -3.463421e-08 -7.722185e-09 3.722811e-08
-3.667859e-06 5.375877e-06 3.571373e-06 2.349636e-06 1.010491e-06 4.744596e-08
-2.287979e-07 8.137590e-07 -3.013470e-07 -1.159234e-07 3.148923e-07 -1.288468e-07
-3.419448e-07 1.714355e-06 -8.789249e-07 -1.281972e-06 3.389931e-07 -1.228647e-07
1.822898e-07 1.266617e-06 -8.947094e-07 -1.383671e-06 6.241799e-07 -3.013141e-07
-4.324827e-07 1.856149e-06 -8.398579e-07 -4.403444e-07 4.100551e-07 -1.367164e-07
-3.271224e-07 1.126882e-06 -6.619241e-07 2.926380e-07 1.707937e-07 5.932179e-08
-4.697931e-07 1.405981e-06 2.601134e-06 -3.518292e-06 8.401572e-08 -3.554858e-08
-2.501070e-07 1.505243e-06 -8.084541e-07 -5.320391e-07 3.105145e-07 -1.564179e-07
-1.551364e-07 1.866804e-06 -9.825528e-07 -9.993917e-07 4.699889e-07 -1.480176e-07
-4.321672e-07 1.760835e-06 -8.229104e-07 -6.598643e-07 3.235371e-07 -6.666476e-08
2.659094e-08 8.307194e-07 -6.523964e-07 -2.008305e-07 -4.762417e-08 8.384098e-08
-2.451700e-06 -9.218655e-06 2.212327e-05 -2.394680e-06 -5.649996e-07 1.545819e-06
9.996929e-07 -1.689573e-07 -5.276451e-07 -2.583594e-07 1.160865e-09 4.397800e-08
1.815846e-06 8.599580e-07 2.001555e-07 -3.313079e-06 -2.278904e-07 3.022179e-07
-2.617685e-07 1.410397e-06 -8.627581e-07 -7.152883e-07 3.085630e-07 -1.589806e-07
-1.105088e-05 -1.835117e-05 4.601605e-05 -2.205779e-06 2.687909e-07 7.061091e-06
-4.394274e-07 1.974696e-06 -9.528388e-07 -7.310982e-07 2.933314e-07 -1.353455e-07
-5.219680e-07 1.762597e-06 -8.587648e-07 7.002456e-09 -3.141172e-07 -1.615728e-08
1.806449e-07 2.525049e-07 -1.870350e-07 6.806382e-08 4.006065e-08 4.706895e-08
5.966588e-07 1.640684e-07 -6.809805e-07 -6.035769e-07 -1.829729e-07 2.263728e-07
-1.303577e-05 -5.811483e-06 3.741897e-05 5.788155e-06 -7.756166e-06 -7.393801e-06
-6.394862e-07 1.881310e-06 -8.959110e-07 -9.542536e-08 -2.918857e-07 9.551188e-10
-6.272410e-07 2.081639e-06 -9.641812e-07 1.315337e-07 -1.956699e-07 -3.620259e-09
-3.041734e-06 1.644675e-06 9.172666e-06 4.956923e-06 -1.626127e-07 1.186825e-07
8.732673e-07 -2.685206e-07 4.332502e-07 9.279795e-07 -1.083882e-06 -1.389166e-06
2.576069e-06 -9.970108e-07 1.011141e-07 1.349762e-06 -5.119926e-07 -9.791085e-07
-5.358134e-07 2.253586e-06 -3.074729e-07 1.875080e-06 3.437511e-07 5.245179e-08
1.704034e-06 5.786297e-07 3.517653e-06 4.495545e-06 -5.770144e-07 -1.393149e-06
-7.264600e-07 2.578448e-06 -9.968126e-07 -2.464519e-07 -2.875515e-07 7.351957e-09
-8.169087e-07 2.310289e-06 -9.807055e-07 1.738932e-08 -1.046446e-07 -1.825148e-08
-1.659467e-07 7.795338e-07 -3.904785e-07 -4.939653e-08 4.489063e-08 -7.376980e-08
-1.929976e-07 7.548528e-07 -3.508601e-07 -2.038252e-08 7.114259e-08 -8.096187e-08
-1.364503e-07 6.878400e-07 -3.013519e-07 -1.056379e-07 1.796316e-07 -1.035188e-07
4.007597e-07 6.499068e-08 -1.479777e-07 1.288977e-08 8.300137e-09 -2.573470e-09
3.248554e-07 1.220620e-07 -1.366923e-07 0.000000e+00 -1.219980e-09 -1.203035e-09
3.115583e-07 1.460639e-07 -1.406127e-07 1.815180e-08 4.618788e-09 1.275667e-09
-1.905802e-07 7.438910e-07 -3.401818e-07 -1.588744e-08 6.871068e-08 -7.305116e-08
-1.788572e-07 5.374358e-07 -2.406892e-07 -1.365041e-08 6.800666e-08 -6.910500e-08
-1.640540e-07 5.614808e-07 -2.276799e-07 -4.164365e-08 5.015461e-08 -5.040871e-08
7.925985e-07 -2.097347e-07 -4.120317e-07 3.169043e-08 1.747343e-08 1.157636e-07
-1.645457e-06 3.921560e-06 -5.300451e-07 -1.906992e-07 -8.227818e-07 9.605615e-08
-1.421711e-06 3.917320e-06 -5.359359e-07 -2.453903e-07 -8.281804e-07 -3.800235e-09
-1.457169e-06 3.542703e-06 -7.566487e-07 4.220188e-07 -4.765227e-07 4.129194e-08
4.765954e-07 5.521142e-08 -2.224630e-07 1.296806e-07 8.144422e-09 2.330992e-08
-1.457545e-06 2.966752e-06 -9.371304e-07 3.229832e-07 -1.160933e-07 1.306662e-07
-9.480876e-07 3.127683e-06 -8.338879e-07 6.274064e-08 -6.778945e-07 -5.376471e-08
3.126746e-07 1.378944e-07 -1.594666e-07 2.867621e-08 7.211382e-09 2.230381e-09
3.360237e-07 1.243931e-07 -1.379327e-07 2.529950e-09 1.342502e-09 7.160818e-10
3.209205e-07 1.317775e-07 -1.458161e-07 4.792171e-08 1.321015e-09 1.252964e-08
3.385793e-07 1.104098e-07 -1.453027e-07 1.574406e-08 1.817893e-09 2.153843e-09
3.362495e-07 1.162335e-07 -1.429704e-07 1.331155e-08 -1.876909e-09 3.895832e-09
3.401962e-07 1.088267e-07 -1.400640e-07 1.583856e-08 1.989802e-09 2.082484e-09
4.999603e-08 7.109703e-07 -4.750849e-07 2.815468e-07 5.585667e-08 3.324440e-08
4.916625e-07 3.087274e-08 -2.655516e-07 1.328823e-07 1.941449e-08 5.306278e-08
3.359273e-07 1.213986e-07 -1.384959e-07 9.363837e-09 -8.165195e-10 1.687572e-09
3.315950e-07 1.201607e-07 -1.426254e-07 2.029528e-08 2.253504e-09 2.863744e-09
-2.498213e-07 6.634064e-07 -3.638110e-07 2.083917e-07 4.833363e-07 1.169195e-07
7.098311e-08 1.020287e-06 -6.779377e-07 6.982705e-07 1.704538e-07 1.296282e-07
3.388934e-07 1.107718e-07 -1.446982e-07 1.680784e-08 -1.795869e-09 1.521477e-09
3.217429e-09 6.827410e-07 -4.740936e-07 -8.269258e-08 3.581308e-08 -5.188766e-09
3.328137e-07 1.202486e-07 -1.401935e-07 3.466371e-09 2.467253e-09 1.780943e-10
3.451213e-07 1.178635e-07 -1.403099e-07 8.995683e-09 4.703298e-10 2.785933e-11
1.042997e-06 1.532505e-06 4.241374e-07 -3.424398e-06 2.378582e-07 -1.062864e-07
-1.241671e-06 2.051577e-06 4.983953e-06 -4.941372e-06 -7.850662e-08 -1.280678e-07
3.145090e-07 1.505294e-06 1.767106e-06 -3.613104e-06 2.733053e-07 -5.074062e-07
-8.767849e-07 1.638079e-06 4.821480e-06 -4.675047e-06 1.013278e-06 -2.163727e-07
-6.184844e-07 2.017788e-06 1.066934e-06 -3.356089e-06 -3.238498e-07 1.434563e-07
-2.426092e-07 1.033668e-06 -6.269581e-07 -2.040085e-07 2.129752e-07 -8.088081e-08
-5.704422e-07 1.395758e-06 3.350861e-06 -4.639463e-06 1.110109e-07 6.832742e-07
4.172740e-07 6.270884e-07 -8.151416e-07 -7.227438e-08 5.794869e-08 -8.376401e-15
-5.246949e-07 1.888578e-06 1.072091e-06 -3.320756e-06 3.839994e-08 9.445821e-08
-7.099321e-07 2.761283e-06 1.625767e-08 2.581937e-06 -2.240806e-07 -4.875691e-08
2.946224e-08 9.260021e-07 -8.456326e-07 -5.678013e-07 3.032803e-07 -1.469405e-07
-2.308987e-07 2.341170e-06 -7.650197e-07 1.986222e-06 -3.023072e-07 -1.744227e-07
5.527658e-07 -1.110315e-07 -1.842471e-07 3.542640e-08 1.030862e-08 1.023401e-07
-4.216773e-07 2.506502e-06 -7.931397e-07 1.700364e-06 -3.762653e-08 -8.744658e-10
4.579129e-07 -2.216977e-09 -1.593834e-07 -7.219710e-09 -1.114930e-08 4.427184e-09
-1.369835e-06 2.802000e-06 5.473385e-07 2.309524e-06 -5.274981e-07 -9.109222e-08
4.466725e-07 9.571042e-08 -2.302778e-07 -1.099236e-07 -8.256417e-09 1.456772e-08
1.064193e-06 3.702666e-07 -7.599561e-07 9.802987e-07 1.322590e-07 1.909548e-07
4.529530e-07 7.198821e-07 -7.725839e-07 8.871921e-07 7.301156e-08 1.404233e-07
5.087929e-07 -2.133031e-08 -2.270735e-07 -8.409630e-08 -3.826715e-08 7.111748e-08
-5.309812e-07 2.496301e-06 -9.751117e-07 1.684439e-06 -7.094775e-07 -2.906368e-07
3.263401e-07 1.263602e-07 -1.499329e-07 4.888013e-08 6.293152e-09 1.006977e-08
3.445564e-07 1.081367e-07 -1.584646e-07 4.872373e-08 5.147038e-09 8.067933e-09
6.881420e-07 -1.587068e-07 -2.946506e-07 -2.815860e-08 -3.678229e-09 1.178003e-07
9.977602e-07 -2.097347e-07 -4.093669e-07 4.645757e-08 2.410729e-08 1.648120e-07
4.837826e-07 -2.782560e-08 -1.746618e-07 9.476669e-08 1.137560e-08 7.182619e-08
2.071529e-07 1.432390e-06 -8.148518e-07 1.635939e-06 1.172162e-07 1.575432e-07
-5.358134e-07 2.371604e-06 5.118226e-07 2.342841e-06 -1.317862e-07 1.550592e-07
3.036284e-07 1.433089e-07 -1.614613e-07 5.115190e-08 8.115558e-09 1.361278e-08
3.557423e-07 1.037542e-07 -1.412255e-07 5.699102e-09 2.201066e-09 2.432778e-09
8.964405e-07 -1.884601e-08 -6.227883e-07 4.892851e-07 9.599537e-08 2.405521e-07
-9.714982e-07 3.272251e-06 -6.851058e-07 1.922470e-06 -4.682902e-07 -1.584098e-07
9.000649e-07 4.669099e-07 -9.048057e-07 1.509320e-06 6.035073e-08 9.783160e-08
-9.344386e-07 2.779923e-06 5.387094e-07 2.041249e-06 -3.346038e-07 -2.363202e-07
-1.055915e-07 8.262677e-07 -3.758838e-07 2.621690e-07 -5.523884e-07 -2.587776e-07
5.070447e-07 9.658573e-07 -1.006404e-06 -7.645041e-07 1.328543e-07 -9.170446e-08
8.252657e-07 7.888922e-07 -1.075711e-06 -1.169307e-06 3.152592e-07 -2.991086e-07
4.488157e-07 6.230777e-07 -9.841450e-07 -7.645929e-07 4.589410e-07 -2.856505e-07
3.566129e-07 8.055255e-07 -8.114547e-07 -5.943971e-07 2.263086e-07 -1.278148e-07
1.044545e-06 7.711666e-07 -1.072050e-06 -1.099621e-06 3.722241e-07 -2.195741e-07
-6.325549e-07 1.902527e-06 -8.912932e-07 -4.487723e-07 1.524486e-07 2.231201e-08
-8.754661e-07 2.769443e-06 -9.030325e-07 -3.440131e-07 7.060036e-07 -5.347918e-08
2.415369e-07 2.518499e-07 -2.194057e-07 -1.998508e-08 5.047675e-10 5.131117e-08
5.842367e-07 2.536586e-08 -3.473439e-07 -2.161499e-07 -9.486069e-09 8.579008e-08
-1.376940e-07 4.637809e-07 -2.665863e-07 6.777276e-09 -3.511956e-08 -1.145430e-07
5.826274e-07 -1.098287e-07 -1.763173e-07 -2.345057e-08 -1.496514e-08 5.461826e-08
7.497368e-07 -1.366353e-07 -3.394927e-07 -3.972219e-08 -1.977610e-09 3.127453e-08
1.029484e-06 -1.478766e-07 -5.813001e-07 -3.873716e-07 -2.468365e-08 5.154578e-08
-4.390037e-07 1.868529e-06 -9.239035e-07 -7.374761e-07 3.132890e-07 -1.392820e-07
-2.668936e-07 3.443583e-07 -3.066790e-07 -3.105440e-08 -6.166193e-07 1.421603e-07
-7.190194e-07 2.194570e-06 -9.432325e-07 -6.877899e-07 2.449866e-07 -8.871267e-08
-4.562142e-07 1.666355e-06 -8.680894e-07 -7.571931e-07 4.292167e-07 -3.240383e-08
-4.157628e-07 1.641476e-06 -8.211938e-07 -6.099420e-07 3.604209e-07 -1.042039e-07
-4.374639e-07 2.065070e-06 -9.432325e-07 -6.449672e-07 2.007436e-07 -1.409394e-07
-8.820878e-06 -1.441363e-06 2.847288e-05 -6.455016e-06 -7.891905e-06 4.849633e-06
3.988095e-07 1.251097e-07 -2.137376e-07 -1.165938e-07 -3.095684e-08 3.514913e-08
-1.777275e-07 6.469061e-07 -4.478218e-07 -3.080111e-08 -4.277964e-08 1.117388e-07
-4.513720e-07 1.897727e-06 -8.417540e-07 -5.328590e-07 4.154214e-07 -8.645930e-08
2.837590e-08 9.094883e-07 -6.373546e-07 3.975092e-07 -3.949898e-07 -2.311867e-07
2.184429e-07 8.808159e-07 -8.218633e-07 -9.339064e-07 -3.376694e-07 2.585285e-07
8.056776e-08 5.635048e-07 -6.995407e-07 -4.505542e-07 5.395763e-07 -3.187527e-07
7.582593e-08 2.109965e-07 -2.108988e-07 -8.892546e-08 -1.939883e-07 1.795994e-07
3.347436e-07 1.211794e-07 -1.631926e-07 -3.496096e-08 -2.147382e-08 2.519865e-08
-4.487277e-07 1.450272e-06 -8.241091e-07 -4.479939e-08 -1.900467e-07 1.019446e-09
2.943183e-07 4.488808e-07 -4.495640e-07 -3.689833e-07 -2.097461e-07 1.887975e-07
3.197592e-07 3.103261e-07 -3.602388e-07 -1.641975e-07 -1.554835e-08 5.363176e-09
1.226320e-06 4.217141e-07 -1.185867e-06 -7.639811e-07 2.650381e-07 -1.594861e-07
-9.525123e-08 1.969649e-07 -3.145051e-07 -6.123627e-09 5.433043e-07 -2.475036e-07
6.043807e-07 1.383586e-07 -8.016232e-07 -8.136298e-07 7.048265e-07 -5.745304e-07
7.919667e-08 -5.404571e-07 -2.953333e-07 6.407922e-09 1.403508e-07 1.548976e-07
4.000938e-07 8.524733e-07 -8.483837e-07 -7.544282e-07 6.044532e-07 -3.888858e-07
1.011784e-06 3.884074e-07 -1.068739e-06 -6.722070e-07 3.894413e-07 -2.234309e-07
2.515998e-06 -7.520549e-06 1.799612e-05 -1.803781e-07 1.146533e-06 5.451518e-07
5.727325e-07 -7.269235e-08 -2.096302e-07 -1.629177e-08 -7.155187e-09 -5.691394e-10
6.353296e-07 1.275542e-06 -9.525621e-07 -1.216944e-06 3.801732e-07 -2.170168e-07
8.764600e-07 7.538565e-07 -9.773957e-07 -7.045377e-07 2.594425e-07 -1.465197e-07
1.353545e-06 -8.369484e-07 2.868983e-07 -1.041695e-06 6.916476e-07 -1.571978e-06
-2.115288e-08 1.215920e-06 -1.001964e-06 -8.950275e-07 1.745681e-07 -9.480885e-08
7.459630e-07 6.879358e-07 -8.896859e-07 -1.225826e-06 -9.105342e-08 1.884521e-07
1.501101e-06 -2.597202e-07 -7.931663e-07 6.775114e-07 -1.174496e-08 7.980305e-08
3.486447e-06 -1.226888e-06 -1.348925e-06 1.995476e-07 -2.769120e-07 -1.716020e-07
1.612451e-08 6.013805e-07 -4.153724e-07 -9.783155e-08 2.102831e-07 -6.650375e-08
-4.789759e-07 1.602630e-06 -7.740068e-07 -1.242231e-07 9.034641e-08 -9.614926e-09
1.685899e-07 1.238212e-06 -8.956221e-07 -7.846162e-07 3.123772e-07 -1.772349e-07
2.531572e-07 1.273897e-06 -9.177128e-07 -1.159702e-06 4.168681e-07 -3.218477e-07
3.252390e-07 1.255912e-06 -9.568045e-07 -1.094889e-06 3.892010e-07 -2.547134e-07
7.116980e-07 1.074438e-06 -1.131140e-06 -1.273598e-06 6.523977e-08 -1.229809e-07
1.256561e-06 9.316168e-07 -1.086096e-06 -1.777354e-06 9.557310e-08 -1.135305e-07
9.011581e-07 1.067140e-06 -1.146844e-06 1.194816e-06 -1.299279e-07 -4.722367e-08
2.006945e-07 1.732092e-06 -9.202694e-07 -1.228993e-06 4.309771e-07 -2.072624e-07
-3.934018e-07 1.520633e-06 -7.576716e-07 -2.667281e-07 7.206317e-08 1.451181e-09
-2.030908e-07 7.790202e-07 -3.726925e-07 -3.894592e-08 8.675752e-08 -6.507493e-08
4.140993e-07 6.241254e-08 -1.585067e-07 -2.832712e-08 -3.508567e-09 6.747875e-09
-1.188877e-07 7.394561e-07 -5.033403e-07 -1.714636e-07 3.442544e-07 -1.621079e-07
-2.590011e-07 7.093592e-07 -3.319277e-07 1.267743e-10 2.435610e-08 -4.132983e-08
3.956648e-07 6.549506e-08 -1.463047e-07 -1.257238e-08 -2.266897e-09 2.109291e-09
3.962744e-07 7.427609e-08 -1.617566e-07 -2.692280e-08 -3.121104e-09 1.925905e-09
3.964544e-07 6.125483e-08 -1.478442e-07 -1.001692e-08 4.840848e-10 3.320676e-10
3.945580e-07 6.108220e-08 -1.497437e-07 -1.482002e-08 1.780314e-09 4.272598e-09
4.109635e-07 5.695161e-08 -1.587580e-07 -2.461399e-08 -5.399936e-09 1.563585e-09
4.020783e-07 5.820816e-08 -1.535143e-07 -2.908695e-08 -2.953697e-09 3.562043e-09
3.586283e-07 1.180643e-07 -1.464453e-07 2.560511e-08 6.971874e-09 -1.251693e-09
3.184606e-07 1.290075e-07 -1.388698e-07 2.384604e-09 -4.126477e-18 -8.652335e-10
2.267375e-07 2.371419e-07 -1.733490e-07 1.549752e-08 -5.227613e-10 1.794202e-08
2.272420e-07 2.168465e-07 -1.538336e-07 3.174143e-08 1.495714e-08 1.932815e-08
2.486810e-07 2.118015e-07 -1.602298e-07 2.072304e-08 5.976449e-09 1.734631e-08
2.588927e-07 2.061962e-07 -1.603831e-07 1.169066e-08 1.498564e-09 1.387231e-08
2.806637e-07 1.929575e-07 -1.617612e-07 1.953151e-08 7.902980e-09 1.144779e-08
2.795106e-07 1.929859e-07 -1.476732e-07 1.904517e-08 5.382640e-09 1.002990e-08
7.088993e-07 -1.257304e-07 -3.085101e-07 4.724703e-08 -1.831701e-09 8.144941e-08
2.524984e-07 2.172270e-07 -1.518769e-07 1.401845e-08 1.710673e-09 6.879493e-09
5.777869e-07 -7.768698e-08 -2.067653e-07 -8.435197e-09 -5.887310e-09 4.885667e-09
4.758287e-06 -2.149402e-06 -4.332542e-07 2.723871e-07 4.034502e-08 -2.324320e-08
3.875254e-06 -1.745721e-06 -1.270542e-07 -1.041453e-06 1.205861e-07 -2.653682e-07
3.555593e-06 -2.034616e-06 -2.641745e-07 -3.576558e-07 -1.802996e-07 -4.349011e-07
3.610185e-07 9.364008e-08 -1.488188e-07 1.447031e-08 -1.845009e-09 4.932633e-09
2.551751e-06 -2.143469e-06 3.380041e-07 -3.676729e-07 8.149345e-08 -4.289700e-07
3.100349e-06 -1.106035e-06 -1.120649e-06 -4.671996e-07 1.176156e-07 -2.664214e-07
4.935991e-07 -4.481130e-08 -1.661105e-07 3.841967e-08 1.210027e-08 3.164461e-08
4.399078e-07 2.229976e-08 -1.621888e-07 4.638453e-08 1.657593e-08 1.832456e-08
4.389548e-07 1.159545e-08 -1.638755e-07 3.758204e-08 1.246063e-08 1.979669e-08
4.502643e-07 1.918129e-08 -1.547607e-07 4.143024e-08 1.183762e-08 2.712543e-08
4.650209e-07 -8.600262e-09 -1.492561e-07 3.217277e-08 1.349549e-08 2.001940e-08
6.456652e-07 -4.710888e-07 -4.483991e-07 4.524001e-07 -1.861570e-07 -1.695010e-07
5.987751e-07 -5.346289e-07 -4.488421e-07 -4.596825e-07 -2.456095e-07 -1.744290e-07
2.284873e-06 -1.279050e-06 -8.307230e-07 -1.648499e-07 -1.215725e-07 -2.932334e-07
2.634722e-07 2.095123e-07 -1.824991e-07 2.009803e-08 -1.400735e-09 6.455861e-09
-3.090458e-08 -7.206502e-07 -1.041876e-07 -1.845814e-08 -3.665639e-07 -3.823290e-07
2.180793e-06 -7.363620e-07 -8.308659e-07 2.153362e-07 -2.788374e-07 -7.236173e-07
4.083398e-07 7.718479e-08 -1.828551e-07 5.816351e-08 -3.282935e-09 8.402480e-09
3.228756e-07 1.274510e-07 -1.379619e-07 2.912777e-09 3.163678e-10 1.140790e-09
3.195860e-07 1.245598e-07 -1.406987e-07 1.331377e-08 1.434944e-09 9.039131e-10
1.372817e-06 -5.789295e-07 -2.720889e-07 1.371407e-07 -3.827938e-07 -1.100075e-06
3.299718e-07 1.181078e-07 -1.426329e-07 1.562738e-08 1.960035e-09 -1.435380e-10
3.333637e-07 1.248255e-07 -1.459244e-07 1.664719e-08 -2.269229e-10 4.198138e-10
3.215538e-07 1.314950e-07 -1.392380e-07 3.423517e-09 6.378510e-10 2.227685e-09
3.460520e-07 1.206174e-07 -1.396855e-07 1.954610e-09 1.391388e-10 1.684015e-09
3.388485e-07 1.264707e-07 -1.482566e-07 2.374613e-08 3.157888e-09 -2.642581e-10
3.500028e-07 1.109528e-07 -1.488968e-07 2.245011e-08 4.714989e-09 1.052440e-09
3.407257e-07 1.105043e-07 -1.388877e-07 1.778997e-08 -7.908383e-10 -5.242562e-10
3.343347e-07 1.168009e-07 -1.400421e-07 4.459468e-09 1.003424e-09 -5.821387e-10
3.400159e-07 1.165267e-07 -1.413216e-07 9.832399e-09 -6.094885e-10 8.436128e-10
-5.393774e-06 4.566591e-06 7.805910e-06 -2.433066e-06 1.081140e-06 -3.484587e-07
7.339305e-07 -1.204859e-07 -3.222456e-07 8.310976e-08 1.638501e-08 7.421816e-08
6.751239e-07 -9.832447e-08 -2.894015e-07 7.464522e-08 1.850074e-08 1.527498e-08
-4.030446e-07 1.290859e-06 -6.409887e-07 -1.576377e-07 1.689671e-07 -2.333280e-08
-3.445630e-07 1.259816e-06 -6.385632e-07 -6.307318e-08 2.390714e-07 -3.728375e-08
-4.167662e-07 1.252655e-06 -6.688853e-07 -5.031652e-08 5.693015e-08 2.511765e-10
-4.120332e-07 1.621222e-06 -7.885628e-07 -8.844478e-08 9.710399e-08 -2.309828e-09
-3.009774e-07 1.174629e-06 -5.787443e-07 -7.922389e-08 6.813515e-08 -2.672466e-08
4.049981e-07 9.370063e-08 -2.238095e-07 -9.173061e-08 -4.093017e-09 2.350259e-08
-4.789759e-07 1.857977e-06 -8.578910e-07 -1.727962e-07 1.421874e-07 -4.901134e-08
-8.564430e-07 2.054196e-06 -8.965049e-07 -2.015431e-07 1.208756e-07 5.699988e-08
-3.598845e-07 1.330070e-06 -6.900577e-07 -2.199380e-07 8.434617e-08 1.255398e-08
-9.801147e-08 2.142025e-06 -6.130142e-07 -2.151970e-06 -2.227009e-07 2.340746e-07
4.377563e-07 3.432046e-08 -1.455758e-07 -5.713344e-09 -4.726761e-09 4.656292e-09
3.761054e-07 8.861600e-08 -1.492072e-07 -3.280469e-09 -1.540523e-09 5.616564e-09
4.860089e-07 4.647875e-09 -1.664408e-07 -5.876781e-08 -1.972279e-08 4.287284e-08
-2.777771e-08 1.421369e-06 -3.686422e-07 -2.117835e-06 -5.960458e-07 3.456054e-07
3.996710e-08 1.774856e-06 -5.966599e-07 -1.930823e-06 -5.568559e-07 2.812030e-07
-4.023330e-07 2.349956e-06 -5.217439e-07 -2.037883e-06 -3.954102e-07 2.776864e-07
-5.710403e-07 2.393489e-06 7.790756e-08 -2.833229e-06 1.316498e-07 -5.895821e-08
-4.165544e-07 2.583863e-06 -3.775123e-07 -2.048182e-06 -5.181321e-07 1.296462e-07
3.771268e-07 7.679490e-08 -1.452204e-07 -7.412268e-09 -3.463131e-09 3.570870e-09
4.005453e-07 5.372390e-08 -1.515227e-07 -4.496265e-08 -9.139672e-09 1.803974e-08
-2.312594e-07 2.142325e-06 -2.340966e-07 -2.815291e-06 -6.174582e-07 5.506713e-07
-7.515013e-07 2.255263e-06 -9.796137e-07 2.516652e-07 -6.387186e-08 -2.843083e-08
-6.587882e-07 2.499454e-06 -9.562176e-07 8.681405e-07 -6.455627e-07 -2.285130e-07
-3.467910e-07 1.685909e-06 -9.512233e-07 5.921992e-07 -4.707050e-07 -1.951906e-07
-3.466290e-07 1.615841e-06 -9.588518e-07 7.341607e-07 -2.080577e-07 -1.878928e-08
5.748945e-07 -9.399570e-08 -1.753621e-07 -8.703099e-09 -1.072151e-08 1.320581e-08
2.978973e-07 1.464693e-07 -1.771487e-07 -1.013920e-07 -4.998215e-08 6.449155e-08
3.917818e-07 6.096505e-08 -1.548851e-07 -1.809310e-08 -5.449169e-10 -3.895778e-10
-3.578413e-07 1.939077e-06 -1.011084e-06 7.308131e-07 -1.117165e-07 -1.199180e-07
-2.933451e-07 1.985157e-06 -1.024450e-06 9.917190e-07 -2.151286e-07 -5.715670e-08
-2.070867e-07 1.474294e-06 -9.027511e-07 5.536113e-07 -3.560680e-07 -2.538304e-07
-6.138472e-07 2.357566e-06 -9.318230e-07 9.286817e-07 -3.641395e-08 -5.096363e-09
-2.762329e-07 1.380430e-06 -7.506335e-07 -3.725538e-07 2.859202e-07 -7.221342e-08
-1.956815e-07 4.590282e-07 -2.577154e-07 3.482301e-08 3.207685e-07 8.728073e-08
3.863668e-06 -1.838419e-06 2.437995e-06 1.851780e-06 1.966341e-07 -5.531492e-07
-8.193683e-08 6.942611e-07 -4.001179e-07 -3.993578e-08 1.381225e-08 -1.384740e-08
-5.299956e-06 4.800058e-06 5.679254e-06 -1.807486e-06 1.112471e-06 -2.728426e-07
-7.058658e-08 6.726230e-07 -4.777481e-07 -9.725733e-08 6.025096e-08 -3.090763e-08
-9.422119e-08 6.168868e-07 -3.310393e-07 -3.523465e-08 3.172034e-08 -5.805605e-08
-8.354671e-08 6.530256e-07 -3.421890e-07 -1.470383e-08 7.457310e-09 -2.852919e-08
-2.656096e-08 6.759029e-07 -3.988509e-07 -9.371984e-08 8.322176e-08 -4.371040e-08
-6.653774e-08 6.468044e-07 -3.876482e-07 -1.194710e-08 5.700988e-09 -1.970230e-08
4.566949e-06 -6.032566e-06 7.610338e-06 -3.410113e-06 -1.372925e-07 -6.484909e-07
8.444312e-07 6.629973e-07 -1.166664e-06 8.790057e-07 -1.130523e-07 -8.550366e-08
-2.368517e-07 6.646858e-07 -2.568699e-07 9.624776e-09 4.455899e-08 9.841122e-09
8.566613e-07 6.247127e-07 -1.089551e-06 6.752977e-07 -3.308263e-07 -1.524223e-07
-5.849838e-07 1.646833e-06 -7.728948e-07 -1.131650e-09 3.119895e-07 -2.954859e-08
1.646285e-07 7.393375e-07 -7.609814e-07 4.250391e-07 -4.651927e-07 -2.391237e-07
8.127760e-07 -3.671012e-08 -4.523767e-07 -3.422364e-07 -4.330857e-08 9.755432e-08
-1.023305e-07 7.723736e-07 -4.537730e-07 -7.027103e-08 1.586723e-08 -2.229612e-09
-8.464940e-08 8.306373e-07 -4.319919e-07 -1.415527e-07 1.289891e-07 -7.321699e-08
4.567194e-07 2.123470e-08 -1.705273e-07 -4.434424e-08 -2.408424e-08 1.596674e-08
4.553303e-07 1.017790e-08 -1.556581e-07 -6.568214e-09 -3.687070e-09 2.182426e-09
5.608674e-07 -1.222073e-07 -1.838707e-07 -1.451238e-08 -8.593794e-09 6.152783e-08
-1.735222e-07 8.634270e-07 -4.960051e-07 -6.029819e-08 1.477559e-08 4.697023e-09
5.282397e-07 -6.735539e-09 -2.575924e-07 -1.025412e-07 -1.519512e-08 2.389549e-08
-1.158146e-07 6.428534e-07 -3.196940e-07 -2.312125e-08 5.143582e-08 -5.879522e-08
3.557423e-07 9.784815e-08 -1.434126e-07 5.248186e-09 -1.396868e-09 2.145289e-09
5.013185e-07 1.429380e-08 -2.250669e-07 -9.776360e-08 -3.136338e-09 4.652364e-09
-1.401236e-07 8.240024e-07 -4.831943e-07 -3.332537e-08 2.333953e-08 -1.058752e-08
-3.517331e-06 2.033623e-06 1.664992e-05 4.577596e-06 -4.457543e-06 -5.314238e-06
-8.317325e-06 1.929344e-06 1.513474e-05 5.576353e-06 -4.855042e-06 -1.494507e-06
-7.390552e-06 2.848632e-06 2.123286e-05 2.150287e-06 -4.226611e-06 -1.040284e-06
3.931383e-07 7.287432e-08 -1.478973e-07 -4.165678e-08 -1.478961e-08 2.075141e-08
3.517259e-07 1.011811e-07 -1.508702e-07 2.362920e-08 -5.611421e-11 8.131205e-10
4.370884e-07 2.359363e-08 -1.462046e-07 -6.039701e-09 -9.477287e-10 3.192064e-09
4.466743e-07 7.292721e-08 -2.311723e-07 -1.079875e-07 -2.198707e-08 2.797225e-08
-7.494068e-06 4.102268e-06 9.226348e-06 2.164237e-06 -1.200767e-06 -7.933430e-08
-3.386171e-07 1.056616e-06 -5.552540e-07 6.302214e-08 -3.195009e-07 -9.153302e-08
-5.268755e-06 4.314694e-06 7.317318e-06 3.031930e-06 -1.769774e-06 -2.756028e-07
-4.048858e-06 1.413624e-06 1.391772e-05 4.982672e-06 -7.373156e-07 -5.962015e-07
6.559155e-07 -2.988673e-08 -3.337346e-07 -2.161671e-07 -3.655130e-08 6.679510e-08
6.903883e-07 -5.840760e-08 -3.453375e-07 -1.886965e-07 -5.474727e-08 8.492221e-08
2.890412e-08 1.525410e-06 -8.270899e-07 -1.382481e-06 -2.971886e-07 2.184271e-07
6.194065e-07 -5.949731e-08 -2.768786e-07 -1.316030e-07 -1.672068e-08 4.762116e-08
6.426422e-07 -6.041900e-08 -3.239842e-07 -1.397673e-07 -8.807576e-09 7.309954e-08
2.680905e-07 2.875246e-07 -3.312810e-07 1.798399e-07 2.503302e-08 3.972354e-08
3.019223e-07 3.152987e-07 -3.799269e-07 2.816551e-07 8.768949e-08 3.546380e-08
1.515040e-07 4.124779e-07 -3.193071e-07 1.602137e-07 3.839675e-08 6.209224e-08
3.025309e-07 3.078051e-07 -4.371058e-07 3.069128e-07 5.107578e-08 5.671573e-08
3.003595e-07 3.305048e-07 -3.181193e-07 2.581810e-07 4.277109e-08 3.068424e-08
3.330729e-07 3.106051e-07 -3.843058e-07 2.999225e-07 5.627272e-08 1.920146e-09
5.634477e-07 8.714037e-08 -3.721315e-07 2.754296e-07 1.256201e-09 4.824088e-08
5.476257e-07 8.653704e-08 -4.328792e-07 2.987823e-07 2.432377e-08 9.369177e-09
2.644708e-07 1.891356e-07 -1.712141e-07 6.354373e-09 3.925165e-09 1.456731e-08
3.711711e-07 9.430684e-08 -1.471096e-07 1.815269e-08 4.279410e-09 2.603234e-09
4.827591e-07 9.209496e-08 -3.455860e-07 2.184476e-07 2.643568e-08 4.010961e-08
5.039997e-07 2.144951e-07 -3.696940e-07 3.408098e-07 4.470459e-08 6.096698e-08
4.148733e-07 6.659957e-08 -1.569031e-07 6.095536e-08 1.408677e-08 2.782589e-08
5.061145e-07 1.221236e-07 -4.594096e-07 3.599128e-07 4.428400e-08 6.131254e-08
3.267958e-07 1.317005e-07 -1.459878e-07 4.410682e-08 1.195006e-08 7.806552e-09
-7.495103e-06 4.111992e-06 1.282083e-05 -1.267887e-06 2.426373e-06 -5.329790e-08
3.546051e-07 1.135544e-07 -1.409304e-07 8.353671e-09 4.147130e-10 -2.002686e-10
5.391690e-07 1.176821e-07 -3.747067e-07 2.741259e-07 3.244486e-08 6.174765e-08
-3.882085e-07 1.450283e-06 -8.080687e-07 -4.607353e-08 -1.909818e-07 3.508591e-08
9.178036e-07 -2.541163e-07 -5.366056e-07 -2.985628e-07 5.410876e-07 -2.988953e-07
-3.402390e-07 8.483585e-07 -5.021838e-07 -1.064760e-08 -5.367208e-08 2.259429e-08
1.444400e-06 9.316168e-07 -1.202265e-06 -1.571551e-06 2.056243e-07 -1.719301e-07
-2.519994e-07 5.397508e-07 -2.886731e-07 9.191078e-09 2.588949e-07 -1.507416e-08
-4.073329e-07 1.444869e-06 -7.834062e-07 -6.824408e-09 -1.466064e-07 -6.761419e-09
-5.219761e-07 1.442147e-06 -8.186567e-07 -1.831979e-08 -1.948398e-07 6.245621e-09
-4.485373e-07 1.312495e-06 -6.940920e-07 -3.891903e-08 -5.387051e-07 3.596900e-09
-1.706750e-07 7.662646e-07 -3.127495e-07 -1.010705e-07 2.772817e-07 -1.153415e-07
-3.479639e-07 7.745790e-07 -3.677547e-07 6.274476e-09 -1.915663e-07 -2.742428e-08
1.936006e-06 -6.970711e-08 -1.234549e-06 -1.553612e-07 4.040014e-07 -1.811090e-07
-5.219825e-07 1.311396e-06 -7.007225e-07 -2.405379e-08 -5.304645e-07 -2.396377e-08
2.725348e-06 -8.849771e-07 -6.777313e-07 1.749555e-06 -2.230551e-07 1.864088e-07
-1.905856e-07 7.687467e-07 -4.090563e-07 -1.800993e-08 2.167756e-08 -6.360652e-08
2.162439e-06 -3.597668e-07 -7.630469e-07 1.660101e-06 -7.697359e-09 6.044006e-08
-7.148369e-08 2.304061e-07 -3.410466e-07 -4.044085e-08 5.458827e-07 -2.395393e-07
-1.465208e-07 5.641768e-07 -1.956246e-07 -1.510261e-08 9.457538e-08 -7.906056e-08
2.304297e-06 -6.735151e-07 -6.073616e-07 1.482220e-06 1.308132e-07 3.683756e-07
2.797562e-06 -4.342267e-07 -4.952375e-07 2.123151e-06 1.883080e-07 3.299303e-07
2.116599e-06 -3.925248e-07 -4.952377e-07 1.804018e-06 2.017309e-07 1.110430e-07
3.440286e-07 1.097168e-07 -1.416738e-07 7.745193e-09 1.114145e-09 1.997531e-09
2.422066e-06 -7.686410e-07 -1.202143e-06 -9.225190e-07 2.573309e-07 -1.025707e-07
4.310495e-06 -1.516189e-06 -1.651766e-06 -8.770374e-08 1.141138e-08 -1.113464e-15
4.670777e-06 -2.289583e-06 -7.532249e-07 1.067097e-06 -1.743626e-07 -1.687871e-07
1.612429e-06 -1.767345e-07 -3.946796e-07 1.983177e-06 1.372156e-07 4.144781e-07
-4.021877e-07 1.536191e-06 -8.454958e-07 -2.726712e-07 -2.391228e-07 9.840506e-08
-6.787583e-07 1.713857e-06 -8.825123e-07 -3.028900e-07 -2.608300e-07 6.932456e-08
4.008279e-07 6.401332e-08 -1.561645e-07 2.016818e-08 1.751741e-09 2.183265e-09
-5.662074e-07 1.628327e-06 -6.861245e-07 8.217392e-08 -6.972598e-07 5.459530e-08
-5.464620e-07 1.365820e-06 -6.993775e-07 -2.215671e-07 -6.558046e-07 -3.086087e-08
-5.219624e-07 1.855725e-06 -8.817393e-07 1.804047e-08 -3.096726e-07 -1.013456e-08
-4.941554e-07 1.264251e-06 -7.160351e-07 -1.355194e-07 -5.024755e-07 4.215420e-08
-4.066232e-07 1.318881e-06 -6.997557e-07 1.819240e-08 -5.363643e-07 -7.855717e-08
1.014649e-07 6.538050e-07 -5.452578e-07 -2.999387e-07 3.522667e-07 -1.106476e-07
5.341518e-08 -4.894656e-07 -5.131529e-07 7.097914e-11 -8.658543e-08 1.653780e-07
7.499062e-07 -6.855022e-07 -4.709334e-07 -6.221678e-07 2.768929e-07 -2.998687e-07
-2.302058e-06 4.611545e-06 5.415314e-07 -1.429630e-06 -3.575950e-07 4.770862e-08
-3.735501e-06 4.751683e-06 3.568309e-06 -3.938145e-07 -1.380434e-06 -4.652791e-07
-3.314767e-06 5.175788e-06 1.823191e-06 -5.388254e-07 8.423296e-07 2.199963e-07
-1.946915e-06 3.643932e-06 8.610560e-07 -5.523522e-07 3.447868e-07 -9.855658e-08
-1.918975e-07 -3.803405e-07 6.909037e-08 -8.384926e-08 8.635196e-08 -7.651099e-07
-2.353751e-06 4.530226e-06 1.660971e-06 -1.805195e-06 4.139070e-08 -3.851531e-07
-3.199046e-06 4.869607e-06 1.660871e-06 -1.357045e-06 -8.771627e-07 8.765018e-07
1.683247e-07 5.190526e-07 -3.966329e-07 -5.142498e-08 -2.340481e-09 4.674246e-08
-2.340510e-06 3.669784e-06 2.905631e-06 -2.217681e-06 1.010621e-07 -1.729522e-07
3.715027e-07 4.571796e-07 -5.022243e-07 -4.375785e-07 -1.035588e-07 1.073254e-07
1.661269e-06 -9.042989e-07 -4.898922e-07 -1.860657e-07 1.007148e-07 -9.378371e-07
2.235692e-07 4.521592e-07 -4.174441e-07 -2.168322e-07 -6.916770e-08 1.088237e-07
1.882044e-07 4.062760e-07 -4.554580e-07 -2.693346e-07 -1.063547e-07 1.137166e-07
2.182280e-07 4.524759e-07 -4.505630e-07 -2.137592e-07 -9.104332e-08 1.295645e-07
2.448310e-07 5.493643e-07 -5.171569e-07 -3.643108e-07 -2.954456e-08 7.493352e-08
3.114125e-07 3.902154e-07 -4.527613e-07 -2.834488e-07 -2.332101e-08 6.486896e-08
2.632191e-07 2.580804e-07 -2.713963e-07 -1.916962e-07 -1.481824e-07 1.105539e-07
4.615083e-07 4.521050e-08 -2.023445e-07 6.993643e-08 2.817538e-09 1.201400e-08
4.143902e-07 5.155010e-08 -1.623619e-07 9.719995e-09 4.673045e-09 1.779336e-09
6.196245e-08 -1.802616e-07 -1.140876e-07 -4.656604e-09 8.110265e-07 -6.342662e-07
4.445965e-07 3.178608e-08 -1.868031e-07 5.463220e-08 2.697455e-09 8.992437e-09
5.368206e-08 -3.004721e-07 -4.244729e-07 -1.521486e-08 6.118726e-07 1.397992e-09
4.310164e-07 4.256248e-08 -1.660934e-07 2.838316e-08 3.695961e-09 5.268306e-09
4.200125e-07 4.579262e-08 -1.677675e-07 1.877916e-08 -1.855622e-09 5.750813e-09
-6.159680e-06 3.837294e-06 1.286996e-05 3.699636e-06 1.467440e-06 2.347065e-06
1.190314e-09 7.903160e-07 -5.239713e-07 -2.364147e-07 1.412162e-07 -5.675732e-08
-3.269922e-06 4.474687e-06 4.286316e-06 1.049406e-06 7.456191e-08 -4.831058e-08
3.479580e-07 1.039266e-07 -1.422492e-07 5.472885e-09 -1.092592e-09 -4.560484e-16
4.704167e-06 -1.564675e-06 -1.448453e-06 -4.846681e-07 8.010574e-08 -1.852925e-07
5.507647e-07 -6.345001e-07 -4.217369e-07 3.176749e-07 3.875722e-07 -1.348792e-07
-9.513257e-08 4.535933e-07 -2.146367e-07 -9.598339e-09 1.804491e-07 -6.708232e-08
-8.332093e-08 2.130057e-07 -2.887299e-07 7.747394e-09 5.199820e-07 -2.669471e-07
-5.834882e-06 5.235393e-06 9.067635e-06 1.043986e-06 3.504908e-06 2.162950e-07
-3.216744e-06 4.918632e-06 2.868980e-06 2.667639e-06 4.113066e-07 2.282417e-07
-3.767254e-06 4.510797e-06 6.530542e-06 3.087766e-06 3.942441e-07 -7.692872e-07
-3.913350e-06 2.887513e-06 9.520919e-06 3.867461e-06 1.081701e-06 -1.938346e-07
-4.783330e-06 3.029078e-06 9.431855e-06 4.069028e-06 3.695578e-07 8.532172e-07
-6.309552e-06 4.792163e-06 6.530541e-06 1.967832e-06 3.135603e-07 -4.568770e-08
4.618398e-08 -1.418568e-07 -4.100095e-07 -1.224834e-08 6.255294e-07 -3.537021e-08
1.658487e-06 -1.741484e-07 -8.051497e-07 -1.079951e-06 -2.709089e-07 3.706974e-07
1.407856e-06 -2.056991e-07 -7.815423e-07 -8.208965e-07 -1.026307e-07 3.036996e-07
1.238226e-06 -2.978948e-08 -7.940916e-07 -8.451742e-07 -1.708931e-07 1.139389e-07
1.177624e-06 -9.004280e-08 -7.823379e-07 -7.515577e-07 -1.317030e-07 3.332012e-07
1.567506e-06 -5.209021e-08 -9.043366e-07 -1.143649e-06 -2.225248e-08 2.411641e-07
1.072484e-06 -5.774073e-09 -8.413122e-07 -8.872681e-07 -1.214856e-07 2.240293e-07
1.245538e-06 -7.126622e-08 -7.675867e-07 -7.219105e-07 6.223595e-09 9.355265e-08
-2.970108e-06 5.683113e-07 8.139106e-06 5.242716e-06 -2.541390e-08 1.500493e-08
-2.384429e-07 7.093592e-07 -3.199847e-07 -6.001035e-09 2.849406e-08 -5.711415e-08
-1.125568e-07 7.019006e-07 -4.016312e-07 3.804526e-08 2.776300e-08 6.333717e-08
-2.195722e-07 9.102403e-07 -4.808936e-07 -2.331260e-08 5.926206e-08 -4.774941e-08
-2.285168e-07 6.203577e-07 -2.475130e-07 4.980236e-08 7.077796e-08 -6.931626e-08
-1.904882e-07 6.816270e-07 -3.167438e-07 -1.372391e-08 2.278791e-08 -6.222159e-08
-3.442525e-07 5.890879e-07 -2.702826e-07 8.416328e-08 4.129773e-07 -1.481151e-07
-1.949929e-07 6.097894e-07 -2.355227e-07 -6.040697e-08 6.297437e-08 -6.138472e-08
-2.142847e-07 5.543102e-07 -2.315408e-07 -3.797228e-09 4.347707e-08 -5.180388e-08
-1.293583e-07 7.026703e-07 -4.183135e-07 -5.832691e-08 9.151811e-08 -5.717095e-08
-1.993978e-07 6.434617e-07 -2.172766e-07 -4.407800e-08 1.356789e-07 -6.121334e-08
6.323332e-07 -9.826886e-08 -2.980962e-07 -8.194044e-08 -8.550994e-09 3.456704e-08
5.627201e-07 -3.602919e-08 -2.202139e-07 -6.056295e-08 -6.167894e-09 2.502798e-08
5.672567e-07 -7.306952e-08 -2.374944e-07 -6.575162e-08 -5.550918e-09 2.553164e-08
6.466675e-07 -7.494914e-08 -2.797346e-07 -1.165506e-07 -2.406489e-08 5.993384e-08
5.970755e-07 -8.351431e-08 -2.348389e-07 -4.699369e-08 8.116247e-09 1.596244e-08
6.788470e-07 -8.261324e-08 -2.916240e-07 1.275237e-07 1.804682e-08 4.779831e-08
6.418085e-07 -6.532326e-08 -2.957816e-07 -1.171410e-07 5.606507e-09 1.995846e-08
5.664564e-07 -3.548637e-08 -2.444862e-07 -8.908237e-08 -1.447343e-08 1.378984e-08
5.108955e-07 -5.107126e-08 -1.561011e-07 1.692764e-08 6.221104e-09 7.945695e-09
5.768610e-07 -1.093929e-07 -1.641159e-07 1.317838e-09 2.362110e-09 1.281824e-08
9.131499e-08 8.288226e-07 -5.822182e-07 -2.523418e-07 -2.980825e-08 6.421520e-08
5.611488e-07 -6.279493e-08 -2.070955e-07 9.461243e-09 5.555191e-09 3.729772e-09
7.119297e-07 5.138950e-08 -4.875811e-07 -3.596385e-07 -6.915496e-08 6.253618e-08
9.170743e-07 -8.967660e-09 -6.246425e-07 -4.965085e-07 -1.040296e-07 2.383058e-07
4.497146e-07 9.295110e-09 -1.889134e-07 7.129960e-08 1.915529e-08 5.094058e-08
1.290834e-07 6.317422e-07 -5.117461e-07 -9.248641e-08 -2.892729e-08 5.272826e-08
2.611704e-07 1.952791e-07 -1.707314e-07 8.853207e-08 3.907834e-08 5.351126e-08
3.895044e-07 7.942687e-08 -1.665683e-07 4.467745e-08 1.319064e-08 9.169124e-09
9.619247e-07 -5.506178e-08 -6.021168e-07 -4.316627e-07 -8.473900e-08 1.563579e-07
8.512489e-07 -6.054057e-08 -4.524001e-07 -3.507723e-07 -4.089929e-08 1.014413e-07
8.518369e-07 5.900601e-08 -5.492576e-07 -4.805266e-07 -6.430253e-08 1.285728e-07
3.195891e-07 1.745875e-07 -1.757370e-07 9.263925e-08 2.657290e-08 2.015485e-08
3.292288e-07 1.342901e-07 -1.442366e-07 1.402500e-08 2.393345e-09 1.860858e-09
3.724789e-07 9.340842e-08 -1.526258e-07 5.037385e-08 1.059136e-08 2.155371e-08
2.460694e-06 -9.696193e-07 -5.007468e-07 9.661488e-07 3.067730e-08 2.571905e-07
3.653983e-07 1.120755e-07 -1.757051e-07 5.982818e-08 1.741538e-08 2.029982e-08
3.457050e-07 1.266846e-07 -1.443638e-07 4.302885e-08 1.051280e-08 1.093490e-08
2.424161e-06 -8.897684e-07 -8.703678e-07 -8.319715e-07 3.105972e-08 1.651897e-07
3.166541e-06 -1.538601e-06 -7.398508e-07 -6.090568e-07 -1.331106e-07 2.746675e-07
2.943069e-06 -1.536659e-06 -6.419037e-07 6.347615e-07 4.092350e-08 3.431340e-07
2.640380e-06 -1.075762e-06 -8.238555e-07 1.555505e-07 2.795087e-08 3.297292e-07
2.869612e-06 -1.521315e-06 -5.507222e-07 6.971346e-08 2.057582e-08 3.916655e-07
3.642697e-06 -1.334675e-06 -5.869652e-07 5.774973e-07 6.990563e-08 7.293717e-07
-4.070979e-07 1.720476e-06 -8.515059e-07 -3.147491e-07 -2.058073e-07 7.758100e-08
-3.329328e-07 1.793647e-06 -9.941100e-07 -8.628136e-07 -2.099728e-07 1.408614e-07
7.500312e-07 -1.290063e-07 -1.012336e-07 -9.452807e-07 7.429841e-07 -1.393777e-06
-9.475277e-08 1.597754e-06 -9.185153e-07 -6.829505e-07 -8.956776e-08 5.523742e-08
-2.203349e-07 1.126481e-06 -8.102952e-07 -4.294478e-07 -2.243389e-07 9.291630e-08
1.012636e-07 5.541504e-07 -4.533385e-07 -4.571096e-08 -1.950976e-08 6.419464e-08
1.108534e-06 -5.228825e-07 -5.063011e-07 -7.670265e-08 4.815863e-07 -5.686467e-07
-1.133804e-07 -8.238092e-08 -2.331800e-07 3.010578e-08 6.692052e-07 -4.990170e-07
-2.567123e-07 1.303893e-06 -8.071197e-07 -3.405993e-07 -2.210640e-07 1.145842e-07
1.974319e-07 4.824020e-07 -4.559859e-07 -1.116615e-07 -1.895549e-08 -3.904273e-09
-3.461637e-07 1.750292e-06 -9.587463e-07 -6.325083e-07 -2.600601e-08 2.604927e-09
4.523429e-07 -3.112149e-07 3.963245e-08 -2.331459e-07 7.712097e-07 -9.032578e-07
-1.723276e-07 1.007279e-06 -5.828947e-07 4.468917e-08 -2.418160e-08 -9.616994e-08
-1.562556e-06 3.516570e-06 -5.692836e-07 1.100157e-06 -3.495320e-07 -1.474122e-07
-2.094093e-06 2.769596e-06 3.084021e-06 -3.030862e-06 1.381733e-07 -3.987370e-08
-1.119070e-06 3.403239e-06 -2.182141e-07 1.702202e-06 -2.585168e-07 -2.404839e-07
-1.984522e-06 4.091576e-06 6.958201e-07 1.863976e-06 -9.989227e-07 -2.432329e-07
2.471244e-06 -1.101631e-06 -4.616834e-07 -5.973637e-08 1.519186e-07 -7.783517e-07
5.689851e-07 4.441571e-07 -9.315141e-07 4.025231e-07 -2.944943e-07 -1.061390e-07
9.528133e-08 -5.041945e-07 -5.310302e-07 -3.197566e-08 -2.391932e-07 -8.219599e-07
-9.858731e-06 -4.483161e-06 3.464220e-05 5.720075e-06 7.339640e-07 7.520497e-07
-1.335049e-07 -3.509110e-07 -1.876065e-07 6.674936e-08 7.777580e-07 -4.453251e-07
3.087437e-06 -1.337599e-06 -1.056148e-06 1.239116e-07 2.072188e-08 -4.955521e-07
7.710695e-07 -4.665653e-07 -4.247544e-08 -2.721937e-07 6.252364e-07 -1.080305e-06
-1.892739e-06 4.467611e-06 9.878634e-07 1.545147e-06 -5.990658e-07 -4.280781e-07
-1.931299e-06 4.130976e-06 -2.580165e-08 1.348456e-06 -6.938167e-07 -5.146380e-08
-6.627348e-08 2.262299e-06 -1.443810e-08 2.906289e-06 -4.048775e-07 -1.914441e-07
1.631698e-07 2.774755e-06 -4.327612e-07 2.774250e-06 -4.075406e-07 -3.186169e-07
4.704717e-06 -1.606037e-06 -1.451978e-06 4.183060e-07 -5.306164e-08 -1.697830e-07
-6.221645e-09 8.254937e-07 -7.590260e-07 -3.537585e-07 9.111002e-08 -4.480589e-08
4.067399e-07 1.508491e-06 1.544946e-06 -3.745034e-06 1.359371e-07 3.623405e-07
-2.451789e-06 2.962631e-06 3.111314e-06 2.915445e-06 -3.643391e-07 -3.117730e-07
2.506296e-06 5.023803e-08 -1.326650e-07 3.042005e-06 -2.589014e-07 -2.476651e-07
7.578460e-08 -4.206341e-07 -3.680311e-07 9.474186e-08 5.897740e-07 -2.710240e-07
-1.543999e-05 -4.704127e-06 4.590868e-05 -2.478062e-06 -1.496552e-05 6.508573e-08
2.560823e-06 -1.178110e-06 -8.858539e-07 1.849076e-07 -1.573275e-07 -1.652227e-07
3.514687e-06 -1.275962e-06 -1.060966e-06 1.511573e-07 -6.461131e-08 -7.767187e-07
1.955674e-06 -8.414961e-07 -9.540337e-07 1.331838e-08 -1.713425e-07 8.710486e-08
1.193645e-06 -6.736236e-08 -9.042434e-07 5.263219e-07 -5.818997e-07 -4.108036e-07
-1.879958e-06 2.518005e-06 7.270182e-06 -4.978436e-06 1.156212e-06 -1.019833e-06
-1.652284e-06 2.351987e-06 3.093041e-06 3.857813e-06 -3.092790e-08 -8.979550e-09
-5.661235e-07 2.338325e-06 2.021723e-06 3.724275e-06 -1.731154e-07 -4.104348e-07
-4.766654e-07 1.490868e-06 -8.844654e-07 2.828327e-08 -3.785482e-08 -1.197260e-08
-8.497007e-07 2.314820e-06 2.231289e-06 3.504741e-06 -1.620555e-07 2.922707e-07
1.585291e-07 2.827045e-07 -3.017878e-07 -1.911421e-07 -2.581046e-07 2.442923e-07
1.269170e-06 6.449768e-07 -1.184874e-06 9.004713e-07 -9.402775e-08 -8.027999e-08
-1.180707e-06 4.092397e-06 4.325221e-07 2.926075e-06 -2.714889e-07 1.633835e-07
3.284137e-06 -1.908715e-06 6.548370e-07 2.602955e-07 -5.986042e-08 -5.092724e-07
2.318323e-06 -1.552760e-06 -1.186205e-07 -8.224682e-08 -1.299779e-07 -8.992747e-07
3.170282e-06 -1.383128e-06 -4.877854e-07 4.100191e-07 -2.413549e-07 -1.966891e-07
1.666714e-06 -1.123924e-06 -6.089708e-07 3.134140e-07 -4.041652e-07 -4.146936e-07
-8.425224e-06 3.608659e-06 1.290592e-05 -5.725746e-07 1.870906e-06 5.683707e-07
-3.369256e-07 3.954277e-07 -2.959323e-07 -4.063427e-08 -8.165383e-07 -1.959238e-07
3.741538e-06 -1.389194e-06 -4.806353e-07 -1.985879e-07 1.318258e-07 -1.053859e-06
2.420925e-06 -1.403470e-06 1.777088e-07 -3.584989e-07 8.098957e-08 -1.249801e-06
2.289378e-06 -1.335235e-06 -8.105002e-07 2.492931e-07 -6.416525e-08 -4.290701e-07
-1.358294e-07 1.247346e-06 -9.608276e-07 7.680888e-07 -2.891054e-07 -1.795608e-07
1.862370e-06 -2.598761e-08 -1.230392e-06 3.706301e-07 -4.670067e-07 -1.910215e-07
2.764737e-06 -5.165369e-07 -1.133690e-06 1.085967e-06 -4.875717e-07 -5.187333e-07
3.939326e-07 5.723024e-08 -1.462036e-07 -4.651257e-09 -4.073784e-09 1.460663e-09
2.309700e-06 -2.540517e-07 -1.489534e-06 4.713533e-07 -1.590220e-07 -1.202974e-07
-5.107473e-08 -5.857083e-07 9.291974e-07 -1.027834e-07 5.917237e-07 -1.279225e-06
-9.627036e-08 8.297397e-07 -5.343030e-07 3.295852e-08 -2.311061e-08 -8.869151e-08
9.242371e-07 2.402696e-07 -1.024518e-06 1.241750e-07 -4.724780e-07 -3.087276e-08
2.375301e-06 -3.384248e-07 -1.348690e-06 6.115624e-07 -3.557951e-07 -3.659809e-07
5.402087e-07 2.342645e-07 -6.061698e-07 5.313497e-07 7.175144e-08 7.434866e-08
5.897787e-07 2.438999e-07 -5.505660e-07 5.083329e-07 9.818299e-08 2.077392e-08
4.311539e-07 2.791162e-07 -4.524486e-07 3.653132e-07 6.451719e-08 9.328383e-08
5.696084e-07 2.508545e-07 -5.445396e-07 5.090224e-07 5.470737e-08 1.698512e-07
-7.883118e-07 3.503369e-06 -6.956987e-07 -1.861786e-06 3.875632e-07 -2.432988e-08
5.458814e-06 -3.259344e-06 1.961903e-06 -1.500815e-06 -6.063419e-07 1.595942e-07
5.837909e-07 7.283588e-07 6.057995e-07 2.837327e-06 -3.539860e-07 -2.093320e-07
-4.454198e-07 2.829045e-06 -6.367889e-07 -1.995467e-06 3.123271e-07 2.716642e-08
-1.048082e-06 2.439056e-06 -6.413548e-07 -1.285575e-06 4.742713e-07 -1.278822e-07
-5.894868e-07 1.919597e-06 -4.831140e-07 -1.532224e-06 5.526469e-07 -2.365150e-07
-4.042399e-07 3.115800e-06 -6.562515e-07 -2.166385e-06 3.221040e-07 -1.805803e-07
-2.102641e-06 -8.988615e-07 8.374397e-06 -6.271873e-06 1.653114e-06 1.638157e-07
3.875739e-07 6.149740e-08 -1.464027e-07 -6.880298e-09 -1.634344e-09 1.203168e-09
-1.071381e-05 3.664978e-06 2.166457e-05 -8.587825e-07 5.468886e-06 3.140774e-07
4.981237e-07 -1.622663e-08 -1.624370e-07 -3.661859e-09 -3.380018e-09 7.940913e-09
6.697955e-07 -1.386676e-07 -2.824511e-07 -5.132412e-08 -1.636634e-08 1.047102e-07
-9.413658e-06 4.041849e-06 1.354885e-05 3.441523e-07 3.039689e-06 3.303264e-07
-6.460098e-06 4.742262e-06 9.385819e-06 -1.993777e-06 2.238571e-06 -9.019990e-07
6.505687e-07 -1.314092e-07 -2.445641e-07 -5.843641e-09 3.985565e-09 1.070761e-08
-5.379005e-06 4.633244e-06 1.148562e-05 -2.321255e-06 2.386913e-06 -1.033678e-07
5.730892e-07 -1.110744e-07 -1.642733e-07 -2.410143e-10 -2.235345e-10 1.745232e-08
6.745095e-07 -1.180623e-07 -2.719774e-07 -9.128032e-09 -2.336129e-09 1.205365e-08
-7.544699e-06 2.380365e-06 1.698471e-05 -1.583135e-06 3.077742e-07 -2.095134e-07
6.349531e-07 1.753436e-07 -4.451663e-07 -4.084016e-07 -6.423734e-08 8.404301e-08
8.318170e-07 1.205485e-07 -6.559227e-07 -6.072715e-07 -1.148285e-07 3.782146e-08
5.868403e-07 -9.653790e-08 -1.958780e-07 -4.679468e-09 -2.291600e-09 1.064844e-08
4.878140e-07 -1.815755e-08 -1.866837e-07 -2.192616e-08 -5.207909e-09 5.215868e-09
3.863680e-07 6.758800e-08 -1.463628e-07 3.105743e-09 -3.975615e-10 1.187945e-09
7.708019e-07 1.019077e-07 -7.029011e-07 -6.444935e-07 -1.237436e-07 1.843529e-07
5.835675e-07 1.669605e-07 -4.980502e-07 -4.320755e-07 -4.300131e-08 1.477683e-07
3.271138e-07 1.215779e-07 -1.372961e-07 1.264640e-09 1.024828e-09 3.365885e-11
7.994844e-07 1.489623e-07 -6.346138e-07 -6.007135e-07 -6.570410e-08 2.320457e-07
-8.055805e-08 7.052389e-07 -3.994570e-07 -4.714228e-08 5.106190e-08 -4.749807e-08
-5.371907e-08 5.728721e-07 -3.204169e-07 -6.036432e-08 1.626158e-07 -7.534463e-08
3.625645e-07 1.115338e-07 -2.166560e-07 1.184579e-07 1.282801e-08 2.341024e-08
4.037241e-07 6.667783e-08 -1.467133e-07 7.023804e-09 4.434607e-09 3.785199e-09
3.465101e-07 1.029112e-07 -1.401739e-07 3.383481e-10 1.691308e-10 1.975599e-09
-9.366271e-08 5.411786e-07 -2.673794e-07 -4.315643e-08 1.967483e-07 -7.369547e-08
5.899600e-07 -1.054251e-07 -1.803206e-07 -6.704330e-09 -9.258236e-09 1.474608e-08
4.947174e-07 -1.795437e-08 -1.785389e-07 1.885021e-08 7.225065e-09 8.995438e-09
3.465101e-07 1.167402e-07 -1.405095e-07 3.171028e-09 2.479103e-09 1.801767e-09
5.827735e-07 -1.033633e-07 -1.794725e-07 -4.450377e-09 -7.893771e-09 1.696575e-08
5.814733e-07 -6.998281e-08 -2.557131e-07 8.851221e-08 4.186187e-08 8.344552e-08
5.790734e-07 -9.653076e-08 -1.795247e-07 -1.148870e-08 -7.349468e-09 1.538236e-08
3.433516e-07 1.346456e-07 -1.432237e-07 1.178422e-08 3.092615e-09 -2.582860e-09
5.658425e-07 -9.461943e-08 -2.019684e-07 -1.561617e-08 -4.580092e-09 3.343940e-08
3.758936e-07 8.264362e-08 -1.522551e-07 5.835330e-08 5.446235e-09 1.979046e-08
5.709820e-07 -1.028161e-07 -1.715826e-07 -2.190682e-09 -8.577378e-09 1.309126e-08
5.708207e-07 -9.851730e-08 -1.650524e-07 -4.198717e-09 -1.862880e-09 7.869001e-09
4.074197e-07 7.205436e-08 -1.406747e-07 -2.266387e-08 -1.029285e-08 1.185256e-08
3.977332e-07 7.879509e-08 -1.432252e-07 -3.058604e-09 -1.667542e-09 2.074128e-09
2.316077e-08 8.619727e-07 -5.581232e-07 4.815071e-07 7.809551e-08 4.443794e-08
2.121873e-08 9.066090e-07 -6.468254e-07 5.223114e-07 7.976344e-08 1.049831e-07
3.432609e-07 1.264023e-07 -1.642551e-07 -5.777074e-08 -2.453682e-08 2.983641e-08
4.019744e-07 5.985547e-08 -1.404500e-07 -1.657698e-08 -4.388310e-09 7.877419e-09
1.563426e-07 7.319302e-07 -5.454377e-07 5.317510e-07 2.019375e-07 9.265746e-08
4.159695e-07 5.216933e-08 -1.403788e-07 -1.584826e-08 -4.100142e-09 6.775754e-09
4.629230e-07 3.359516e-08 -1.943543e-07 -8.325438e-08 -1.926074e-08 3.193483e-08
1.576246e-07 7.877664e-07 -6.575344e-07 6.077266e-07 5.824910e-08 -1.848781e-08
1.576246e-07 8.533692e-07 -7.856974e-07 6.881035e-07 2.905825e-08 6.364726e-08
1.898969e-07 6.273146e-07 -5.198339e-07 4.169561e-07 6.210211e-08 7.605153e-08
4.610438e-07 1.071636e-08 -1.501007e-07 -6.642799e-09 -5.582499e-09 5.169482e-09
4.579129e-07 -2.213686e-09 -1.488047e-07 -4.852930e-09 -2.502438e-09 5.875129e-09
5.139436e-07 -4.555838e-08 -1.580724e-07 -1.133827e-08 -4.755491e-09 1.045612e-08
1.676460e-07 5.817790e-07 -4.599032e-07 3.743324e-07 7.744213e-08 5.651660e-08
2.128093e-07 6.277342e-07 -6.093662e-07 4.655527e-07 1.080018e-07 3.979228e-08
4.572310e-07 8.078450e-09 -1.600813e-07 -6.872978e-09 -7.179524e-09 3.317635e-09
5.421595e-07 -5.507989e-08 -1.860685e-07 -6.479657e-09 -1.672345e-09 8.467528e-09
9.627609e-07 -1.776670e-07 -5.117696e-07 -2.953140e-07 -3.205772e-09 7.198359e-08
5.826219e-07 -5.452340e-08 -2.451718e-07 -8.172259e-08 -1.403892e-08 4.522390e-08
9.353463e-07 -2.313971e-07 -4.685765e-07 -1.628372e-07 -2.009582e-08 1.608383e-07
1.116974e-06 -2.079140e-07 -5.802647e-07 -1.567295e-07 -5.609765e-09 4.108327e-08
1.064859e-06 -2.779778e-07 -5.412246e-07 -2.189588e-07 -2.558347e-09 7.077224e-08
1.401993e-06 -2.803548e-07 -7.038340e-07 -2.978263e-07 -7.659623e-09 9.612245e-08
1.349084e-06 -3.466027e-07 -7.121109e-07 -1.401584e-07 -2.053539e-08 1.738797e-07
1.363140e-06 -2.757375e-07 -6.428542e-07 -1.424819e-07 7.918950e-09 1.103099e-07
-2.373414e-07 8.930158e-07 -5.205525e-07 -9.748393e-08 -2.065240e-07 1.089387e-07
1.451093e-06 -4.480142e-07 -6.573884e-07 -2.926045e-07 -7.503080e-08 2.701798e-07
1.484982e-06 -3.804383e-07 -6.742482e-07 -2.365004e-07 -5.330882e-08 3.056090e-07
-3.141274e-07 1.204934e-06 -6.747910e-07 1.244624e-07 5.248757e-08 -9.271165e-09
-2.682567e-07 1.043074e-06 -5.485247e-07 1.825098e-08 1.593113e-08 1.154552e-08
-3.593140e-07 1.145058e-06 -4.142093e-07 7.508571e-08 -6.010078e-07 -1.401546e-07
-2.982982e-07 1.125867e-06 -5.888183e-07 3.565424e-08 4.185883e-08 3.312149e-09
-2.806533e-07 9.957255e-07 -5.824514e-07 6.240084e-08 3.210961e-08 1.249767e-08
-2.718054e-07 1.110175e-06 -5.963191e-07 1.079578e-07 4.269776e-08 2.845432e-08
-5.631505e-07 1.341881e-06 -7.357002e-07 5.812101e-08 -7.844557e-07 1.289542e-08
-2.805233e-07 9.335232e-07 -5.304225e-07 -5.745639e-09 1.030606e-07 2.166519e-08
-2.889179e-07 1.055092e-06 -5.735286e-07 3.530693e-08 2.200123e-08 -1.532779e-08
1.057702e-06 1.248807e-07 -7.736163e-07 9.651247e-07 2.378417e-07 2.159789e-07
1.136862e-06 2.495653e-07 -8.909897e-07 1.501939e-06 1.521834e-07 1.880951e-07
6.258811e-07 1.276886e-06 -8.423543e-07 1.796212e-06 5.494108e-07 4.734050e-07
6.258811e-07 8.597866e-07 -6.736395e-07 1.856347e-06 6.285572e-07 4.220823e-07
2.142836e-07 3.980867e-07 -3.722957e-07 -3.907276e-08 -2.454976e-16 3.141545e-09
1.224223e-06 6.420890e-07 -7.380539e-07 1.985312e-06 3.867076e-07 4.338996e-07
5.958033e-07 9.965810e-07 -5.663031e-07 2.047625e-06 -6.004298e-08 8.424506e-08
3.768750e-07 7.636537e-08 -1.394966e-07 -2.891789e-09 -2.833826e-10 8.131015e-10
3.792830e-07 8.100428e-08 -1.491307e-07 -1.144111e-08 -3.510301e-09 3.800213e-09
3.826477e-07 7.901484e-08 -1.491312e-07 -2.518103e-08 -6.149972e-09 7.421838e-09
3.921194e-07 6.287978e-08 -1.429937e-07 -4.057229e-09 -3.276875e-09 1.505605e-09
1.337418e-06 5.679496e-07 -7.611242e-07 2.069858e-06 1.444829e-07 4.957511e-08
4.173513e-07 4.707547e-08 -1.609918e-07 -1.587083e-08 3.114072e-09 2.559476e-09
3.859166e-07 6.874916e-08 -1.435408e-07 -5.433243e-09 -1.288038e-09 1.275145e-09
4.197347e-07 3.989229e-08 -1.374415e-07 -2.280638e-08 -7.285378e-09 1.017852e-08
2.494188e-07 3.654662e-07 -5.205023e-07 1.781050e-07 -4.930667e-07 -2.000482e-07
3.854281e-07 7.398295e-08 -1.397766e-07 -2.224903e-09 -2.483011e-11 -1.301809e-09
-4.306656e-07 1.609868e-06 -8.638379e-07 2.826634e-07 -2.859382e-07 -7.315715e-08
3.580210e-07 1.039184e-07 -1.463022e-07 -4.715599e-09 -1.743027e-09 4.321139e-09
-4.699707e-07 1.240541e-06 -7.045632e-07 1.070367e-07 -6.650186e-07 -2.320954e-07
-4.139876e-07 1.571206e-06 -8.163045e-07 2.320815e-07 -2.631795e-07 -1.144338e-07
-4.901670e-07 1.701357e-06 -8.451905e-07 1.542486e-07 -2.973731e-07 -7.717888e-08
-4.887661e-07 1.796134e-06 -8.684011e-07 1.827454e-07 -3.024540e-07 -6.573322e-08
2.510401e-06 -1.048679e-06 -3.758956e-07 9.672589e-07 -4.033893e-07 -2.391022e-07
1.413059e-06 -1.051813e-06 -3.031979e-07 8.320175e-07 -5.295579e-07 -7.426120e-07
2.035376e-06 -1.061359e-06 -4.061408e-07 2.178313e-07 -3.062004e-07 -7.025400e-07
4.201272e-07 3.941330e-08 -1.596069e-07 -1.542189e-08 5.855390e-10 5.201388e-09
4.159228e-07 4.789008e-08 -1.474351e-07 -5.013192e-09 -4.922290e-09 3.111173e-09
2.731262e-06 -9.727823e-07 -9.271916e-07 5.700472e-07 -4.144344e-07 -4.544214e-07
4.272556e-07 4.147684e-08 -1.536490e-07 4.651324e-08 1.204680e-08 2.214644e-08
-2.327975e-08 2.206680e-07 -2.276926e-07 -7.160972e-08 -3.517032e-07 2.501162e-07
8.312969e-08 3.694242e-07 -2.378357e-07 -1.317385e-08 -3.891746e-08 1.028764e-07
9.378626e-07 4.375201e-07 -1.140259e-06 -1.357397e-07 2.009263e-07 -4.615566e-09
8.885226e-07 3.979993e-07 -1.052153e-06 -5.934322e-07 2.889548e-07 -1.553610e-07
-2.426042e-09 3.753040e-07 -2.790995e-07 -5.062822e-08 -8.023088e-08 1.269127e-07
-6.493998e-08 9.479961e-07 -6.995506e-07 1.085119e-07 -4.273601e-08 -1.310363e-09
1.100642e-06 4.271730e-07 -1.046064e-06 -3.356922e-07 3.154397e-07 -1.139265e-07
2.375043e-07 3.267018e-07 -3.126527e-07 -2.286245e-07 -1.752171e-07 1.604205e-07
2.203605e-07 1.931917e-07 -1.822537e-07 -6.847576e-08 -6.959399e-08 8.190003e-08
2.140875e-07 4.328030e-07 -4.076054e-07 -7.080185e-08 4.314161e-09 3.154855e-08
5.698933e-07 7.206730e-07 -9.731673e-07 -4.720959e-07 1.010051e-07 -8.508168e-09
7.218446e-07 6.022360e-07 -1.033972e-06 -3.044723e-07 1.548472e-07 -1.641856e-08
5.718876e-08 3.855816e-07 -2.557984e-07 -4.827922e-08 -5.927739e-08 1.380571e-07
8.688631e-07 5.676428e-07 -1.080441e-06 -2.178049e-07 1.105861e-07 3.363903e-08
1.490266e-07 4.952585e-07 -4.892507e-07 1.112377e-07 -3.495188e-07 -7.128761e-08
5.654708e-07 3.207638e-07 -6.864087e-07 5.713268e-08 -5.034713e-07 -9.892698e-08
4.141848e-07 5.443633e-08 -1.693488e-07 2.175403e-08 -6.255662e-09 -8.802563e-10
1.710739e-07 4.855535e-07 -5.043426e-07 4.529583e-08 -3.140166e-07 -7.411386e-08
-5.411227e-06 4.577574e-06 6.926698e-06 -2.091035e-06 1.557206e-06 -6.733971e-07
8.413189e-08 3.972150e-07 -3.105105e-07 -1.986187e-08 -4.849408e-08 1.119737e-07
1.951553e-07 2.740886e-07 -2.544035e-07 -2.234930e-08 -9.892930e-09 9.160720e-08
1.150133e-07 3.140513e-07 -2.096167e-07 -4.732869e-08 -4.726967e-08 1.170627e-07
4.445864e-07 4.019390e-07 -6.747949e-07 5.630796e-08 -4.700482e-07 -1.153802e-07
-2.543986e-08 1.837024e-07 -3.803448e-07 -4.026991e-09 -4.701517e-07 -9.810455e-08
-4.087197e-07 1.169962e-06 -7.234736e-07 2.550938e-07 -7.401953e-07 -2.252009e-07
3.976159e-08 3.445837e-07 -3.479543e-07 1.025319e-07 -3.968239e-07 -5.189137e-08
1.710133e-07 7.056498e-07 -6.894268e-07 -4.913988e-07 4.774915e-07 -2.802574e-07
1.346564e-06 -1.042812e-07 -1.202220e-06 6.207387e-07 -4.112281e-07 -2.305339e-07
-3.977541e-07 1.233408e-06 -7.013097e-07 1.631245e-08 -2.944945e-08 -3.575104e-08
9.079007e-07 -6.367720e-08 -8.060894e-07 1.394108e-07 -5.326886e-07 1.160153e-07
-3.305234e-07 1.145566e-06 -4.185535e-07 7.000195e-08 -6.045518e-07 -7.933018e-08
2.250329e-06 -7.237553e-07 -9.989680e-07 2.869473e-07 -4.923398e-07 -2.435395e-07
1.881087e-06 -2.744797e-07 -1.202788e-06 3.259219e-07 -3.944269e-07 1.077829e-07
1.748181e-06 -1.771643e-08 -1.203512e-06 3.649042e-07 -4.419899e-07 -1.324188e-07
-2.330939e-07 7.644952e-07 -3.026216e-07 1.996501e-08 -3.150677e-08 -1.120821e-07
-3.324849e-07 1.147541e-06 -6.632669e-07 6.566808e-08 -5.149268e-08 -8.140325e-08
-4.752714e-07 1.607192e-06 -7.927473e-07 1.789140e-07 9.271541e-08 -3.574074e-10
-4.796411e-07 1.489178e-06 -7.769627e-07 3.415625e-07 2.950243e-07 9.195335e-09
-3.918214e-07 1.334384e-06 -6.642119e-07 1.273113e-07 2.159331e-07 4.979092e-08
-3.835361e-06 4.705752e-06 1.238940e-06 -5.000522e-07 2.769089e-07 1.728839e-07
-1.946982e-07 9.534044e-07 -6.991791e-07 2.745225e-07 -2.880945e-07 -1.283129e-07
-3.361874e-07 1.336614e-06 -6.691927e-07 2.098084e-07 2.232934e-07 1.513444e-08
-2.710965e-07 1.202648e-06 -6.499911e-07 1.168719e-07 3.861218e-08 3.090660e-08
-3.961085e-07 1.413154e-06 -7.182122e-07 1.389387e-07 1.059113e-07 -2.197866e-08
-5.636945e-08 1.045018e-06 -6.903933e-07 2.543885e-07 -1.646097e-07 -1.138044e-07
6.046164e-07 -1.464984e-07 -2.034904e-07 3.140865e-08 3.868742e-09 1.195295e-07
-3.143530e-07 8.247115e-07 -4.867815e-07 -7.408673e-09 -4.930804e-08 4.265430e-08
-4.083601e-07 1.440259e-06 -7.866133e-07 -2.198787e-09 -1.504568e-07 -3.071827e-09
-2.982116e-07 8.450621e-07 -4.612606e-07 1.372692e-08 -4.906292e-08 -1.089313e-07
-3.153475e-07 1.297812e-06 -7.656348e-07 -2.248172e-07 -1.890501e-07 3.203003e-08
-4.367809e-07 1.521562e-06 -8.766703e-07 -2.123292e-09 -8.834575e-09 1.723775e-08
5.854956e-07 -1.113198e-07 -1.612002e-07 1.045220e-08 3.128380e-09 4.123876e-08
-2.900271e-07 7.462276e-07 -3.664820e-07 1.464420e-08 -1.917951e-07 -1.183100e-07
-3.430871e-07 1.260021e-06 -7.644472e-07 1.998675e-07 -1.595191e-07 -5.220845e-08
-6.555769e-07 2.563899e-06 -9.240360e-07 8.019964e-07 -5.737304e-07 -2.465881e-07
6.257672e-07 -1.162661e-07 -2.360851e-07 1.211933e-08 4.311294e-10 4.392988e-08
-2.787602e-07 4.676651e-07 -3.004557e-07 -7.680555e-10 -6.182237e-08 2.344689e-08
6.242888e-07 -1.243712e-07 -2.376910e-07 4.417517e-09 -1.364557e-09 9.540446e-08
-3.647285e-07 1.233408e-06 -6.950919e-07 1.359765e-08 -3.029483e-08 -2.062529e-08
6.045509e-07 -1.308982e-07 -1.962578e-07 3.289094e-08 1.534382e-08 1.211191e-07
-3.647286e-07 8.724964e-07 -5.044595e-07 -4.084378e-09 -4.992804e-08 -2.860299e-08
5.927628e-07 -1.417200e-07 -1.848352e-07 1.449818e-08 -2.324100e-08 1.044928e-07
6.291580e-08 5.692643e-07 -3.597638e-07 9.487612e-08 3.837326e-08 3.504176e-08
5.871734e-07 -1.157526e-07 -1.711688e-07 1.547413e-08 1.136804e-09 6.697048e-08
6.228621e-07 -1.233774e-07 -2.327625e-07 1.961724e-08 3.492101e-09 4.551945e-08
5.843703e-07 -1.146590e-07 -1.562645e-07 2.669223e-09 3.280951e-09 4.073307e-08
-2.402341e-07 4.421966e-07 -3.047252e-07 4.427554e-08 5.772331e-07 5.553568e-08
-4.237894e-06 4.322107e-06 3.747291e-06 2.175456e-06 -6.095629e-07 -1.165495e-07
-2.653273e-07 7.595115e-07 -4.246054e-07 -1.152813e-07 2.744779e-07 -1.165661e-07
-1.263703e-05 1.149394e-06 2.275629e-05 -2.985286e-06 4.058350e-06 -1.162708e-07
-1.560375e-07 6.050580e-07 -2.631243e-07 2.243719e-07 4.504494e-07 1.017140e-07
-8.322014e-08 6.530256e-07 -3.869900e-07 -1.493775e-08 8.549167e-09 -2.449217e-08
-9.385654e-06 3.423983e-06 1.608834e-05 1.773368e-06 1.781761e-06 2.057235e-06
-1.385399e-05 -5.431960e-06 3.673361e-05 1.274109e-06 7.464159e-06 2.695764e-06
-5.332169e-08 6.488564e-07 -3.234509e-07 7.728368e-08 8.277473e-08 9.225766e-08
2.974784e-06 -5.854273e-07 -8.982417e-07 2.493964e-06 3.123977e-07 -1.640548e-07
-7.086105e-07 2.112264e-06 -8.871132e-07 -1.064924e-07 6.144603e-08 -2.030843e-08
-1.668555e-05 -1.020669e-05 5.419053e-05 1.765414e-06 3.041310e-06 -3.305996e-07
-1.605405e-05 7.027512e-07 2.368652e-05 -1.745592e-06 1.126163e-05 2.524329e-06
-1.270822e-05 9.694612e-07 2.554669e-05 -3.178583e-06 3.857862e-06 -9.729487e-07
-2.387501e-07 4.237661e-07 -2.058436e-07 6.211517e-08 4.540947e-07 3.579399e-09
-3.725904e-07 1.474695e-06 -7.072666e-07 7.581780e-08 7.132550e-08 -5.214470e-09
-2.009073e-07 1.335966e-06 -8.132037e-07 -5.130979e-07 1.385892e-07 -5.541324e-08
2.338288e-06 -7.997163e-07 -8.228688e-07 6.576337e-08 9.482951e-09 3.266553e-07
2.282414e-06 -8.766333e-07 -8.980626e-07 -5.644594e-07 -8.303031e-08 1.765146e-07
2.291664e-06 -4.905301e-07 -8.698167e-07 -8.572047e-07 -5.492116e-10 1.833641e-07
-5.509198e-07 1.598100e-06 -7.586886e-07 -1.745360e-07 2.934901e-07 -3.870803e-08
2.118367e-06 -6.266500e-07 -8.734841e-07 7.583600e-08 2.595502e-08 4.050712e-07
2.808890e-06 -9.801002e-07 -8.137731e-07 -1.662374e-07 -1.490738e-08 6.438105e-07
2.042376e-07 1.003601e-06 -7.907119e-07 -5.082909e-07 5.339851e-08 -2.526668e-08
2.584499e-06 -6.553384e-07 -9.418818e-07 8.099978e-09 7.325210e-08 2.396467e-07
-2.155101e-07 7.876780e-07 -5.418603e-07 -1.638892e-07 4.239033e-07 -1.660572e-07
-2.524951e-07 8.772750e-07 -4.367884e-07 -3.837429e-08 3.990336e-08 -4.000931e-08
1.998610e-06 -7.902404e-07 -7.897842e-07 -4.944906e-07 -1.060726e-08 4.495356e-07
4.831111e-08 1.071031e-06 -8.074039e-07 -5.885454e-07 1.633138e-07 -1.319778e-08
1.739806e-07 9.260021e-07 -6.179460e-07 -5.062629e-07 4.316589e-07 -2.211274e-07
-7.735918e-08 2.955535e-07 -3.018110e-07 -5.072503e-08 4.157812e-07 -1.606543e-07
-1.997202e-07 1.098725e-06 -6.651642e-07 -2.336573e-07 5.334943e-08 -4.044427e-08
-1.643702e-07 9.498229e-07 -5.473306e-07 -2.019750e-07 1.586570e-07 -6.632341e-08
-3.868445e-07 1.509570e-06 -7.190279e-07 -2.396231e-07 3.192469e-07 -6.409142e-08
3.695483e-06 -2.778692e-06 7.321589e-07 6.679502e-07 -1.627346e-07 -9.092689e-07
4.639093e-07 8.155920e-07 -7.666486e-07 7.383042e-07 -6.861585e-07 -4.349478e-07
2.492456e-06 -6.386578e-07 -9.418818e-07 -2.973811e-07 -1.279832e-07 2.030132e-07
2.362744e-06 -3.268593e-07 -1.319392e-06 -4.196639e-07 4.387637e-07 -3.317264e-07
2.210125e-06 -1.419054e-07 -1.551973e-06 -4.275650e-07 1.436012e-07 -1.132411e-07
2.083659e-06 2.141242e-07 -1.109675e-06 -1.287311e-06 4.972311e-07 -5.218148e-07
1.543149e-06 5.839053e-07 -9.527274e-07 -1.394642e-06 2.674619e-07 -2.102493e-07
2.836663e-06 -3.174126e-07 -1.147820e-06 -1.539086e-06 4.409634e-09 -1.879544e-08
-6.497704e-07 1.958013e-06 -9.584250e-07 5.775772e-07 -3.943194e-07 -1.179276e-07
1.935561e-06 1.309755e-07 2.836560e-07 -3.359168e-06 4.910265e-07 -7.213271e-07
-1.433028e-07 1.819729e-06 -1.034518e-06 1.371085e-06 -3.306503e-07 -1.782618e-07
2.792643e-06 -3.822491e-07 -9.126622e-07 -1.865346e-06 2.671904e-07 -1.377824e-07
7.740174e-07 -1.744034e-07 -3.251617e-07 -4.071659e-08 -1.593752e-08 7.211600e-08
-8.210796e-06 3.200193e-06 1.840274e-05 -4.509629e-06 4.903035e-06 -3.396670e-06
-1.403044e-07 5.291468e-07 -2.825684e-07 -1.363189e-07 -1.111600e-07 1.331039e-07
-3.296332e-07 9.555359e-07 -4.181555e-07 2.339862e-07 -5.128177e-07 -1.258762e-07
7.479487e-07 -1.335208e-07 -3.392330e-07 -5.894126e-08 -1.055846e-09 2.684133e-08
7.421663e-07 -1.386676e-07 -3.160279e-07 -5.669561e-08 -1.309307e-08 7.986095e-08
-8.208467e-08 1.377441e-06 -8.348690e-07 1.382408e-06 -4.651543e-07 -3.092093e-07
6.564998e-07 -1.115803e-07 -2.752034e-07 -7.967295e-08 -9.257040e-09 5.488822e-08
6.415293e-07 -9.403621e-08 -2.649357e-07 -7.399887e-08 -2.068029e-08 1.482825e-08
1.766211e-07 2.156453e-06 -1.109861e-06 1.834220e-06 -3.512870e-07 -2.743614e-07
6.979135e-07 -9.473683e-08 -2.965583e-07 -1.097457e-07 -1.181216e-08 4.521188e-08
6.941427e-07 -1.293072e-07 -3.184540e-07 -7.042268e-08 -4.022591e-09 4.128474e-08
2.133824e-07 1.858670e-06 -1.004993e-06 1.342226e-06 -3.891633e-07 -1.991578e-07
-1.106855e-06 2.942646e-06 -8.331354e-07 1.212449e-06 -3.389268e-07 -1.418516e-07
-3.638535e-08 1.083290e-06 -7.034986e-07 -5.779499e-07 2.543346e-07 -1.744146e-07
-5.039635e-08 1.013119e-06 -7.140154e-07 -4.249221e-07 2.235844e-07 -7.660087e-08
-3.452500e-07 6.484474e-07 -3.335923e-07 -2.530523e-07 -8.025791e-07 2.317803e-07
-2.607697e-08 8.991774e-07 -6.185795e-07 -3.091619e-07 8.188970e-08 3.261660e-09
-1.129495e-06 3.293884e-06 -6.668987e-07 1.373034e-06 -7.341509e-07 -3.355756e-07
-3.857629e-07 2.364096e-06 -1.038299e-06 1.466776e-06 -2.573046e-07 -1.630326e-07
5.396678e-07 5.136494e-07 -8.035148e-07 -8.807245e-07 -2.086048e-07 2.421816e-07
-1.307795e-07 1.253643e-06 -7.849791e-07 -5.663495e-07 -2.384546e-07 1.152304e-07
-1.373289e-07 1.237070e-06 -6.655410e-07 -3.922354e-07 1.796102e-07 -4.222924e-08
-1.383052e-07 1.181656e-06 -8.132037e-07 -4.256975e-07 7.398648e-08 -7.388645e-08
6.035095e-08 2.156870e-07 -2.355459e-07 -8.872566e-08 -2.655628e-07 2.136248e-07
1.150203e-07 2.655260e-07 -2.229142e-07 -5.713048e-08 -9.838958e-08 1.157134e-07
5.689214e-08 3.877127e-07 -2.262561e-07 -1.465696e-07 -2.086524e-07 1.801294e-07
-6.198181e-08 6.219579e-07 -5.216604e-07 -4.204135e-08 -2.690336e-08 1.494147e-07
-1.067894e-06 2.848085e-06 -8.249574e-07 -1.247865e-06 -3.940548e-07 6.618105e-08
-2.642598e-07 7.694350e-07 -3.073461e-07 -2.044568e-08 -3.555920e-08 8.535437e-08
1.087735e-06 1.118580e-06 -8.096473e-07 -2.307073e-06 -3.058075e-08 1.190003e-07
-1.021087e-08 3.694242e-07 -2.618969e-07 3.698141e-09 -4.719630e-08 1.502948e-07
5.258256e-07 7.592166e-07 -7.633637e-07 -9.720826e-07 -3.056222e-07 2.281352e-07
-2.567150e-08 8.907629e-07 -5.923568e-07 -2.775941e-07 1.619913e-07 -8.041282e-08
2.414577e-07 2.518499e-07 -2.745412e-07 -1.676370e-08 -1.207576e-08 5.852490e-08
1.217396e-07 1.002705e-06 -8.411078e-07 -5.435699e-07 3.486416e-08 -9.542373e-08
4.000976e-09 1.081091e-06 -7.900809e-07 -5.441178e-07 2.099939e-07 -1.652234e-07
-2.809359e-08 8.631935e-07 -7.581614e-07 -3.254483e-07 5.520930e-09 -2.032783e-08
1.205209e-07 2.710830e-07 -1.936954e-07 9.908307e-08 1.102778e-07 8.894181e-08
1.686646e-06 -2.570939e-08 -8.936880e-07 -1.049082e-06 -1.142589e-07 1.725130e-07
3.012405e-07 1.042781e-06 -8.470116e-08 -2.779816e-06 -3.199248e-07 5.117409e-07
4.457664e-07 6.137866e-08 -2.419984e-07 -1.117178e-07 -1.036052e-08 3.121671e-08
4.523827e-07 4.535764e-08 -2.453128e-07 -1.048870e-07 -4.909292e-09 -4.163554e-09
4.992888e-07 4.194794e-08 -2.757297e-07 -1.622499e-07 -4.204003e-08 3.782186e-08
5.374420e-07 7.114063e-08 -4.199829e-07 2.906987e-07 5.398804e-08 1.152452e-07
4.430710e-07 6.395203e-08 -2.009805e-07 -8.036819e-08 -1.688816e-08 1.828744e-08
4.528989e-07 9.001728e-09 -1.549649e-07 4.221899e-08 6.338340e-09 2.482057e-08
4.488303e-07 7.700700e-09 -1.699135e-07 6.422666e-08 2.661185e-08 4.163166e-08
3.990064e-07 9.252850e-08 -2.690647e-07 -1.222556e-07 6.020657e-09 1.286376e-09
5.565834e-07 -5.843917e-08 -2.096061e-07 1.453295e-08 6.302775e-09 -6.563458e-10
3.735856e-07 9.312120e-08 -1.504574e-07 3.421664e-08 4.598766e-09 3.112108e-09
3.856399e-07 8.722046e-08 -1.589352e-07 6.333704e-08 1.948346e-08 1.907477e-08
4.572409e-07 5.490645e-09 -1.598452e-07 4.753690e-08 2.020845e-08 2.282014e-08
4.507297e-07 3.014194e-08 -1.680124e-07 3.301197e-08 2.742019e-09 1.092896e-08
4.292343e-07 1.322155e-07 -3.012608e-07 -1.744888e-07 -5.763688e-08 2.356114e-08
4.298732e-07 6.738509e-08 -1.857991e-07 9.366214e-08 1.337624e-08 2.974807e-08
5.429633e-07 7.469636e-08 -3.116093e-07 2.430929e-07 4.181616e-08 8.357797e-08
5.794853e-07 1.834159e-08 -3.538997e-07 2.169128e-07 3.559087e-08 8.965499e-08
6.027933e-07 8.446828e-07 -8.014146e-07 1.232525e-06 2.734236e-07 2.483544e-07
4.049981e-07 1.037132e-07 -1.997645e-07 -8.739163e-08 -1.964684e-08 1.723103e-08
3.382283e-07 1.495834e-07 -1.608012e-07 6.741581e-08 8.226574e-09 9.658639e-09
4.200106e-07 8.013362e-08 -1.812594e-07 -7.435041e-08 -9.696789e-09 1.113428e-08
4.070630e-07 7.101207e-08 -1.838605e-07 -6.235936e-08 3.411658e-09 9.281574e-09
3.628108e-06 -6.960140e-06 1.067938e-05 3.021253e-06 -1.861986e-07 -9.988075e-07
3.323833e-07 -7.830311e-08 -4.878400e-07 -3.228008e-07 5.799489e-07 -1.815392e-07
-6.820657e-08 9.204666e-07 -6.299947e-07 -2.712664e-07 1.160242e-07 -2.111616e-08
-6.634467e-07 1.915184e-06 5.635465e-07 -2.441846e-06 5.224177e-07 -3.060071e-07
-2.869099e-06 1.907470e-06 7.234785e-06 -4.491623e-06 -5.414444e-07 3.230805e-07
4.332931e-07 3.769622e-08 -1.495597e-07 7.857381e-09 5.989226e-09 6.249448e-09
4.218391e-06 -2.066236e-06 5.310904e-07 -6.243763e-07 6.869073e-08 -1.167820e-06
1.520463e-06 -2.599192e-06 1.512796e-05 4.640951e-06 -2.465076e-06 -3.490419e-06
3.735311e-06 -4.862390e-06 7.688722e-06 3.498716e-06 -6.072484e-07 -1.027378e-06
1.663446e-06 -8.290995e-06 1.702926e-05 2.336376e-06 -1.101123e-06 -1.919830e-08
-2.052596e-07 1.537638e-06 -8.783508e-07 -5.726758e-07 1.664600e-07 -4.169550e-08
4.155116e-06 -8.167714e-06 1.347877e-05 3.924471e-06 -3.372863e-06 -4.480913e-06
1.354190e-06 -8.277704e-06 2.433735e-05 2.390407e-06 -1.577676e-06 -4.230746e-06
5.334401e-06 -6.194341e-06 4.872031e-06 -1.681774e-06 -1.935351e-06 8.668068e-07
-7.687773e-06 2.981151e-06 1.338416e-05 1.662519e-06 -8.229012e-08 6.653709e-07
4.469635e-06 -6.429199e-06 1.116743e-05 -1.206457e-06 6.229742e-07 -2.488557e-06
1.981763e-06 -7.981290e-07 4.940546e-08 5.964074e-07 -6.194869e-07 -9.230568e-07
7.001416e-08 5.589486e-07 -5.063149e-07 -1.650846e-07 3.185041e-07 -1.390063e-07
4.310205e-06 -5.588722e-06 1.063937e-05 2.030578e-06 1.473099e-07 -1.303462e-06
4.373287e-06 -4.321272e-06 8.677927e-06 9.421218e-07 -4.237317e-07 -1.423884e-06
6.382630e-06 -4.317494e-06 3.849548e-06 2.859422e-07 -2.612654e-08 -5.534179e-07
5.112933e-06 -7.095301e-06 1.118764e-05 -2.003118e-07 8.466255e-07 -2.467764e-06
1.634279e-07 3.013008e-07 -1.669734e-07 1.574445e-08 6.985917e-09 2.679011e-08
-2.806834e-07 1.234917e-06 -7.143836e-07 -3.940572e-07 2.485699e-07 -9.131967e-08
-2.756892e-07 1.468751e-06 -8.150752e-07 -4.149243e-07 8.321832e-08 -5.309053e-08
-1.997202e-07 1.031564e-06 -6.136123e-07 -1.864308e-07 5.308464e-08 1.118300e-09
6.499081e-07 6.963731e-08 -3.938657e-07 3.281146e-07 4.223889e-08 7.787049e-08
5.349199e-07 1.258825e-07 -4.596113e-07 3.400611e-07 3.982717e-08 6.442617e-08
5.620049e-07 4.177880e-07 -5.647214e-07 6.319190e-07 1.848141e-07 1.655518e-07
-7.139291e-07 2.154759e-06 -6.633369e-07 1.168642e-06 3.575105e-07 8.533562e-08
4.709686e-07 9.322944e-08 -2.983227e-07 1.963805e-07 6.283097e-09 6.192010e-08
-1.900344e-07 1.009039e-06 -6.235612e-07 -2.639122e-07 1.987477e-07 -6.749471e-08
-2.976524e-07 1.334190e-06 -7.104730e-07 -3.119959e-07 2.441624e-07 -8.416652e-08
9.029283e-07 -1.802101e-07 -4.466840e-07 1.067855e-07 4.509539e-09 5.407342e-08
6.431659e-07 8.126790e-08 -4.154948e-07 3.588090e-07 6.669214e-08 1.371731e-07
4.794316e-07 7.930163e-08 -2.804258e-07 1.679137e-07 -9.302069e-09 2.214663e-08
-2.903161e-07 1.168866e-06 -6.583373e-07 -2.571198e-07 2.070382e-07 -3.253559e-08
-2.438189e-07 1.046297e-06 -5.791846e-07 -1.918219e-07 1.645928e-07 -8.532661e-08
4.765827e-06 -3.221590e-06 3.187510e-06 2.087351e-06 5.520256e-08 1.144675e-08
4.421430e-06 -3.233810e-06 7.879237e-06 1.898179e-06 1.786508e-07 -1.994938e-06
4.751806e-06 -3.402854e-06 4.147230e-06 2.091518e-06 -3.405347e-08 -4.755646e-07
4.028129e-06 -3.984683e-06 2.250943e-06 3.571014e-06 -1.574516e-06 1.301795e-06
3.622120e-06 -3.944190e-06 7.135548e-06 3.439290e-06 -1.086288e-06 -1.200772e-06
8.788514e-07 -1.623740e-07 -4.201337e-07 6.623819e-09 1.191492e-08 3.976297e-08
4.819617e-07 8.510875e-10 -1.849813e-07 1.955277e-08 5.200123e-09 -1.869020e-09
1.675871e-06 -6.266500e-07 -7.829801e-07 1.901911e-08 -8.920028e-09 3.429884e-07
3.952225e-06 -2.985289e-06 7.148539e-06 4.163305e-06 -1.241969e-06 -1.369897e-06
-6.033701e-08 4.809266e-07 -2.578306e-07 -3.057914e-08 -1.054063e-07 -3.370577e-08
-7.259956e-06 -3.953380e-06 2.471999e-05 3.980530e-06 -6.082323e-07 4.538546e-08
-4.555975e-08 5.392407e-07 -3.001792e-07 2.990578e-08 -1.013480e-07 -8.020043e-08
6.115843e-07 -1.028184e-07 -2.196381e-07 4.348202e-09 9.573720e-10 5.357249e-09
-4.302031e-08 4.735051e-07 -3.159239e-07 3.131470e-08 -1.990153e-07 -9.633954e-08
-4.388292e-08 5.229776e-07 -3.857013e-07 9.039955e-09 -2.363116e-08 -3.812703e-08
-8.167700e-06 1.469077e-06 2.180636e-05 -4.738725e-06 4.134942e-06 -2.974013e-06
5.260867e-06 -7.313314e-06 7.461868e-06 1.212028e-06 -1.700166e-07 6.633178e-07
2.563877e-06 -2.091023e-06 2.337879e-06 3.247968e-06 4.009146e-08 -5.648866e-07
-1.061617e-07 5.022641e-07 -2.117551e-07 -9.403385e-09 5.843350e-08 -1.362270e-08
4.730374e-07 2.157922e-06 5.526980e-07 -3.860201e-06 -1.428369e-07 2.271730e-07
-2.669994e-07 3.564960e-07 -3.350095e-07 -2.761703e-09 -7.015616e-07 5.600240e-08
5.111458e-06 -3.487097e-06 8.761978e-07 -6.432804e-08 2.897416e-07 5.859111e-07
-2.310685e-07 3.354792e-07 -3.004182e-07 -3.222913e-08 -3.760821e-07 1.375866e-07
-3.767181e-08 6.012217e-07 -3.446715e-07 -5.000232e-08 7.267265e-08 -2.785362e-08
1.198467e-07 5.287344e-07 -4.758808e-07 -1.489940e-07 -5.484624e-08 6.192215e-08
-1.002158e-06 2.876801e-06 1.088800e-06 -2.480267e-06 2.008435e-07 1.648267e-07
-1.000299e-07 6.312485e-07 -3.309373e-07 -5.265596e-08 7.335578e-08 -5.155985e-08
-3.671876e-07 1.133707e-06 -3.311817e-07 -9.136723e-08 -5.510040e-07 9.401298e-08
-1.025522e-07 5.306590e-07 -2.384150e-07 -2.021329e-08 1.059356e-07 -4.811733e-08
2.005737e-06 1.356825e-07 -9.148250e-07 -1.619090e-06 -1.242726e-07 1.751208e-07
-6.593564e-08 5.221984e-07 -2.486277e-07 -2.071713e-08 1.380305e-07 -4.698314e-08
-8.064899e-08 5.389969e-07 -3.037195e-07 -6.761291e-09 5.062500e-08 7.598783e-09
8.991570e-08 1.343538e-06 -9.031339e-07 -1.095915e-06 -1.088678e-07 6.555060e-09
3.510324e-06 -3.245298e-07 2.528583e-07 -3.110779e-06 -2.011688e-07 4.135668e-07
1.596338e-06 -5.674108e-07 -7.631705e-07 2.950331e-07 6.402086e-08 3.308748e-07
1.306746e-06 -4.037538e-07 -6.951979e-07 1.668822e-07 2.076686e-08 2.319800e-07
-2.526174e-06 3.862643e-06 2.704621e-06 2.520648e-06 6.979573e-09 -1.023518e-07
-2.366724e-06 3.980463e-06 2.700025e-06 2.660353e-06 -3.003714e-07 -3.388026e-07
1.420367e-06 -3.922572e-07 -6.839074e-07 3.385779e-07 6.949424e-08 2.475609e-07
-3.839437e-06 5.747186e-06 5.418434e-06 -6.182108e-07 1.424738e-06 2.285133e-07
-2.675348e-07 4.076064e-07 -3.032576e-07 2.424562e-08 -3.858326e-07 -1.201235e-07
1.421585e-06 -3.829038e-07 -7.046872e-07 3.458692e-07 -9.813616e-09 1.300933e-07
1.804906e-06 4.732151e-07 -7.075783e-07 2.223020e-06 -4.540509e-07 -3.574268e-07
2.030483e-06 -6.032566e-06 1.495399e-05 -3.331846e-06 -4.751155e-07 -2.708670e-07
1.458223e-06 -3.970814e-07 -7.495340e-07 3.745442e-07 3.609634e-08 2.714568e-07
-1.103258e-05 -1.461146e-06 3.741352e-05 4.659728e-06 5.815647e-06 1.273106e-06
1.908855e-06 -4.261309e-07 -7.497344e-07 1.290089e-07 3.746497e-09 1.371028e-07
1.706513e-06 -4.050996e-07 -8.021855e-07 3.875342e-07 6.019763e-08 2.103029e-07
-5.062646e-08 7.286765e-07 -4.507947e-07 6.493848e-08 4.209024e-09 3.463274e-08
1.665504e-06 -3.067170e-07 -8.367297e-07 -5.736358e-07 -1.704533e-07 3.817917e-07
-3.480507e-08 6.437478e-07 -4.266294e-07 1.480722e-07 9.825329e-08 2.696826e-08
-2.528679e-06 5.008766e-06 7.792911e-07 4.286338e-07 -9.477465e-07 -6.423827e-08
-2.887795e-08 6.823492e-07 -3.891021e-07 1.108113e-07 4.989303e-08 4.733017e-08
-5.961933e-06 4.418650e-06 7.572446e-06 1.826018e-06 2.367443e-06 1.070261e-06
3.891647e-06 -1.575525e-06 3.358215e-06 3.893449e-06 2.445656e-07 6.766427e-07
-5.220554e-06 8.310498e-07 1.585886e-05 -5.722314e-06 -1.659063e-06 1.031122e-06
-1.000575e-07 7.777376e-07 -4.831190e-07 8.976995e-08 3.052489e-08 -3.249361e-10
2.285437e-06 -9.982816e-07 -6.504354e-07 1.100407e-06 -2.024736e-07 -4.958746e-07
-1.206784e-06 3.248462e-06 -6.974159e-08 1.203329e-06 2.457084e-07 1.959340e-07
3.015063e-06 -7.932748e-07 -9.816601e-07 2.069538e-06 -1.167466e-07 -4.195565e-07
3.669506e-06 -1.391842e-06 -8.315398e-07 9.963843e-07 -1.582914e-07 -1.921119e-07
2.931995e-06 -1.860402e-06 2.743410e-07 1.458626e-06 -4.391714e-07 -8.175950e-07
-4.026162e-06 3.218331e-06 7.184700e-06 -3.854973e-06 -5.644894e-07 3.335599e-07
1.497908e-06 -5.886905e-07 -2.903266e-07 6.127651e-07 -3.566489e-07 -7.931758e-07
2.348328e-06 -1.053782e-06 -8.787848e-07 8.204086e-07 -5.648093e-07 -7.141733e-07
1.439734e-06 -6.741190e-07 -2.843878e-07 7.054941e-07 -8.524310e-07 -9.378360e-07
-2.066030e-07 1.115648e-06 -7.391475e-07 1.078834e-07 -3.519411e-08 -1.197622e-08
9.241240e-08 5.531179e-07 -4.871224e-07 -1.717078e-07 -1.964277e-07 1.572808e-07
4.224137e-06 -1.819627e-06 -7.580142e-07 1.031472e-06 -3.944436e-08 -3.917026e-08
7.195914e-08 6.397425e-07 -5.456241e-07 -1.683462e-07 -1.180911e-07 5.813667e-08
4.382412e-08 5.719232e-07 -4.598455e-07 -6.126981e-08 -8.544997e-08 1.032443e-07
1.034198e-08 8.146839e-07 -5.243701e-07 -7.437189e-08 -7.879968e-08 1.229876e-07
1.175957e-07 5.453371e-07 -4.074732e-07 -7.672470e-08 -4.322871e-08 9.804769e-08
-1.366261e-05 -1.791559e-05 6.483863e-05 -1.209866e-06 8.969985e-07 1.627944e-05
1.315734e-07 6.294591e-07 -4.774973e-07 -9.554818e-08 -3.937396e-08 6.198234e-08
-4.691742e-08 8.904547e-07 -6.400425e-07 6.076043e-08 -3.124482e-09 -3.916766e-08
7.875681e-08 5.324515e-07 -3.997197e-07 -6.696150e-08 -6.706757e-08 1.436131e-07
-5.376562e-06 -8.716660e-06 3.627365e-05 4.344496e-06 4.149414e-07 -2.386210e-06
-9.372599e-06 -1.070327e-07 2.172423e-05 4.034913e-06 -2.255184e-07 1.633086e-06
-2.587952e-06 2.725862e-06 6.552789e-06 4.377918e-06 -2.957862e-07 -3.076389e-07
-6.275531e-08 9.780228e-07 -6.995506e-07 1.888489e-07 -4.778867e-08 -2.827844e-08
-3.040751e-06 4.161302e-06 1.530215e-06 2.106459e-06 4.731782e-07 -4.282542e-09
4.362307e-07 3.247357e-08 -1.530973e-07 -3.780501e-08 -1.745606e-08 1.493733e-08
4.148844e-07 5.221642e-08 -1.559260e-07 -5.424945e-08 -1.945170e-08 2.330302e-08
-7.539625e-08 1.457924e-06 1.515612e-06 3.171456e-06 -3.505527e-07 -4.818439e-09
4.143106e-07 5.484240e-08 -1.591227e-07 -5.400399e-08 -1.908888e-08 2.472889e-08
4.303617e-07 3.725060e-08 -1.584754e-07 -2.289725e-08 -3.570460e-09 1.030075e-08
-8.753284e-07 2.090704e-06 -8.794064e-07 1.038500e-07 4.846794e-07 -5.580361e-09
-1.543383e-07 -1.018878e-06 7.873810e-06 5.337458e-06 -7.604426e-07 -4.482371e-07
3.922873e-07 6.385708e-08 -1.697213e-07 -3.882218e-08 -7.146056e-09 3.116787e-09
5.482884e-08 2.252159e-06 3.538219e-06 4.557955e-06 -3.573200e-07 3.107699e-07
4.503301e-06 -4.516970e-06 9.308742e-06 -1.689999e-06 4.192137e-07 -2.028848e-06
3.739011e-07 -7.381228e-07 6.893798e-06 4.890229e-06 6.153772e-07 9.324467e-07
4.088960e-07 4.998534e-08 -1.739856e-07 -5.002858e-08 -8.332445e-09 1.382999e-08
-1.297544e-06 3.104001e-06 1.776158e-06 -3.316941e-06 3.476959e-07 2.348739e-07
4.347150e-07 2.381684e-08 -1.592088e-07 -4.151818e-08 -1.010908e-08 1.799101e-08
4.413197e-07 4.127563e-08 -1.874850e-07 -5.371157e-08 -1.324925e-08 2.976839e-08
-2.090287e-06 4.724674e-06 3.861678e-07 -9.595900e-07 -7.184969e-07 2.410979e-07
-4.402680e-06 -3.032600e-07 1.910681e-05 6.108418e-06 -5.532672e-06 -5.198718e-06
-2.303654e-06 3.820471e-06 -4.967532e-07 7.886119e-08 -7.618577e-07 -1.315385e-07
-1.949204e-06 3.581695e-06 3.535335e-07 1.151773e-06 1.523485e-07 -7.558697e-08
-1.143183e-06 -8.416503e-06 3.157063e-05 6.468367e-06 -3.887065e-06 -9.422953e-06
-4.506036e-07 -9.316958e-06 2.131664e-05 5.982234e-06 8.838748e-07 -1.063519e-05
1.164808e-06 -5.998405e-08 -6.934967e-07 -6.499449e-07 -5.393803e-08 7.472863e-08
-2.580423e-06 1.300516e-06 8.139106e-06 4.634192e-06 2.226339e-07 -9.239307e-08
-1.491487e-06 3.280726e-06 -6.220437e-07 1.170012e-06 -4.031517e-07 2.693210e-08
-2.312263e-05 -1.913770e-05 5.556202e-05 -2.309887e-06 1.378123e-05 9.454637e-07
-1.664358e-06 3.790927e-06 -3.599917e-07 7.322827e-07 1.505324e-07 -1.703843e-08
-2.562133e-05 -2.433694e-05 7.051127e-05 -6.544115e-07 -1.708922e-06 -2.193892e-06
-1.453902e-06 4.015642e-06 -5.059340e-07 4.899097e-07 -7.905674e-07 -2.066269e-07
8.058581e-07 1.476346e-06 -1.154306e-06 1.852509e-06 -3.196489e-07 -3.133787e-07
4.870704e-07 1.073728e-06 -1.092799e-06 1.392892e-06 -1.372840e-07 -1.316482e-08
5.937877e-07 1.252974e-06 -1.078409e-06 1.305381e-06 -3.770509e-07 -2.352514e-07
3.933047e-07 9.620729e-07 -9.453056e-07 1.321474e-06 -4.291730e-07 -2.488561e-07
2.245810e-07 1.375346e-06 -8.561145e-07 1.409880e-06 -4.472872e-07 -2.477807e-07
3.756837e-07 1.386924e-06 -9.919589e-07 1.228264e-06 -3.222979e-07 -2.067457e-07
5.311758e-07 1.116001e-06 -6.552650e-07 2.157525e-06 -1.504252e-07 -1.245607e-07
8.796960e-07 -6.030561e-06 1.420514e-05 -3.152927e-06 -7.703809e-07 -7.772524e-07
3.389159e-06 -1.966598e-06 -2.371290e-07 -1.954329e-07 2.927062e-08 8.285488e-08
9.205047e-07 -1.481029e-07 -4.870565e-07 3.111043e-07 5.693951e-08 1.464622e-07
1.962611e-06 -7.574260e-07 -8.537207e-07 -3.203391e-07 2.030546e-08 1.370525e-07
1.212882e-06 -3.804383e-07 -6.073819e-07 -1.927743e-07 -1.179522e-08 2.116584e-07
5.330455e-07 1.917320e-06 -8.463833e-07 1.954294e-06 -5.016798e-07 -3.514530e-07
-2.344565e-07 1.126960e-06 -6.409327e-07 2.960834e-07 1.689137e-07 1.433256e-08
-3.547158e-07 1.397212e-06 -7.635721e-07 3.318118e-07 7.008487e-08 -4.367576e-09
-2.089373e-07 8.208299e-07 -3.261687e-07 -1.040562e-07 3.252774e-07 -1.099168e-07
-3.336493e-07 1.371213e-06 -7.143503e-07 2.072873e-07 1.187613e-07 3.591199e-08
-2.424133e-07 1.371592e-06 -7.289305e-07 4.690352e-07 1.582935e-07 5.859424e-08
2.867380e-07 1.652368e-07 -1.754103e-07 7.323100e-08 2.210477e-08 2.732904e-08
3.172523e-07 1.419505e-07 -1.554600e-07 4.479948e-08 1.209729e-08 4.560654e-09
3.095527e-07 1.648956e-07 -1.782428e-07 6.405432e-08 1.597974e-08 2.436665e-08
3.007228e-07 1.582444e-07 -1.488979e-07 4.500330e-08 8.459804e-09 1.758201e-08
5.139046e-08 1.001487e-06 -9.212276e-07 -5.913061e-07 7.422721e-08 -1.770686e-08
4.324210e-06 -1.934754e-06 5.284963e-07 -2.083987e-06 -2.785252e-09 5.390431e-07
-1.547663e-07 7.236106e-07 -3.392348e-07 -3.997049e-08 6.595564e-08 -6.709730e-08
-1.493621e-07 4.639142e-07 -2.881619e-07 -6.195699e-08 3.213694e-07 -1.445110e-07
2.104403e-07 1.291123e-06 -9.212276e-07 -8.061670e-07 1.268834e-07 -5.857310e-08
3.112200e-07 1.601798e-07 -1.542861e-07 6.512053e-08 1.910039e-08 1.657741e-08
3.300276e-07 1.386094e-07 -1.499329e-07 5.745369e-08 1.364938e-08 1.841547e-08
-3.868445e-07 1.292899e-06 -5.637126e-07 -2.032043e-07 2.879114e-07 -8.012623e-08
3.300276e-07 1.427301e-07 -1.515738e-07 5.646629e-08 1.377697e-08 1.776105e-08
-1.866774e-07 7.400738e-07 -4.467722e-07 -1.544824e-07 3.082769e-07 -1.168942e-07
2.959489e-06 -7.653410e-07 -9.305914e-07 -1.127745e-06 4.748620e-07 -5.164255e-07
-4.963477e-07 1.226215e-06 -6.279446e-07 -1.031741e-07 4.820961e-07 -5.339119e-08
3.607137e-06 -1.319344e-06 -1.456665e-06 -1.512901e-07 -3.331326e-08 -1.013228e-09
-4.963477e-07 1.528877e-06 -6.644830e-07 -1.241114e-07 3.544302e-07 -3.311776e-08
2.072844e-06 -1.042681e-06 -6.524632e-07 -4.109531e-07 3.783847e-07 -6.482524e-07
-2.677176e-07 1.043074e-06 -5.166880e-07 1.925351e-08 1.347599e-08 4.385313e-09
3.287330e-06 -1.065764e-06 -6.005254e-08 -1.323467e-06 6.401327e-07 -9.647986e-07
-2.327728e-08 2.941250e-07 -2.233566e-07 -6.165485e-08 -2.010174e-07 1.721484e-07
2.027760e-07 4.513337e-07 -4.872861e-07 -3.224920e-07 -2.322943e-07 2.496001e-07
-3.681796e-07 7.226079e-07 -3.309693e-07 -5.745265e-08 5.647358e-07 -9.274568e-08
-2.296320e-07 4.568312e-07 -2.681937e-07 -3.438644e-09 4.720595e-07 -1.791049e-07
3.649304e-06 -1.097539e-06 -9.242228e-07 -1.481040e-06 -8.013618e-08 6.454382e-08
2.953517e-06 -1.300384e-06 -8.809395e-07 -2.914426e-07 1.341590e-07 -4.822067e-07
-2.680186e-07 8.282110e-07 -2.870460e-07 8.271101e-08 3.822460e-07 4.707159e-08
2.576436e-06 -7.464016e-07 5.022970e-07 -2.416510e-06 1.199735e-07 2.479551e-09
3.231204e-07 1.391057e-07 -1.468320e-07 2.727372e-08 -2.227697e-09 -4.003581e-11
2.604538e-07 1.970245e-07 -1.687858e-07 9.255058e-08 3.797096e-08 2.361134e-08
-2.669617e-07 7.486229e-07 -3.836627e-07 -2.876144e-08 3.424252e-07 -4.526676e-10
3.559106e-07 1.159517e-07 -1.499329e-07 5.571301e-08 1.435164e-08 1.083470e-08
-3.050541e-07 7.576028e-07 -3.177728e-07 -2.906555e-08 5.608239e-07 -6.406807e-08
-3.032301e-07 4.192213e-07 -2.399251e-07 -6.356796e-09 4.505220e-07 -3.714638e-08
3.841169e-07 1.373118e-07 -2.784786e-07 1.770752e-07 3.318062e-08 2.420165e-08
4.692865e-07 7.930280e-08 -2.415802e-07 1.518632e-07 3.245051e-09 1.263610e-09
2.795594e-07 1.826526e-07 -1.659688e-07 9.193447e-09 1.235926e-09 8.713155e-09
4.514953e-07 8.928929e-09 -1.716325e-07 4.156573e-08 5.230591e-09 1.579722e-08
1.413436e-08 5.360761e-07 -4.538046e-07 2.927420e-07 2.664022e-07 1.424834e-07
8.050228e-08 2.659304e-07 -2.376854e-07 -1.434805e-07 -2.760874e-07 2.119918e-07
4.637007e-07 4.389396e-09 -1.628189e-07 8.182697e-08 1.814843e-08 5.896888e-08
1.825696e-06 -5.248734e-07 -7.743417e-07 -6.576450e-07 -9.883874e-08 3.556165e-07
-2.518069e-07 3.984095e-07 -2.106392e-07 3.502751e-08 4.666362e-07 1.224939e-08
4.963439e-07 1.138331e-08 -1.991113e-07 6.121669e-08 8.621840e-09 2.638343e-08
4.280765e-07 6.738509e-08 -2.096160e-07 1.058237e-07 2.657075e-08 1.779718e-08
-3.887988e-07 1.029117e-06 -4.190370e-07 -7.849817e-09 4.622905e-07 2.375809e-09
6.924013e-07 -8.300128e-08 -3.256711e-07 1.666800e-07 9.906702e-09 1.119832e-08
-4.665809e-07 1.109866e-06 -6.276026e-07 3.475718e-09 5.092894e-07 -6.205487e-09
-2.723076e-07 7.478417e-07 -4.250663e-07 -2.082022e-08 3.516667e-07 -2.284264e-08
-3.379429e-07 1.036541e-06 -4.323574e-07 1.254699e-08 4.652200e-07 1.763259e-09
3.382157e-07 1.118037e-07 -1.387696e-07 4.895101e-09 -2.314891e-09 6.480757e-10
4.147857e-07 3.765806e-08 -1.504123e-07 3.589147e-09 6.309870e-10 3.487992e-09
3.680162e-07 9.959237e-08 -1.508702e-07 3.785741e-08 2.967397e-10 -5.703031e-09
5.485102e-07 -3.705966e-08 -2.121796e-07 4.614111e-08 2.420102e-09 5.082590e-09
-2.645117e-07 8.993978e-07 -3.985304e-07 -8.097956e-09 2.584895e-07 -7.105970e-09
5.773301e-07 -4.957995e-08 -2.308893e-07 5.291446e-08 8.384055e-09 3.207286e-08
4.455602e-07 3.546902e-08 -1.580787e-07 6.692668e-08 1.557115e-08 3.746523e-08
-3.410446e-07 9.525458e-07 -5.599338e-07 4.055604e-09 3.154611e-07 -9.851777e-09
4.284649e-07 4.299233e-08 -1.723268e-07 5.017499e-08 1.955277e-08 1.962748e-08
4.585582e-07 6.442456e-09 -1.707386e-07 8.752211e-08 2.544475e-08 5.258463e-08
-2.664666e-07 7.479547e-07 -2.504862e-07 -3.068832e-08 3.479171e-07 -1.746486e-08
-2.602941e-07 9.799596e-07 -4.029336e-07 5.807962e-08 2.936092e-07 5.097778e-08
2.583091e-07 2.993677e-07 -3.084994e-07 -2.902962e-08 -2.226988e-17 3.835719e-10
4.086101e-07 7.869476e-07 -7.844644e-07 -9.755539e-07 -2.892624e-07 1.659377e-07
1.343170e-06 1.175009e-07 -8.926932e-07 4.657355e-07 -6.407823e-07 -4.671904e-07
1.651886e-06 -5.822471e-07 -4.544369e-07 4.962831e-07 -5.564449e-07 -7.097402e-07
1.604267e-06 -5.546469e-07 -2.477638e-07 5.306055e-07 -7.298258e-07 -1.207640e-06
-3.445035e-07 -1.747821e-07 -1.302336e-07 7.986049e-08 -7.635068e-07 -4.536470e-07
7.773127e-07 5.960483e-07 -6.374684e-07 9.255850e-07 -5.140343e-07 -4.149983e-07
5.059573e-07 2.990077e-07 -4.205058e-07 4.777938e-07 -7.331837e-07 -4.298388e-07
9.094391e-07 3.572074e-07 -8.689944e-07 8.421324e-07 -5.087334e-07 -4.148070e-07
6.084083e-07 9.443435e-07 -9.601887e-07 6.480946e-07 -2.047972e-07 -8.461718e-08
8.200855e-07 8.855046e-07 -1.048766e-06 1.270031e-06 -3.825713e-07 -3.443863e-07
-6.003997e-07 2.078081e-06 -9.656641e-07 -2.078479e-07 -1.953820e-07 -8.768724e-09
2.546853e-07 3.487272e-07 -3.686348e-07 -7.322858e-08 -8.808624e-09 -4.922298e-09
2.086048e-07 5.283054e-07 -7.604347e-07 7.178181e-07 -6.109383e-07 -3.786819e-07
8.295538e-07 9.620729e-07 -1.085225e-06 1.234672e-06 -4.048295e-07 -3.512694e-07
5.583674e-07 3.055145e-07 -7.558041e-07 4.964687e-07 -7.970486e-07 -6.469416e-07
3.470124e-07 1.881985e-07 -2.256748e-07 -9.341311e-08 -3.293098e-08 3.903371e-08
9.615924e-07 2.813282e-07 -1.014922e-06 1.084318e-06 -5.184212e-07 -4.992252e-07
1.466080e-06 4.196249e-07 -1.203240e-06 9.015687e-07 -2.324644e-07 -3.235024e-08
5.483228e-07 4.074713e-07 -7.355966e-07 3.728529e-07 -5.669110e-07 -2.404513e-07
-1.323762e-07 6.102546e-07 -2.703418e-07 1.901207e-08 -3.916533e-08 -1.133698e-07
2.973742e-07 3.659306e-07 -7.382719e-07 6.471523e-07 -6.219709e-07 -4.358147e-07
5.999844e-07 -9.653790e-08 -2.134551e-07 -6.377486e-09 -4.660512e-09 1.351752e-08
5.941417e-07 -1.085773e-07 -2.002134e-07 -8.274136e-09 -4.348510e-10 1.142572e-08
2.145261e-08 3.230014e-07 -2.280379e-07 1.089643e-07 2.190746e-07 1.663523e-07
6.176802e-07 -1.098989e-07 -2.353139e-07 -1.100891e-08 -1.609200e-08 5.491299e-08
6.230904e-07 -1.098072e-07 -2.304809e-07 -1.891183e-08 -1.826870e-09 3.536992e-08
9.809502e-08 8.076586e-07 -6.501148e-07 1.361685e-07 -4.096906e-08 -4.069333e-08
4.454539e-07 6.039497e-07 -7.913734e-07 7.108499e-08 -3.062111e-07 -2.650938e-08
8.983705e-08 6.632533e-07 -7.012892e-07 3.407415e-07 -6.005982e-07 -3.040820e-07
3.272506e-06 -1.717988e-06 2.013414e-07 -1.426940e-06 4.862139e-07 -9.674450e-07
-1.459862e-05 -1.916333e-05 6.169652e-05 2.686668e-08 -1.209036e-06 1.802108e-05
1.333746e-06 -5.670164e-07 -4.750578e-07 1.118638e-07 -5.436968e-07 -4.159709e-07
-2.205134e-05 -2.138157e-05 7.258065e-05 1.575268e-08 6.312594e-06 3.239761e-07
3.476455e-06 -1.717348e-06 1.348910e-07 1.926983e-06 -3.209615e-07 -4.161174e-07
-6.201808e-06 -1.214509e-05 3.880782e-05 4.726931e-06 3.144181e-07 7.027894e-06
-1.813129e-07 -3.545922e-07 -6.919659e-11 -1.420846e-08 -7.397184e-07 -5.768713e-07
-6.617421e-06 -1.128003e-05 3.118974e-05 4.704728e-06 4.174883e-06 3.713144e-06
2.795663e-06 -1.521341e-06 -7.726376e-07 8.642058e-07 1.490402e-07 -5.033902e-07
4.664745e-06 -3.473479e-06 2.199373e-06 -2.617977e-06 6.153546e-08 -4.406843e-07
-1.867880e-05 -1.643958e-05 6.702956e-05 2.206488e-06 5.162710e-06 5.549070e-06
-1.164680e-05 -8.788052e-06 2.888969e-05 4.181721e-06 1.477807e-05 8.395283e-06
1.096106e-06 1.594210e-06 -4.728174e-07 2.816025e-06 -3.715438e-07 -2.548901e-07
-3.538121e-07 1.529189e-06 -8.477104e-07 -1.802942e-07 -6.689158e-08 2.863498e-08
6.487233e-08 8.367560e-07 -6.753464e-07 2.679671e-07 -1.321597e-07 -5.157531e-08
-5.413856e-07 1.588403e-06 -9.138076e-07 2.774795e-07 -8.297333e-08 2.483512e-09
-3.418054e-07 1.575770e-06 -8.106750e-07 2.513602e-07 -2.559017e-07 -9.112790e-08
-3.841016e-07 1.282388e-06 -6.571140e-07 9.097915e-08 -4.780655e-07 -1.471170e-07
6.485784e-08 7.309255e-07 -5.372294e-07 -5.757235e-08 -1.412799e-15 1.226977e-08
-4.272898e-07 1.363869e-06 -7.932751e-07 1.355026e-07 -1.799568e-07 -3.944058e-08
-4.252871e-07 1.487106e-06 -7.338273e-07 3.466080e-07 -7.113906e-07 -8.842541e-08
-3.728282e-07 9.577487e-07 -5.872657e-07 2.491517e-07 -4.782490e-07 -2.119731e-07
-3.372602e-07 1.177523e-06 -6.317409e-07 1.531153e-07 -4.240491e-07 -2.164204e-07
-3.212416e-07 8.247115e-07 -4.957438e-07 -9.671473e-09 -4.585776e-08 5.084501e-08
-2.979260e-07 1.225942e-06 -7.453154e-07 2.325818e-07 -1.726041e-07 -8.265337e-08
2.184429e-07 8.019265e-07 -6.931071e-07 -7.038647e-07 -2.458077e-07 1.412302e-07
-2.673896e-07 1.235514e-06 -7.941507e-07 -1.361574e-07 -4.556811e-08 5.574074e-09
-6.779795e-08 4.416409e-07 -2.809617e-07 1.534411e-07 2.611349e-07 9.203864e-08
1.427830e-07 4.001874e-07 -3.089309e-07 -1.585440e-07 -1.536845e-07 1.351189e-07
1.199221e-07 4.149498e-07 -3.271714e-07 -2.246041e-08 -2.312679e-08 7.754672e-08
5.246449e-06 -2.518423e-06 5.380467e-07 1.288247e-06 -4.816395e-08 -7.037682e-08
-1.399862e-06 4.077060e-06 2.268017e-07 -1.967602e-06 -6.041064e-07 2.581839e-07
-3.285576e-07 2.854056e-06 -3.687914e-07 -2.426226e-06 -6.078284e-07 3.515020e-07
3.624369e-07 1.565637e-07 -2.317639e-07 -8.138629e-08 -3.493997e-09 2.957183e-09
4.525886e-06 -2.034598e-06 3.886272e-07 2.016996e-06 -5.167680e-08 4.456037e-07
3.484366e-06 -8.505312e-07 -8.820685e-07 1.901480e-06 -2.522445e-07 -3.994219e-07
3.422044e-06 -8.606465e-07 8.156054e-08 1.979297e-06 -4.406139e-07 -3.599037e-07
1.907119e-07 4.032278e-07 -3.268177e-07 1.459744e-07 2.840244e-08 2.916862e-08
1.556416e-07 5.715487e-07 -5.719243e-07 -2.252564e-07 -8.014922e-08 4.504230e-08
3.465380e-06 -7.694831e-07 -6.935951e-09 2.043947e-06 1.457572e-08 3.990673e-08
2.703692e-06 -8.117622e-07 4.808407e-07 1.195980e-06 -9.135311e-07 -6.500376e-07
3.808277e-06 -1.439184e-06 -2.018348e-07 1.622990e-06 -2.121510e-07 -5.473278e-07
-1.511266e-07 8.380814e-07 -5.224011e-07 2.369480e-07 -3.334411e-07 -1.429231e-07
-1.690306e-07 5.420366e-07 -2.725687e-07 -4.865763e-08 -7.426696e-08 -1.262233e-07
3.002330e-07 2.175975e-07 -2.520142e-07 -2.061781e-08 -8.850826e-16 -7.508041e-11
-1.202781e-07 8.146179e-07 -4.668771e-07 1.232227e-07 -1.607653e-07 -1.572923e-07
3.746423e-07 9.101023e-08 -1.737913e-07 5.723607e-08 1.664026e-08 1.589462e-08
-8.315546e-07 2.094311e-06 -8.371344e-07 -5.208308e-07 -3.295276e-07 6.078882e-08
4.025895e-07 7.851220e-08 -1.879532e-07 7.746411e-08 2.465914e-08 2.928501e-08
3.735419e-07 8.792824e-08 -1.762931e-07 5.877484e-08 1.594141e-09 2.361567e-08
-5.725415e-07 1.698649e-06 -9.456159e-07 -8.405611e-08 -6.707637e-08 1.752304e-09
4.125705e-07 6.053637e-08 -1.576948e-07 2.569403e-08 -7.912021e-10 8.825358e-09
-2.212734e-07 7.013607e-07 -4.050160e-07 1.314354e-07 -3.806909e-07 -2.038969e-07
-2.528226e-06 5.135653e-06 2.670885e-06 4.528056e-07 4.038755e-07 -3.464396e-08
-3.790356e-07 1.172486e-06 -6.822710e-07 -1.778864e-08 -2.947573e-08 2.711188e-08
-2.014836e-07 6.973672e-07 -3.182903e-07 9.014675e-08 -2.241247e-07 -1.244207e-07
-3.604971e-07 8.813739e-07 -5.078350e-07 -8.414358e-09 -4.559806e-08 1.066510e-08
-1.480855e-07 6.635872e-07 -2.611308e-07 5.492359e-08 -1.868266e-07 -1.435717e-07
-1.509463e-07 6.329623e-07 -4.792596e-07 9.789110e-08 -2.781149e-07 -1.824333e-07
-6.805482e-08 8.197683e-07 -6.747259e-07 2.251745e-07 -2.910503e-07 -1.017747e-07
-1.745789e-07 6.351600e-07 -4.104729e-07 1.669281e-07 -4.043269e-07 -1.772252e-07
3.570960e-07 1.143226e-07 -1.830806e-07 -5.116363e-08 -8.594515e-09 1.015740e-08
3.780690e-07 9.020075e-08 -1.800840e-07 -3.453532e-08 -5.124409e-09 3.920513e-09
3.863495e-07 8.161423e-08 -1.779522e-07 -6.502884e-08 -1.168712e-08 6.736602e-09
-3.452500e-07 1.189433e-06 -6.823416e-07 -3.495899e-07 -7.003588e-07 2.271567e-07
-6.184844e-07 1.944792e-06 1.723680e-06 -3.732170e-06 -6.110125e-07 5.244507e-07
3.960427e-07 6.832474e-08 -1.755458e-07 -4.395451e-08 2.686877e-09 8.944395e-09
3.793786e-07 8.087392e-08 -1.889282e-07 -6.256902e-08 -1.457360e-08 1.574895e-08
-3.866464e-07 1.759577e-06 -9.536265e-07 4.019837e-07 -1.206840e-07 -5.880812e-08
-4.083601e-07 1.223171e-06 -6.988123e-07 -1.245692e-09 -3.208531e-08 -4.389921e-09
4.034884e-07 8.433319e-08 -1.991789e-07 -7.742347e-08 -1.438592e-08 -6.282582e-09
-4.217168e-07 1.706644e-06 -8.676148e-07 -1.798563e-07 -2.796391e-07 5.627272e-08
-4.210526e-07 1.475066e-06 -8.135960e-07 -1.522577e-07 -1.735113e-07 2.347949e-08
-4.489150e-07 1.713759e-06 -8.780058e-07 -7.495288e-08 -2.765780e-07 2.822728e-08
-3.790356e-07 1.475794e-06 -8.529102e-07 -2.282304e-08 -9.793048e-09 1.677580e-08
2.160124e-06 -4.762576e-07 -1.276306e-06 -1.568631e-07 3.552760e-07 3.844955e-08
2.220400e-07 3.337909e-07 -5.371773e-07 -2.396235e-08 4.332608e-07 -3.261524e-08
-4.225108e-07 1.344622e-06 -7.748478e-07 -9.776912e-08 -1.387418e-07 4.093791e-08
-5.249398e-07 1.713861e-06 -9.182490e-07 -5.712671e-08 -8.890669e-08 -3.637009e-08
-4.488165e-07 1.487235e-06 -8.864389e-07 -3.583596e-08 -3.085519e-08 5.193892e-09
2.487209e-07 8.319808e-07 -8.727189e-07 -5.095670e-07 7.605450e-08 -4.953026e-08
5.864281e-07 6.588836e-07 -9.284785e-07 -2.358170e-07 5.752905e-08 -3.951947e-08
-4.233637e-07 1.492509e-06 -8.731435e-07 -4.764648e-08 -2.156138e-08 -1.386711e-08
-4.044995e-07 1.360162e-06 -5.556680e-07 -1.073390e-07 3.218936e-07 -5.655553e-09
3.080049e-06 -7.195869e-06 1.161882e-05 -3.160412e-06 -5.201012e-07 1.560510e-06
2.490738e-07 6.855459e-07 -7.421917e-07 -2.463760e-07 6.816499e-08 -1.438452e-08
-3.682065e-07 9.687941e-07 -4.993775e-07 -7.977881e-08 4.765233e-07 -6.448853e-08
-4.071267e-07 1.358950e-06 -6.662883e-07 -1.029716e-07 3.339076e-07 -3.842864e-08
-3.393853e-07 1.003933e-06 -4.876548e-07 -1.125324e-07 4.460069e-07 -4.106942e-08
6.651932e-07 -1.204859e-07 -2.718174e-07 7.523863e-08 1.904651e-08 1.026326e-07
-2.701617e-07 7.638597e-07 -4.278849e-07 -3.189264e-08 3.457606e-07 -1.126036e-07
4.747081e-07 9.490444e-08 -2.971068e-07 2.072492e-07 3.941719e-08 1.298490e-08
4.910764e-07 7.929958e-08 -3.273433e-07 1.959833e-07 1.719924e-08 2.795413e-09
3.933820e-07 1.345767e-07 -2.228335e-07 1.451070e-07 1.192371e-08 2.247851e-08
4.352228e-07 1.339287e-07 -3.808038e-07 2.367798e-07 9.741956e-09 -5.850245e-09
6.830241e-07 -1.219507e-07 -2.975322e-07 7.552372e-08 4.488662e-09 1.698934e-08
4.612786e-07 1.356346e-07 -3.220171e-07 2.244122e-07 -4.845972e-09 3.513688e-08
5.765748e-07 -1.122420e-07 -1.750042e-07 2.971019e-08 7.452273e-09 6.035702e-08
4.080588e-07 9.892469e-08 -2.652412e-07 1.601327e-07 2.410088e-08 4.306396e-08
3.900232e-07 1.042202e-07 -1.813286e-07 9.297015e-08 1.325666e-09 1.793929e-08
5.996991e-07 -1.103564e-07 -2.009206e-07 -2.579807e-09 -1.798822e-09 8.645270e-09
4.171266e-07 1.187272e-07 -2.401637e-07 1.435743e-07 -6.795601e-09 2.347791e-08
5.246923e-07 -3.700177e-08 -1.954346e-07 1.186123e-08 5.794293e-09 1.250607e-08
6.089907e-07 -1.016239e-07 -2.257653e-07 8.164487e-09 6.239837e-09 1.353210e-09
5.773848e-07 -4.575663e-08 -2.401432e-07 1.078300e-07 8.246683e-09 3.720674e-09
4.003548e-07 1.521341e-07 -2.691800e-07 1.582155e-07 1.593387e-08 3.700522e-08
5.323589e-07 -1.034725e-08 -2.225052e-07 1.135954e-07 1.398982e-08 5.142184e-08
-1.416960e-07 6.567822e-07 -3.861769e-07 2.126658e-07 2.504425e-07 9.915815e-08
4.758749e-07 3.087274e-08 -2.130785e-07 1.034890e-07 1.942444e-08 4.564170e-08
-3.471328e-08 1.096819e-06 -7.215204e-07 -4.914297e-07 -9.146011e-08 5.756370e-08
3.710176e-07 8.660269e-08 -1.480672e-07 6.758211e-09 5.910690e-09 1.837838e-09
3.904183e-07 6.627298e-08 -1.458049e-07 -1.499948e-08 -6.470225e-09 -4.395822e-10
4.408142e-07 3.726960e-08 -1.548003e-07 -1.579205e-08 -5.733683e-09 2.661645e-09
4.195680e-07 4.801859e-08 -1.447260e-07 -4.230998e-09 -1.474753e-09 4.657852e-09
-2.103645e-07 4.705470e-07 -2.580044e-07 2.364116e-08 2.013568e-07 3.026323e-08
4.181569e-07 5.256975e-08 -1.475944e-07 -1.156332e-08 -5.325722e-09 1.597019e-09
-1.932294e-07 6.587667e-07 -3.523680e-07 1.147823e-08 2.531590e-08 5.695527e-08
3.961811e-07 7.282598e-08 -1.535025e-07 -2.776757e-08 -3.386532e-09 3.598408e-09
4.341467e-07 3.112227e-08 -1.598124e-07 -3.205789e-08 -6.916848e-09 8.005457e-09
4.294215e-07 3.530352e-08 -1.495117e-07 -1.914401e-08 -6.290584e-09 6.580647e-09
-1.023776e-06 3.023867e-06 -5.765075e-07 9.396000e-08 3.966518e-07 9.749768e-08
3.901397e-07 7.416397e-08 -1.436208e-07 -1.352406e-08 -5.899098e-09 6.523051e-09
3.694572e-07 1.013280e-07 -1.545719e-07 -1.199249e-08 -7.183134e-10 8.257071e-09
-6.451048e-07 2.338778e-06 -8.605341e-07 8.380771e-07 5.227402e-07 1.837550e-07
3.787258e-07 8.652996e-08 -1.474965e-07 -1.290170e-08 -2.877381e-09 3.482059e-09
3.838984e-07 7.757910e-08 -1.404888e-07 -8.573338e-09 -1.415987e-09 4.598126e-09
3.866268e-07 8.325857e-08 -1.422107e-07 -3.906230e-09 -3.153080e-09 4.749779e-09
3.785278e-07 8.629237e-08 -1.491342e-07 -8.219609e-09 -1.493526e-10 3.436292e-09
-2.207359e-07 8.669947e-07 -4.374701e-07 2.051630e-08 3.863205e-08 2.169313e-08
-2.785856e-07 1.056415e-06 -5.450371e-07 -1.998937e-08 2.013511e-17 -6.057705e-09
3.832626e-07 8.804545e-08 -1.443133e-07 -1.760377e-08 -6.836740e-09 7.282291e-09
-2.369877e-07 6.934935e-07 -3.482676e-07 6.282034e-09 1.138765e-07 1.342749e-08
-2.661910e-07 8.393458e-07 -4.448981e-07 8.787361e-08 3.729007e-07 3.305441e-08
3.664282e-07 9.570355e-08 -1.503536e-07 -7.022404e-09 -6.134445e-10 5.766107e-09
3.716841e-07 1.094492e-07 -1.512431e-07 -4.495878e-08 -1.589682e-08 2.075048e-08
-8.754528e-07 2.872481e-06 -8.517340e-07 1.565117e-07 6.335799e-07 2.426871e-08
3.845622e-07 7.898212e-08 -1.448582e-07 -2.374573e-08 -3.952680e-09 1.109695e-08
-3.457632e-07 1.170834e-06 -6.702498e-07 -7.598009e-08 3.026773e-07 -2.501473e-08
3.972541e-07 7.880315e-08 -1.457742e-07 -1.927782e-08 -3.528287e-09 3.852609e-09
-5.960866e-07 2.256852e-06 -6.562517e-07 -1.723962e-06 2.372224e-07 -1.542454e-07
3.781444e-07 7.763706e-08 -1.445066e-07 -8.476739e-09 -1.052090e-09 -9.011043e-10
3.736151e-06 -1.735665e-06 -1.021728e-06 -2.949853e-07 -1.818498e-08 6.108479e-08
-2.987722e-06 -6.867693e-06 3.074673e-05 -6.279895e-06 1.837828e-07 9.469999e-07
3.752863e-07 8.861600e-08 -1.428044e-07 -5.466221e-09 -1.996655e-10 6.491500e-10
-1.580559e-07 -5.793498e-07 2.282121e-07 -6.679672e-08 -1.486281e-07 -4.337174e-07
3.743271e-07 9.342469e-08 -1.470272e-07 -8.301250e-09 -1.074624e-09 4.560186e-09
3.534491e-07 1.203402e-07 -1.408252e-07 7.359480e-09 1.405256e-09 -1.188066e-10
3.371938e-07 1.173508e-07 -1.377488e-07 8.501599e-09 2.561904e-10 -1.427192e-09
3.446687e-07 1.197663e-07 -1.397454e-07 1.341661e-08 2.739269e-09 9.857536e-10
-1.087034e-05 -1.664374e-06 3.189488e-05 4.638555e-06 4.288588e-06 2.103650e-06
3.394562e-07 1.254948e-07 -1.378459e-07 1.395152e-08 3.260442e-09 -1.215720e-09
-1.367662e-06 -1.201166e-05 2.068861e-05 5.091292e-06 6.911189e-06 8.988286e-06
3.616985e-07 1.107832e-07 -1.460266e-07 1.985288e-08 4.245580e-09 4.754537e-09
3.566842e-07 1.078049e-07 -1.420370e-07 7.794605e-09 -1.133967e-09 -1.629262e-09
7.956009e-07 -1.011244e-06 7.221963e-06 -5.610759e-06 1.271700e-07 -1.739347e-07
3.554426e-07 1.055025e-07 -1.391001e-07 6.684332e-09 6.840214e-09 7.997791e-09
6.726338e-07 -1.181201e-07 -2.660831e-07 -8.456882e-09 -3.717881e-09 4.324851e-08
1.423552e-06 -8.712473e-07 -3.054860e-07 4.222879e-07 -4.451290e-07 -8.788635e-07
3.658136e-06 -1.504084e-06 -1.316485e-06 -1.385395e-08 2.697672e-08 1.106490e-07
1.370854e-06 -5.136924e-07 -4.361896e-07 8.520920e-08 -5.832828e-07 9.680827e-08
-1.005558e-07 1.604207e-06 -8.606234e-07 -6.779233e-07 -2.967796e-07 1.470042e-07
1.003981e-06 -1.902243e-07 -4.647797e-07 3.498651e-08 6.635350e-09 1.348017e-07
7.749782e-07 -1.755014e-07 -3.342175e-07 -4.033599e-08 4.992201e-09 4.422070e-08
7.318750e-07 -1.477662e-07 -2.915510e-07 -8.476517e-09 -1.497478e-11 6.578766e-08
-2.382045e-08 1.420876e-06 -8.746682e-07 6.431948e-07 -1.557991e-07 -1.197070e-07
3.840943e-07 8.269842e-08 -1.421529e-07 -1.965859e-08 -7.290029e-09 8.629899e-09
6.657985e-07 -1.355933e-07 -2.720978e-07 -2.552370e-08 -8.685754e-10 1.355173e-08
2.280097e-07 2.510468e-07 -1.805547e-07 2.173058e-08 6.136306e-09 2.490443e-08
2.644502e-07 4.041857e-07 -4.831783e-07 -2.833005e-07 -2.486704e-08 2.695092e-08
3.644551e-07 6.372904e-07 -6.927294e-07 -6.904201e-07 -2.140934e-07 2.667039e-07
3.428232e-07 1.440137e-07 -1.984993e-07 -2.174607e-08 -8.332306e-10 1.765586e-08
2.425867e-07 2.340829e-07 -2.573670e-07 1.249812e-07 3.907359e-08 3.085210e-08
3.070638e-07 1.964072e-07 -2.337303e-07 -8.110729e-08 -3.142950e-08 1.922902e-08
3.830822e-07 6.976846e-08 -1.411640e-07 3.087983e-11 -4.258273e-10 7.994692e-10
3.583527e-07 1.022579e-07 -1.616647e-07 -8.430274e-09 -3.247598e-09 8.103163e-09
3.860499e-07 9.714185e-08 -2.034611e-07 -7.567207e-08 -2.216963e-08 4.776186e-08
2.415172e-07 2.748206e-07 -2.503741e-07 1.320682e-07 2.056078e-08 1.533260e-08
2.091460e-07 2.955863e-07 -2.872414e-07 1.562990e-07 5.037594e-08 4.500252e-08
2.433860e-07 2.834883e-07 -2.454853e-07 1.503152e-07 7.259347e-08 5.894444e-08
3.791643e-07 7.055450e-08 -1.404282e-07 -1.574489e-09 -1.177998e-09 0.000000e+00
3.799466e-07 7.055450e-08 -1.393768e-07 -2.361493e-09 8.406057e-10 -1.430985e-09
9.796383e-07 6.271850e-07 -8.624229e-07 -1.220598e-06 -5.130084e-08 7.334815e-08
3.795692e-07 7.757472e-08 -1.500903e-07 -9.555345e-09 -2.841862e-10 2.473045e-09
4.408660e-07 1.293711e-08 -1.559014e-07 -5.711248e-08 -8.347479e-09 2.768736e-08
3.762956e-07 7.033026e-08 -1.428490e-07 -6.948577e-09 1.347720e-09 9.854841e-10
1.753984e-07 4.947401e-07 -4.728475e-07 -1.063828e-07 -2.802449e-08 1.612245e-08
2.296461e-07 3.815409e-07 -3.729136e-07 -9.708596e-08 -3.814680e-08 5.782600e-08
4.863979e-07 4.456333e-07 -5.633379e-07 -4.985316e-07 -2.618839e-08 3.274242e-08
2.644502e-07 4.469339e-07 -4.559859e-07 -2.143409e-07 -4.428757e-08 3.705674e-08
2.644502e-07 4.573560e-07 -4.752770e-07 -2.403219e-07 -4.599797e-08 5.716930e-09
6.398279e-07 -9.456752e-08 -2.667136e-07 9.248693e-08 1.214576e-08 6.428186e-08
2.363446e-07 3.872867e-07 -4.051578e-07 -1.518945e-07 -1.377553e-08 5.487391e-08
2.397687e-07 4.470378e-07 -4.009158e-07 -1.905977e-07 -7.991841e-08 8.716571e-08
7.981751e-07 -1.453647e-07 -3.467824e-07 4.241120e-08 2.274064e-09 4.808057e-08
1.571109e-07 6.251378e-07 -5.138131e-07 -2.040131e-07 -2.411337e-08 6.908821e-08
7.255849e-07 -1.314092e-07 -2.969353e-07 -8.991324e-09 2.324064e-09 1.702470e-08
1.820591e-07 4.104205e-07 -3.987695e-07 -5.947599e-08 -2.798154e-08 5.233310e-08
-1.549493e-07 5.520814e-07 -2.146021e-07 2.193591e-08 4.664218e-08 -7.326782e-08
-5.010536e-08 6.006180e-07 -3.578940e-07 -5.291019e-08 7.549969e-08 -1.407523e-08
-7.819073e-08 6.329359e-07 -3.370228e-07 -4.013262e-08 7.194811e-08 -3.928702e-08
-7.872407e-08 5.507351e-07 -2.995673e-07 -1.329626e-08 5.631114e-08 -4.296857e-08
6.159843e-07 -1.159263e-07 -2.133117e-07 -1.319338e-09 -1.126942e-09 1.669906e-08
5.868403e-07 -1.033633e-07 -1.966311e-07 -5.150824e-09 -4.978048e-09 1.056243e-08
7.824071e-07 -1.917540e-07 -3.233521e-07 1.088210e-08 -1.457349e-08 8.663847e-08
-6.345556e-08 5.792092e-07 -2.700611e-07 -8.046940e-09 3.716335e-08 -1.680668e-08
-1.253660e-07 7.679453e-07 -3.978574e-07 -3.053410e-08 7.680499e-08 -5.688253e-08
1.237645e-06 -4.095954e-07 -6.964345e-07 9.827694e-08 2.495844e-08 3.173248e-07
7.813934e-08 1.022342e-06 -8.579557e-07 5.667470e-07 -1.276675e-07 -6.741837e-08
-9.773066e-08 5.738138e-07 -2.055482e-07 -3.625389e-08 9.996209e-08 -6.552614e-08
5.753804e-07 -5.248188e-08 -2.169503e-07 4.173098e-08 8.441974e-09 9.714883e-09
3.992320e-07 5.989291e-08 -1.591227e-07 -3.992954e-08 -1.310373e-08 2.178297e-08
4.805768e-07 -1.622248e-08 -1.709113e-07 -8.290034e-09 -1.044432e-08 5.947301e-09
1.890137e-07 9.991352e-07 -9.502341e-07 5.560242e-07 -2.117880e-07 -5.332493e-08
6.055085e-07 -6.532326e-08 -2.524571e-07 -1.009884e-07 -7.158315e-09 6.890339e-09
4.587467e-07 3.359516e-08 -2.411061e-07 -1.050059e-07 -1.741551e-08 3.918094e-08
1.455541e-06 6.416475e-07 -9.261924e-07 -1.787055e-06 -6.854160e-08 1.156281e-07
3.792537e-07 7.055450e-08 -1.443206e-07 -1.544337e-09 2.021529e-10 2.003540e-09
5.361588e-07 -4.690904e-08 -2.062714e-07 2.342807e-08 -3.927455e-09 9.189382e-09
5.024601e-07 -1.901509e-08 -1.954805e-07 3.209070e-08 5.614802e-09 1.376822e-08
5.091675e-07 -2.151431e-08 -2.021672e-07 4.981626e-08 1.293041e-08 1.869967e-09
3.992585e-07 1.146404e-07 -2.381330e-07 -1.137391e-07 -2.290438e-08 -5.281397e-09
-3.223691e-07 1.083303e-06 -5.725806e-07 8.818184e-09 1.893070e-08 -1.035678e-10
4.761321e-07 1.377588e-08 -1.850994e-07 6.330452e-08 5.866519e-09 -4.495836e-09
2.609819e-07 1.890623e-07 -1.643098e-07 4.103760e-08 9.474783e-09 1.256430e-08
-7.250024e-08 6.425793e-07 -3.712287e-07 -3.272478e-08 5.486952e-08 -5.245746e-08
6.174374e-07 -5.333376e-08 -2.857232e-07 1.173596e-07 3.100017e-08 5.728401e-08
-2.868567e-07 1.035036e-06 -5.585543e-07 2.978313e-08 1.273445e-07 -6.050323e-09
-2.739993e-07 9.943980e-07 -5.550621e-07 -4.927743e-08 2.958428e-07 1.714060e-08
-2.873751e-07 9.969267e-07 -5.362598e-07 1.086107e-08 1.088787e-07 3.163692e-08
3.268403e-07 1.214553e-07 -1.557128e-07 3.145230e-08 3.544119e-09 3.118354e-09
-2.794306e-07 1.031882e-06 -5.274429e-07 5.139718e-09 2.616899e-08 1.568528e-08
-2.772002e-07 9.336487e-07 -4.971224e-07 -6.840261e-09 1.054343e-07 9.457123e-09
-2.951165e-07 1.068210e-06 -5.690851e-07 1.519299e-08 1.409283e-08 -1.035295e-08
-2.940396e-07 1.074130e-06 -6.025827e-07 2.218359e-08 1.568080e-07 1.217209e-08
-3.227480e-07 1.077588e-06 -5.358302e-07 -1.500708e-09 7.899544e-08 -1.405879e-08
3.295458e-07 1.368881e-07 -1.546235e-07 2.493071e-08 -6.257983e-10 4.837041e-09
3.648536e-07 8.284218e-08 -1.628604e-07 6.710945e-08 5.958032e-09 7.225205e-09
4.896036e-07 5.863859e-08 -3.155624e-07 1.873299e-07 3.070933e-08 6.788073e-08
3.610800e-07 9.965386e-08 -1.641621e-07 5.289933e-08 -1.566919e-09 -7.068136e-10
-3.004969e-07 1.030937e-06 -5.355414e-07 -1.267625e-08 8.129252e-08 -1.034318e-08
-3.223691e-07 1.135664e-06 -5.893698e-07 1.482934e-08 3.242866e-08 -2.293927e-09
3.247208e-07 1.320258e-07 -1.609077e-07 3.866248e-08 9.596181e-10 1.104485e-09
2.779887e-06 -1.111965e-06 -1.151577e-06 4.950916e-07 -5.483394e-07 -4.290792e-07
3.557567e-07 1.080073e-07 -1.770983e-07 1.026572e-07 1.568258e-08 2.214399e-10
4.137345e-07 4.585995e-08 -1.574116e-07 6.627989e-08 9.926541e-09 2.862117e-08
3.998789e-07 6.865990e-08 -1.610149e-07 2.502841e-08 3.772661e-09 5.125821e-10
5.005290e-07 -5.686606e-09 -1.970815e-07 4.618710e-08 3.958304e-09 3.974842e-09
3.592835e-06 -1.528843e-06 -1.016151e-06 3.910901e-07 -1.651822e-07 -3.650143e-07
4.214520e-06 -1.802970e-06 -8.691410e-07 1.235297e-06 -1.034285e-08 6.275717e-08
4.337710e-06 -1.575013e-06 -1.346890e-06 7.470359e-07 -1.681176e-07 -2.761386e-07
8.430881e-08 1.118621e-06 -7.581614e-07 -5.115976e-07 1.039850e-07 -6.237373e-08
-3.370529e-07 8.592117e-07 -4.976833e-07 1.606673e-08 -4.078192e-08 -7.657538e-08
1.250354e-07 5.585256e-07 -7.359586e-07 -4.075860e-07 5.678459e-07 -3.357097e-07
-4.768037e-07 1.773617e-06 -8.581570e-07 3.458324e-08 -3.027431e-07 -3.989322e-09
-3.372814e-07 4.070023e-07 -3.127356e-07 1.234073e-08 -3.823888e-07 -9.317185e-08
-3.444083e-07 1.103664e-06 -5.546853e-07 2.388613e-08 -1.861353e-07 -9.901273e-08
8.452234e-08 8.692531e-07 -5.922136e-07 -2.988712e-07 4.292053e-08 -1.084897e-08
-4.873316e-07 1.422815e-06 -8.093390e-07 1.020739e-07 -1.928774e-07 -2.684320e-08
-2.830495e-07 1.025944e-06 -6.180508e-07 -1.621793e-07 5.808402e-08 -2.001930e-08
-1.900344e-07 1.109445e-06 -7.416576e-07 -3.581478e-07 2.905466e-07 -1.064705e-07
4.954054e-07 6.588836e-07 -9.284785e-07 -3.868492e-07 8.424975e-08 -3.146761e-08
-3.970601e-06 4.464566e-06 4.510293e-06 -1.761422e-06 -7.650566e-07 2.264181e-07
-1.524606e-05 -2.138157e-05 5.003346e-05 1.227369e-06 8.002799e-06 1.328119e-05
5.846894e-07 1.748945e-08 -5.478335e-07 -8.045630e-08 6.017126e-07 -2.795467e-07
4.254043e-07 5.262103e-08 -1.828932e-07 -6.138188e-08 -1.188408e-08 -2.954103e-09
4.182928e-07 5.075721e-08 -1.711073e-07 -4.602677e-08 -2.872284e-09 4.981285e-09
7.571913e-07 -1.387650e-07 -3.651141e-07 1.381072e-07 1.471788e-08 2.121075e-08
4.152729e-07 5.311291e-08 -1.546148e-07 3.358585e-08 5.171273e-09 1.324909e-08
4.567375e-07 3.191692e-08 -1.732273e-07 -4.832701e-08 -9.714735e-09 1.622145e-08
4.193712e-07 4.170229e-08 -1.520877e-07 -2.305657e-08 -9.349698e-09 7.862309e-09
4.186326e-07 6.395203e-08 -2.019965e-07 -8.453993e-08 -1.730440e-08 1.197659e-08
4.508833e-07 3.582583e-08 -1.891200e-07 -5.206835e-08 -1.561198e-08 6.572300e-09
4.512971e-07 1.389243e-08 -1.943240e-07 -5.037210e-08 -4.744267e-09 6.045742e-09
4.846978e-07 2.358899e-08 -1.928526e-07 -7.267736e-08 -8.578777e-09 1.396873e-08
4.537668e-07 1.473133e-08 -1.707131e-07 -4.201801e-08 -9.553748e-09 2.574453e-09
7.119450e-07 -7.726272e-08 -3.574720e-07 2.115716e-07 3.668070e-08 8.242778e-08
1.950356e-08 7.132634e-07 -5.402961e-07 -1.586766e-07 8.161209e-09 -3.420359e-08
4.597942e-07 6.179332e-09 -1.548577e-07 1.335426e-08 1.191279e-09 4.495834e-09
1.125120e-07 4.244996e-07 -2.497027e-07 1.394650e-07 1.025960e-07 8.139075e-08
9.326988e-07 -4.028024e-08 -6.055381e-07 4.314188e-07 2.146612e-08 8.939720e-08
5.735969e-07 -1.119228e-09 -3.126875e-07 1.459577e-07 1.030190e-08 1.166005e-09
5.936095e-07 3.238507e-08 -3.698879e-07 2.230315e-07 1.963801e-08 1.093013e-08
4.578565e-07 1.281056e-06 -1.082060e-06 -1.323167e-06 2.497384e-07 -5.760775e-08
1.652773e-07 3.438995e-07 -2.386608e-07 1.168138e-07 8.355324e-08 6.165488e-08
1.562937e-07 2.943091e-07 -2.508042e-07 1.372073e-07 1.027158e-07 7.867138e-08
-5.567512e-07 1.506520e-06 -7.789643e-07 3.382776e-07 2.792942e-07 4.773767e-08
1.541572e-07 3.666755e-07 -2.673298e-07 1.767725e-07 9.444065e-08 7.262738e-08
1.317665e-07 3.667668e-07 -3.156772e-07 1.678332e-07 1.231931e-07 1.160098e-07
-2.364724e-07 1.161680e-06 -7.304029e-07 3.169170e-07 1.383298e-07 3.708967e-08
3.434908e-07 1.131067e-07 -1.632899e-07 -8.887588e-09 -6.020098e-09 2.089288e-08
-7.086105e-07 1.846850e-06 -8.578910e-07 -1.004902e-07 1.400107e-07 -2.475406e-08
-5.943369e-07 1.978455e-06 -8.905359e-07 -3.596519e-07 7.295727e-08 2.999460e-09
3.452711e-07 1.338528e-07 -1.543367e-07 -3.186902e-08 -1.008601e-08 2.183453e-08
3.653406e-07 1.003648e-07 -1.477113e-07 -5.692923e-09 -4.354775e-09 5.571005e-09
1.193130e-06 4.093175e-07 -8.264422e-07 1.298971e-06 2.987958e-07 3.467447e-07
3.733986e-07 7.908821e-08 -1.591227e-07 -5.346414e-08 -1.320299e-08 2.483689e-08
-9.622412e-07 2.901970e-06 -6.228098e-07 5.076223e-07 3.838948e-07 1.377663e-07
-8.566911e-07 2.480326e-06 -9.320902e-07 -2.404960e-07 2.949157e-07 2.093445e-08
3.936775e-07 7.485329e-08 -1.591227e-07 -4.062064e-08 -9.958407e-09 2.355971e-08
3.653098e-07 1.050083e-07 -1.540793e-07 -1.016464e-08 -3.768609e-09 1.029227e-08
-9.536039e-07 3.000567e-06 -9.186454e-07 -3.489209e-07 -7.327632e-07 8.447196e-08
-7.278529e-07 2.629959e-06 -1.014231e-06 -3.482665e-07 -2.634234e-07 4.013266e-08
-8.169087e-07 2.747381e-06 -9.918866e-07 1.200290e-08 -3.037115e-07 -1.319828e-08
-9.519200e-07 2.740230e-06 -1.001964e-06 5.507899e-08 -3.129235e-07 5.720189e-08
-1.850757e-06 3.873016e-06 -3.196130e-07 -9.364801e-08 5.505145e-08 -7.965033e-08
2.434490e-07 1.573252e-06 -1.076194e-06 1.416402e-06 -1.457131e-07 -1.803715e-07
-1.150955e-06 3.526645e-06 -7.499572e-07 -3.133217e-07 -3.912477e-07 -1.220785e-08
-7.823282e-08 4.326178e-07 -2.492817e-07 -4.100750e-09 1.852653e-07 -1.211066e-08
-9.365614e-07 2.255962e-06 -9.054500e-07 -2.861622e-07 -3.701636e-07 -1.118922e-08
-1.055664e-06 3.024117e-06 -8.587973e-07 -3.469594e-07 -6.950360e-07 9.537866e-08
4.246725e-07 1.136898e-06 -9.781207e-07 1.022770e-06 -1.806772e-07 -1.879258e-07
-8.734730e-07 2.938449e-06 -9.246136e-07 4.965434e-07 -1.259305e-07 2.891478e-08
1.425236e-06 7.283588e-07 -6.739270e-07 2.343234e-06 -7.674694e-08 -2.272029e-07
-9.520171e-07 3.112504e-06 -8.724630e-07 5.063631e-08 -9.180811e-08 5.403868e-08
9.919841e-07 -7.332279e-06 2.089746e-05 5.258022e-06 1.274145e-06 3.507703e-06
5.046642e-08 1.476346e-06 -3.797213e-07 2.132094e-06 -5.322190e-07 -3.795931e-07
3.844216e-07 1.335180e-06 -1.098464e-06 1.412763e-06 -2.730822e-07 -1.125740e-07
4.702422e-07 1.542565e-06 -1.101340e-06 1.277904e-06 -2.199805e-07 -1.526641e-07
-1.260781e-07 1.730346e-06 -8.796508e-07 1.336921e-06 -3.966642e-07 -2.642286e-07
-1.716737e-06 3.808540e-06 -2.028447e-07 1.122532e-06 3.230037e-07 1.899186e-07
-1.134741e-06 2.797582e-06 -6.296888e-07 1.515538e-06 2.997920e-08 1.795055e-08
-1.379275e-06 3.463672e-06 1.226208e-07 1.915818e-06 5.750174e-07 2.965827e-07
-1.986114e-06 3.697021e-06 5.377944e-07 1.934252e-06 -2.240087e-07 -1.033392e-07
1.120406e-06 -2.113325e-07 -5.564365e-07 -3.095454e-08 -3.673959e-08 9.364507e-08
-1.740939e-06 4.138903e-06 1.215536e-07 1.328165e-06 7.703143e-07 2.515996e-07
-1.206784e-06 3.292390e-06 -6.278775e-07 1.085883e-06 6.651745e-07 2.715224e-07
5.118782e-07 -1.020016e-08 -2.046108e-07 -8.998488e-08 -1.266018e-08 5.652153e-08
6.905206e-07 -1.601509e-07 -2.911388e-07 -1.324388e-08 -3.025217e-10 1.251688e-07
2.043110e-08 7.206044e-07 -5.424380e-07 6.795587e-08 -9.244206e-08 -5.448788e-08
1.427267e-06 -2.927985e-07 -7.456117e-07 -5.768236e-07 -5.859850e-08 1.001767e-07
1.021903e-06 -1.896838e-07 -4.908274e-07 -1.128370e-07 -1.461026e-08 5.244271e-08
5.353526e-07 -8.259145e-08 -1.902338e-07 -4.854296e-08 -2.151978e-08 1.035344e-07
5.558827e-07 -7.863252e-08 -1.618549e-07 -8.206200e-09 -1.230794e-09 7.059343e-09
7.891058e-07 -1.623740e-07 -3.462811e-07 -1.517693e-09 3.550886e-09 2.960768e-08
1.392910e-07 7.175822e-07 -6.643561e-07 1.306322e-07 -3.248344e-08 -2.746527e-08
1.553110e-07 6.862452e-07 -7.227743e-07 1.627938e-07 -1.015118e-07 -2.437575e-08
1.289539e-06 -2.844831e-07 -6.401654e-07 -9.363207e-08 3.042574e-08 2.226052e-07
6.913598e-07 -1.335208e-07 -2.939325e-07 -5.891482e-08 -1.075688e-09 1.790273e-08
-7.374934e-09 2.108267e-06 -6.284099e-08 -2.699443e-06 2.313878e-07 -1.375061e-08
1.689759e-06 -4.146035e-07 -7.813793e-07 -4.887042e-08 1.817472e-08 3.381356e-07
5.421595e-07 -6.702781e-08 -1.741525e-07 -7.874024e-09 -4.127637e-09 6.283712e-09
5.695896e-07 -7.768698e-08 -1.918676e-07 -5.477728e-09 -2.746365e-09 1.089146e-08
6.885165e-07 -4.461823e-08 -3.610467e-07 -1.913571e-07 9.292273e-09 2.590121e-08
-4.228327e-09 5.928427e-07 -4.103092e-07 1.013220e-07 -1.901059e-07 -1.090360e-07
5.421595e-07 -6.702787e-08 -1.893797e-07 -6.841769e-09 -8.022550e-09 8.301547e-09
1.161908e-07 6.761025e-07 -6.200157e-07 1.315483e-07 -1.638834e-07 -4.982921e-08
1.513503e-06 -4.289749e-08 -7.593883e-07 1.379045e-06 2.752407e-07 3.423187e-07
7.753644e-07 -1.566516e-07 -3.547154e-07 -1.189721e-07 -1.700933e-08 2.289485e-08
8.565762e-07 -1.032226e-07 -4.677639e-07 -2.082855e-07 -2.516621e-08 3.043998e-08
1.340081e-06 2.422317e-07 -6.207673e-07 2.267714e-06 9.605230e-08 2.136329e-07
5.952112e-07 -3.430215e-08 -2.783061e-07 -1.048344e-07 -1.961991e-08 3.491291e-08
1.361506e-06 6.330013e-08 4.982438e-07 2.977135e-06 6.951637e-08 2.988665e-07
1.333442e-06 6.199198e-07 -1.922169e-08 2.993390e-06 1.684257e-07 1.781860e-07
9.426759e-07 1.625610e-07 -8.694331e-07 -9.694418e-07 -5.053659e-08 9.069146e-08
1.825609e-06 -1.240088e-07 -5.360123e-07 1.866575e-06 2.065120e-07 3.664631e-07
7.941939e-07 -8.946239e-08 -4.226313e-07 -2.626648e-07 -1.918196e-08 2.886997e-08
1.452180e-06 3.498222e-07 -8.984869e-08 2.681743e-06 2.460132e-07 3.645786e-07
4.471180e-07 1.426713e-06 1.798736e-06 3.827635e-06 -1.916433e-07 3.084946e-07
1.371544e-06 3.547068e-07 -8.694331e-07 -1.263058e-06 -8.098337e-08 1.274420e-07
3.829966e-07 2.488481e-06 7.095217e-07 3.649633e-06 -2.369945e-07 -4.101905e-09
5.218874e-07 6.549669e-07 3.059729e-06 4.038431e-06 -5.819755e-07 -3.078630e-07
-1.645113e-06 2.377313e-06 4.058880e-06 3.871314e-06 -6.063380e-07 -3.337751e-07
-1.609899e-08 5.581279e-07 -3.502081e-07 1.929317e-07 2.081271e-07 1.029750e-07
-2.680000e-08 3.543450e-07 -2.285404e-07 9.234506e-08 2.046091e-07 1.537827e-07
1.046042e-07 3.644220e-07 -2.218530e-07 1.785871e-07 1.826077e-07 1.393493e-07
8.464029e-08 3.581459e-07 -2.504306e-07 9.062451e-08 7.890374e-08 7.833097e-08
2.890412e-08 1.647897e-06 -8.492841e-07 -1.573289e-06 -3.231955e-07 3.497053e-07
8.722771e-08 3.597486e-07 -2.408599e-07 9.698095e-08 7.395718e-08 7.006441e-08
-1.002158e-06 2.649398e-06 -6.902271e-08 -1.961057e-06 -3.376446e-07 5.892711e-09
2.011598e-07 5.831998e-07 -5.466172e-07 -3.449533e-07 -2.784464e-08 3.568791e-08
7.458254e-07 7.328466e-07 -8.088726e-07 -1.128451e-06 -2.368866e-07 2.483605e-07
7.457061e-07 5.366524e-07 -8.344660e-07 -1.293685e-06 -2.951984e-07 3.711334e-07
1.321550e-06 -1.472811e-07 -7.456117e-07 -5.189145e-07 -6.214363e-08 9.543108e-08
1.094598e-06 8.239238e-07 -8.582138e-07 -1.660525e-06 -3.261979e-07 3.538056e-07
7.638550e-09 5.032593e-07 -3.243533e-07 9.188523e-08 9.418352e-08 5.649966e-08
5.977968e-06 -4.527157e-06 4.711933e-06 2.147171e-07 -5.744923e-07 -1.234642e-07
7.790885e-07 -1.587068e-07 -3.177504e-07 -2.869233e-08 -2.126150e-09 8.712663e-08
4.432790e-09 5.256995e-07 -3.773468e-07 1.905186e-07 1.809918e-07 8.640783e-08
7.834287e-08 4.830524e-07 -3.410397e-07 2.163478e-07 1.351628e-07 8.362698e-08
5.292218e-08 4.539670e-07 -3.863446e-07 2.103900e-07 1.941331e-07 1.382350e-07
-3.708652e-08 6.925424e-07 -4.589323e-07 1.958727e-07 8.837558e-08 5.833475e-08
-3.415169e-08 7.230571e-07 -4.676087e-07 1.607854e-07 2.134620e-08 5.258559e-08
-7.421136e-08 5.548690e-07 -3.496585e-07 1.785631e-07 2.075381e-07 9.852413e-08
1.180773e-06 -1.140065e-05 2.772871e-05 2.448624e-06 1.927329e-06 1.046691e-05
-8.167193e-08 7.542395e-07 -4.207679e-07 2.327742e-07 2.194796e-07 1.169183e-07
4.805036e-06 -2.798824e-06 -5.024540e-08 1.004967e-06 -6.526927e-08 -5.603699e-07
2.826313e-08 6.645200e-07 -4.740737e-07 2.603101e-07 1.437695e-07 8.029894e-08
-4.849967e-08 -3.901879e-07 3.754344e-08 -1.193527e-07 -5.674586e-07 -1.207617e-06
-4.371936e-08 6.370348e-07 -3.340271e-07 1.258810e-07 1.566262e-07 1.383987e-07
-6.573498e-06 -1.441363e-06 2.223685e-05 -5.688753e-06 -7.399209e-06 7.228713e-07
-9.088876e-09 6.478399e-07 -4.014444e-07 1.722276e-07 1.104653e-07 6.278001e-08
3.200661e-07 3.436276e-07 -4.061523e-07 -1.896573e-07 -3.757107e-08 2.618004e-08
-5.228817e-07 2.471157e-06 -8.006571e-07 -1.537989e-06 2.818709e-07 9.227115e-10
2.783983e-07 2.490342e-07 -2.802132e-07 -2.312314e-08 -4.252113e-09 3.174824e-08
4.038159e-06 -1.280912e-06 -1.652173e-06 -1.532356e-07 7.514233e-08 5.121220e-08
3.114589e-07 2.597816e-07 -2.771894e-07 -1.234809e-07 -4.544103e-08 5.126667e-08
3.697149e-07 1.866920e-07 -2.801755e-07 -1.405151e-07 -1.362142e-08 1.199031e-08
3.481454e-07 1.847112e-07 -2.601963e-07 -9.048023e-08 -9.432547e-09 2.442201e-08
4.111532e-06 -2.398862e-06 5.152440e-08 -6.770637e-07 -9.176740e-08 4.040616e-07
2.804530e-07 3.255127e-07 -3.657633e-07 -1.609416e-07 -2.933882e-08 2.927591e-08
-9.978868e-07 2.913764e-06 -5.698539e-07 8.963665e-07 -3.703648e-07 -1.447165e-07
-3.989832e-06 6.025053e-06 8.561756e-06 -1.826636e-07 3.091481e-06 6.496055e-07
2.830572e-07 2.977409e-07 -3.260391e-07 -7.248031e-08 -9.371664e-09 2.756151e-08
3.667450e-07 1.213868e-06 -8.918501e-07 -1.290848e-06 -4.735387e-08 9.046744e-08
-2.070076e-06 4.093015e-06 6.737563e-07 -1.788008e-06 1.251262e-07 -1.054056e-07
-1.917046e-06 4.451340e-06 8.818528e-07 1.523200e-06 6.959095e-08 9.311658e-08
2.793176e-07 2.693254e-07 -3.021764e-07 -5.079640e-08 -1.187497e-08 1.190917e-08
6.634879e-08 1.429651e-06 -8.751248e-07 -1.083776e-06 -3.612729e-07 3.130566e-07
-2.686804e-07 2.246683e-06 -9.582841e-07 -1.087445e-06 -5.096211e-07 2.416738e-07
5.016537e-06 -4.291463e-06 1.968080e-06 2.882707e-07 6.536292e-07 7.001538e-07
-6.190739e-08 9.059493e-07 -6.093325e-07 3.138537e-07 7.120648e-08 7.543646e-08
-1.569377e-07 8.543812e-07 -5.450638e-07 2.498518e-07 1.526223e-07 4.934950e-08
1.351058e-07 1.122759e-06 -8.436936e-07 9.943059e-07 2.275284e-07 1.295567e-07
-2.529647e-05 -2.138157e-05 7.912737e-05 4.125303e-07 6.722603e-06 1.815033e-06
1.234041e-09 9.946252e-07 -7.494130e-07 5.984094e-07 1.173292e-07 3.659045e-08
-9.873689e-08 1.017771e-06 -6.131675e-07 4.577410e-07 2.019569e-07 1.111547e-07
1.287421e-06 -9.218655e-06 2.212327e-05 -1.785769e-06 -5.010045e-07 1.742311e-06
-1.409686e-07 1.197311e-06 -6.870176e-07 4.511659e-07 1.830738e-07 6.371952e-08
-1.912808e-05 -1.932168e-05 7.038184e-05 -1.304063e-06 -5.005223e-07 -9.328773e-09
-1.345787e-07 9.535276e-07 -6.072042e-07 3.016889e-07 1.506534e-07 6.549361e-08
-5.766137e-06 -8.077359e-07 1.560212e-05 -4.773051e-06 -4.268468e-06 2.413521e-06
2.335225e-07 5.933084e-07 -5.289246e-07 4.972334e-07 1.237637e-07 1.584497e-07
2.405075e-06 -1.120485e-06 3.287767e-06 -3.731048e-06 -1.959221e-07 9.534382e-07
1.803699e-07 5.941048e-07 -5.101147e-07 4.011041e-07 1.166631e-07 5.254276e-08
2.507446e-07 4.588969e-07 -4.600491e-07 3.539717e-07 1.699292e-08 6.815586e-08
1.344036e-07 6.317661e-07 -5.341930e-07 4.278182e-07 6.633746e-08 4.755527e-08
1.344036e-07 6.341098e-07 -5.100632e-07 3.700823e-07 8.789121e-08 1.418874e-08
-1.606682e-05 -8.169270e-06 5.074572e-05 -2.247928e-06 -1.038899e-06 -7.796533e-08
-1.466698e-05 -1.555638e-05 6.170641e-05 3.436370e-06 -2.161179e-06 -2.330553e-06
-8.991390e-06 1.216224e-06 1.493611e-05 3.894719e-06 -7.433544e-07 4.064616e-07
2.493119e-07 4.631585e-07 -5.165584e-07 4.029154e-07 5.598833e-08 3.338185e-08
1.201156e-07 5.094705e-07 -4.601926e-07 2.884475e-07 6.518744e-08 5.182930e-08
-1.273890e-05 -1.201166e-05 5.014812e-05 6.074805e-06 6.961088e-06 1.274142e-05
-3.260714e-06 -1.328515e-05 4.385891e-05 -2.244969e-06 -2.103093e-08 6.708363e-06
1.859833e-06 1.703564e-07 -2.318758e-07 -2.484471e-06 -5.584737e-07 3.690522e-07
1.659116e-06 6.915684e-07 1.871073e-07 -2.880574e-06 -8.267819e-08 -1.139373e-07
2.323294e-06 2.597269e-07 3.590767e-07 -3.180555e-06 -2.063591e-07 1.939361e-07
4.469477e-06 -6.051603e-06 6.642439e-06 2.380200e-06 7.631776e-07 1.909675e-06
4.287703e-07 1.230023e-06 6.466948e-07 -2.594356e-06 -7.162532e-07 4.148006e-08
-3.865783e-06 4.418259e-06 4.401422e-06 3.595897e-06 -4.301425e-07 1.086150e-08
1.767065e-06 -3.297070e-07 -5.667409e-07 -1.685770e-06 -2.717942e-07 3.675156e-07
1.931361e-06 -3.157203e-07 -8.483002e-07 -1.103783e-06 -1.656987e-07 3.815171e-07
1.800954e-06 3.545493e-07 -9.219757e-07 -1.719879e-06 -1.234126e-07 1.635858e-07
-9.281379e-07 2.171376e-06 -8.756245e-07 4.207519e-07 -4.599167e-07 -3.722172e-08
-2.876851e-06 4.291666e-06 1.551777e-07 5.934046e-07 -3.876515e-07 -1.609545e-07
-1.472102e-06 3.609653e-06 1.110928e-06 -2.867979e-06 -2.286288e-07 2.592915e-07
-1.394640e-06 3.624659e-06 1.463533e-06 -3.240746e-06 -4.363141e-07 4.445905e-07
-1.850757e-06 4.659597e-06 1.707301e-07 -2.523472e-08 -5.712502e-07 -1.411672e-07
-2.146834e-06 4.218290e-06 4.764320e-07 2.889037e-06 -1.388362e-07 -1.816860e-07
8.610297e-07 1.095213e-06 -2.503615e-07 -2.960788e-06 -1.274028e-07 8.511319e-08
-3.734750e-06 4.036688e-06 7.552688e-06 2.668969e-06 1.642621e-06 3.158617e-07
-2.143399e-07 1.651515e-06 -3.690503e-07 2.123066e-06 -3.666172e-07 -2.942167e-07
1.087735e-06 6.844722e-07 -3.315888e-07 -2.476988e-06 4.112526e-08 -3.343742e-08
6.994549e-07 2.586871e-07 -7.617874e-07 -7.543537e-08 5.998507e-07 -1.198890e-07
1.818478e-06 5.265683e-08 -1.393602e-06 4.799212e-07 -1.841988e-07 -6.541514e-08
1.970571e-07 2.952252e-07 -3.489017e-07 -1.091374e-07 4.974609e-07 -1.743819e-07
6.080686e-07 4.290216e-07 -6.830494e-07 -2.060031e-07 5.285202e-07 -1.526826e-07
1.061944e-06 2.501541e-07 -8.403070e-07 -4.096519e-07 6.144779e-07 -3.736116e-07
4.280253e-07 6.573281e-07 -7.896735e-07 -7.598941e-07 5.894380e-07 -3.483028e-07
1.180527e-07 1.042301e-07 -3.805178e-07 1.080205e-07 5.401757e-07 -9.045120e-08
3.856705e-07 1.354385e-07 -3.232850e-07 -1.826814e-07 -4.942780e-08 5.527185e-08
8.298781e-08 2.277136e-07 -3.615596e-07 -1.320885e-07 4.937137e-07 -8.524074e-08
2.220400e-07 3.338037e-07 -3.251272e-07 -3.124331e-08 3.997826e-07 -9.542637e-09
3.844645e-07 4.386840e-07 -6.760615e-07 -2.743306e-07 4.956436e-07 -1.924538e-07
9.914102e-08 2.094742e-07 -3.579177e-07 1.032754e-07 4.644656e-07 -8.394262e-08
1.617645e-07 3.994290e-07 -5.216916e-07 -1.876084e-08 3.962369e-07 -1.744968e-08
5.977749e-07 1.664637e-08 -4.077209e-07 -2.522396e-07 -3.476839e-08 5.761960e-08
4.475829e-07 1.259938e-07 -2.526131e-07 -1.757266e-07 -5.131458e-08 5.681997e-08
-5.889600e-08 3.381220e-07 -3.892187e-07 -6.641860e-08 4.655222e-07 -1.854039e-07
5.633484e-07 -6.592736e-08 -2.014238e-07 -9.547934e-09 2.217798e-09 4.017387e-16
1.271073e-07 4.557832e-07 -3.653944e-07 -1.305330e-07 3.596810e-07 -1.294709e-07
-5.179733e-06 2.036348e-06 1.461574e-05 4.987055e-06 3.483732e-06 2.005790e-08
1.371787e-06 -7.644590e-08 -9.148250e-07 -1.237580e-06 -1.059866e-07 1.331635e-07
-3.462643e-06 -1.695208e-06 1.752004e-05 6.180079e-06 1.443071e-07 5.199424e-07
3.095753e-06 -8.049494e-07 -8.789268e-07 7.431940e-07 3.083919e-08 3.475214e-07
6.470157e-07 1.142536e-07 -4.547938e-07 4.978187e-07 5.828615e-08 9.138938e-08
1.563426e-07 7.415790e-07 -7.193585e-07 6.381034e-07 3.108270e-07 1.428916e-07
-2.602143e-06 3.333924e-06 4.464226e-06 3.880208e-06 4.576011e-07 2.044181e-07
-7.370074e-08 1.427425e-06 -8.238785e-07 1.059288e-06 2.719958e-07 1.855912e-07
3.699634e-07 4.561860e-07 -6.799027e-07 6.440733e-07 2.308203e-07 2.089802e-07
-3.141274e-07 1.399184e-06 -7.331776e-07 1.762036e-07 1.005773e-07 3.466318e-08
1.176588e-06 1.166310e-06 8.390210e-07 3.145401e-06 1.008974e-07 -1.317384e-07
-1.029619e-06 -1.449206e-06 1.101765e-05 6.230691e-06 2.077274e-06 4.037564e-07
-6.696571e-09 -5.133807e-06 1.402683e-05 6.274930e-06 2.914334e-06 2.549494e-06
-1.833059e-06 -5.602946e-06 2.325916e-05 6.279645e-06 2.762728e-06 7.938455e-06
-2.953481e-06 -6.589046e-06 2.482548e-05 5.659015e-06 4.898377e-07 1.095895e-06
-3.363841e-06 -4.519006e-06 1.752004e-05 5.504915e-06 2.644544e-07 5.121956e-07
-6.445369e-06 -5.070145e-06 3.079784e-05 6.140170e-06 3.304345e-06 3.225375e-06
2.750035e-06 -1.147721e-06 -9.445436e-07 1.983150e-08 -1.450645e-07 -4.440238e-07
2.578724e-07 1.703872e-06 -7.358655e-07 2.215486e-06 2.513143e-07 6.758565e-08
2.748998e-06 -1.063365e-06 -9.721441e-07 1.003134e-08 -1.672080e-07 -4.329252e-07
2.515130e-06 -8.726686e-07 -9.340570e-07 3.080338e-07 -4.063379e-07 -5.579652e-07
7.074220e-07 -7.358784e-07 -4.938624e-07 -4.958331e-07 -1.441045e-07 -1.828626e-07
7.636180e-07 -7.148995e-07 -4.646295e-07 4.834919e-07 -2.501182e-07 -1.531617e-07
3.979678e-06 -6.051603e-06 1.601053e-05 3.583151e-06 1.744338e-06 4.640027e-06
4.545676e-06 -4.192877e-06 4.072643e-06 6.176959e-07 1.407928e-07 -7.269303e-08
1.086930e-06 -1.893531e-07 -9.098456e-07 4.120297e-07 -5.199269e-07 -3.558142e-07
6.819847e-07 -8.460961e-08 -3.135744e-07 1.137564e-07 -2.528049e-09 2.674549e-08
-1.005878e-06 -1.000636e-07 8.007879e-06 5.362943e-06 -2.677184e-06 -2.316191e-06
-4.300238e-06 5.068371e-06 6.062718e-06 9.812674e-07 3.457827e-07 -1.088271e-07
1.171081e-07 1.597197e-06 -6.349429e-07 1.831541e-06 3.544875e-07 1.646745e-07
1.122988e-06 -4.521912e-09 -8.942757e-07 9.832047e-08 -5.885391e-07 -2.157829e-07
8.548315e-07 3.928731e-07 -8.172550e-07 6.736274e-07 -7.148276e-07 -4.572400e-07
-1.853092e-09 -1.163948e-07 -4.416767e-07 -3.202434e-08 -6.376613e-07 -2.266879e-07
2.028903e-07 7.974382e-08 -4.329113e-07 2.319401e-07 -5.863064e-07 -1.310324e-07
3.821404e-07 3.255490e-07 -7.347940e-07 2.242615e-07 -5.746235e-07 -2.670085e-07
1.030026e-06 2.360498e-07 -8.933559e-07 2.344687e-07 -5.735062e-07 -2.091004e-07
-1.904209e-05 -1.168104e-05 5.419053e-05 -7.464106e-07 2.969524e-06 -5.348730e-07
6.601123e-07 5.063851e-07 -7.746624e-07 2.018122e-07 -5.599875e-07 -1.867000e-07
7.550207e-07 2.402744e-07 -7.746726e-07 9.222157e-08 -5.514201e-07 -1.892710e-07
-1.768334e-05 -1.143663e-05 4.205721e-05 3.067613e-06 -4.882886e-06 -1.459071e-06
-1.017434e-05 1.360260e-06 2.253382e-05 -9.682820e-07 -1.243558e-06 7.392157e-09
2.568482e-10 5.830197e-08 -4.157994e-07 1.786674e-09 -5.909602e-07 -1.477862e-07
-1.321170e-05 -1.103478e-05 4.778489e-05 -5.798982e-06 4.184954e-06 -4.943045e-06
-3.811891e-06 4.725207e-06 9.490636e-07 -4.595127e-07 -8.193448e-07 -1.656698e-07
-2.875049e-06 5.509874e-06 2.559009e-06 8.807528e-07 -5.005466e-07 -2.112726e-07
-4.687539e-06 -9.220505e-06 3.366913e-05 -5.918539e-06 8.357589e-06 -8.977389e-06
1.059930e-07 2.418094e-07 -3.866791e-07 1.563057e-07 -5.171025e-07 -8.175289e-08
-7.277529e-06 4.519771e-06 1.496465e-05 2.591764e-06 -6.215202e-06 -1.742058e-06
-1.142318e-05 -1.252497e-07 2.188718e-05 3.101811e-06 -2.112226e-07 -4.572985e-07
-6.074755e-06 2.937886e-06 1.493611e-05 1.576369e-06 1.463123e-07 -1.098687e-06
-8.579175e-06 4.375222e-06 1.094392e-05 8.895870e-07 -4.704999e-06 1.196997e-06
-6.415326e-06 4.568631e-06 1.696844e-05 -2.831738e-06 6.057805e-06 -1.186572e-06
-5.328452e-06 5.242886e-06 9.471752e-06 5.588646e-07 -1.070686e-06 -7.528354e-07
-1.120188e-05 -5.159376e-06 3.076071e-05 -3.989745e-06 2.991305e-06 -2.201612e-06
5.073168e-07 -3.788857e-08 -1.579191e-07 -9.060601e-09 -7.920649e-09 6.614531e-09
-5.627123e-06 5.968853e-06 8.324877e-06 2.422879e-07 -1.172370e-06 2.092676e-07
-4.630302e-06 2.171617e-06 1.126479e-05 -4.792037e-06 -1.317403e-07 1.668924e-07
-3.673419e-06 4.075734e-06 3.123608e-06 -1.531541e-06 4.557418e-07 -1.658476e-07
-5.969748e-06 5.535022e-06 5.749431e-06 -9.281331e-07 -2.766461e-07 8.501542e-07
-8.560532e-06 2.840561e-06 1.273158e-05 1.019217e-06 -5.330219e-07 -1.160202e-07
5.348346e-06 -6.885900e-06 7.666433e-06 -2.734599e-06 2.427901e-06 -4.687317e-06
-5.650013e-06 -1.348249e-05 4.205580e-05 -3.307158e-06 8.926531e-07 -7.044501e-07
-6.281659e-06 4.291570e-06 1.107398e-05 -1.554600e-06 -3.179022e-06 -4.002193e-07
-2.186049e-05 -2.229440e-05 7.300867e-05 -1.560624e-06 -8.126249e-06 1.207382e-06
-1.027911e-05 -1.791559e-05 4.377678e-05 -2.892861e-06 -7.958333e-07 7.511345e-06
-9.925368e-07 8.175297e-07 7.650293e-06 -5.737352e-06 -1.080212e-06 9.225173e-07
-2.212353e-05 -2.229701e-05 7.113893e-05 -1.837223e-06 -9.860968e-06 2.322260e-07
-4.916291e-06 5.077535e-06 4.773976e-06 1.451646e-07 -1.229589e-06 -1.692371e-07
-2.405208e-05 -2.229701e-05 7.865132e-05 -2.725522e-06 -1.077889e-05 2.870770e-06
-1.253611e-05 -1.310820e-05 5.959502e-05 -4.584598e-06 4.350611e-08 2.468798e-06
1.796062e-07 4.943756e-07 -4.920462e-07 9.951551e-08 -3.511625e-07 -8.609539e-08
2.768973e-07 5.263834e-07 -7.144356e-07 1.714162e-07 -3.438462e-07 -1.212539e-07
-1.361232e-05 -3.681714e-06 3.098547e-05 -7.393149e-07 -5.576721e-06 2.189918e-06
2.752124e-07 5.732663e-07 -5.776403e-07 3.504380e-07 -4.345939e-07 -2.244278e-07
-5.423315e-09 5.454155e-07 -4.385603e-07 8.757133e-08 -2.458309e-07 -1.353866e-07
6.354190e-08 2.326472e-07 -3.735749e-07 8.622870e-08 -5.501536e-07 -2.438041e-07
1.125561e-07 3.853204e-07 -4.957700e-07 4.522892e-08 -3.872804e-07 -9.847697e-08
5.979965e-08 4.178571e-07 -5.324479e-07 9.338427e-08 -4.700070e-07 -2.140599e-07
1.717506e-07 5.802916e-07 -7.145606e-07 2.144563e-07 -3.162331e-07 -8.943153e-08
2.340149e-06 -1.430234e-06 1.964676e-06 -3.288331e-06 -1.306739e-07 3.287831e-07
-2.360629e-08 3.183703e-07 -3.745369e-07 9.604369e-08 -5.361318e-07 -2.385221e-07
-1.924261e-05 -8.788052e-06 5.440861e-05 4.067319e-06 1.483971e-05 1.347884e-06
1.018189e-07 4.776479e-07 -5.159387e-07 2.105154e-07 -5.289332e-07 -2.928075e-07
5.766057e-08 4.110853e-07 -2.938261e-07 9.800347e-08 -4.141670e-07 -2.255542e-07
3.083689e-06 -9.105084e-07 -4.689891e-07 1.418487e-06 5.777976e-08 1.382209e-07
3.682609e-06 -1.696111e-06 -3.319727e-07 9.494595e-08 -1.040387e-07 -1.144355e-07
-1.640484e-05 -2.245336e-05 7.052159e-05 -6.964743e-07 -3.532554e-06 6.700990e-07
7.435578e-07 -7.758314e-07 8.400136e-06 -5.242692e-06 1.591559e-06 -1.803539e-07
-1.468478e-05 -1.763131e-05 6.735763e-05 -3.613541e-06 1.483779e-05 -8.636526e-06
-2.982111e-07 8.450621e-07 -3.094899e-07 1.815347e-08 -2.929322e-08 -9.193928e-08
-3.915751e-07 1.251705e-06 -6.796515e-07 1.772416e-07 -4.801958e-07 -1.435542e-07
1.612645e-06 -7.311920e-06 1.830438e-05 1.096244e-06 3.854917e-07 -6.402065e-07
-4.087208e-07 9.860375e-07 -4.376349e-07 2.356316e-07 -5.070200e-07 -1.659312e-07
-3.474960e-07 9.053143e-07 -5.795784e-07 1.786552e-08 -2.494664e-07 -3.709206e-08
5.238842e-07 -5.621142e-08 -1.688396e-07 -7.672058e-09 -1.185817e-08 9.532033e-09
-2.939377e-07 8.312887e-07 -3.060029e-07 1.173302e-08 -2.513922e-07 -7.000240e-08
-2.109684e-06 -1.065057e-05 2.493412e-05 1.794766e-07 1.316085e-07 -4.025107e-07
1.307384e-06 3.563266e-07 -1.255998e-06 1.671329e-07 -9.472411e-08 -3.255118e-14
-3.375045e-07 7.684499e-07 -3.494202e-07 8.765997e-09 -1.812747e-07 -8.083132e-08
-3.185756e-07 6.410761e-07 -3.232955e-07 -1.210598e-07 -1.174275e-07 -1.095216e-07
5.337161e-07 -7.801372e-08 -1.838438e-07 3.799337e-08 1.354708e-08 5.317651e-08
7.313688e-07 -4.440013e-07 -4.313361e-07 5.285861e-07 -4.703005e-07 -1.554678e-07
5.225901e-07 -5.920504e-08 -1.593937e-07 -1.425391e-08 -1.102443e-08 1.187578e-08
1.022921e-06 1.206277e-07 -4.600910e-07 1.560688e-06 -7.298777e-07 -7.196645e-07
5.761476e-07 -1.030757e-07 -1.996700e-07 1.267404e-08 2.233300e-09 3.655997e-08
5.586811e-07 -8.173322e-08 -1.916201e-07 1.994083e-08 2.134963e-09 3.199932e-08
1.817570e-06 -5.360209e-07 -8.383348e-07 -6.076986e-07 -1.484213e-07 3.940326e-07
1.649733e-06 -5.106790e-08 -1.137592e-06 8.547873e-07 -2.889243e-07 -8.910348e-08
1.373548e-07 -5.073534e-07 -4.176661e-07 3.403021e-09 -3.523367e-07 1.599072e-07
5.707115e-07 -7.977533e-08 -1.881719e-07 1.333631e-08 1.068691e-08 1.165992e-08
5.573303e-07 -8.786729e-08 -1.630990e-07 4.211355e-09 2.642452e-09 1.375129e-08
5.376520e-07 -7.801220e-08 -1.678711e-07 3.885290e-08 1.010499e-08 4.329233e-08
1.218088e-06 -7.430651e-07 -4.212860e-07 1.347721e-07 -2.620500e-07 -4.715703e-07
8.065438e-07 7.893879e-07 -1.187271e-06 6.493810e-07 -1.862981e-07 -1.093329e-07
3.048655e-06 -1.028919e-06 -1.588062e-06 1.567854e-07 -1.841828e-07 -1.023010e-08
5.340377e-07 -7.819302e-08 -1.650760e-07 3.102196e-08 2.649218e-09 4.302385e-08
5.974816e-07 -2.852056e-08 -2.972136e-07 1.722940e-07 2.608994e-08 7.880444e-08
5.528987e-07 -9.186531e-08 -1.613011e-07 1.073697e-08 5.408609e-09 1.505373e-08
3.267158e-07 3.158554e-07 -3.903141e-07 1.557306e-07 -5.313173e-07 -1.829182e-07
5.928432e-07 -1.028012e-07 -1.875369e-07 1.485579e-08 4.276545e-09 5.420975e-08
5.657295e-07 -1.080358e-07 -1.682863e-07 2.553211e-08 1.295983e-08 5.760671e-08
2.589618e-06 -8.053282e-07 -1.315363e-06 1.304190e-07 -3.532668e-07 -1.710449e-07
4.165461e-06 -1.603727e-06 -1.574098e-06 2.210709e-07 -4.880028e-08 -5.023969e-08
5.778848e-07 -1.123601e-07 -1.853535e-07 3.061896e-08 4.029057e-09 5.953376e-08
4.816489e-06 -1.790771e-06 -1.360230e-06 -1.498258e-08 -8.347891e-09 -1.428878e-07
5.787143e-07 2.810236e-07 -4.813775e-07 4.663425e-07 3.165127e-08 4.189130e-08
4.130091e-06 -1.860402e-06 -7.176726e-07 1.644515e-06 -1.639385e-07 -2.656215e-07
5.967627e-07 1.952787e-07 -6.483831e-07 5.332656e-07 2.167526e-08 3.888277e-08
5.272277e-07 2.612684e-07 -5.469050e-07 4.823697e-07 1.387036e-07 7.996146e-08
6.239360e-07 3.335120e-07 -7.770715e-07 7.696687e-07 3.646059e-08 6.539185e-08
7.511657e-07 3.518748e-07 -8.710893e-07 1.067769e-06 1.455307e-07 1.608403e-07
8.141491e-07 1.966528e-07 -6.732084e-07 7.106387e-07 7.781968e-08 2.434421e-07
7.195675e-07 2.105160e-07 -7.616789e-07 7.417374e-07 1.073753e-07 1.587986e-07
4.953189e-08 -2.241862e-07 -4.851920e-07 4.257569e-09 5.883566e-07 -2.379498e-07
6.146210e-07 8.202007e-08 -5.764301e-07 4.653239e-07 1.210208e-07 1.550418e-07
-2.189223e-07 8.173763e-07 -3.455009e-07 6.433752e-08 9.552127e-08 5.777669e-08
-2.538230e-07 7.970377e-07 -3.857022e-07 7.225145e-08 1.557800e-07 2.495353e-08
-2.249703e-07 8.198456e-07 -3.608747e-07 3.027390e-08 1.110134e-07 7.553351e-08
-1.796664e-07 7.459418e-07 -3.495843e-07 2.968154e-08 7.165193e-08 6.096972e-08
3.294594e-06 -1.862187e-06 2.796012e-06 -4.084358e-06 4.170608e-07 -4.682087e-08
-1.731284e-07 5.733469e-07 -2.676564e-07 7.568163e-08 7.291225e-08 2.327051e-08
-1.922309e-07 6.587667e-07 -2.379621e-07 1.335106e-08 1.655034e-08 4.239673e-08
2.459285e-06 -2.754478e-07 -1.574043e-06 -2.359268e-07 8.696563e-08 -4.103507e-14
-2.347651e-07 7.192019e-07 -2.284723e-07 -5.147595e-09 1.569066e-07 -2.954659e-08
-2.674429e-07 7.205051e-07 -2.521978e-07 -2.611284e-08 1.696360e-07 -2.858213e-10
-2.918118e-07 9.653306e-07 -4.282446e-07 -5.758282e-08 2.541543e-07 -5.302584e-08
-2.932937e-07 8.757637e-07 -3.714833e-07 1.056025e-08 1.087037e-07 -2.588560e-08
-2.517339e-07 7.015868e-07 -3.453026e-07 2.560026e-09 3.465969e-08 -4.606600e-08
-6.177800e-06 3.766822e-06 1.089266e-05 -3.197735e-06 -1.008062e-06 1.385706e-06
2.258295e-06 -7.464016e-07 -2.186697e-07 -1.757038e-06 4.746911e-07 -8.301350e-07
8.026554e-07 -1.789191e-07 -3.587312e-07 4.937673e-08 -2.902981e-08 9.033230e-08
6.418786e-07 -1.055227e-07 -2.604242e-07 2.988619e-08 1.049803e-08 4.447155e-08
6.760289e-07 -1.470804e-07 -2.742147e-07 -2.676325e-10 -1.795695e-09 1.357033e-08
6.782572e-07 -1.162293e-07 -2.760584e-07 1.066069e-08 -1.158247e-10 4.969047e-08
6.724174e-07 -1.233273e-07 -2.650954e-07 2.822210e-08 1.199861e-08 5.423456e-08
7.893471e-07 -1.477790e-07 -3.199372e-07 -8.239254e-09 -6.224737e-10 8.175105e-08
1.542705e-08 5.479582e-07 -4.373223e-07 -2.197252e-08 1.715702e-07 -1.542089e-08
-1.935721e-09 6.594758e-07 -4.740936e-07 -9.398192e-08 2.935011e-08 -9.088735e-09
-6.287035e-08 6.963188e-07 -4.346563e-07 -8.260078e-08 2.519552e-08 -1.466635e-08
6.400615e-07 -5.333376e-08 -3.136101e-07 1.376884e-07 1.982155e-08 7.642035e-08
-4.230064e-06 3.967117e-06 6.802616e-06 -3.935915e-06 -1.598726e-06 1.065864e-06
9.599962e-07 -2.237863e-07 -4.814885e-07 1.871194e-07 2.154500e-08 4.023856e-08
3.802944e-07 8.204864e-08 -1.435081e-07 8.845222e-09 1.734147e-09 -1.126418e-09
2.693987e-08 6.614874e-07 -4.740936e-07 -6.396186e-08 1.871917e-08 -1.428671e-08
3.586974e-07 9.156475e-08 -1.428582e-07 1.129538e-08 1.692144e-09 -6.269728e-10
-3.392678e-08 5.193826e-07 -3.445465e-07 -6.604041e-09 1.367217e-07 -1.563866e-08
3.880235e-07 6.759099e-08 -1.433883e-07 7.279470e-09 4.809651e-09 3.412756e-09
3.619032e-07 9.943702e-08 -1.465477e-07 2.339024e-08 1.763750e-09 5.696841e-09
3.977646e-07 7.296179e-08 -1.472117e-07 1.045350e-08 2.950240e-09 3.964321e-10
3.863680e-07 7.792270e-08 -1.449394e-07 7.937578e-09 -4.291164e-10 1.496554e-09
-1.439862e-07 6.059130e-07 -2.425359e-07 1.594014e-08 3.663054e-08 4.637850e-08
-1.503323e-07 6.556315e-07 -3.316036e-07 1.113423e-07 2.554529e-07 1.273134e-07
-1.337797e-07 5.997620e-07 -2.468448e-07 7.979689e-08 1.419588e-07 6.129255e-08
4.602335e-07 3.698273e-09 -1.795310e-07 -3.583409e-08 -1.151692e-08 1.000840e-08
4.974777e-07 -2.729083e-08 -1.748376e-07 -3.842073e-08 -1.340677e-08 2.737905e-08
5.030592e-07 -2.495370e-08 -1.710791e-07 -4.653850e-08 -2.101190e-08 3.338750e-08
4.661328e-07 3.260979e-09 -1.619761e-07 -3.446781e-08 -1.091150e-08 2.179241e-08
4.614613e-07 1.927137e-08 -1.608721e-07 -4.541807e-08 -1.321650e-08 2.164285e-08
4.839244e-07 -1.343087e-08 -1.908346e-07 -7.104176e-08 -2.467707e-08 5.726639e-08
1.316493e-06 5.099282e-07 -1.218986e-06 1.196777e-06 -1.752235e-07 -8.604576e-08
4.230768e-06 -1.228868e-06 -9.742437e-07 1.340974e-06 4.539418e-08 9.183451e-08
1.838547e-06 -1.895121e-07 -1.212159e-06 1.462192e-07 -3.817669e-07 1.203534e-08
6.229379e-07 6.771341e-07 -1.020609e-06 2.167527e-07 -9.408849e-08 -2.889812e-08
8.867546e-07 -1.066103e-07 -5.825463e-07 3.375370e-07 -6.780612e-07 -3.639875e-07
6.928914e-07 -3.719028e-09 -8.226358e-07 3.719804e-08 -5.168016e-07 -9.532097e-10
2.471463e-06 -4.101332e-08 -5.912407e-07 2.078065e-06 -6.663555e-08 -7.925824e-08
5.683191e-07 6.771341e-07 -1.020609e-06 3.999759e-07 -1.114193e-07 -2.631500e-08
1.616089e-06 2.105310e-07 -9.523300e-07 1.435791e-06 -5.270839e-07 -5.546269e-07
1.000270e-06 4.292614e-07 -1.104093e-06 1.052101e-07 -3.580475e-07 -6.175043e-08
7.349244e-07 8.419506e-07 -1.139930e-06 1.348570e-06 -1.567962e-07 -9.855310e-08
3.162147e-06 -6.858419e-07 -1.409816e-06 9.018753e-07 -1.426761e-07 -1.139403e-07
3.464084e-06 -8.762222e-07 -7.554308e-07 1.860300e-06 -2.484412e-07 -9.966160e-08
3.710595e-08 6.827692e-07 -4.963453e-07 2.461633e-07 5.392096e-08 3.070079e-08
3.497097e-06 -1.714550e-06 -2.014365e-08 1.934967e-06 -9.728972e-08 2.578779e-08
2.849696e-06 -7.121296e-07 -6.417209e-07 2.522041e-06 1.518131e-07 -1.060493e-07
6.693176e-08 6.739802e-07 -4.829830e-07 3.154124e-08 -6.031342e-08 3.635128e-09
-5.440694e-08 6.252382e-07 -3.948547e-07 4.370612e-08 -7.166705e-08 -7.701960e-08
-2.973270e-07 4.974861e-07 -2.768441e-07 4.074690e-09 5.357738e-07 6.904101e-08
3.098255e-07 1.395799e-07 -1.554182e-07 2.611809e-08 4.486205e-09 5.086985e-09
-2.094242e-08 9.681414e-07 -6.805487e-07 1.864396e-07 -4.652037e-08 -5.647511e-08
3.085653e-08 7.917371e-07 -7.309530e-07 2.343623e-07 -9.613717e-08 -5.230120e-09
6.228880e-09 7.015014e-07 -5.916449e-07 3.053466e-08 -4.014147e-08 -3.201605e-08
7.846022e-08 7.713920e-07 -6.698000e-07 1.643049e-07 -6.900016e-08 -1.686170e-08
9.358942e-07 -1.387650e-07 -4.814885e-07 1.875137e-07 1.719089e-08 4.253671e-08
-7.304947e-08 1.038771e-06 -6.157715e-07 2.404676e-07 -1.736517e-07 -9.848785e-08
6.335925e-08 3.514204e-07 -1.867502e-07 1.315929e-08 1.984892e-08 6.069901e-08
5.973019e-07 -1.153978e-07 -1.866749e-07 -2.444165e-09 -3.571224e-09 1.567392e-08
6.270486e-07 -1.250859e-07 -2.107245e-07 -2.187042e-08 8.921184e-09 6.026007e-08
5.847804e-07 -1.232511e-07 -1.606738e-07 -8.325376e-09 6.749657e-10 4.218928e-08
5.922897e-07 -1.103562e-07 -1.894773e-07 -1.718354e-09 -3.369121e-09 1.225079e-08
5.909210e-07 -1.103601e-07 -1.892109e-07 -5.803342e-09 -2.043127e-09 1.206265e-08
5.759485e-07 -1.110393e-07 -1.722202e-07 2.294300e-09 -6.818547e-09 1.523194e-08
-6.548291e-07 2.109751e-06 -8.851510e-07 1.829883e-07 4.950322e-07 7.253190e-08
5.809253e-07 -1.082633e-07 -1.663076e-07 -1.598795e-09 -1.068971e-09 8.870136e-09
6.271123e-07 -1.341231e-07 -2.047635e-07 3.530670e-09 -6.466735e-09 5.811579e-08
5.870045e-07 -1.238411e-07 -1.595264e-07 2.695377e-09 -2.404446e-09 4.157442e-08
6.247156e-07 -1.335097e-07 -2.322709e-07 5.454401e-09 -1.573648e-09 9.714686e-08
6.109396e-07 -1.190605e-07 -2.396679e-07 -2.418839e-08 -9.667556e-09 6.551331e-08
6.874939e-07 -1.278956e-07 -2.368807e-07 -2.907219e-08 -6.801853e-09 8.001975e-08
6.693401e-07 -1.236219e-07 -2.630665e-07 -5.269671e-08 7.605220e-09 1.058276e-07
6.266485e-07 -1.208194e-07 -2.318401e-07 -2.958748e-08 -1.116478e-09 1.037580e-07
-2.145178e-07 6.932376e-07 -2.357316e-07 -1.229427e-08 2.975602e-08 -5.534052e-08
-1.354015e-07 5.849819e-07 -2.050113e-07 -9.426232e-09 2.635088e-08 -5.942581e-08
-3.216686e-06 5.003541e-06 2.717694e-06 -2.583730e-06 -2.505142e-07 4.343949e-07
3.382283e-07 1.546104e-07 -1.855991e-07 7.339511e-08 8.763834e-09 1.277213e-08
2.994549e-07 1.602388e-07 -1.653548e-07 3.779772e-08 1.948278e-09 2.761658e-09
-2.598137e-07 7.039710e-07 -2.358758e-07 1.316448e-08 3.635048e-07 -2.757258e-09
2.880169e-07 1.835936e-07 -1.804987e-07 4.917204e-08 -2.512457e-11 6.449177e-09
3.247074e-07 1.512758e-07 -1.571211e-07 5.491519e-08 1.694833e-09 1.446372e-09
2.931335e-07 1.722078e-07 -1.524018e-07 3.414726e-08 1.199469e-08 1.046446e-08
3.202578e-07 1.311965e-07 -1.513019e-07 4.978880e-08 1.014786e-08 1.036430e-08
-2.030220e-07 5.699124e-07 -2.541664e-07 -2.654422e-08 5.456634e-08 5.880789e-08
3.158774e-07 1.486540e-07 -1.652333e-07 3.879984e-08 1.338796e-10 5.506293e-09
-2.868967e-07 1.172125e-06 -6.042938e-07 6.483915e-08 3.131876e-08 1.149109e-08
4.808389e-07 -2.528086e-08 -1.635333e-07 1.735680e-08 1.026258e-08 1.122599e-08
-2.738425e-07 8.723774e-07 -4.017168e-07 -3.176204e-08 2.442699e-07 -2.655625e-08
4.759434e-07 -2.368040e-08 -1.818597e-07 4.983763e-08 6.948304e-09 2.470916e-08
5.029242e-07 -2.514840e-08 -1.633496e-07 2.972449e-08 1.252573e-08 2.267583e-08
4.855011e-07 -2.057651e-08 -1.662605e-07 7.136457e-08 1.927319e-08 5.020037e-08
-3.482389e-07 1.093469e-06 -5.542181e-07 -3.820807e-08 1.365121e-07 -1.949930e-08
4.793247e-07 3.709221e-09 -1.636793e-07 2.614467e-08 1.049873e-08 1.051161e-08
-3.930258e-06 3.207410e-06 8.281304e-06 -3.874281e-06 -1.949247e-07 -3.430413e-07
-2.254159e-07 7.254197e-07 -2.466607e-07 -4.209293e-08 1.521804e-07 -6.412934e-08
4.981237e-07 -2.986082e-08 -1.548687e-07 -1.011415e-08 -2.971083e-09 5.852515e-09
4.743330e-07 -9.061619e-09 -1.533827e-07 1.041258e-08 3.693827e-10 6.346476e-09
4.669658e-07 -4.744538e-11 -1.537461e-07 1.008083e-08 2.738711e-09 8.956888e-09
1.083382e-07 3.608805e-07 -1.778883e-07 1.911241e-08 1.229026e-08 3.978530e-08
1.441096e-06 7.145049e-07 -1.148159e-06 -1.548592e-06 3.110407e-07 -3.044329e-07
1.878962e-06 -7.239016e-09 -1.074815e-06 -1.577400e-06 4.486139e-07 -4.961396e-07
1.223552e-06 1.136754e-06 -1.228970e-06 -1.762527e-06 1.341481e-07 -1.822721e-07
2.975891e-07 2.755001e-07 -3.027646e-07 1.855700e-07 2.837580e-08 -5.423122e-09
-2.150995e-07 6.949342e-07 -4.040440e-07 7.193066e-08 1.803515e-07 5.350758e-08
1.259185e-07 3.083285e-07 -1.766356e-07 1.208143e-08 1.543655e-08 4.611400e-08
9.610451e-07 9.316168e-07 -8.834423e-07 -1.902343e-06 2.121667e-07 -8.431885e-08
1.318106e-06 6.817773e-07 -1.095153e-06 -9.796943e-07 5.464376e-07 -2.646972e-07
8.031933e-07 9.614901e-07 -9.946120e-07 -1.137394e-06 4.494790e-07 -2.998085e-07
6.686255e-07 9.614901e-07 -9.977131e-07 -1.231258e-06 5.301656e-07 -2.401666e-07
4.002155e-07 7.398210e-08 -1.488436e-07 -4.204440e-08 -9.968713e-09 1.399702e-08
4.490416e-07 2.111133e-08 -1.516635e-07 -3.354305e-08 -5.633841e-09 2.383903e-08
4.072913e-07 6.014466e-08 -1.456069e-07 -2.138777e-08 -1.813154e-09 1.084828e-08
5.639397e-07 -1.406435e-07 -2.052611e-07 1.294124e-08 3.618815e-09 1.303281e-07
4.345666e-07 1.897081e-08 -1.586988e-07 -1.906691e-08 -5.602489e-09 1.083925e-08
4.348987e-07 2.261297e-08 -1.426218e-07 -2.073658e-08 -9.295825e-09 9.813084e-09
4.354559e-07 3.604518e-08 -1.398413e-07 -1.747001e-08 -3.176634e-09 1.125999e-08
4.962516e-07 8.096338e-08 -3.315624e-07 -2.132719e-07 -4.468356e-08 4.590448e-08
4.854272e-07 7.291007e-08 -2.653826e-07 -1.716112e-07 -1.678362e-08 4.335774e-08
2.889381e-07 1.726077e-07 -1.561474e-07 2.381104e-08 9.278005e-09 3.065534e-09
4.924680e-07 8.096451e-08 -2.637681e-07 -1.615726e-07 -2.039082e-08 3.878738e-08
5.032533e-07 4.301064e-08 -2.357732e-07 -1.455987e-07 -2.529062e-08 6.034134e-08
5.192282e-07 2.908639e-08 -2.604396e-07 -1.337261e-07 -6.649256e-09 4.719796e-08
5.686365e-07 3.028064e-08 -2.948495e-07 -1.941050e-07 -2.817952e-08 4.809475e-08
1.396496e-07 2.939500e-07 -1.717124e-07 4.382296e-08 2.814011e-08 4.625481e-08
1.374150e-07 3.327634e-07 -2.194680e-07 1.997987e-08 3.484002e-09 4.163896e-08
-3.204770e-08 5.583688e-07 -3.706953e-07 -8.860689e-09 8.185032e-08 -1.196992e-08
4.714169e-08 7.113369e-07 -4.740936e-07 -1.499177e-07 1.605843e-08 1.143880e-08
1.411099e-07 3.877042e-07 -2.339400e-07 5.346336e-08 2.844313e-08 5.038391e-08
1.422156e-07 3.584889e-07 -2.157984e-07 6.555464e-08 4.974502e-08 5.527627e-08
1.769554e-07 3.358372e-07 -2.530184e-07 2.461988e-08 8.002353e-09 2.764874e-08
1.844813e-07 2.583797e-07 -1.586529e-07 3.935518e-08 2.289450e-08 3.016349e-08
1.847053e-07 2.640228e-07 -2.024696e-07 4.069718e-08 2.068904e-08 3.170068e-08
1.730870e-07 2.772519e-07 -1.688570e-07 2.107399e-08 1.519815e-08 2.812938e-08
-1.051612e-07 5.876367e-07 -2.089258e-07 -1.298602e-08 1.591961e-08 -4.740028e-08
1.429641e-07 3.002737e-07 -2.037761e-07 7.534727e-08 4.698839e-08 6.113588e-08
-6.656331e-08 5.662425e-07 -2.861286e-07 -1.027356e-15 2.179136e-08 -1.338299e-08
-1.375202e-07 4.392132e-07 -2.939441e-07 -6.034968e-08 3.643371e-07 -1.825417e-07
3.595839e-08 3.979844e-07 -2.638740e-07 -6.658126e-08 2.680154e-07 -9.216819e-08
7.938425e-07 -7.718086e-08 -4.381924e-07 2.440406e-07 3.558042e-08 4.463527e-08
1.517688e-07 2.863773e-07 -1.771343e-07 2.441770e-08 1.771285e-08 4.327119e-08
1.807259e-07 2.833839e-07 -1.936000e-07 8.198698e-08 5.146689e-08 6.038456e-08
-1.491104e-07 6.679490e-07 -2.994177e-07 -1.186318e-08 2.156370e-08 -5.536603e-08
-1.355416e-07 5.849819e-07 -2.893562e-07 -1.083692e-08 1.813498e-08 -6.707494e-08
1.454211e-07 3.164309e-07 -2.267434e-07 8.845061e-08 4.830642e-08 4.847476e-08
2.093125e-07 2.564162e-07 -1.815058e-07 8.272527e-08 3.617616e-08 4.003031e-08
5.971747e-07 -1.341352e-07 -1.818138e-07 4.460882e-08 -1.804255e-08 1.016052e-07
2.485911e-06 -8.465177e-07 -3.633104e-07 -2.145599e-06 -2.037966e-07 3.898682e-07
1.991099e-06 -2.097166e-07 -8.501202e-07 -1.536278e-06 -2.422424e-07 2.268089e-07
-1.783085e-07 6.269173e-07 -2.881619e-07 -7.305054e-09 2.939576e-07 -1.721742e-07
-1.953865e-07 8.671438e-07 -4.897581e-07 -6.286611e-08 1.972434e-08 -1.565773e-09
-1.174600e-07 6.731825e-07 -3.557856e-07 -1.744999e-08 2.144910e-08 -5.106515e-08
-6.668602e-08 9.493548e-07 -4.942571e-07 -2.805026e-07 2.616830e-07 -1.326121e-07
2.438522e-06 -4.102265e-07 -3.046274e-07 -2.312385e-06 -9.041170e-08 1.846163e-07
4.987602e-07 4.568007e-07 -7.158198e-07 -3.546428e-07 5.233096e-07 -1.957152e-07
6.915412e-07 7.841353e-07 -1.074137e-06 -1.273003e-06 3.991130e-07 -2.451600e-07
-1.591593e-07 6.163556e-07 -2.453595e-07 -7.221761e-09 7.118282e-08 -5.794860e-08
4.205673e-07 9.840892e-07 -9.114540e-07 -7.744819e-07 3.199368e-07 -1.901488e-07
6.870824e-08 5.693327e-07 -6.389008e-07 -3.124504e-07 4.522411e-07 -2.106527e-07
-2.791868e-07 6.090937e-07 -3.257800e-07 -1.006200e-07 6.773095e-07 -3.416236e-07
-4.094025e-07 6.595999e-07 -3.352621e-07 -1.871356e-07 7.754043e-07 -5.662786e-07
-6.241557e-08 4.413233e-07 -3.683379e-07 -6.770891e-08 3.796894e-07 -1.709676e-07
-6.245187e-08 2.133895e-07 -3.349045e-07 -3.798852e-08 7.625773e-07 -4.009054e-07
6.702724e-07 2.292987e-08 -7.610718e-07 -1.021231e-07 5.552882e-07 -7.391048e-08
-4.504240e-07 3.931151e-07 -2.644723e-07 -2.714894e-07 9.952956e-07 -7.197334e-07
-2.112460e-07 1.119223e-06 -6.880235e-07 2.516213e-07 -1.719863e-07 -1.071652e-07
-1.611222e-07 1.215151e-06 -7.561231e-07 3.350206e-07 -2.636612e-07 -1.278307e-07
5.710759e-07 -1.060959e-07 -1.642195e-07 -3.036494e-09 -3.454575e-09 1.660192e-08
-2.963605e-07 1.364859e-06 -7.629255e-07 3.053866e-07 -2.165823e-07 -1.396693e-07
6.400002e-07 -1.029559e-07 -2.605906e-07 -4.653088e-08 5.318872e-09 1.671326e-08
5.593922e-07 -9.178935e-08 -1.626646e-07 -4.097527e-09 -5.871244e-09 1.387297e-08
-1.966149e-07 9.863493e-07 -6.198820e-07 3.217366e-07 -5.446561e-07 -2.098171e-07
5.631890e-07 -1.229321e-07 -1.827534e-07 1.129072e-08 8.880235e-09 6.228277e-08
5.765636e-07 -1.060849e-07 -1.797731e-07 -2.559477e-09 -5.071846e-09 6.959479e-09
5.691211e-07 -1.047212e-07 -1.706164e-07 5.136624e-09 1.442565e-09 1.706189e-08
-3.364616e-07 1.278246e-06 -7.857905e-07 1.510472e-07 -1.944654e-07 -6.332961e-08
-2.896021e-07 2.204449e-06 -9.676735e-07 -1.053181e-06 -9.602160e-08 7.281930e-08
-7.030795e-07 2.101412e-06 -8.911227e-07 -5.609981e-07 -3.358681e-07 1.991254e-08
-5.668539e-07 2.605804e-06 -8.861815e-07 -1.156866e-06 -3.453611e-07 1.153566e-07
-1.028213e-06 2.505968e-06 -5.993922e-07 -1.116542e-06 -3.111393e-07 6.665847e-08
-5.286719e-07 2.239836e-06 -9.362616e-07 -1.022427e-06 -5.063094e-07 3.021133e-07
-3.461637e-07 1.923896e-06 -1.022877e-06 -7.457884e-07 -8.549408e-08 1.204610e-07
-9.311783e-07 2.412667e-06 -1.014231e-06 -6.043562e-07 -3.137535e-07 1.470063e-08
-6.595866e-07 2.679363e-06 -9.419167e-07 -7.819753e-07 -1.179091e-07 5.474625e-08
-4.956890e-07 1.807821e-06 -9.716821e-07 -3.834492e-07 -2.477894e-07 7.311949e-08
-3.165133e-07 1.871029e-06 -9.480301e-07 -5.785394e-07 -3.685554e-07 1.499269e-07
6.211980e-07 1.151188e-08 -3.826465e-07 -2.158787e-07 -2.621443e-08 1.091397e-08
6.933302e-07 -2.768841e-08 -3.922943e-07 -2.429719e-07 -1.959052e-08 9.412849e-08
7.365418e-07 -5.529385e-08 -4.556251e-07 -2.795276e-07 -3.532301e-08 7.764671e-08
7.220875e-07 -1.170579e-09 -4.362785e-07 -3.002938e-07 -1.692156e-09 5.884630e-08
1.805232e-07 2.661716e-07 -1.671153e-07 1.225454e-08 9.486282e-09 3.181365e-08
2.631399e-07 2.134107e-07 -1.756932e-07 2.039138e-08 9.613190e-09 1.130415e-08
6.091295e-07 -8.742450e-09 -3.685829e-07 -2.010130e-07 -3.650336e-08 9.552046e-08
3.360237e-07 1.236966e-07 -1.383189e-07 1.646742e-09 -1.784842e-09 6.611699e-10
3.553820e-07 1.082361e-07 -1.403043e-07 8.407973e-09 -1.934665e-10 5.413229e-10
6.564379e-07 -2.889020e-08 -3.365452e-07 -2.168891e-07 -1.085045e-08 4.884140e-08
5.883960e-06 -3.730323e-06 5.039028e-06 -3.054617e-06 1.096857e-06 -5.904402e-07
3.968396e-06 -3.637689e-06 3.559937e-06 -2.477857e-06 2.837017e-07 -9.290469e-07
5.204830e-06 -4.817441e-06 9.898140e-06 -2.047799e-06 9.966252e-07 6.129019e-07
4.731152e-06 -4.550863e-06 2.759641e-06 4.396645e-07 8.241405e-08 7.697843e-07
5.809524e-06 -4.550863e-06 4.053238e-06 5.631828e-07 -1.790320e-08 -4.645117e-07
3.988095e-07 1.250565e-07 -2.090840e-07 -1.144401e-07 -3.040016e-08 4.283800e-08
3.127394e-07 1.849911e-07 -2.289209e-07 -1.724380e-08 -1.954339e-09 2.452195e-08
2.468235e-07 4.682727e-07 -4.911258e-07 -2.864525e-07 -3.544345e-08 3.553363e-08
2.627826e-07 3.408249e-07 -2.984049e-07 -1.566933e-07 -7.518419e-08 1.020297e-07
5.570311e-06 -5.526033e-06 6.222162e-06 -5.584883e-07 9.190572e-07 1.877925e-06
5.502566e-06 -5.520949e-06 7.092619e-06 1.702051e-06 4.273062e-07 -9.852079e-07
3.856705e-07 1.823297e-07 -2.570604e-07 -1.610732e-07 -6.078959e-08 6.972579e-08
3.201851e-07 1.296350e-07 -1.536881e-07 -4.896784e-08 -3.048231e-08 3.824615e-08
5.655861e-06 -5.689441e-06 5.778671e-06 -6.265091e-07 -4.066551e-07 2.435906e-07
3.615939e-07 1.031597e-07 -1.410385e-07 2.010976e-08 4.590168e-09 3.755399e-09
3.440337e-07 1.234819e-07 -1.423997e-07 2.490226e-08 4.181735e-09 1.637042e-09
2.946730e-07 2.497840e-07 -2.919870e-07 -1.017506e-07 -5.668503e-09 5.824064e-09
1.681469e-07 5.190526e-07 -4.117680e-07 -5.000681e-08 -7.355237e-09 4.919692e-08
1.198761e-07 3.954887e-07 -3.087174e-07 -7.556692e-08 -5.271480e-08 9.267297e-08
3.448092e-07 2.196399e-07 -2.828583e-07 -1.158010e-07 -7.773738e-09 4.601419e-09
3.406298e-07 1.325905e-07 -1.422480e-07 2.024694e-08 1.097617e-09 9.414271e-10
3.364020e-07 1.276141e-07 -1.376481e-07 4.713195e-09 1.273909e-09 -1.779828e-09
3.389806e-07 1.256465e-07 -1.457616e-07 1.393002e-08 -1.516890e-10 5.634900e-09
3.465101e-07 1.161346e-07 -1.397508e-07 4.789388e-09 -1.349799e-09 1.642674e-09
5.263841e-07 -4.115953e-08 -2.097001e-07 5.776840e-08 1.103117e-08 2.552529e-08
-4.303871e-07 1.667467e-06 -8.324175e-07 -3.894691e-07 1.568031e-07 -5.434524e-08
-3.934018e-07 1.716440e-06 -8.539555e-07 -3.341387e-07 1.154928e-07 -6.307908e-08
-3.147389e-07 1.256173e-06 -6.567849e-07 -1.804711e-07 6.648399e-08 -2.780000e-08
4.335180e-07 2.859367e-08 -1.815721e-07 3.940456e-08 7.849263e-09 9.000061e-09
5.065628e-07 -4.138349e-08 -1.476739e-07 1.837789e-08 1.530640e-08 9.956575e-09
-2.762329e-07 1.142491e-06 -6.611110e-07 -2.786736e-07 2.378448e-07 -3.980455e-08
5.393025e-07 -3.705630e-08 -1.859816e-07 5.302149e-08 1.579024e-08 3.996437e-08
-3.957138e-07 1.537380e-06 -7.352463e-07 -2.155676e-07 2.987854e-07 -5.132575e-08
-3.104925e-07 1.179721e-06 -5.656660e-07 -1.666724e-07 3.083380e-07 -7.435920e-08
5.627331e-07 -9.403919e-08 -1.598094e-07 6.668529e-09 1.735846e-09 9.438775e-09
1.120113e-07 3.683645e-07 -2.584330e-07 1.661309e-07 1.387749e-07 7.752642e-08
5.630765e-07 -3.930228e-08 -2.288759e-07 6.796113e-08 1.695631e-08 3.097141e-08
3.623497e-07 1.377211e-07 -1.769030e-07 -6.307681e-08 -2.722151e-08 2.753832e-08
4.231196e-07 5.181264e-08 -1.621126e-07 -5.848668e-08 -1.607851e-08 2.465614e-08
3.846270e-07 7.032635e-08 -1.538877e-07 -3.052438e-08 -7.012303e-09 1.345865e-08
2.331642e-08 4.955628e-07 -3.045520e-07 2.233801e-07 2.019817e-07 1.297884e-07
4.314676e-07 1.910231e-08 -1.701120e-07 -7.222563e-08 -2.676851e-08 4.203276e-08
4.086114e-07 5.712980e-08 -1.509564e-07 -2.943806e-08 -7.151564e-09 6.269332e-09
1.109420e-07 4.293307e-07 -3.007979e-07 1.388027e-07 1.064756e-07 1.026877e-07
7.550850e-08 4.298065e-07 -2.899601e-07 8.293989e-08 7.324740e-08 5.567569e-08
1.093427e-07 3.417026e-07 -1.874021e-07 9.945256e-08 9.415335e-08 8.023470e-08
3.383935e-08 4.139980e-07 -1.988451e-07 5.920700e-08 7.679611e-08 8.433646e-08
4.080337e-06 -1.560546e-06 5.127665e-09 -2.472054e-06 -5.108364e-09 -2.292170e-07
5.433539e-06 -2.572472e-06 2.045709e-07 -1.662873e-06 -1.454782e-07 -3.114232e-07
-2.070867e-07 1.432852e-06 -9.404559e-07 6.309204e-07 -3.956816e-07 -1.847524e-07
-2.930795e-07 8.169844e-07 -5.413283e-07 6.209528e-08 -2.433519e-07 -1.330077e-07
4.723913e-06 -3.749713e-06 4.080606e-06 -2.706236e-06 4.809434e-07 3.548490e-08
-3.376891e-07 5.204790e-07 -3.301556e-07 2.024798e-07 -5.071240e-07 2.745875e-08
2.999581e-06 -1.103301e-07 -7.040034e-07 -2.579903e-06 1.358800e-07 -3.003122e-07
4.559927e-06 -2.010748e-06 7.356154e-08 -1.777368e-06 4.690901e-07 -3.738724e-07
4.004317e-06 -2.866519e-06 2.025404e-06 -2.292157e-06 -3.487405e-07 4.879401e-07
4.348309e-06 -3.473479e-06 3.908983e-06 -3.012222e-06 -1.422162e-07 1.131532e-06
3.245858e-06 -1.710035e-06 2.411180e-06 -3.243363e-06 8.141710e-08 8.639699e-09
3.055182e-06 -1.120485e-06 3.143361e-08 -2.780931e-06 -4.797804e-07 5.784340e-08
-1.569612e-07 6.455579e-07 -3.924358e-07 4.253831e-08 -6.461861e-08 -1.103960e-07
4.107029e-07 5.953067e-08 -1.511228e-07 1.785373e-08 3.823299e-09 4.253033e-09
-2.781510e-07 6.313746e-07 -3.369538e-07 -1.395400e-07 -1.343775e-07 -1.541227e-07
4.283400e-07 3.282994e-08 -1.514171e-07 1.166938e-08 1.377997e-10 2.842820e-09
4.364171e-07 3.217732e-08 -1.566189e-07 1.575291e-08 1.247000e-08 1.027688e-09
4.226220e-07 3.765845e-08 -1.512442e-07 8.846487e-09 7.042294e-09 7.925244e-09
7.463705e-08 4.370965e-07 -2.506206e-07 4.046147e-08 1.987577e-08 7.275567e-08
3.821533e-07 9.068642e-08 -1.444742e-07 6.249085e-09 3.810431e-09 2.918599e-09
7.333729e-08 3.511703e-07 -1.888885e-07 5.666507e-08 4.395186e-08 5.283927e-08
7.706861e-07 -9.458900e-08 -3.923821e-07 1.599015e-07 3.930111e-08 9.989813e-08
1.446163e-07 3.283749e-07 -2.067233e-07 1.908723e-08 2.391832e-08 4.403805e-08
8.616361e-08 4.107680e-07 -2.347848e-07 2.610642e-08 3.747481e-08 5.923953e-08
1.889657e-07 3.070194e-07 -2.432025e-07 4.957215e-08 1.245143e-08 4.258630e-08
1.372455e-07 3.233991e-07 -1.812864e-07 2.147903e-08 2.215152e-08 3.634527e-08
4.674052e-06 -3.263512e-06 3.705948e-06 -1.827633e-06 1.319451e-07 4.166277e-07
3.922784e-07 7.938814e-08 -1.472726e-07 1.342786e-08 3.681782e-09 1.729854e-09
4.376704e-06 -2.308963e-06 2.693556e-06 -1.788611e-06 4.064531e-07 9.990297e-07
5.164196e-06 -3.698286e-06 1.242406e-06 1.166663e-06 4.796624e-08 4.382027e-07
4.446441e-07 2.099505e-08 -1.576002e-07 3.468762e-08 9.438102e-09 2.246091e-08
2.635857e-07 3.523036e-07 -3.077615e-07 2.155890e-07 4.316833e-09 1.115282e-08
4.740495e-06 -6.330913e-06 1.171686e-05 -1.958182e-06 -9.173359e-07 9.785152e-07
6.008855e-07 -1.263072e-07 -2.149949e-07 2.525699e-08 7.548551e-09 1.101474e-07
3.759211e-06 -7.232142e-06 9.281119e-06 3.532240e-06 1.270123e-06 1.596367e-06
5.301791e-06 -6.929955e-06 7.689325e-06 6.409889e-08 5.537503e-07 2.148699e-06
5.602085e-06 -7.520549e-06 7.655207e-06 -8.471327e-08 -2.184499e-08 -3.269174e-07
-3.141274e-07 1.127984e-06 -6.042938e-07 1.128023e-07 5.755278e-08 2.683232e-09
-4.065203e-07 1.678654e-06 -8.408674e-07 5.502428e-07 3.511515e-07 1.682801e-07
5.915418e-06 -4.031632e-06 2.804142e-06 -1.278541e-06 -9.872784e-08 2.455274e-06
-2.307073e-07 1.093621e-06 -5.938836e-07 1.039334e-07 4.541466e-08 1.810396e-08
5.041177e-07 -3.703811e-08 -1.783583e-07 1.000033e-08 5.784957e-09 1.030416e-08
1.234726e-07 -5.034848e-07 -4.364446e-07 -8.310329e-10 3.603921e-07 8.755655e-08
5.004492e-07 -2.762359e-08 -1.523032e-07 1.646958e-08 1.132650e-08 1.658057e-08
5.217127e-07 -5.635444e-08 -1.659766e-07 3.173044e-08 6.202367e-09 3.688911e-08
5.184594e-07 -1.477924e-08 -1.719952e-07 7.091689e-08 1.835688e-08 5.597519e-08
-1.865115e-07 -9.707485e-07 1.097192e-07 -8.582127e-08 -8.658683e-08 -7.435005e-07
-8.916726e-06 -1.510876e-06 2.685809e-05 5.413481e-06 4.905087e-06 5.973432e-06
4.956025e-07 -2.239847e-08 -1.671047e-07 4.512563e-08 3.231214e-09 2.887543e-08
5.043061e-07 -2.156204e-08 -1.850270e-07 4.816681e-08 9.788765e-09 3.994311e-08
7.217111e-07 1.904396e-08 -5.040998e-07 3.334712e-07 2.553594e-08 1.699634e-08
6.472711e-07 -7.098809e-09 -3.861187e-07 2.455192e-07 1.982491e-08 1.020013e-07
7.026017e-07 5.645047e-09 -4.120443e-07 2.993985e-07 7.836419e-08 1.061341e-07
5.667197e-07 7.245307e-08 -3.607152e-07 2.726174e-07 6.920183e-08 6.608222e-08
1.808777e-06 -1.105236e-05 1.799612e-05 1.424152e-06 2.834857e-07 8.695460e-07
5.805991e-07 9.296892e-09 -3.330904e-07 1.835480e-07 3.154983e-08 5.191618e-08
3.023694e-06 -1.519436e-06 4.132270e-07 1.003617e-06 -2.064424e-07 -1.026716e-06
1.852584e-06 -1.063543e-06 -8.737447e-07 8.451761e-08 -1.572146e-07 -1.466971e-07
5.655919e-07 3.238507e-08 -3.184804e-07 1.919945e-07 -9.983883e-09 2.449172e-08
5.716335e-07 5.261719e-08 -3.437792e-07 2.404808e-07 4.270368e-08 2.818913e-08
-5.480350e-07 2.110876e-06 -8.915698e-07 2.137871e-07 4.960452e-07 2.678500e-08
-2.034060e-07 1.349406e-06 -6.981109e-07 4.676613e-07 1.372067e-07 7.852543e-08
2.712684e-06 -1.177524e-06 -8.862025e-07 -7.390613e-08 2.952393e-07 -4.843612e-07
-1.461987e-07 -3.588946e-07 2.956063e-08 5.575697e-08 5.585755e-07 -6.237409e-07
-3.895740e-07 1.476396e-06 -7.334491e-07 4.851244e-07 1.496560e-07 8.524390e-08
4.057716e-06 -6.929955e-06 1.902656e-05 -2.582955e-07 -8.937096e-07 6.457910e-06
-5.567512e-07 2.005670e-06 -8.843655e-07 4.376239e-07 4.630725e-07 1.428133e-07
-6.031427e-07 1.729043e-06 -8.723424e-07 3.669202e-07 1.685077e-07 1.810142e-08
4.156198e-06 -3.473479e-06 7.610338e-06 -3.714955e-06 6.440836e-07 -4.149801e-07
1.626895e-06 -1.048315e-06 -1.249225e-07 -3.223409e-07 3.728115e-07 -1.271372e-06
6.871528e-07 -8.206236e-08 -5.171880e-07 -3.521770e-07 8.116291e-07 -6.302191e-07
-1.671699e-07 5.531054e-07 -2.505593e-07 -4.087870e-08 7.085857e-08 6.002317e-08
-1.904556e-07 4.512615e-07 -2.449615e-07 2.889643e-08 3.190743e-07 7.467725e-08
-3.547158e-07 1.676579e-06 -8.384337e-07 3.854212e-07 1.519225e-07 4.322341e-08
2.422244e-08 5.972216e-07 -4.193548e-07 1.746218e-07 8.112923e-08 5.728605e-08
1.103936e-07 4.566112e-07 -3.061642e-07 1.278970e-07 6.244000e-08 2.871443e-08
9.107992e-08 4.566461e-07 -3.051837e-07 7.520559e-08 2.817369e-08 2.318875e-08
-2.066276e-07 5.354154e-07 -2.316569e-07 6.937174e-09 4.402105e-08 4.177680e-08
7.514513e-08 5.314183e-07 -3.746831e-07 7.422952e-08 7.631379e-09 1.786468e-09
-4.068869e-06 4.354416e-06 7.572824e-06 3.409278e-06 -1.885203e-06 -9.355694e-07
-2.299941e-07 6.171527e-07 -2.600623e-07 -4.615742e-08 7.694987e-08 1.090181e-08
-4.240931e-06 4.236605e-06 2.841693e-06 2.191616e-06 4.507207e-07 -3.315503e-07
-5.321382e-06 5.142323e-06 7.150560e-06 3.504639e-07 -2.160811e-06 2.888366e-07
-2.623197e-07 8.970692e-07 -4.503072e-07 -1.283566e-08 2.735613e-08 -2.589157e-08
1.451901e-07 4.695636e-07 -3.545685e-07 1.481601e-07 4.821396e-09 3.136072e-08
6.315607e-08 3.077612e-07 -1.970947e-07 1.044870e-07 1.398809e-07 1.111556e-07
-3.136263e-06 5.202197e-06 3.709477e-06 1.176978e-06 -7.317093e-07 6.333897e-08
-4.252650e-06 5.065189e-06 4.327893e-06 7.744949e-07 -7.358369e-07 -1.507829e-07
-4.233031e-06 4.173998e-06 5.066061e-06 2.377966e-06 -1.243204e-06 -4.890901e-07
1.852591e-07 3.008176e-07 -2.055762e-07 5.543184e-08 2.329490e-08 2.854934e-08
2.331916e-07 2.244671e-07 -1.759524e-07 1.273836e-08 6.858573e-09 1.898346e-08
1.922245e-07 2.714250e-07 -1.867380e-07 1.615846e-08 1.461651e-08 3.048889e-08
4.042229e-07 4.149588e-08 -1.657265e-07 8.038045e-08 2.343845e-08 3.668037e-08
2.277511e-07 2.231549e-07 -1.827491e-07 3.378694e-08 1.400770e-08 2.113668e-08
6.615099e-07 -1.152404e-07 -2.706626e-07 3.949269e-08 -4.626712e-09 1.886994e-08
2.054757e-07 2.468144e-07 -1.669110e-07 2.222438e-08 1.132168e-08 2.693301e-08
5.212266e-07 -5.360050e-08 -1.583662e-07 7.960566e-09 8.988622e-09 1.208809e-08
2.197616e-07 2.366794e-07 -1.612616e-07 1.590095e-08 1.080108e-08 1.643550e-08
4.343063e-07 2.166627e-08 -1.686115e-07 7.485441e-08 3.130028e-08 4.767914e-08
4.502873e-07 2.431198e-08 -1.755339e-07 1.197489e-08 5.366979e-09 1.170410e-09
6.575381e-07 9.726305e-08 -5.513801e-07 4.365558e-07 1.013735e-07 1.903564e-07
2.822690e-07 1.715248e-07 -1.585577e-07 4.109968e-08 7.915815e-09 1.896200e-08
2.867707e-07 1.831993e-07 -1.644944e-07 5.495793e-08 1.393268e-08 1.571253e-08
4.733408e-07 8.916985e-09 -1.635893e-07 3.667933e-08 1.338281e-08 2.478547e-08
5.148299e-07 -4.156196e-08 -1.766571e-07 1.291213e-08 3.744516e-09 9.254556e-09
4.465614e-07 2.099066e-08 -1.468009e-07 3.156830e-08 1.120997e-08 1.244205e-08
-1.268593e-05 -1.446930e-05 6.170642e-05 1.392332e-06 -1.907547e-06 -3.139412e-06
4.181519e-07 4.443228e-08 -1.444218e-07 3.084842e-08 7.019287e-09 1.325377e-08
4.432298e-07 4.704112e-09 -1.499253e-07 2.419599e-08 4.051749e-09 9.190694e-09
2.672413e-09 -4.665653e-07 -2.108095e-07 2.037019e-08 2.604368e-07 -5.337453e-07
3.378587e-06 -1.087459e-06 2.670180e-07 -3.034035e-06 3.676667e-07 -1.330821e-07
4.627060e-07 6.500540e-09 -1.617130e-07 1.221556e-08 4.651012e-09 -7.240002e-10
9.195207e-07 -6.584670e-07 -5.251452e-08 -4.107708e-07 8.173062e-07 -1.296173e-06
2.160124e-06 -6.087068e-07 -1.275629e-06 -1.629343e-07 3.947638e-07 3.839825e-08
3.440779e-07 -4.341244e-07 -4.391175e-07 2.785533e-07 5.618863e-07 -1.379398e-07
2.931861e-06 -6.551571e-07 -1.615685e-06 -4.720279e-07 1.309503e-07 -1.156533e-07
4.528130e-07 9.736587e-09 -1.602963e-07 9.895479e-09 8.520106e-09 7.540656e-09
4.146251e-07 4.435319e-08 -1.632016e-07 3.153348e-08 8.669293e-09 5.098002e-09
4.395686e-07 4.192721e-08 -1.582924e-07 5.052542e-08 7.913543e-09 1.690903e-08
4.200983e-07 4.574927e-08 -1.536049e-07 3.936470e-08 2.299435e-09 1.996792e-08
4.764893e-07 4.284305e-09 -1.690672e-07 2.605746e-08 7.918623e-09 1.785430e-08
4.733081e-07 3.876377e-09 -1.813789e-07 3.823598e-08 3.180540e-09 2.680417e-08
1.579423e-06 3.911029e-07 -9.406011e-07 1.873510e-06 -9.029068e-08 -1.377276e-07
4.375719e-07 2.743939e-08 -1.502641e-07 9.267221e-09 2.323017e-09 8.399687e-09
4.566518e-07 1.333748e-08 -1.524830e-07 1.115014e-08 5.396078e-09 3.804322e-09
3.068680e-06 -7.098839e-07 4.817597e-07 2.726533e-06 -3.991767e-07 -1.870828e-07
6.024721e-07 5.463043e-07 -8.730392e-07 1.046141e-06 2.818447e-08 7.259483e-08
3.062832e-06 -1.061832e-06 -7.703759e-07 1.343620e-06 -3.356609e-07 -5.067853e-07
1.292280e-06 -1.291028e-07 -3.806344e-07 6.188395e-07 -7.699575e-07 -1.003512e-06
-2.432476e-07 -3.286513e-07 6.186081e-07 1.784002e-08 -4.836816e-07 -1.146935e-06
-4.312781e-07 1.120835e-06 -5.344371e-07 -2.161066e-10 -3.518820e-07 -1.055485e-08
7.527879e-07 5.125072e-07 -8.191147e-07 1.048536e-06 5.146945e-08 1.735561e-07
4.576683e-07 6.856454e-07 -7.962940e-07 9.597582e-07 2.352514e-07 2.507748e-07
8.942552e-07 6.505628e-07 -8.866405e-07 1.452531e-06 1.512952e-07 4.465130e-08
7.859043e-07 4.003307e-07 -7.693239e-07 1.015320e-06 1.552083e-07 3.103113e-07
-3.841680e-07 1.410033e-06 -8.582710e-07 9.495559e-08 -1.103812e-08 -2.091708e-10
7.591962e-07 4.009727e-07 -7.646015e-07 9.779338e-07 2.782695e-07 1.858860e-07
-9.281379e-07 3.165684e-06 -6.876402e-07 6.367201e-07 -4.883093e-07 -1.216948e-07
-3.893410e-07 1.319137e-06 -7.157040e-07 -5.879765e-08 -5.338366e-07 -8.223883e-09
-6.230196e-07 1.831206e-06 -8.826598e-07 9.744156e-08 -2.895986e-07 -2.593396e-08
-1.055664e-06 2.246060e-06 -8.477400e-07 -2.457258e-07 -3.610748e-07 6.830147e-09
5.011979e-07 -1.865681e-08 -1.802310e-07 2.952541e-08 1.038422e-08 1.722164e-08
-7.125307e-07 1.815253e-06 -8.833431e-07 1.357850e-07 -3.103930e-07 3.240976e-08
5.238475e-07 -5.076845e-08 -1.896095e-07 1.730439e-08 9.033416e-09 -1.706275e-09
5.435905e-07 -5.700201e-08 -1.887183e-07 2.041970e-08 6.272234e-09 1.378196e-08
5.513818e-07 -6.036533e-08 -1.856067e-07 1.985725e-08 8.382267e-09 1.346989e-08
-1.105611e-06 2.806340e-06 -7.445063e-07 1.066231e-06 -4.761165e-07 -6.010209e-08
-1.846512e-07 4.550273e-07 -3.604681e-07 2.628299e-08 -4.102898e-07 -2.378170e-07
5.492375e-07 -6.779767e-08 -1.990765e-07 3.862420e-08 1.536971e-08 3.312968e-08
5.321518e-07 -6.923832e-08 -1.544751e-07 2.068954e-08 1.046944e-08 3.201578e-08
1.405817e-07 4.245921e-07 -3.507262e-07 1.822987e-07 4.942622e-08 3.613272e-08
-2.095524e-07 2.845524e-07 -3.506587e-07 1.496043e-07 -6.766430e-07 -3.112622e-07
-2.188912e-07 8.285999e-07 -3.513078e-07 1.174673e-07 -2.570420e-07 -1.337261e-07
-2.142128e-07 9.073811e-07 -4.459509e-07 3.736724e-08 -3.807207e-08 -1.239446e-07
1.669565e-07 3.976504e-07 -3.075215e-07 1.360581e-07 -7.063769e-10 5.049930e-09
2.167062e-07 4.750723e-07 -4.278538e-07 3.064603e-07 4.659401e-08 -5.473205e-09
4.284328e-07 4.459906e-08 -1.609918e-07 -4.043329e-08 -8.938478e-10 -5.845757e-09
2.182444e-07 3.904807e-07 -3.928991e-07 2.253988e-07 5.126576e-08 5.845086e-08
6.023657e-07 -8.764647e-08 -2.402847e-07 -5.109410e-08 -1.319397e-08 2.775532e-08
5.708207e-07 -9.851753e-08 -1.758752e-07 -2.489461e-09 -7.196775e-09 9.603135e-09
2.156497e-07 3.804045e-07 -3.356579e-07 2.026753e-07 1.253044e-08 4.777780e-08
6.630205e-07 -7.494914e-08 -3.301462e-07 -1.238940e-07 -1.846050e-08 8.672061e-08
6.048204e-07 -9.653790e-08 -2.156212e-07 -6.572921e-09 -3.919465e-09 4.634465e-09
5.743775e-07 -3.466960e-08 -2.410377e-07 -8.962676e-08 -4.745882e-09 4.309169e-08
6.653054e-07 -6.141399e-08 -3.287237e-07 -1.500864e-07 -2.447105e-08 2.255328e-08
4.513794e-07 1.829011e-08 -1.682745e-07 -1.461012e-08 5.224308e-10 4.631876e-09
3.375007e-06 -9.350437e-07 -7.890227e-07 1.567631e-06 -1.742875e-07 -4.980408e-07
1.755677e-06 -7.694176e-07 -2.744790e-07 6.793591e-07 -6.102764e-07 -4.219635e-07
3.796296e-07 7.393991e-08 -1.430588e-07 -4.034759e-09 -7.746327e-11 1.143432e-09
3.763506e-07 8.423570e-08 -1.530570e-07 -1.077100e-08 -8.626045e-10 -1.031781e-09
1.469392e-06 -4.621519e-07 -4.535961e-07 1.179770e-06 -7.323562e-07 -1.201148e-07
2.348880e-07 -1.088488e-06 4.239718e-07 -4.968591e-08 -5.885853e-07 -8.446131e-07
4.502742e-06 -6.603038e-06 1.161144e-05 2.788834e-06 -2.382303e-07 2.962172e-06
-1.416067e-07 -5.072953e-07 9.648689e-08 4.303404e-08 -7.955417e-07 -4.814273e-07
3.769245e-07 8.320566e-08 -1.451823e-07 -5.987347e-09 2.635389e-10 3.348185e-09
3.836138e-07 6.930005e-08 -1.387095e-07 4.412722e-16 -7.164397e-10 1.966129e-09
4.121195e-07 4.707547e-08 -1.609918e-07 -2.653344e-08 -2.506662e-10 1.733988e-09
4.848311e-07 -1.622275e-08 -1.687115e-07 -8.391359e-09 -9.990438e-09 -3.590121e-09
4.147857e-07 5.238185e-08 -1.472801e-07 9.039305e-09 -3.350734e-10 3.660447e-09
4.172256e-07 4.758922e-08 -1.702823e-07 6.948057e-08 2.270333e-08 3.611406e-08
3.570866e-07 1.144278e-07 -2.083318e-07 -5.123253e-08 -1.146901e-08 9.660684e-09
4.029765e-07 6.133963e-08 -1.522754e-07 3.612735e-08 4.464951e-09 1.225421e-08
1.045855e-06 3.645294e-07 -7.601523e-07 9.953215e-07 1.418226e-07 1.840964e-07
4.257899e-07 4.472378e-08 -1.504610e-07 1.255313e-08 4.610627e-09 1.797082e-09
4.750880e-07 -1.787885e-08 -1.680155e-07 5.489956e-08 2.105226e-08 2.132073e-08
3.921194e-07 6.284736e-08 -1.396079e-07 -3.677777e-09 -4.524603e-10 1.732259e-09
4.395417e-07 3.548647e-08 -1.626667e-07 4.861341e-08 1.328884e-08 1.875063e-08
3.927771e-07 7.960130e-08 -1.498545e-07 4.385684e-08 1.131493e-08 1.656808e-08
4.056205e-07 6.663449e-08 -1.568605e-07 4.754396e-08 1.412538e-08 1.289811e-08
3.807398e-07 7.391844e-08 -1.521541e-07 3.661444e-08 3.028656e-09 6.181251e-09
2.951310e-07 1.496349e-07 -1.726684e-07 -4.301352e-08 -2.908397e-08 4.272416e-08
2.180858e-07 1.292375e-06 -8.368404e-07 -1.107523e-06 -3.025424e-07 2.238063e-07
9.796383e-07 4.762449e-07 -8.919189e-07 -1.289170e-06 -1.280020e-07 2.131759e-08
1.192717e-06 3.249440e-07 -8.950885e-07 -1.336490e-06 -4.827398e-08 2.130572e-07
-4.209887e-08 6.219579e-07 -3.918633e-07 -3.277335e-08 -4.352415e-08 1.389143e-07
-2.091625e-07 1.240494e-06 -8.013880e-07 -3.173216e-07 -9.868336e-08 3.646799e-08
8.119846e-07 5.598883e-07 -7.252001e-07 -1.706944e-06 -3.653049e-07 4.083463e-07
9.067677e-07 9.258843e-07 -8.238339e-08 -2.383204e-06 -2.503542e-07 5.677774e-07
1.245720e-06 5.600013e-07 -8.896216e-07 -1.595680e-06 -3.245920e-07 3.024324e-07
1.462537e-06 3.052395e-07 -8.282556e-07 -1.852158e-06 -1.493361e-07 5.204181e-08
8.126910e-07 8.494935e-07 -8.650093e-07 -1.704794e-06 -1.187521e-07 1.572136e-08
4.375926e-07 4.064386e-08 -1.649856e-07 -3.309445e-08 -4.911248e-09 2.024115e-10
4.360741e-07 3.829378e-08 -1.755718e-07 -3.773520e-08 3.295857e-10 7.649981e-09
3.860565e-07 7.398295e-08 -1.437672e-07 -1.970677e-09 -2.058671e-10 1.276419e-09
3.926932e-07 6.354645e-08 -1.668659e-07 -3.313815e-08 4.385439e-09 6.222088e-09
3.988930e-07 5.184775e-08 -1.439727e-07 -1.566913e-08 -3.470035e-09 4.725549e-09
3.874465e-07 6.975931e-08 -1.463381e-07 -6.206590e-09 -8.874571e-10 1.240798e-09
3.249737e-07 1.359869e-07 -1.604999e-07 -1.174419e-08 -4.672840e-09 2.116533e-08
3.965009e-07 7.426459e-08 -1.545794e-07 -2.696409e-08 -3.408299e-09 3.213581e-09
4.031268e-07 5.351307e-08 -1.443612e-07 -9.652411e-09 -3.838369e-09 5.266324e-10
4.079294e-07 5.584980e-08 -1.534173e-07 -1.181805e-08 -4.207451e-09 1.958063e-09
3.306143e-07 3.444272e-07 -3.250919e-07 -1.928185e-07 -4.805909e-08 5.714830e-08
3.159149e-07 1.451492e-07 -1.574660e-07 -2.100773e-08 -1.149282e-08 2.192601e-08
3.297493e-07 2.616708e-07 -3.261938e-07 -1.325438e-07 -1.000445e-08 2.940296e-08
3.893621e-07 4.719710e-07 -6.030836e-07 -5.003460e-07 -3.108044e-08 9.592859e-08
-2.066710e-07 7.017123e-07 -2.769075e-07 2.706100e-08 -2.449593e-08 -1.165048e-07
-4.773711e-07 1.444942e-06 -8.172162e-07 5.359062e-08 -1.778097e-07 -1.807133e-08
-3.977541e-07 1.489007e-06 -8.494579e-07 2.524937e-08 -9.990634e-09 -2.255209e-08
-3.467910e-07 1.405064e-06 -7.125041e-07 4.796846e-07 -6.282382e-07 -1.990416e-07
-1.048629e-07 8.084993e-07 -6.720326e-07 2.654480e-07 -4.776565e-07 -2.676466e-07
-2.846450e-07 7.537634e-07 -4.062482e-07 1.385832e-07 -3.875379e-07 -2.165295e-07
2.213370e-07 3.736253e-07 -3.277774e-07 -7.088042e-08 -1.070927e-08 7.187935e-08
2.309196e-07 3.592035e-07 -3.710671e-07 -7.012739e-08 -1.824484e-08 8.711066e-09
-3.444079e-07 1.180072e-06 -6.791713e-07 3.040741e-08 -3.134876e-08 -7.019278e-08
-6.246610e-07 1.510259e-06 -7.479449e-07 2.912399e-07 -7.413170e-07 -1.492136e-07
-2.099140e-07 9.123665e-07 -6.780138e-07 2.777427e-07 -6.186910e-07 -2.681672e-07
-2.070867e-07 9.563466e-07 -6.659773e-07 3.814110e-07 -5.025523e-07 -2.560659e-07
9.089517e-07 -1.422867e-07 -4.705636e-07 2.135413e-07 2.292037e-08 5.806363e-08
1.434993e-07 4.859382e-07 -5.053330e-07 -3.196419e-07 -2.336179e-07 2.166733e-07
-1.535479e-08 8.435464e-07 -6.023568e-07 -4.183333e-07 -4.272724e-07 2.713263e-07
5.893007e-08 6.587027e-07 -4.496361e-07 -2.121528e-07 -1.174420e-07 1.565767e-07
2.595871e-07 1.765141e-07 -2.109444e-07 -1.127361e-08 -9.811343e-09 6.399307e-08
-2.478813e-07 8.550157e-07 -4.531998e-07 -1.356995e-08 -7.480538e-08 -1.425276e-07
-2.908401e-07 1.099279e-06 -6.456163e-07 4.021605e-08 -3.746139e-08 -1.085956e-07
-6.899031e-08 6.241894e-07 -4.941395e-07 2.299032e-07 -2.661100e-07 -1.703460e-07
2.733746e-07 1.737719e-07 -1.719728e-07 -1.130799e-08 -9.946297e-09 3.703371e-08
8.817383e-08 7.955851e-07 -5.928860e-07 -3.618263e-07 -1.098649e-07 1.311332e-07
-4.294339e-07 1.681701e-06 -8.922586e-07 -1.074290e-07 -6.264926e-08 2.636417e-08
2.055834e-07 6.890633e-07 -5.732891e-07 -3.554563e-07 -1.464469e-07 1.408828e-07
1.222665e-06 -4.762724e-07 -7.423864e-07 -3.221233e-07 5.707818e-07 -4.462761e-07
2.596151e-07 1.764577e-07 -1.728327e-07 -1.170514e-08 -1.094576e-08 4.105717e-08
1.660067e-06 -7.804343e-07 -8.283451e-07 -1.982584e-07 4.116606e-07 -3.320935e-07
-2.398366e-07 7.694350e-07 -4.628339e-07 -1.279629e-08 -4.939348e-08 7.647334e-08
-4.294339e-07 1.491319e-06 -8.922586e-07 -5.039366e-08 -1.560610e-08 -1.822486e-09
-6.987318e-07 1.141557e-06 2.983862e-06 3.634599e-06 -1.652952e-07 -6.012153e-08
3.668768e-06 -1.207182e-06 -1.182733e-06 1.096065e-06 -1.252262e-07 -3.138298e-07
1.207718e-06 1.106108e-06 -2.303409e-07 2.771570e-06 -3.343970e-08 1.724768e-08
1.429198e-06 -6.428150e-07 -4.352181e-07 -3.485838e-08 4.012787e-07 6.649194e-08
2.441717e-06 -7.764541e-07 -9.329355e-07 -8.632833e-08 4.328402e-07 -4.535063e-07
1.563764e-06 -7.787157e-07 -7.759003e-07 -3.316057e-07 3.524624e-07 -2.857763e-07
2.346415e-06 -7.932748e-07 -3.919459e-08 1.780214e-06 -6.231740e-07 -7.355346e-07
1.281986e-06 -3.229500e-09 -1.169197e-06 1.368962e-07 -4.741574e-07 -1.405606e-08
3.520288e-06 -1.756171e-06 5.702080e-07 7.704601e-07 -2.882009e-07 -7.404835e-07
3.483273e-06 -2.035499e-06 1.754911e-06 2.576204e-06 -2.004949e-07 8.594103e-07
1.956865e-06 -4.954631e-07 -9.275375e-07 -2.429328e-07 6.419032e-07 -4.512973e-07
-2.644133e-07 4.472133e-07 -3.011217e-07 4.419650e-08 -3.210793e-07 1.858098e-07
-1.713555e-07 3.097292e-07 -2.357521e-07 -7.445607e-08 -3.869982e-07 2.437830e-07
1.281986e-06 1.678331e-07 -1.113931e-06 1.283719e-07 -3.768404e-07 -1.870251e-08
-1.331542e-08 5.034413e-07 -3.565829e-07 -4.733127e-08 1.868895e-07 -5.144108e-08
3.981269e-07 1.716334e-07 -2.786483e-07 -1.466965e-07 -6.922591e-09 2.929321e-09
6.869204e-07 -1.504452e-08 -4.895423e-07 -3.166757e-07 -5.960929e-08 1.584308e-07
1.027980e-06 1.079423e-08 -6.934967e-07 -5.445694e-07 -5.523079e-08 7.017042e-08
-3.249747e-08 5.701046e-07 -3.120310e-07 -6.078638e-08 1.317616e-07 -4.395170e-08
5.222610e-07 1.528679e-08 -2.778600e-07 -1.274860e-07 -6.694039e-09 -1.215724e-09
3.988095e-07 9.250597e-08 -2.673067e-07 -1.301368e-07 -2.820360e-08 2.944295e-08
5.223794e-07 1.481396e-08 -2.457063e-07 -1.134180e-07 5.099680e-09 1.751642e-08
4.993520e-07 5.103102e-08 -2.453128e-07 -1.400706e-07 -5.674784e-09 4.788960e-09
3.516683e-07 1.088022e-07 -1.669022e-07 -3.761232e-08 -1.425271e-08 2.377819e-08
3.127394e-07 1.851953e-07 -2.307325e-07 -1.733649e-08 -1.731098e-09 2.412653e-08
2.656029e-07 1.578819e-07 -1.845958e-07 -5.336140e-08 -5.174946e-08 8.304501e-08
4.142693e-09 5.825881e-07 -3.303609e-07 -3.832088e-08 1.342162e-07 -4.797743e-08
2.644792e-08 4.997311e-07 -3.555045e-07 -2.024957e-08 2.086808e-07 -3.544289e-08
1.326695e-08 5.475334e-07 -3.412118e-07 -2.689029e-08 1.800530e-07 -3.780789e-08
2.591602e-07 1.393411e-06 -7.470254e-07 1.895253e-06 8.192698e-08 5.701628e-08
3.826217e-07 1.450439e-06 -9.161129e-07 1.510738e-06 1.786657e-07 9.482961e-08
3.713415e-07 9.687531e-08 -1.556680e-07 -2.535063e-08 -5.298277e-09 1.452154e-08
4.159228e-07 3.447566e-08 -1.525927e-07 -4.205376e-09 -7.245750e-09 4.088238e-09
4.652684e-07 2.246185e-08 -2.283500e-07 -9.103050e-08 -8.880841e-09 1.591763e-08
3.152497e-07 1.115605e-06 -7.812465e-07 1.011368e-06 2.292014e-07 1.697638e-07
3.460543e-07 1.902015e-07 -2.577864e-07 -1.500050e-07 -6.789034e-08 7.957844e-08
5.190346e-07 4.032916e-08 -3.138052e-07 -1.872014e-07 -2.680875e-08 6.631212e-08
4.046730e-07 9.163338e-08 -1.818501e-07 -6.496603e-08 1.630488e-09 2.140418e-09
4.230667e-07 7.568736e-08 -2.267634e-07 -1.373634e-07 -3.591063e-08 2.738074e-08
9.004218e-07 3.577230e-07 -8.321705e-07 1.026353e-06 1.624215e-07 7.891947e-08
-1.276178e-07 1.299022e-06 -8.445724e-07 8.880188e-07 2.235482e-07 1.363312e-07
1.740077e-07 8.959100e-07 -7.152616e-07 7.919510e-07 2.625015e-07 1.334147e-07
2.985408e-07 9.278724e-07 -8.159112e-07 1.072121e-06 3.212596e-07 1.344113e-07
3.619441e-07 9.065934e-08 -1.750077e-07 -8.451671e-08 -4.325424e-08 6.241162e-08
-7.392656e-08 1.644527e-06 -9.008752e-07 1.185577e-06 2.018950e-07 9.633256e-08
5.203950e-07 1.675991e-07 -3.351034e-07 -2.675377e-07 -3.421699e-08 4.216117e-08
3.448092e-07 1.908212e-07 -2.828583e-07 -1.434605e-07 -1.079378e-08 -1.195722e-09
3.201555e-07 1.519366e-07 -1.829856e-07 -8.689274e-08 -5.125321e-08 5.115544e-08
5.600358e-07 -1.204757e-08 -2.515057e-07 -1.311449e-07 -8.813682e-09 2.873145e-08
8.510491e-07 -1.544244e-07 -4.060330e-07 -1.375831e-07 -3.803633e-08 1.235835e-07
9.846980e-07 -2.433486e-07 -4.934091e-07 -1.618838e-07 -1.724358e-08 4.682952e-08
6.414874e-07 -4.461823e-08 -3.137188e-07 -1.676045e-07 -8.215981e-09 1.113015e-08
7.118133e-07 -1.216024e-07 -2.939325e-07 -3.682411e-08 -1.916446e-09 1.524198e-08
5.183296e-07 2.767482e-08 -2.980301e-07 -1.511166e-07 -2.404197e-08 2.709118e-08
2.830064e-07 1.063259e-06 -8.613580e-07 1.101000e-06 9.405956e-08 1.713795e-07
1.696956e-06 -3.612466e-07 -7.853770e-07 -2.215042e-08 6.789183e-08 -1.011792e-06
3.516732e-06 -1.561225e-06 -9.495922e-07 6.115989e-08 -2.535473e-07 -7.514782e-07
1.766292e-06 -1.466737e-08 -7.280415e-07 -1.676239e-06 -3.052017e-07 3.797370e-07
1.192401e-06 -2.313971e-07 -6.074229e-07 -2.112561e-07 -8.496260e-09 2.128605e-07
7.096913e-07 -6.360856e-08 -3.705017e-07 -1.721576e-07 -3.918011e-08 7.467167e-08
5.356743e-07 -3.654528e-08 -2.003990e-07 -2.377171e-08 -7.447423e-09 1.729086e-09
5.128569e-07 -5.529333e-08 -1.822681e-07 -5.380389e-08 -2.495143e-08 8.962983e-08
8.027533e-07 -1.052429e-07 -4.115832e-07 -1.559192e-07 -3.277256e-09 4.590238e-08
5.106289e-07 6.573482e-09 -2.184860e-07 -1.006154e-07 -2.267186e-08 5.027532e-08
2.789864e-06 -1.170970e-06 -9.400664e-07 2.483988e-08 -1.190831e-07 -3.915926e-07
2.029123e-06 -1.057627e-06 -8.910001e-07 4.874519e-10 -1.153725e-07 1.457643e-08
-4.452258e-07 2.257096e-06 -3.491520e-07 -1.723490e-06 -1.878187e-07 1.277570e-07
-4.817032e-06 4.697844e-06 4.047491e-06 9.149735e-07 4.140491e-07 8.560847e-07
-4.959702e-07 1.555008e-06 -8.481334e-07 -4.423245e-07 -2.245945e-07 5.586861e-08
-2.673070e-07 1.101806e-06 -7.314277e-07 -2.074888e-07 -4.216937e-07 1.179426e-07
-1.777275e-07 6.469061e-07 -3.043550e-07 -2.992557e-08 -5.063165e-08 1.037400e-07
3.036238e-07 1.753487e-06 5.970787e-07 -2.508538e-06 -4.148749e-07 2.671367e-07
-8.315546e-07 2.645661e-06 -9.183232e-07 -6.800755e-07 -5.629456e-07 2.191970e-07
-1.937334e-07 1.665796e-06 -8.523342e-07 -1.512946e-06 -3.405554e-07 1.991255e-07
2.520986e-06 -1.119423e-06 -1.008320e-06 1.157552e-07 5.346046e-08 -8.463602e-08
8.997769e-07 2.164625e-07 -8.859729e-07 1.069847e-06 7.336686e-08 1.118013e-07
5.019716e-08 4.211307e-07 -3.177697e-07 -2.687647e-07 -3.878554e-07 3.094343e-07
-2.363377e-07 1.214898e-06 -8.013880e-07 -1.465513e-07 -2.656942e-08 -4.154447e-09
-5.521615e-10 6.109153e-07 -4.658200e-07 -7.792315e-08 -1.042139e-07 1.390529e-07
1.231614e-06 1.900515e-07 -7.453253e-07 -8.691817e-07 -5.684837e-08 9.168746e-08
8.122955e-07 5.592697e-07 -8.274048e-07 -1.254564e-06 -2.725474e-07 4.062126e-07
8.009015e-07 2.503941e-07 -8.143572e-07 -9.382911e-07 -1.713833e-07 2.479587e-07
6.057308e-07 -7.773626e-07 -4.040217e-07 -4.890297e-07 -2.118515e-08 -1.352189e-07
8.526751e-07 -1.962579e-08 -5.121976e-07 -4.064429e-07 -2.771023e-08 4.173071e-08
6.382917e-07 1.968062e-07 -7.319116e-07 -6.232013e-07 -1.191593e-08 3.046012e-08
3.722145e-07 1.955497e-07 -4.149653e-07 -2.531494e-07 -8.198511e-08 9.726145e-08
8.893782e-07 -8.094710e-07 -4.799784e-07 6.275749e-07 -1.696731e-08 -2.871295e-07
3.965525e-07 2.478291e-07 -3.510208e-07 -2.100543e-07 -9.233262e-09 9.963180e-09
8.741381e-07 -1.543649e-07 -4.345118e-07 -1.167240e-07 -1.467606e-09 4.945482e-08
5.907137e-07 1.166698e-08 -3.243551e-07 -1.804898e-07 8.434459e-09 2.588530e-08
3.892110e-07 7.949469e-08 -1.487660e-07 2.748896e-08 2.600647e-09 8.257442e-09
7.486556e-07 -1.462577e-07 -3.155476e-07 -8.633326e-08 -8.733763e-09 5.397330e-08
7.054591e-07 -1.153823e-07 -3.408038e-07 -1.196261e-07 -1.813511e-08 8.118345e-08
3.002542e-07 1.624947e-07 -1.771635e-07 7.382593e-08 1.929125e-08 2.400637e-08
7.385368e-07 -1.120739e-07 -3.518176e-07 -1.322135e-07 -1.110164e-08 3.783377e-08
7.016537e-07 -1.138504e-07 -2.964778e-07 -1.232785e-07 -9.152214e-09 4.954524e-08
3.446822e-07 8.145026e-07 -9.581317e-07 -5.896853e-07 1.366672e-07 -5.236644e-08
1.923618e-07 7.292173e-07 -6.526817e-07 -4.576160e-07 5.178496e-07 -2.520100e-07
5.095578e-07 5.646299e-07 -8.562411e-07 -7.146362e-08 3.031530e-07 -3.382013e-08
6.202336e-08 4.799622e-07 -4.217767e-07 -2.269086e-08 2.839689e-07 -9.844482e-09
2.850311e-07 4.024631e-07 -5.656921e-07 -3.947656e-08 4.124436e-07 -7.939184e-08
2.081306e-07 2.826451e-07 -3.737818e-07 -4.415710e-08 4.679720e-07 -1.459185e-07
2.657139e-08 4.796387e-07 -4.435698e-07 -6.528019e-08 2.813666e-07 -6.956060e-08
2.090558e-07 5.658494e-07 -6.511912e-07 -1.197332e-07 2.733609e-07 -3.383401e-08
1.168233e-06 4.859932e-08 -7.118848e-07 8.312229e-07 1.160920e-07 2.071438e-07
2.705494e-07 6.075545e-07 -7.040347e-07 -4.775258e-08 2.431950e-07 -1.745584e-08
-2.395731e-08 6.304473e-07 -4.966197e-07 1.700916e-07 -3.354938e-07 -1.750404e-07
-4.858757e-08 5.358688e-07 -2.942062e-07 5.875323e-08 -1.907011e-07 -8.250114e-08
-8.842206e-08 4.475643e-07 -2.425092e-07 -3.549054e-09 -1.930737e-07 -9.878230e-08
-5.503975e-08 5.729608e-07 -4.116661e-07 3.413364e-08 -1.022008e-07 -8.154050e-08
-1.385651e-05 -5.400074e-06 3.213744e-05 1.235495e-06 5.044936e-06 2.580375e-06
-8.133521e-06 -1.310820e-05 3.972286e-05 -3.874877e-06 -8.284720e-07 7.851431e-06
-1.294049e-05 -1.214509e-05 5.020507e-05 4.227684e-06 6.969136e-07 2.171247e-06
8.570396e-07 -3.093277e-06 1.066125e-05 -5.565829e-06 -1.117412e-06 3.122161e-06
-9.687125e-07 -8.506236e-06 2.081095e-05 -6.305814e-06 -1.656721e-06 4.099830e-06
-3.636342e-08 4.361846e-07 -2.802259e-07 1.009102e-07 -2.557694e-07 -1.481840e-07
-1.063510e-07 5.835972e-07 -2.522056e-07 5.905442e-08 -1.521221e-07 -1.156333e-07
-1.563664e-07 8.619030e-07 -5.297688e-07 8.063789e-08 -1.099448e-07 -1.910571e-07
2.627878e-06 -5.509549e-06 1.557921e-05 -3.858415e-06 -1.198735e-06 5.598412e-06
4.670055e-06 -7.844810e-06 1.153437e-05 9.338990e-08 2.251422e-08 1.914012e-06
-1.038174e-07 7.494232e-07 -3.354933e-07 1.811526e-07 -3.098996e-07 -2.000393e-07
-1.252964e-07 5.447061e-07 -2.600922e-07 1.971851e-08 -1.266394e-07 -1.034096e-07
2.628215e-06 -4.762576e-07 -1.330302e-06 -1.884452e-07 3.981132e-07 -2.590987e-07
-7.478052e-06 4.041438e-06 9.679536e-06 2.165958e-06 -1.832292e-06 2.740990e-07
1.105042e-07 4.423929e-07 -3.232955e-07 6.228969e-08 1.847038e-08 7.280945e-10
6.344292e-08 4.596623e-07 -2.673656e-07 6.315147e-08 3.998822e-08 5.864048e-08
1.000921e-07 5.541148e-07 -4.323065e-07 2.683408e-07 1.092030e-07 4.660715e-08
1.500665e-07 4.508483e-07 -2.911271e-07 1.518703e-07 7.128281e-08 5.507680e-08
1.907119e-07 4.164017e-07 -3.538928e-07 1.704899e-07 3.363770e-08 2.440235e-09
8.616448e-08 4.173724e-07 -2.885696e-07 2.690988e-08 1.387603e-08 5.271071e-08
8.164464e-07 2.636566e-07 -5.910939e-07 6.747108e-07 1.536883e-07 2.107818e-07
1.647084e-07 3.690571e-07 -2.905274e-07 1.075055e-07 5.658824e-09 3.339575e-08
5.589228e-07 2.749254e-07 -4.720853e-07 4.606298e-07 1.067366e-07 1.309753e-07
9.105114e-08 4.662484e-07 -3.449511e-07 7.589798e-08 1.742162e-08 2.443273e-08
2.911283e-07 1.640488e-07 -1.554183e-07 6.921971e-09 1.944754e-09 8.999161e-09
1.332835e-07 4.284920e-07 -3.268177e-07 6.879549e-08 3.354804e-09 -1.045954e-08
3.242323e-07 1.306930e-07 -1.435163e-07 2.633228e-08 2.800685e-09 1.179425e-09
2.669448e-06 -8.938404e-07 -5.756815e-07 -8.728196e-07 -1.137473e-07 2.614546e-07
3.342453e-06 -1.140065e-05 1.710737e-05 1.587251e-06 2.131202e-06 5.132124e-06
2.170266e-06 -5.366976e-07 -8.334435e-07 -8.581211e-07 -2.316342e-07 5.877841e-07
3.327905e-07 1.321707e-07 -1.391163e-07 5.179258e-09 -4.408591e-10 -4.990307e-10
2.628941e-06 -9.930742e-06 2.032862e-05 -7.163877e-07 8.511308e-07 1.221002e-06
3.350445e-07 1.288944e-07 -1.393842e-07 4.426336e-09 5.880712e-10 1.032363e-10
3.397253e-07 1.269325e-07 -1.426564e-07 1.708769e-08 -8.060288e-10 3.251262e-10
2.508929e-06 -1.140065e-05 2.120501e-05 2.030266e-06 1.748486e-06 3.120533e-06
-1.109877e-06 -1.166988e-05 2.842966e-05 -5.649114e-06 -6.688902e-06 9.181249e-06
-2.732581e-06 -1.496871e-05 3.021131e-05 -6.157453e-07 -4.076172e-07 1.238412e-06
4.205390e-06 -1.802970e-06 -1.155143e-06 9.306308e-07 -1.623233e-07 -2.261859e-07
6.078375e-06 -4.030371e-06 3.305435e-06 -1.465380e-06 -1.682757e-07 5.889022e-08
-6.454308e-06 -1.129348e-05 3.563805e-05 4.723218e-06 4.813202e-06 5.394965e-06
3.411212e-07 1.326796e-07 -1.435548e-07 2.053355e-08 1.717972e-09 4.493423e-09
3.256472e-07 1.408859e-07 -1.404539e-07 1.838376e-08 4.846148e-09 2.807852e-09
4.881984e-06 -6.603038e-06 6.481789e-06 2.570367e-06 -4.041057e-07 -2.718767e-07
3.216266e-07 1.331160e-07 -1.399101e-07 7.749483e-09 1.968738e-09 6.530819e-10
-2.502522e-06 4.639516e-06 3.140868e-06 -6.814872e-07 7.110968e-07 3.235798e-07
3.307252e-07 1.303408e-07 -1.389388e-07 1.451180e-08 6.518508e-10 5.196325e-10
-1.458555e-06 4.004215e-06 -3.346221e-07 4.815483e-07 -1.608965e-08 8.228705e-08
-7.125307e-07 2.306974e-06 -8.670592e-07 2.341310e-07 -4.508353e-07 -2.773306e-08
3.325582e-07 1.342945e-07 -1.392158e-07 5.954856e-09 6.303467e-10 -6.821353e-10
-9.542886e-06 1.509239e-06 1.698471e-05 -2.903046e-06 3.808542e-07 -1.020245e-07
3.432397e-07 1.316200e-07 -1.406518e-07 3.187909e-09 1.161183e-09 -5.176776e-10
3.244259e-07 1.290606e-07 -1.378685e-07 4.546428e-09 -3.076936e-10 2.373978e-10
-1.435594e-06 3.467573e-06 2.137799e-06 -3.160339e-06 4.787155e-07 1.118165e-08
-6.470393e-06 6.054672e-07 1.825333e-05 -4.989610e-06 1.820301e-06 -7.703231e-07
3.307131e-07 1.262793e-07 -1.367214e-07 2.570624e-09 -6.531114e-10 -1.513348e-09
3.343055e-07 1.228681e-07 -1.369958e-07 9.111338e-10 1.420478e-09 8.113459e-10
-3.526403e-07 1.123899e-06 -5.393237e-07 -1.516700e-08 -3.493870e-07 4.249888e-09
-7.539625e-08 1.958939e-06 2.552882e-07 2.630798e-06 2.037290e-07 2.462005e-08
3.301428e-07 1.188111e-07 -1.398220e-07 1.502324e-08 3.402522e-09 -1.156039e-09
5.958033e-07 1.241604e-06 -9.074397e-07 1.715154e-06 6.319373e-08 1.206663e-07
4.564056e-07 9.046877e-07 -9.074397e-07 1.358156e-06 6.626141e-08 1.213337e-07
-1.717298e-06 3.264420e-06 -7.655462e-08 1.088068e-06 2.541283e-07 1.217282e-08
-6.511914e-07 3.044137e-06 1.198294e-06 3.060869e-06 -4.328712e-07 4.596990e-08
1.794128e-06 -5.244314e-07 -8.365095e-07 -6.078017e-07 5.695800e-09 1.735678e-07
-7.432580e-07 3.079046e-06 -5.110892e-07 1.737407e-06 5.107748e-07 1.885746e-07
-6.849104e-06 -9.331872e-06 3.876319e-05 5.600079e-06 9.325992e-07 -1.657117e-06
2.317952e-06 -2.849778e-06 7.998731e-06 4.897115e-06 -8.674699e-07 -1.527494e-06
1.231158e-07 1.252798e-06 -7.191181e-07 1.497107e-06 5.363447e-07 2.786551e-07
1.740077e-07 1.034895e-06 -8.579011e-07 1.000256e-06 4.020798e-07 2.135628e-07
-9.722914e-07 3.505776e-06 -1.712433e-07 2.071085e-06 6.441686e-07 2.918441e-07
-3.062169e-06 4.428110e-06 4.464226e-06 3.035567e-06 4.225754e-07 1.961443e-07
9.563939e-08 1.727511e-06 -9.463021e-07 -1.532133e-06 -3.049311e-07 1.344371e-07
-2.859858e-06 2.314421e-06 8.053306e-06 5.007480e-06 -3.189169e-06 -7.619919e-07
-1.241828e-06 2.689856e-06 -8.453989e-07 4.271631e-07 6.133695e-07 3.696632e-08
-5.980609e-07 2.669439e-06 -5.110895e-07 2.088692e-06 3.640260e-07 1.612200e-07
3.814200e-08 1.652048e-06 -9.120148e-07 -1.302724e-06 -2.773564e-07 2.030633e-07
-3.546192e-07 1.725572e-06 -9.068627e-07 -8.076451e-07 -4.010927e-07 1.144145e-07
-7.454777e-07 2.455411e-06 -7.922012e-07 -1.140713e-06 -4.111910e-07 5.791189e-08
2.540840e-06 4.299550e-08 3.154246e-07 3.504539e-06 -1.699758e-07 -4.804493e-07
-3.959156e-07 1.833208e-06 -8.491943e-07 -1.419984e-06 -3.647861e-07 2.233428e-07
1.083381e-07 3.608805e-07 -2.212387e-07 1.619432e-08 1.643984e-08 5.502788e-08
-5.898530e-07 2.345504e-06 -8.861816e-07 -1.405368e-06 -2.404737e-07 1.203341e-07
1.580754e-06 5.854708e-07 -7.326384e-07 2.415515e-06 2.033133e-07 7.812430e-08
2.484222e-07 1.014462e-06 -8.618447e-07 1.209626e-06 3.202470e-07 2.438674e-07
-1.085229e-07 1.675314e-06 -8.314374e-07 -1.273000e-06 -2.223850e-07 1.778772e-07
-9.731547e-08 8.431450e-07 -4.747441e-07 2.058956e-07 -3.126941e-07 -1.987215e-07
-1.328983e-07 8.612980e-07 -5.343912e-07 8.179708e-08 -9.295844e-08 -1.134550e-07
1.224281e-06 2.431381e-07 -4.917870e-07 1.989813e-06 3.106289e-07 4.294293e-07
-2.217509e-07 9.232686e-07 -4.666729e-07 1.479593e-07 -3.003727e-07 -1.854680e-07
-9.645929e-06 -3.122674e-06 3.076071e-05 -2.193741e-06 2.776112e-06 -2.366230e-06
-1.531821e-07 8.370319e-07 -5.904945e-07 1.128339e-07 -1.649908e-07 -9.698684e-08
-2.164532e-05 -1.849248e-05 6.605631e-05 -1.351101e-06 3.746845e-06 2.993337e-06
-1.828806e-07 8.419994e-07 -4.442740e-07 1.156096e-07 -1.089300e-07 -1.381739e-07
-3.051990e-06 -1.214509e-05 2.482548e-05 4.104493e-06 -2.706316e-07 1.070255e-06
-1.219083e-05 1.714791e-06 2.536732e-05 1.748160e-06 9.363861e-06 -1.035347e-07
-1.453260e-05 -3.072075e-06 2.747239e-05 -2.167916e-06 1.370507e-06 -4.173870e-07
-1.715206e-07 5.592292e-07 -2.894540e-07 9.485171e-08 -8.377799e-08 -1.168800e-07
-1.146311e-05 -1.163141e-05 4.205580e-05 -2.553889e-06 4.872172e-07 -1.529074e-06
2.735941e-06 -1.016394e-06 -1.610887e-07 -1.420813e-06 -1.943187e-07 2.937411e-07
-3.156159e-06 -9.101395e-06 2.446314e-05 -6.744147e-06 -1.245784e-07 -8.815549e-07
-1.393644e-05 -2.230214e-05 4.948480e-05 -8.025703e-08 -5.725792e-06 -9.771040e-06
3.145090e-07 1.537815e-06 3.082906e-06 -4.176005e-06 -5.860153e-07 -7.001597e-08
6.460237e-07 -2.642700e-06 1.045584e-05 -5.577186e-06 1.689614e-06 -1.744518e-06
-9.684092e-08 6.077624e-07 -3.790517e-07 1.346151e-08 -4.078921e-08 -9.872288e-08
6.035070e-07 -4.575663e-08 -2.876084e-07 1.222830e-07 -4.426464e-09 1.933369e-08
6.601750e-07 -2.852056e-08 -3.385306e-07 2.012656e-07 5.135900e-08 8.245956e-08
-1.132612e-05 -5.837171e-06 3.132378e-05 -8.955226e-06 8.531698e-06 -6.792718e-06
6.214505e-07 -4.022552e-08 -3.112901e-07 1.522271e-07 1.298311e-08 6.225277e-08
5.551470e-06 -5.850926e-06 4.056341e-06 -8.829506e-07 1.916864e-06 1.327341e-06
-5.508064e-06 -8.151931e-06 3.378372e-05 -5.928797e-06 7.999532e-06 -9.040450e-06
-4.861358e-06 -6.219940e-07 1.830198e-05 -5.742198e-06 1.871259e-06 -1.063259e-06
-5.668813e-07 -7.457059e-07 1.341980e-05 -5.632878e-06 2.496529e-06 -2.445696e-08
1.277497e-06 -5.671613e-06 1.435116e-05 -5.884439e-06 6.446463e-06 -5.933931e-06
7.294599e-07 -9.922369e-07 5.368402e-06 -4.895275e-06 2.445789e-06 -1.981805e-06
8.221410e-07 -8.300128e-08 -4.595591e-07 2.192593e-07 2.114769e-08 2.711487e-08
2.277007e-07 1.178348e-06 3.866577e-06 -4.464152e-06 1.121113e-06 -4.325876e-08
3.596638e-06 -2.140495e-06 6.974861e-06 -4.091942e-06 1.475216e-06 -3.390223e-06
7.002264e-07 -1.969976e-08 -4.196031e-07 2.304725e-07 2.036844e-08 1.457501e-08
5.518980e-07 -1.034725e-08 -2.531026e-07 1.295551e-07 3.073534e-08 4.709164e-08
2.887820e-07 1.870038e-07 -1.752871e-07 5.779302e-08 2.407593e-08 2.522915e-08
2.857091e-07 1.827707e-07 -1.496329e-07 1.609671e-08 4.207061e-09 8.973757e-09
1.230048e-06 9.017447e-08 -8.100583e-07 9.073453e-07 1.777104e-07 1.987300e-07
2.911839e-07 1.657185e-07 -1.514579e-07 7.617944e-09 -2.775743e-09 5.547928e-09
2.955759e-07 1.591511e-07 -1.497620e-07 1.186254e-08 3.344384e-09 8.858465e-09
3.739711e-06 -2.171025e-06 8.022883e-08 5.930359e-07 -3.165854e-08 1.806799e-07
3.026295e-07 1.639474e-07 -1.447691e-07 1.225637e-08 -8.523465e-11 3.023734e-09
2.741024e-07 1.822936e-07 -1.547422e-07 1.115901e-08 5.002000e-09 9.476874e-09
-1.188431e-07 4.150552e-07 -2.748101e-07 -8.758902e-08 3.511453e-07 -1.661036e-07
2.902880e-07 1.718309e-07 -1.476516e-07 6.261422e-09 2.784904e-09 2.303334e-09
-2.403829e-07 7.791258e-07 -4.356950e-07 -7.463511e-08 2.726984e-07 -9.442681e-08
-2.332672e-07 1.192939e-06 -6.774714e-07 3.038933e-07 9.426027e-08 5.093085e-08
-1.218454e-07 6.008031e-07 -2.882264e-07 -1.098962e-07 2.482325e-07 -7.670128e-08
-2.530450e-07 7.798200e-07 -3.241722e-07 -1.547891e-07 -4.942947e-07 2.204087e-07
-2.194244e-07 1.010095e-06 -5.425353e-07 1.417189e-07 1.196394e-07 1.842406e-08
-2.843642e-07 1.327752e-06 -6.604565e-07 1.824509e-07 1.883791e-07 4.854723e-08
4.933322e-07 -4.648963e-08 -1.875546e-07 7.280689e-08 3.211868e-08 8.371659e-08
-2.330221e-07 8.794661e-07 -5.701977e-07 2.305814e-07 4.419675e-07 1.597270e-07
4.308728e-07 3.262353e-08 -1.549785e-07 1.048979e-08 5.454135e-09 -1.944085e-09
-2.714712e-07 1.134494e-06 -5.664626e-07 1.696262e-07 3.928843e-07 1.540568e-07
6.283448e-07 -1.226171e-07 -2.765186e-07 -5.868842e-08 -2.627755e-08 1.204619e-07
-2.231827e-07 9.959711e-07 -5.727773e-07 2.958425e-07 4.506631e-07 6.094900e-08
5.113517e-07 -6.258829e-08 -1.875675e-07 5.849975e-08 2.830180e-08 7.508829e-08
6.077185e-07 -8.013261e-08 -2.538034e-07 4.639704e-08 4.961016e-09 3.455787e-08
6.461233e-07 -1.040137e-07 -2.638791e-07 3.394608e-08 4.158666e-09 1.324125e-08
5.872353e-07 -8.411388e-08 -2.180962e-07 9.822415e-09 6.518780e-09 2.027562e-09
6.091305e-07 -1.038816e-07 -2.204695e-07 4.141327e-08 7.856841e-09 4.463346e-08
-5.128841e-06 -6.757188e-07 1.913999e-05 6.685102e-06 -5.517976e-06 -5.146438e-06
4.629590e-06 -5.509549e-06 7.806198e-06 -2.904279e-06 -1.391210e-06 1.961248e-06
4.937245e-06 -7.543159e-06 1.149188e-05 -3.534341e-06 -9.849358e-07 2.117902e-06
4.770517e-07 -2.861070e-08 -1.734722e-07 6.283861e-08 2.733585e-08 5.803106e-08
-3.879954e-07 -1.791559e-05 3.159293e-05 -7.513441e-07 1.711421e-06 1.025356e-05
-6.026733e-07 -6.867693e-06 1.939955e-05 -5.389421e-06 -9.278244e-07 4.003272e-06
2.322656e-07 2.947303e-07 -3.077615e-07 1.540113e-07 5.433439e-09 1.148222e-08
2.396751e-06 -9.643293e-06 2.139831e-05 -2.569743e-06 -1.997724e-06 4.378000e-06
-7.556609e-07 -5.911290e-06 1.755416e-05 -5.396377e-06 -2.836933e-06 2.395962e-06
4.258317e-07 4.255962e-08 -1.524325e-07 -3.325740e-08 -9.433475e-09 1.522844e-08
-2.125215e-07 9.688064e-07 -5.449657e-07 3.971154e-08 5.916612e-09 2.501881e-08
3.236820e-07 1.782404e-07 -2.357404e-07 -7.201786e-08 -2.581362e-09 1.672555e-09
-2.732943e-07 1.029148e-06 -5.400018e-07 9.406189e-08 1.411561e-07 2.134817e-08
-2.053959e-07 8.876224e-07 -5.138782e-07 8.486429e-08 9.826190e-08 4.468301e-08
2.819767e-07 2.172765e-07 -2.635657e-07 -4.630577e-08 -8.129764e-09 5.310920e-08
-2.534155e-07 9.779363e-07 -5.175951e-07 6.119087e-08 8.493234e-08 3.534191e-08
-2.307073e-07 9.923174e-07 -5.938836e-07 5.626975e-08 1.904627e-08 -6.708871e-09
-2.711414e-07 1.189091e-06 -6.354988e-07 1.128875e-07 2.055157e-07 3.168530e-08
-4.073301e-07 1.227040e-06 -6.945996e-07 -5.969404e-09 -2.786991e-08 -8.195050e-09
-5.321971e-07 1.583731e-06 -7.493405e-07 2.232948e-07 -7.269621e-07 4.882731e-09
1.710695e-08 -8.405608e-09 -3.831814e-07 -1.041414e-08 5.763737e-07 -3.784452e-08
-3.532633e-07 5.279066e-07 -3.168381e-07 1.775510e-07 -4.750006e-07 1.065698e-07
-5.759313e-07 1.207014e-06 -7.227929e-07 -1.608804e-07 -6.692064e-07 -1.542457e-07
-6.272853e-07 1.695219e-06 -9.331263e-07 1.260208e-07 -9.436930e-08 -7.686023e-10
-6.025922e-07 1.738051e-06 -8.777869e-07 -4.306939e-08 -2.794187e-07 2.920512e-08
-4.396609e-07 1.324437e-06 -6.795362e-07 1.486120e-08 -5.251527e-07 -7.610309e-08
-3.885633e-07 1.195149e-06 -6.872190e-07 -3.448667e-08 -2.012910e-08 3.408779e-08
-4.903927e-07 1.696003e-06 -6.746297e-07 1.694538e-07 -4.906830e-07 -8.203230e-08
-1.605340e-06 3.977291e-06 -6.708140e-07 5.662059e-07 -8.704105e-07 -4.846854e-08
-1.613446e-06 3.147863e-06 -7.370106e-07 4.372152e-07 -4.373918e-07 6.259009e-08
-1.008582e-06 2.698207e-06 -9.281498e-07 8.175667e-07 -5.756927e-07 -2.084781e-07
-9.848537e-07 3.131016e-06 -8.209784e-07 9.905262e-07 -4.614540e-07 -9.455008e-08
-3.542124e-07 1.456451e-06 -8.421768e-07 -3.901391e-08 -1.278733e-17 1.638815e-10
-1.178614e-06 3.621681e-06 -7.051457e-07 2.736904e-07 -3.926345e-07 -1.171416e-07
-1.178614e-06 3.034220e-06 -8.815470e-07 1.855379e-07 -2.975259e-08 -3.755497e-08
-4.199917e-07 1.712956e-06 -9.569641e-07 -1.841243e-07 -7.820299e-08 7.047498e-09
-6.223605e-08 6.219579e-07 -3.997060e-07 -3.507853e-08 -4.457065e-08 1.257057e-07
-9.979013e-07 2.940391e-06 -6.842891e-07 8.964063e-07 -3.238098e-07 -1.429540e-07
2.807935e-06 -4.485487e-07 -1.481993e-06 4.474691e-07 -6.384297e-08 1.407932e-07
3.666743e-06 -1.206451e-06 -9.954395e-07 1.098152e-06 -8.538129e-08 -7.421329e-08
-6.323399e-06 -1.514162e-05 4.639290e-05 2.137823e-06 1.640408e-06 8.426542e-06
3.295997e-07 1.584171e-07 -2.058274e-07 -1.583048e-08 -8.482418e-16 -1.261389e-09
3.253266e-07 1.735965e-07 -2.179573e-07 -2.856030e-08 1.494141e-09 1.103269e-08
-1.442993e-05 -1.496871e-05 5.020507e-05 -7.169432e-07 1.362096e-06 1.498492e-06
-2.139796e-05 -1.701662e-05 6.049852e-05 1.703434e-07 -7.721518e-06 1.704234e-06
-1.365450e-05 -3.716515e-06 3.476387e-05 -6.608537e-07 -8.352099e-06 2.940186e-06
3.779164e-07 1.013077e-07 -1.624095e-07 -5.434219e-08 -1.242739e-08 1.472904e-08
-1.047796e-05 -4.704127e-06 2.556955e-05 -3.997215e-06 -1.346543e-05 7.914050e-06
-2.599805e-06 4.793350e-06 2.717602e-06 -2.556398e-06 -3.273654e-07 3.125686e-07
-8.009471e-06 -1.047822e-05 2.945467e-05 -2.965343e-06 -4.457752e-06 4.890400e-06
-9.579080e-06 -1.166988e-05 3.718432e-05 -4.480356e-06 -7.404597e-06 4.625981e-06
-4.157549e-07 1.253591e-06 -6.299325e-07 -3.704299e-08 2.115132e-07 7.816586e-09
3.693166e-06 -1.186622e-06 -1.535524e-06 3.958468e-07 -1.487458e-07 -4.817163e-08
1.000018e-06 5.856875e-07 -6.171847e-07 1.896375e-06 -3.919908e-07 -3.578347e-07
-2.970673e-07 1.055859e-06 -5.645094e-07 -1.443403e-08 9.923273e-09 -2.880951e-08
-4.033099e-07 1.296693e-06 -7.143702e-07 -1.641823e-07 1.977678e-07 -1.514716e-08
-2.944232e-07 1.068544e-06 -5.553756e-07 -2.970676e-08 1.272449e-07 -2.773010e-08
-3.236811e-07 1.119881e-06 -5.892677e-07 -5.139550e-09 4.887489e-08 -1.806669e-09
-1.061902e-07 7.203341e-07 -4.017854e-07 -2.194262e-08 2.294351e-16 -5.228069e-09
-4.604903e-08 6.054589e-07 -3.475490e-07 8.750934e-10 0.000000e+00 -1.360641e-08
-5.701255e-08 6.258528e-07 -3.943472e-07 -1.863939e-08 1.949532e-08 -2.056807e-08
-5.880908e-08 6.037814e-07 -3.136016e-07 -3.660036e-09 1.597185e-09 -1.230734e-08
-2.882691e-07 1.037758e-06 -5.403422e-07 -3.040007e-08 8.889730e-08 -8.909676e-09
-3.096491e-07 1.072965e-06 -6.038547e-07 -2.665865e-08 1.772934e-08 -4.144047e-09
-5.868980e-08 6.037814e-07 -3.632350e-07 -3.800061e-09 7.978098e-09 -1.448058e-08
-8.443381e-08 5.860251e-07 -3.307527e-07 -7.620327e-09 1.381001e-08 -3.335139e-08
-4.466078e-08 6.839325e-07 -3.784268e-07 -1.014867e-07 9.631917e-08 -5.147337e-08
-2.712391e-07 1.011051e-06 -5.484120e-07 -1.310458e-08 8.898275e-08 -3.618367e-08
-4.604903e-08 5.924122e-07 -3.796462e-07 -3.586910e-09 2.307700e-08 -2.065827e-09
-1.612275e-08 6.184461e-07 -3.959423e-07 -1.194113e-08 1.249128e-08 -2.983197e-16
3.516116e-06 -2.346044e-06 5.391573e-07 -1.348507e-07 1.650645e-07 -3.047981e-07
1.857806e-06 -1.204664e-06 -1.401126e-07 -2.065599e-08 4.149547e-08 -1.418230e-06
3.007046e-06 -1.306414e-06 -9.146431e-07 -1.619633e-07 9.588845e-08 -5.075849e-07
3.113737e-06 -1.888641e-06 -2.085946e-07 2.334663e-07 8.897749e-08 -1.345130e-06
4.496209e-07 -9.662849e-07 4.317488e-07 -3.478700e-07 -1.075668e-07 -7.534872e-07
1.047744e-08 6.090469e-07 -4.529444e-07 -2.161105e-08 6.033573e-08 -5.981276e-09
7.983137e-07 -1.440722e-07 -4.051551e-07 1.884055e-07 4.524097e-09 4.809921e-08
-3.638278e-08 6.186341e-07 -3.750308e-07 -2.868610e-08 1.117011e-08 -5.052743e-10
4.234388e-08 1.402100e-06 -8.438551e-07 1.159846e-06 2.391148e-07 1.474935e-07
1.339262e-07 5.623050e-07 -4.246041e-07 2.243312e-07 3.080058e-08 3.156936e-08
1.677950e-07 3.515075e-07 -2.703400e-07 5.049933e-08 1.399742e-08 5.930647e-10
3.264671e-07 3.078511e-07 -3.787608e-07 3.020082e-07 3.909884e-08 9.800885e-08
-6.286340e-08 6.165223e-07 -3.166977e-07 4.250340e-08 5.757964e-08 9.227394e-08
2.635857e-07 3.523997e-07 -4.271232e-07 2.655558e-07 -7.965473e-09 1.231141e-08
-2.169506e-07 2.809384e-07 -3.161478e-07 -3.496775e-08 -7.303758e-07 2.813284e-07
-1.196414e-07 -3.815776e-07 -4.029343e-07 -6.614351e-08 -4.907552e-07 -6.318905e-08
2.005793e-07 3.013996e-07 -2.323369e-07 2.368994e-08 7.542174e-17 -3.094623e-09
1.672876e-06 4.542501e-08 -1.169828e-06 8.488567e-07 -4.413226e-07 -2.868875e-07
2.706837e-06 -4.107979e-07 -1.126080e-06 1.154317e-06 -5.949533e-08 1.776561e-07
-1.176191e-07 7.851647e-07 -4.581863e-07 1.028648e-07 7.188629e-08 2.790592e-08
1.862651e-07 3.121395e-07 -2.154503e-07 4.229265e-08 2.599567e-08 3.359622e-08
-1.655714e-07 8.229053e-07 -3.473442e-07 -2.295552e-07 -6.136526e-07 3.500313e-07
7.170689e-07 2.386329e-07 -8.703467e-07 4.755167e-07 -5.107155e-07 -1.854994e-07
1.327556e-06 1.162561e-06 -1.203335e-06 1.825629e-06 -1.283915e-07 -1.441917e-07
3.108182e-07 4.940478e-07 -7.522271e-07 3.817884e-07 -5.847218e-07 -3.392426e-07
9.058467e-07 2.665731e-07 -1.132988e-06 4.679719e-07 -3.655234e-07 -2.204660e-07
2.228697e-07 2.346520e-07 -2.221855e-07 6.048573e-08 2.350977e-08 2.084167e-08
2.975891e-07 2.674655e-07 -3.489106e-07 2.051074e-07 7.394592e-10 1.357303e-08
2.785341e-07 1.916476e-07 -2.087183e-07 9.496294e-08 3.256833e-08 3.930805e-08
3.021401e-07 1.849320e-07 -1.694216e-07 5.049711e-08 1.120652e-08 1.210536e-08
1.867070e-07 3.403439e-07 -2.708743e-07 5.555522e-08 3.069863e-09 -9.136382e-09
3.496314e-07 1.194105e-07 -1.401547e-07 1.978582e-08 3.837815e-09 6.434740e-09
-3.290710e-07 1.274239e-06 -6.442195e-07 -1.257846e-07 1.765626e-07 -3.219116e-08
2.914827e-07 1.890483e-07 -2.132706e-07 8.933099e-08 1.767886e-09 7.675083e-09
-2.818307e-07 9.343124e-07 -4.667252e-07 -8.374866e-09 3.216664e-08 -1.488325e-08
2.597392e-07 2.290869e-07 -2.098081e-07 6.872161e-08 -1.051052e-09 9.977641e-09
4.436393e-07 3.224534e-08 -1.600707e-07 2.315523e-08 1.091356e-08 8.249254e-09
-3.525834e-07 1.012984e-06 -5.223017e-07 8.169389e-08 1.619279e-07 -9.059839e-09
4.023815e-07 6.488850e-08 -1.497508e-07 8.357230e-09 2.740307e-09 -2.307524e-09
3.965056e-07 5.945223e-08 -1.560348e-07 1.862462e-08 7.709394e-09 2.441037e-09
4.089926e-07 5.940431e-08 -1.534900e-07 1.738749e-08 5.965214e-09 1.157289e-08
-2.283842e-07 2.945993e-07 -3.103254e-07 -2.472021e-08 -5.480249e-07 2.130228e-07
9.241971e-08 5.358754e-07 -3.436343e-07 1.614331e-07 1.295994e-07 7.771432e-08
-3.223691e-07 1.216301e-06 -6.312821e-07 1.066672e-08 4.606634e-08 -6.080431e-09
-6.356277e-08 3.612157e-07 -3.083386e-07 7.105909e-09 -2.791773e-07 -1.354078e-08
1.393964e-06 4.682614e-07 -1.488741e-07 2.440838e-06 -3.154668e-07 -7.449594e-08
1.705044e-06 1.206277e-07 -3.774365e-08 2.231163e-06 -4.062174e-07 -3.721110e-07
3.444726e-06 -1.027794e-06 -1.409816e-06 1.068429e-06 -2.230786e-07 8.141450e-09
2.023360e-07 2.852113e-07 -1.928356e-07 -1.451386e-07 -9.582844e-08 1.157490e-07
2.860178e-06 -4.902806e-07 -1.105142e-06 1.359113e-06 -1.491338e-08 -1.141013e-07
2.128965e-07 3.549402e-07 -3.029872e-07 -1.338200e-07 -8.492684e-08 1.175972e-07
-1.061573e-07 3.010083e-07 -2.040393e-07 -6.946785e-08 -3.135545e-07 2.067363e-07
7.852768e-07 -1.032226e-07 -3.985431e-07 -1.732450e-07 6.275661e-09 3.702326e-08
3.637635e-07 9.482742e-08 -1.447411e-07 -9.020219e-09 -2.866888e-09 5.272136e-09
4.159228e-07 4.204196e-08 -1.489785e-07 -5.232036e-09 -1.899231e-09 3.211726e-09
4.049981e-07 6.395203e-08 -2.281038e-07 -8.266186e-08 -1.938778e-08 3.130638e-08
5.081204e-07 -2.650709e-08 -1.763252e-07 -1.117636e-08 -2.853835e-09 1.531219e-09
3.494447e-07 1.210367e-07 -1.798232e-07 -1.121441e-08 4.670926e-17 -2.082556e-09
6.724037e-07 -1.089918e-08 -3.670916e-07 -2.617079e-07 -4.134318e-08 1.072366e-07
4.841366e-07 2.322360e-08 -2.057031e-07 -7.221808e-08 -5.039024e-09 8.931620e-09
7.227731e-07 -1.373801e-08 -4.185639e-07 -2.985926e-07 -7.475491e-08 9.856592e-08
7.106785e-07 -2.818149e-08 -3.976277e-07 -2.519929e-07 -4.447189e-08 4.393071e-08
7.400915e-07 -4.461823e-08 -4.226313e-07 -2.259707e-07 -2.390722e-08 1.853141e-08
7.115504e-07 -6.393060e-08 -3.739279e-07 -1.728717e-07 -6.486955e-09 4.032870e-08
3.755487e-07 7.346973e-08 -1.541575e-07 -2.031079e-08 -3.320100e-10 1.923380e-09
5.049667e-07 -1.865740e-08 -2.181296e-07 8.067110e-08 4.362079e-09 1.184335e-08
4.032952e-07 5.781918e-08 -1.699757e-07 -2.962742e-08 -3.452735e-11 1.089176e-08
4.279119e-07 3.503991e-08 -1.640304e-07 -2.164445e-08 -4.750312e-09 3.501696e-09
3.472505e-07 1.361698e-07 -1.785053e-07 -1.922999e-08 -1.206807e-08 1.874273e-08
5.123715e-07 -2.033922e-08 -2.038146e-07 5.145823e-08 -1.539538e-09 2.412550e-08
3.617821e-07 1.338216e-07 -1.943881e-07 -1.016262e-07 -3.256569e-08 4.580691e-08
4.191623e-07 5.422330e-08 -1.742021e-07 -5.784107e-08 -2.272274e-09 1.659945e-08
5.072544e-07 -1.898252e-08 -2.005973e-07 3.261638e-08 5.302834e-09 3.263585e-09
-1.865310e-06 2.991116e-06 4.264368e-06 -3.616675e-06 8.835076e-07 -9.863041e-08
4.945407e-07 -1.172661e-08 -1.933006e-07 2.198260e-08 -3.063510e-09 7.369875e-09
4.681049e-07 1.808925e-09 -1.902243e-07 4.720893e-08 8.122964e-09 2.312748e-08
-2.602793e-07 6.970318e-07 -3.159717e-07 -3.486451e-08 -1.993478e-07 1.030139e-07
4.687845e-07 3.727262e-09 -1.865168e-07 2.814444e-08 1.106816e-08 6.256535e-09
-9.125597e-08 1.522945e-06 -8.720856e-07 -8.030281e-07 -5.701667e-08 8.093983e-09
1.284992e-07 1.402610e-06 -8.799343e-07 -1.422415e-06 -4.177173e-07 3.745149e-07
-1.885441e-07 9.204780e-07 -6.077154e-07 -2.580036e-07 -3.777826e-07 2.300340e-07
1.564982e-07 4.419922e-07 -3.432122e-07 -1.351512e-07 -5.819904e-08 1.079000e-07
3.180317e-07 5.020639e-07 -4.831783e-07 -3.880773e-07 -1.764337e-08 2.480655e-08
4.988081e-07 -1.218336e-09 -1.901421e-07 6.431680e-08 9.544850e-09 2.486647e-08
-3.920273e-07 1.981161e-06 1.234410e-06 3.165922e-06 -1.946254e-07 -1.329080e-07
-4.452258e-07 2.123667e-06 -7.850939e-07 -1.342783e-06 -4.570664e-07 1.453917e-07
7.603973e-07 6.738473e-07 6.741907e-07 3.062076e-06 -3.938563e-08 1.798410e-07
2.148093e-07 6.496011e-07 -6.875928e-07 -5.561005e-07 -1.928058e-07 1.476675e-07
1.633975e-06 3.011349e-07 1.268624e-07 2.669868e-06 4.573974e-07 4.031481e-07
-1.323586e-07 2.106017e-06 1.590317e-06 3.906889e-06 1.138655e-07 4.012638e-07
1.413156e-06 7.065487e-07 1.954341e-06 3.941845e-06 -5.615036e-07 2.623746e-07
2.252956e-07 1.867745e-07 -1.947925e-07 -7.211049e-08 -7.857936e-08 7.735530e-08
1.176588e-06 1.080035e-06 1.339393e-06 3.727907e-06 3.809597e-07 3.318103e-07
4.674039e-07 2.432301e-07 -5.461831e-07 -4.309203e-07 -1.277871e-07 1.350993e-07
6.707637e-07 4.763562e-07 -7.811273e-07 -8.651175e-07 -1.132268e-07 1.036609e-08
3.479334e-07 3.586948e-07 -3.758468e-07 -3.004816e-07 -1.436803e-07 1.399246e-07
2.554964e-09 7.410230e-07 4.717305e-06 -4.998629e-06 -4.040052e-07 -8.087376e-07
2.524938e-07 2.172270e-07 -1.642821e-07 8.644016e-09 4.487436e-09 1.888578e-08
7.185185e-07 6.335149e-08 -5.406042e-07 4.063601e-07 3.429181e-08 8.441252e-08
3.681699e-07 1.777234e-07 -2.257932e-07 1.434735e-07 4.858579e-09 5.685341e-09
-3.001115e-07 2.768923e-06 4.022840e-07 -3.002631e-06 -3.704315e-07 2.063260e-07
3.819764e-07 1.700791e-07 -2.246633e-07 1.513999e-07 2.280123e-08 1.804860e-08
3.466333e-07 1.080089e-07 -1.587871e-07 4.771777e-08 5.352689e-09 9.398961e-09
5.432563e-07 5.182517e-08 -2.926769e-07 2.095307e-07 2.982756e-08 4.659885e-08
1.187853e-06 8.311093e-07 2.618845e-06 -4.448396e-06 -8.879286e-08 5.844272e-09
-4.319395e-07 2.276518e-06 1.664668e-06 -3.694440e-06 7.110117e-08 -3.743159e-07
-5.060361e-07 1.508491e-06 2.887408e-06 -3.968564e-06 3.147500e-07 -1.116621e-07
6.467792e-07 1.405981e-06 1.409929e-06 -3.568652e-06 5.291100e-08 -6.550333e-07
5.562829e-07 -1.119228e-09 -2.637842e-07 1.275871e-07 -6.950146e-09 1.907303e-08
2.133907e-07 3.770773e-07 -3.292858e-07 1.977862e-07 6.455855e-08 2.262295e-08
3.219371e-06 -1.211016e-06 2.352067e-07 -2.043396e-06 1.634972e-07 6.415831e-09
-9.803892e-08 4.978819e-07 -2.957516e-07 8.238329e-08 -8.471282e-08 1.619335e-07
2.491473e-06 -1.280298e-06 3.390816e-07 -2.123331e-06 -2.056775e-07 4.585865e-07
2.836740e-06 -6.478232e-07 -7.376025e-07 -1.504070e-06 -1.768609e-08 1.679243e-07
3.645057e-07 1.159997e-07 -1.781160e-07 6.422529e-08 8.141456e-09 9.462438e-09
1.720977e-07 1.085217e-06 -1.044037e-06 -8.965456e-07 8.448744e-08 -1.329256e-08
3.792064e-06 -1.678170e-06 -4.468595e-07 -1.191718e-06 -2.708870e-08 3.450602e-07
-4.596492e-08 5.354096e-07 -3.181446e-07 -6.365656e-08 1.678615e-07 -6.996570e-08
4.633302e-07 1.080930e-06 -1.000775e-06 -7.736111e-07 9.464955e-08 -7.097597e-08
-1.607710e-07 -7.843246e-08 -1.884423e-07 2.523643e-09 7.700932e-07 -4.239623e-07
5.429496e-07 8.082844e-07 -1.012592e-06 -7.741211e-07 7.781106e-08 -7.324945e-08
3.168009e-06 -1.437244e-06 -4.225454e-07 -1.074024e-06 -1.145903e-07 3.736457e-07
3.090771e-06 -1.127073e-06 -1.258480e-07 -1.690348e-06 -2.450028e-07 1.305372e-07
2.817042e-07 2.152882e-07 -4.631510e-07 -2.647852e-07 5.617004e-07 -3.198340e-07
-2.161910e-07 8.355637e-07 -4.134722e-07 7.149202e-08 6.470177e-08 4.249174e-08
-1.335837e-07 8.583384e-07 -4.976320e-07 6.191277e-08 -2.412148e-09 2.575286e-08
-1.000730e-07 9.588286e-07 -5.630290e-07 1.976459e-07 2.852347e-08 2.538881e-08
-1.906484e-07 4.130532e-07 -2.731601e-07 7.005645e-08 4.602799e-07 1.569553e-07
-5.189575e-08 7.514591e-07 -4.617222e-07 2.188879e-07 1.125770e-07 8.519572e-08
-2.145480e-07 1.072658e-06 -5.716418e-07 1.187952e-07 4.622871e-08 4.191132e-08
1.864652e-07 3.049901e-07 -2.192080e-07 5.852735e-08 2.745828e-08 3.604202e-08
-1.064691e-07 8.778106e-07 -5.134492e-07 1.649483e-07 3.481501e-08 4.637981e-08
1.847718e-07 2.729450e-07 -1.680196e-07 1.909502e-08 1.326640e-08 2.260943e-08
-1.687601e-07 8.950570e-07 -5.335372e-07 8.592285e-08 1.875808e-08 -9.878457e-09
1.380438e-07 3.833449e-07 -2.828807e-07 6.150311e-08 1.906709e-08 5.875953e-08
-3.859921e-07 1.070478e-06 -4.603047e-07 1.678534e-07 -5.720407e-07 -1.313733e-07
3.326514e-07 2.045145e-07 -2.104612e-07 1.364625e-07 2.412268e-08 1.859537e-08
2.692961e-07 2.305758e-07 -2.266860e-07 1.114353e-07 5.118093e-09 -4.793983e-09
2.287628e-07 2.515206e-07 -1.803414e-07 9.590490e-08 5.415458e-08 4.383634e-08
-5.591717e-07 1.753489e-06 -9.456415e-07 3.460326e-08 -8.098944e-08 8.576257e-09
-3.520336e-07 1.380404e-06 -8.741408e-07 3.865269e-07 -9.968570e-08 -2.178774e-08
2.193459e-07 2.713417e-07 -2.188516e-07 1.968081e-08 7.802471e-10 2.088664e-08
-1.232755e-06 2.932536e-06 -8.706073e-07 -9.716758e-07 2.818477e-07 -1.060904e-07
-1.178402e-06 3.087735e-06 -9.012040e-07 -7.523522e-07 4.394054e-07 -4.880121e-08
-5.784497e-07 2.468344e-06 -7.400633e-07 -1.418527e-06 5.569562e-07 -2.923454e-07
2.632592e-07 1.255912e-06 -9.313711e-07 -1.316709e-06 6.010170e-07 -2.384383e-07
-5.591717e-07 2.115191e-06 -9.718161e-07 8.214182e-08 -1.769642e-07 -2.200024e-08
-3.362162e-06 -1.310820e-05 3.074674e-05 -4.283047e-06 -1.054994e-06 1.088344e-06
-1.427372e-06 2.062016e-06 5.396811e-06 -4.817221e-06 1.850665e-07 7.714583e-07
-5.726644e-07 2.712826e-06 4.017929e-09 -2.431394e-06 2.247167e-07 -1.813545e-07
2.309348e-06 1.416994e-07 -6.286363e-07 -2.860241e-06 3.260321e-07 -1.533418e-07
-5.336445e-07 1.945142e-06 -9.538553e-07 3.335218e-07 -1.920696e-07 -2.348847e-08
-2.123826e-06 3.931759e-06 1.595221e-06 -1.925210e-06 -3.761458e-07 -2.164246e-07
-1.446836e-06 2.315443e-06 3.652883e-06 -3.705483e-06 5.955818e-07 -1.933806e-07
2.866240e-07 2.252832e-06 -9.620242e-07 -1.879514e-06 3.291048e-07 -1.864645e-07
-1.453414e-06 2.986519e-06 -8.907335e-07 3.320238e-07 -6.672078e-07 -1.285097e-07
-7.515013e-07 2.673273e-06 -1.009579e-06 3.289868e-07 -2.581898e-07 -1.058545e-07
1.351319e-06 3.750176e-07 -1.273631e-06 -2.706806e-07 1.215349e-07 5.435115e-08
2.656224e-06 -2.646059e-07 -1.532283e-06 -1.187148e-06 2.442166e-07 -2.967041e-07
1.259012e-06 1.830449e-07 -1.173643e-06 -6.791280e-07 2.510910e-07 -1.258992e-07
1.902087e-06 3.784437e-08 -1.112518e-06 -1.072172e-06 3.869267e-07 -3.139825e-07
1.527165e-06 9.536306e-08 -9.449511e-07 -1.572050e-06 2.610608e-07 -2.320862e-07
1.112222e-07 1.702240e-06 3.314850e-06 4.667526e-06 -3.969956e-07 -2.079445e-07
1.314403e-06 1.416681e-06 3.913475e-07 3.666496e-06 -3.593235e-07 -1.890482e-07
3.204160e-06 -1.473181e-06 2.133473e-07 2.699384e-06 4.745684e-07 1.587992e-07
1.568465e-06 1.106108e-06 -7.144057e-07 2.542005e-06 -2.065613e-07 -1.676713e-07
2.248825e-06 -3.386462e-07 -1.064485e-06 -1.058129e-06 4.814317e-07 -4.062898e-07
6.337726e-07 1.151574e-06 1.679920e-06 3.802704e-06 -9.673593e-08 -5.342698e-07
3.332499e-06 -1.631400e-06 2.333543e-06 3.552046e-06 6.471853e-08 6.869386e-07
2.217315e-06 2.068729e-07 -9.812181e-07 1.919360e-06 -2.590093e-07 -2.314819e-07
7.660206e-07 5.734250e-07 -6.366753e-07 1.017022e-06 -6.441844e-07 -4.071737e-07
-2.289608e-06 4.383954e-06 3.422667e-06 3.710186e-06 -2.358539e-07 -1.485908e-07
1.136375e-06 2.693995e-07 -1.157726e-06 -2.891225e-07 4.501026e-07 -1.409437e-07
-4.163683e-08 2.991256e-06 -4.051969e-07 2.755990e-06 -5.288860e-07 -2.170249e-07
1.021506e-06 3.880381e-07 -1.241046e-06 -6.757355e-07 2.120607e-07 3.542627e-09
-3.332818e-07 1.344726e-06 -7.580682e-07 -1.075048e-07 -1.424891e-07 7.994153e-08
-3.689290e-07 1.390176e-06 -8.442290e-07 -1.037071e-07 -3.409138e-08 -5.728845e-09
7.596294e-07 1.106108e-06 3.913474e-07 3.075595e-06 -3.278974e-07 -8.670214e-08
1.304909e-06 5.475849e-07 5.170223e-07 2.825696e-06 -7.022364e-07 -4.061619e-07
8.471096e-07 1.147036e-06 -8.050788e-07 1.898162e-06 -3.217215e-07 -1.841844e-07
-3.189288e-07 1.482438e-06 -8.230314e-07 -2.280875e-07 -2.778922e-07 5.269458e-08
5.403181e-07 2.581198e-07 -4.327892e-07 -3.987265e-07 -6.770298e-08 1.020539e-07
4.674039e-07 2.747310e-07 -4.804392e-07 -3.928095e-07 -6.925776e-08 1.613808e-07
4.814545e-07 3.032343e-07 -4.439987e-07 -3.661658e-07 -1.890981e-08 2.076013e-08
6.206727e-07 2.319201e-07 -4.628571e-07 -4.212428e-07 -3.620252e-08 4.985648e-08
3.479334e-07 3.088609e-07 -5.151414e-07 -3.501770e-07 -1.362555e-07 1.181257e-07
9.015558e-07 3.344144e-07 -8.601141e-07 4.747670e-07 -6.635396e-07 -3.220918e-07
2.828641e-07 3.477794e-07 -4.074086e-07 -2.297397e-07 -3.475434e-08 3.563998e-08
2.724368e-07 1.364304e-07 -1.919261e-07 -8.506475e-08 -6.237176e-08 8.389255e-08
1.215210e-06 4.293748e-07 -1.116099e-06 3.784362e-07 -3.256232e-07 -9.955885e-08
1.411123e-06 5.856875e-07 -9.230377e-07 1.799635e-06 -4.559027e-07 -4.535130e-07
8.900685e-07 -9.998120e-08 -8.730660e-07 3.441969e-07 -5.677121e-07 -1.683684e-07
2.096004e-06 1.408360e-07 -1.153341e-06 1.127602e-06 -1.528617e-07 -1.419813e-07
1.769101e-07 4.213655e-07 -4.359757e-07 6.575577e-07 -7.564121e-07 -4.503229e-07
3.180317e-07 5.087989e-07 -6.469061e-07 -4.855068e-07 -1.600016e-08 3.983345e-08
5.652704e-07 2.925305e-07 -6.910881e-07 -6.399641e-07 -1.278950e-07 1.719171e-07
1.447213e-06 3.584653e-07 -1.292699e-06 2.957306e-07 -1.278164e-07 5.136625e-08
2.163942e-07 1.276220e-06 -8.840041e-07 -1.098941e-06 -1.451546e-07 7.491482e-08
4.254778e-07 8.213798e-07 -9.059187e-07 -1.112829e-06 -1.605008e-07 1.027886e-07
4.140868e-06 -1.576929e-06 -1.588267e-06 -2.595835e-07 5.312676e-08 -5.280131e-08
7.008611e-07 -6.530877e-08 -5.422509e-07 1.205087e-07 -5.901846e-07 -3.846860e-07
1.688776e-06 1.190464e-07 -1.362926e-06 4.075708e-07 -1.390668e-07 -1.156315e-07
-2.843885e-07 1.098543e-06 -6.077821e-07 -1.368750e-07 6.086805e-08 4.543227e-09
-2.522298e-07 2.106069e-06 -9.765685e-07 -1.273134e-06 -1.040666e-07 3.165806e-09
9.563939e-08 1.788281e-06 -8.679073e-07 -1.871552e-06 -2.997526e-07 2.203375e-07
-2.195722e-07 9.390903e-07 -5.043299e-07 -2.881827e-08 1.074017e-08 -2.798377e-08
3.175429e-07 1.325476e-06 -9.067645e-07 -1.396932e-06 -4.669315e-07 4.208141e-07
-2.018744e-07 8.092817e-07 -4.119582e-07 -4.515320e-08 3.877120e-08 -5.779312e-08
8.241992e-07 -1.145979e-07 -4.448852e-07 -1.898236e-07 -3.514647e-08 1.480444e-07
-2.486265e-07 1.015556e-06 -5.968835e-07 -1.586586e-07 1.280218e-07 -7.414472e-08
-2.866975e-07 1.029579e-06 -5.606448e-07 -4.677289e-08 2.122659e-08 1.043608e-08
1.097047e-06 -3.035827e-07 -5.589614e-07 -6.578646e-08 -1.082659e-08 1.717325e-07
1.476518e-06 -3.844607e-07 -7.211087e-07 -2.461880e-07 -3.062795e-09 7.309103e-08
3.845567e-06 -1.280911e-06 -1.569314e-06 -1.129385e-07 2.384851e-07 -3.288929e-07
4.503934e-06 -1.980681e-06 -5.466438e-07 -1.737984e-07 1.258826e-07 -7.236130e-07
8.193706e-07 -1.634872e-07 -3.961973e-07 -1.670025e-07 -3.291692e-08 1.117011e-07
3.777324e-06 -1.998078e-06 -1.759432e-07 -1.122277e-07 8.736037e-08 -1.169173e-06
3.940313e-06 -1.317559e-06 -1.482964e-06 -7.397111e-07 2.039147e-07 -8.539926e-08
4.309412e-06 -1.685948e-06 -1.560134e-06 -4.035530e-08 -2.641278e-08 4.537866e-08
-2.316229e-07 1.166133e-06 -7.008130e-07 -7.220170e-08 -1.024227e-07 1.110158e-07
6.599291e-07 1.283286e-06 -1.084654e-06 -1.247506e-06 1.856546e-07 -1.434677e-07
-1.012678e-06 3.687276e-06 2.357481e-07 -2.873546e-06 -8.907366e-08 2.150542e-07
-6.060876e-06 -2.932208e-06 2.340859e-05 -5.618329e-06 -2.217086e-08 4.926110e-06
-6.313202e-07 2.243947e-06 1.846101e-06 -3.459410e-06 1.945837e-07 3.292911e-07
3.696510e-06 -1.694682e-06 2.695723e-07 5.796460e-07 -4.517128e-07 -8.280450e-07
2.448259e-07 1.341579e-06 -5.399439e-07 -2.033267e-06 5.125259e-07 -3.380999e-07
4.964788e-07 7.561282e-07 2.241359e-06 -3.880417e-06 -2.832490e-08 4.372767e-08
-1.912695e-07 1.158239e-06 -7.363701e-07 -1.069866e-07 7.628800e-09 5.087699e-08
-2.091625e-07 1.344439e-06 -8.577893e-07 -3.732561e-07 -6.995331e-08 -2.299961e-08
1.807498e-06 -2.816862e-06 8.114124e-06 -4.352317e-06 -7.262776e-07 -6.704031e-07
1.471831e-06 -6.867693e-06 1.495399e-05 -4.078616e-06 -2.867478e-07 -3.434331e-08
-2.796009e-07 1.138066e-06 -7.447910e-07 -2.731587e-07 -1.216664e-07 5.063672e-08
-3.115474e-07 1.276977e-06 -7.452121e-07 -1.281007e-07 -1.132225e-07 4.636247e-08
1.574051e-06 -3.804383e-07 -7.379951e-07 -2.631501e-07 -3.358197e-08 3.157024e-07
-3.126968e-07 1.502543e-06 -8.274716e-07 -1.935858e-07 -7.577061e-08 5.748618e-08
1.768790e-06 -4.263645e-07 -8.180318e-07 4.438192e-07 1.110020e-07 3.359329e-07
2.693538e-06 -1.334675e-06 -5.943466e-07 6.564607e-07 1.197852e-07 4.237466e-07
-3.399680e-07 1.401110e-06 -8.796851e-07 -3.283407e-07 -4.954606e-08 1.010875e-08
3.135218e-06 -8.738632e-07 -7.398508e-07 -7.662697e-07 -7.826973e-08 2.793026e-07
2.720224e-06 -6.636070e-07 -5.937628e-07 -1.461175e-06 -1.672466e-07 5.650668e-07
3.759908e-06 -1.334675e-06 -9.340430e-09 8.209580e-07 -8.178290e-08 2.293124e-07
3.332595e-06 -1.817494e-06 6.596363e-07 1.376067e-06 7.536554e-09 1.957840e-07
4.032007e-07 1.157089e-07 -2.148112e-07 1.240153e-07 3.173140e-09 6.992012e-09
2.203773e-06 -1.912437e-08 -8.759535e-07 -1.457968e-06 -1.632012e-07 4.152667e-07
2.760140e-06 -1.014780e-06 -8.409798e-07 -1.174201e-06 -1.249129e-07 2.257031e-07
2.950171e-07 7.613186e-07 -7.199156e-07 7.707220e-07 2.154731e-07 2.461230e-07
6.534683e-07 9.907219e-08 -4.328792e-07 3.766634e-07 2.577633e-08 2.637079e-08
2.203807e-06 -5.239636e-07 -8.636347e-07 -9.745204e-07 -1.008251e-08 9.622907e-08
1.565761e-06 -2.330358e-07 -7.910283e-07 -8.094531e-07 -8.646736e-08 2.454281e-07
6.972678e-07 7.203314e-09 -4.802475e-07 3.219859e-07 6.412954e-08 1.566298e-07
8.864141e-07 -2.074138e-07 -4.283767e-07 1.287072e-07 -3.716772e-10 6.270580e-08
1.776821e-06 -5.282382e-07 -7.985813e-07 -7.073843e-07 -8.755127e-08 4.257653e-07
8.895865e-07 2.814022e-09 -5.803188e-07 4.631884e-07 -1.157266e-08 6.233156e-08
-3.379533e-07 1.573030e-06 -8.664346e-07 2.589189e-07 -1.068708e-08 -3.222640e-08
-2.370809e-07 1.367058e-06 -8.706354e-07 3.449042e-07 -1.068655e-07 -1.713261e-09
-2.181584e-06 3.883973e-06 2.220425e-06 3.417178e-06 1.795301e-06 9.984368e-07
-2.018401e-07 1.037537e-06 -8.044339e-07 1.994165e-07 -1.441726e-07 -4.737509e-08
-2.746099e-07 1.236716e-06 -7.596915e-07 5.983940e-08 -1.350207e-08 -4.751705e-08
-1.423086e-06 3.215326e-06 1.970912e-06 3.394198e-06 -1.926258e-07 2.287716e-07
-4.011045e-06 5.958049e-06 2.542292e-06 -4.666311e-07 -3.065673e-08 2.582873e-07
-3.505452e-07 1.268905e-06 -7.250711e-07 1.263370e-07 -1.039392e-07 -7.639137e-08
-2.400644e-07 1.101756e-06 -6.783301e-07 1.194885e-07 -1.198875e-07 -1.179646e-07
-3.659518e-06 5.069821e-06 3.505094e-06 2.031554e-06 -9.879544e-07 9.020996e-08
-6.541150e-07 1.446318e-06 4.189025e-06 -4.682052e-06 6.155089e-07 -4.499176e-07
7.294599e-07 2.287519e-07 6.356599e-06 -4.972133e-06 1.330597e-06 -1.899486e-06
1.247345e-06 -8.303777e-08 -8.936880e-07 -8.000973e-07 -9.774172e-08 4.550004e-08
4.829687e-06 -2.669726e-06 3.638438e-06 -5.547081e-07 1.035978e-07 -9.763722e-07
-2.390396e-07 1.218354e-06 -7.595416e-07 9.144864e-08 6.303878e-09 -3.761363e-08
-1.429920e-07 5.060331e-07 -2.507991e-07 -3.866456e-08 1.696827e-07 -7.270848e-08
3.736980e-06 -1.993805e-06 -1.258480e-07 -1.579117e-06 -2.497254e-07 1.270205e-07
2.251232e-06 -8.127882e-07 -7.508246e-07 4.766327e-09 -3.025193e-08 3.364272e-07
4.909008e-09 5.773411e-07 -4.157346e-07 -1.183819e-07 2.073003e-07 -6.882969e-08
3.516608e-06 -8.454305e-07 3.812058e-07 -2.791215e-06 -3.742156e-07 7.136358e-07
3.681511e-07 1.174397e-06 -2.301972e-07 2.465475e-06 2.740024e-07 2.572116e-07
2.210497e-08 6.630470e-07 -4.716855e-07 -1.301802e-07 1.002236e-07 -5.745339e-08
-1.768863e-08 6.275968e-07 -4.604917e-07 -1.324966e-07 2.612409e-07 -1.520304e-07
-7.953487e-08 6.383353e-07 -3.538429e-07 -1.122517e-07 1.486412e-07 -6.687700e-08
-2.406733e-08 7.013167e-07 -4.942571e-07 -2.425722e-07 3.000072e-07 -1.104252e-07
-5.707179e-08 6.913759e-07 -4.894104e-07 -1.559634e-07 1.541428e-07 -5.116300e-08
6.388930e-08 6.749638e-07 -5.185094e-07 5.047788e-08 -1.254508e-07 -2.907904e-08
-1.229709e-06 3.629893e-06 -6.952347e-07 5.633535e-07 6.495940e-07 9.496166e-08
-3.557571e-08 4.579164e-07 -2.668345e-07 4.830009e-08 -1.979186e-07 -4.048831e-08
-1.379275e-06 2.879472e-06 4.750179e-08 1.607494e-06 2.582019e-07 3.940736e-09
-1.118644e-08 5.353304e-07 -3.752514e-07 1.293484e-08 -2.049687e-07 -4.109587e-08
4.359413e-06 -2.302307e-06 -6.883570e-07 -6.846454e-07 -3.443987e-09 3.596778e-08
-3.527113e-08 3.815163e-07 -3.067687e-07 -2.282308e-08 -2.286496e-07 -5.619910e-08
1.193450e-07 6.516349e-07 -6.186993e-07 1.137273e-07 -1.630534e-07 -4.456700e-08
-3.430673e-07 2.623280e-06 -8.117214e-07 1.613908e-06 1.181560e-07 6.806489e-08
2.086636e-08 4.611866e-07 -2.606725e-07 4.866940e-08 -2.911794e-07 -1.074222e-07
-5.980609e-07 2.335193e-06 -3.884230e-07 2.316335e-06 3.241855e-07 4.780367e-08
8.474661e-08 2.443352e-06 -5.236935e-07 2.618670e-06 3.412292e-07 2.450803e-07
-6.873015e-06 2.023790e-06 1.663247e-05 4.840820e-06 3.568782e-06 8.526858e-07
-2.963870e-06 1.563141e-06 8.746617e-06 4.794882e-06 8.099909e-07 7.742582e-07
-1.614651e-05 -8.788052e-06 5.162339e-05 4.101276e-06 1.485222e-05 -1.862060e-06
3.775902e-06 -9.712349e-06 2.338637e-05 -1.248282e-06 -5.096801e-07 6.037070e-06
4.402561e-06 -1.860402e-06 3.243418e-07 1.855258e-06 -5.580321e-08 -6.106961e-07
1.732739e-07 5.534433e-07 -5.095392e-07 6.184024e-08 -2.624709e-07 -7.056417e-08
-1.352350e-05 -1.881910e-05 5.710095e-05 -8.380236e-07 -1.330301e-07 4.060181e-06
-3.836003e-06 -1.791559e-05 4.366625e-05 1.391203e-06 -1.126335e-06 7.979200e-06
-1.406940e-05 -1.932168e-05 5.959504e-05 -1.495382e-06 -1.906222e-06 3.398236e-06
4.276648e-08 4.792467e-07 -4.356385e-07 5.103171e-09 -2.781740e-07 -3.230245e-08
-7.091366e-09 7.613754e-07 -4.807823e-07 -1.511856e-07 6.170655e-08 -2.734172e-08
-6.851440e-08 6.775202e-07 -3.862624e-07 -1.364328e-07 1.365435e-07 -7.128857e-08
-1.847604e-05 -2.138157e-05 7.216024e-05 3.059894e-06 6.143728e-06 4.014155e-06
-2.225884e-05 -2.048876e-05 6.972274e-05 2.088417e-06 1.655639e-06 2.571409e-06
-1.306820e-05 -1.132123e-05 4.196592e-05 4.137798e-06 4.183301e-06 1.270541e-08
-6.077186e-06 -1.056114e-05 4.237941e-05 4.122629e-06 3.078940e-06 5.608801e-06
-1.544688e-05 -1.653468e-05 5.020507e-05 6.706331e-07 7.655065e-07 2.246915e-06
-1.016626e-05 -3.176014e-06 3.192573e-05 7.064336e-06 8.012457e-06 4.943825e-06
-6.887241e-08 5.866700e-07 -2.841191e-07 -1.647274e-07 3.242059e-07 -1.565314e-07
-1.517225e-06 3.211960e-06 -4.625340e-07 -1.428761e-06 -2.830863e-08 1.947433e-08
-8.468610e-07 2.425243e-06 2.194867e-06 -3.583964e-06 3.551876e-07 -2.726096e-07
-1.865310e-06 3.371806e-06 2.072048e-06 -2.741961e-06 3.123695e-07 -3.486313e-07
-1.918667e-06 4.120683e-06 1.897813e-06 -2.025081e-06 5.096533e-07 2.492522e-07
4.589076e-07 1.969219e-08 -1.714524e-07 -3.156582e-08 -6.372295e-09 2.427559e-09
-3.011346e-06 3.927251e-06 2.895611e-06 -3.149845e-06 -3.556355e-07 -5.551966e-08
-6.437598e-06 3.497051e-06 1.170170e-05 -3.543997e-06 1.851404e-06 -1.026850e-06
-5.994438e-06 5.135409e-06 7.553787e-06 8.554740e-07 -6.951549e-07 6.962612e-07
4.553364e-07 7.070993e-09 -1.636705e-07 -1.964319e-08 -1.292073e-08 1.215452e-09
4.936719e-07 -1.772086e-08 -1.773448e-07 -1.705845e-08 -4.656061e-09 7.791828e-09
-1.700179e-05 -2.158271e-05 6.170640e-05 -3.312753e-07 -1.246374e-06 -1.704990e-06
4.709595e-07 7.583395e-09 -1.605292e-07 -1.651916e-08 -1.154260e-08 1.100877e-08
4.989925e-07 -2.313361e-08 -1.964903e-07 -4.084182e-08 -9.389194e-09 2.454163e-08
5.348188e-07 -7.332563e-08 -1.763759e-07 -9.542986e-09 -1.014440e-08 1.447399e-08
5.339508e-07 -4.624045e-08 -2.062115e-07 -3.998198e-08 -7.145293e-09 2.907705e-08
5.679721e-07 -6.946976e-08 -2.104391e-07 -3.969383e-08 -8.722630e-10 2.651187e-08
4.836394e-06 -2.181704e-06 2.422862e-06 7.761676e-07 2.267017e-07 -6.518874e-07
-5.968504e-06 4.265910e-06 6.062718e-06 2.141439e-06 3.541398e-07 -1.200209e-07
-1.790319e-05 -1.443290e-05 5.074572e-05 1.143756e-06 -9.272049e-07 -1.390637e-07
-1.115712e-05 -7.558832e-06 4.125169e-05 4.650750e-06 -9.395401e-06 -4.710435e-06
5.669314e-07 -8.130285e-08 -2.069610e-07 -3.154286e-08 -2.698765e-08 5.078930e-08
2.520740e-07 9.991352e-07 -6.373546e-07 5.751101e-07 -4.079118e-07 -1.774108e-07
5.573574e-07 -5.959891e-08 -2.042037e-07 -5.258623e-08 -1.709008e-08 3.971340e-08
8.505637e-08 7.330293e-07 -5.333128e-07 -3.662915e-07 -2.605931e-07 2.314543e-07
9.360173e-08 7.500851e-07 -6.423494e-07 -4.334665e-07 -1.576329e-07 6.492638e-08
2.082107e-07 1.025928e-06 -7.184872e-07 -6.731428e-07 -1.544601e-07 1.047262e-07
-1.622138e-07 1.328851e-06 -8.860461e-07 -5.461053e-07 -1.549560e-07 9.878220e-08
6.528327e-08 6.728399e-07 -5.996670e-07 3.323418e-08 -4.752174e-08 -2.016860e-08
-1.837630e-08 8.152097e-07 -6.492189e-07 -9.507386e-08 -5.349224e-08 6.344144e-08
9.115663e-08 7.217789e-07 -6.554636e-07 -2.806291e-07 -1.228295e-07 3.218111e-08
-9.125597e-08 1.240364e-06 -8.720856e-07 -6.084563e-07 -9.630378e-08 6.219654e-08
-2.070867e-07 1.259441e-06 -7.019956e-07 4.321833e-07 -3.373691e-07 -1.956544e-07
1.297710e-07 8.746588e-07 -6.979663e-07 -4.712315e-07 -6.941613e-08 1.007751e-07
-2.416479e-08 8.207152e-07 -5.972702e-07 6.967100e-08 -2.123867e-08 -3.326417e-08
5.911672e-07 -6.883166e-08 -2.374737e-07 -4.510345e-08 -5.232214e-09 2.758557e-08
3.523987e-08 6.834472e-07 -5.227572e-07 -5.174477e-09 0.000000e+00 -2.154812e-08
1.038146e-07 -5.376740e-07 -4.610122e-07 2.807436e-08 2.295994e-07 -3.727494e-07
-1.401125e-07 -5.375454e-07 2.088015e-08 7.929668e-08 4.128877e-07 -4.840611e-07
5.836268e-07 -8.485011e-08 -2.163844e-07 -1.672124e-08 4.890470e-09 7.265280e-09
5.877040e-07 -9.117781e-08 -2.094888e-07 -2.116593e-08 -2.601373e-09 1.213022e-08
-2.081464e-07 -4.989711e-07 -9.507004e-10 9.709964e-09 1.462463e-08 -6.493516e-07
5.813445e-07 -6.076021e-08 -2.283274e-07 -5.037393e-08 -1.498363e-08 3.007543e-09
5.630153e-07 -7.102149e-08 -2.143353e-07 -2.408779e-08 -3.622873e-09 6.636440e-09
5.786207e-07 -7.946348e-08 -2.242265e-07 -1.983333e-08 3.656021e-09 5.432351e-10
2.138957e-06 -9.277162e-07 -9.784857e-07 -3.796871e-08 -4.583066e-08 9.943546e-08
-5.483011e-06 -5.919466e-06 2.733703e-05 -6.870279e-06 1.626561e-06 -3.325336e-06
-1.528062e-07 -5.040003e-07 1.392214e-08 -9.590736e-08 -2.719296e-07 -3.361299e-07
6.756501e-08 -5.004833e-07 -4.775311e-07 9.067299e-09 1.648512e-08 -4.032783e-07
-1.135582e-05 -9.397482e-06 3.959504e-05 -3.116505e-06 3.245518e-06 -1.774483e-06
-8.241787e-06 7.768063e-07 3.047719e-05 -4.209906e-06 1.208449e-05 -3.304351e-06
1.473705e-06 -5.207427e-07 -4.581094e-07 6.117761e-07 -5.693727e-07 -9.321771e-07
1.464079e-06 -9.518811e-07 -5.100480e-07 -3.662037e-08 1.154977e-07 -5.351445e-07
2.568658e-06 -1.001491e-06 -1.290915e-06 7.190294e-08 -2.315004e-07 3.121270e-08
3.547409e-06 -1.205224e-06 -1.008731e-06 7.102769e-07 -2.373558e-09 -1.795611e-07
1.744845e-06 -1.296801e-06 5.032711e-07 -1.682481e-07 -1.506362e-07 -1.238500e-06
-2.187319e-08 -3.539707e-07 -4.073808e-07 -3.993570e-09 5.114023e-07 3.097495e-08
1.310088e-06 -4.527111e-08 -1.221998e-06 -6.076875e-07 3.878115e-07 -2.182885e-07
8.409130e-07 -1.320457e-07 -7.942628e-07 -4.905383e-08 5.964121e-07 -2.077584e-08
-9.338157e-06 9.657102e-07 2.195609e-05 -3.735129e-06 3.661427e-06 -1.131824e-06
-1.308959e-05 -3.221782e-06 2.875513e-05 -1.546849e-06 1.991694e-06 9.446851e-07
-5.319418e-06 -5.886102e-07 1.814650e-05 -5.014978e-06 3.140163e-06 -1.505195e-06
7.428838e-07 6.780168e-07 -8.270763e-07 -9.534385e-07 8.333422e-07 -5.707394e-07
2.712716e-08 3.379734e-07 -3.339484e-07 -1.002029e-07 3.937261e-07 -6.276442e-08
1.454344e-07 5.813115e-07 -5.201224e-07 -1.868389e-07 -7.206122e-08 8.339390e-08
6.833131e-08 4.989330e-07 -4.034469e-07 -1.292622e-07 -1.062471e-07 1.373708e-07
1.135679e-08 7.450941e-07 -5.827974e-07 -4.774872e-08 -1.342273e-08 6.941094e-08
4.013684e-07 8.319808e-07 -8.727189e-07 -4.261381e-07 7.071949e-08 -5.441091e-08
8.178354e-08 4.861184e-07 -3.464044e-07 -5.146293e-08 -5.293457e-08 1.171330e-07
7.035523e-07 4.182291e-07 -1.002155e-06 -2.368710e-07 3.997478e-07 -9.838431e-08
-1.210009e-07 7.707075e-07 -5.243951e-07 -1.542115e-07 4.893326e-08 -2.964772e-08
1.448249e-07 6.447214e-07 -6.176553e-07 -9.555592e-08 5.368307e-08 -1.756901e-08
-6.197339e-08 7.479988e-07 -5.549011e-07 -2.202219e-07 -1.320267e-07 1.073461e-07
4.308799e-06 -1.503747e-06 -1.646578e-06 -1.320595e-08 3.261273e-09 7.041985e-08
-9.034040e-08 6.172004e-07 -4.385657e-07 -2.878178e-07 -3.075506e-07 1.944299e-07
3.864891e-07 5.607799e-07 -7.302369e-07 -1.745162e-07 3.420841e-07 -6.987139e-08
2.097088e-08 6.331508e-07 -4.069619e-07 -1.482534e-07 -2.341097e-07 1.889924e-07
4.652516e-07 4.164293e-07 -8.489321e-07 -8.401941e-08 4.141092e-07 -1.520117e-08
-1.143766e-07 5.964401e-07 -3.328979e-07 -2.549454e-08 9.455028e-08 -5.944113e-08
1.626432e-07 6.289419e-07 -4.961396e-07 -2.160488e-07 3.151693e-07 -1.074560e-07
-2.837629e-07 1.267178e-06 -6.316554e-07 -2.175571e-07 2.695020e-08 -4.486022e-10
-3.430476e-07 1.199280e-06 -6.289446e-07 -7.515137e-08 6.749425e-08 1.949893e-08
-2.787689e-07 8.736067e-07 -5.181957e-07 -1.072980e-07 3.751311e-07 -1.780798e-07
-2.682747e-07 1.104883e-06 -5.929835e-07 -2.113985e-07 4.204224e-07 -1.058142e-07
-3.034731e-07 1.056279e-06 -6.132342e-07 -1.693041e-07 4.533944e-07 -1.360031e-07
-3.049379e-07 9.647185e-07 -5.701835e-07 -9.231636e-08 2.597148e-07 -4.331012e-08
-3.868445e-07 1.289630e-06 -6.949465e-07 -2.012492e-07 2.460319e-07 -3.330591e-08
2.193459e-07 2.704779e-07 -2.153188e-07 2.009313e-08 3.963872e-09 1.763363e-08
1.935765e-07 1.031515e-06 -8.617355e-07 5.340287e-07 -1.252693e-07 -7.361538e-08
-7.761000e-08 4.454714e-07 -2.628440e-07 -4.517473e-09 -8.890920e-08 -4.807173e-08
-6.227907e-08 6.065413e-07 -3.781834e-07 1.567605e-07 -4.549605e-07 -2.466315e-07
-9.800311e-08 4.507739e-07 -2.661104e-07 1.973102e-08 -9.215107e-08 -3.664760e-08
2.822414e-07 2.385765e-07 -2.151256e-07 1.196471e-07 1.527148e-08 1.820433e-08
2.322656e-07 3.291211e-07 -2.935026e-07 1.370305e-07 2.757795e-08 5.139583e-10
-2.734613e-07 1.143153e-06 -5.910088e-07 -9.291807e-08 2.844350e-08 -1.257284e-08
-2.780999e-07 9.295359e-07 -4.666799e-07 -4.502026e-09 3.234532e-08 -1.388217e-08
2.545470e-07 2.930101e-07 -2.777263e-07 1.603614e-07 5.054825e-08 2.251491e-08
2.320229e-07 2.483057e-07 -2.107800e-07 3.725652e-08 6.157604e-09 3.238215e-08
2.137937e-07 3.018185e-07 -2.428364e-07 6.163882e-08 5.052644e-09 1.584373e-08
-3.920399e-07 1.371278e-06 -7.091774e-07 -1.054339e-07 8.380643e-08 -4.575322e-08
2.351955e-07 2.588563e-07 -2.101589e-07 3.068591e-08 -1.634510e-09 8.580738e-09
-1.011764e-07 6.098486e-07 -3.485602e-07 1.832611e-07 -3.863817e-07 -1.901036e-07
3.230611e-08 8.132864e-07 -5.991378e-07 2.101319e-07 -1.324365e-07 -7.348104e-08
-1.425789e-07 9.251065e-07 -6.714987e-07 1.975219e-07 -2.448066e-07 -1.672652e-07
-2.062574e-07 6.784839e-07 -2.663920e-07 1.737826e-08 1.033736e-07 5.176407e-08
-3.316811e-07 1.013703e-06 -4.994552e-07 -2.875352e-08 4.521961e-07 -1.089905e-07
-1.199313e-07 6.291859e-07 -2.863229e-07 -7.844259e-08 2.112817e-07 -7.863698e-08
-1.086930e-07 6.664581e-07 -4.879894e-07 1.229142e-07 -3.086455e-07 -1.693652e-07
2.322656e-07 3.165326e-07 -2.708743e-07 1.157246e-07 2.299217e-08 2.235352e-08
-2.817507e-07 1.055426e-06 -5.550351e-07 -1.168051e-08 1.330200e-08 -1.599579e-08
-1.470013e-07 7.638640e-07 -4.218260e-07 3.229543e-08 2.765361e-08 3.621593e-08
-3.266497e-08 7.785081e-07 -6.377215e-07 1.226215e-07 -5.766099e-08 -3.962966e-08
-2.028433e-07 8.494488e-07 -4.472291e-07 -4.937068e-08 5.374562e-08 -6.695967e-08
4.342152e-08 6.612993e-07 -5.437677e-07 -1.448259e-07 1.225577e-07 -4.559187e-08
-1.942660e-07 6.090541e-07 -2.715863e-07 -1.203977e-07 2.084843e-07 -8.888358e-08
-2.082511e-07 7.913424e-07 -4.991056e-07 -1.431144e-07 3.219398e-07 -1.505889e-07
-2.307084e-07 5.235941e-07 -2.434290e-07 -1.037688e-08 2.638754e-07 -6.073793e-08
-2.178244e-07 5.566531e-07 -2.276589e-07 -1.204883e-09 1.676970e-07 -7.900663e-08
-1.918195e-07 5.989967e-07 -2.367874e-07 3.621237e-08 5.204133e-08 -7.846798e-08
-2.382046e-08 1.116378e-06 -8.680339e-07 4.533733e-07 -1.730484e-07 -1.004488e-07
-1.900344e-07 9.582892e-07 -5.146850e-07 -2.530557e-07 3.444860e-07 -1.336695e-07
8.789565e-09 1.039945e-06 -8.684384e-07 4.035912e-07 -2.020452e-07 -9.308389e-08
9.805333e-08 9.528882e-07 -7.071433e-07 3.789052e-07 -1.877236e-07 -1.088870e-07
9.770791e-08 9.376824e-07 -7.756366e-07 3.268772e-07 -1.065794e-07 -4.950825e-08
-1.899110e-07 6.537617e-07 -2.477476e-07 -2.281967e-08 8.037842e-08 -6.924475e-08
-2.358556e-07 7.152573e-07 -3.094775e-07 -4.198733e-08 2.372553e-07 -1.056829e-07
-2.837629e-07 1.080812e-06 -6.316554e-07 -1.529949e-07 3.926421e-08 -8.980382e-09
-2.083275e-07 8.868290e-07 -5.085635e-07 -8.113185e-08 1.932759e-08 -2.491102e-08
2.600586e-07 2.013256e-07 -1.537257e-07 1.313567e-08 7.170472e-09 7.626263e-09
8.976440e-08 8.729465e-07 -8.462592e-07 4.498519e-07 -1.639664e-07 -4.983140e-08
3.965522e-06 -1.295658e-06 -2.370198e-08 -2.279098e-06 1.195304e-07 1.103738e-08
1.867070e-07 3.507573e-07 -2.708743e-07 9.667963e-08 5.447478e-09 9.642821e-09
3.087892e-06 -1.316580e-06 -1.070511e-06 -6.951889e-07 1.696312e-07 -8.858172e-08
4.092729e-06 -1.564675e-06 -1.448453e-06 -3.003080e-07 -1.248871e-08 -3.174586e-08
-3.826609e-08 6.300453e-07 -3.750308e-07 -1.594996e-08 1.009697e-08 -2.977617e-09
3.146144e-06 -1.147117e-06 -1.283803e-06 -1.889396e-07 2.060454e-07 -1.132482e-07
-5.996222e-08 5.674086e-07 -2.764614e-07 -2.070636e-08 6.409833e-08 -1.857778e-08
-7.009272e-08 5.572423e-07 -2.726040e-07 -5.299513e-08 1.374992e-07 -6.314711e-08
1.657521e-06 -5.541940e-07 7.233975e-08 -1.351612e-06 7.973070e-07 -7.535455e-07
-4.557960e-08 6.037814e-07 -3.475490e-07 2.249614e-10 1.304101e-08 0.000000e+00
-2.103582e-07 5.466154e-07 -2.400569e-07 1.607914e-08 1.246402e-07 3.123414e-08
2.957869e-06 -7.842849e-07 -1.129042e-06 -1.114668e-06 3.967912e-08 5.341122e-08
2.982774e-06 -7.542058e-07 -1.335723e-06 -5.766523e-07 3.455098e-07 -2.688008e-07
3.344613e-06 -9.422932e-07 -1.419562e-06 -1.755472e-07 3.276373e-07 -2.581116e-07
1.736175e-07 3.563347e-07 -3.199767e-07 1.842915e-07 1.341225e-07 1.207885e-07
-3.238110e-07 1.229065e-06 -6.730714e-07 5.330171e-08 3.510299e-08 1.511190e-08
3.405542e-06 -8.484018e-07 -1.604309e-06 -3.953801e-07 5.408717e-08 1.263573e-07
-3.671583e-07 1.111792e-06 -6.069747e-07 3.906696e-08 2.325508e-07 2.721988e-08
3.707460e-06 -1.740481e-06 -3.628542e-07 -1.051395e-06 1.514550e-07 -6.031477e-07
-3.725904e-07 1.184859e-06 -6.312821e-07 5.321901e-08 4.911879e-08 -8.733935e-09
-2.085884e-07 7.470442e-07 -3.454953e-07 3.876570e-08 6.493652e-08 5.309079e-08
3.154456e-06 -7.684731e-07 -1.521909e-06 -9.040370e-07 2.497895e-07 -3.040602e-08
-1.440173e-07 6.059130e-07 -3.023258e-07 1.652180e-08 3.576169e-08 6.641518e-08
-2.368977e-07 8.146032e-07 -3.715707e-07 1.064978e-08 4.516733e-08 1.300029e-08
-2.790317e-07 1.050324e-06 -5.688104e-07 -9.539702e-09 2.252818e-08 1.683011e-08
-3.271074e-06 4.476199e-06 9.635065e-07 1.168022e-06 -5.627951e-07 -2.361904e-07
-4.452678e-06 5.891959e-06 4.284689e-06 1.460091e-06 -4.212379e-08 3.880354e-08
-2.063774e-06 3.305279e-06 -2.285412e-09 1.460585e-06 -2.579545e-07 1.412437e-07
-1.839388e-06 4.347355e-06 1.924382e-06 2.215138e-06 -3.848620e-07 -3.376403e-07
-1.943565e-06 4.199400e-06 2.098892e-06 2.056021e-06 7.293055e-08 -3.203212e-09
5.165154e-07 -3.583226e-08 -1.762962e-07 -7.092418e-08 -1.764589e-08 6.142222e-08
1.243859e-08 5.490232e-07 -4.032396e-07 1.268554e-07 9.279433e-08 4.706268e-08
-3.128527e-08 6.965196e-07 -4.577518e-07 1.125129e-07 2.373775e-08 2.671461e-08
6.024340e-07 -7.494914e-08 -2.560332e-07 -9.521722e-08 -2.181184e-08 8.109145e-08
7.375931e-09 6.445713e-07 -4.458347e-07 8.589622e-08 6.333763e-09 -1.250326e-08
5.272542e-07 -4.466874e-08 -1.724407e-07 -3.807282e-08 -1.354738e-08 3.664083e-08
-2.218063e-08 6.545368e-07 -4.572917e-07 1.962483e-07 7.337297e-08 4.938956e-08
-4.142253e-08 7.945162e-07 -5.122095e-07 2.464222e-07 5.831795e-08 3.670820e-09
2.041576e-08 6.893635e-07 -4.457492e-07 2.246498e-07 9.704342e-08 8.807359e-08
8.268310e-08 5.052935e-07 -3.416815e-07 5.237080e-08 -3.695657e-09 2.360096e-08
4.999603e-08 6.620828e-07 -4.630276e-07 2.341857e-07 4.803078e-08 9.505663e-10
3.663648e-08 5.829735e-07 -4.045288e-07 1.482317e-07 9.219887e-09 4.488717e-08
4.001100e-07 6.456004e-08 -1.478944e-07 9.522346e-09 -6.698548e-10 1.460695e-09
-2.046175e-08 4.131657e-07 -2.986743e-07 -4.470365e-08 -2.557655e-07 -3.964527e-08
4.397180e-07 5.947554e-08 -1.828285e-07 7.956485e-08 7.940080e-09 1.125367e-08
8.310036e-07 -8.380528e-07 -9.991545e-08 -1.851845e-08 -2.443994e-07 -9.867075e-07
4.789422e-07 1.377588e-08 -2.082915e-07 7.569092e-08 -4.568042e-09 8.085657e-09
4.965114e-07 1.239045e-08 -2.184114e-07 6.198397e-08 2.025598e-09 1.625257e-08
4.741198e-07 1.107577e-08 -1.650034e-07 3.797926e-08 1.349758e-08 2.478177e-08
4.494677e-07 2.430613e-08 -1.726806e-07 1.188548e-08 5.783417e-09 3.319004e-09
4.568992e-07 1.668794e-08 -1.808837e-07 2.444016e-08 -3.802343e-09 8.699800e-09
1.383278e-06 6.588268e-07 1.225017e-06 3.805894e-06 -1.901035e-07 -5.071693e-07
2.353310e-06 -4.854251e-07 1.876126e-06 3.207154e-06 -8.867141e-07 -2.667502e-07
1.455923e-06 -4.165878e-07 4.668827e-06 4.686429e-06 -9.831632e-08 1.095653e-06
4.898026e-07 6.469331e-07 2.524272e-06 4.010778e-06 -7.450748e-08 2.862360e-08
-1.866394e-05 -1.763592e-05 5.929046e-05 -4.192873e-07 -4.662194e-06 -2.122447e-06
-1.662488e-05 -1.108309e-05 5.208362e-05 -5.453895e-06 -4.740057e-06 3.232757e-06
-2.567256e-05 -1.907441e-05 6.871638e-05 2.044655e-07 3.387534e-06 4.568238e-06
-2.105715e-05 -8.712079e-06 4.650229e-05 3.668935e-06 -1.550817e-05 1.307983e-06
-2.224516e-05 -2.252453e-05 7.020198e-05 4.173651e-07 -2.067123e-06 -3.661693e-06
-2.200259e-05 -2.433694e-05 7.172522e-05 7.877601e-07 -2.505384e-06 -4.292214e-06
-2.156952e-05 -1.932168e-05 6.270968e-05 -5.544391e-07 -1.431706e-06 4.595184e-06
2.194291e-07 6.578526e-07 -6.905676e-07 1.049375e-07 -2.065714e-07 -6.036300e-08
3.861528e-07 6.494526e-07 -7.160555e-07 1.827864e-07 -2.666662e-07 -3.805316e-08
1.017457e-09 6.260893e-07 -4.723828e-07 2.726458e-08 -4.071576e-08 -2.020834e-08
9.175499e-08 7.121730e-07 -5.494043e-07 1.954220e-07 -2.326173e-07 -9.288436e-08
-3.781555e-07 1.289043e-06 -6.792603e-07 -2.043434e-09 5.334584e-08 6.378442e-09
-4.266157e-07 1.358992e-06 -6.823252e-07 -2.174912e-08 2.112340e-07 -1.840228e-08
-4.163577e-07 1.449719e-06 -7.235686e-07 -6.031824e-08 1.080104e-07 2.530460e-10
-4.997784e-07 1.602257e-06 -7.959459e-07 2.704947e-08 7.858967e-08 -1.624724e-08
-4.356741e-07 1.554719e-06 -7.473589e-07 1.791554e-08 3.623947e-07 1.031407e-09
-4.665809e-07 1.600555e-06 -7.393062e-07 4.928750e-08 3.202074e-07 1.230693e-08
6.098496e-07 -8.084799e-07 -3.504702e-07 3.765932e-07 2.667982e-07 -8.836186e-08
-6.929646e-08 4.895947e-07 -2.293311e-07 5.695631e-08 5.251654e-08 6.046822e-08
4.302352e-08 4.375097e-07 -2.408687e-07 1.959736e-08 1.854366e-08 6.421203e-08
3.747743e-06 -1.526771e-06 -7.044912e-07 -1.842900e-07 3.665751e-07 -1.115121e-06
2.509708e-06 -8.950571e-07 -9.020643e-07 -6.948419e-08 3.855582e-07 -3.876348e-07
1.595037e-06 -7.676846e-07 -8.695062e-07 -4.931121e-08 3.578538e-07 -8.809101e-09
-1.056231e-07 5.066856e-07 -2.455945e-07 -2.757543e-08 5.911218e-08 7.871654e-08
2.345812e-06 -7.460504e-07 -7.736027e-07 -5.832275e-07 6.126726e-07 -7.429457e-07
1.724585e-06 -8.790910e-07 -3.686882e-07 -2.893165e-08 3.031795e-07 1.631753e-07
-8.824286e-08 5.714026e-07 -2.261849e-07 1.886056e-08 2.219285e-08 5.735724e-08
-1.795113e-07 7.638640e-07 -4.225488e-07 3.255048e-08 2.764409e-08 4.650456e-08
-3.353500e-07 1.282969e-06 -6.328204e-07 1.170369e-08 2.043555e-07 -2.568552e-09
-6.930693e-08 5.123045e-07 -3.366338e-07 7.325991e-08 1.045778e-07 8.022423e-08
-2.347760e-07 5.241206e-07 -2.556056e-07 4.148027e-09 2.319833e-07 -3.399601e-08
-2.676913e-07 4.090321e-07 -2.518558e-07 -6.097186e-09 4.621438e-07 -4.430599e-08
-8.287195e-08 6.012051e-07 -2.850725e-07 1.092936e-07 1.888916e-07 1.370343e-07
-2.195722e-07 8.409359e-07 -4.257198e-07 -1.884145e-08 2.593569e-08 -4.106761e-08
-7.100812e-08 5.797993e-07 -2.365006e-07 1.029674e-07 1.518893e-07 8.678602e-08
-2.588719e-07 8.970692e-07 -4.565926e-07 -1.312652e-08 2.825074e-08 -3.017209e-08
-2.365078e-07 6.834477e-07 -2.706716e-07 -1.187251e-08 9.853007e-08 -4.730428e-08
-3.468989e-07 1.173273e-06 -5.562806e-07 -7.132928e-08 3.466988e-07 -2.358598e-08
-1.156460e-07 5.916831e-07 -3.165380e-07 1.931404e-08 2.077920e-08 6.263268e-08
6.380700e-07 -9.773341e-08 -2.634832e-07 6.045720e-08 6.278806e-09 1.599680e-08
-2.779764e-07 5.987994e-07 -3.095779e-07 -1.502267e-08 5.468609e-07 -1.367292e-07
-2.289576e-07 8.146032e-07 -3.842747e-07 1.161686e-08 4.814966e-08 2.318349e-08
7.962811e-07 -1.219507e-07 -3.975536e-07 9.737393e-08 1.911391e-08 2.725286e-08
-2.468713e-07 5.203413e-07 -2.439692e-07 -2.656507e-09 2.653145e-07 -6.460972e-08
-2.594870e-07 5.127793e-07 -2.370592e-07 -5.467119e-08 3.747316e-07 -7.238174e-08
6.067197e-07 -1.255987e-07 -2.296300e-07 5.312980e-08 2.746160e-08 1.061645e-07
6.207298e-07 -1.231581e-07 -2.216295e-07 2.028004e-08 6.350907e-09 6.455827e-08
6.126323e-07 -1.014965e-07 -2.251738e-07 2.254233e-08 1.385854e-08 5.818537e-08
6.099734e-07 -1.100521e-07 -2.201294e-07 4.115275e-08 1.527454e-08 1.149910e-07
1.074898e-07 1.058961e-06 -7.612433e-07 -5.320372e-07 1.072335e-07 -6.576025e-08
6.739831e-07 -1.263167e-07 -2.603264e-07 4.317123e-08 9.985108e-09 4.268209e-08
6.529515e-07 -9.918766e-08 -2.725948e-07 7.866224e-08 3.385384e-09 6.224825e-08
6.074404e-07 -1.184591e-07 -2.573909e-07 4.163787e-08 4.435786e-08 1.136716e-07
3.468459e-07 1.383357e-07 -1.866071e-07 -3.476777e-08 -1.434480e-08 2.128982e-08
3.718451e-07 9.512742e-08 -1.616805e-07 -1.270702e-08 -4.027355e-09 6.579243e-09
4.460217e-07 2.334089e-08 -1.572367e-07 -2.728364e-08 -5.703394e-09 1.292866e-08
4.252724e-07 5.125655e-08 -1.896201e-07 -6.018549e-08 -2.863111e-08 2.965093e-08
3.791643e-07 6.843606e-08 -1.428490e-07 0.000000e+00 1.088353e-09 -1.617796e-09
4.743375e-07 4.715572e-09 -2.086735e-07 -7.826373e-08 -1.436389e-08 3.412865e-08
1.092040e-07 3.668435e-07 -2.825584e-07 1.742676e-07 1.327137e-07 1.109918e-07
4.051704e-07 5.919237e-08 -1.438880e-07 -3.985453e-09 -4.408868e-09 2.792124e-09
4.468317e-07 2.182179e-08 -1.488173e-07 -1.182219e-08 -5.573902e-09 3.533010e-09
3.867665e-07 7.152444e-08 -1.405174e-07 -2.688989e-09 7.091254e-10 -2.735701e-10
3.585521e-07 1.030923e-07 -1.695108e-07 -7.982748e-09 -1.405771e-09 9.787319e-09
3.667474e-07 9.862994e-08 -1.650006e-07 -1.202425e-08 2.621214e-10 3.496530e-09
4.659884e-07 1.456502e-11 -1.647167e-07 -3.376004e-08 -1.456905e-08 2.247299e-08
-2.137426e-07 1.142430e-06 -7.559015e-07 1.627985e-07 -3.006141e-08 -4.753765e-08
3.832192e-07 7.813563e-08 -1.525740e-07 -2.473424e-08 -7.903884e-09 8.101572e-09
-3.348881e-07 8.813739e-07 -4.928056e-07 -8.680389e-12 -5.137058e-08 -9.070817e-09
-9.260420e-07 2.821161e-06 -9.303808e-07 6.621279e-07 -1.891315e-08 6.858871e-09
-4.679878e-07 2.565839e-07 -2.743365e-07 1.221337e-07 -8.682273e-07 -1.847266e-07
-4.087194e-07 3.084506e-07 -3.257754e-07 1.551135e-07 -7.762868e-07 -2.436928e-07
-9.260420e-07 3.287521e-06 -8.016604e-07 8.165807e-07 -3.012420e-07 -1.331051e-07
-2.395773e-07 4.507953e-07 -3.730062e-07 8.710980e-09 -6.009042e-07 -2.832790e-07
-5.161838e-08 8.847890e-07 -6.477614e-07 2.067653e-07 -1.314533e-07 -1.392018e-07
-2.471252e-07 4.360812e-07 -3.415726e-07 7.760186e-09 -3.449780e-07 -1.645010e-07
4.093774e-07 5.506656e-08 -1.635760e-07 7.190237e-08 2.894521e-08 3.313086e-08
-6.583112e-07 2.593512e-06 -7.302318e-07 9.762410e-07 -4.679061e-07 -1.407842e-07
3.859845e-08 -8.235225e-08 -2.989057e-07 -4.313266e-09 1.123416e-06 -7.993232e-07
4.395146e-07 5.699977e-08 -2.051690e-07 8.867294e-08 -1.067833e-09 2.575138e-08
5.386915e-07 -6.321044e-08 -1.940393e-07 6.840328e-09 8.160030e-10 4.873204e-09
-1.112814e-06 3.319428e-06 -5.922003e-07 1.450430e-06 -3.132206e-08 1.252503e-08
-8.991279e-07 2.700245e-06 -6.778151e-07 1.498099e-06 -3.406001e-07 -1.814064e-07
1.974215e-08 1.830029e-06 -1.014620e-06 1.163326e-06 -3.724311e-07 -1.610459e-07
-1.491346e-07 6.618516e-07 -2.435369e-07 6.148868e-08 1.681632e-07 6.859783e-08
-5.899612e-07 2.214181e-06 -1.052218e-06 1.070447e-06 -2.301766e-07 3.414863e-08
-6.139418e-07 2.740890e-06 -8.331354e-07 1.174138e-06 -2.699259e-07 -2.373938e-07
-2.844566e-07 1.032638e-06 -5.870943e-07 1.146735e-08 4.058071e-08 -2.938484e-09
6.482011e-07 -6.137940e-06 1.412602e-05 -5.331117e-06 1.735463e-06 -1.480194e-06
-6.034436e-08 8.123809e-07 -4.743575e-07 2.682981e-07 1.169530e-07 6.367798e-08
-5.573566e-06 -3.139656e-06 1.926046e-05 -6.600213e-06 3.879711e-06 -2.030993e-06
1.261429e-06 -2.615914e-06 1.673022e-05 -5.748921e-06 3.637805e-06 -6.125361e-06
1.773123e-07 1.832688e-07 -2.028118e-07 -1.006270e-07 -1.400731e-07 1.476326e-07
2.561031e-07 5.452702e-07 -6.206656e-07 -3.942560e-07 -8.601161e-08 5.628162e-08
-2.987775e-06 -3.192821e-06 1.514622e-05 -7.378337e-06 5.190067e-06 -2.697703e-06
2.913955e-07 1.989614e-07 -2.926547e-07 -1.510435e-07 -8.622180e-08 9.778731e-08
1.922247e-07 2.548849e-07 -1.819438e-07 7.284879e-09 5.524164e-09 1.878313e-08
-2.968131e-06 -5.255005e-06 2.491171e-05 -5.571464e-06 3.271782e-06 -5.035661e-07
2.546853e-07 3.624235e-07 -3.686348e-07 -1.340434e-07 -1.155347e-08 1.945332e-08
2.556601e-07 2.747738e-07 -3.128891e-07 -9.311793e-08 -3.807643e-08 8.486143e-08
-1.155652e-07 7.078476e-07 -4.805425e-07 -9.783319e-08 -7.253271e-08 1.133186e-07
1.185058e-07 7.603500e-07 -6.304057e-07 2.289048e-07 -1.577258e-07 -7.944213e-08
1.162063e-07 8.968732e-07 -7.084324e-07 3.362075e-07 -1.529126e-07 -7.166761e-08
-2.939730e-07 4.091659e-07 -3.042739e-07 -1.746066e-08 -3.824660e-07 -8.824151e-08
-3.143529e-07 8.247115e-07 -3.129743e-07 -7.118750e-09 -3.605753e-08 4.455764e-08
-2.829099e-07 4.380453e-07 -3.143809e-07 6.163948e-09 -3.875969e-07 -1.361977e-07
-2.292249e-07 4.137731e-07 -3.247805e-07 1.016006e-08 -7.275115e-07 -2.900388e-07
2.361476e-07 8.883292e-07 -8.541020e-07 4.598098e-07 -6.731434e-08 -6.549830e-08
-3.304569e-07 3.995930e-07 -2.881269e-07 1.604508e-09 -3.907263e-07 -7.767118e-08
5.424133e-07 7.511823e-07 -9.226840e-07 4.036256e-07 -1.693779e-07 -1.389139e-08
2.565740e-07 3.916145e-07 -5.466454e-07 5.039504e-09 -3.856172e-07 -3.308274e-08
-3.383793e-07 9.015405e-07 -5.709370e-07 -1.055537e-08 -2.585610e-07 1.755202e-08
2.024699e-08 -3.512518e-07 -4.790425e-07 3.209258e-08 5.609251e-07 -3.405183e-07
3.486965e-07 6.906920e-07 -8.605166e-07 1.706008e-07 -9.598875e-08 -4.780726e-08
2.570153e-07 7.123509e-07 -7.524074e-07 8.566687e-08 -8.466674e-08 -1.532086e-10
3.166747e-07 1.561021e-07 -1.540427e-07 4.125054e-08 9.503609e-09 8.663140e-09
2.834960e-07 1.694369e-07 -1.648681e-07 1.918576e-08 6.830055e-10 1.173624e-08
2.908065e-07 1.596902e-07 -1.694242e-07 2.863009e-08 1.092955e-08 1.192315e-08
3.045637e-07 1.542674e-07 -1.535996e-07 1.577909e-08 2.521235e-09 -4.677604e-09
6.011237e-07 -2.263789e-08 -3.137188e-07 -1.361667e-07 -1.039791e-08 3.710382e-09
-2.676913e-07 7.304191e-07 -3.258224e-07 -2.683941e-08 5.756573e-07 -6.398894e-08
9.556880e-08 3.131782e-07 -1.960851e-07 5.906590e-08 7.196250e-08 6.811492e-08
8.195267e-08 4.115565e-07 5.661105e-06 4.888252e-06 3.345738e-07 1.549298e-06
5.573634e-06 -2.532633e-06 1.144099e-06 3.498341e-07 -4.391933e-08 3.714436e-07
5.831462e-07 -1.252347e-08 -2.932991e-07 -1.500811e-07 -2.569291e-08 1.472318e-08
5.247677e-07 -3.604265e-08 -2.203806e-07 -7.670583e-08 -7.000156e-09 2.243254e-08
5.048763e-06 -3.317942e-06 3.532545e-06 2.628647e-06 1.167342e-07 -3.058567e-07
5.546500e-07 -3.262483e-08 -2.262293e-07 -1.036603e-07 -1.341457e-08 5.212640e-08
1.023327e-06 -9.961800e-07 5.635968e-07 8.671847e-07 -7.143239e-07 -1.580415e-06
-2.539175e-08 -4.948490e-07 1.718584e-07 -4.899007e-08 -6.567727e-07 -1.104806e-06
2.189121e-06 -6.727977e-07 -1.182902e-06 9.140461e-07 -3.087281e-07 -2.142834e-07
5.118919e-07 6.573482e-09 -2.053761e-07 -1.019860e-07 -1.939191e-08 4.602499e-08
5.270393e-07 -9.944216e-09 -2.194510e-07 -7.018033e-08 4.534716e-09 1.239432e-08
5.301131e-07 -2.348594e-08 -2.273090e-07 -8.651634e-08 -1.432788e-08 4.226491e-08
-1.725152e-07 1.709536e-06 -1.021181e-06 9.025032e-07 -2.213658e-07 -9.332219e-08
-1.834970e-07 1.238503e-06 -9.724074e-07 7.896088e-07 -2.996086e-07 -1.560526e-07
-8.638310e-09 6.045653e-07 -4.078726e-07 1.199389e-07 -2.041988e-07 -8.416907e-08
-1.495056e-07 7.017123e-07 -4.104619e-07 8.394552e-09 -5.017550e-08 -1.021703e-07
-2.142130e-07 9.073811e-07 -5.956445e-07 3.755683e-08 -4.115775e-08 -1.193441e-07
1.558382e-07 1.234640e-06 -9.737391e-07 7.578737e-07 -2.965473e-07 -1.052849e-07
-7.467488e-08 1.079547e-06 -6.995506e-07 2.769619e-07 2.461450e-09 -3.155423e-08
1.254576e-06 7.799277e-07 1.127603e-06 -3.611531e-06 9.671112e-08 -5.527725e-07
-3.053922e-07 1.658629e-06 -9.658004e-07 8.320286e-07 -3.827173e-07 -8.812751e-08
-3.962088e-07 1.423938e-06 -8.452344e-07 8.551314e-08 -2.823601e-08 -8.567866e-10
1.911689e-06 1.416994e-07 7.445396e-07 -3.245155e-06 -2.972211e-08 4.057550e-07
3.980561e-06 -2.866519e-06 6.415960e-06 -2.959589e-06 -5.475595e-07 9.048414e-07
2.288831e-09 5.545753e-07 -3.327672e-07 6.656441e-08 4.229524e-08 4.870034e-08
1.364608e-06 4.594142e-08 4.032981e-06 -4.493332e-06 -4.498468e-07 -5.471406e-07
1.138650e-06 1.405981e-06 -6.795652e-08 -3.240252e-06 -2.478778e-07 -7.351495e-08
5.302986e-07 1.914607e-06 -7.812453e-07 -2.453908e-06 1.733233e-07 -1.906075e-07
4.294947e-07 6.395203e-08 -1.802493e-07 -6.751509e-08 -1.766747e-08 2.335145e-08
6.470399e-07 -1.115803e-07 -2.740813e-07 -7.823749e-08 -2.109000e-08 9.381045e-08
2.856113e-06 -1.087459e-06 1.708149e-06 -3.410348e-06 6.832707e-08 5.649703e-07
1.348401e-06 -4.917246e-07 4.130479e-06 -4.729093e-06 -1.976874e-07 1.117816e-06
4.981237e-07 -2.986099e-08 -1.637044e-07 -7.489423e-09 -9.916572e-09 7.522037e-09
4.823618e-07 -5.767160e-10 -1.823811e-07 -3.919647e-08 -1.993344e-09 2.412170e-11
4.295775e-07 3.502718e-08 -1.587283e-07 -7.967867e-09 9.960135e-10 -1.587220e-17
-3.736067e-08 4.070782e-07 -2.687864e-07 -6.380332e-08 -1.749226e-07 1.593649e-07
-7.706550e-08 6.011981e-07 -2.843554e-07 -1.608539e-07 -2.430123e-07 1.722645e-07
5.465415e-07 -8.499940e-08 -1.776552e-07 -2.472509e-08 -5.432638e-09 5.207579e-08
5.558827e-07 -7.863256e-08 -1.740616e-07 -5.359322e-09 -9.001629e-09 9.295333e-09
-8.616896e-08 3.734225e-07 -2.686151e-07 -1.120194e-07 -3.336797e-07 2.001192e-07
3.902541e-07 6.947448e-08 -1.561133e-07 -3.766944e-08 1.849944e-09 6.309322e-09
3.962219e-07 5.427068e-08 -1.533256e-07 -1.650790e-08 -3.176059e-09 3.270551e-09
6.469620e-08 5.220979e-07 -3.496668e-07 3.009581e-08 7.635641e-09 3.582874e-08
4.004048e-07 6.185979e-08 -1.443055e-07 -1.149843e-08 -2.268334e-09 4.898110e-09
-4.981887e-08 7.825909e-07 -3.401854e-07 -3.634235e-07 -5.435493e-07 3.139103e-07
-1.152628e-07 5.417148e-07 -2.938823e-07 -6.126136e-08 -1.114065e-07 1.656246e-07
3.938370e-08 6.002834e-07 -4.391490e-07 -2.646449e-07 -3.008670e-07 2.035007e-07
-1.838331e-08 5.084489e-07 -2.740132e-07 -1.170329e-07 -1.824199e-07 1.560990e-07
4.260454e-07 4.662796e-08 -1.504692e-07 -2.340206e-08 -5.050754e-09 9.417035e-09
4.051704e-07 4.686814e-08 -1.433136e-07 -1.079145e-09 -2.761145e-09 3.141605e-09
-6.354219e-08 6.931812e-07 -4.119493e-07 8.192291e-08 5.940888e-08 8.099467e-08
-2.022708e-07 6.911504e-07 -3.836580e-07 6.117428e-08 1.835790e-07 7.310060e-08
-7.010270e-08 6.032044e-07 -2.605541e-07 1.650683e-07 2.827837e-07 1.538662e-07
-1.413683e-08 1.269818e-07 -3.497952e-07 3.117642e-09 -5.132451e-07 -2.076976e-08
6.253943e-07 -1.243151e-07 -1.988708e-07 3.965935e-09 1.293905e-09 5.911646e-08
-8.566625e-08 5.325564e-07 -2.581048e-07 1.319089e-07 2.078271e-07 1.185537e-07
5.996991e-07 -1.068347e-07 -2.007029e-07 -2.772383e-09 -5.538360e-10 8.625582e-09
-1.470163e-07 7.174282e-07 -3.896084e-07 1.444660e-07 2.701594e-07 1.053961e-07
4.659366e-09 5.427074e-07 -2.597986e-07 2.698732e-07 3.112236e-07 1.647688e-07
5.751993e-07 -9.973881e-08 -1.916216e-07 1.769131e-08 9.307303e-09 3.951485e-08
-1.179125e-07 5.791172e-07 -2.616364e-07 3.399481e-08 9.233131e-08 6.199503e-08
5.442463e-07 -7.954039e-08 -1.606351e-07 6.388257e-09 7.210955e-09 1.307977e-08
5.577291e-07 -9.373116e-08 -1.560044e-07 1.376330e-08 4.113507e-09 2.461830e-08
5.697609e-07 -1.259749e-07 -1.878685e-07 -1.269826e-10 -2.757232e-09 6.351286e-08
7.382426e-07 -1.615799e-07 -2.911372e-07 1.178896e-08 3.003514e-09 7.993970e-08
-7.730399e-08 7.268219e-07 -4.393364e-07 4.098996e-08 3.824234e-08 5.588175e-08
1.619134e-08 5.461179e-07 -3.334530e-07 1.248200e-07 1.011211e-07 7.491868e-08
2.852213e-08 4.387487e-07 -2.335393e-07 1.098934e-07 1.148084e-07 6.399166e-08
6.187510e-08 4.502194e-07 -2.950188e-07 2.068805e-07 2.026179e-07 1.093990e-07
-6.969407e-08 4.635216e-07 -2.425757e-07 9.457479e-08 2.189080e-07 9.952849e-08
4.880519e-07 -1.852131e-08 -1.512142e-07 -7.743539e-09 -9.419376e-09 9.165956e-09
5.323643e-07 -5.002812e-08 -1.946484e-07 -2.267662e-08 -1.094252e-08 1.191745e-08
5.238842e-07 -5.621140e-08 -1.579344e-07 -6.145490e-09 -3.442231e-09 1.052109e-08
-1.419260e-07 7.423477e-07 -4.088437e-07 7.861472e-08 5.351000e-08 4.849772e-08
-3.265734e-08 5.037899e-07 -1.982591e-07 6.511570e-08 1.052604e-07 8.650501e-08
3.133412e-07 3.982494e-07 -4.348650e-07 -2.966039e-07 -9.652362e-08 6.281283e-08
5.331481e-07 -4.652540e-08 -2.055314e-07 -3.827980e-08 -1.778009e-08 3.158399e-08
2.655868e-07 2.774863e-07 -3.927309e-07 -2.132422e-07 -9.735240e-08 9.452480e-08
5.696300e-07 -5.595058e-08 -2.139717e-07 -4.092059e-08 -1.889172e-09 3.345466e-09
2.377633e-07 3.593913e-07 -4.461073e-07 -2.751910e-07 -1.738542e-07 1.784794e-07
2.622664e-07 2.648394e-07 -3.685028e-07 -2.025112e-07 -1.150470e-07 1.263729e-07
-1.062751e-07 5.832308e-07 -4.168476e-07 -1.969807e-08 -3.128054e-08 1.545956e-07
-3.024876e-07 1.064742e-06 -5.807951e-07 -3.223123e-08 2.034120e-08 1.379063e-08
2.119479e-06 5.023803e-08 8.649667e-07 3.434696e-06 2.527312e-08 3.016693e-07
-1.063089e-07 5.832308e-07 -2.725254e-07 -1.860206e-08 -3.491826e-08 1.329102e-07
1.963340e-06 6.817182e-07 3.906290e-07 3.396290e-06 -3.732308e-07 -2.915107e-07
-1.609140e-07 4.038205e-07 -2.640085e-07 -1.484819e-08 -4.977287e-08 1.423294e-07
1.095559e-06 1.630544e-06 -7.947509e-07 2.800898e-06 -9.412122e-08 -2.411520e-07
6.246029e-07 1.629907e-06 -1.349454e-07 3.083682e-06 -3.668675e-07 -3.547380e-07
7.338631e-08 8.153475e-07 -5.965789e-07 -5.031152e-07 -3.867371e-07 2.448436e-07
-2.132530e-07 1.142192e-06 -6.998159e-07 -5.515498e-08 -1.149726e-07 1.047492e-07
-1.061491e-07 3.019324e-07 -2.395036e-07 -4.023291e-08 -2.745933e-07 1.935073e-07
-9.913363e-08 1.610239e-06 8.129454e-07 2.956267e-06 -3.622197e-07 -1.399059e-08
-1.446997e-07 9.990380e-07 -6.107705e-07 -3.462911e-08 -2.897232e-08 1.222105e-07
1.308098e-06 4.669734e-07 8.282949e-09 2.809484e-06 -1.268522e-07 -1.381174e-07
2.025863e-07 4.277826e-07 -3.444756e-07 -2.983726e-07 -2.569887e-07 2.105846e-07
1.628335e-08 4.753175e-07 -2.914606e-07 -6.693032e-08 -6.207228e-08 1.346729e-07
5.629406e-07 -8.582407e-08 -1.821172e-07 2.940298e-08 1.301443e-08 5.269345e-08
-1.241192e-07 3.105531e-07 -2.261494e-07 -3.608317e-08 -2.637190e-07 1.960499e-07
3.822298e-07 6.728544e-08 -1.389006e-07 -2.227946e-09 1.102179e-09 2.267537e-10
5.115858e-07 -4.459392e-08 -1.854395e-07 4.929103e-08 1.569481e-08 4.249791e-08
5.477722e-07 -8.635650e-08 -1.680155e-07 3.603946e-08 1.511641e-08 5.061373e-08
5.613604e-07 -8.511620e-08 -1.672450e-07 4.247186e-08 1.617172e-08 5.767430e-08
5.808142e-07 -6.702117e-08 -2.036183e-07 5.790422e-08 1.322405e-08 4.827842e-08
5.568423e-07 -8.511451e-08 -1.757012e-07 4.230944e-08 1.622370e-08 6.690038e-08
5.538108e-07 -8.398683e-08 -2.043200e-07 2.622162e-08 2.107999e-09 3.244011e-08
5.320297e-07 -5.778056e-08 -1.624635e-07 1.968533e-08 1.426308e-08 3.028967e-08
5.378818e-07 -7.830094e-08 -1.563222e-07 2.452181e-08 6.333701e-09 3.430802e-08
5.330051e-07 -6.919032e-08 -1.657465e-07 1.436658e-08 8.646197e-09 1.334048e-08
5.146355e-07 -5.748628e-08 -1.649093e-07 5.088053e-08 1.891697e-08 4.549536e-08
-3.041849e-07 1.282036e-06 -7.517587e-07 -4.256083e-08 -1.706052e-07 6.636750e-08
2.729298e-07 2.669261e-07 -2.979571e-07 -1.079438e-07 -4.121831e-08 1.943324e-08
-2.781732e-07 1.322398e-06 -7.897136e-07 -5.955976e-08 -7.989644e-16 6.707247e-09
-6.432094e-07 1.928451e-06 -9.953731e-07 -1.019764e-07 -2.983423e-07 2.341536e-08
3.099811e-07 1.702224e-07 -2.054055e-07 -8.192689e-08 -3.391563e-08 5.228967e-08
3.138245e-07 2.567005e-07 -3.282326e-07 -1.324675e-07 -2.358950e-08 6.050299e-08
-4.020569e-07 1.469370e-06 -8.587937e-07 -3.777622e-08 -1.882008e-09 2.844666e-08
3.098537e-07 1.358432e-07 -1.551039e-07 -3.357045e-08 -1.368024e-08 2.457183e-08
3.404138e-07 1.588052e-07 -2.126020e-07 -6.533800e-08 -5.923299e-09 2.234598e-08
3.299581e-07 1.553733e-07 -1.989151e-07 -3.997274e-08 -3.795430e-09 1.533512e-08
-7.445406e-07 2.507866e-06 -9.097476e-07 -7.165148e-07 6.156447e-07 -2.177954e-07
2.697104e-07 2.031179e-07 -2.019523e-07 -1.058829e-07 -6.541483e-08 1.151407e-07
2.371035e-06 -3.952925e-07 -1.258568e-06 -1.147314e-06 1.519027e-07 -1.658407e-07
2.424642e-06 -6.439279e-07 -1.158625e-06 -6.736215e-07 1.794593e-07 -3.082105e-07
-1.189514e-06 2.644527e-06 -7.173085e-07 -8.117045e-07 5.225931e-07 -3.826933e-08
-2.656595e-07 7.230058e-07 -4.141656e-07 2.836751e-08 3.625318e-07 -3.802216e-08
-2.470717e-07 1.459174e-06 -7.913452e-07 -5.641716e-07 3.427472e-07 -1.657050e-07
2.457587e-06 -1.807239e-07 -1.536065e-06 -5.930350e-07 1.454694e-07 1.818378e-08
-2.718399e-07 7.888643e-07 -4.286915e-07 -4.640015e-08 1.878163e-07 -2.631668e-08
-2.762329e-07 1.081136e-06 -5.875362e-07 -2.672081e-07 3.965791e-07 -1.016784e-07
2.832295e-06 -4.913679e-07 -1.532283e-06 -5.184540e-07 3.099970e-09 -3.642442e-08
-2.073979e-07 5.447182e-07 -2.282207e-07 -6.269518e-09 1.617348e-07 -7.602387e-08
5.757446e-07 1.093091e-07 -3.443358e-07 -2.672226e-07 -3.163537e-08 4.596642e-08
3.346664e-06 -9.135980e-07 -1.125677e-06 -1.342364e-06 -1.532042e-08 -1.887990e-07
4.508538e-07 1.826979e-07 -3.139493e-07 -2.451400e-07 -7.507162e-08 8.024650e-08
-1.471136e-07 8.418261e-07 -4.870587e-07 3.667054e-08 7.564087e-08 4.473258e-08
-1.452718e-07 7.224800e-07 -3.485039e-07 7.032738e-08 1.064369e-07 7.530404e-08
5.360442e-07 -1.028997e-07 -1.940818e-07 -4.416716e-08 -3.045377e-08 1.058262e-07
4.678941e-07 -8.864972e-09 -1.723588e-07 -6.376747e-08 -3.534330e-08 5.455887e-08
6.017550e-07 2.744078e-08 -3.500992e-07 -2.298471e-07 -4.941612e-08 2.497147e-08
-2.169345e-07 7.344922e-07 -4.133661e-07 1.991441e-07 3.264587e-07 5.917981e-08
8.789999e-07 4.375201e-07 -1.027094e-06 -8.498171e-08 3.610623e-07 -7.953356e-08
-4.707271e-08 1.712083e-06 -8.729862e-07 -1.326098e-06 3.804417e-07 -2.547967e-07
5.985941e-07 9.502902e-08 -5.241934e-07 -3.960227e-07 6.767008e-07 -3.719548e-07
-1.436439e-07 6.938413e-07 -2.468877e-07 1.441562e-07 3.113583e-07 1.328606e-07
-1.616540e-07 6.255740e-07 -2.649177e-07 9.091615e-08 1.387118e-07 8.446366e-08
9.933867e-08 1.083660e-06 -7.448846e-07 -5.219208e-07 2.240927e-07 -9.911571e-08
-9.779328e-08 1.086710e-06 -8.354732e-07 -5.530285e-07 2.297419e-07 -7.967642e-08
2.005364e-07 1.843647e-06 -6.848656e-07 -1.964211e-06 4.488222e-07 -2.561437e-07
4.923058e-07 1.825792e-06 -9.524122e-07 -1.858432e-06 5.517661e-07 -3.188483e-07
-2.849957e-07 9.296561e-07 -5.403012e-07 1.453858e-07 3.042554e-07 5.793115e-08
4.516175e-07 1.523653e-06 -1.044037e-06 -1.263441e-06 1.339973e-07 -6.712489e-08
8.264799e-07 1.074438e-06 -1.130328e-06 -1.107715e-06 1.309118e-07 -9.923394e-08
-9.682175e-08 9.123774e-08 -2.922989e-07 7.872114e-09 6.072148e-07 -3.389477e-07
-2.598266e-07 9.800879e-07 -4.401668e-07 9.587210e-08 3.052165e-07 3.375797e-08
-1.624335e-07 4.321442e-07 -2.617076e-07 6.657363e-08 2.435787e-07 1.093732e-07
-2.559886e-07 8.962653e-07 -4.946519e-07 2.142235e-09 9.459012e-08 6.062956e-10
2.340663e-08 1.255912e-06 -8.786805e-07 -1.376121e-06 5.528730e-07 -3.031095e-07
-1.685963e-07 1.896859e-06 -6.412564e-07 -1.828508e-06 3.140843e-07 -1.765550e-07
-7.498350e-07 2.396782e-06 -8.518902e-07 -2.112620e-08 -3.651496e-07 1.184667e-08
-2.303272e-06 4.602540e-06 1.623845e-07 1.488531e-07 -6.232110e-07 7.273523e-08
-2.060490e-07 6.800155e-07 -3.324805e-07 1.861250e-08 1.075644e-07 4.733272e-08
-1.150955e-06 2.972302e-06 -8.871033e-07 -2.944085e-07 -7.022907e-08 -2.876944e-08
-2.095684e-07 6.682629e-07 -2.381672e-07 6.478057e-08 1.622482e-07 6.323062e-08
-2.165347e-07 5.553279e-07 -3.408622e-07 -5.099009e-08 4.152220e-07 1.612976e-07
-3.136546e-07 9.116918e-07 -3.312660e-07 1.397492e-07 5.744800e-07 1.004174e-07
-1.904607e-07 6.855603e-07 -2.348408e-07 4.510625e-08 1.718700e-07 5.486048e-08
7.338631e-08 9.019711e-07 -7.956767e-07 -6.450583e-07 -3.096816e-07 1.607340e-07
-4.358370e-07 2.450406e-06 -8.027027e-07 -1.866632e-06 -8.049294e-07 3.111816e-07
2.105491e-08 2.448819e-06 -8.610844e-07 -1.927631e-06 -3.341947e-07 2.022752e-07
6.634879e-08 1.253531e-06 -8.822318e-07 -1.129174e-06 -4.494993e-07 2.694820e-07
-3.055521e-07 8.442549e-07 -4.967857e-07 7.450303e-08 3.881012e-07 7.824783e-08
2.497072e-06 -7.890167e-07 -8.541864e-07 -6.141719e-07 -1.329304e-07 6.762519e-07
-2.105993e-07 6.414189e-07 -3.036409e-07 2.391550e-07 4.830003e-07 4.703166e-08
2.980973e-06 -8.912585e-07 -7.913075e-07 -9.238153e-07 -4.221470e-08 4.337436e-07
1.305381e-06 -2.890307e-07 -5.660324e-07 -1.033499e-07 -2.236205e-08 1.642966e-07
1.276903e-06 -2.433486e-07 -6.428542e-07 -2.185548e-07 -4.720582e-08 7.154926e-08
1.323342e-06 -2.844831e-07 -5.666637e-07 -5.446588e-08 -4.953302e-09 1.666534e-07
-1.272664e-07 8.006029e-07 2.269444e-06 3.813815e-06 8.347575e-08 3.098039e-07
7.949640e-07 -1.145979e-07 -3.761592e-07 -1.674850e-07 -5.097717e-08 1.099142e-07
9.636373e-07 -1.566516e-07 -4.934091e-07 -1.655594e-07 -1.946021e-08 4.582694e-08
1.180342e-06 -2.835792e-07 -5.989294e-07 -3.198970e-07 -2.917372e-08 6.030591e-08
-2.495354e-06 2.302925e-06 3.510831e-06 4.165913e-06 -2.824279e-07 6.093472e-07
1.114218e-06 -2.757375e-07 -5.815962e-07 -1.428059e-07 7.638564e-09 3.800428e-08
-1.973244e-06 3.440455e-06 1.557123e-06 3.178055e-06 5.441137e-07 8.447134e-08
1.314948e-06 -3.844607e-07 -6.428542e-07 -2.166728e-07 -2.541005e-08 8.257950e-08
9.032338e-07 -8.761480e-09 -6.040869e-07 -4.550562e-07 2.099656e-09 7.863481e-08
1.634434e-06 -1.839211e-07 -8.490566e-07 -9.359775e-07 -1.851661e-07 3.136697e-07
7.050203e-07 5.185154e-08 -4.043588e-07 -3.237763e-07 -4.411699e-08 8.509488e-08
-7.452684e-08 2.007195e-06 3.385162e-06 3.716718e-06 -6.027690e-07 -1.143512e-06
-2.601208e-06 3.104086e-06 5.147627e-06 3.669267e-06 -1.119691e-06 -1.049154e-06
-1.359200e-06 3.184966e-06 1.781410e-06 3.094704e-06 -1.413281e-07 -4.957757e-09
-1.083042e-06 2.378182e-06 5.743468e-06 4.418378e-06 -9.790461e-07 -5.613558e-08
2.115108e-07 3.416978e-07 -2.984843e-07 1.615778e-07 4.175070e-08 3.928970e-08
7.894791e-07 -4.055227e-08 -4.513473e-07 3.389847e-07 1.751540e-08 6.885962e-08
1.295682e-06 -2.741035e-07 -6.911939e-07 4.876264e-07 6.618779e-08 2.623296e-07
2.609242e-07 2.199602e-07 -1.874639e-07 1.165437e-07 3.536666e-08 4.250416e-08
5.262048e-07 -2.714708e-08 -2.121796e-07 6.393576e-08 5.310494e-09 1.703309e-08
1.977942e-07 3.422617e-07 -2.356254e-07 1.264068e-07 5.986865e-08 5.544704e-08
6.490560e-07 1.536535e-08 -3.698879e-07 2.686928e-07 1.804975e-08 2.032680e-08
5.423644e-07 8.438154e-09 -2.880142e-07 1.548552e-07 7.324871e-09 6.135084e-08
2.731492e-07 2.838225e-07 -2.525896e-07 1.668366e-07 5.464245e-08 4.462097e-08
8.651195e-07 -7.784146e-08 -4.982950e-07 2.770318e-07 1.197618e-08 6.310079e-08
5.875092e-07 -8.513090e-08 -2.154910e-07 7.491735e-09 4.414021e-09 1.370589e-08
1.875551e-07 2.940213e-07 -2.573295e-07 8.156456e-08 3.885908e-08 3.287456e-08
2.538906e-07 2.278571e-07 -2.036813e-07 7.365015e-08 2.369821e-08 4.042114e-08
2.657028e-07 2.872004e-07 -3.209306e-07 1.810083e-07 2.824916e-08 1.935680e-08
1.818161e-06 -1.862187e-06 5.022244e-06 -4.693759e-06 -1.596660e-07 4.307215e-07
2.654453e-06 -3.002112e-06 7.723037e-06 -4.841349e-06 -6.995500e-07 2.058838e-06
2.121247e-06 -4.917246e-07 2.047423e-06 -4.079273e-06 2.117535e-07 -2.917044e-07
1.728985e-06 4.594142e-08 1.724453e-06 -4.083550e-06 -8.361890e-07 5.053856e-07
5.933969e-07 -1.217938e-07 -1.901921e-07 -4.007878e-08 4.029182e-09 1.095722e-07
-1.529166e-06 7.227501e-07 7.635397e-06 -5.254666e-06 2.800860e-07 1.175206e-07
5.994482e-07 -1.193893e-07 -1.906137e-07 -2.205658e-08 -5.780053e-09 5.519360e-08
5.822661e-07 -1.058755e-07 -1.599625e-07 -1.010332e-08 -4.304940e-09 3.995682e-08
1.212402e-06 8.137663e-07 1.984132e-06 -4.463372e-06 -6.845342e-07 3.535174e-07
1.741818e-07 -4.917246e-07 7.221963e-06 -5.165922e-06 2.107962e-07 1.382608e-08
-4.151184e-08 7.040017e-07 -4.178316e-07 4.483782e-08 8.368538e-16 1.903742e-09
-1.146206e-07 8.325960e-07 -4.768183e-07 4.352404e-08 -7.586117e-16 1.488458e-09
6.278406e-07 -4.762377e-07 6.747573e-06 -5.114637e-06 -2.763239e-06 1.605857e-06
6.310446e-07 -1.164395e-07 -2.068772e-07 -4.808350e-09 1.337841e-09 5.441667e-08
2.679373e-06 -1.087459e-06 2.796012e-06 -3.719669e-06 2.540626e-07 -2.878223e-07
2.950171e-07 6.739900e-07 -6.051954e-07 6.676401e-07 2.348022e-07 1.486086e-07
5.730062e-07 -1.236367e-07 -1.887040e-07 -5.456579e-09 -3.009214e-09 6.131594e-08
-2.758191e-08 1.868470e-06 -8.396292e-07 1.805490e-06 3.349206e-07 2.197850e-07
-2.678953e-08 4.163608e-07 -2.762603e-07 3.727290e-08 2.662799e-07 -3.085195e-08
3.366414e-07 7.601579e-07 -6.568754e-07 7.268041e-07 3.794724e-08 4.632739e-08
7.792287e-07 4.594112e-07 -7.185207e-07 9.157914e-07 2.099978e-07 2.191040e-07
4.564056e-07 9.862536e-07 -8.148402e-07 1.127083e-06 3.318728e-08 6.067413e-08
5.813359e-07 -1.139051e-07 -1.582970e-07 -7.066799e-09 -4.288359e-09 4.055327e-08
1.270655e-07 5.142156e-07 -5.086867e-07 -2.492931e-07 -1.199242e-07 1.410930e-07
-2.549829e-07 1.863776e-06 -8.451941e-07 1.343121e-06 1.786987e-07 3.589688e-08
1.167008e-07 6.887425e-07 -6.065543e-07 -3.487617e-07 -3.022400e-08 -3.169765e-09
2.950171e-07 6.850722e-07 -7.557913e-07 8.215307e-07 2.683157e-07 2.159386e-07
4.186679e-07 9.031858e-07 -7.726319e-07 1.065166e-06 3.331867e-07 2.151492e-07
9.080983e-08 4.709456e-07 -3.651662e-07 -1.061299e-07 -6.568109e-08 1.047232e-07
-4.920604e-06 4.399515e-06 3.885633e-06 -2.115676e-08 3.023162e-07 5.129325e-07
1.126889e-06 -6.062391e-08 -6.820118e-07 6.464611e-07 5.553444e-08 8.170228e-08
-5.299128e-06 4.453577e-06 6.829042e-06 2.498874e-06 -1.945363e-06 -8.160589e-07
1.187397e-06 -6.121934e-08 -7.583865e-07 7.101314e-07 6.347046e-09 1.082681e-07
1.149228e-06 -1.428332e-07 -6.839164e-07 4.658012e-07 8.644333e-08 2.984609e-07
-3.137447e-06 5.116500e-06 2.713314e-06 1.190983e-06 4.448707e-07 -2.583798e-07
1.143883e-06 -2.431823e-07 -6.000221e-07 3.545454e-07 3.377523e-08 5.940133e-08
8.710004e-07 -7.463506e-08 -5.288447e-07 3.238126e-07 5.552943e-08 1.840709e-07
-3.135395e-06 4.091458e-06 2.044254e-06 1.165894e-06 -3.867362e-07 -2.748651e-07
9.893309e-07 -1.832028e-07 -4.440505e-07 9.143042e-08 2.051203e-08 1.008824e-07
9.583755e-07 -1.432073e-07 -5.215477e-07 2.772845e-07 -3.423044e-09 4.955150e-08
-2.342858e-06 4.466597e-06 5.765852e-07 5.690122e-08 8.185397e-07 -2.172750e-08
5.826468e-07 -4.423341e-08 -2.753011e-07 1.361126e-07 3.940876e-09 2.510274e-08
1.017312e-06 -2.372854e-07 -5.242050e-07 2.544742e-07 4.500272e-08 1.748857e-07
1.181647e-06 -3.566752e-07 -6.096553e-07 2.244178e-07 2.203913e-08 2.270757e-07
1.042162e-06 -1.455886e-07 -5.780451e-07 3.577522e-07 4.701612e-08 8.129210e-08
-3.161788e-06 4.185850e-06 1.026755e-06 9.609788e-07 -2.600314e-07 1.097884e-07
3.557477e-07 1.101533e-07 -1.526553e-07 4.084329e-08 4.891078e-09 2.299701e-09
-3.071279e-06 9.598184e-07 1.126479e-05 -5.432219e-06 -3.451082e-08 9.659993e-08
-3.673419e-06 4.190260e-06 6.937312e-06 -2.137650e-06 1.858529e-06 1.647346e-08
3.582736e-07 1.149896e-07 -1.622641e-07 5.120090e-08 4.037839e-09 -6.564080e-10
-3.046112e-07 3.133530e-07 -3.322288e-07 -5.322722e-09 -9.981598e-07 3.164810e-08
3.722837e-07 8.936726e-08 -1.582729e-07 5.497977e-08 6.689094e-09 9.717529e-09
3.923633e-07 8.767029e-08 -1.677488e-07 5.160239e-08 7.600590e-09 1.065480e-08
7.549351e-07 1.467344e-06 -5.663031e-07 2.540558e-06 1.896854e-07 1.282587e-07
3.907304e-07 8.369544e-08 -1.871919e-07 7.274720e-08 8.525923e-09 5.096805e-09
8.866266e-07 1.218902e-07 -6.674275e-07 6.818112e-07 1.850695e-09 1.027430e-07
3.271697e-07 1.428016e-07 -1.789293e-07 5.756486e-08 2.009607e-08 2.682900e-08
3.767477e-07 9.143307e-08 -1.483920e-07 2.016221e-08 4.874357e-09 1.674387e-09
3.789347e-07 7.852226e-08 -1.545685e-07 3.356020e-08 2.841283e-09 -9.779604e-10
5.823726e-08 1.463725e-06 -8.424355e-07 1.195638e-06 3.008758e-07 1.661180e-07
6.258811e-07 1.051339e-06 -8.803238e-07 1.564793e-06 4.087464e-07 2.203845e-07
5.979261e-07 8.313487e-07 -8.401028e-07 1.221842e-06 1.419042e-07 7.482195e-08
2.218962e-06 -4.828876e-07 -8.980626e-07 -6.251321e-07 -9.364672e-08 1.735855e-07
3.446530e-06 -1.604919e-06 1.807748e-07 1.795537e-06 2.089676e-07 5.411770e-07
-1.099662e-07 8.512796e-07 -6.460873e-07 1.520260e-07 -1.169849e-07 -8.341861e-08
-3.139131e-07 8.279613e-07 -5.981057e-07 1.349997e-07 -3.963767e-07 -1.407401e-07
1.171181e-06 -2.988709e-07 -5.800834e-07 6.282143e-08 5.515075e-09 1.394559e-07
2.813992e-06 -7.884074e-07 -5.965931e-07 -6.739313e-07 -9.400670e-08 3.740288e-07
1.263198e-06 -1.237904e-07 -8.123328e-07 -1.177898e-06 -2.409959e-07 4.136722e-07
1.786690e-06 -5.479587e-07 -8.286883e-07 -1.453915e-07 4.862232e-10 1.769753e-07
1.578149e-06 -6.109634e-07 -7.398593e-07 -2.080711e-07 -1.280307e-08 3.111261e-07
-1.137990e-08 9.531050e-07 -7.288578e-07 3.580505e-07 -1.722503e-07 -5.387482e-08
7.299158e-07 -1.369594e-07 -2.915591e-07 1.394526e-09 5.343152e-09 7.608985e-08
2.287670e-07 2.157754e-07 -1.552707e-07 5.803902e-08 3.114359e-08 3.166786e-08
-2.074889e-07 1.203663e-06 -9.093743e-07 4.341763e-07 -2.375144e-07 -1.361302e-07
1.584710e-06 -1.201127e-07 1.289584e-07 -2.654383e-06 -1.357191e-07 1.924492e-07
-1.477400e-07 1.231700e-06 -6.851314e-07 3.661600e-07 -2.828985e-07 -1.694158e-07
9.871659e-09 1.175851e-06 -7.928991e-07 4.164272e-07 -9.480258e-08 -8.186710e-08
1.717914e-06 -4.422330e-07 -8.029807e-07 -3.463109e-07 -2.472968e-08 1.814762e-07
-7.410518e-08 1.201899e-06 -8.129204e-07 4.160776e-07 -8.345538e-08 -3.623138e-08
-7.539625e-08 1.669838e-06 2.484324e-07 2.972808e-06 1.188220e-07 2.105965e-07
2.093642e-06 -7.060171e-07 -5.605393e-07 -1.147225e-06 -1.690295e-07 3.405169e-07
-1.265974e-06 1.701149e-06 5.829328e-06 5.022764e-06 -1.454597e-07 1.049230e-06
3.220672e-07 1.357426e-07 -1.456680e-07 2.309453e-08 2.545163e-09 2.693770e-09
-6.299057e-06 -5.043644e-06 3.655576e-05 6.074625e-06 2.401004e-06 4.830679e-06
3.063797e-07 1.499406e-07 -1.548070e-07 2.663876e-08 5.046844e-09 5.993651e-09
1.944324e-06 -4.291606e-07 -7.726376e-07 5.824675e-07 8.530323e-08 3.324823e-07
3.123854e-07 1.462149e-07 -1.456999e-07 1.750850e-08 3.205779e-09 1.376258e-09
2.497055e-06 -1.080860e-06 -9.418818e-07 -1.864986e-07 -1.326509e-08 2.053014e-07
2.331865e-07 2.172270e-07 -1.649437e-07 7.323085e-09 4.434418e-09 1.025534e-08
1.461564e-06 1.120773e-07 -8.687885e-07 1.174419e-06 1.421278e-07 3.160617e-07
7.842423e-07 1.819903e-07 -7.950718e-07 9.866708e-07 2.701430e-07 3.339299e-07
2.188381e-08 6.576084e-07 -5.585238e-07 -2.954764e-07 -3.138066e-07 2.750209e-07
4.523370e-06 -1.477949e-06 1.807747e-07 2.515383e-06 1.524116e-07 4.956424e-07
-1.899486e-08 7.101756e-07 -5.698349e-07 -1.696659e-07 -1.133287e-07 7.481735e-08
2.466546e-08 7.416840e-07 -5.679955e-07 -5.644625e-08 -1.061310e-08 5.192926e-08
1.427869e-07 5.541835e-07 -5.095388e-07 -3.110497e-07 -1.918932e-07 2.146248e-07
1.666237e-06 -4.416582e-07 6.621150e-07 2.795780e-06 1.386205e-07 2.673797e-07
1.263871e-07 3.653817e-07 -2.934502e-07 9.961283e-08 5.503151e-08 4.765922e-08
3.676512e-06 -1.021019e-06 5.599447e-07 2.709233e-06 6.528858e-07 3.117150e-07
2.521975e-06 -6.620049e-07 -3.138900e-07 1.882165e-06 6.263246e-08 3.313911e-07
-6.212968e-08 1.092963e-06 -8.169970e-07 -5.175920e-07 1.888568e-07 -1.086461e-07
-1.279250e-07 7.913494e-07 -4.251285e-07 -3.109492e-08 1.085673e-08 -3.188888e-08
-1.347329e-07 8.683849e-07 -6.658221e-07 -3.070607e-07 1.602790e-07 -3.372410e-08
-1.617987e-07 7.870740e-07 -4.299905e-07 -2.602439e-08 2.363879e-08 -5.724516e-08
-2.260426e-07 5.403865e-07 -2.449038e-07 3.959726e-09 2.913305e-07 -8.240758e-08
-1.621624e-07 8.306952e-07 -4.488697e-07 -1.625843e-07 1.702768e-07 -1.000189e-07
-6.848760e-08 1.356565e-06 -9.431994e-07 -7.200052e-07 3.818070e-07 -2.135690e-07
6.085543e-08 6.667068e-07 -5.206833e-07 -9.284593e-08 5.604060e-08 -1.370267e-08
9.636546e-08 6.197966e-07 -4.843246e-07 -2.744611e-08 1.512861e-07 -2.224395e-08
2.025763e-07 3.306999e-07 -2.749836e-07 1.384909e-07 2.708854e-08 4.976212e-08
-3.168221e-09 3.099059e-07 -2.952611e-07 7.354803e-09 3.566654e-07 -1.286772e-07
-2.074413e-07 9.143378e-07 -5.499282e-07 8.612663e-08 3.564022e-08 2.210570e-08
-2.518069e-07 7.372261e-07 -3.104707e-07 2.937372e-08 5.586039e-07 7.283463e-09
2.785784e-07 2.278693e-07 -1.839671e-07 7.302782e-08 2.428462e-08 1.824115e-08
-1.956768e-07 4.412576e-07 -2.406060e-07 5.526247e-08 3.533004e-07 9.232087e-08
-2.499237e-07 7.286497e-07 -4.149353e-07 -1.480314e-08 1.226791e-07 -4.047252e-08
-2.387598e-07 5.078977e-07 -2.744865e-07 4.895073e-08 2.876630e-07 3.182281e-09
2.104435e-07 3.406390e-07 -3.030659e-07 1.605147e-07 2.634497e-08 2.399627e-08
-2.559883e-07 8.384493e-07 -3.824547e-07 1.240848e-09 4.174453e-08 -1.735696e-09
-2.598159e-07 4.248536e-07 -2.200613e-07 1.061409e-08 4.614724e-07 -8.334052e-10
-3.289092e-07 9.523887e-07 -4.026843e-07 -1.322255e-09 2.896721e-07 3.555442e-08
5.240116e-07 -2.506677e-08 -1.767483e-07 -6.018623e-08 -1.940571e-08 5.812480e-08
1.413268e-07 3.867187e-07 -2.507189e-07 5.380811e-08 3.374013e-08 4.654441e-08
2.176617e-07 2.810214e-07 -2.285598e-07 9.692638e-08 4.536394e-08 6.630285e-08
2.193459e-07 2.760619e-07 -2.026194e-07 1.294189e-08 9.809081e-09 1.115694e-08
-3.020624e-07 1.199879e-06 -7.462571e-07 -1.378690e-07 -1.531287e-07 5.440990e-08
-4.959702e-07 1.859381e-06 -9.453514e-07 -5.307197e-07 -3.749216e-07 1.658716e-07
-4.589097e-07 1.565696e-06 -8.672903e-07 -3.096044e-07 -2.869892e-07 5.713626e-08
-4.488785e-07 1.703436e-06 -8.796592e-07 -7.593745e-08 -9.119764e-08 2.507343e-08
-5.092743e-07 1.598939e-06 -6.947718e-07 -8.889847e-08 -6.507356e-07 1.460818e-07
7.313149e-07 -1.168758e-07 -3.146700e-07 1.008910e-07 1.111440e-08 5.153885e-08
6.121352e-07 -1.969976e-08 -3.126875e-07 1.766233e-07 7.310006e-09 1.265740e-08
5.706302e-07 -9.854190e-08 -1.825591e-07 2.393683e-09 2.732370e-09 1.109014e-08
-5.208965e-07 1.867413e-06 -9.725924e-07 -5.879352e-07 -8.046296e-08 -2.231338e-08
-6.333620e-07 2.099124e-06 -9.576097e-07 -6.003674e-08 -1.868819e-07 4.679714e-08
-7.278529e-07 2.047490e-06 -9.981336e-07 -2.706116e-07 -1.606091e-07 6.562402e-08
5.573303e-07 -8.727877e-08 -1.772069e-07 6.961811e-09 9.557769e-09 1.105792e-08
1.005180e-06 -6.847975e-07 -4.274493e-07 5.165849e-08 -4.082576e-07 1.230223e-07
2.591920e-06 -8.062132e-07 -4.116069e-07 7.062402e-07 -3.594558e-07 -3.797317e-07
1.407702e-06 -6.867772e-07 -7.489867e-07 7.479515e-08 -3.794838e-07 -4.683473e-07
7.187132e-07 -6.775085e-07 -3.760891e-07 -4.489719e-07 -3.574605e-07 -1.265712e-07
6.113692e-07 -1.468487e-07 -2.251350e-07 3.219834e-08 7.305670e-09 1.016298e-07
1.511988e-06 -6.795199e-07 -5.963722e-07 2.797323e-07 -5.639650e-07 -8.695142e-07
6.114613e-07 -5.730405e-07 -4.161613e-07 -3.482020e-07 -5.810765e-07 -1.070346e-07
2.443006e-06 -8.522340e-07 -9.389737e-07 3.510910e-07 -3.982292e-07 -5.044836e-07
3.350383e-06 -1.058101e-06 -8.225590e-07 8.232651e-07 -2.657334e-07 -8.320162e-07
-1.307795e-07 1.306244e-06 -7.817276e-07 -7.070200e-07 -2.540357e-07 1.795504e-07
4.503487e-07 2.290777e-07 -3.771923e-07 3.643219e-07 7.586507e-08 2.884881e-08
-2.589565e-07 1.644408e-06 -9.132326e-07 -1.050586e-06 -2.719692e-07 1.691780e-07
1.694759e-07 9.787977e-07 -8.227948e-07 -7.617870e-07 -9.833779e-08 1.660421e-07
3.953830e-07 7.844468e-08 -1.621139e-07 7.556297e-08 1.658322e-08 1.623622e-08
3.540867e-07 1.115614e-07 -1.549412e-07 5.854296e-08 9.620812e-09 1.388914e-08
3.658276e-07 1.159997e-07 -1.806240e-07 8.306444e-08 1.005144e-08 -2.839521e-09
1.932242e-07 8.067971e-07 -7.614769e-07 -7.057111e-07 -2.587742e-07 9.450513e-08
3.404374e-07 1.403694e-07 -1.423159e-07 2.232551e-08 5.903077e-09 6.538262e-09
3.575995e-07 1.649425e-07 -2.586628e-07 1.626415e-07 9.254450e-09 4.832063e-08
3.585458e-07 9.960775e-08 -1.622306e-07 4.161283e-08 -3.491544e-09 4.704127e-09
3.653291e-07 1.115003e-07 -1.529874e-07 5.939935e-08 8.687377e-09 7.557834e-09
4.085399e-07 5.309841e-08 -1.443953e-07 2.686863e-08 9.978751e-09 8.539321e-09
4.238953e-07 3.765850e-08 -1.636498e-07 8.724440e-09 7.957085e-09 3.973299e-09
4.673549e-07 5.863859e-08 -2.304255e-07 1.491100e-07 2.126835e-08 5.153100e-08
3.840726e-07 6.973419e-08 -1.428490e-07 -3.103225e-09 5.889618e-10 2.704377e-10
1.443367e-07 9.688573e-07 -8.815778e-07 -8.690818e-07 -1.473057e-07 9.213584e-08
4.224825e-07 2.751400e-07 -5.472728e-07 -4.053722e-07 -5.373905e-08 5.494180e-08
5.428493e-07 2.580600e-07 -4.285930e-07 -3.989572e-07 -7.077396e-08 6.666049e-08
3.722145e-07 2.451758e-07 -3.772825e-07 -2.499138e-07 -3.713753e-08 9.941060e-08
4.332686e-07 1.774734e-07 -4.358977e-07 -2.883089e-07 -4.997902e-08 8.367926e-08
3.706826e-07 8.128953e-08 -1.527696e-07 -5.074900e-09 -2.786659e-10 5.414055e-09
-1.023839e-05 -1.385705e-05 4.377436e-05 -5.691807e-06 -2.943319e-06 7.525486e-06
4.086231e-07 -9.643293e-06 1.831213e-05 -3.648413e-06 -1.706959e-06 1.037044e-05
2.484410e-06 -1.055737e-05 2.111947e-05 4.002655e-06 2.050023e-06 4.772791e-06
-1.093292e-06 -1.049899e-05 2.806500e-05 -5.332870e-06 -6.531250e-06 9.060857e-06
-3.329735e-06 -2.932208e-06 1.608686e-05 -5.570325e-06 1.028368e-08 4.344939e-07
3.357771e-07 1.447933e-07 -2.035186e-07 -2.661615e-08 -5.639563e-09 2.540219e-09
-2.159671e-06 -1.441363e-06 1.296458e-05 -6.087375e-06 -7.075697e-06 4.644311e-06
-7.755222e-07 -4.361949e-06 1.350954e-05 -5.248914e-06 -1.775080e-06 2.899230e-06
3.783290e-07 1.102331e-07 -1.745943e-07 -5.196787e-08 7.446651e-09 -1.770518e-09
1.805247e-06 -5.911290e-06 1.407870e-05 -4.760668e-06 -3.245149e-06 4.279867e-06
3.495851e-07 1.124201e-07 -1.482940e-07 -7.049208e-09 -5.311825e-09 5.833822e-09
1.775273e-06 -3.054571e-06 6.040407e-06 -4.462404e-06 5.689889e-07 2.352261e-07
2.558420e-07 1.035729e-06 -8.699640e-07 5.178254e-07 -1.276679e-07 -6.498063e-08
3.669717e-07 1.067588e-07 -1.745943e-07 -1.949967e-08 -3.348679e-09 -1.812356e-09
7.570383e-07 7.893879e-07 -1.160634e-06 7.259680e-07 -8.427137e-08 -1.323101e-07
7.868469e-07 5.331744e-07 -1.061290e-06 1.060062e-07 -8.628342e-08 -1.807109e-14
4.962449e-07 -4.434317e-08 -1.787004e-07 -6.529448e-08 -3.565588e-08 7.214465e-08
6.921455e-07 6.466819e-07 -1.048263e-06 5.054492e-07 -1.835119e-07 -4.110893e-08
3.618987e-07 8.032239e-07 -7.878732e-07 3.864169e-07 -2.775782e-07 -1.078390e-07
3.877203e-07 6.068498e-07 -9.145510e-07 1.928255e-07 -1.733161e-07 -5.517221e-08
3.625252e-07 7.263459e-07 -7.806080e-07 3.857915e-07 -3.640860e-07 -1.166707e-07
2.412951e-07 8.373350e-07 -7.687727e-07 4.026714e-07 -2.459846e-07 -5.667050e-08
2.537759e-07 9.351114e-07 -9.409271e-07 7.264257e-07 -1.938120e-07 -7.771059e-08
2.259809e-06 -1.350650e-07 -1.445664e-06 4.845362e-07 -8.559298e-08 -1.035482e-07
1.047115e-06 5.566734e-07 -1.187271e-06 3.506984e-07 -4.703433e-08 -1.826487e-08
-2.363377e-07 1.330770e-06 -8.013880e-07 -2.417802e-07 -4.603595e-08 2.784265e-08
1.561180e-06 -2.726827e-07 -8.167135e-07 5.984667e-07 7.407018e-09 1.458489e-07
4.627217e-07 1.226474e-06 -1.088820e-06 9.643818e-07 -2.414976e-07 -1.495433e-07
1.290253e-07 4.952389e-07 -3.389300e-07 -2.137295e-07 -1.512436e-07 1.700796e-07
3.041247e-07 9.991352e-07 -7.375883e-07 6.004634e-07 -3.855652e-07 -2.113315e-07
6.707124e-07 -1.238604e-07 -2.858846e-07 4.211922e-08 1.538141e-08 1.184878e-07
6.502847e-07 -1.163093e-07 -2.428096e-07 8.790914e-09 1.300244e-09 1.062571e-08
5.768610e-07 -1.067904e-07 -1.831660e-07 1.125296e-09 -6.329124e-12 1.187487e-08
-2.438231e-07 6.934307e-07 -4.485067e-07 -6.131619e-08 -8.253686e-08 8.318470e-08
5.892589e-07 -8.519148e-08 -2.148670e-07 7.145271e-09 3.760889e-09 4.622620e-09
6.785807e-07 -1.162092e-07 -2.745242e-07 1.142375e-08 -6.118965e-10 1.320272e-08
-2.095292e-07 1.152352e-06 -7.918158e-07 -4.467767e-07 -6.748545e-08 1.519136e-08
-7.875588e-08 5.564996e-07 -3.244798e-07 -1.688728e-07 -3.282901e-07 2.223999e-07
3.793024e-07 3.555152e-07 -4.292522e-07 -2.970371e-07 -1.607149e-08 2.490587e-08
-1.085032e-07 1.068301e-06 -8.221634e-07 -6.126364e-07 -1.105246e-07 7.885690e-08
1.300470e-07 7.474515e-07 -7.178752e-07 -4.678679e-07 -1.290535e-07 1.006382e-07
6.575847e-07 2.607455e-07 -8.817631e-07 2.988256e-07 -5.517081e-07 -2.165672e-07
5.632224e-07 7.893879e-07 -1.146844e-06 8.106342e-07 -1.426649e-07 -7.547125e-08
1.518638e-07 7.193076e-07 -6.587814e-07 8.252344e-08 -4.293033e-08 -1.302661e-08
4.812233e-07 9.674362e-07 -1.057186e-06 8.439726e-07 -2.702773e-07 -1.119905e-07
1.850170e-07 6.520288e-07 -5.850375e-07 -4.040405e-07 -1.705223e-08 7.821312e-08
8.310386e-08 6.863244e-07 -5.767166e-07 1.754260e-08 -2.315230e-08 -8.123018e-16
4.497976e-07 1.443219e-08 -1.825558e-07 -4.978045e-08 -2.080741e-09 1.068414e-08
5.152408e-09 6.315185e-07 -5.087026e-07 3.048817e-08 -5.925677e-08 -3.582966e-08
3.583052e-08 7.285396e-07 -6.037173e-07 6.590650e-08 -2.254309e-08 -2.174238e-08
3.109510e-07 9.247257e-07 -9.271160e-07 5.695164e-07 -1.730557e-07 -1.305097e-07
4.155727e-07 4.164674e-07 -6.557616e-07 -7.057154e-08 4.790778e-07 -1.147860e-07
1.016851e-07 6.582777e-07 -5.354782e-07 -6.419219e-08 4.264634e-08 1.878854e-09
4.281841e-07 3.507867e-08 -1.545643e-07 -1.883435e-08 -7.623214e-09 -1.316545e-09
4.210826e-07 4.433236e-08 -1.748519e-07 -4.342522e-08 2.499672e-09 4.500480e-09
1.898165e-07 6.502213e-07 -6.628057e-07 -1.433184e-07 9.880746e-08 -1.751912e-08
-3.182971e-07 1.145117e-06 -5.553496e-07 -8.204262e-08 -3.478577e-07 5.467060e-08
-1.938141e-07 3.655146e-07 -2.918537e-07 -2.652258e-08 -2.580678e-07 1.530167e-07
-2.310741e-07 8.041941e-07 -3.038963e-07 -5.925737e-08 -2.587929e-07 1.236573e-07
-1.779837e-07 8.219299e-07 -5.262424e-07 1.002831e-07 -1.238772e-07 1.578550e-07
3.065817e-07 6.855459e-07 -7.421917e-07 -1.576497e-07 4.921292e-08 -2.052640e-08
-2.139983e-07 7.388999e-07 -4.735698e-07 -1.123280e-07 -4.556104e-07 1.931558e-07
-3.895404e-07 1.082424e-06 -5.542029e-07 -1.492376e-07 -3.125233e-07 8.849666e-08
4.760162e-06 -3.544046e-06 3.815406e-06 2.677929e-06 5.866850e-08 1.225303e-06
-1.006191e-07 4.904726e-07 -1.882984e-07 -6.951618e-09 1.220719e-07 -5.840541e-08
4.241605e-06 -1.872687e-06 -1.249766e-07 2.191560e-06 6.927385e-08 4.181423e-08
-3.856996e-08 5.022735e-07 -2.485052e-07 -1.423996e-08 1.775866e-07 -3.664879e-08
7.129909e-08 6.360379e-07 -5.068202e-07 -3.030072e-08 2.358137e-08 -1.429064e-15
1.171122e-07 6.201957e-07 -5.480963e-07 -3.096585e-08 1.533576e-07 -1.281294e-08
-5.287895e-08 8.322078e-07 -5.331148e-07 -2.769991e-07 3.367478e-07 -1.632388e-07
5.025102e-07 -2.650448e-08 -1.774475e-07 9.502715e-09 9.867613e-09 5.182136e-09
4.331383e-07 3.139531e-08 -1.716051e-07 2.719582e-08 1.180954e-08 5.202721e-09
4.120076e-06 -2.213670e-06 1.107529e-06 2.791696e-06 -1.321868e-07 -7.275796e-07
5.388879e-06 -2.798824e-06 2.297524e-06 1.390318e-06 1.321556e-07 -8.257009e-07
3.614076e-06 -2.389595e-06 2.736853e-06 3.335041e-06 -2.099489e-09 2.927999e-07
4.919328e-07 8.613360e-09 -1.923380e-07 5.019312e-08 1.219840e-08 6.495828e-09
1.676166e-07 5.159669e-07 -3.454537e-07 2.687933e-07 -4.587510e-07 -1.892119e-07
1.557640e-07 6.062603e-07 -5.489322e-07 2.355843e-07 -3.719755e-07 -1.551864e-07
2.337943e-07 3.539439e-07 -3.930244e-07 1.940209e-07 -5.157613e-07 -2.017923e-07
4.170720e-07 5.155010e-08 -1.666994e-07 9.818294e-09 4.352071e-09 -1.934734e-09
5.444178e-07 -5.226776e-08 -2.105087e-07 4.250071e-08 3.561860e-09 2.808165e-08
9.703063e-08 6.659566e-07 -4.153069e-07 3.515781e-07 -6.617860e-07 -3.606727e-07
-7.787056e-08 2.323521e-07 -3.761236e-07 6.857198e-08 -5.520340e-07 -2.634066e-07
2.986059e-06 -1.631400e-06 4.068114e-06 4.072488e-06 -3.684593e-07 -2.108860e-07
-2.765769e-07 9.166895e-07 -4.279632e-07 1.571115e-07 3.166143e-07 -1.835501e-09
1.826567e-06 -1.001017e-06 6.130404e-06 4.604483e-06 -7.178126e-07 2.013242e-07
-7.730405e-08 7.354211e-07 -4.473250e-07 4.434012e-08 1.699394e-08 3.871773e-08
7.514513e-08 5.666033e-07 -3.746831e-07 1.436712e-07 9.863069e-09 1.059547e-08
1.018395e-07 4.776957e-07 -3.215822e-07 3.233616e-08 -4.480152e-16 -6.070856e-11
2.810488e-06 -5.908085e-07 1.048801e-07 2.933441e-06 -2.663826e-07 -5.257984e-07
2.768165e-06 -7.054067e-07 -3.825577e-07 2.467999e-06 -3.226148e-07 -4.324275e-07
4.187238e-06 -1.903555e-06 1.234241e-07 2.150581e-06 -1.739637e-07 -2.726159e-07
4.382919e-06 -2.034598e-06 2.297524e-06 2.499979e-06 -7.046656e-07 -1.637102e-07
2.071529e-07 1.401245e-06 -9.032388e-07 1.339033e-06 1.771598e-07 1.109890e-07
-3.265864e-08 3.877476e-07 -2.100963e-07 5.897229e-08 1.692781e-07 9.265206e-08
-8.534069e-08 4.805373e-07 -2.223386e-07 4.971718e-08 1.282604e-07 9.089234e-08
2.377829e-06 -5.169142e-07 1.239207e-06 3.249540e-06 9.076924e-08 -2.582960e-08
4.385167e-07 2.843746e-08 -1.901368e-07 -6.196651e-08 -2.327729e-08 2.692292e-08
4.379969e-07 2.333303e-08 -1.435160e-07 -2.294644e-08 -9.247241e-09 7.845670e-09
2.409066e-07 3.543756e-07 -2.834215e-07 2.145590e-07 8.364372e-08 5.822809e-08
-3.661250e-09 4.451169e-07 -2.267090e-07 2.622978e-08 4.633749e-08 5.610107e-08
1.543486e-06 -1.333923e-07 -8.331762e-07 9.692198e-07 7.944241e-08 1.145797e-07
1.539627e-06 2.765767e-07 -1.349016e-06 7.522506e-07 -1.174724e-07 -5.385460e-08
4.304135e-07 5.982259e-07 -7.747962e-07 8.245344e-07 -6.363036e-07 -4.562556e-07
4.381821e-07 3.714935e-08 -1.592867e-07 -5.748131e-08 -1.499810e-08 3.121267e-08
4.393635e-07 5.328530e-08 -1.588365e-07 -4.861728e-08 -1.933775e-09 3.265441e-09
5.700596e-07 5.509673e-07 -9.772607e-07 8.801482e-07 -3.233367e-07 -2.052394e-07
9.487457e-07 5.566734e-07 -1.187271e-06 5.820660e-07 -9.592977e-08 -7.870579e-09
5.501251e-07 -4.897263e-08 -2.030939e-07 1.120549e-08 -1.935675e-09 -4.338037e-17
4.413597e-07 4.330037e-08 -1.510934e-07 -5.303659e-08 -2.268445e-08 2.543911e-08
6.200921e-07 -1.041205e-07 -2.318321e-07 2.845007e-08 8.944127e-09 7.922080e-09
6.816783e-07 -1.029559e-07 -2.827240e-07 -5.827513e-08 -5.030508e-09 2.251899e-08
6.218865e-07 -1.130641e-07 -2.284328e-07 1.668321e-09 7.690232e-09 3.563063e-09
6.470768e-07 -1.306017e-07 -2.399363e-07 1.562732e-08 6.707046e-09 8.592217e-09
5.683626e-07 -1.146587e-07 -1.849969e-07 2.307771e-09 3.651213e-09 6.291931e-08
-2.512228e-07 1.019718e-06 -5.547339e-07 1.360332e-07 -2.794716e-07 -1.530839e-07
1.405822e-06 -2.137910e-07 -7.997001e-07 8.442645e-07 6.989369e-08 3.459809e-07
6.477665e-07 -1.154271e-07 -2.503745e-07 -4.766849e-08 -1.125164e-08 3.015987e-08
-1.411609e-07 9.178249e-07 -6.823652e-07 2.689833e-07 -2.691242e-07 -1.260726e-07
-2.021364e-07 4.809716e-07 -2.999960e-07 8.702639e-09 -1.125061e-07 -1.490100e-07
-7.397415e-08 8.184737e-07 -5.100710e-07 2.074876e-07 -2.763072e-07 -1.803343e-07
5.148196e-06 -3.644057e-06 7.951245e-07 1.188041e-06 -3.377542e-07 6.968193e-09
-1.845911e-07 6.441408e-07 -3.476844e-07 7.154222e-08 -3.492893e-07 -2.318347e-07
-2.020658e-07 6.680613e-07 -2.652092e-07 3.752152e-08 -1.944112e-07 -1.594644e-07
3.811279e-06 -1.027794e-06 -8.594413e-07 1.648110e-06 -1.958024e-07 -1.514877e-07
2.157305e-07 2.814191e-07 -2.314264e-07 3.784459e-08 9.511583e-09 1.868955e-09
3.332078e-07 1.181746e-07 -1.366400e-07 3.319645e-09 -6.051573e-11 1.233950e-09
-2.727693e-07 8.347841e-07 -4.186710e-07 1.932689e-07 -4.450830e-07 -2.188432e-07
3.267578e-07 1.375814e-07 -1.489037e-07 2.779259e-08 1.963418e-09 6.208122e-09
3.439877e-07 1.174452e-07 -1.455958e-07 2.603392e-08 -4.256650e-10 -4.265053e-09
-1.926177e-07 5.381993e-07 -4.144408e-07 1.958349e-07 -4.973084e-07 -1.490935e-07
2.912389e-07 1.730876e-07 -1.462863e-07 4.697766e-09 3.759291e-09 2.129034e-09
3.014567e-07 1.529644e-07 -1.515710e-07 8.557989e-09 -2.725362e-10 4.422893e-09
3.456552e-07 1.132773e-07 -1.399141e-07 1.030004e-08 2.960344e-09 5.772550e-10
6.080632e-07 -1.038538e-07 -2.241421e-07 -1.154205e-08 5.892234e-09 5.758548e-09
6.861693e-07 -4.265613e-10 -3.826465e-07 -2.702358e-07 -2.380684e-08 3.419319e-08
6.083936e-07 -9.346677e-08 -2.278752e-07 -3.342024e-08 -9.255625e-09 6.464478e-09
3.331115e-07 1.272472e-07 -1.455958e-07 1.443289e-08 2.293743e-09 4.009212e-10
3.699870e-07 9.292550e-08 -1.468522e-07 2.141763e-08 4.929209e-09 -8.506007e-10
6.598415e-07 -1.089816e-07 -2.686735e-07 -2.508818e-08 -2.645122e-09 1.016143e-08
3.382283e-07 1.159997e-07 -2.045831e-07 7.485125e-08 1.648582e-08 2.326271e-08
3.261475e-07 1.681558e-07 -1.821848e-07 8.349135e-08 -1.380118e-09 -1.481326e-09
6.011967e-07 -9.430010e-08 -2.194535e-07 -1.295626e-08 -6.826063e-09 3.801237e-11
3.373377e-07 1.197291e-07 -1.587784e-07 3.728834e-08 -1.080778e-09 9.610706e-10
5.980294e-07 1.023965e-06 2.461734e-07 -2.618584e-06 4.897490e-07 -3.689734e-07
2.385362e-06 2.543431e-07 -1.091346e-06 -1.947134e-06 2.898727e-07 -3.145284e-07
3.347192e-07 1.346584e-07 -1.564760e-07 -3.068070e-08 -1.170357e-08 2.759025e-08
3.554705e-07 1.019738e-07 -1.523984e-07 -2.735232e-08 -1.239572e-08 9.377725e-09
2.396426e-07 1.513520e-06 -6.349776e-07 -2.108353e-06 2.806994e-07 -1.066539e-07
9.838005e-07 7.929415e-07 1.381831e-06 -3.548478e-06 2.483192e-07 1.910153e-07
-1.226122e-07 2.498469e-06 -9.127020e-07 -1.654124e-06 3.773456e-07 -2.008214e-07
3.426956e-07 1.291265e-07 -1.809102e-07 -5.897389e-08 -2.215010e-08 3.331642e-08
-2.411894e-07 1.265412e-06 -7.441038e-07 -4.748286e-07 2.945874e-07 -9.070108e-08
3.379342e-07 1.035717e-07 -1.938446e-07 -7.444246e-08 -3.322255e-08 5.006146e-08
3.649379e-07 1.033821e-07 -1.634114e-07 -6.954516e-08 -2.985189e-08 3.656659e-08
1.665471e-07 1.523659e-06 -1.008874e-06 -1.315870e-06 9.676756e-08 -1.435537e-07
3.849498e-07 9.759467e-08 -1.622830e-07 -7.023016e-08 -2.814172e-08 3.103959e-08
4.092506e-07 4.475464e-08 -1.564412e-07 3.962153e-08 1.278810e-08 1.078071e-08
-7.239674e-07 2.491035e-06 -9.149010e-07 -8.300193e-07 1.268956e-07 4.942934e-09
2.150092e-06 -3.128402e-07 -8.925184e-07 1.458459e-06 1.342686e-07 1.512805e-07
3.968779e-07 8.125198e-08 -1.557221e-07 2.240138e-08 1.473495e-09 7.166075e-10
4.659276e-07 3.679917e-08 -1.791777e-07 6.166537e-08 8.891845e-09 2.093942e-08
4.637810e-07 1.976063e-08 -1.987093e-07 8.339647e-08 6.767386e-09 2.059639e-08
4.446487e-07 3.262165e-08 -1.788598e-07 7.913768e-08 1.048238e-08 3.215736e-08
4.379930e-07 2.941763e-08 -1.601839e-07 3.659721e-08 2.403078e-09 1.893242e-08
4.326655e-07 4.292588e-08 -1.745353e-07 2.757832e-08 4.290821e-09 2.830027e-09
4.921837e-07 2.291066e-08 -2.231417e-07 9.614203e-08 2.995466e-09 3.123237e-08
3.831879e-07 1.047923e-07 -1.843904e-07 7.465868e-08 -2.066650e-10 1.800841e-09
3.907407e-07 8.914853e-08 -1.670660e-07 5.343415e-08 5.337801e-09 4.560804e-09
4.048474e-07 6.114231e-08 -1.899635e-07 6.571623e-08 6.970631e-09 1.659752e-08
5.365793e-07 1.294470e-07 -3.982850e-07 3.179717e-07 6.346509e-08 3.153977e-08
4.015536e-07 6.131497e-08 -1.689767e-07 3.686050e-08 6.501324e-09 7.262113e-09
3.775326e-07 7.420927e-08 -1.498345e-07 3.405806e-08 8.173010e-09 8.680587e-09
3.570911e-07 1.098297e-07 -1.455489e-07 3.316825e-08 2.748617e-09 4.888636e-09
3.788161e-07 7.943952e-08 -1.424192e-07 2.018599e-08 6.440896e-09 5.030832e-09
-1.766647e-07 1.622834e-06 -7.890492e-07 7.693033e-07 1.073768e-07 3.598570e-08
3.696831e-07 9.975403e-08 -1.440351e-07 2.078723e-08 3.199513e-09 1.272359e-09
5.299979e-07 6.096382e-07 -6.869581e-07 8.342858e-07 2.424247e-07 1.988518e-07
3.810975e-07 9.341261e-08 -1.501695e-07 5.064787e-08 1.034867e-08 1.607000e-08
2.168018e-06 -9.099796e-07 -8.381676e-07 6.601806e-07 1.307591e-07 4.556667e-07
-1.115515e-07 1.045567e-06 -6.604822e-07 3.451644e-07 1.571871e-07 4.709935e-08
8.318045e-08 1.003935e-06 -6.650928e-07 6.937907e-07 1.671856e-07 1.152715e-07
-3.853288e-07 1.768426e-06 -9.346724e-07 8.488063e-07 1.668767e-07 8.719017e-08
-1.246643e-07 1.794179e-06 -8.799638e-07 1.312515e-06 9.194368e-08 1.004561e-07
-7.370074e-08 1.292812e-06 -8.366154e-07 8.652415e-07 3.460912e-07 2.038259e-07
6.261782e-07 -1.139934e-07 -1.989817e-07 7.080715e-09 4.512027e-10 5.902960e-08
4.164004e-06 -1.497834e-06 -5.039908e-08 1.060318e-06 3.699947e-07 2.815172e-07
6.964869e-07 -1.577729e-07 -2.856322e-07 3.238721e-08 1.035567e-08 1.223830e-07
-7.392656e-08 1.409039e-06 -9.008752e-07 9.407449e-07 1.677211e-07 2.527281e-08
6.124838e-07 -1.256652e-07 -2.331473e-07 2.248334e-08 1.028076e-08 9.495853e-08
5.617317e-07 -1.229308e-07 -1.483156e-07 1.588690e-08 1.126921e-08 9.509616e-08
6.349076e-07 -1.012469e-07 -2.580920e-07 5.069862e-08 1.506955e-08 5.008905e-08
9.242371e-07 4.292615e-07 -9.806104e-07 1.176007e-07 -3.791182e-07 -3.340926e-08
9.328554e-07 1.553992e-06 -1.092799e-06 1.913519e-06 -1.633237e-07 -5.433285e-08
5.868481e-07 -1.112451e-07 -1.944173e-07 9.978808e-09 3.772623e-09 4.514455e-08
5.769768e-07 -1.074685e-07 -1.948896e-07 8.526844e-09 -2.702954e-10 3.962318e-08
9.428434e-07 2.458997e-07 -7.912561e-07 -9.071770e-07 -1.312773e-07 3.183750e-08
5.837571e-07 5.252305e-07 -7.336734e-07 -8.579209e-07 -1.795540e-07 3.009525e-07
8.836123e-07 2.677343e-07 -7.584153e-07 -9.002292e-07 -1.401540e-07 3.170095e-07
7.633797e-07 1.856531e-07 -6.551910e-07 -6.003147e-07 -1.947478e-09 1.313835e-07
-1.321592e-07 2.446735e-06 -8.974391e-07 -1.686959e-06 4.213008e-07 -1.485502e-07
-4.362170e-07 2.307377e-06 -7.426101e-07 -9.812049e-07 2.708973e-07 -1.786661e-07
1.108772e-06 -2.313971e-07 -5.446623e-07 -1.764100e-07 -3.215043e-08 1.950172e-07
-6.425599e-07 2.558112e-06 -9.286390e-07 -1.092572e-06 3.960330e-07 -1.164031e-07
-7.293574e-07 2.689216e-06 -8.706073e-07 -9.860193e-07 2.493296e-07 -1.548193e-07
-3.194320e-07 1.736965e-06 -8.878323e-07 -1.257049e-06 3.032405e-07 -1.802961e-07
-1.535514e-07 1.871128e-06 -9.684568e-07 -1.002856e-06 1.805517e-07 -6.795280e-08
4.145528e-06 -1.934754e-06 2.199373e-06 -2.552703e-06 4.806615e-07 -1.787900e-07
3.142805e-06 -5.509549e-06 8.426362e-06 -3.573841e-06 -9.323933e-07 2.018146e-06
3.014041e-06 -2.816862e-06 2.556393e-06 -3.881654e-06 -1.311984e-06 8.119174e-07
-1.348853e-06 3.854415e-06 -3.821620e-07 -1.654330e-07 -1.528595e-08 8.942621e-08
-6.472923e-07 2.212368e-06 -8.989218e-07 1.096695e-06 6.183461e-08 8.765795e-08
-3.903866e-07 1.199293e-06 -6.749816e-07 1.014501e-07 5.410116e-08 -4.873784e-09
-2.801061e-07 1.962649e-06 -9.589481e-07 -1.160778e-06 2.275701e-07 -2.255351e-07
-3.302934e-07 2.635995e-06 -8.135686e-07 1.632545e-06 4.398210e-07 1.954949e-07
-4.065203e-07 1.359408e-06 -7.700931e-07 4.589217e-07 2.421547e-07 8.398894e-08
2.907179e-06 -1.133694e-06 -8.355829e-07 -8.796844e-07 4.564534e-07 -8.346890e-07
-1.866294e-07 1.657335e-06 -7.851856e-07 1.253470e-06 4.681602e-07 2.505557e-07
2.013340e-06 -4.904254e-07 -6.293443e-07 -1.310881e-07 1.864438e-08 -4.666572e-07
-1.866294e-07 1.897107e-06 -7.940131e-07 1.616808e-06 3.141888e-07 2.607485e-07
-5.980609e-07 2.710915e-06 -7.232940e-08 2.586934e-06 6.884733e-07 3.952095e-07
3.392094e-06 -2.029564e-06 5.883940e-08 -3.269579e-07 -2.331521e-07 -1.039823e-06
7.065260e-07 1.078567e-07 -4.673490e-07 -3.655116e-07 -3.304782e-08 5.463608e-08
2.757867e-06 -1.289525e-06 -1.065604e-06 -8.194567e-08 -7.846791e-08 -2.265156e-07
3.694231e-06 -1.487669e-06 -8.983909e-07 -3.044552e-07 1.863228e-07 9.704432e-08
4.440348e-07 9.036903e-08 -3.385568e-07 -2.142423e-07 -4.712088e-08 6.613014e-08
1.604155e-06 -4.621893e-07 -8.015373e-07 -4.919662e-07 4.985988e-07 -4.214856e-07
7.989139e-07 4.669732e-07 -6.909922e-07 -8.563938e-07 -1.561756e-07 1.944918e-07
8.226098e-07 1.962805e-07 -5.734083e-07 -5.745587e-07 -3.301594e-08 6.145952e-08
1.952602e-06 -1.105067e-06 -2.335060e-07 -6.498509e-07 4.528702e-07 -9.075687e-07
-1.598581e-07 6.523785e-07 -4.688765e-07 1.373824e-07 2.904961e-07 1.873798e-07
1.260497e-08 1.955969e-06 -7.041679e-07 -2.006815e-06 -6.415534e-08 2.095715e-07
-1.145867e-07 4.941820e-07 -2.860727e-07 1.094674e-07 2.874874e-07 1.091253e-07
1.514754e-09 6.478190e-07 -3.388293e-07 1.724869e-07 1.123214e-07 9.581058e-08
-5.095667e-06 5.382266e-06 5.754855e-06 5.886618e-08 1.565054e-06 -2.858812e-08
-3.818964e-06 4.810716e-06 3.743081e-06 -2.189378e-06 6.557318e-07 -1.082203e-07
-5.100017e-06 5.222682e-06 8.802202e-06 5.083943e-07 -3.158670e-07 -3.713023e-07
-5.094676e-06 5.161131e-06 2.559009e-06 -4.300118e-08 -4.693258e-07 -1.033737e-07
-1.260942e-07 4.843660e-07 -2.181413e-07 1.376096e-08 2.432612e-07 1.741585e-07
-3.832291e-06 5.462528e-06 2.403692e-06 -6.613726e-07 -7.008544e-07 3.257620e-07
-2.879104e-06 5.475671e-06 2.215195e-06 -8.927862e-07 -7.290223e-07 -5.963927e-08
-6.779490e-08 6.230213e-07 -2.418574e-07 1.965406e-07 3.641432e-07 1.650288e-07
-1.233291e-06 3.180480e-06 -7.720609e-07 4.833447e-07 3.210979e-07 1.095920e-07
-1.241251e-06 2.915075e-06 -6.378720e-07 4.485167e-07 3.886564e-07 2.057392e-08
1.397185e-06 -1.147963e-07 -7.907942e-07 -7.845877e-07 -9.405936e-08 2.371960e-07
-8.749043e-07 2.261519e-06 -8.120571e-07 1.165729e-07 3.770690e-07 -1.407735e-08
1.819667e-06 -4.784204e-07 2.096827e-06 -3.662282e-06 -1.872536e-07 4.696354e-07
1.773202e-06 -2.959286e-07 -8.861965e-07 -7.958963e-07 -1.249451e-07 1.438831e-07
-8.590984e-07 2.030987e-06 -8.370410e-07 -1.935976e-07 4.640741e-07 -7.871163e-08
-1.349344e-06 2.952457e-06 -5.783670e-07 -5.920084e-08 3.429519e-07 -2.831003e-08
1.822461e-06 -6.553384e-07 -8.439910e-07 -1.340180e-08 -1.979378e-09 1.469829e-07
3.294725e-06 -1.440778e-06 -4.655188e-07 8.931211e-07 9.582298e-08 3.774937e-07
2.138260e-06 -9.801002e-07 -7.516769e-07 -1.487582e-07 8.181035e-10 3.766502e-07
-1.083197e-06 2.514891e-06 2.384426e-06 3.467055e-06 -5.339923e-07 -1.083068e-07
-1.001443e-06 2.750450e-06 -8.564678e-07 -3.807878e-07 5.432587e-08 -1.908168e-08
-8.580617e-07 2.193925e-06 -7.930150e-07 -2.374061e-07 3.762159e-07 -4.909217e-08
1.176588e-06 4.283933e-08 2.457540e-06 3.822916e-06 3.689942e-07 2.342539e-07
5.958033e-07 1.228402e-06 -7.625012e-07 1.925241e-06 -1.977984e-08 -5.158820e-08
-1.158244e-06 3.563830e-06 -5.373970e-07 -8.708062e-07 7.276385e-07 -2.463675e-07
-9.401873e-06 1.392180e-06 1.976198e-05 -2.507559e-06 -2.819005e-07 1.921870e-06
2.367617e-08 4.594142e-08 6.433662e-06 -4.662392e-06 -5.840786e-07 4.323076e-07
-1.094886e-06 3.409915e-06 -7.438429e-07 2.323551e-08 3.664472e-07 -7.579335e-08
-1.349063e-06 3.345031e-06 -7.519716e-07 -1.053667e-07 4.251258e-07 4.617578e-08
-9.839597e-06 -2.932208e-06 3.210080e-05 -5.342964e-06 -2.431851e-07 1.027657e-06
-1.154048e-05 -8.169270e-06 3.210080e-05 -2.344594e-06 9.153619e-08 8.176533e-07
-9.105974e-07 -1.011244e-06 1.070749e-05 -5.994515e-06 -1.211552e-07 1.967259e-06
-1.701873e-06 3.747194e-06 -3.884923e-07 -3.600155e-07 -9.597103e-08 -5.462792e-08
-1.548224e-06 2.858890e-06 -6.096050e-07 -2.012620e-07 4.411167e-07 8.600366e-08
-1.544613e-06 3.772361e-06 -6.155251e-07 -3.166635e-07 8.668052e-07 -1.511227e-08
8.106913e-07 1.245937e-06 -4.918541e-07 2.282554e-06 3.635620e-07 1.252105e-07
6.825040e-08 5.252816e-07 -4.201528e-07 -2.655442e-08 2.560637e-07 -3.763406e-08
4.822017e-08 5.753620e-07 -4.208025e-07 -6.252972e-08 2.122038e-07 -4.845794e-08
-8.190248e-08 4.615614e-07 -2.481265e-07 -1.597501e-10 1.548537e-07 -3.678741e-08
2.173387e-06 -6.109634e-07 -7.573357e-07 -2.772354e-07 5.056021e-08 3.702256e-07
2.106468e-06 -9.284702e-07 -8.005311e-07 2.251765e-07 -2.682604e-08 3.770422e-07
2.950398e-06 -9.284702e-07 -6.238268e-07 2.992387e-07 1.685693e-07 3.358517e-07
2.709785e-06 -1.009882e-06 -4.645112e-07 1.056977e-06 1.172305e-07 3.796180e-07
1.642174e-06 -4.146035e-07 -7.084074e-07 -2.007511e-08 -9.569422e-09 3.231911e-07
2.124832e-06 -7.962713e-07 -8.409148e-07 3.789960e-08 -6.475760e-08 1.706397e-07
-6.765732e-08 3.933156e-07 -2.824574e-07 -4.302334e-09 2.452213e-07 -4.773977e-08
4.238187e-06 -2.995590e-06 2.326082e-06 1.957742e-06 -1.709660e-07 -5.627113e-07
3.711395e-06 -1.540068e-06 -3.767291e-07 6.188723e-07 5.002392e-08 -1.082547e-07
2.539815e-06 -9.582823e-07 -7.320850e-07 -1.045057e-06 -4.926704e-09 4.571861e-07
3.915203e-06 -1.323026e-06 -5.989250e-07 3.643732e-07 5.322188e-08 6.740081e-07
3.185926e-06 -1.037456e-06 -6.419035e-07 2.700128e-07 -6.766454e-08 4.461107e-07
1.190551e-08 4.761209e-07 -2.327628e-07 -1.082384e-08 2.121069e-07 1.246118e-08
1.359424e-06 1.253183e-06 -7.299489e-07 2.741684e-06 2.582119e-08 3.088082e-10
-1.083197e-06 3.253953e-06 1.201338e-06 3.083429e-06 2.762444e-07 1.133584e-07
-1.525346e-06 3.910617e-06 6.363914e-07 2.256556e-06 4.642826e-07 1.864554e-07
-1.083197e-06 2.826288e-06 1.123771e-06 2.649913e-06 3.089451e-08 -3.019881e-07
1.414340e-06 -7.516381e-07 3.546755e-06 3.917533e-06 -4.738951e-08 3.240476e-07
2.228387e-06 -9.291479e-07 3.366384e-06 4.345226e-06 4.405364e-07 6.069147e-07
1.912631e-06 -4.733854e-07 -8.742507e-07 1.059672e-06 1.358933e-08 1.859790e-07
4.461569e-07 1.523474e-08 -1.580506e-07 6.458557e-08 1.517770e-08 3.724355e-08
3.758570e-06 -2.285535e-06 1.903462e-06 -3.668050e-06 8.146765e-07 -1.387904e-07
1.054390e-06 -1.045225e-05 1.830439e-05 -7.591106e-07 9.545235e-07 -5.395239e-07
2.277007e-07 1.503818e-06 1.723679e-06 -3.939085e-06 -3.894598e-07 3.043762e-07
5.523370e-07 -4.820975e-06 9.866181e-06 -5.249903e-06 -3.890300e-09 -7.741752e-07
5.658953e-06 -4.492226e-06 7.461869e-06 -4.041547e-07 -4.985266e-07 7.094243e-07
4.549638e-06 -2.182175e-06 4.466212e-07 7.887750e-07 1.843317e-07 7.845983e-07
5.373519e-07 -6.020346e-08 -1.664972e-07 4.021211e-08 1.594045e-08 4.420394e-08
4.806340e-07 -2.782107e-08 -2.020656e-07 9.648954e-08 2.622795e-08 5.667786e-08
4.787826e-07 -3.198369e-08 -1.582497e-07 6.196326e-08 2.307364e-08 6.327735e-08
4.944267e-07 -3.298915e-08 -1.739304e-07 7.728649e-08 1.525870e-08 7.641564e-08
5.190839e-07 -1.389269e-08 -2.025321e-07 7.166510e-08 2.445814e-08 6.183372e-08
4.680895e-07 1.115326e-08 -1.718631e-07 5.448764e-08 6.355116e-09 2.916557e-08
2.138958e-06 -9.277021e-07 -3.902593e-07 -4.149793e-08 -5.514399e-08 2.136908e-07
2.473391e-06 -1.105236e-05 2.435788e-05 1.956860e-06 5.960603e-07 6.485580e-06
4.692092e-07 6.025545e-10 -1.896771e-07 4.577358e-08 1.429242e-08 2.096730e-08
8.040756e-08 4.443537e-07 -4.006115e-07 -1.583118e-07 -1.056862e-07 1.079285e-07
4.065156e-07 5.757487e-08 -1.616728e-07 -3.446460e-08 -8.313552e-09 1.222787e-09
3.881001e-07 7.566068e-08 -1.449131e-07 -4.597874e-09 -3.225923e-09 4.505776e-10
3.777282e-07 7.050989e-08 -1.425853e-07 -6.391460e-09 -7.468950e-10 7.700318e-10
3.837734e-07 7.464834e-08 -1.441580e-07 -1.134970e-08 -2.175544e-09 5.268504e-09
1.828159e-06 2.893594e-07 -1.274620e-06 -1.122835e-06 9.820977e-08 -2.065911e-07
2.601043e-06 -2.646059e-07 -1.238653e-06 -1.365650e-06 5.674775e-08 -1.858876e-07
3.991334e-07 6.148486e-08 -1.428416e-07 -6.471465e-09 -2.665823e-09 -6.585406e-10
4.011103e-07 5.529487e-08 -1.485043e-07 -7.381967e-09 -1.577095e-09 1.797467e-09
1.811717e-06 9.808755e-08 -1.408179e-06 -1.885514e-07 9.730487e-08 -3.647189e-14
4.133761e-07 4.840826e-08 -1.443403e-07 -5.528180e-09 -6.533385e-09 7.132024e-09
1.609536e-09 6.011280e-07 -4.388497e-07 1.507560e-08 -3.039883e-08 5.569910e-10
1.651140e-06 -1.298349e-07 -3.769472e-07 -1.292386e-06 4.927965e-07 -8.949430e-07
9.849602e-07 5.445692e-07 -1.155342e-06 -3.177907e-07 5.838748e-08 -3.852668e-08
9.651400e-08 6.208296e-07 -5.164012e-07 7.812620e-08 -2.387656e-07 -2.981128e-08
1.005950e-07 7.781917e-07 -6.766751e-07 2.192361e-07 -7.837588e-08 -6.736944e-08
1.293943e-07 6.414046e-07 -5.587802e-07 3.175762e-08 -1.471271e-07 -1.134357e-08
-5.571818e-08 4.752387e-07 -2.350789e-07 5.542359e-08 -1.207649e-07 -7.351130e-08
1.040296e-06 4.292611e-07 -1.158644e-06 1.529219e-07 -2.039239e-07 -5.545986e-09
4.955462e-07 4.517463e-07 -7.668411e-07 3.225288e-07 -5.331672e-07 -1.996569e-07
3.084072e-07 8.094648e-07 -7.409788e-07 6.215680e-07 -5.139769e-07 -3.005333e-07
-9.372990e-08 6.198764e-07 -4.394505e-07 8.096333e-08 -2.084492e-07 -1.414077e-07
1.305004e-07 9.069342e-07 -8.310194e-07 3.735718e-07 -2.193995e-07 -1.563622e-07
4.069703e-09 7.697974e-07 -6.097367e-07 1.133273e-07 -6.152362e-08 -6.529506e-09
-1.970067e-07 5.540021e-07 -2.245515e-07 -4.442955e-09 3.421365e-08 -6.990151e-08
-2.371850e-07 8.146032e-07 -4.603916e-07 1.905321e-08 2.553669e-08 4.820837e-08
2.463171e-07 8.285470e-07 -7.422102e-07 3.181063e-07 -1.944181e-07 -7.958711e-08
5.264374e-08 7.490001e-07 -5.804690e-07 1.396988e-07 -1.013858e-07 -7.269046e-08
2.512976e-07 8.278039e-07 -8.453131e-07 3.244233e-07 -1.015164e-07 -4.744848e-08
4.375320e-07 5.367102e-08 -2.234829e-07 1.025626e-07 6.271185e-09 1.381573e-08
4.847472e-07 5.863859e-08 -2.687209e-07 1.721762e-07 4.186433e-08 3.785169e-08
5.379859e-07 3.238508e-08 -2.779086e-07 1.698834e-07 6.670948e-09 7.956913e-09
-2.408681e-07 1.027117e-06 -5.451696e-07 2.718569e-08 9.057560e-16 3.232707e-10
4.771007e-07 5.515912e-08 -2.249155e-07 1.289040e-07 1.365725e-08 2.171247e-08
4.940093e-07 4.296218e-08 -2.393220e-07 1.204963e-07 -6.559375e-09 1.666988e-08
2.524301e-06 -5.602946e-06 1.179912e-05 4.880904e-06 3.118330e-06 3.453154e-06
6.469620e-08 5.108421e-07 -3.057215e-07 2.439226e-08 2.232392e-08 3.201243e-08
-2.836017e-07 1.077090e-06 -5.517934e-07 1.371661e-08 1.151291e-16 4.196702e-09
-2.868967e-07 1.052103e-06 -6.042938e-07 3.749141e-08 9.868687e-09 1.716040e-09
-9.850882e-08 8.025366e-07 -5.299758e-07 -1.211055e-07 4.546887e-08 -2.481616e-08
-1.492130e-07 6.679490e-07 -3.740077e-07 -1.198851e-08 2.086810e-08 -6.237016e-08
5.027498e-07 2.738946e-08 -2.474218e-07 1.134080e-07 4.682930e-09 2.134568e-08
-1.404643e-07 9.393453e-07 -4.697305e-07 -3.161498e-07 3.152074e-07 -7.812426e-08
5.731864e-07 -1.094850e-07 -1.574767e-07 -2.169411e-08 -7.638155e-09 4.176608e-08
-1.144145e-07 8.132051e-07 -5.453624e-07 -1.747269e-07 7.486120e-08 -6.703725e-09
-8.166577e-08 5.673863e-07 -2.678464e-07 -2.356186e-08 3.157949e-08 -2.090468e-08
5.895732e-07 -1.013929e-07 -2.129087e-07 -5.515829e-08 -2.234494e-08 9.406233e-08
5.847859e-07 -9.255910e-08 -1.830448e-07 -3.022673e-08 -1.594408e-08 5.316019e-08
6.275210e-07 -1.178411e-07 -2.198391e-07 -3.776032e-08 -1.480142e-08 1.071592e-07
5.842639e-07 -9.963485e-08 -2.208673e-07 -5.068240e-08 -1.369831e-09 8.178798e-08
-2.512018e-07 8.384493e-07 -3.964728e-07 1.776438e-09 4.431834e-08 8.306707e-09
6.629800e-07 -1.111130e-07 -2.353434e-07 -5.179512e-08 -1.260158e-08 7.590077e-08
-2.739257e-07 7.985930e-07 -3.938452e-07 -5.389696e-09 2.221309e-07 4.384298e-08
-2.690861e-07 9.096140e-07 -3.460886e-07 -1.485957e-08 2.379420e-07 -2.786165e-08
-2.159214e-07 7.507872e-07 -3.347008e-07 -1.573990e-07 2.980664e-07 -1.223577e-07
5.807642e-07 -9.981636e-08 -1.827185e-07 -3.587911e-08 -1.148089e-08 5.555517e-08
2.659809e-07 1.425573e-07 -1.858303e-07 -8.133910e-08 -6.873049e-08 8.212142e-08
7.052697e-07 -1.695208e-06 7.746963e-06 5.277119e-06 -3.769387e-07 -1.038573e-07
6.066949e-07 -1.100451e-07 -2.135157e-07 -1.254391e-08 -3.585264e-09 1.449656e-08
6.375626e-07 -1.247268e-07 -2.637759e-07 -3.161822e-08 -3.824911e-08 1.044671e-07
5.617092e-07 9.640860e-08 -4.538962e-07 -3.364729e-07 -6.517292e-08 7.506736e-08
5.129636e-07 9.817187e-08 -4.490146e-07 -3.109395e-07 -4.392860e-08 5.967622e-08
5.534115e-07 -6.801437e-08 -2.131293e-07 -6.669176e-08 -2.533102e-08 7.910482e-08
6.022025e-07 -6.933605e-08 -2.415890e-07 -9.515091e-08 -5.441452e-09 8.406603e-08
2.278429e-07 1.558973e-07 -2.128191e-07 -1.208091e-07 -1.057934e-07 1.241675e-07
6.263107e-07 -8.490291e-08 -2.242587e-07 -7.009042e-08 -1.537565e-08 6.100002e-08
4.847983e-07 -2.575367e-08 -1.755058e-07 1.540119e-08 7.782443e-09 4.502638e-09
1.278725e-06 -2.811657e-07 2.211983e-06 3.571093e-06 -2.241457e-07 -6.951735e-08
5.164639e-07 -2.602427e-08 -1.791145e-07 1.670207e-08 9.245580e-09 1.110072e-08
1.468430e-06 -1.722454e-08 -7.152069e-07 -1.906067e-06 -5.366534e-08 1.139507e-07
5.559275e-07 -5.529787e-08 -1.761871e-07 -5.827144e-08 -2.098575e-08 6.711985e-08
5.785287e-07 -5.465794e-08 -2.065025e-07 -8.096798e-08 -1.543042e-08 5.030935e-08
2.946730e-07 2.584826e-07 -2.919870e-07 -5.652974e-08 -6.289985e-09 -6.376199e-10
1.149964e-07 2.740338e-07 -1.908758e-07 -2.332902e-08 -3.489314e-08 9.162757e-08
5.597837e-07 -7.148499e-08 -2.387280e-07 -6.308286e-08 -3.984879e-08 7.534139e-08
-8.777532e-09 8.437940e-07 -6.152258e-07 -3.465552e-07 1.760725e-07 -4.812375e-08
2.606827e-07 1.651840e-07 -2.174480e-07 -1.033416e-07 -1.045532e-07 1.267683e-07
2.439022e-07 2.986010e-07 -3.101563e-07 -6.022173e-08 -2.289967e-08 6.816782e-08
6.472083e-07 -1.069187e-07 -2.543898e-07 -7.734172e-08 5.730700e-10 9.742007e-08
5.849038e-07 -8.419269e-08 -1.784107e-07 -4.667474e-08 -2.697789e-08 7.520458e-08
5.265074e-07 -3.780880e-08 -2.011948e-07 -5.841679e-08 -2.434039e-08 4.108793e-08
5.090519e-07 -4.141237e-08 -1.734084e-07 -5.107538e-08 -1.477859e-08 3.462912e-08
5.245698e-07 -5.416564e-08 -1.649296e-07 2.703180e-08 -1.930568e-09 1.027057e-08
5.521058e-07 -6.933749e-08 -1.867581e-07 7.855908e-08 2.756383e-08 8.673357e-08
4.896525e-07 -5.686606e-09 -1.970815e-07 2.480839e-08 -4.103809e-09 1.924035e-09
4.178361e-07 5.307768e-08 -1.501040e-07 1.727657e-08 6.337741e-09 2.758300e-09
4.770994e-07 -8.610405e-09 -1.574284e-07 1.732028e-08 9.150252e-09 7.799897e-09
1.297230e-07 3.324892e-07 -3.506818e-07 -1.980496e-07 -2.111278e-07 1.850990e-07
5.423692e-07 -6.439966e-08 -2.148470e-07 -4.170265e-08 -2.467615e-08 6.526027e-08
-1.933062e-07 7.451860e-07 -3.497811e-07 -8.887339e-08 1.594395e-07 -9.041890e-08
-9.579050e-08 6.638717e-07 -3.565378e-07 -1.569362e-08 1.794062e-08 -4.686275e-08
4.740279e-07 -8.598333e-09 -1.604635e-07 3.499960e-08 1.116619e-08 2.309300e-08
4.917197e-07 -2.643591e-08 -1.561358e-07 8.740771e-09 7.981283e-09 1.037894e-08
5.503505e-07 -3.681388e-08 -2.411462e-07 8.811986e-08 2.452012e-08 6.620884e-08
-1.787083e-07 6.419920e-07 -2.061460e-07 -3.926466e-08 1.345772e-07 -7.848237e-08
-1.940575e-07 7.294621e-07 -3.197551e-07 -1.454167e-07 2.995636e-07 -1.024528e-07
5.335328e-07 -2.781933e-08 -2.374994e-07 1.018889e-07 3.193121e-08 6.789954e-08
4.676555e-07 6.031610e-09 -1.631751e-07 1.725417e-08 1.181249e-08 2.177419e-09
2.156361e-07 2.237136e-07 -2.362457e-07 -4.281989e-08 -3.230128e-08 6.586978e-08
2.145993e-07 2.069568e-07 -1.863186e-07 -1.344666e-08 -1.498782e-08 6.592668e-08
-4.311421e-08 6.219579e-07 -2.758327e-07 -3.960193e-08 -1.164708e-08 1.288564e-07
2.302065e-07 3.385696e-07 -3.255504e-07 -3.103676e-08 -5.148663e-09 5.258359e-08
-1.719842e-07 5.119086e-07 -2.756112e-07 -3.428168e-08 3.802701e-07 -1.781530e-07
2.783236e-07 2.499083e-07 -2.807110e-07 -2.168653e-08 -2.676072e-09 3.718999e-08
3.693313e-07 9.607644e-08 -1.630687e-07 3.742615e-08 -1.748322e-09 7.365628e-09
3.684841e-07 9.824196e-08 -1.738781e-07 5.933648e-08 1.383589e-08 5.348001e-09
3.419734e-07 1.235925e-07 -1.708620e-07 5.386761e-08 -1.773496e-09 7.702101e-09
3.433521e-07 1.117304e-07 -1.445589e-07 2.703963e-08 1.392727e-09 2.442999e-09
-7.718620e-08 5.583071e-07 -2.813274e-07 -7.909766e-09 7.076366e-08 -2.805749e-08
-1.133260e-07 5.022716e-07 -2.090897e-07 1.142416e-09 1.149998e-07 -4.187843e-08
2.519709e-07 2.210021e-07 -1.905255e-07 1.336231e-08 -4.078498e-09 1.088389e-08
1.471977e-07 2.558477e-07 -2.035355e-07 -1.419355e-08 -1.944580e-08 8.798780e-08
2.832473e-07 2.924394e-07 -2.822109e-07 -7.078749e-08 -1.412683e-08 3.500777e-08
1.838594e-07 2.993940e-07 -1.981226e-07 7.564102e-08 4.558150e-08 4.360585e-08
1.656620e-07 4.049098e-07 -2.979909e-07 1.376180e-07 4.738152e-08 3.782490e-08
2.310680e-07 2.564222e-07 -1.918059e-07 3.161841e-08 1.856812e-08 2.365966e-08
2.703679e-07 2.039152e-07 -1.656546e-07 6.315948e-08 1.939810e-08 2.871538e-08
-4.691770e-08 1.837609e-07 -3.299318e-07 2.065371e-08 -5.234691e-07 -2.020007e-07
3.636522e-06 -1.186622e-06 -1.425391e-06 5.982962e-07 -6.602629e-08 7.502712e-08
1.172938e-06 -3.051375e-07 -9.020321e-07 3.235662e-07 -5.041213e-07 -3.046034e-07
2.622403e-07 2.017100e-07 -1.839515e-07 2.406434e-08 6.549078e-10 1.945459e-08
3.269127e-07 1.988124e-07 -2.852804e-07 -1.496877e-07 -8.569170e-08 1.140147e-07
4.465709e-07 2.193396e-07 -6.041140e-07 4.252111e-08 -5.296456e-07 -2.752550e-08
3.671731e-07 1.353054e-07 -2.119214e-07 -1.049041e-07 -3.741235e-08 5.390024e-08
1.319385e-08 6.396619e-07 -4.793825e-07 -3.164888e-08 -1.416133e-08 9.199311e-08
3.489773e-07 1.330302e-07 -2.128510e-07 -1.136008e-07 -3.931632e-08 4.346227e-08
-2.304346e-07 5.548978e-07 -2.999466e-07 -4.732909e-08 -8.399302e-08 -1.427868e-07
-4.976727e-08 6.013063e-07 -3.781834e-07 1.382495e-07 -4.713804e-07 -2.413248e-07
3.361369e-07 1.385213e-07 -1.938478e-07 -6.627119e-08 -2.577786e-08 4.937479e-08
-3.016378e-07 1.011622e-06 -5.410118e-07 -1.210168e-07 1.214493e-07 -3.216868e-08
1.161478e-06 -1.441358e-07 -6.273408e-07 4.077367e-07 9.956006e-08 2.382218e-07
-2.908397e-07 7.644952e-07 -4.674981e-07 8.209193e-09 -3.554538e-08 -1.094722e-07
-2.409556e-07 1.006588e-06 -4.509272e-07 -1.994228e-07 2.781611e-07 -1.203639e-07
4.366400e-07 4.740452e-08 -1.899206e-07 5.769176e-08 -3.096397e-09 1.144578e-09
4.893054e-07 -2.255843e-08 -2.194352e-07 7.432311e-08 4.285934e-08 6.358443e-08
-2.088873e-07 4.895114e-07 -2.639304e-07 -4.231167e-08 4.531573e-07 -1.696607e-07
5.025102e-07 -2.287265e-08 -1.667821e-07 6.492877e-09 2.586029e-09 8.084249e-09
-2.888749e-07 9.861652e-07 -5.569434e-07 -4.903392e-08 2.897423e-07 -2.802226e-08
-1.832219e-07 8.229238e-07 -4.571739e-07 -1.168732e-07 2.353615e-07 -1.181274e-07
1.351487e-06 -2.675719e-07 -7.319258e-07 5.919078e-07 4.686150e-08 9.361120e-08
4.821475e-07 -2.502958e-08 -1.718927e-07 -5.576992e-08 -2.340784e-08 7.393785e-08
5.062877e-07 -4.883771e-08 -1.810107e-07 -2.741274e-08 -5.011211e-09 2.230016e-08
4.845205e-07 -4.234742e-09 -1.742830e-07 9.217440e-09 1.071176e-09 7.768434e-09
1.188343e-06 -1.064111e-07 -7.037918e-07 5.896840e-07 8.730949e-08 1.270813e-07
5.229506e-07 -2.558620e-08 -1.949885e-07 -8.262900e-08 -1.693013e-08 4.600625e-08
-5.609283e-08 4.088927e-07 -3.333140e-07 -1.868423e-07 -4.100496e-07 1.823490e-07
2.133100e-07 9.837169e-08 -4.511216e-07 -2.378062e-07 5.520127e-07 -1.314683e-07
-2.493609e-07 5.409411e-07 -2.522087e-07 -3.859556e-08 3.876448e-07 1.632928e-07
2.220400e-07 4.164437e-07 -5.880053e-07 -3.793860e-08 4.387851e-07 -2.254957e-08
-2.315423e-07 6.422062e-07 -2.811880e-07 1.614637e-07 4.789238e-07 1.387079e-07
-1.770231e-07 9.535048e-07 -5.669483e-07 2.292933e-07 1.289894e-07 8.375378e-08
-2.034060e-07 1.134760e-06 -5.914078e-07 3.447931e-07 2.280591e-07 5.358088e-08
-8.511900e-08 8.841396e-07 -5.043968e-07 3.157583e-07 3.397186e-07 1.297936e-07
-1.923730e-07 9.363760e-07 -5.083496e-07 2.718535e-07 2.906523e-07 8.609991e-08
-8.534809e-08 4.520080e-07 -2.449403e-07 1.753535e-08 7.698327e-08 8.329669e-08
7.227055e-07 8.082844e-07 -1.012592e-06 -6.363264e-07 8.906646e-08 -6.590799e-08
-1.416551e-07 6.001774e-07 -2.776495e-07 2.041243e-07 4.052459e-07 1.491124e-07
3.952403e-07 6.603367e-08 -1.421098e-07 -1.144524e-08 -5.422431e-09 5.842630e-09
1.089657e-06 7.145049e-07 -9.006184e-07 -1.373248e-06 7.610428e-07 -7.071716e-07
4.139889e-07 3.521662e-08 -1.583489e-07 -2.658985e-08 -5.172530e-09 6.866527e-09
3.940687e-07 6.474470e-08 -1.501351e-07 -2.674861e-08 -4.134750e-09 6.548112e-09
1.093254e-06 -2.426093e-07 -8.482274e-07 -2.570867e-08 5.175954e-07 1.304806e-08
7.555821e-07 5.525849e-07 -1.034795e-06 -1.099844e-07 7.280623e-08 -1.601508e-14
3.845388e-07 7.763779e-08 -1.621589e-07 -4.080439e-08 -1.219961e-08 1.833359e-08
1.367644e-07 2.935265e-07 -2.098514e-07 2.333136e-10 -3.580308e-08 7.922821e-08
1.406970e-07 6.096364e-07 -7.121149e-07 -3.750415e-07 6.043358e-07 -3.158176e-07
3.645609e-07 9.309525e-08 -1.435755e-07 -1.949878e-08 -4.691594e-09 8.312027e-09
3.825007e-07 7.497626e-08 -1.489359e-07 -3.869442e-08 -6.502300e-09 9.434701e-09
8.408193e-08 4.149498e-07 -3.539826e-07 -1.874372e-08 -2.767307e-08 1.104261e-07
-9.398973e-08 5.323287e-07 -2.324136e-07 -2.535173e-08 5.402133e-08 -3.267908e-08
-1.314854e-07 4.520505e-07 -2.280168e-07 -1.824191e-08 2.102458e-07 -9.941671e-08
1.805780e-07 2.171517e-07 -1.921956e-07 -6.153548e-08 -1.061980e-07 1.007503e-07
-8.413190e-08 6.908417e-07 -4.273097e-07 -8.410828e-08 8.658406e-08 -5.691619e-08
1.461340e-07 2.252873e-07 -2.062669e-07 -6.739319e-08 -1.075046e-07 1.251885e-07
2.121956e-07 4.111974e-07 -3.547070e-07 -6.688944e-08 -3.567512e-08 8.963012e-08
1.342479e-07 3.257447e-07 -2.367075e-07 -2.598972e-08 -3.871612e-08 1.070368e-07
1.150220e-07 2.455920e-07 -2.102947e-07 -5.954781e-08 -1.013722e-07 1.133889e-07
9.128311e-08 8.093056e-07 -7.747996e-07 -3.490424e-07 8.956359e-08 -3.496264e-08
1.808075e-07 2.303272e-07 -2.053133e-07 -2.753898e-08 -3.415356e-08 8.431170e-08
-6.151831e-08 5.204476e-07 -2.575594e-07 -1.698721e-08 1.290370e-07 -6.358479e-09
-1.373847e-08 5.028347e-07 -2.397742e-07 -4.793581e-08 1.904911e-07 -5.283181e-08
-7.073924e-08 5.128885e-07 -2.239832e-07 -2.539564e-08 1.196285e-07 -1.927093e-08
-5.897225e-08 5.807140e-07 -3.302778e-07 -1.103642e-08 2.185818e-08 -7.396406e-09
4.212655e-07 4.284974e-08 -1.436914e-07 -4.803743e-09 -5.975075e-10 3.311411e-09
4.051704e-07 5.849329e-08 -1.424736e-07 -4.411672e-09 -3.084536e-11 2.724140e-09
4.273923e-07 4.568859e-08 -1.465879e-07 -1.135728e-08 -4.010411e-09 2.058761e-09
-2.916492e-09 -7.764817e-07 -1.536350e-08 -7.789481e-08 4.448331e-07 -3.869483e-07
-9.645873e-08 6.335877e-07 -3.697934e-07 -1.025000e-07 2.008700e-07 -1.324995e-07
4.006188e-09 5.990312e-07 -4.208195e-07 -8.802407e-08 1.993127e-07 -5.703262e-08
1.734673e-06 -7.761153e-07 -6.037447e-07 -1.785916e-07 3.565014e-07 -4.985694e-07
8.970486e-08 -3.894712e-07 3.515523e-07 7.288477e-08 4.407244e-07 -1.167018e-06
3.565101e-07 5.714901e-07 -6.598107e-07 -1.518392e-07 4.610266e-07 -1.303300e-07
4.315473e-06 -2.308963e-06 4.856975e-07 -1.019709e-06 1.736670e-07 -9.944342e-07
-3.078355e-08 5.319938e-07 -3.565812e-07 -6.092835e-08 1.866352e-07 -5.143357e-08
-6.673458e-08 4.592173e-07 -2.400311e-07 -1.314645e-08 1.587798e-07 -5.078675e-08
-2.648748e-07 7.447191e-07 -6.256364e-07 -2.512535e-07 -4.295984e-07 2.637807e-07
-6.669532e-08 -5.339448e-07 8.735023e-07 -7.658978e-08 -3.491869e-07 -1.357636e-06
-4.102638e-08 6.618609e-07 -3.834920e-07 -2.110737e-07 -2.899942e-07 1.963124e-07
-1.902264e-07 8.007849e-07 -6.091384e-07 -2.919155e-07 -4.120627e-07 2.284785e-07
-2.172580e-07 8.555896e-07 -3.596077e-07 -3.627536e-07 -6.804104e-07 3.248454e-07
-1.873795e-08 7.937704e-07 -6.483313e-07 -1.936382e-07 -1.464971e-07 8.682766e-08
5.135511e-08 1.151512e-06 -7.936874e-07 -4.859582e-07 -6.560463e-08 3.301954e-08
-1.477084e-07 7.112426e-07 -4.952729e-07 -9.992694e-08 -2.379406e-07 1.608064e-07
7.322282e-08 6.402774e-07 -5.061239e-07 -2.242217e-07 3.135655e-07 -1.374968e-07
9.875482e-09 6.867734e-07 -5.403977e-07 -1.565851e-07 1.369076e-07 -3.866227e-08
4.381612e-06 -3.317942e-06 6.688714e-06 3.001739e-06 3.623113e-07 1.872076e-06
4.696487e-08 6.676676e-07 -5.998339e-07 -1.517958e-07 6.247308e-08 -3.027722e-08
2.724088e-07 -1.552486e-06 1.109822e-06 -2.058760e-07 -3.687013e-08 -9.743923e-07
5.500412e-08 6.613651e-07 -4.645955e-07 -8.309225e-08 1.052930e-07 -2.552403e-08
1.235426e-07 6.132307e-07 -5.713119e-07 -4.522250e-08 8.707538e-08 -1.392220e-09
1.854921e-07 6.724095e-07 -5.477238e-07 -1.351082e-07 1.683509e-07 -1.930842e-08
1.335942e-07 6.742636e-07 -5.924556e-07 -9.777033e-08 2.627847e-08 -1.710530e-08
3.780629e-06 -1.090794e-06 -1.609565e-06 2.896060e-07 -1.476513e-07 -9.677146e-08
4.126824e-07 1.448351e-07 -4.663924e-07 9.028713e-08 -5.706310e-07 -2.257163e-07
-2.172614e-07 1.271287e-06 -6.775619e-07 -4.175943e-07 -5.713248e-07 3.047487e-07
-1.249253e-07 5.479023e-07 -2.086457e-07 -3.084639e-08 4.463805e-08 -5.995400e-08
-8.754078e-08 6.478387e-07 -3.869624e-07 -9.486733e-08 1.232287e-07 -6.701626e-08
-7.049477e-08 4.501399e-07 -2.559042e-07 -2.263610e-08 1.963898e-07 -5.575486e-08
-4.190270e-08 5.683223e-07 -4.298381e-07 -6.102092e-08 1.170662e-07 -2.026137e-08
-1.655714e-07 3.151193e-07 -3.354872e-07 -6.778670e-08 -4.373342e-07 2.324910e-07
5.810649e-07 -8.259473e-08 -1.850478e-07 -5.162391e-08 -1.878203e-08 8.036459e-08
3.975669e-07 6.419288e-08 -1.576903e-07 9.204668e-09 -3.058102e-09 8.318812e-16
5.804718e-07 -1.226191e-07 -2.016976e-07 -5.417281e-08 -1.814400e-08 1.020093e-07
5.271233e-07 -1.034725e-08 -2.335662e-07 1.109374e-07 2.350642e-08 6.233929e-08
3.740512e-07 7.840424e-08 -1.526796e-07 7.273295e-09 5.411583e-09 2.540464e-09
5.643705e-07 -1.094776e-07 -1.855370e-07 -2.213567e-08 -6.416133e-09 5.875212e-08
5.503892e-07 -8.763236e-08 -1.612393e-07 9.658799e-09 4.214768e-09 1.623267e-08
5.584669e-07 -8.323084e-08 -1.559763e-07 1.810101e-08 1.039714e-08 2.925781e-08
1.255456e-06 -2.431823e-07 -6.847305e-07 3.928911e-07 4.125931e-09 7.104357e-08
5.612337e-07 -1.081884e-07 -1.671956e-07 1.420211e-08 3.789435e-09 5.575182e-08
6.451906e-07 -1.072247e-07 -2.399363e-07 2.025585e-08 1.466656e-09 9.369122e-09
5.762051e-07 -1.117704e-07 -1.884340e-07 -5.972351e-08 2.203231e-09 1.049008e-07
8.230261e-07 -1.491230e-07 -4.314363e-07 2.298102e-07 3.407155e-08 1.499074e-07
5.571474e-07 -8.500271e-08 -1.541026e-07 -2.067374e-08 -9.706058e-09 3.532075e-08
6.346066e-07 -1.088242e-07 -2.366632e-07 -2.209808e-08 -6.465226e-09 8.159920e-09
6.164061e-07 -8.139048e-08 -2.542947e-07 -6.615168e-08 -7.428239e-09 1.318403e-08
5.125369e-07 -4.143245e-08 -1.734160e-07 -5.077458e-08 -1.524280e-08 3.232585e-08
5.628002e-07 -1.013162e-07 -1.587325e-07 -1.568505e-08 -9.497471e-09 3.541235e-08
5.807880e-07 -6.669086e-08 -2.199864e-07 4.062954e-08 1.228668e-09 7.301710e-09
3.822298e-07 6.671925e-08 -1.420120e-07 -1.572077e-09 -1.649057e-09 6.221423e-10
5.143993e-08 5.469133e-07 -4.892394e-07 -2.442923e-07 -2.015866e-07 1.388296e-07
6.845263e-07 -1.137180e-07 -3.182986e-07 -7.087581e-08 -6.803251e-09 3.955438e-08
6.660591e-07 -1.150986e-07 -2.815503e-07 -6.305176e-08 -1.726644e-09 4.864946e-08
9.300636e-07 -1.428332e-07 -5.273309e-07 3.636089e-07 5.397604e-08 1.962679e-07
5.799580e-07 -9.577242e-08 -1.941479e-07 -1.255217e-08 -3.957490e-09 1.487780e-08
4.114975e-07 5.049107e-08 -1.533550e-07 -1.144442e-08 -2.246208e-09 -1.389410e-09
5.777506e-07 -3.262483e-08 -2.619450e-07 -1.189244e-07 -2.839741e-08 4.527085e-08
6.491864e-07 -1.367647e-07 -2.728989e-07 -7.477881e-09 -3.054738e-08 1.180049e-07
6.080260e-07 -1.086425e-07 -2.112420e-07 -8.166341e-09 -1.338026e-09 1.746527e-08
6.589280e-07 -1.254099e-07 -2.540408e-07 -2.158280e-08 -1.195791e-08 4.368555e-08
5.699910e-07 -7.215630e-08 -2.148503e-07 2.077944e-08 -3.585824e-09 9.645599e-09
5.791689e-07 -6.570012e-08 -2.147178e-07 5.990192e-08 9.851588e-09 3.358861e-08
3.896145e-07 7.445323e-08 -1.541575e-07 -1.654279e-08 1.349314e-11 3.459102e-09
6.026586e-07 -6.798865e-08 -2.499026e-07 7.072435e-08 1.410934e-08 4.020007e-08
5.877824e-07 -8.352091e-08 -2.220032e-07 3.412277e-08 2.027144e-09 3.796098e-08
6.076945e-07 -8.324319e-08 -2.549708e-07 4.503617e-08 -4.869401e-09 2.612367e-08
6.109572e-07 -7.927369e-08 -2.251164e-07 3.501157e-08 7.358700e-09 8.370391e-09
5.560388e-07 -6.287622e-08 -1.995316e-07 1.017691e-08 4.731947e-09 1.533020e-08
5.671143e-07 -6.669086e-08 -2.199864e-07 2.192060e-08 -3.054041e-09 5.736664e-09
5.142052e-07 -4.034438e-08 -1.806468e-07 -8.943453e-09 -1.061074e-08 7.724910e-09
6.160801e-07 -1.076158e-07 -2.278691e-07 -4.731894e-09 -8.932006e-09 3.626767e-09
5.592871e-07 -5.477610e-08 -2.423783e-07 6.391043e-08 -2.840163e-09 1.331125e-08
-2.722283e-06 4.972874e-06 8.741060e-07 -7.356585e-07 5.137887e-07 -3.965356e-08
-2.148739e-06 4.670721e-06 1.026257e-06 2.576230e-07 -3.611168e-07 2.439251e-07
6.165620e-07 -1.068347e-07 -2.196472e-07 -3.287675e-09 -1.175150e-09 5.697480e-09
-2.154355e-06 4.205633e-06 3.870381e-08 3.399737e-07 4.587417e-07 1.628148e-07
6.239724e-07 -1.101418e-07 -2.201587e-07 -9.224256e-10 1.952077e-10 -3.601292e-19
-1.633304e-06 4.218332e-06 -4.914029e-08 4.726036e-07 4.661737e-07 -4.182093e-08
-1.424960e-06 3.556884e-06 -6.107466e-07 4.420253e-07 6.916679e-07 1.385524e-07
6.558038e-07 -1.151231e-07 -2.445641e-07 3.397663e-09 1.607886e-10 8.448579e-09
-2.129164e-06 3.307258e-06 2.980200e-07 1.024309e-06 1.112828e-07 -2.295317e-09
2.932493e-07 2.601165e-07 -3.404939e-07 -2.032968e-07 -1.077791e-07 1.625022e-07
1.443788e-07 5.667173e-07 -4.737080e-07 -4.895844e-08 -2.812297e-08 7.912383e-09
2.011598e-07 5.630905e-07 -4.559859e-07 -2.490297e-07 2.810267e-08 1.861654e-08
1.925769e-07 4.694134e-07 -3.995129e-07 -1.056389e-07 -5.211218e-08 7.580522e-08
3.232830e-07 1.323494e-07 -1.403925e-07 5.296371e-09 -9.395468e-10 1.968773e-09
2.463638e-07 1.762127e-07 -2.007594e-07 -4.585146e-08 -5.144223e-08 6.482128e-08
2.172353e-07 2.581478e-07 -3.045010e-07 -1.738074e-07 -1.549877e-07 1.624861e-07
3.600509e-07 1.261426e-07 -1.854556e-07 -2.931412e-08 -3.060465e-09 1.003104e-08
3.777307e-07 8.313614e-08 -1.451371e-07 -5.596525e-09 -4.042973e-09 -3.846317e-10
3.321009e-07 1.264833e-07 -1.362675e-07 3.366933e-09 -2.453293e-10 -7.099578e-10
3.360713e-07 1.156914e-07 -1.442016e-07 3.166845e-08 5.974162e-09 -1.016154e-09
3.602504e-07 1.098610e-07 -1.776991e-07 -1.849500e-08 -4.582008e-09 2.821456e-09
3.184539e-07 1.276193e-07 -1.461898e-07 1.299217e-08 1.929635e-09 1.758713e-09
3.148632e-07 1.945939e-07 -3.254239e-07 -1.577964e-07 -6.373960e-08 6.520301e-08
3.677429e-07 9.913447e-08 -2.052376e-07 -8.137231e-08 -2.345123e-08 4.194017e-08
3.686436e-07 8.851348e-08 -1.535421e-07 -8.097467e-09 -1.822442e-09 5.355925e-09
-4.624536e-07 1.534262e-06 -9.033571e-07 -6.739259e-09 -1.528597e-08 -9.044848e-09
-4.109220e-07 1.526186e-06 -8.636436e-07 -1.341761e-08 4.913341e-16 -1.760531e-09
-3.374568e-07 8.911779e-07 -5.562022e-07 3.147388e-08 -2.444037e-07 -1.014835e-07
-4.776269e-07 1.693180e-06 -8.939763e-07 5.862045e-08 -7.687284e-08 -2.751260e-08
3.294478e-07 1.389086e-07 -1.457662e-07 2.413335e-08 4.171298e-09 3.966094e-09
1.219050e-06 2.371652e-07 -8.803328e-07 7.312963e-07 -6.000820e-07 -3.443435e-07
2.469185e-07 3.045504e-07 -7.644106e-07 5.137995e-07 -7.928089e-07 -7.241520e-07
3.151319e-07 4.628899e-07 -4.691825e-07 3.514196e-07 -6.609537e-07 -2.873527e-07
-4.936254e-07 1.799867e-06 -7.163785e-07 -1.524155e-07 -5.218370e-07 4.282076e-08
-1.147530e-07 5.676208e-07 -3.079741e-07 -2.484402e-07 -3.504842e-07 1.564625e-07
4.938017e-07 2.520502e-07 -4.727957e-07 2.623983e-07 -6.180421e-07 -2.690738e-07
-1.435915e-07 1.195420e-07 -3.096509e-07 8.124092e-08 -7.559478e-07 -4.094424e-07
1.021858e-07 9.763050e-07 -1.001099e-06 8.758018e-07 -4.788512e-07 -3.028096e-07
-7.201773e-08 4.843492e-08 -3.494298e-07 4.537391e-08 -8.095262e-07 -4.291834e-07
-7.974665e-07 -2.950808e-06 1.452732e-05 6.355466e-06 1.263485e-06 1.718097e-06
1.894645e-07 4.425013e-07 -4.826658e-07 4.185407e-07 -6.435655e-07 -3.559226e-07
2.711564e-06 -6.603038e-06 1.799612e-05 3.456628e-06 -8.693126e-07 4.304849e-07
4.383442e-07 8.876664e-07 -8.373454e-07 4.620943e-07 -6.143002e-08 3.461000e-08
8.505525e-07 6.400341e-07 -7.874992e-07 6.802326e-07 -6.275724e-07 -4.527474e-07
5.633466e-07 4.019261e-07 -8.880164e-07 6.658132e-08 -4.473558e-07 -3.337581e-08
4.890238e-06 -6.051603e-06 8.509712e-06 2.415202e-06 7.304233e-07 7.150947e-07
-3.931592e-08 1.355805e-06 -9.791394e-07 9.306548e-07 -3.161645e-07 -1.947961e-07
4.956909e-06 -6.929955e-06 9.505457e-06 7.039576e-07 -5.836220e-08 1.364435e-06
1.625803e-06 -3.067525e-07 -7.843324e-07 -6.474490e-07 -1.441150e-07 4.161917e-07
7.272187e-07 -2.723399e-08 -4.554979e-07 -2.633104e-07 -3.766300e-08 7.516704e-08
5.836672e-07 6.910747e-08 -3.797373e-07 -2.623197e-07 6.107294e-09 4.189071e-08
1.258189e-06 -4.146035e-07 -6.478891e-07 -2.968923e-08 -1.583328e-08 2.445462e-07
3.119667e-06 -3.002162e-06 6.480024e-06 4.427401e-06 9.415020e-07 -3.486985e-07
6.004109e-07 -1.351451e-07 -2.030682e-07 -2.870724e-08 -1.699660e-08 1.090976e-07
9.492714e-07 -2.721099e-07 -5.050706e-07 1.094812e-07 1.244728e-08 1.526118e-07
6.107225e-07 -1.100617e-07 -2.321179e-07 -1.214893e-08 -2.941117e-09 8.428776e-09
8.717438e-07 -1.577009e-07 -4.201337e-07 -3.718229e-08 -1.652175e-08 3.597018e-08
7.909011e-07 -1.478008e-07 -3.474525e-07 -7.311608e-09 2.311336e-10 2.993771e-08
6.474562e-07 -1.161724e-07 -2.671132e-07 -4.681644e-08 -4.001784e-09 1.589806e-08
6.403840e-07 -1.216024e-07 -2.398451e-07 -2.392859e-08 4.355355e-10 1.096234e-08
9.901824e-07 -1.955912e-07 -4.596605e-07 -1.005409e-07 -1.541232e-08 1.496695e-07
3.612622e-06 -3.343895e-06 4.068114e-06 4.195903e-06 -4.143334e-07 -1.796350e-07
6.889816e-07 -1.463163e-07 -2.833089e-07 2.576616e-08 4.985872e-09 1.269675e-07
1.019088e-06 -1.971398e-07 -5.229370e-07 -2.401663e-08 2.310474e-08 1.584385e-07
6.053601e-06 -4.931730e-06 7.655207e-06 1.030836e-06 -1.535160e-07 -3.696753e-07
4.708024e-06 -3.544046e-06 6.481789e-06 3.229894e-06 -4.261802e-07 -2.695402e-07
8.069379e-07 -1.964969e-07 -4.108617e-07 -3.144967e-10 6.169421e-09 1.228203e-07
-1.028213e-06 3.163936e-06 1.335137e-07 -1.468117e-06 -8.967924e-10 2.341837e-07
5.434154e-06 -4.450965e-06 4.269688e-06 1.927997e-06 -4.060873e-09 4.030374e-07
-2.642600e-07 7.694350e-07 -4.692575e-07 -1.968037e-08 -4.726838e-08 9.064743e-08
-3.212416e-07 1.172486e-06 -6.595673e-07 -2.611840e-08 -3.488694e-08 6.335854e-08
4.068042e-06 -3.317942e-06 2.727646e-06 2.013395e-06 4.636460e-07 6.843830e-07
-1.987780e-07 4.173409e-07 -3.028144e-07 -7.284473e-09 -4.960702e-08 1.088160e-07
4.292688e-07 1.611558e-07 -2.592024e-07 -1.671297e-07 -2.549037e-08 2.912683e-08
3.992973e-07 1.392634e-07 -3.441894e-07 -1.814093e-07 4.528162e-09 1.069851e-09
-2.326311e-07 1.851598e-06 -9.534745e-07 -1.134560e-06 -3.845662e-07 3.018155e-07
7.027779e-09 2.448801e-06 -8.610884e-07 -1.933953e-06 -3.341737e-07 2.165245e-07
-2.326311e-07 1.447315e-06 -8.770213e-07 -8.165763e-07 -3.776384e-07 1.579789e-07
8.653694e-07 -4.051967e-08 -5.287820e-07 3.823101e-07 5.647962e-08 5.999178e-08
8.991570e-08 1.310527e-06 -8.806271e-07 -9.507877e-07 -9.916999e-08 9.111234e-08
4.299996e-07 1.768582e-07 -4.354672e-07 -2.867459e-07 -3.716985e-08 3.745320e-08
3.726515e-07 1.657216e-07 -3.307696e-07 -1.799501e-07 -2.305251e-08 2.495584e-08
4.325740e-07 1.842558e-07 -3.686736e-07 -2.483797e-07 -8.723481e-08 4.434604e-08
3.644551e-07 5.588118e-07 -7.588170e-07 -7.365271e-07 -2.889434e-07 2.347127e-07
4.321519e-07 2.074423e-07 -3.862987e-07 -2.663086e-07 6.403647e-09 5.438288e-08
2.198593e-06 3.738884e-07 -7.152069e-07 -2.454054e-06 -5.972577e-08 1.205624e-07
5.927211e-07 3.336301e-07 -5.448647e-07 -5.491897e-07 -1.531866e-07 1.552477e-07
3.965525e-07 2.493889e-07 -3.843481e-07 -2.466079e-07 -4.507767e-08 -6.861658e-09
4.833400e-07 1.694574e-07 -3.983809e-07 -2.759655e-07 -4.904048e-08 -7.506302e-09
4.863979e-07 4.298927e-07 -6.238373e-07 -5.557272e-07 -7.515230e-08 -7.040637e-09
1.039272e-06 -2.555786e-07 1.522419e-06 -3.454206e-06 -1.754416e-07 2.584124e-07
-9.166264e-08 7.318719e-07 -4.681670e-07 4.004376e-08 -7.542242e-08 -1.068552e-07
8.610297e-07 1.810855e-06 -6.736542e-07 -2.944199e-06 -1.764861e-08 1.006665e-07
4.287703e-07 8.701140e-07 9.529214e-07 -3.018529e-06 -4.703916e-07 3.835500e-07
2.890412e-08 1.519297e-06 -5.985236e-07 -1.679812e-06 -1.966944e-07 2.725398e-07
-3.213351e-07 2.013667e-06 -8.790054e-07 1.220118e-06 2.914092e-07 8.424020e-08
-3.943543e-07 1.529123e-06 -8.384337e-07 5.326532e-07 1.843766e-07 3.851227e-08
-9.770184e-08 8.297397e-07 -5.458391e-07 3.330056e-08 -2.790962e-08 -7.823824e-08
-1.023776e-06 2.231356e-06 -8.260744e-07 4.891991e-08 4.079456e-07 6.227802e-08
-3.427025e-09 4.639958e-07 -2.623105e-07 2.360803e-08 7.711337e-09 6.532342e-08
5.778752e-08 7.633672e-07 -6.747553e-07 1.512971e-07 -7.532160e-08 -2.720840e-08
-7.049917e-07 2.104391e-06 -8.954226e-07 1.667356e-07 8.384235e-08 -3.735300e-08
-7.139291e-07 2.639681e-06 -2.331492e-07 1.544078e-06 1.743025e-07 2.022110e-07
-2.631569e-07 7.346887e-07 -3.220436e-07 7.445840e-09 1.054273e-07 6.077020e-08
-3.632899e-09 7.345003e-07 -5.795325e-07 6.051429e-09 -1.929889e-08 -4.204980e-08
6.661299e-09 8.049180e-07 -5.895366e-07 7.640734e-08 -1.942719e-08 -1.767780e-08
-7.049917e-07 1.854740e-06 -8.698186e-07 1.400284e-07 1.654244e-07 -1.640577e-08
-4.310827e-07 8.401533e-07 -5.486736e-07 -8.143189e-09 -5.416828e-07 -2.283286e-08
-2.813295e-07 2.832763e-07 -3.072410e-07 -2.948555e-08 -5.963135e-07 -5.298390e-08
-4.490795e-07 1.253466e-06 -6.960993e-07 -2.179804e-08 -5.250342e-07 1.895840e-09
-4.454457e-07 1.141508e-06 -6.771742e-07 6.666339e-08 -5.685854e-07 -7.441533e-08
-5.631505e-07 8.316946e-07 -3.168709e-07 6.853639e-08 -9.849041e-07 -1.779393e-08
2.238687e-06 -7.474011e-07 -8.561925e-07 8.737383e-07 -9.338847e-10 1.209120e-07
8.362430e-07 5.090174e-08 -5.987301e-07 5.379000e-07 5.233718e-08 1.925836e-07
-4.065203e-07 1.733643e-06 -8.105274e-07 6.147970e-07 3.072213e-07 9.772349e-08
-6.031427e-07 2.316477e-06 -9.125729e-07 4.915278e-07 2.368804e-07 3.024859e-08
5.641197e-07 2.933004e-07 -7.139186e-07 7.083987e-07 1.958417e-07 2.173847e-07
-4.770165e-07 1.934616e-06 -8.708076e-07 4.338627e-07 5.776843e-08 4.212193e-08
-1.860622e-07 1.227158e-06 -8.158755e-07 5.527647e-07 2.358698e-07 6.043567e-08
-5.611125e-07 1.806510e-06 -8.728800e-07 6.193528e-07 7.904058e-08 2.773162e-08
-9.643069e-07 2.516724e-06 -8.728448e-07 8.670385e-07 5.367250e-08 3.551811e-08
-6.451048e-07 1.893119e-06 -8.069518e-07 7.073926e-07 3.649456e-07 7.271905e-08
3.531362e-06 -1.417127e-06 -4.043184e-07 1.664245e-06 4.938709e-07 4.261361e-07
1.100321e-06 -1.273333e-07 -6.335537e-07 4.554406e-07 -8.373031e-09 5.709445e-08
3.081473e-06 -7.463270e-07 -8.388436e-07 9.751903e-07 7.149489e-08 4.402903e-07
1.081371e-06 -1.323873e-08 -6.925390e-07 9.276765e-07 9.111941e-08 2.894386e-07
1.728334e-06 -4.095954e-07 -6.974137e-07 1.258234e-07 2.401024e-08 3.231037e-07
-3.943543e-07 1.747169e-06 -8.729599e-07 6.137063e-07 1.147529e-07 -2.872165e-08
2.535670e-06 -6.274167e-07 -9.029917e-07 4.183507e-07 1.721621e-07 3.603252e-07
-1.788697e-07 7.362055e-07 -4.941585e-07 -9.021669e-08 -2.322963e-07 1.606238e-07
-3.475325e-07 1.114416e-06 -7.298340e-07 -2.010754e-07 -4.163029e-07 1.129804e-07
-1.131753e-08 5.683146e-07 -3.882827e-07 -3.474971e-07 -5.872294e-07 3.019990e-07
-1.144507e-06 3.233105e-06 2.580489e-06 -4.241209e-06 -7.060691e-07 2.933805e-07
-4.915230e-06 4.100014e-06 9.162320e-06 4.227216e-06 1.037049e-06 1.278072e-06
-2.767343e-06 2.037690e-06 7.676704e-06 5.106275e-06 3.802889e-06 2.343611e-06
-2.536303e-06 3.173864e-06 3.422666e-06 3.156716e-06 -1.460636e-07 -1.140782e-07
-3.203856e-06 -1.448014e-06 1.602770e-05 6.433972e-06 2.232836e-06 3.197638e-06
-5.899167e-06 -1.663943e-06 1.720609e-05 4.712383e-06 3.766997e-06 2.433805e-06
-1.678290e-07 3.563660e-07 -3.315492e-07 -2.890281e-08 -4.055960e-07 2.906442e-07
9.643846e-07 6.684778e-07 1.664118e-06 3.629709e-06 -2.587821e-07 3.461964e-07
1.476636e-06 -3.566752e-07 -6.846331e-07 2.558357e-07 5.155610e-08 3.257426e-07
1.730972e-07 1.554660e-06 2.289242e-06 4.509122e-06 1.494387e-06 7.679105e-07
-3.610113e-06 4.595604e-06 1.924382e-06 1.965849e-06 -4.305830e-07 -1.612719e-07
1.173376e-06 -2.714744e-07 -5.765237e-07 1.719150e-07 -1.082496e-08 7.521885e-08
1.382608e-06 -7.400549e-08 -8.900811e-07 1.535486e-07 -5.942521e-07 -1.736164e-07
-4.792356e-07 2.178240e-06 -9.917352e-08 2.053230e-06 -3.350356e-07 5.302319e-08
-2.502522e-06 3.822306e-06 5.277009e-07 -5.095295e-07 -2.017231e-07 -4.989865e-09
7.897277e-07 -4.064100e-08 -4.492537e-07 3.390202e-07 5.235387e-08 1.149003e-07
-1.063620e-06 3.263774e-06 -5.561345e-07 1.829901e-07 -4.427184e-07 5.279141e-08
1.143775e-06 -2.206739e-07 -5.699359e-07 1.662891e-07 8.409535e-09 6.850583e-08
-2.087789e-06 4.675910e-06 9.746098e-07 -9.637669e-07 3.025577e-07 7.808001e-08
8.890953e-07 -2.177064e-07 -4.508009e-07 1.787319e-07 1.351229e-08 1.563802e-07
3.271124e-06 -1.367619e-06 -8.224323e-07 1.605219e-07 3.021761e-08 3.598381e-07
1.247733e-06 -2.237863e-07 -6.437710e-07 2.519119e-07 3.966680e-08 6.767248e-08
2.227822e-06 -6.266500e-07 -7.781425e-07 2.917382e-08 7.547430e-08 3.020725e-07
-4.038541e-06 3.875054e-06 9.267472e-06 4.153472e-06 1.603547e-06 2.890978e-07
1.321851e-06 -2.386892e-07 -7.022444e-07 3.317919e-07 1.200905e-08 1.186414e-07
-9.929839e-06 1.657912e-06 2.349283e-05 2.804660e-06 1.002111e-05 -1.122994e-06
-1.081037e-05 3.368912e-06 2.099180e-05 -4.995938e-07 4.972134e-06 6.832601e-07
9.851057e-07 -1.273333e-07 -5.574418e-07 4.064389e-07 2.681848e-08 4.547638e-08
-3.304597e-07 3.441172e-07 -2.667858e-07 4.503610e-09 -9.124414e-07 -1.427382e-07
1.934136e-07 3.120048e-07 -2.040461e-07 -4.454619e-08 -4.838168e-08 9.604759e-08
2.421429e-07 2.952256e-07 -2.820857e-07 -5.016836e-08 -2.866719e-08 5.265204e-08
3.169843e-07 1.479017e-07 -1.851451e-07 -1.921756e-08 2.703862e-09 2.806419e-08
3.482425e-06 -1.245167e-06 -2.344706e-07 -4.683254e-07 7.414473e-08 6.473046e-08
1.204677e-07 4.160450e-07 -3.435379e-07 -8.038008e-08 -5.477145e-08 9.748467e-08
3.165713e-06 -1.693578e-06 -7.210402e-07 8.201761e-08 -8.867207e-08 3.373399e-07
1.662797e-07 4.207715e-07 -3.717528e-07 -5.977019e-08 -4.529098e-08 4.730645e-08
1.868804e-07 3.303391e-07 -2.951241e-07 -1.928778e-08 -2.798813e-08 8.928286e-08
3.372856e-06 -1.079967e-06 -7.210402e-07 -2.756558e-07 -6.135828e-08 3.201398e-07
2.593611e-07 2.762883e-07 -3.385361e-07 -9.041612e-08 -5.088838e-08 4.975934e-08
1.955182e-07 3.585556e-07 -3.569749e-07 -1.128095e-07 -3.424145e-08 3.259243e-08
4.371683e-07 3.137115e-08 -1.727810e-07 -6.303291e-08 -1.516318e-08 2.100184e-08
3.914944e-07 6.819919e-08 -1.467208e-07 -1.254571e-08 -1.678110e-09 1.991170e-09
-3.330332e-06 -1.413461e-06 1.295934e-05 7.215080e-06 3.920554e-07 7.929618e-08
-1.367372e-05 -1.923487e-05 6.788199e-05 -3.190220e-06 1.136261e-05 -1.072662e-05
-5.587981e-06 -4.703725e-06 2.435752e-05 -6.069382e-06 1.506974e-06 -2.028535e-06
-4.614786e-06 3.482739e-06 8.388770e-06 -4.042244e-06 9.705681e-07 -4.563515e-07
4.206021e-07 6.068218e-08 -1.799640e-07 -8.095942e-08 5.246809e-10 1.895620e-08
3.735843e-08 5.565278e-07 -5.687586e-07 -2.203985e-07 4.119640e-07 -1.559635e-07
-3.058305e-06 -7.695832e-07 1.476149e-05 -6.076035e-06 9.003648e-07 -5.609179e-07
2.313924e-08 4.796314e-07 -2.622148e-07 -6.545297e-08 2.808343e-07 -9.412078e-08
4.580463e-08 6.571092e-07 -6.027276e-07 -3.205639e-07 3.929458e-07 -1.955890e-07
-1.268635e-05 7.463324e-07 3.243495e-05 -3.186363e-06 1.276364e-05 -3.495160e-06
-5.715846e-06 -5.332189e-06 3.091573e-05 -4.826679e-06 6.171600e-06 -8.146174e-06
-6.548291e-07 1.621802e-06 -7.760452e-07 1.499836e-07 3.120588e-07 4.023734e-08
-2.281158e-07 1.236749e-06 -6.976030e-07 2.621007e-07 5.973833e-08 4.332539e-08
-4.665809e-07 1.671448e-06 -7.756620e-07 5.330457e-08 3.275316e-07 9.815466e-09
-4.271419e-07 1.334837e-06 -6.786433e-07 3.299843e-08 2.184212e-07 -2.858022e-08
-2.054276e-07 4.421087e-07 -3.028616e-07 5.692192e-08 5.444195e-07 1.561697e-07
7.858481e-08 6.708146e-07 -5.724345e-07 -1.660795e-07 1.559980e-07 -7.185461e-08
1.928808e-07 5.658874e-07 -5.677184e-07 -1.072485e-07 2.559119e-07 -5.254135e-08
3.382283e-07 1.427771e-07 -1.881312e-07 8.657147e-08 -4.503216e-09 1.408812e-08
3.527594e-07 1.235720e-07 -1.587784e-07 5.381849e-08 -1.665950e-09 -3.783533e-09
2.633400e-08 6.213542e-07 -5.552891e-07 -1.135764e-07 1.789912e-07 -6.223367e-08
3.320396e-07 1.225333e-07 -1.724885e-07 6.504840e-08 -6.879371e-11 6.956318e-10
1.274867e-07 6.873672e-07 -6.343576e-07 -2.079273e-07 1.807444e-07 -5.939658e-08
3.108233e-07 1.466195e-07 -1.684198e-07 5.875191e-08 1.809730e-09 -1.017396e-09
3.422502e-07 1.194954e-07 -1.402456e-07 1.065063e-08 1.283796e-09 2.098633e-09
3.534594e-07 1.180283e-07 -1.476403e-07 2.822315e-08 4.985917e-09 2.745524e-09
2.834538e-08 8.910125e-07 -5.857302e-07 -3.048374e-07 7.913148e-08 -3.904755e-08
3.994568e-07 6.186892e-08 -1.829445e-07 6.283418e-08 9.916929e-09 1.401591e-08
2.060425e-07 7.398574e-07 -8.881593e-07 -5.273723e-07 3.503878e-07 -1.899480e-07
-2.034060e-07 1.316968e-06 -8.180451e-07 4.706973e-07 2.340286e-07 7.639451e-08
3.986927e-07 7.718479e-08 -1.914571e-07 6.667768e-08 3.206083e-09 -9.170550e-10
4.967251e-07 5.353906e-08 -2.941350e-07 1.632669e-07 2.675694e-08 3.453889e-08
4.542971e-07 2.732966e-08 -1.850994e-07 4.693287e-08 3.176641e-09 3.466342e-09
-2.205766e-07 1.102857e-06 -6.202411e-07 1.510179e-07 1.892633e-07 4.186195e-08
-2.337756e-07 1.122515e-06 -7.285065e-07 3.302869e-07 1.429861e-07 3.128239e-08
-1.275265e-07 6.081184e-07 -3.797656e-07 8.714555e-08 1.618295e-07 7.262746e-08
-2.763571e-06 4.619029e-06 1.053485e-06 7.633292e-08 -4.136669e-07 1.849941e-08
3.769138e-07 7.636537e-08 -1.461631e-07 -3.118651e-09 -6.340259e-11 4.231795e-09
3.712353e-07 9.507278e-08 -1.616424e-07 -1.388707e-08 -2.933394e-10 7.544022e-09
3.649227e-07 9.242693e-08 -1.588308e-07 -5.866586e-09 1.632555e-17 -1.391402e-09
-8.839506e-07 2.369712e-06 -9.012030e-07 -7.114894e-07 4.279781e-07 -5.551825e-08
-1.457431e-07 8.649959e-07 -5.622405e-07 2.659821e-07 5.557070e-08 1.162195e-08
5.196220e-07 -4.062506e-08 -2.087326e-07 7.274128e-08 1.097462e-08 6.178561e-08
4.854181e-07 6.426304e-09 -2.258910e-07 9.119142e-08 3.788693e-08 7.069873e-08
-2.382046e-08 9.991352e-07 -1.005059e-06 5.502920e-07 -4.042227e-07 -1.924931e-07
3.888316e-07 8.941696e-08 -1.592868e-07 3.605409e-08 4.660432e-09 1.666225e-08
3.762270e-07 7.845389e-08 -1.581746e-07 7.447380e-08 1.770034e-08 2.364623e-08
-2.325900e-07 1.178891e-06 -7.323187e-07 5.708116e-08 -1.706378e-15 -1.105696e-08
4.487696e-07 2.220640e-08 -1.540537e-07 6.479364e-09 9.361157e-09 6.376739e-09
1.417616e-08 7.148797e-07 -5.523279e-07 4.129899e-08 -1.509406e-08 -9.536683e-09
1.557951e-07 8.452094e-07 -7.868579e-07 3.516204e-07 -5.761333e-08 -3.176119e-08
4.476857e-07 2.131631e-08 -2.023853e-07 7.655748e-08 3.264311e-08 4.571252e-08
4.217374e-07 3.547068e-08 -1.579823e-07 6.519151e-08 1.728579e-08 4.914818e-08
4.382027e-07 4.149773e-08 -1.704081e-07 8.304002e-08 2.082341e-08 2.230674e-08
7.428145e-07 -1.333815e-07 -3.156826e-07 -7.743361e-08 -9.415652e-09 5.206957e-08
-1.748646e-06 4.159688e-06 5.245217e-07 1.309051e-06 -2.711414e-07 6.512514e-08
-1.519854e-07 4.012979e-07 -2.652922e-07 9.623903e-09 -1.836192e-07 -1.404097e-07
2.874766e-09 6.736929e-07 -5.390182e-07 1.181788e-08 -1.457296e-08 -2.058785e-08
7.380767e-07 -1.544244e-07 -3.368601e-07 -1.088874e-07 -8.737639e-09 9.978520e-08
8.052006e-07 -1.075151e-07 -3.951520e-07 -1.550983e-07 -4.362753e-08 1.053276e-07
7.832048e-07 -1.577009e-07 -3.480073e-07 -2.318878e-08 -2.145775e-09 2.559456e-08
4.868854e-08 9.652434e-07 -7.662552e-07 3.338615e-07 -8.984035e-08 -3.895229e-08
-1.435327e-07 1.341555e-06 -8.485769e-07 8.052693e-07 -1.807682e-07 -1.534172e-07
4.603429e-07 1.142233e-06 -9.899959e-07 8.190133e-07 -1.618969e-07 -1.279519e-07
8.023137e-07 -1.587068e-07 -3.869751e-07 -3.727454e-08 5.652025e-09 1.147922e-07
7.817803e-07 -1.955912e-07 -3.737242e-07 -6.663271e-08 -6.194437e-09 1.066709e-07
1.098131e-06 -2.561842e-07 -5.708362e-07 -6.093391e-08 -1.253063e-08 1.319394e-07
8.907751e-07 -2.185616e-07 -4.345041e-07 -1.049161e-07 5.759896e-09 5.205615e-08
-3.299501e-07 1.077447e-06 -5.551194e-07 6.874952e-08 -1.826752e-07 -1.063667e-07
-4.279891e-07 1.433349e-06 -8.623992e-07 8.501241e-08 -3.214300e-08 -2.509380e-08
4.330857e-06 -1.546425e-06 -1.641378e-06 5.400272e-08 -3.633896e-09 -3.924817e-16
-2.792312e-07 1.041912e-06 -5.447734e-07 1.676074e-07 -3.619979e-07 -1.401486e-07
2.064174e-06 -6.970708e-08 -1.491111e-06 -2.110086e-07 2.191175e-07 -6.806395e-09
4.063012e-06 -1.503943e-06 -1.317968e-06 -6.265564e-09 1.660880e-08 -3.872444e-07
1.472262e-06 -8.519680e-07 -4.175936e-07 8.557204e-08 -2.677033e-07 -5.073162e-07
-4.919777e-07 1.313741e-06 -6.747020e-07 7.942978e-08 -4.972623e-07 -8.268628e-08
-3.712431e-07 1.700442e-06 -9.272278e-07 4.523330e-07 -1.611024e-07 -8.050285e-08
4.160049e-06 -1.757896e-06 -1.475454e-06 1.693357e-07 -1.588205e-08 -3.659069e-09
1.180714e-06 -4.784834e-07 -6.153342e-07 -3.100105e-07 5.564512e-07 -4.410336e-07
3.203132e-07 1.366723e-07 -1.468320e-07 9.054232e-09 2.475815e-09 -1.786380e-09
-3.437165e-07 1.430783e-06 -8.266300e-07 2.123702e-07 -5.642419e-08 -6.991297e-08
1.250353e-07 9.260021e-07 -7.905773e-07 -5.581416e-07 3.097978e-07 -7.389912e-08
-5.156235e-07 1.634920e-06 -8.890627e-07 1.665663e-07 -1.048899e-07 3.280841e-09
4.834881e-07 5.433288e-08 -2.578694e-07 1.454560e-07 2.345762e-08 7.520704e-09
4.976615e-07 4.296218e-08 -2.779086e-07 1.354030e-07 7.985257e-09 -1.321881e-09
2.936684e-07 1.652144e-07 -1.573772e-07 8.732406e-09 -5.226202e-17 -2.992420e-09
3.255716e-07 1.405124e-07 -1.426527e-07 2.252305e-08 6.598484e-09 -4.377111e-12
4.093593e-07 5.291969e-08 -1.842522e-07 6.206074e-08 2.975711e-09 7.995125e-09
4.311889e-07 6.786345e-08 -1.907585e-07 8.012256e-08 3.214155e-09 8.358520e-09
4.786106e-07 3.087274e-08 -2.088315e-07 1.046520e-07 1.395456e-08 3.875689e-08
5.727963e-07 -1.020217e-08 -2.670356e-07 1.143816e-07 2.402455e-08 3.625248e-08
4.246508e-07 5.765248e-08 -1.794814e-07 4.946590e-08 7.861261e-09 -2.777838e-09
3.454110e-07 1.132780e-07 -1.454079e-07 2.195248e-08 2.604250e-09 4.878285e-10
4.718308e-07 -2.675245e-08 -1.528765e-07 3.343525e-08 4.821501e-09 2.252472e-08
5.856408e-07 -8.195031e-08 -2.180823e-07 3.927365e-08 -4.683474e-10 3.069401e-08
5.696888e-07 -8.112308e-08 -1.937541e-07 1.457979e-08 7.507801e-09 1.508190e-08
5.479454e-07 -8.038963e-08 -1.785303e-07 6.144314e-09 6.914036e-09 6.663357e-09
5.830199e-07 -8.636881e-08 -2.249171e-07 3.200327e-08 2.017450e-08 5.934690e-08
3.120221e-07 1.638677e-07 -1.684198e-07 4.562426e-08 1.329376e-09 -3.088344e-10
2.349835e-07 2.436683e-07 -1.983008e-07 1.672341e-08 -5.190787e-16 -2.242056e-09
5.782542e-07 -8.010726e-08 -2.143491e-07 1.755735e-08 7.170426e-09 1.592734e-08
3.271138e-07 1.220651e-07 -1.351274e-07 1.850769e-09 -1.318344e-09 -2.520632e-10
2.784720e-08 9.114786e-07 -6.501148e-07 2.248714e-07 3.334153e-09 -1.571248e-08
2.627025e-07 7.483859e-07 -8.373454e-07 2.667699e-07 -9.180441e-08 -3.350117e-08
6.131159e-07 -7.357039e-08 -2.459362e-07 8.459816e-08 1.018868e-08 5.093603e-08
5.901208e-07 -7.642591e-08 -2.636427e-07 7.595196e-08 2.630153e-08 8.445457e-08
6.240213e-07 -8.467404e-08 -2.420790e-07 8.836598e-08 4.667130e-09 9.254414e-08
3.352639e-07 7.483859e-07 -8.373454e-07 1.671436e-07 -5.833549e-08 -4.568946e-08
5.992626e-07 -9.700321e-08 -2.681526e-07 7.083790e-08 2.878732e-08 1.249943e-07
6.042729e-07 -8.523955e-08 -2.560884e-07 5.816526e-08 -3.082498e-09 8.051215e-09
6.920241e-07 -1.204859e-07 -2.793788e-07 7.848547e-08 1.165770e-08 7.376456e-08
6.036093e-07 -1.027329e-07 -2.284661e-07 4.328427e-08 1.238031e-08 6.687269e-08
2.205961e-07 8.346501e-07 -7.868579e-07 2.776003e-07 -6.075483e-08 -3.042652e-08
5.316330e-07 -5.076850e-08 -1.818027e-07 -1.948805e-08 -6.510368e-09 1.545585e-08
-9.018128e-10 8.322078e-07 -7.007312e-07 -3.483594e-07 2.196823e-07 -6.665964e-08
-4.840225e-08 7.562751e-07 -4.537730e-07 -1.358947e-07 2.906185e-08 -2.502972e-08
5.535632e-07 -6.449756e-08 -2.055967e-07 -1.811577e-08 5.657065e-09 6.972731e-09
-6.095444e-08 6.843733e-07 -3.989236e-07 -4.361854e-08 1.060415e-08 -7.973576e-09
5.677128e-07 -7.327542e-08 -2.380756e-07 -6.532057e-08 -3.214239e-09 1.470388e-08
-1.348381e-07 1.003463e-06 -5.647560e-07 -3.096250e-07 3.824421e-08 -3.259624e-08
-1.130000e-07 7.277632e-07 -4.235590e-07 -6.159771e-08 -9.022320e-09 -2.625646e-08
5.536225e-07 3.921793e-07 -4.352459e-07 -7.219953e-07 5.912598e-07 -3.654654e-07
2.795581e-07 1.843438e-07 -1.688741e-07 9.750033e-09 -1.579617e-09 6.602999e-09
2.884936e-07 1.750765e-07 -1.625123e-07 1.634810e-08 -2.387648e-09 3.111323e-09
5.349376e-07 -3.890745e-08 -2.015656e-07 -5.084046e-08 -1.307384e-09 2.026581e-08
5.471318e-07 -5.595058e-08 -2.139717e-07 -2.166974e-08 6.502039e-09 -1.557886e-09
4.299799e-07 4.030749e-08 -1.458930e-07 -1.068520e-08 -3.194683e-09 4.781135e-10
4.315321e-06 -1.707163e-06 -1.543701e-06 -4.114947e-09 4.187883e-08 4.106302e-08
4.165232e-07 5.127231e-08 -1.625380e-07 -4.443346e-08 -5.455963e-09 2.412056e-09
4.250903e-07 2.865552e-08 -1.543103e-07 -3.765436e-08 -4.152971e-09 1.718615e-08
4.403901e-06 -1.642839e-06 -3.850923e-07 -1.273056e-06 1.175616e-07 -5.482907e-07
4.670658e-06 -2.190871e-06 -1.360230e-06 2.278691e-07 8.243668e-08 -2.036872e-07
4.300986e-07 3.425123e-08 -1.474550e-07 -6.989584e-09 -4.752392e-09 7.347170e-09
-1.633304e-06 3.183248e-06 -7.438430e-07 3.793901e-07 3.325662e-07 -3.291788e-08
2.579081e-06 -4.028180e-07 -1.435596e-06 9.734682e-07 -2.366271e-07 -4.183866e-08
3.396152e-06 -8.254370e-07 -1.535524e-06 2.225625e-07 -1.095764e-07 -1.071485e-07
3.937837e-07 6.785279e-08 -1.556443e-07 -1.238628e-08 -3.872387e-09 6.429907e-09
2.681706e-06 -4.902806e-07 -9.013931e-07 1.680187e-06 -2.198486e-07 -2.167512e-07
3.910858e-07 6.887038e-08 -1.412475e-07 -2.395162e-09 -1.544010e-09 3.049293e-09
3.233313e-07 9.328999e-07 -8.099434e-07 -5.558158e-07 2.422759e-07 -1.182825e-07
4.081908e-07 5.577183e-08 -1.531041e-07 -1.225245e-08 -4.308333e-09 3.051857e-10
4.044267e-07 5.359557e-08 -1.469435e-07 -9.008106e-09 -3.060131e-09 5.189342e-10
2.993781e-06 -6.858419e-07 -1.409816e-06 5.528124e-07 3.936089e-08 -7.003860e-08
7.078311e-07 -1.359968e-07 -2.884233e-07 -3.273772e-08 3.149244e-09 6.806153e-08
4.213007e-07 3.449926e-08 -1.524711e-07 -4.722826e-09 -5.787186e-09 -4.713357e-09
2.153974e-06 -3.223120e-07 -7.610102e-07 1.570151e-06 2.558811e-07 5.845006e-07
2.102477e-06 -4.562278e-07 -6.130005e-07 1.202723e-06 8.062099e-08 2.200807e-07
1.332982e-06 -2.379238e-07 -6.838355e-07 3.352685e-07 7.596391e-08 2.515973e-07
-1.063620e-06 2.308922e-06 -8.727657e-07 1.449460e-07 -4.308710e-07 2.394432e-08
-3.178780e-07 1.346041e-06 -7.868530e-07 5.447344e-08 -1.621357e-15 -1.080587e-08
2.048053e-06 3.032474e-08 -8.630938e-07 1.710406e-06 6.294274e-08 1.863363e-07
-9.311783e-07 2.693579e-06 -9.192998e-07 -6.971453e-07 -1.359453e-07 -6.726761e-08
1.497174e-06 9.983818e-08 -8.599548e-07 1.174893e-06 1.450103e-07 2.975405e-07
1.442680e-06 1.469273e-07 -7.705585e-07 1.177665e-06 7.945129e-08 3.038110e-07
1.802109e-06 -6.835883e-08 -8.925184e-07 1.262916e-06 1.307711e-07 1.591013e-07
7.720689e-07 -1.386676e-07 -3.733260e-07 -7.203647e-08 -1.344589e-09 1.058199e-07
3.520793e-06 -1.334936e-06 -1.380968e-06 1.666944e-07 3.073358e-08 -3.132361e-08
5.794026e-07 -1.114003e-07 -1.824132e-07 -2.220931e-10 -2.127904e-11 1.288338e-08
-5.517151e-07 -1.838358e-07 -2.335304e-07 -3.356355e-07 8.694848e-07 -2.442931e-07
4.088125e-07 6.491674e-08 -1.724013e-07 -4.879870e-08 -1.596062e-08 1.385545e-08
4.598902e-07 2.341534e-08 -1.593966e-07 -4.169223e-08 -1.909092e-08 2.216791e-08
2.007791e-06 -9.531584e-07 -6.182022e-07 -7.613556e-08 1.335697e-07 -4.865320e-07
4.720167e-07 1.990460e-08 -1.960889e-07 -7.257193e-08 -7.551313e-09 9.159425e-09
3.157726e-07 1.596536e-07 -1.502850e-07 4.124724e-08 1.338910e-09 4.990689e-09
3.143263e-07 1.416268e-07 -1.454673e-07 1.323165e-08 3.818134e-09 3.312154e-09
4.022057e-07 5.276040e-08 -1.547054e-07 -1.761108e-08 -2.123732e-09 5.089129e-09
4.415740e-07 2.515264e-08 -1.691321e-07 -3.365221e-08 -3.032706e-09 9.345383e-10
3.610133e-07 1.403015e-07 -1.724885e-07 8.860439e-08 -4.011109e-09 -5.935443e-09
3.270824e-07 1.283893e-07 -1.582711e-07 5.421891e-08 6.825176e-09 1.613930e-09
2.828407e-07 1.758804e-07 -1.552405e-07 1.579057e-08 8.683233e-09 6.656628e-09
3.069519e-07 1.502643e-07 -1.458520e-07 2.594447e-08 2.451046e-09 8.263453e-09
2.996880e-07 1.809104e-07 -1.840627e-07 8.836502e-08 2.392828e-08 2.525026e-08
8.415363e-08 1.928985e-06 3.293677e-08 -2.655779e-06 3.890425e-07 -4.004229e-07
3.091690e-07 1.406402e-07 -1.494629e-07 2.633799e-08 1.405024e-09 2.997170e-09
2.840046e-07 1.799675e-07 -1.516754e-07 1.805696e-08 2.128696e-09 3.825457e-09
3.142939e-07 1.559611e-07 -1.477288e-07 1.309881e-08 9.312465e-10 3.029363e-09
3.663862e-07 1.013598e-07 -1.510888e-07 3.580981e-08 4.949159e-09 4.936979e-09
4.017978e-07 9.447637e-08 -2.022814e-07 9.226306e-08 2.106180e-08 7.982537e-09
8.751273e-07 -2.309295e-07 -5.068144e-07 -2.935431e-07 6.581887e-07 -4.303168e-07
2.081256e-06 2.443566e-07 -1.236600e-06 -1.303333e-06 8.110004e-08 -4.874100e-08
4.409655e-07 4.740452e-08 -1.899206e-07 7.665513e-08 -4.257820e-09 1.012118e-09
4.311148e-07 4.212300e-08 -1.724545e-07 5.093660e-08 1.487658e-08 4.763152e-09
3.978674e-07 8.151290e-08 -1.586906e-07 3.380564e-08 -4.675477e-11 1.097150e-08
4.092591e-07 4.578399e-08 -1.590621e-07 4.478949e-08 7.349933e-09 1.199422e-08
7.203637e-07 8.278764e-07 -1.159116e-06 -1.311456e-06 1.652303e-07 -1.211210e-07
3.709158e-06 -1.717988e-06 1.554739e-06 -2.305559e-06 5.370283e-08 5.822807e-08
4.587192e-07 1.295776e-08 -1.645379e-07 4.956258e-08 1.277127e-08 3.045078e-08
4.468610e-07 4.148943e-08 -2.050361e-07 8.476471e-08 3.255422e-08 4.899883e-08
4.095461e-07 6.280065e-08 -1.866412e-07 7.025426e-08 2.340392e-08 2.490153e-08
-4.057400e-06 4.114143e-06 2.554222e-06 9.634620e-07 -5.240837e-07 1.403007e-08
2.692961e-07 2.467110e-07 -2.266860e-07 8.751359e-08 3.221067e-09 8.310078e-10
1.907119e-07 3.916974e-07 -3.675695e-07 1.990242e-07 1.441812e-08 1.815512e-08
2.975891e-07 2.719765e-07 -2.777132e-07 1.572803e-07 5.575360e-09 9.509156e-09
4.250741e-07 9.084045e-08 -2.347272e-07 1.286117e-07 8.402305e-09 3.059666e-08
-3.206485e-06 5.504113e-06 8.415020e-07 -8.177043e-07 5.161482e-07 8.728178e-08
3.209369e-07 1.287094e-07 -1.722722e-07 4.733118e-08 1.888172e-08 1.098832e-08
2.138957e-06 -1.171353e-06 -8.627466e-07 -1.546317e-09 -8.305755e-08 7.928758e-08
4.656898e-06 -2.191541e-06 -1.360230e-06 -2.706581e-07 -1.319121e-07 -2.332967e-07
-2.382462e-06 4.936158e-06 1.530215e-06 1.252302e-06 6.164671e-07 -7.559752e-08
-3.148289e-06 4.958483e-06 1.784817e-06 1.080016e-06 5.325919e-07 2.155778e-07
4.266988e-06 -3.618938e-06 4.261462e-06 1.568068e-06 9.662561e-09 5.028447e-07
6.025617e-06 -2.922875e-06 7.643777e-07 -7.489977e-07 9.456653e-08 5.803638e-09
4.935458e-06 -2.798824e-06 6.972328e-07 1.367165e-06 1.634587e-07 7.263824e-08
1.539717e-06 -6.589046e-06 1.324832e-05 4.552719e-06 -2.526252e-07 2.282677e-07
-2.473378e-06 3.629428e-06 2.066160e-06 2.056973e-06 -1.622511e-07 -3.636344e-07
5.040820e-07 1.547340e-06 -7.826358e-07 2.036110e-06 -6.960395e-08 -5.386617e-08
-5.890877e-07 1.436742e-06 3.314850e-06 3.986287e-06 -3.703284e-07 -8.654664e-08
-7.738810e-07 2.267835e-06 6.421273e-07 2.792980e-06 -2.743612e-07 -1.561040e-07
4.402917e-07 2.105168e-06 -5.149563e-07 2.671682e-06 -1.994514e-08 -1.411189e-07
-1.984455e-06 3.690219e-06 1.777075e-07 1.937427e-06 7.454629e-07 1.020808e-07
-5.283304e-07 2.812083e-06 5.024392e-08 2.473839e-06 -6.690550e-07 -2.620673e-07
-4.483604e-07 2.386870e-06 -3.347109e-07 1.882383e-06 -1.234233e-07 -2.310611e-07
-3.049919e-06 4.367272e-06 2.842873e-06 2.503642e-06 -4.548899e-07 -3.027011e-07
-7.364699e-08 1.845377e-06 -1.022153e-06 1.418572e-06 -3.668467e-07 -2.718749e-07
-2.129237e-06 4.144806e-06 1.993142e-06 1.466599e-06 -3.601521e-07 8.553300e-08
3.557235e-06 -1.454069e-06 -1.034197e-06 2.247250e-07 -3.184331e-08 -7.595615e-08
3.325356e-07 2.330720e-06 -1.031174e-06 1.962595e-06 -2.478905e-07 -1.543974e-07
5.262046e-07 5.092207e-07 -8.307412e-07 -8.729942e-07 -1.237160e-07 1.009486e-07
7.460542e-07 7.332769e-07 -8.343637e-07 -1.128857e-06 -1.424129e-07 1.029376e-07
1.376065e-06 -1.891677e-06 1.128536e-06 1.582424e-07 1.013103e-07 -1.457541e-06
4.254834e-07 3.596757e-07 -6.596197e-07 -5.672196e-07 -1.964019e-07 1.951237e-07
4.236303e-07 3.039058e-07 -4.858901e-07 -3.811571e-07 -4.490662e-10 7.300055e-08
-1.424960e-06 2.864444e-06 -5.497664e-07 3.520548e-07 4.087977e-07 5.637011e-08
3.032924e-06 -1.188325e-06 -9.446384e-07 -3.895321e-07 4.601014e-07 -6.867070e-07
2.293105e-06 -1.273882e-06 -7.913513e-07 -2.683336e-07 2.665184e-09 -5.935792e-07
2.900988e-07 7.325149e-07 -7.013970e-07 -6.103444e-07 -4.968100e-08 1.207545e-07
1.794995e-07 5.648474e-07 -6.003657e-07 -4.268904e-07 -1.257324e-07 9.244000e-08
4.095950e-07 6.572969e-07 -6.469061e-07 -6.477237e-07 -1.410432e-08 3.920219e-08
-6.986419e-07 2.876694e-06 -7.629614e-07 -1.461734e-06 -6.045706e-07 3.137729e-07
4.798367e-06 -2.514568e-06 1.189926e-07 3.666440e-07 1.821112e-08 1.712991e-07
6.291834e-07 -4.063479e-07 9.815030e-07 -4.612497e-07 3.141242e-07 -1.095005e-06
-8.014386e-08 1.026557e-06 -6.511359e-07 -4.805999e-07 -1.640532e-07 9.760030e-08
-1.887810e-07 -4.063479e-07 1.120062e-06 -4.055697e-09 -1.528796e-07 -7.450712e-07
2.545451e-06 -1.409701e-06 2.266218e-08 -3.606756e-07 2.441186e-07 -4.747200e-07
1.679952e-06 -4.434653e-07 -7.124380e-07 5.704523e-08 1.666701e-09 2.840137e-07
2.040694e-06 -6.109634e-07 -8.308912e-07 -1.968771e-07 -2.689767e-09 4.696909e-07
1.097252e-06 -3.054737e-07 -5.794134e-07 1.065613e-07 1.058122e-08 1.392588e-07
2.148093e-07 7.138798e-07 -6.649703e-07 -5.300255e-07 -1.546725e-07 1.631745e-07
6.752940e-08 1.068093e-06 -7.858450e-07 -6.353187e-07 -1.005948e-07 -1.151337e-09
6.752940e-08 1.060728e-06 -8.806271e-07 -7.134543e-07 -5.526613e-08 8.898759e-08
1.281245e-06 -2.892832e-07 -6.477819e-07 2.496391e-08 -3.579221e-08 2.373878e-07
1.270899e-06 -3.085930e-07 -6.995479e-07 1.565715e-07 -9.617348e-09 2.124817e-07
2.074062e-06 -6.274167e-07 -8.535254e-07 2.783102e-07 2.295988e-08 1.376358e-07
9.949331e-07 -2.892832e-07 -5.192218e-07 2.316325e-08 5.001246e-09 1.675816e-07
2.404132e-07 5.436024e-07 -5.985621e-07 -3.890988e-07 -1.015119e-07 1.107507e-07
3.644551e-07 5.763606e-07 -5.954155e-07 -5.878809e-07 -2.227264e-07 1.508331e-07
1.360890e-06 -2.714744e-07 -6.437710e-07 1.658056e-07 -1.617088e-08 1.188330e-07
1.286923e-06 -2.428458e-07 -6.448251e-07 3.852682e-07 9.397919e-08 2.887534e-07
1.779416e-06 -6.274167e-07 -8.286844e-07 3.050061e-07 8.676796e-09 1.932433e-07
1.330496e-06 -4.261309e-07 -7.497344e-07 9.608358e-08 -2.497149e-09 8.226545e-08
2.184429e-07 9.516167e-07 -7.786369e-07 -8.613183e-07 -2.804081e-07 3.020841e-07
4.010605e-07 8.552511e-07 -7.839420e-07 -9.080187e-07 -1.165229e-07 6.199894e-08
-1.918076e-07 9.575181e-07 -5.214926e-07 3.503358e-08 -1.026088e-15 -1.968240e-09
5.582636e-07 -4.451699e-08 -2.318220e-07 1.003237e-07 1.087556e-08 4.022984e-08
1.234041e-09 1.205925e-06 -7.494130e-07 7.718411e-07 1.047909e-07 1.600792e-08
6.003187e-07 -6.473305e-08 -2.534579e-07 7.630704e-08 6.317108e-09 1.057323e-08
1.186981e-06 2.994408e-07 -8.356330e-07 1.414006e-06 2.420544e-07 4.540912e-07
5.781276e-07 1.083544e-06 -8.961195e-07 -1.591803e-06 -1.418206e-07 1.998656e-07
4.454466e-07 6.983235e-07 -6.855245e-07 8.028185e-07 1.121092e-07 6.766020e-08
3.699634e-07 5.527158e-07 -6.126755e-07 6.248594e-07 1.494949e-07 2.229477e-07
5.056737e-07 -1.781095e-08 -1.911799e-07 4.930926e-08 4.613804e-09 2.336288e-08
5.045726e-07 -3.689757e-08 -1.576579e-07 9.606290e-09 3.787720e-09 1.366953e-08
5.439139e-07 -2.714708e-08 -2.301239e-07 7.379249e-08 -5.285649e-09 1.586034e-08
4.047362e-07 2.933673e-07 -5.677122e-07 4.792352e-07 1.590932e-07 1.423560e-07
5.238725e-07 3.130542e-07 -4.627580e-07 4.728260e-07 6.540720e-08 8.345893e-08
4.564056e-07 9.067439e-07 -8.644716e-07 1.196101e-06 9.617938e-08 1.939941e-09
2.464971e-07 9.950096e-07 -8.950950e-07 1.201099e-06 1.432005e-07 1.127777e-07
7.812571e-07 6.994274e-07 -8.327681e-07 1.394110e-06 3.024294e-07 4.120156e-07
5.487682e-07 -5.422919e-08 -2.150541e-07 4.189848e-08 6.632460e-09 3.011373e-08
8.842925e-07 7.938158e-07 -8.730392e-07 1.351070e-06 9.387509e-08 1.130749e-07
6.007593e-07 -5.333376e-08 -2.455803e-07 1.079952e-07 1.336490e-08 5.223771e-08
5.843980e-07 1.077247e-06 -8.920371e-07 -1.440528e-06 -3.229402e-07 2.818721e-07
4.998688e-07 1.569369e-06 -8.679074e-07 -1.969333e-06 -1.925726e-07 1.149010e-07
4.962982e-07 -2.770644e-09 -1.888509e-07 8.679876e-08 1.249697e-08 4.070468e-08
-8.680427e-07 2.919928e-06 -6.135471e-07 -4.506759e-07 4.462437e-07 2.655267e-08
4.645135e-07 1.996333e-08 -2.022973e-07 8.378179e-08 2.039454e-09 1.157251e-08
-3.259764e-06 4.485114e-06 8.535838e-07 1.178594e-06 9.972099e-08 3.033351e-07
1.075586e-06 1.123562e-06 2.664318e-07 3.404527e-06 2.963234e-07 5.005078e-08
4.960414e-07 -5.320022e-10 -1.875085e-07 6.414697e-08 1.546848e-08 3.507132e-08
4.825020e-07 1.752823e-08 -2.017026e-07 9.338997e-08 1.249809e-08 5.501620e-08
6.755787e-07 -1.436739e-07 -2.753554e-07 2.385055e-08 -4.336383e-09 1.384763e-08
6.047068e-07 -1.105809e-07 -2.224514e-07 3.813383e-08 1.103084e-08 7.127582e-08
6.151601e-07 -1.163005e-07 -2.350600e-07 8.445161e-09 9.886488e-10 1.023977e-08
1.971646e-06 -7.716884e-07 -8.321058e-07 -3.035758e-07 -8.858493e-08 4.215991e-07
2.856665e-06 -9.933310e-07 -5.758390e-07 -1.264159e-06 -2.348829e-07 6.953804e-07
1.607982e-06 -4.278701e-07 -7.107005e-07 -8.892868e-08 -1.134781e-08 1.947930e-07
1.555874e-06 -2.835792e-07 -7.936430e-07 -4.344251e-07 -6.966453e-08 1.053411e-07
6.266554e-07 -1.132139e-07 -2.378799e-07 9.203576e-09 7.587238e-10 4.548016e-08
5.577100e-06 -6.428265e-06 1.107674e-05 -1.609602e-06 6.220163e-07 -6.056414e-06
6.115976e-07 -1.163373e-07 -2.131090e-07 8.081484e-09 1.628564e-09 1.559773e-08
5.872113e-07 -1.136708e-07 -1.963306e-07 8.052797e-09 -8.288736e-10 4.508239e-08
-2.654053e-06 1.350667e-06 1.210356e-05 -5.470266e-06 2.796983e-06 -3.190980e-06
3.327319e-06 -1.238198e-06 1.861639e-06 -3.791827e-06 4.294166e-07 -3.793303e-07
2.893954e-06 -5.722469e-06 9.898137e-06 -3.505960e-06 4.478388e-07 -1.581321e-07
2.220826e-06 -5.457460e-07 -8.511235e-07 -1.300630e-06 -9.197573e-08 3.470003e-07
2.893957e-06 -3.535682e-06 7.878564e-06 -3.452412e-06 3.596718e-07 3.342145e-07
-1.241671e-06 4.631169e-07 6.080152e-06 -5.268319e-06 -3.367419e-07 9.553485e-08
5.679706e-07 -1.001867e-07 -1.823269e-07 4.901535e-09 3.303452e-09 9.511522e-09
5.228699e-07 -6.044042e-08 -1.641723e-07 1.474196e-08 3.864782e-09 9.930207e-09
6.340527e-07 -9.749968e-08 -2.538067e-07 6.062907e-08 1.104935e-08 3.856711e-08
2.518377e-06 -1.933120e-07 2.096827e-06 -4.115961e-06 -2.489471e-07 5.502033e-07
4.287703e-07 2.162596e-06 5.527877e-07 -3.347220e-06 -1.435984e-07 9.956100e-08
1.024818e-06 7.341841e-07 1.478689e-06 -4.421329e-06 9.659784e-09 -2.441667e-07
5.472623e-07 -8.598328e-08 -1.674568e-07 9.360191e-09 4.775144e-09 1.161639e-08
-2.977884e-06 3.861039e-06 3.565089e-06 -3.200523e-06 6.452316e-07 -3.578555e-07
-1.241671e-06 2.693666e-06 3.711650e-06 -4.294201e-06 -6.250865e-07 3.856448e-07
2.800747e-06 -1.419445e-06 -5.908964e-07 -4.995216e-07 8.773456e-09 3.736285e-07
2.814608e-06 -1.080682e-06 -8.335113e-07 -2.046721e-07 2.279213e-09 4.248348e-09
4.816950e-07 1.477843e-07 -4.628571e-07 -3.059757e-07 -5.115513e-09 2.201629e-08
2.997526e-06 -9.801002e-07 -5.639119e-07 -1.935690e-07 4.039627e-09 3.982106e-07
3.553321e-06 -2.011148e-06 -6.139541e-07 -1.475110e-07 -1.703847e-07 6.318751e-07
5.157461e-07 1.453789e-07 -3.954933e-07 -2.990794e-07 9.706761e-09 7.194201e-08
6.203521e-07 1.640422e-07 -5.048131e-07 -4.290345e-07 -9.106900e-08 4.473024e-08
5.767955e-07 1.577977e-07 -5.757695e-07 -4.476935e-07 -7.001832e-08 1.079261e-07
5.842773e-07 2.267512e-07 -4.307599e-07 -4.214742e-07 -1.078042e-07 1.381344e-07
3.981828e-06 -1.810566e-06 -4.853339e-07 1.319331e-06 -1.750809e-08 6.407014e-07
4.508538e-07 1.434312e-07 -4.374638e-07 -3.063818e-07 -8.349385e-08 1.014002e-07
2.644929e-06 -7.782626e-07 -8.127182e-07 -4.735316e-07 -1.586119e-07 5.236782e-07
-1.351313e-05 -1.384413e-07 2.253382e-05 2.423136e-06 -9.214431e-07 -1.269404e-06
4.814545e-07 2.489748e-07 -5.685205e-07 -4.381825e-07 -1.757563e-08 4.074887e-08
-1.045758e-05 -1.132226e-05 4.197825e-05 4.394130e-06 -5.238407e-06 -2.474170e-06
5.734975e-07 3.189347e-07 -6.144848e-07 -5.683728e-07 -1.853655e-07 1.110282e-07
1.180714e-06 4.218225e-07 -1.239755e-06 -3.800197e-07 1.623649e-07 -1.378446e-08
1.343835e-06 1.006630e-07 -9.852075e-07 -6.904210e-07 8.378690e-07 -5.965059e-07
2.254426e-06 -3.338611e-07 -1.186720e-06 -1.063310e-06 4.701066e-08 8.438857e-08
1.020641e-06 2.701932e-07 -1.031026e-06 -2.929885e-07 4.399854e-07 -1.091232e-07
1.293943e-07 6.455814e-07 -6.416694e-07 2.308268e-08 -8.715686e-08 -5.486164e-09
7.168191e-07 3.661491e-07 -8.376139e-07 -5.583113e-07 6.325266e-07 -3.888881e-07
4.816488e-07 8.038415e-08 -7.269858e-07 -3.847484e-08 5.997819e-07 -1.481729e-08
-1.325183e-07 6.102546e-07 -3.902886e-07 1.881779e-08 -4.069421e-08 -1.215499e-07
-2.533844e-08 5.938482e-07 -4.891513e-07 1.543808e-07 -3.152378e-07 -1.563363e-07
-1.200332e-07 4.682308e-07 -2.822064e-07 -2.093254e-09 -7.758448e-08 -9.978191e-08
2.114988e-07 6.864070e-07 -7.024393e-07 3.691203e-08 -4.826504e-08 -3.563116e-15
-1.747735e-08 6.023487e-07 -5.088459e-07 1.436740e-07 -3.156982e-07 -1.662880e-07
4.777303e-08 7.596670e-07 -5.519194e-07 2.163311e-07 -2.042859e-07 -1.394585e-07
1.967725e-07 9.337292e-07 -8.406409e-07 -5.397767e-07 2.542757e-07 -1.849389e-07
-1.518909e-07 8.149578e-07 -5.732274e-07 1.261449e-07 -1.616153e-07 -8.614978e-08
4.590289e-07 6.892181e-07 -8.763001e-07 6.999419e-08 -8.125427e-08 -1.137464e-14
-1.141831e-07 5.141542e-07 -2.967183e-07 5.208484e-09 -2.041496e-07 -1.353219e-07
4.736574e-07 6.922204e-07 -8.589456e-07 5.010091e-07 -3.285549e-07 -1.006664e-07
3.048655e-06 -5.894481e-07 -1.509904e-06 1.664397e-07 -2.179229e-07 -1.573495e-08
-2.522538e-07 6.933689e-07 -2.815280e-07 -7.153602e-10 9.935053e-08 -4.149853e-08
3.832295e-06 -1.186622e-06 -1.155143e-06 7.555881e-07 -2.237301e-07 -1.578866e-07
2.590515e-06 -8.053256e-07 -1.130064e-06 1.303658e-07 -3.733862e-07 7.013601e-08
-6.031427e-07 1.967638e-06 -8.909768e-07 4.269936e-07 8.134112e-08 -3.147710e-08
-2.665137e-07 7.317399e-07 -2.285084e-07 -2.546420e-08 3.314433e-07 -7.787393e-08
3.990179e-06 -1.298096e-06 -1.661347e-06 1.543724e-07 -4.152656e-08 -1.282114e-14
2.491618e-06 -4.817559e-07 -8.978859e-07 1.010545e-06 -4.982253e-07 -5.156409e-07
2.688478e-06 -8.672622e-07 -1.156431e-06 3.616170e-07 -3.758777e-07 -3.790769e-07
1.065720e-06 -4.270173e-07 -5.121721e-07 1.022301e-07 -6.049533e-07 -4.822434e-07
2.398613e-06 -1.350650e-07 -1.445664e-06 8.805324e-07 -1.885562e-07 -1.215936e-07
-3.042936e-07 1.041547e-06 -5.893908e-07 -2.212754e-09 3.761772e-08 4.012178e-09
2.385625e-06 -1.583367e-07 -8.132056e-07 1.723031e-06 -2.743142e-07 -1.835081e-07
-3.203687e-07 9.495223e-07 -4.369443e-07 -3.601664e-08 2.672004e-07 -7.216026e-08
-2.620035e-07 8.028076e-07 -3.785771e-07 -5.147390e-08 6.805013e-08 -2.429231e-08
-2.326488e-07 8.333441e-07 -3.656650e-07 -3.372581e-08 8.082263e-08 -5.924465e-08
-2.374862e-07 7.336300e-07 -3.880564e-07 -4.110966e-08 1.537958e-07 -8.200184e-08
1.789189e-06 -3.352083e-07 -2.246829e-07 1.316535e-06 -5.724674e-07 -7.936463e-07
-8.531683e-09 -3.314613e-07 -4.177075e-07 7.131027e-09 -8.156378e-07 -2.116716e-07
-2.900542e-07 9.331142e-07 -4.669520e-07 -4.252461e-09 3.394839e-08 -1.721359e-08
-1.288603e-07 9.230083e-07 -5.943251e-07 -4.076402e-07 -3.539171e-07 1.983688e-07
-1.732390e-07 1.072922e-06 -7.489616e-07 -1.710435e-07 -4.124360e-08 4.609878e-08
1.770136e-06 1.537964e-08 -1.427978e-06 8.429055e-07 -2.678547e-07 1.798410e-08
2.160182e-06 -1.743459e-07 -1.447879e-06 2.249999e-07 -2.194311e-07 5.086493e-09
-1.691763e-07 9.836833e-07 -6.122542e-07 -5.439209e-08 -2.297993e-08 1.308293e-07
2.489645e-06 -2.941141e-07 -1.454218e-06 6.827520e-07 -1.317313e-07 -4.336573e-11
-3.736816e-08 3.601951e-07 -2.967732e-07 -2.711781e-08 -9.657331e-08 1.524122e-07
2.555996e-07 6.075435e-07 -6.193137e-07 -3.505994e-08 2.255044e-07 -3.738934e-08
-1.911631e-07 4.861156e-07 -3.633438e-07 -1.561279e-07 -4.549294e-07 2.554087e-07
5.209210e-08 5.961507e-07 -3.953419e-07 -2.815225e-07 -3.268763e-07 2.274311e-07
-8.064899e-08 5.066790e-07 -2.051282e-07 -1.045296e-08 2.857881e-08 -1.454056e-08
1.109833e-08 4.852994e-07 -4.450274e-07 -8.099968e-08 2.730331e-07 -7.490656e-08
-1.172572e-07 9.744415e-07 -5.773209e-07 -6.149735e-08 -1.099978e-08 8.622842e-08
-1.594254e-07 6.804121e-07 -4.951778e-07 -1.198609e-07 -1.967768e-07 1.519284e-07
2.725459e-07 6.074870e-07 -7.245439e-07 -5.810126e-08 1.350456e-07 -8.008659e-09
-5.485488e-08 4.716277e-07 -2.531327e-07 -3.687673e-08 1.949384e-07 -2.533693e-08
-1.285880e-07 5.223636e-07 -2.115801e-07 -4.656694e-09 2.727353e-08 -5.649219e-08
3.970090e-07 6.481015e-08 -1.429158e-07 -1.477216e-08 -4.051193e-09 4.259409e-09
4.112107e-07 6.590597e-08 -1.448845e-07 -8.682248e-09 -3.418637e-09 1.004006e-09
-4.964930e-08 3.098464e-07 -3.282886e-07 -1.202303e-09 3.597394e-07 -7.252788e-08
4.038651e-09 6.071087e-07 -3.957997e-07 -1.616038e-08 8.821114e-08 -2.056141e-08
3.878134e-07 7.861749e-08 -1.418790e-07 -5.734120e-09 -1.181220e-09 3.799045e-10
2.102448e-06 -7.021966e-07 -8.078647e-07 4.769557e-07 -7.500296e-09 2.994224e-07
-1.195211e-07 5.876367e-07 -2.780180e-07 -8.809051e-09 2.953190e-08 -5.351705e-08
3.911182e-07 7.732493e-08 -1.446440e-07 -1.619358e-08 -2.984459e-09 2.087029e-09
2.396805e-07 6.589903e-07 -4.205468e-07 -5.720252e-07 4.324884e-07 -3.252536e-07
4.146493e-07 5.793435e-08 -1.518510e-07 -3.303980e-08 -1.056798e-08 9.099890e-09
3.958950e-07 7.451601e-08 -1.417651e-07 -8.180085e-18 -1.112192e-09 9.468680e-10
-2.718182e-07 9.529758e-07 -4.151220e-07 8.701368e-08 3.118901e-07 2.941746e-08
-2.710588e-08 7.180169e-07 -5.243180e-07 2.897085e-08 -2.082171e-08 -6.182690e-08
-3.547637e-07 9.864591e-07 -4.320978e-07 8.480057e-08 4.913733e-07 -1.088000e-09
-3.362389e-07 1.080594e-06 -5.919218e-07 1.815911e-07 4.715374e-07 1.671143e-08
-3.424082e-07 1.348682e-06 -6.201694e-07 1.005716e-07 2.410591e-07 3.058540e-09
1.782082e-07 5.685310e-07 -7.173486e-07 4.426039e-07 -5.612696e-07 -3.261753e-07
-3.451580e-07 1.238378e-06 -5.603706e-07 2.071075e-08 3.330679e-07 -6.044809e-09
2.572382e-07 3.433212e-07 -5.762063e-07 2.514591e-08 -4.235452e-07 -1.872191e-08
2.572382e-07 3.433290e-07 -3.177838e-07 2.584344e-08 -4.214220e-07 2.997095e-08
-7.104928e-07 2.080085e-06 -9.125729e-07 7.404233e-07 2.259913e-07 3.290457e-08
-2.232185e-07 5.572618e-07 -2.538273e-07 9.275912e-09 4.877057e-08 3.334833e-09
-1.209711e-07 6.405727e-07 -3.076098e-07 -4.477602e-08 -1.621106e-07 1.432154e-07
9.428774e-07 5.990011e-07 -1.105524e-06 2.668274e-07 -1.089346e-07 5.567402e-08
-3.063283e-07 9.782110e-07 -4.593143e-07 8.556214e-08 3.112530e-07 6.856066e-08
1.250395e-06 2.519290e-07 -1.134977e-06 7.641048e-07 -3.307684e-07 -2.093004e-07
1.257784e-06 2.250329e-07 -1.147777e-06 3.100013e-07 -4.332922e-07 -1.761252e-07
1.131239e-06 4.154817e-07 -1.230148e-06 3.122390e-07 -1.345607e-07 -7.492015e-08
7.147796e-07 5.283146e-07 -9.435261e-07 2.156205e-07 -4.023627e-07 -6.774137e-08
-1.625561e-07 6.811926e-07 -2.875997e-07 -4.046073e-08 8.674701e-08 -7.714740e-08
2.052550e-07 4.908731e-07 -6.970286e-07 6.036968e-08 -3.024425e-07 -9.489950e-09
-3.228147e-08 6.178334e-07 -3.105109e-07 1.420722e-07 1.592385e-07 1.117223e-07
-1.086913e-07 6.670641e-07 -4.673953e-07 -1.564371e-07 2.091132e-07 -7.943828e-08
-1.528141e-07 6.263467e-07 -4.054493e-07 1.821194e-07 2.840972e-07 1.142116e-07
-8.276478e-08 6.154626e-07 -3.781361e-07 1.230642e-07 1.406632e-07 5.190309e-08
2.091980e-07 2.548849e-07 -1.582168e-07 1.558585e-08 3.286293e-09 1.578846e-08
-4.073880e-08 6.899358e-07 -4.968709e-07 1.927499e-07 5.249287e-08 2.170881e-08
-5.196431e-08 8.581032e-07 -5.886455e-07 3.169255e-07 1.857462e-07 3.969010e-08
-2.271656e-07 9.872928e-07 -6.096848e-07 2.538767e-07 5.351835e-08 3.797283e-09
3.302120e-07 1.440689e-07 -1.427029e-07 8.812883e-09 6.675412e-10 3.590122e-10
3.045637e-07 1.455165e-07 -1.535996e-07 2.721071e-08 5.246418e-10 5.388065e-10
3.189730e-07 1.329513e-07 -1.621073e-07 4.643372e-08 3.457855e-09 4.306876e-09
3.250495e-07 1.261105e-07 -1.386164e-07 5.375841e-09 1.474712e-09 2.672148e-10
3.360666e-07 1.323973e-07 -1.397435e-07 6.506774e-09 2.229380e-09 5.872759e-10
3.292232e-07 1.296476e-07 -1.371904e-07 1.806982e-09 6.945109e-11 -2.059646e-09
3.090214e-07 1.421975e-07 -1.411998e-07 3.117884e-09 1.558310e-09 6.961798e-10
3.608249e-07 1.460314e-07 -2.166391e-07 1.011653e-07 1.370597e-08 2.320741e-08
3.381165e-07 1.303674e-07 -1.392816e-07 8.895819e-16 4.157418e-10 -8.593751e-11
2.005432e-06 -4.589445e-07 -8.731442e-07 7.230042e-07 6.276894e-08 2.366104e-07
-1.030013e-07 7.972404e-07 -4.640678e-07 1.744504e-07 1.302896e-07 3.039757e-08
-1.673915e-07 8.455601e-07 -5.114628e-07 1.884750e-07 2.737131e-07 6.838022e-08
-2.041397e-07 1.010922e-06 -4.896367e-07 1.456319e-07 1.263219e-07 4.814445e-08
3.245709e-07 1.248179e-07 -1.351283e-07 2.625597e-09 -7.433311e-10 -1.640877e-09
3.983320e-07 6.139128e-08 -1.578260e-07 3.705475e-08 5.408620e-09 8.567961e-09
3.381165e-07 1.296476e-07 -1.394656e-07 -1.079712e-09 8.522184e-10 9.299755e-10
-1.270478e-07 5.329098e-07 -2.427962e-07 7.456076e-08 7.506789e-08 5.127366e-08
-1.171850e-07 8.062568e-07 -5.057545e-07 1.059201e-07 2.764043e-08 2.258483e-08
-2.384195e-07 7.093592e-07 -2.393737e-07 -7.744148e-09 2.480680e-08 -3.803544e-08
-2.622451e-07 1.014683e-06 -5.338583e-07 -2.591083e-08 1.522498e-08 -2.074919e-08
-2.559878e-07 1.013628e-06 -5.087803e-07 6.756893e-09 2.556004e-08 -5.252587e-09
-2.034060e-07 1.134399e-06 -5.137011e-07 3.463330e-07 2.248094e-07 9.395104e-08
-1.656579e-07 1.111544e-06 -7.427472e-07 -2.649673e-07 -1.369877e-07 1.974679e-08
-1.939895e-07 4.992515e-07 -2.475997e-07 2.174338e-08 3.265087e-07 1.660801e-07
-7.881835e-08 1.117971e-06 -6.372260e-07 -2.908820e-07 -1.662775e-07 1.156311e-07
-4.665809e-07 1.340799e-06 -5.633053e-07 2.523021e-08 3.491231e-07 -3.108562e-08
-1.447002e-07 9.990380e-07 -4.669163e-07 -4.212165e-08 1.141171e-08 1.088669e-07
4.579129e-07 1.071636e-08 -1.484533e-07 -5.530141e-09 -6.692546e-09 5.905648e-09
-3.013343e-07 1.254572e-06 -8.120295e-07 -1.452020e-07 -4.501975e-08 3.147176e-08
-2.304666e-07 1.025467e-06 -6.346555e-07 -5.962952e-08 -1.691807e-08 8.696243e-08
-5.772463e-08 9.135657e-07 -5.917792e-07 -2.773719e-07 -3.668232e-07 1.822200e-07
-6.223245e-08 1.050382e-06 -6.593375e-07 -3.805495e-07 -1.656577e-07 1.486754e-07
3.613631e-07 1.063442e-07 -1.409709e-07 4.547210e-09 9.380278e-10 3.225401e-09
-2.132529e-07 1.190577e-06 -7.453476e-07 -6.426101e-08 -1.487244e-08 6.510400e-08
-3.040149e-07 1.533650e-06 -7.204511e-07 -3.565899e-07 -4.975861e-07 1.526381e-07
-5.661373e-08 9.165362e-07 -6.767288e-07 -3.071817e-07 -8.909265e-08 6.553604e-08
-1.122722e-07 3.092638e-07 -2.193316e-07 -6.325773e-08 -3.139213e-07 2.193105e-07
3.458222e-07 1.233631e-07 -1.403736e-07 2.707293e-09 4.836659e-10 1.213711e-09
3.600759e-07 1.108032e-07 -1.416536e-07 4.477692e-09 1.836390e-09 2.156579e-09
-2.429476e-07 1.562016e-06 -8.404219e-07 -4.021807e-07 -1.927876e-07 1.020292e-07
-3.755392e-07 1.354448e-06 -8.620344e-07 -3.723108e-07 -6.828158e-08 4.602043e-09
-2.091625e-07 1.419220e-06 -9.040752e-07 -4.755103e-07 -7.605066e-08 6.621614e-08
-3.355946e-07 1.330877e-06 -7.653812e-07 2.210990e-07 1.698858e-07 2.459717e-08
3.327894e-07 1.205580e-07 -1.477398e-07 3.459153e-08 3.038962e-09 2.392173e-09
3.441395e-07 1.195159e-07 -1.416840e-07 1.597793e-08 1.603283e-09 3.520916e-09
3.402650e-07 1.327502e-07 -1.432491e-07 4.116273e-08 3.977895e-09 5.449815e-09
-2.331189e-07 5.658841e-07 -2.403488e-07 -3.198320e-10 4.676871e-08 -3.721591e-08
-2.786703e-07 9.295359e-07 -4.019792e-07 -4.361347e-09 2.710550e-08 -4.128939e-09
-2.281158e-07 1.059202e-06 -6.219221e-07 2.082154e-07 2.377599e-08 -4.424110e-09
-3.902780e-07 1.188298e-06 -6.334257e-07 1.002792e-07 2.046224e-07 3.330206e-08
-3.349755e-07 1.152760e-06 -6.459909e-07 1.741475e-07 6.165845e-08 9.692269e-09
-2.614257e-07 1.030006e-06 -5.579737e-07 8.652322e-08 1.350177e-07 1.727381e-08
3.195671e-06 -7.098839e-07 -1.978779e-07 2.279308e-06 -1.044887e-07 2.867949e-07
1.875650e-06 2.068729e-07 -1.326651e-07 2.500383e-06 -2.844616e-07 -5.709346e-08
2.253726e-06 2.068729e-07 -6.828640e-07 2.277270e-06 -8.885327e-08 9.095523e-08
2.205894e-06 -2.811657e-07 9.429305e-07 3.309481e-06 -4.050442e-07 -6.666001e-07
2.413192e-06 -6.675113e-07 6.221943e-07 2.615079e-06 -1.269151e-07 2.533287e-07
1.535938e-06 5.023803e-08 2.240458e-06 3.827209e-06 -3.663574e-07 -9.651391e-08
1.983224e-06 6.706058e-07 -1.675800e-07 3.418514e-06 1.715483e-07 -8.403515e-08
1.326310e-06 7.283588e-07 -1.256543e-07 2.762319e-06 -4.020631e-07 -5.419604e-07
5.554792e-07 1.098296e-06 -4.367844e-07 2.181244e-06 -5.182460e-07 -2.957108e-07
3.737629e-07 1.500838e-07 -2.880707e-07 1.693530e-07 1.780106e-10 9.868585e-09
8.272655e-07 -1.387650e-07 -4.170294e-07 1.637970e-07 -2.191060e-09 3.758709e-08
3.336860e-07 1.734141e-07 -2.892129e-07 1.564559e-07 6.465372e-09 2.044652e-08
-1.363929e-07 4.826237e-07 -2.833503e-07 6.466113e-08 -8.508940e-08 1.509565e-07
7.177355e-08 2.935265e-07 -2.253945e-07 -1.786355e-08 -2.786084e-08 1.111975e-07
3.581938e-07 1.845582e-07 -2.178948e-07 1.537023e-07 3.881935e-08 3.847987e-08
3.325505e-07 1.324544e-07 -1.888684e-07 1.077479e-07 9.342424e-10 1.189577e-08
7.338631e-08 9.462653e-07 -6.604629e-07 -5.496731e-07 -1.998512e-07 1.043892e-07
3.439164e-07 1.539376e-07 -1.891458e-07 8.942057e-08 1.325179e-08 6.985369e-09
3.081225e-07 1.713191e-07 -2.216753e-07 1.004022e-07 6.565960e-09 1.311299e-08
1.848792e-08 4.852054e-07 -2.684439e-07 2.606819e-08 4.702129e-08 6.568798e-08
2.488156e-08 4.557543e-07 -2.864195e-07 1.110343e-07 9.466453e-08 9.331519e-08
-1.591046e-07 -2.007490e-07 -1.014084e-08 8.321681e-09 6.376992e-07 -5.640439e-07
7.430950e-09 5.782052e-07 -3.738531e-07 8.018622e-08 5.157698e-08 6.506176e-08
5.150720e-07 5.087512e-07 -5.611679e-07 6.423308e-07 1.000814e-07 8.503907e-08
6.195740e-07 6.831740e-07 -7.922735e-07 1.279464e-06 3.335637e-07 1.999022e-07
6.708785e-07 6.773075e-07 -8.194624e-07 1.444113e-06 3.174718e-07 3.701082e-07
4.186679e-07 9.789844e-07 -8.309481e-07 1.193076e-06 3.400017e-07 3.394311e-07
1.947410e-07 1.163436e-06 -8.215758e-07 9.904229e-07 1.183162e-07 1.126932e-08
6.024721e-07 6.626034e-07 -7.303254e-07 9.011223e-07 4.493175e-08 5.469709e-08
4.663097e-07 6.776009e-07 -8.379749e-07 9.561053e-07 1.302336e-07 8.607610e-08
3.366414e-07 7.587682e-07 -8.148402e-07 8.816784e-07 5.853660e-08 6.778395e-08
2.129442e-07 7.668334e-07 -7.797857e-07 7.855549e-07 2.255531e-07 1.755135e-07
6.540012e-08 3.395008e-07 -2.163590e-07 -6.009681e-08 -5.612540e-08 1.177514e-07
-5.099014e-09 4.797136e-07 -2.864986e-07 -5.587132e-08 -5.340052e-08 1.320438e-07
-3.736210e-08 3.032471e-07 -2.261980e-07 -5.680375e-08 -1.994176e-07 1.657862e-07
3.366414e-07 7.339949e-07 -7.330388e-07 7.937476e-07 9.695668e-08 -5.911281e-09
-5.103666e-08 8.001110e-07 -4.319486e-07 -1.133533e-07 -1.490904e-07 1.726899e-07
-2.736804e-07 7.957029e-07 -4.891434e-07 -1.568492e-07 -4.912601e-07 1.611895e-07
1.294980e-07 4.655383e-07 -4.011670e-07 -1.252288e-07 -9.896711e-08 1.210510e-07
1.032439e-08 2.111523e-07 -2.414832e-07 -7.158972e-08 -3.400085e-07 2.545156e-07
-2.789373e-07 1.059256e-06 -7.323091e-07 -2.644303e-07 -3.986798e-07 1.214122e-07
-4.592447e-07 1.409274e-06 -6.976419e-07 -3.501390e-07 -6.808936e-07 6.827264e-08
-4.714097e-07 1.664559e-06 -9.281163e-07 -2.413026e-07 -4.903831e-08 1.413570e-08
-4.217866e-07 1.401230e-06 -8.590473e-07 -1.046733e-07 -3.600289e-08 2.275812e-08
-2.830091e-07 1.107270e-06 -4.563195e-07 8.998758e-08 -5.537328e-07 -1.523215e-07
-2.120381e-07 7.430680e-07 -3.286001e-07 -1.152096e-07 -4.812839e-07 2.102562e-07
-2.398407e-07 1.007577e-06 -5.271355e-07 -3.551952e-08 -1.641677e-07 1.035451e-07
1.585858e-06 -4.899404e-07 -6.177180e-07 -1.172199e-06 6.303898e-07 -4.174685e-07
3.018676e-08 -7.843852e-08 -4.594670e-07 -6.781638e-09 5.941007e-07 -1.723663e-07
4.059952e-07 4.035892e-07 -5.631416e-07 -6.357232e-07 6.910814e-07 -5.056323e-07
-3.337940e-07 1.102893e-06 -6.641801e-07 -9.615819e-08 7.345992e-09 7.096793e-08
-1.869126e-07 -3.580511e-07 8.439783e-07 1.219663e-08 1.411465e-07 -5.598773e-07
-3.896946e-07 1.258093e-06 -7.034731e-07 -1.417239e-07 -5.145499e-07 9.332739e-08
-2.132529e-07 9.990380e-07 -6.346299e-07 -3.952933e-08 -3.179236e-08 8.175504e-08
-4.603879e-07 1.584166e-06 -9.026198e-07 -3.036899e-07 -8.839694e-08 3.517420e-08
-1.241114e-07 4.756071e-07 -2.556623e-07 -6.035394e-08 -1.857728e-07 1.692197e-07
-3.041849e-07 1.365921e-06 -8.159453e-07 -4.950324e-08 -6.215736e-09 3.786346e-08
-3.236611e-07 1.473261e-06 -7.860515e-07 -1.538060e-07 -1.752980e-07 7.574089e-08
-3.399680e-07 1.703227e-06 -9.204424e-07 -4.263663e-07 -9.632341e-08 6.435882e-08
-6.336467e-07 1.828093e-06 -9.620191e-07 -4.487915e-07 -2.779073e-07 5.961325e-08
-1.396066e-05 -1.481854e-05 5.901083e-05 3.845096e-06 -6.578400e-06 -1.378836e-05
3.211132e-07 1.288041e-07 -1.459788e-07 1.615075e-08 2.832524e-10 1.570851e-09
4.568470e-06 -1.738525e-06 -6.983829e-07 -3.351694e-07 1.619817e-07 1.174486e-07
2.198785e-06 -1.063959e-06 -4.353365e-07 -9.449348e-07 2.326040e-07 -1.303443e-07
5.381066e-06 -2.778692e-06 4.217557e-07 6.929781e-07 1.508964e-07 -4.533887e-07
3.503742e-07 1.112820e-07 -1.452748e-07 1.239200e-08 5.373690e-10 1.069373e-09
4.985961e-06 -2.357312e-06 2.181587e-08 -7.773433e-07 7.896538e-08 -6.329544e-07
3.199212e-06 -6.032566e-06 9.666606e-06 -3.558846e-06 -2.058937e-07 1.265154e-06
1.222280e-06 -2.023353e-06 1.126311e-06 -3.219678e-07 -3.176111e-07 -1.527379e-06
3.106211e-06 -5.779510e-07 -7.905646e-07 -2.101412e-06 2.788824e-07 -3.947360e-07
3.568123e-07 1.093997e-07 -1.585503e-07 4.208885e-08 2.649978e-09 4.453510e-09
9.889962e-08 -3.104097e-07 -4.855731e-07 9.994915e-10 -5.894375e-07 2.503674e-08
3.471657e-07 1.116950e-07 -1.523557e-07 3.119500e-08 5.849975e-09 8.231239e-10
3.749798e-07 9.807447e-08 -1.545983e-07 3.187296e-08 2.969890e-09 -6.350535e-10
1.515998e-06 4.754067e-07 -9.382542e-07 1.718531e-06 -4.035418e-07 -2.904606e-07
8.723650e-08 8.279374e-07 -6.748520e-07 2.202791e-07 -1.323708e-07 -4.088529e-08
1.781377e-07 7.114264e-07 -7.261114e-07 2.280246e-07 -1.318798e-07 -2.662131e-08
1.270910e-06 4.136558e-07 -1.268365e-06 4.187399e-07 -1.645246e-07 -2.439324e-08
1.544200e-07 6.122970e-07 -5.988086e-07 4.774327e-08 -1.971033e-07 -2.323559e-08
-2.293614e-07 6.904437e-07 -2.501692e-07 4.735906e-08 1.739343e-07 3.037523e-08
3.958950e-07 7.398295e-08 -1.406892e-07 3.172620e-09 -5.236317e-10 3.152319e-09
3.898956e-07 6.930535e-08 -1.396934e-07 -2.146584e-09 6.329003e-10 1.934779e-09
-2.399147e-07 8.680806e-07 -4.498713e-07 -6.249859e-10 4.932339e-08 3.868185e-08
6.950901e-07 -9.456752e-08 -3.480352e-07 1.194149e-07 1.838156e-08 9.384352e-08
-2.089445e-07 8.421171e-07 -5.285189e-07 1.561284e-07 3.037534e-07 9.705967e-08
-3.242227e-07 1.079818e-06 -6.329300e-07 3.699472e-08 4.954015e-07 2.329370e-08
-1.749062e-07 6.225553e-07 -2.785170e-07 1.946766e-08 9.611763e-08 3.469468e-08
-4.557960e-08 6.054589e-07 -3.750308e-07 0.000000e+00 8.837443e-10 -2.370353e-10
-3.864064e-08 5.847401e-07 -3.569090e-07 -1.611117e-09 6.276905e-08 -1.679895e-08
5.165614e-07 -5.309217e-08 -1.592801e-07 -2.841186e-08 -1.567940e-08 3.242666e-08
-5.431896e-08 5.499455e-07 -2.772240e-07 -2.456464e-08 7.270052e-08 -2.142812e-08
5.501557e-07 -7.437606e-08 -1.766626e-07 -6.994332e-09 -8.725651e-09 5.109746e-09
4.805768e-07 -2.869520e-09 -1.669000e-07 -7.314416e-09 -3.090445e-09 6.432067e-09
4.474109e-07 1.794832e-08 -1.591512e-07 -1.262170e-08 -4.017487e-09 -8.055046e-10
3.847781e-07 7.360342e-08 -1.386690e-07 -2.736274e-09 -1.260707e-09 -4.177966e-10
4.168513e-07 4.627243e-08 -1.422096e-07 -1.865466e-08 -7.414406e-09 4.932686e-09
-9.507128e-08 6.885159e-07 -4.052750e-07 -9.490081e-08 1.046578e-07 -5.279709e-08
-7.487050e-10 6.355621e-07 -4.282845e-07 -3.097715e-08 3.250601e-08 -4.282554e-09
-5.725631e-08 7.713653e-07 -4.507383e-07 -1.513927e-07 9.852243e-08 -5.430214e-08
5.607562e-07 -7.102133e-08 -1.973143e-07 -2.361493e-08 -5.452407e-09 8.803151e-09
3.428529e-08 6.448380e-07 -4.937357e-07 -6.178369e-08 3.711814e-08 -1.439882e-08
2.759521e-08 6.317517e-07 -4.267489e-07 -1.319663e-07 1.317952e-07 -3.492950e-08
4.069609e-07 5.886256e-08 -1.471998e-07 8.169992e-09 1.680291e-09 5.473168e-09
2.506580e-06 -7.209105e-07 -8.909525e-07 4.706475e-07 1.276285e-07 3.875609e-07
1.642678e-07 2.626629e-07 -2.040821e-07 -3.330113e-09 -2.297506e-08 8.312668e-08
2.454922e-07 2.670881e-07 -2.235957e-07 -7.934622e-08 -5.789617e-08 8.593505e-08
-5.863708e-08 8.664872e-07 -6.079093e-07 3.561991e-08 -1.001300e-15 -1.405533e-08
7.255374e-08 6.661858e-07 -5.395883e-07 -1.410066e-07 7.254972e-08 1.215884e-08
-3.411397e-08 9.601656e-07 -7.667097e-07 2.822014e-07 -9.614168e-08 -5.051317e-08
-2.217111e-07 1.469913e-06 -8.499231e-07 4.483201e-07 -8.708738e-08 -1.085846e-07
2.512426e-06 -1.158874e-06 -9.115126e-07 8.061699e-07 -2.717451e-07 -3.135629e-07
3.578036e-06 -1.000940e-06 -7.238440e-07 1.663267e-06 -2.372432e-07 -1.996961e-07
3.434457e-07 1.346549e-07 -1.681360e-07 4.649007e-08 4.863669e-09 5.356916e-09
3.929460e-07 7.936097e-08 -1.551752e-07 1.890949e-08 3.382368e-09 6.736346e-09
-1.630803e-07 6.285434e-07 -2.904565e-07 2.809835e-08 -1.190789e-07 -1.154412e-07
3.712289e-07 8.173516e-08 -1.474776e-07 1.871028e-08 7.063827e-09 2.336473e-09
3.587528e-07 9.145317e-08 -1.468504e-07 1.118767e-08 3.466918e-09 -8.789591e-10
3.882180e-07 7.834438e-08 -1.504800e-07 6.192776e-09 1.421867e-09 3.364215e-09
3.573261e-07 9.830700e-08 -1.449919e-07 7.121076e-09 2.914310e-09 1.396766e-09
3.909542e-07 8.639925e-08 -1.503857e-07 3.629299e-08 6.614916e-09 1.184139e-08
-9.676430e-08 8.870169e-07 -5.886495e-07 4.171840e-08 -5.300932e-08 -8.594221e-08
-1.846871e-07 3.983265e-07 -2.784893e-07 -7.638595e-10 -3.035437e-07 -1.778164e-07
-1.333931e-07 1.029496e-06 -6.568398e-07 5.259141e-08 -2.224567e-15 -1.692745e-08
3.879726e-07 6.624924e-08 -1.606844e-07 3.486863e-08 6.657372e-09 -9.236204e-10
4.159065e-07 4.233581e-08 -1.533973e-07 -7.299748e-09 -4.552434e-09 1.551267e-09
8.712917e-07 -1.432073e-07 -4.595591e-07 2.488480e-07 1.619103e-08 3.464900e-08
3.637091e-07 9.784862e-08 -1.561761e-07 -5.140475e-09 -1.656364e-09 9.343236e-09
-1.108200e-07 5.073426e-07 -2.653624e-07 -9.195373e-08 -1.793562e-07 1.769676e-07
3.479742e-07 1.397269e-07 -2.006367e-07 -2.792368e-08 -3.641767e-09 -3.726349e-09
3.749992e-07 1.051639e-07 -2.066241e-07 -8.856001e-08 -1.792449e-08 3.244210e-08
3.741555e-07 8.854599e-08 -1.546063e-07 -2.024616e-08 -3.066063e-09 4.093314e-09
2.283217e-08 3.155938e-07 -2.161605e-07 -2.612315e-08 -7.369046e-08 1.340617e-07
4.047228e-08 3.054503e-07 -2.131802e-07 -4.274319e-08 -1.243969e-07 1.460445e-07
1.383841e-07 3.190107e-07 -3.506724e-07 -2.043331e-07 -2.223092e-07 1.867832e-07
2.148093e-07 6.559741e-07 -5.244071e-07 -4.642246e-07 -2.783168e-07 2.147880e-07
-3.861138e-07 1.474024e-06 -8.387509e-07 3.690262e-08 -1.149393e-15 -9.556266e-09
-4.083601e-07 1.519239e-06 -8.619042e-07 -2.457284e-09 -1.024528e-08 -4.054507e-09
2.943183e-07 5.087929e-07 -4.575342e-07 -3.999831e-07 -1.698871e-07 1.446537e-07
-1.676918e-07 1.171104e-06 -7.577394e-07 -2.648568e-07 -4.677138e-08 7.902706e-08
-2.398386e-07 1.058452e-06 -6.342927e-07 -3.805387e-08 -3.200469e-08 8.948500e-08
-3.107507e-07 1.348821e-06 -8.075503e-07 -7.485349e-08 4.243305e-09 3.194958e-08
-1.669565e-07 1.107399e-06 -7.009818e-07 -6.708182e-08 -1.580668e-15 1.178164e-08
5.004651e-08 6.964580e-07 -4.950590e-07 -1.108932e-07 -6.123813e-08 9.304021e-08
5.635390e-07 1.174946e-08 -2.778600e-07 -1.616814e-07 -6.300990e-09 6.613825e-09
5.104985e-07 2.868727e-08 -2.281590e-07 -1.211429e-07 -1.426568e-08 2.480514e-08
4.711040e-07 -2.925711e-09 -1.563456e-07 -2.948821e-08 -8.924909e-09 2.316798e-08
5.477283e-07 -3.262483e-08 -2.372026e-07 -1.008683e-07 -2.533964e-08 6.819292e-08
4.288946e-07 5.519584e-08 -1.694662e-07 -5.403365e-08 -5.641875e-09 9.399224e-09
4.627292e-07 1.990460e-08 -1.823811e-07 -5.165958e-08 -6.337608e-09 7.675527e-09
3.793024e-07 3.334643e-07 -5.633379e-07 -3.657578e-07 1.110368e-08 1.351498e-08
1.425438e-07 4.139220e-07 -3.297786e-07 -1.230732e-07 -1.494008e-07 1.618858e-07
4.320418e-07 2.365383e-07 -3.290292e-07 -2.467064e-07 -4.022205e-08 3.821319e-08
6.036301e-08 2.641859e-07 -2.062633e-07 -7.391705e-08 -1.400302e-07 1.578513e-07
3.197592e-07 2.745494e-07 -3.602388e-07 -2.062380e-07 -1.558830e-08 5.269277e-09
4.265575e-07 3.425629e-07 -4.206466e-07 -3.556900e-07 -5.877737e-08 7.007521e-08
3.965525e-07 2.189839e-07 -4.439987e-07 -2.652343e-07 3.649888e-09 8.483293e-09
1.460987e-07 1.990434e-07 -2.248267e-07 -9.456444e-08 -1.750885e-07 1.544024e-07
4.326923e-07 2.365123e-07 -3.311558e-07 -2.458925e-07 -4.045900e-08 4.659128e-08
4.947406e-08 6.903340e-07 -5.715211e-07 -1.415547e-07 -4.326557e-08 5.128154e-08
2.057289e-07 6.835258e-07 -5.875963e-07 -3.533810e-07 -2.585718e-08 4.658526e-08
3.713879e-07 2.047447e-07 -3.237041e-07 -1.596996e-07 -6.441741e-09 3.382309e-08
3.449637e-07 2.527832e-07 -4.166489e-07 -2.553379e-07 -3.299292e-08 3.673814e-08
4.173411e-07 9.929401e-08 -2.090673e-07 -1.165068e-07 -1.975487e-08 1.878345e-08
3.492989e-07 1.398508e-07 -2.643713e-07 -1.151402e-07 -3.174719e-08 4.299776e-08
3.793024e-07 3.749495e-07 -4.761342e-07 -3.488089e-07 -5.226711e-08 -4.222786e-09
4.238953e-07 5.155009e-08 -1.584703e-07 6.017065e-09 -5.262130e-10 5.649703e-09
-2.806612e-07 5.624772e-07 -3.225948e-07 8.452612e-08 -1.071120e-07 1.029489e-07
-1.458036e-06 3.928637e-06 1.837549e-07 -8.816868e-07 -2.281841e-07 2.154170e-07
-6.267082e-07 1.705080e-06 -8.582615e-07 1.359794e-07 -2.996820e-07 -8.576482e-09
-7.498350e-07 1.665857e-06 -6.916528e-07 -5.876168e-08 -7.655791e-07 6.850188e-09
6.918402e-08 5.992275e-07 -5.262802e-07 -1.932002e-07 -8.377618e-08 5.461652e-08
1.222059e-07 4.891418e-07 -4.774732e-07 -2.204276e-07 -1.807502e-07 1.391784e-07
-3.821153e-07 2.046246e-06 -9.401112e-07 -1.284205e-06 -5.669098e-07 2.379143e-07
1.557541e-07 5.709196e-07 -4.653452e-07 -2.255822e-07 -6.904144e-08 6.002312e-08
-7.498350e-07 1.860243e-06 -8.736194e-07 -4.693485e-08 -3.157917e-07 6.387828e-08
-5.725415e-07 2.155717e-06 -9.456159e-07 -1.287095e-07 -1.465859e-07 1.728768e-08
-9.480297e-07 2.235512e-06 -9.731363e-07 6.121238e-08 -5.115262e-07 -4.245712e-08
2.925351e-07 3.506378e-07 -4.008098e-07 -2.353607e-07 -7.224787e-08 8.346910e-08
2.301328e-06 -4.721592e-07 -8.668671e-07 7.822196e-07 -4.763954e-07 -7.112973e-07
-3.604955e-07 1.223171e-06 -6.836200e-07 -4.917657e-09 -3.401295e-08 2.264358e-08
-4.218439e-07 1.636799e-06 -8.754692e-07 -1.466154e-07 -7.751151e-08 4.351300e-08
3.048655e-06 -5.825710e-07 -1.519062e-06 1.560425e-07 -1.353379e-07 -1.515981e-08
-9.248484e-07 1.683459e-07 7.303498e-06 5.752972e-06 1.908200e-06 1.186948e-06
1.403376e-06 -6.064301e-07 -9.323091e-07 5.795262e-07 -4.884499e-07 -3.763570e-07
3.098522e-06 -9.459510e-07 -1.512786e-06 5.279516e-07 -1.453099e-07 -1.425931e-07
4.615415e-06 -3.544046e-06 2.297523e-06 2.307684e-06 -1.264717e-07 -3.286262e-07
2.815641e-06 -4.902806e-07 -1.409816e-06 1.166997e-06 -1.982791e-07 -2.949627e-07
2.728987e-06 -9.681244e-07 -8.847845e-07 5.930860e-07 -3.437104e-07 -2.361841e-07
-1.181866e-07 -5.031856e-07 -6.194282e-08 -1.150429e-08 -4.707848e-07 -3.596985e-07
2.959400e-06 -9.500208e-07 -1.091061e-06 1.509659e-06 -1.751059e-08 -6.749681e-08
3.707845e-06 -1.094750e-06 -1.261330e-06 8.449211e-07 -1.862945e-07 -2.816803e-07
9.187553e-08 5.251640e-07 -3.672277e-07 1.757823e-07 5.526176e-08 6.812878e-08
1.413436e-08 7.571845e-07 -4.739890e-07 3.301951e-07 1.497068e-07 8.033054e-08
7.559209e-07 -1.397727e-07 -3.330163e-07 5.561265e-08 7.804621e-09 4.056674e-08
3.309541e-07 1.301595e-07 -1.430964e-07 1.438152e-08 5.479809e-09 -2.344378e-09
9.230901e-07 -1.867635e-07 -4.246191e-07 9.949185e-08 1.876722e-08 1.222650e-07
7.400447e-07 -8.300128e-08 -3.912658e-07 1.869548e-07 -7.153998e-09 3.012913e-08
6.240715e-07 -9.456752e-08 -2.633898e-07 8.887717e-08 2.432193e-08 9.036337e-08
7.478557e-07 -1.577729e-07 -3.089595e-07 3.645496e-08 2.686343e-09 8.014399e-08
3.230744e-07 1.353783e-07 -1.411382e-07 2.245565e-08 -8.086825e-10 5.491416e-09
8.336571e-07 -1.805380e-07 -3.920576e-07 2.528385e-08 4.681231e-08 4.769183e-08
9.846131e-07 -1.406781e-07 -5.241875e-07 2.408919e-07 5.810445e-08 1.652407e-07
3.101108e-07 1.459582e-07 -1.460864e-07 5.332675e-09 3.479905e-09 2.951028e-09
3.108232e-07 1.527443e-07 -1.444294e-07 4.120529e-08 6.140942e-09 7.656642e-09
8.691339e-07 -1.335273e-07 -4.532471e-07 1.811801e-07 2.365964e-08 1.481017e-07
8.641454e-07 -7.625954e-08 -4.877274e-07 2.779219e-07 6.047226e-08 1.370491e-07
2.947119e-07 1.625384e-07 -1.447177e-07 8.933402e-09 7.541551e-09 4.500288e-09
3.262674e-07 1.389671e-07 -1.401413e-07 3.136672e-09 2.076770e-09 -7.180384e-10
3.204175e-07 1.462996e-07 -1.425170e-07 9.218457e-09 2.316975e-11 2.874439e-10
1.871332e-07 3.014969e-07 -1.845792e-07 7.221771e-08 5.128436e-08 3.642432e-08
1.634279e-07 3.013008e-07 -1.984007e-07 1.270075e-08 1.042431e-08 4.070000e-08
-7.432580e-07 2.467273e-06 -8.486840e-07 1.310371e-06 3.158375e-07 6.434748e-08
2.626964e-07 2.717568e-07 -2.509928e-07 1.022801e-07 1.881080e-08 9.197960e-09
-3.416407e-07 1.528791e-06 -8.192681e-07 7.961788e-07 3.608344e-07 8.479200e-08
-1.766647e-07 1.216957e-06 -7.890492e-07 5.830753e-07 1.201316e-07 4.769032e-08
-3.853288e-07 2.150676e-06 -9.346724e-07 1.108576e-06 1.165904e-07 1.884285e-08
-3.114848e-07 9.029550e-07 -5.916080e-07 1.407450e-07 5.261108e-07 1.018081e-07
-4.360390e-07 1.582786e-06 -7.969718e-07 2.390560e-08 6.195846e-08 1.016709e-08
2.706133e-07 2.319756e-07 -2.099466e-07 1.226004e-07 4.558938e-08 3.795178e-08
-7.502473e-08 7.418965e-07 -3.979262e-07 1.862821e-07 2.027533e-07 8.200012e-08
-4.689670e-07 2.404457e-06 -9.089708e-07 9.099991e-07 8.379702e-08 7.258182e-08
-1.273691e-06 2.892492e-06 -8.054730e-07 9.046107e-07 2.748337e-07 3.282607e-08
1.838861e-07 2.887481e-07 -2.711155e-07 1.457848e-07 9.157739e-08 8.681936e-08
-9.622412e-07 2.678524e-06 -8.335259e-07 4.876045e-07 6.087468e-07 1.526292e-07
2.235654e-07 2.033546e-07 -1.836176e-07 1.190677e-07 7.743750e-08 7.956880e-08
-1.701710e-06 3.269582e-06 -4.501994e-07 9.714027e-07 -5.870047e-08 4.656559e-08
-6.451048e-07 2.433795e-06 -6.937972e-07 8.799622e-07 3.743123e-07 1.530019e-07
2.235654e-07 2.787618e-07 -2.053260e-07 1.424232e-07 5.226907e-08 5.701546e-08
5.636340e-07 1.139780e-07 -5.910469e-07 4.738829e-07 1.356031e-07 1.926116e-07
2.383667e-07 2.360066e-07 -2.419159e-07 1.239491e-07 5.881050e-08 5.466076e-08
4.280540e-07 6.263252e-08 -1.660099e-07 5.352190e-08 9.794864e-09 1.940024e-08
3.569825e-07 9.814397e-08 -1.452436e-07 7.499985e-09 1.361140e-09 2.211521e-09
3.217261e-07 1.267657e-07 -1.408110e-07 1.091583e-08 3.694460e-09 -2.616484e-09
1.054458e-06 -1.076356e-07 -6.606944e-07 5.492324e-07 5.784825e-08 2.290570e-07
-2.689360e-06 -3.176014e-06 1.398516e-05 6.493045e-06 7.138531e-06 5.507533e-06
3.157106e-07 1.367223e-07 -1.423365e-07 4.325671e-09 5.506426e-10 2.736569e-09
3.699024e-07 9.263045e-08 -1.530306e-07 2.351089e-08 2.784360e-09 2.576337e-09
4.877413e-06 -5.498089e-06 7.817617e-06 1.842551e-06 -1.411481e-07 2.602194e-06
3.153940e-07 1.376695e-07 -1.461798e-07 9.484618e-09 3.364398e-09 -5.585394e-10
5.751881e-07 -9.977903e-08 -1.534554e-07 1.755341e-08 8.680945e-09 3.266347e-08
3.847944e-06 -1.860402e-06 2.388704e-06 2.179294e-06 2.219269e-07 3.559044e-07
3.280322e-07 1.382329e-07 -1.429730e-07 2.511826e-08 4.923680e-09 2.598846e-09
3.790803e-06 -7.219171e-06 9.091527e-06 3.567836e-06 4.172281e-07 1.184298e-06
3.138405e-07 1.445136e-07 -1.505453e-07 2.535817e-08 -5.257294e-10 5.861926e-09
3.234628e-07 1.340657e-07 -1.572061e-07 2.958877e-08 5.006437e-09 -3.477259e-09
4.163347e-08 3.338407e-07 -2.130466e-07 -1.236933e-07 -1.740982e-07 1.460339e-07
1.286829e-07 3.148942e-07 -2.152741e-07 -8.837377e-08 -1.192868e-07 1.262245e-07
-5.253250e-07 2.819958e-06 2.641213e-09 1.753636e-06 -6.726825e-09 -2.111628e-07
-1.962065e-06 3.798551e-06 -2.182141e-07 1.670451e-06 -3.118429e-07 -1.582110e-07
-1.923236e-06 3.999686e-06 8.018175e-07 1.844495e-06 4.028902e-07 4.810109e-08
-5.780179e-07 3.148874e-06 -3.347106e-07 2.208610e-06 -4.164032e-07 -1.823127e-07
2.148093e-07 7.282871e-07 -6.301984e-07 -4.762051e-07 -1.785726e-07 1.052014e-07
-1.093950e-06 3.004555e-06 3.674277e-06 4.526342e-06 2.406444e-07 1.000787e-07
-2.303690e-06 5.089658e-06 9.030871e-07 2.911353e-07 -8.346342e-07 -2.391846e-07
-2.332183e-07 8.084997e-07 -5.538522e-07 -7.396269e-08 -2.618676e-07 1.299426e-07
9.540568e-09 8.081697e-07 -5.211191e-07 -8.983692e-08 -4.261926e-08 1.232458e-07
8.163817e-07 7.435819e-08 -7.285915e-07 6.788136e-07 1.601241e-07 2.645727e-07
9.556860e-08 3.497010e-07 -1.759674e-07 5.531673e-08 4.397169e-08 7.027149e-08
1.569316e-07 2.541020e-07 -1.969574e-07 1.049211e-07 1.050396e-07 1.095740e-07
2.408611e-06 -7.463557e-07 -8.681124e-07 5.428189e-07 8.949063e-08 4.033267e-07
1.398641e-07 3.065636e-07 -2.218958e-07 4.553687e-08 3.183869e-08 4.772814e-08
1.898780e-06 -5.162750e-07 -8.620726e-07 8.424695e-07 8.561890e-08 1.354120e-07
1.295250e-06 -4.190460e-08 -7.706266e-07 7.805994e-07 1.406262e-07 3.218991e-07
2.240316e-06 -7.489031e-07 -8.796732e-07 7.350745e-07 1.360834e-07 1.319954e-07
6.469620e-08 5.179608e-07 -3.562290e-07 2.875802e-08 1.524854e-08 4.008530e-08
2.639128e-06 -7.817816e-07 -6.040375e-07 7.417653e-07 -4.813700e-08 4.618774e-07
6.190072e-08 5.869137e-07 -4.032277e-07 9.383389e-08 1.188239e-08 2.714023e-08
-1.770008e-05 -5.360600e-06 3.803713e-05 1.496468e-06 7.774822e-06 3.192453e-06
8.126287e-08 4.060262e-07 -2.407979e-07 2.728723e-08 2.180159e-10 4.793307e-08
-6.981060e-06 1.239300e-06 1.819706e-05 -4.864365e-06 2.835917e-06 -1.519082e-06
2.994312e-08 4.328730e-07 -3.011853e-07 8.353635e-08 7.472829e-08 7.931873e-08
6.630855e-08 7.359812e-07 -5.068855e-07 3.090311e-07 5.122844e-08 4.945637e-08
3.175429e-07 1.052766e-06 -8.300362e-07 -1.453483e-06 -5.127481e-07 3.798486e-07
2.589401e-06 -8.751659e-07 -8.212364e-07 -6.708634e-07 -2.837197e-09 9.492656e-09
2.251108e-06 -5.407280e-07 -6.564142e-07 -9.313836e-07 -1.844629e-07 4.303858e-07
1.630040e-06 -4.987251e-07 -7.936430e-07 -4.447162e-07 -3.834586e-08 1.252883e-07
-4.591533e-07 2.496066e-06 -9.327665e-07 -1.863284e-06 -3.390227e-07 6.116080e-09
1.967682e-07 3.536953e-07 -2.807660e-07 1.890192e-07 1.092433e-07 7.232096e-08
1.769554e-07 3.371722e-07 -2.512005e-07 2.635695e-08 5.087450e-09 2.065048e-08
-9.873689e-08 9.189518e-07 -6.134578e-07 3.367581e-07 1.873288e-07 7.658053e-08
-5.563361e-08 5.130249e-07 -2.383303e-07 3.343562e-08 6.135545e-08 6.267233e-08
1.495504e-07 4.310892e-07 -2.680460e-07 1.473562e-07 9.822617e-08 6.678350e-08
1.547740e-07 3.817058e-07 -3.432800e-07 1.820225e-07 6.976728e-08 5.210499e-08
1.349814e-07 5.265567e-07 -3.962062e-07 2.471272e-07 2.866545e-08 1.641684e-08
5.830332e-06 -3.754782e-06 3.750197e-06 -2.802576e-06 1.363248e-07 -3.189280e-07
1.162628e-07 4.898591e-07 -3.427982e-07 1.462118e-07 2.457247e-08 4.419310e-08
2.938545e-06 -1.361518e-06 -4.417384e-07 -1.127943e-06 1.627536e-08 3.804054e-07
-4.908034e-08 4.985350e-07 -2.788873e-07 8.604034e-09 1.825343e-08 5.025161e-08
-4.213898e-07 1.104553e-06 -5.306539e-07 7.134817e-08 -3.636822e-07 -6.236114e-08
3.641559e-06 -1.396427e-06 -6.723718e-07 -6.572681e-07 -1.140360e-07 7.945550e-07
2.942627e-06 -1.723720e-06 1.908929e-06 -2.600790e-06 -1.074527e-07 -7.240236e-09
4.535533e-06 -3.847541e-06 1.831199e-06 -2.493490e-06 -2.787779e-07 7.877626e-07
-4.055364e-07 9.880644e-07 -6.356169e-07 1.259435e-07 -5.305169e-07 -2.713286e-07
3.852860e-06 -1.696264e-06 7.512310e-07 -1.137280e-06 -1.560296e-07 2.824910e-07
-1.947997e-07 8.964066e-07 -6.635570e-07 2.313261e-07 -4.454212e-07 -2.615812e-07
-3.914009e-07 1.387324e-06 -7.736496e-07 4.992432e-08 -1.424374e-07 -4.968337e-08
-3.604916e-07 1.046822e-06 -6.079384e-07 9.521927e-08 5.131794e-07 3.986043e-08
-1.863816e-07 9.620415e-07 -5.889130e-07 2.887662e-07 1.647574e-07 6.312056e-08
-2.387538e-07 6.892281e-07 -2.369538e-07 5.707081e-08 3.712860e-07 7.534299e-09
-3.602969e-07 7.736008e-07 -3.044535e-07 4.385979e-08 5.374207e-07 2.571783e-08
-3.150344e-07 7.799153e-07 -4.428731e-07 4.391602e-09 3.702286e-07 1.718556e-08
-2.968534e-07 7.763729e-07 -3.003324e-07 2.169131e-08 4.136304e-07 6.834034e-08
-1.383196e-07 4.162454e-07 -2.283574e-07 8.678109e-08 2.806597e-07 1.330682e-07
3.955760e-08 6.405467e-07 -4.207026e-07 2.630707e-07 1.977968e-07 1.191736e-07
-2.887554e-07 8.429395e-07 -3.246041e-07 4.648590e-08 -2.685289e-07 -1.303426e-07
-3.316568e-07 6.553924e-07 -3.249826e-07 -1.194509e-07 4.604765e-07 1.030802e-07
-3.048048e-07 7.208936e-07 -2.981382e-07 -1.290155e-07 5.085901e-07 -1.304677e-07
-2.456022e-07 7.934025e-07 -5.262616e-07 8.267446e-08 -2.274155e-07 -1.136782e-07
-2.281158e-07 1.015102e-06 -5.335372e-07 1.753642e-07 3.892158e-09 2.957292e-08
-1.412776e-07 1.113390e-06 -6.570595e-07 2.906872e-07 9.149924e-08 3.335210e-08
-2.948581e-07 8.165754e-07 -3.292189e-07 6.079144e-08 -2.418346e-07 -1.509264e-07
-4.681136e-07 1.160868e-06 -6.006815e-07 1.561044e-07 4.954823e-07 5.628710e-08
-4.752714e-07 1.421293e-06 -7.331776e-07 1.528979e-07 1.052420e-07 1.622670e-08
-2.927737e-07 9.066745e-07 -3.366530e-07 1.555191e-09 2.367502e-07 -4.717218e-08
-2.106870e-07 9.612252e-07 -3.974343e-07 2.864679e-07 -3.753804e-07 -1.781280e-07
-2.104603e-07 9.780090e-07 -4.039504e-07 1.627661e-07 -4.949429e-07 -1.813825e-07
4.132358e-06 -1.734411e-06 -1.488056e-06 -2.041035e-07 2.021255e-08 -6.828803e-09
3.822298e-07 6.843606e-08 -1.404282e-07 -1.031146e-09 -4.440891e-16 1.146775e-09
1.519079e-06 -1.052604e-06 -4.608140e-07 -1.570403e-08 -5.321207e-08 -6.223653e-07
3.750290e-07 7.601860e-08 -1.462912e-07 -2.550474e-09 5.405535e-18 -1.059713e-09
4.576885e-06 -2.191541e-06 -6.383054e-07 -2.553784e-07 -1.168857e-07 9.440724e-08
2.024883e-06 -1.055840e-06 -6.134122e-07 4.644016e-08 -7.950621e-08 -4.394936e-07
3.697398e-07 8.855946e-08 -1.550959e-07 -8.332625e-09 -5.822006e-10 3.179471e-09
3.118677e-06 -1.586280e-06 -3.483328e-07 6.450209e-07 -9.635172e-08 -1.331086e-07
1.419732e-06 -8.517836e-07 -4.506246e-07 4.109406e-07 -5.616899e-07 -9.047106e-07
3.710603e-07 8.128953e-08 -1.489155e-07 -3.759894e-09 -7.352832e-10 -2.011887e-10
3.559736e-06 -1.783161e-06 -8.919011e-07 2.826638e-07 -6.864428e-08 -2.635261e-08
4.335654e-06 -1.666382e-06 -8.328388e-07 1.057594e-06 -3.072883e-07 -4.211093e-07
3.898956e-07 7.451601e-08 -1.406892e-07 2.520064e-10 -1.297471e-09 2.420648e-09
2.389963e-06 -8.234934e-07 -7.883034e-07 1.497817e-06 -2.985397e-07 -2.372961e-07
1.754825e-06 2.708184e-07 -1.254031e-06 1.510256e-06 -3.230053e-08 -1.670458e-07
2.125082e-06 -3.202101e-07 -1.270355e-06 1.564353e-07 -4.720128e-07 5.661123e-08
2.058098e-06 -6.203886e-08 -1.399250e-06 3.198123e-07 -1.443729e-07 5.173408e-08
3.552271e-06 -1.406136e-06 -9.379663e-07 6.570888e-07 -5.735435e-08 -3.014645e-08
5.249662e-06 -2.986621e-06 -4.514183e-07 -1.289754e-07 1.714351e-07 -5.846978e-10
4.449750e-06 -2.620517e-06 -6.584898e-07 -5.854162e-09 -1.996520e-08 3.247651e-08
4.351702e-06 -1.882233e-06 -5.924797e-07 5.610778e-07 -1.985899e-08 -6.848634e-07
1.473235e-06 1.675651e-07 -1.169996e-06 1.451443e-07 -3.965568e-07 -1.002277e-07
6.298677e-07 -1.176488e-07 -2.312815e-07 -2.017909e-09 7.076734e-09 3.731538e-08
5.793072e-07 -1.101466e-07 -1.831516e-07 6.270366e-10 -1.950076e-09 1.000074e-08
5.762779e-07 -1.081873e-07 -1.485227e-07 1.219831e-08 5.002309e-09 3.574663e-08
1.617795e-06 2.765767e-07 -1.349016e-06 4.295363e-07 -5.990451e-08 -6.082661e-08
3.175429e-07 1.121310e-06 -8.626214e-07 -1.192146e-06 -3.871300e-07 2.163734e-07
1.930031e-07 9.925675e-07 -7.175482e-07 -6.958499e-07 -1.635113e-07 9.764756e-08
3.667450e-07 1.174218e-06 -8.679075e-07 -1.563009e-06 -3.465812e-08 8.655868e-08
-1.005513e-07 1.145273e-06 -7.322619e-07 -2.593961e-07 -4.875893e-08 3.760912e-08
-1.005513e-07 1.004863e-06 -7.322619e-07 -1.428194e-07 -2.177295e-08 -7.201657e-09
5.812178e-07 7.636233e-07 -8.635002e-07 -1.136704e-06 -1.214167e-07 1.215060e-08
3.413861e-07 1.174717e-07 -1.387676e-07 6.256209e-09 1.288280e-09 -1.332011e-09
3.239086e-07 1.248179e-07 -1.378309e-07 1.736375e-09 -3.452731e-10 1.525954e-09
3.318504e-07 1.272542e-07 -1.600066e-07 3.689834e-08 2.128891e-09 4.576856e-09
4.148253e-07 9.034898e-07 -8.564274e-07 -1.031700e-06 -9.672982e-08 1.676213e-07
3.275040e-07 1.243459e-07 -1.352920e-07 -8.870710e-16 6.287514e-10 8.807038e-10
8.991570e-08 1.381851e-06 -9.463023e-07 -1.208806e-06 -1.109612e-07 1.327119e-07
4.305686e-07 6.738509e-08 -1.937314e-07 9.335081e-08 1.493769e-08 2.879489e-08
5.812178e-07 8.409444e-07 -8.194222e-07 -1.045242e-06 -6.298078e-08 7.823628e-08
5.258256e-07 7.964754e-07 -8.461490e-07 -1.113685e-06 -2.774262e-07 3.576935e-07
2.857731e-07 9.003255e-07 -8.227614e-07 -8.974000e-07 -9.869835e-08 -7.305335e-09
-2.944701e-08 1.125273e-06 -7.800684e-07 -4.303224e-07 -2.286726e-07 1.834086e-07
1.318333e-07 9.725133e-07 -8.297357e-07 -8.655068e-07 -2.756584e-07 2.335824e-07
-6.760271e-08 1.672520e-06 3.663462e-07 -2.874463e-06 1.428569e-07 -1.164116e-07
1.557181e-06 3.570425e-07 -1.301710e-06 -8.923037e-07 1.156880e-07 3.563815e-08
-1.028401e-07 5.291365e-08 -3.190531e-07 -1.127051e-08 6.584944e-07 -3.011552e-07
1.931360e-06 -3.082435e-07 -9.714534e-07 -3.756968e-07 6.202227e-07 -3.613907e-07
1.214338e-06 3.911680e-07 -1.245723e-06 -1.496856e-07 9.152775e-08 -2.828892e-14
8.899920e-07 5.445692e-07 -1.155342e-06 -5.544019e-07 8.723438e-08 -3.273760e-08
3.620113e-07 1.304443e-07 -2.320633e-07 -7.989194e-08 -9.697420e-09 1.414887e-08
3.843882e-07 7.856925e-08 -1.704452e-07 -3.640740e-08 -5.154605e-09 -4.072746e-09
2.215666e-06 -4.756487e-07 -7.349179e-07 -1.031494e-06 6.056478e-07 -1.008769e-06
1.743268e-06 9.695951e-08 -1.238298e-06 -2.783063e-07 4.201032e-07 -2.317617e-07
1.093254e-06 -4.013685e-07 -8.194856e-07 -4.683561e-08 5.680859e-07 8.544238e-09
3.581439e-07 1.092247e-07 -1.428984e-07 1.129908e-08 3.347275e-09 -9.554908e-10
3.380478e-07 1.317768e-07 -1.928623e-07 -1.208566e-08 -1.467062e-10 1.293665e-08
3.579774e-07 1.227244e-07 -1.886241e-07 -4.603015e-08 2.958149e-09 1.513542e-08
3.783418e-07 9.935692e-08 -1.981334e-07 -5.508689e-08 -9.399817e-09 -5.079122e-09
3.593295e-07 1.475958e-07 -2.073671e-07 -7.230179e-08 -2.319849e-10 1.214016e-08
3.255072e-07 1.412453e-07 -2.251930e-07 -5.530029e-08 -2.612593e-08 3.723105e-08
3.298981e-07 1.554045e-07 -2.128406e-07 -3.991567e-08 -5.017286e-09 1.628664e-08
3.439050e-07 1.253492e-07 -1.877450e-07 -1.364969e-08 -1.783638e-09 6.662872e-09
4.703204e-07 4.296218e-08 -2.213426e-07 1.025175e-07 1.614388e-09 2.281222e-09
4.460901e-07 3.262091e-08 -2.101701e-07 7.909826e-08 1.025275e-08 3.182315e-08
3.992811e-07 7.718479e-08 -1.693488e-07 4.823358e-08 8.599944e-09 8.179414e-09
4.416784e-07 3.220619e-08 -1.637617e-07 2.666016e-08 5.911749e-09 5.374310e-09
3.107102e-08 1.508694e-06 -8.690984e-07 -7.558501e-07 2.992824e-07 -1.310398e-07
-3.030481e-07 1.025158e-06 -5.838932e-07 -3.811938e-08 3.497663e-08 -1.309196e-08
-7.049917e-07 2.514550e-06 -9.248638e-07 1.938978e-07 2.524776e-07 -1.285597e-08
-1.240786e-06 2.703414e-06 -8.389019e-07 4.103553e-07 6.495759e-08 5.429251e-08
-5.468665e-07 1.604073e-06 -7.921773e-07 1.625280e-07 1.056652e-07 3.961803e-08
-7.790988e-07 1.979436e-06 -8.975151e-07 3.999295e-07 7.425218e-08 3.548133e-08
-3.418058e-07 1.264920e-06 -6.692068e-07 -1.018102e-07 5.801595e-08 3.372261e-09
-3.096491e-07 1.223299e-06 -6.038547e-07 -4.399604e-08 4.166787e-08 -9.665494e-09
-5.817702e-07 2.157744e-06 -8.937428e-07 -2.654327e-08 9.852181e-08 2.239440e-08
-6.612570e-07 1.620271e-06 -7.570124e-07 -4.651698e-08 3.300885e-07 -4.621092e-09
-5.848062e-07 1.577228e-06 -7.354833e-07 -3.738660e-09 3.055288e-07 -2.655569e-08
-4.141682e-07 1.523664e-06 -7.952147e-07 1.369048e-07 8.562054e-08 1.661718e-08
-2.822316e-07 1.020868e-06 -5.453872e-07 -6.728988e-09 9.814228e-08 -2.109395e-08
-4.681136e-07 1.325925e-06 -6.682139e-07 1.632072e-07 2.250251e-07 3.215489e-08
-2.081753e-07 9.215891e-07 -5.097844e-07 -1.253030e-07 1.133011e-07 -3.212358e-08
-3.518401e-07 1.174457e-06 -6.719154e-07 -1.003488e-07 2.863720e-08 -2.632615e-09
-3.316531e-07 9.862344e-07 -5.558844e-07 -3.593793e-08 2.887486e-07 -3.357946e-08
-2.408853e-07 1.198814e-06 -6.488389e-07 -2.689674e-07 8.356128e-08 -7.083220e-09
-1.905896e-07 6.637405e-07 -3.069237e-07 -3.775781e-09 2.602555e-08 -5.650423e-08
-5.824957e-07 1.907408e-06 -8.630535e-07 -1.036697e-08 1.751852e-07 1.327814e-08
4.034749e-08 6.088910e-07 -4.163250e-07 7.451065e-08 -2.209220e-07 -5.379180e-08
-1.900344e-07 1.173452e-06 -6.976379e-07 -3.337853e-07 2.356762e-07 -1.326459e-07
-7.498350e-07 2.254367e-06 -9.965549e-07 -1.139009e-08 -5.159076e-07 1.900124e-08
-6.246610e-07 2.137280e-06 -8.731379e-07 4.666007e-07 -4.687766e-07 -6.712350e-08
-1.667985e-06 3.343848e-06 -8.016604e-07 6.637549e-07 -3.095709e-07 -7.276548e-08
-4.773986e-07 1.745751e-06 -9.349374e-07 3.879069e-08 -6.883714e-08 -4.803458e-08
1.458335e-07 5.875029e-07 -5.111377e-07 1.988369e-07 -3.243892e-07 -1.660844e-07
-3.883504e-07 1.421334e-06 -7.749028e-07 -4.290891e-08 -1.479383e-07 3.483389e-08
-7.278529e-07 2.223642e-06 -1.005595e-06 -3.291719e-07 -1.043670e-07 2.468160e-08
-4.714097e-07 2.014320e-06 -9.981336e-07 -3.095580e-07 -1.588780e-07 7.288142e-08
-8.169087e-07 2.094939e-06 -9.718161e-07 -6.412353e-09 -1.789933e-07 -3.600363e-08
-3.568845e-07 8.461188e-07 -3.339553e-07 9.312743e-09 -2.568896e-07 -3.694430e-08
-7.125307e-07 2.253041e-06 -9.660562e-07 2.045755e-07 -5.373081e-07 -4.977970e-08
-4.525127e-07 1.526765e-06 -8.745154e-07 -1.088816e-08 -1.496045e-08 -2.765586e-08
-5.988269e-07 1.695019e-06 -9.446801e-07 -1.234599e-07 -8.137709e-08 -6.086632e-10
-3.400786e-07 8.581382e-07 -3.350907e-07 -1.997955e-08 -2.692331e-07 2.433108e-08
-1.420457e-06 2.976307e-06 -8.284182e-07 -2.047153e-07 -6.682718e-07 -3.571981e-08
-3.042688e-07 1.297385e-06 -8.184749e-07 3.466900e-07 -2.782526e-07 -1.056838e-07
6.089572e-07 -5.477610e-08 -2.553103e-07 8.116392e-08 5.102553e-09 1.069850e-08
5.386915e-07 -5.122351e-08 -1.890115e-07 8.918606e-09 8.875240e-09 5.895270e-09
-4.365392e-07 1.147420e-06 -5.477313e-07 -3.136240e-08 -3.659099e-07 5.924318e-08
7.269821e-07 -1.335273e-07 -3.474824e-07 1.400495e-07 1.228554e-08 1.051043e-07
-5.591717e-07 1.704614e-06 -9.033571e-07 4.693446e-08 -8.603415e-08 2.138910e-08
5.883917e-07 -1.113477e-07 -1.608095e-07 -1.540545e-09 -1.089402e-09 4.086474e-08
6.283774e-07 -1.175448e-07 -2.424805e-07 -5.861173e-09 1.280408e-09 3.249408e-08
6.122045e-07 -1.068347e-07 -2.122792e-07 -3.258886e-09 -1.302254e-09 1.448189e-08
5.075252e-07 -4.802086e-08 -1.937359e-07 3.169828e-08 4.831611e-09 2.421998e-08
5.964457e-07 -8.523955e-08 -2.199864e-07 4.996683e-08 7.047128e-09 -1.722901e-09
6.231484e-07 -1.049317e-07 -2.368035e-07 -1.668550e-08 -4.831380e-09 3.679720e-08
5.917575e-07 -1.028310e-07 -1.990844e-07 2.065359e-09 9.719448e-11 1.029753e-08
5.749998e-07 -7.879025e-08 -2.218321e-07 2.275014e-08 4.161833e-09 1.074420e-08
6.211566e-07 -1.071682e-07 -2.205961e-07 2.610159e-09 -1.106780e-09 -5.777746e-18
5.563379e-07 -7.251221e-08 -1.968062e-07 7.672653e-09 6.754503e-09 8.011285e-09
7.645488e-07 -1.204859e-07 -3.801694e-07 1.004576e-07 1.915521e-09 9.617212e-08
5.809253e-07 -1.082631e-07 -1.777164e-07 -7.010960e-10 -4.788960e-09 1.024666e-08
7.198069e-07 -1.587068e-07 -2.896158e-07 -2.868126e-08 -2.114581e-09 6.959308e-08
6.188151e-07 -9.074958e-08 -2.279065e-07 3.091533e-08 1.696949e-09 6.521340e-09
6.310157e-07 -1.152404e-07 -2.399363e-07 3.545963e-08 -8.363920e-10 1.685238e-08
6.724429e-07 -1.435535e-07 -2.747148e-07 2.480807e-08 -2.121567e-09 5.222966e-08
5.537078e-07 9.771380e-09 -2.933769e-07 1.614325e-07 2.538042e-08 1.449278e-08
2.400734e-06 -8.381877e-07 -1.408186e-07 -1.442386e-06 4.078141e-07 -9.940214e-07
5.555668e-06 -2.538564e-06 4.618930e-07 3.856018e-07 3.436380e-08 -3.641590e-07
5.966380e-07 -9.477274e-08 -2.350232e-07 -2.261229e-08 -1.697899e-08 5.085792e-08
3.113405e-06 -1.348810e-06 -1.314272e-06 5.545795e-08 -1.194835e-07 4.183629e-08
3.911928e-06 -1.411600e-06 -1.546150e-06 -1.483344e-07 1.370190e-07 -2.683841e-07
2.686788e-06 -1.273369e-06 -6.954894e-08 2.450926e-07 -1.057586e-08 -7.648082e-07
3.488493e-06 -1.076274e-06 -9.385931e-07 8.030079e-07 -6.988550e-08 -4.758629e-08
4.110044e-06 -4.031632e-06 4.271068e-06 -1.084774e-06 -1.589304e-07 3.750211e-07
5.709968e-07 -1.139066e-07 -1.874632e-07 -3.990241e-09 -8.043221e-09 5.881336e-08
2.197992e-07 1.763628e-07 -1.971720e-07 -1.041582e-07 -1.282635e-07 1.198439e-07
4.558651e-07 4.599126e-08 -1.960889e-07 -8.146108e-08 -9.060869e-10 1.196910e-09
4.006436e-07 7.314657e-08 -1.429489e-07 -8.409260e-09 -4.853332e-09 4.166185e-09
6.778831e-07 -1.340859e-07 -2.718701e-07 8.066272e-09 -2.388224e-09 4.947269e-08
5.145187e-07 1.335738e-07 -3.935867e-07 -2.994207e-07 -9.109859e-08 4.836261e-08
3.863469e-07 9.609773e-08 -1.812803e-07 -5.511253e-08 -3.958768e-09 9.373072e-09
6.993110e-07 -1.281877e-07 -2.847475e-07 -2.630780e-08 -2.720989e-09 6.003738e-08
5.684464e-07 -9.426229e-08 -1.786881e-07 8.131629e-09 6.967210e-09 1.499141e-08
3.901888e-07 6.966712e-08 -1.611836e-07 -3.769776e-08 -4.028216e-09 3.594438e-09
6.225737e-07 -1.243815e-07 -1.757564e-07 4.576726e-09 -1.385957e-09 8.900633e-08
3.996758e-07 1.235817e-07 -2.115752e-07 -9.985232e-08 6.127787e-10 3.920505e-09
4.785550e-07 6.659150e-08 -2.709923e-07 -1.970619e-07 -3.004061e-08 3.604311e-08
6.968310e-07 -1.333573e-07 -2.909400e-07 -9.005227e-11 -7.680220e-09 1.210274e-07
4.325432e-06 -1.802234e-06 -8.675200e-07 -1.136026e-06 2.767226e-07 -3.463752e-07
4.243185e-06 -1.642839e-06 -1.448453e-06 -9.294450e-07 6.345740e-08 -3.657029e-07
7.556800e-07 -1.054851e-07 -3.547154e-07 -1.145616e-07 -1.175263e-08 2.663980e-08
8.320902e-07 -1.896838e-07 -3.984050e-07 -8.253310e-08 -1.102147e-08 3.443120e-08
2.575833e-06 -8.053534e-07 -1.284918e-06 -3.447418e-07 3.278026e-07 -1.123282e-07
3.307027e-06 -1.280911e-06 -1.331932e-06 -3.519997e-08 1.257987e-07 -2.044729e-08
2.413128e-06 -3.938021e-07 -1.007322e-06 -1.945899e-06 3.298342e-07 -2.655982e-07
2.839202e-06 -3.106304e-07 -1.093040e-06 -1.543840e-06 3.890423e-07 -4.198814e-07
3.747568e-06 -1.717988e-06 -3.502039e-07 -1.536877e-06 6.280513e-08 -1.242295e-07
5.349131e-07 -6.802303e-08 -1.708078e-07 -1.157923e-08 -7.872754e-10 8.137625e-09
3.751696e-07 1.812848e-07 -4.681475e-07 -6.055100e-08 5.467582e-07 -2.040884e-07
2.745303e-06 -1.006784e-06 1.168138e-07 -1.244520e-06 6.003966e-07 -6.951753e-07
6.551325e-07 -1.054851e-07 -2.827240e-07 -8.343759e-08 -5.193023e-09 1.937353e-08
8.118432e-07 -1.335208e-07 -3.984050e-07 -7.895092e-08 -2.067407e-08 2.798732e-08
1.531441e-06 9.887781e-08 -1.215209e-06 -2.973594e-07 4.557089e-07 -7.964346e-08
8.164774e-07 -1.619608e-07 -4.115497e-07 -1.679472e-07 -1.916441e-09 4.515352e-08
1.584146e-07 1.216318e-06 -9.687471e-07 -8.756872e-07 1.879883e-07 -7.273920e-09
2.189486e-06 3.247218e-07 -1.031184e-06 -1.909553e-06 3.552273e-07 -3.769589e-07
2.057924e-06 -3.861857e-07 -6.558277e-07 -1.924688e-06 2.731964e-07 -2.534316e-07
3.444945e-07 1.217592e-06 -9.099844e-07 -8.242693e-07 2.937632e-07 -1.468769e-07
9.782973e-07 6.820636e-07 -1.208140e-06 -1.074117e-06 6.534955e-08 -1.071554e-07
3.962750e-06 -1.934754e-06 -3.850926e-07 -1.758971e-06 1.805100e-07 -3.728620e-07
2.795547e-07 1.891356e-07 -1.606312e-07 5.692411e-09 4.706127e-09 1.184368e-09
3.099667e-07 2.132346e-07 -2.235773e-07 1.163976e-07 6.075025e-09 1.061163e-09
2.630825e-07 2.111381e-07 -1.722204e-07 1.945759e-08 1.141784e-08 1.331088e-08
3.353250e-07 1.318153e-07 -1.696399e-07 5.740764e-08 6.931184e-09 -2.364442e-09
3.350549e-07 1.398805e-07 -2.206263e-07 1.137560e-07 1.868092e-08 1.303341e-08
-4.044203e-07 1.975151e-06 -9.156608e-07 -1.081991e-06 1.125748e-07 -1.566291e-07
3.126635e-06 -5.779510e-07 -3.312250e-07 -2.367917e-06 1.070130e-07 -3.201941e-08
6.491016e-07 -1.179940e-07 -2.419198e-07 -8.146308e-09 -4.051017e-09 1.007665e-08
5.851416e-07 -1.039128e-07 -1.984376e-07 9.343476e-09 3.179801e-10 1.422505e-08
-1.884938e-07 1.449872e-06 -9.708426e-07 -7.714183e-07 2.169031e-07 -7.960191e-08
6.133609e-07 -1.137217e-07 -2.127685e-07 4.689371e-09 5.422457e-10 1.754658e-08
6.153301e-07 -1.018383e-07 -2.254421e-07 2.587701e-08 -2.004255e-09 4.290916e-08
6.746668e-07 -1.306017e-07 -2.716524e-07 1.939481e-08 3.166305e-09 1.250110e-08
6.228259e-07 -1.144680e-07 -2.287547e-07 1.308589e-09 -8.870818e-09 4.879627e-09
-3.791630e-07 1.631045e-06 -9.183913e-07 -7.439841e-07 -1.209546e-07 4.714628e-09
-2.762329e-07 1.294576e-06 -7.170970e-07 -3.352862e-07 2.787265e-07 -9.259136e-08
-1.849208e-07 1.516670e-06 -8.644068e-07 -5.998095e-07 1.499746e-07 -2.440303e-08
6.199222e-07 -7.400028e-08 -2.652029e-07 9.152075e-08 3.170381e-09 5.777493e-08
-2.127396e-08 6.290191e-07 -4.244576e-07 -4.122885e-08 2.713999e-08 -1.807389e-08
-1.620262e-07 7.687467e-07 -3.936349e-07 -1.471607e-08 2.464216e-08 -4.218722e-08
-2.778907e-07 1.326012e-06 -7.309901e-07 -3.469820e-07 7.103567e-08 3.359419e-09
-6.375604e-07 2.616068e-06 -8.995530e-07 -1.159480e-06 4.408582e-07 -1.882365e-07
-3.868445e-07 1.546695e-06 -7.679732e-07 -2.650260e-07 3.392340e-07 -4.555260e-08
6.225645e-07 -1.151231e-07 -2.445641e-07 1.726774e-09 -6.552102e-10 3.321689e-10
-2.471056e-07 1.385779e-06 -8.138490e-07 -4.813287e-07 1.638551e-07 -6.920902e-08
-7.955771e-08 1.379328e-06 -8.036783e-07 -6.513032e-07 2.643483e-07 -1.209673e-07
-1.300480e-08 1.564691e-06 -9.309315e-07 7.003629e-07 -2.003464e-07 -1.154399e-07
-1.532228e-07 7.154716e-07 -4.959840e-07 5.987000e-08 -9.223473e-08 -1.252342e-07
-3.467910e-07 1.823157e-06 -9.042716e-07 6.835969e-07 -3.900119e-07 -1.359921e-07
-9.556031e-08 1.107806e-06 -8.765980e-07 5.085835e-07 -1.890759e-07 -7.516469e-08
-3.293116e-07 1.837890e-06 -8.709442e-07 1.076791e-06 -4.534583e-07 -1.536914e-07
-3.483881e-07 8.257402e-07 -5.268566e-07 -5.446333e-08 -5.219543e-07 7.205375e-08
-6.595698e-07 1.914335e-06 -9.175388e-07 6.905447e-07 -4.023492e-07 -6.852347e-08
-3.289970e-07 1.798611e-06 -1.017925e-06 8.579333e-07 -2.702744e-07 -1.338046e-07
-3.291772e-07 8.724964e-07 -4.759828e-07 4.543633e-09 -5.801342e-08 -6.045469e-08
-1.354202e-07 2.164932e-06 -7.340272e-07 1.918132e-06 -4.546615e-07 -2.921637e-07
-2.818539e-07 8.562535e-07 -3.221846e-07 -1.827953e-08 -2.688807e-07 -3.828867e-09
9.429541e-07 3.758806e-07 -7.319116e-07 -8.659499e-07 -4.329166e-08 6.141024e-08
5.780683e-07 7.257857e-08 -3.256488e-07 -2.399989e-07 -1.563604e-08 1.273189e-08
4.842802e-07 2.006159e-07 -3.441894e-07 -2.585541e-07 -2.942642e-09 7.157015e-09
-3.680278e-07 1.172577e-06 -5.272455e-07 -9.166826e-08 -5.444466e-07 8.107387e-08
4.508538e-07 1.757946e-07 -3.821076e-07 -2.850194e-07 -3.686022e-08 1.192611e-07
6.668041e-07 9.093011e-08 -5.043620e-07 -4.127068e-07 -2.577991e-09 9.911329e-08
6.353991e-07 3.540318e-07 -5.685205e-07 -5.761903e-07 -3.315439e-08 5.326528e-08
-3.123852e-07 8.774027e-07 -3.188851e-07 -1.167793e-07 -5.757786e-07 1.713578e-07
-3.030899e-07 8.707437e-07 -5.639497e-07 -5.140845e-08 -2.583632e-07 7.466433e-08
-2.752729e-07 4.641675e-07 -3.359105e-07 -3.187424e-09 -1.669364e-07 5.316605e-08
5.468225e-07 2.255028e-07 -5.074742e-07 -4.315235e-07 -1.281090e-07 7.963139e-08
3.473410e-07 9.401424e-07 -1.071663e-06 -9.097202e-07 1.417093e-07 -8.094804e-08
1.139588e-06 -2.721099e-07 -5.530284e-07 1.506307e-07 4.332985e-08 1.920772e-07
7.716207e-07 -1.867635e-07 -3.816987e-07 9.008345e-08 1.199533e-08 9.756879e-08
9.394438e-07 -1.867635e-07 -5.085235e-07 1.220333e-07 -2.572515e-09 1.588387e-07
3.247920e-07 4.906895e-07 -7.588940e-07 -6.271460e-07 6.339664e-07 -3.734108e-07
2.142079e-07 4.803058e-07 -5.278941e-07 -4.259226e-08 3.581174e-07 -8.008777e-08
-1.455712e-06 2.280697e-06 2.843907e-06 -3.685090e-06 -6.865158e-09 -1.242346e-08
8.505116e-08 7.223502e-07 -6.865706e-07 -3.757402e-07 2.493942e-07 -1.089242e-07
8.886623e-07 1.513520e-06 -1.132960e-06 -1.812243e-06 1.649567e-07 -1.004055e-07
-6.350549e-07 2.106090e-06 6.841434e-07 -2.652415e-06 2.043311e-07 -7.770512e-08
2.655301e-07 5.482129e-07 -6.379582e-07 -2.344136e-07 4.168669e-07 -1.409308e-07
-2.336796e-07 3.104079e-06 6.841437e-07 -3.287927e-06 3.661036e-07 -1.900426e-07
9.923264e-08 5.622052e-07 -6.744484e-07 -1.518443e-07 2.612691e-07 -8.634751e-08
-1.189755e-06 2.774890e-06 1.949620e-06 -3.322261e-06 -9.258359e-08 -3.537971e-07
2.053699e-07 9.260021e-07 -7.185740e-07 -5.339771e-07 2.900156e-07 -1.507590e-07
-1.579411e-06 -5.911290e-06 2.709100e-05 -6.666821e-06 -3.966237e-06 7.394218e-06
3.875231e-07 6.512011e-07 -7.125997e-07 -1.881959e-07 2.362999e-07 -5.213337e-08
8.826868e-07 7.520807e-07 -1.130721e-06 -7.056752e-07 1.693993e-07 -2.901228e-08
3.314486e-06 -2.816862e-06 7.618548e-06 -4.390878e-06 -7.225026e-07 1.786853e-06
1.298878e-06 -2.816862e-06 1.082210e-05 -5.065614e-06 -1.354011e-06 2.555034e-06
-6.293787e-06 -4.965805e-06 3.250360e-05 -6.373820e-06 -3.718366e-06 3.852052e-06
-2.729920e-06 8.174740e-07 1.233495e-05 -5.747210e-06 -1.068507e-06 3.209140e-06
6.872549e-07 -1.145979e-07 -3.288787e-07 -1.369691e-07 -2.534968e-08 9.283646e-08
7.260527e-07 -5.840760e-08 -4.019976e-07 -2.147077e-07 -3.715382e-08 1.147456e-07
8.958793e-07 -1.062622e-07 -4.716298e-07 -2.874917e-07 -8.251635e-08 1.473762e-07
7.611911e-07 -1.059533e-07 -3.705223e-07 -1.990884e-07 -6.453905e-09 5.534148e-08
7.289730e-07 -1.833528e-09 -5.121976e-07 -3.272310e-07 -2.946539e-08 2.483490e-08
-1.182638e-05 1.018559e-06 2.747240e-05 1.250926e-06 1.765932e-06 -1.089131e-08
9.155764e-07 -1.047449e-07 -5.103381e-07 -2.651435e-07 -1.435595e-08 6.333089e-08
-7.064994e-06 4.062316e-06 1.422345e-05 1.544394e-06 2.930899e-06 -9.007073e-07
-5.833160e-06 5.490217e-06 5.333967e-06 2.897272e-06 3.660933e-06 4.712573e-07
-9.990903e-06 2.806428e-06 2.186254e-05 -5.610118e-07 2.633937e-06 -8.190119e-07
2.067880e-06 -4.270635e-07 -8.796732e-07 6.534834e-07 6.651096e-08 2.035258e-07
1.730077e-06 -4.733268e-07 -8.099657e-07 8.040772e-07 6.208909e-08 4.052526e-07
2.230989e-06 -4.088570e-07 -8.305997e-07 8.502960e-07 2.298790e-07 5.037685e-07
6.971930e-07 -1.054851e-07 -3.177664e-07 -9.510351e-08 3.452947e-09 2.742858e-08
8.188564e-07 -4.051077e-08 -5.148029e-07 3.656623e-07 3.328049e-08 1.498526e-07
1.773309e-06 -5.633730e-07 -8.706178e-07 1.904908e-07 7.483221e-09 2.897310e-07
-6.775547e-07 2.894032e-06 -6.983690e-07 -1.485179e-06 -6.616110e-08 6.208685e-09
7.526700e-07 -1.479065e-07 -3.626183e-07 -9.313072e-08 7.899907e-11 9.134182e-08
5.593610e-07 -1.190992e-08 -2.556930e-07 -1.308414e-07 -1.681046e-08 3.619931e-08
6.256648e-07 -5.840760e-08 -2.958521e-07 -1.556096e-07 -2.413130e-08 8.171694e-08
6.196040e-07 -5.958267e-08 -2.802641e-07 -1.315896e-07 -5.593674e-09 2.888666e-08
6.818550e-07 -6.532326e-08 -3.491481e-07 -1.358187e-07 -1.257506e-08 1.203840e-08
-5.887784e-07 -5.268407e-06 1.650730e-05 -5.968003e-06 2.556227e-07 -7.950128e-08
-1.981642e-05 -2.154930e-05 7.038185e-05 -6.177634e-08 -1.111455e-06 3.586671e-07
-1.986473e-05 -1.653468e-05 5.275848e-05 1.285279e-06 1.370956e-06 1.367140e-06
-7.504920e-06 -1.496871e-05 4.154512e-05 3.409063e-07 5.516295e-07 4.497345e-06
7.294599e-07 -2.780650e-06 9.138806e-06 -5.448033e-06 2.116009e-06 -2.157468e-06
3.944323e-06 -2.628046e-06 5.045127e-06 -3.026730e-06 -1.118753e-06 -9.673116e-07
2.492813e-06 -3.024218e-06 7.878564e-06 -3.785646e-06 1.466522e-07 2.387975e-07
-2.796544e-06 -6.815465e-07 1.302650e-05 -6.289537e-06 3.385540e-06 -2.500572e-06
5.130486e-06 -5.483485e-06 4.136642e-06 1.444048e-06 -3.615609e-08 -4.792499e-07
3.624196e-06 -1.871814e-06 6.670978e-07 1.091056e-06 6.146928e-08 1.485725e-07
4.050729e-06 -1.521315e-06 1.146115e-07 1.178067e-07 1.178472e-07 7.218565e-08
3.892806e-06 -2.649124e-06 -2.608274e-08 -3.142319e-07 4.037270e-07 7.593082e-08
2.767374e-06 -1.239771e-06 -8.138977e-07 -3.208143e-07 -1.337338e-07 5.207327e-07
1.462655e-06 -4.411173e-06 1.422052e-05 -4.125694e-06 1.120063e-06 -1.967878e-06
5.060672e-06 -4.450968e-06 4.991432e-06 -3.924574e-06 4.505444e-07 -1.023198e-06
4.685869e-06 -2.415834e-06 1.258098e-06 -1.703238e-06 -5.195862e-07 2.360355e-07
3.522874e-06 -2.232925e-06 1.831199e-06 -2.476793e-06 -2.661439e-07 6.305909e-07
5.278827e-06 -2.664061e-06 8.998887e-07 -4.745331e-07 1.232080e-07 6.881738e-07
1.409700e-06 -2.799168e-07 -6.575467e-07 -2.998869e-07 -7.618239e-08 2.728628e-07
1.019289e-06 -1.732718e-07 -5.692630e-07 -3.235025e-07 -3.764782e-08 1.663979e-07
9.884409e-07 -1.489375e-06 5.483293e-06 -4.773704e-06 8.064129e-07 2.218059e-07
1.706156e-06 -2.675816e-06 8.017790e-06 4.887945e-06 -9.810737e-07 -1.705228e-06
4.210598e-06 -2.868494e-06 -5.039933e-08 7.127536e-07 3.382695e-08 3.016684e-07
5.928983e-06 -2.344740e-06 6.138163e-07 -1.045429e-06 5.002062e-08 4.840445e-07
2.300672e-06 -2.088424e-06 4.457521e-06 -3.822943e-06 6.657962e-08 -2.221180e-07
9.867753e-07 -1.723413e-07 -5.591011e-07 -3.548359e-07 -4.356193e-08 1.928328e-07
4.697375e-06 -3.485409e-06 3.540309e-06 -2.158065e-07 4.098320e-07 -1.115569e-06
7.692501e-07 -1.093709e-07 -3.956803e-07 -2.416240e-07 -4.430894e-08 1.314696e-07
6.910156e-07 6.030628e-07 -1.035158e-06 1.746547e-07 -1.293027e-07 -3.471267e-08
6.342596e-07 7.120505e-07 -9.259841e-07 2.366524e-07 -1.574654e-07 -6.438355e-08
2.903388e-07 6.289402e-07 -7.908917e-07 6.067251e-08 -1.421900e-07 -1.043320e-08
3.599260e-07 6.383020e-07 -9.505820e-07 3.367143e-07 -2.116548e-07 -1.174192e-07
1.947827e-07 6.374993e-07 -6.583556e-07 5.213116e-08 -2.268764e-07 -1.545764e-08
1.125688e-07 3.772092e-07 -3.341074e-07 4.535675e-08 -3.745472e-07 -9.704202e-08
1.947827e-07 5.465720e-07 -6.191150e-07 5.207693e-08 -2.342497e-07 -1.549793e-08
1.287627e-06 -1.016244e-07 -8.835745e-07 5.936302e-07 -6.610255e-07 -4.698645e-07
7.883097e-07 -1.044569e-07 -4.359718e-07 -2.219179e-07 -2.541083e-08 1.249486e-07
-5.767090e-09 -7.182687e-07 1.298474e-07 -1.410198e-08 -6.727297e-07 -7.332542e-07
4.682800e-07 7.498515e-08 -2.250497e-07 8.217634e-07 -1.055146e-06 -1.110648e-06
9.355491e-07 -3.340920e-07 7.817258e-08 9.602088e-07 -8.762841e-07 -1.456662e-06
2.591411e-06 -4.168389e-07 -1.521521e-06 2.579009e-07 -8.569999e-08 -4.442629e-14
8.777076e-07 -8.771292e-08 -4.932291e-07 -2.941339e-07 3.077863e-09 4.166882e-08
8.944241e-07 -5.857254e-08 -5.466859e-07 -3.775128e-07 -6.463560e-08 7.489721e-08
9.160017e-07 -1.044150e-07 -5.552326e-07 -3.137640e-07 -6.562599e-08 1.972499e-07
1.535046e-06 -3.566752e-07 -7.547711e-07 2.892459e-07 2.089984e-08 3.371638e-07
2.608470e-07 2.147014e-07 -1.918231e-07 5.580708e-08 1.786020e-09 -2.823009e-09
1.641135e-06 -4.520344e-07 -7.016453e-07 7.787160e-08 8.714117e-09 2.124697e-07
3.442697e-07 1.310332e-07 -1.584646e-07 4.570663e-08 6.685954e-09 8.131174e-09
1.412040e-06 -4.291606e-07 -7.145510e-07 4.278183e-07 3.788857e-08 3.069985e-07
-8.131787e-08 5.289407e-07 -2.678211e-07 -6.984653e-09 1.927964e-08 -2.104963e-08
1.474888e-06 -3.716278e-07 -7.147073e-07 2.814919e-07 -8.109177e-09 6.353216e-08
-1.491537e-07 4.568873e-07 -2.361604e-07 3.708770e-08 2.744974e-07 8.944213e-08
-5.966706e-08 6.620588e-07 -3.690213e-07 7.701851e-08 5.141767e-08 6.527627e-08
-2.816422e-07 1.001522e-06 -4.885910e-07 9.183797e-10 1.302184e-07 1.395233e-08
1.526434e-06 -2.626895e-07 -7.761249e-07 6.420120e-07 1.719698e-07 3.720749e-07
-2.444608e-07 9.906600e-07 -5.634384e-07 6.154285e-08 2.710940e-08 -1.784924e-08
-2.790421e-07 1.114080e-06 -6.233726e-07 1.566227e-07 1.785237e-07 6.515992e-08
1.223205e-07 3.247936e-07 -1.797768e-07 2.698082e-08 2.360394e-08 4.242078e-08
1.212918e-06 -2.787185e-07 -6.559164e-07 4.458611e-07 7.583798e-09 9.847188e-08
1.433487e-06 -2.729744e-07 -7.554847e-07 5.153611e-07 6.433190e-08 1.451285e-07
1.222307e-06 -2.740344e-07 -6.262733e-07 4.526514e-07 9.388116e-08 2.502086e-07
3.200281e-07 1.281808e-07 -1.468320e-07 1.702583e-08 1.229053e-09 5.319671e-10
3.368491e-07 1.330366e-07 -1.514543e-07 3.876928e-08 8.819019e-09 1.091054e-08
3.256594e-07 1.278707e-07 -1.426266e-07 1.787239e-08 2.545041e-09 2.486079e-09
6.268712e-07 -1.249954e-07 -2.367777e-07 -1.312851e-08 -2.570670e-09 3.529116e-08
2.905242e-07 1.979920e-07 -1.891020e-07 6.308228e-08 3.438964e-09 -3.607220e-10
3.253657e-07 1.445468e-07 -1.443586e-07 3.951419e-08 7.323714e-09 9.797102e-09
5.850192e-07 -1.130308e-07 -2.012775e-07 -1.260936e-08 -3.780322e-09 4.023572e-08
5.741887e-07 -1.064705e-07 -1.804312e-07 -3.985692e-09 -7.125731e-10 1.120761e-08
6.671433e-07 -1.131217e-07 -2.782537e-07 -5.213765e-08 8.372971e-10 6.410594e-08
2.989570e-07 1.562273e-07 -1.561323e-07 1.551584e-08 3.915044e-09 -4.058697e-10
2.798552e-07 1.983719e-07 -2.125847e-07 9.003379e-08 6.517409e-09 1.253294e-08
3.328829e-07 1.947590e-07 -2.408059e-07 1.503606e-07 3.949568e-08 1.363784e-08
3.022085e-07 1.587076e-07 -1.537381e-07 1.325960e-08 -2.914092e-09 5.586640e-09
5.841885e-07 -1.053800e-07 -2.016881e-07 -1.137883e-08 -7.106903e-09 3.831862e-08
3.023276e-07 1.838815e-07 -1.642076e-07 5.029282e-08 1.655591e-08 1.043032e-08
6.193774e-07 -1.124252e-07 -2.287754e-07 -2.871867e-08 -3.966002e-09 3.803585e-08
7.243902e-07 -1.472633e-07 -2.982449e-07 -3.591158e-09 -5.302138e-09 1.838914e-08
6.192749e-07 -1.133348e-07 -2.398451e-07 -6.094937e-09 1.218088e-09 1.435818e-09
6.648510e-07 -1.216024e-07 -2.716628e-07 -2.787987e-08 4.460475e-09 1.411848e-08
1.415637e-06 1.606569e-07 -9.711043e-07 -3.174397e-07 6.136650e-07 -2.707815e-07
8.166351e-07 -1.802101e-07 -3.975536e-07 1.004891e-07 8.038076e-09 3.441845e-08
2.406932e-07 6.569421e-07 -6.811096e-07 -8.951782e-08 8.186062e-08 -9.248075e-10
4.390616e-08 2.953735e-07 -2.971625e-07 -8.924230e-08 4.087394e-07 -1.368570e-07
5.755222e-07 -1.114662e-07 -1.714810e-07 -2.522080e-09 5.866021e-09 1.583879e-08
5.769527e-07 -1.114152e-07 -1.669762e-07 1.914384e-09 -6.234094e-10 1.305539e-08
7.960937e-07 -1.487041e-07 -3.767428e-07 -9.763302e-08 -2.333356e-08 3.737024e-08
5.913050e-07 -9.572467e-08 -2.122353e-07 -1.427910e-08 -6.187531e-09 1.648926e-08
2.907550e-07 6.643932e-07 -7.350721e-07 -2.927803e-07 2.073278e-07 -1.047946e-07
7.114085e-07 -1.363576e-07 -2.921471e-07 5.798271e-08 -7.913213e-09 7.131435e-08
7.301726e-07 -1.306017e-07 -2.991803e-07 2.084591e-08 4.349977e-09 1.826571e-08
6.767771e-07 -1.314092e-07 -2.736098e-07 -6.298333e-09 4.427892e-09 1.288864e-08
4.280203e-06 -2.149728e-06 -1.536229e-07 2.527168e-07 -5.964892e-09 -6.127033e-07
3.750817e-06 -1.302264e-06 -1.378883e-06 2.675501e-07 -1.873029e-07 -4.103733e-07
1.460726e-06 -9.081896e-07 -7.425543e-07 1.122490e-07 -4.034417e-07 -4.411494e-07
3.856660e-07 6.862799e-08 -1.385004e-07 -5.152903e-09 -9.989196e-10 -9.038251e-10
4.037731e-07 6.826893e-08 -1.427941e-07 -2.507704e-09 -2.916131e-09 2.988026e-09
3.846690e-07 7.878023e-08 -1.471686e-07 -1.711373e-08 -2.810098e-09 6.207315e-09
-4.624536e-07 1.742294e-06 -9.033571e-07 -1.400170e-08 -6.682439e-08 -5.446410e-09
4.580810e-06 -1.804536e-06 -7.416225e-07 3.412134e-07 -8.319962e-08 1.051722e-07
3.333450e-06 -1.027794e-06 -1.034685e-06 1.272482e-06 -2.832048e-08 1.515551e-07
4.054835e-06 -2.087562e-06 -7.774826e-07 8.942503e-07 -1.591837e-07 -3.210570e-07
3.903489e-06 -1.828646e-06 -9.985569e-07 5.300397e-07 -1.905529e-08 -2.502254e-07
1.100701e-06 5.047585e-07 -7.273684e-07 -1.686736e-06 -3.310430e-07 3.205326e-07
4.831124e-06 -1.802970e-06 -2.686457e-07 1.299031e-06 -7.709664e-08 -5.468176e-07
4.130166e-06 -1.860402e-06 -9.093907e-08 1.644799e-06 1.008944e-07 -2.304105e-07
6.549328e-07 -1.114442e-07 -2.513407e-07 -3.654047e-08 -9.185382e-09 4.291595e-08
-8.119808e-08 6.301856e-07 -4.169784e-07 -1.649122e-07 -3.508079e-07 2.374334e-07
4.791974e-08 5.884134e-07 -5.540238e-07 -3.406767e-07 -3.349652e-07 2.858878e-07
6.366297e-07 -7.449456e-08 -2.521837e-07 -7.477956e-08 -4.134153e-09 1.167690e-08
-4.959702e-07 1.199164e-06 -6.942257e-07 -3.397491e-07 -7.069005e-07 1.798706e-07
5.518791e-07 -8.384079e-08 -1.589645e-07 -2.390460e-08 -1.209210e-08 3.016029e-08
5.613104e-07 -9.411019e-08 -1.741593e-07 -6.639582e-09 -2.209717e-09 1.001667e-08
6.110455e-07 -7.494914e-08 -2.475397e-07 -9.833374e-08 -5.822920e-09 5.817361e-08
4.476244e-07 2.097042e-08 -1.524265e-07 1.718826e-08 6.100852e-09 4.704991e-09
6.264423e-07 -9.408707e-08 -2.561982e-07 -3.961214e-08 -1.205988e-09 8.841975e-09
5.390995e-07 -8.678384e-08 -1.755125e-07 -3.083292e-08 -5.030116e-09 4.796986e-08
5.471281e-07 -3.024779e-08 -2.214617e-07 -1.013801e-07 -8.481929e-09 7.315090e-08
-2.840276e-07 1.135519e-06 -6.028563e-07 2.345638e-07 -3.885977e-07 -1.737280e-07
4.816488e-07 8.038421e-08 -4.234548e-07 -4.241351e-08 5.696008e-07 4.988318e-09
-2.370809e-07 1.467800e-06 -9.097590e-07 4.543259e-07 -1.058214e-07 -6.877806e-08
-3.866464e-07 1.489749e-06 -8.582710e-07 2.548600e-07 -1.089550e-07 -3.181193e-08
6.875539e-07 9.614901e-07 -7.892130e-07 -1.069657e-06 7.264814e-07 -5.111424e-07
5.582304e-07 -8.861147e-08 -2.203624e-07 5.827979e-08 2.138612e-08 9.695249e-08
5.747315e-07 -5.082542e-08 -2.490735e-07 5.076876e-08 -1.532646e-09 2.315733e-08
1.241462e-06 3.030824e-08 -1.150783e-06 -1.015760e-07 4.884897e-07 -2.644581e-08
5.489932e-07 -4.659187e-08 -2.364642e-07 7.668751e-08 6.395903e-09 1.605314e-08
-1.459173e-08 -3.112149e-07 -8.309580e-08 7.294450e-08 4.314977e-07 -5.888552e-07
1.430105e-06 2.340256e-07 -1.326951e-06 -1.674198e-07 2.088740e-07 1.383148e-09
1.716681e-06 1.773493e-07 -1.416676e-06 -4.846876e-07 1.890499e-07 -5.167016e-08
8.409130e-07 3.030755e-08 -8.041039e-07 -5.899755e-09 5.332692e-07 -1.769561e-08
1.189472e-06 6.820636e-07 -1.208140e-06 -8.669512e-07 8.590451e-08 -9.667906e-08
1.421361e-07 -4.425952e-07 -3.829599e-07 1.970054e-08 -5.150707e-07 9.638638e-08
5.440879e-07 -3.189786e-07 -5.086667e-07 4.655507e-07 -5.651598e-07 -2.089881e-07
1.975310e-06 -6.519324e-07 -8.537986e-07 3.716835e-07 1.038223e-08 2.253835e-07
5.585729e-07 -9.191051e-08 -1.493095e-07 1.745278e-08 8.850408e-09 2.810693e-08
3.105770e-06 -9.883537e-07 -1.178565e-06 6.856588e-07 -8.856498e-08 -3.312960e-07
1.370854e-06 -5.150424e-07 -9.497781e-07 8.295506e-08 -6.097527e-07 5.711950e-08
2.293071e-06 -6.072663e-07 -9.695056e-07 6.992354e-07 -4.808101e-07 -6.400718e-07
5.564616e-07 -3.963643e-08 -2.444163e-07 9.202899e-08 9.369453e-09 5.719885e-08
6.116313e-07 -4.158547e-08 -2.630443e-07 1.129641e-07 1.466963e-08 6.299704e-08
4.943231e-07 4.137708e-07 -2.816753e-07 7.275851e-07 -1.128127e-06 -1.087208e-06
6.225305e-07 -7.785763e-08 -2.945231e-07 1.033373e-07 8.381820e-09 3.164187e-08
3.834622e-07 7.774732e-08 -1.731849e-07 -4.041547e-08 -8.338133e-09 8.921086e-09
-5.484326e-08 5.425758e-07 -2.430556e-07 3.789802e-08 -1.181674e-07 -6.873073e-08
4.319909e-07 4.296610e-08 -1.960889e-07 -5.760290e-08 -4.500347e-10 -5.760570e-09
3.818107e-07 6.742040e-08 -1.457278e-07 -1.021718e-08 -9.985726e-10 1.924446e-09
-9.475463e-08 3.923605e-07 -2.819936e-07 1.914437e-08 -2.402064e-07 -7.790053e-08
-2.382046e-08 1.178317e-06 -6.818394e-07 4.682430e-07 -2.843031e-07 -1.341360e-07
3.939326e-07 5.752613e-08 -1.446042e-07 -4.078750e-09 3.553465e-10 1.564662e-09
-2.021276e-07 3.886618e-07 -2.784877e-07 1.222376e-08 -3.037989e-07 -1.774837e-07
-2.102469e-07 4.236339e-07 -3.539152e-07 2.492943e-08 -7.367181e-07 -3.147188e-07
-1.701474e-07 8.355257e-07 -4.208491e-07 2.130389e-07 -4.446686e-07 -1.758169e-07
-2.739124e-07 1.199381e-06 -7.200671e-07 4.922180e-08 -9.057012e-08 -9.661098e-08
3.844413e-07 6.707982e-08 -1.535800e-07 -1.761790e-08 -3.086329e-09 3.110313e-09
-3.205234e-07 -5.857291e-07 -3.996128e-08 -4.759886e-08 3.318177e-07 -5.897713e-07
-5.710690e-07 -1.446328e-06 9.784036e-07 -7.927484e-07 3.806349e-07 -1.390594e-06
3.856595e-07 8.385313e-08 -1.668388e-07 -3.364946e-08 -1.138830e-09 1.352889e-08
-1.365686e-07 -4.206356e-07 2.245203e-09 8.199009e-08 5.923044e-07 -1.162182e-06
-1.880674e-07 4.543570e-07 -2.367962e-07 2.484068e-08 2.760124e-07 9.912519e-08
-1.297946e-07 4.015439e-07 -2.455139e-07 9.864836e-08 3.722437e-07 1.842141e-07
3.760560e-07 7.777870e-08 -1.533823e-07 -1.432925e-08 -2.345683e-09 -2.008925e-09
3.868007e-07 6.844478e-08 -1.421673e-07 -5.218795e-09 -6.365149e-10 4.141608e-10
-2.935671e-07 9.995426e-07 -5.713095e-07 -2.003395e-08 2.993936e-07 -2.161660e-08
-2.187130e-07 8.111561e-07 -4.496965e-07 1.605070e-07 2.614720e-07 4.785555e-08
-1.125578e-07 6.780067e-07 -3.151654e-07 3.374538e-08 1.065242e-07 9.386463e-08
-3.327938e-07 1.075030e-06 -5.890073e-07 -2.398964e-08 1.254792e-07 9.194897e-09
1.577207e-07 5.932090e-07 -5.455268e-07 2.223402e-07 -3.655625e-07 -1.386314e-07
5.701178e-07 -1.192615e-07 -1.898567e-07 6.713754e-09 2.381737e-08 9.877592e-08
1.647106e-06 3.274997e-08 -8.602441e-07 9.018193e-07 -5.603018e-07 -3.734695e-07
8.489111e-07 5.856875e-07 -6.368507e-07 1.371174e-06 -6.473297e-07 -5.978407e-07
1.063731e-06 8.072284e-07 -7.144058e-07 1.993973e-06 -1.403304e-07 3.944704e-08
4.465709e-07 2.402706e-07 -6.894230e-07 4.582166e-08 -4.885578e-07 -1.175255e-08
1.248785e-06 7.265718e-08 -5.341878e-07 1.175468e-06 -6.475337e-07 -5.308828e-07
2.572382e-07 4.019229e-07 -5.871940e-07 3.606325e-08 -4.419071e-07 -1.630753e-08
-3.285406e-07 1.010167e-06 -5.393790e-07 3.798385e-09 1.611317e-07 2.636794e-08
-3.427218e-07 1.206449e-06 -6.091980e-07 -1.951580e-08 5.156237e-08 -2.296181e-08
2.448821e-07 9.991352e-07 -9.509093e-07 7.689557e-07 -2.330407e-07 -5.273090e-08
2.560662e-07 4.905887e-07 -7.248974e-07 3.637887e-08 -3.274775e-07 3.294273e-09
2.560662e-07 4.905664e-07 -5.206669e-07 3.676306e-08 -3.281604e-07 -2.354202e-08
-6.900211e-08 3.941034e-07 -2.849376e-07 1.985241e-09 -2.460049e-07 -7.723744e-08
-1.870382e-08 8.610766e-07 -5.919290e-07 1.926638e-07 -1.130550e-07 -7.445079e-08
-1.548415e-09 6.121490e-07 -4.066184e-07 6.853807e-08 -1.839941e-07 -8.715795e-08
3.197813e-08 5.863526e-07 -3.738112e-07 1.513542e-08 -1.236966e-07 -1.809196e-08
-3.397997e-07 1.279598e-06 -6.747134e-07 -4.767847e-09 4.030825e-08 -2.708831e-08
4.874902e-07 -9.466118e-09 -2.055254e-07 -5.536682e-08 -8.886247e-09 1.099784e-08
-2.917739e-07 9.571092e-07 -4.965410e-07 -2.691969e-08 4.958455e-08 8.107470e-09
6.145773e-07 -1.016658e-07 -2.191358e-07 -4.980879e-09 7.024880e-10 -6.998017e-18
-4.665809e-07 1.352777e-06 -6.813743e-07 2.449537e-08 2.145171e-07 -1.425391e-08
-4.349745e-07 1.448166e-06 -7.159985e-07 3.444206e-08 8.995179e-08 2.078122e-08
-4.285090e-07 1.255252e-06 -6.792345e-07 4.558303e-08 5.511016e-08 5.298121e-09
-1.579840e-07 4.199207e-07 -2.982692e-07 8.507558e-10 -2.830185e-07 -1.990415e-07
-9.200544e-08 7.387694e-07 -4.799732e-07 1.687257e-07 -2.634150e-07 -1.248954e-07
-8.986992e-08 5.807450e-07 -2.700259e-07 3.489714e-08 -1.039897e-07 -1.270600e-07
2.687054e-07 1.757463e-07 -1.739580e-07 -1.091663e-08 -1.005100e-08 4.008697e-08
2.463506e-07 2.133191e-07 -1.797142e-07 -3.617119e-08 -2.194757e-08 7.004792e-08
3.624369e-07 1.321866e-07 -2.317639e-07 -1.010566e-07 -4.704417e-09 1.003767e-09
-2.173752e-07 1.162597e-06 -6.851383e-07 2.080950e-07 -1.607290e-07 -1.171130e-07
3.578368e-07 1.039184e-07 -1.580461e-07 -7.709790e-09 1.041745e-10 1.389595e-08
2.798373e-07 2.169571e-07 -2.363944e-07 -4.027932e-08 -2.973324e-08 5.756174e-08
-2.325159e-07 1.267808e-06 -6.302709e-07 3.263472e-07 -4.230947e-07 -1.602590e-07
4.154897e-08 5.341373e-07 -3.781834e-07 2.647650e-07 -4.752165e-07 -2.256017e-07
-2.204507e-07 4.509611e-07 -3.518528e-07 3.994750e-08 -4.235033e-07 -2.162546e-07
-1.782249e-08 6.778801e-07 -3.852818e-07 2.988684e-07 -5.090518e-07 -2.517315e-07
-4.112206e-07 1.510211e-06 -6.728974e-07 2.874349e-07 -5.383500e-07 -1.888760e-07
3.141161e-07 1.406343e-07 -1.494595e-07 1.284108e-08 3.447241e-09 3.617547e-09
3.428366e-07 1.118217e-07 -1.572953e-07 2.687209e-08 3.554559e-10 8.835541e-09
3.271138e-07 1.220620e-07 -1.357845e-07 1.145100e-09 0.000000e+00 4.260227e-10
-1.549877e-07 3.318621e-07 -2.823494e-07 5.419544e-09 -3.363081e-07 -2.087565e-07
3.285649e-07 1.293330e-07 -1.584646e-07 5.126887e-08 6.218927e-09 1.022451e-08
3.215753e-07 1.544842e-07 -1.650836e-07 5.306200e-08 3.638253e-09 6.521404e-09
3.042631e-07 1.547728e-07 -1.477861e-07 6.312372e-09 1.597135e-09 6.426579e-09
3.289936e-07 1.337877e-07 -1.422450e-07 1.517550e-08 1.279969e-09 1.139515e-09
-9.332432e-08 4.190306e-07 -2.676461e-07 9.445410e-09 -1.657923e-07 -1.102257e-07
4.080234e-07 5.050385e-07 -6.841787e-07 1.229312e-07 -3.681577e-07 -5.823889e-08
7.446278e-09 7.444768e-07 -5.472741e-07 1.852172e-08 -4.868999e-16 -1.314403e-08
3.295631e-07 1.337621e-07 -1.400593e-07 1.448569e-08 1.684661e-09 -7.785309e-10
-1.232467e-07 8.358362e-07 -4.753438e-07 1.055265e-07 -1.607359e-07 -1.695681e-07
3.224557e-07 1.317572e-07 -1.397218e-07 8.070485e-09 1.557946e-09 1.281885e-09
3.025767e-07 1.516873e-07 -1.815885e-07 6.170816e-08 5.092197e-09 9.237422e-09
2.270340e-07 2.660376e-07 -2.406639e-07 -1.580742e-08 -1.132291e-08 6.995507e-08
3.754081e-07 7.779458e-08 -1.508158e-07 -4.351554e-09 -7.718438e-10 2.375381e-09
3.386505e-07 1.261507e-07 -1.483735e-07 4.043185e-08 7.850872e-09 8.482347e-09
3.674907e-07 9.150396e-08 -1.745943e-07 -3.209342e-08 -1.587052e-09 1.132161e-09
3.579596e-07 9.784862e-08 -1.599573e-07 -5.005944e-09 -1.504040e-09 4.418464e-09
3.897842e-07 8.466373e-08 -1.838201e-07 -7.909126e-08 -1.092468e-08 2.250975e-08
3.476175e-07 1.091578e-07 -1.410235e-07 9.760244e-09 7.322280e-10 -1.558158e-10
3.525225e-07 9.436548e-08 -1.486320e-07 2.647922e-08 4.317430e-09 5.479090e-09
-1.209489e-06 3.701633e-06 -5.325888e-07 -9.314337e-07 -7.929117e-07 1.634411e-07
-6.246610e-07 1.724399e-06 -8.798579e-07 3.260851e-07 -3.261339e-07 -8.769505e-09
-7.515013e-07 2.022655e-06 -9.540688e-07 2.196120e-07 -1.481848e-07 -5.579117e-08
3.398850e-07 1.087980e-07 -1.446629e-07 1.559868e-08 2.391438e-09 4.123707e-09
3.137401e-07 1.454920e-07 -1.614831e-07 4.168617e-08 3.756133e-09 5.037770e-09
-6.668602e-08 8.322078e-07 -7.102861e-07 -3.263217e-07 2.321536e-07 -9.371566e-08
1.153977e-07 7.232166e-07 -6.823505e-07 -3.036824e-07 2.202197e-07 -1.202794e-07
4.966965e-07 -1.717660e-08 -1.861156e-07 6.265807e-08 1.818543e-08 3.651757e-08
1.888069e-07 7.973533e-07 -6.752974e-07 -2.713184e-07 4.742217e-08 -2.312445e-08
-1.789264e-08 8.543939e-07 -5.646626e-07 -2.986876e-07 1.246198e-07 -6.864274e-08
5.755987e-08 5.946826e-07 -4.510637e-07 -7.821503e-08 1.730271e-07 -3.594921e-08
1.084953e-07 4.803047e-07 -4.748824e-07 -2.699983e-08 3.343232e-07 -1.678474e-08
6.084351e-08 5.599438e-07 -4.175154e-07 -3.016706e-07 4.471472e-07 -2.366063e-07
7.163462e-08 8.322078e-07 -4.942571e-07 -3.547342e-07 2.782651e-07 -9.057608e-08
-2.862954e-08 1.216641e-06 -8.855317e-07 -8.822807e-07 3.557934e-07 -1.433594e-07
7.049459e-08 5.283801e-07 -4.267931e-07 -2.157612e-07 4.133238e-07 -2.255768e-07
8.140577e-07 -1.637799e-07 -4.466485e-07 8.081857e-08 8.793016e-09 8.111768e-08
-3.139377e-08 5.261549e-07 -2.426918e-07 -6.312762e-08 1.710961e-07 -6.310583e-08
5.922978e-07 -6.920707e-08 -2.337093e-07 6.308709e-08 1.905048e-08 3.430645e-08
3.117110e-07 6.593239e-07 -8.185320e-07 -6.236126e-07 6.199720e-07 -4.019851e-07
6.554835e-07 -9.940552e-08 -3.155075e-07 8.571048e-08 1.105940e-08 4.295123e-08
2.401252e-07 8.989248e-07 -8.369286e-07 -5.005947e-07 1.252294e-07 -4.113593e-08
3.633719e-07 1.083929e-06 -1.016389e-06 -8.605020e-07 5.252297e-08 -1.112839e-07
6.229626e-07 -7.567304e-08 -2.649622e-07 8.841177e-08 2.036642e-08 1.037783e-08
5.652509e-07 3.818904e-08 -3.028798e-07 -2.311173e-07 -3.747562e-08 9.383783e-08
5.866793e-07 4.254501e-08 -3.667200e-07 -2.644605e-07 -6.738369e-08 7.190069e-08
5.611549e-07 -9.009426e-09 -2.634978e-07 -1.528418e-07 -2.502498e-08 6.525390e-08
6.122271e-07 -1.311083e-08 -3.348986e-07 -1.694604e-07 -3.554815e-08 5.500628e-08
4.437729e-07 2.416533e-08 -1.684164e-07 -6.007458e-08 -2.969866e-08 3.505169e-08
5.073871e-07 -9.944217e-09 -2.083263e-07 -5.963824e-08 -1.023768e-09 7.025875e-09
6.797583e-07 -8.237399e-08 -2.944921e-07 1.283735e-07 7.591265e-09 4.178789e-08
-4.586369e-08 2.090495e-06 2.143972e-07 2.875952e-06 -1.708893e-07 -3.593143e-07
3.870891e-07 1.609635e-06 3.429389e-07 2.844081e-06 -2.588875e-07 2.321115e-08
6.884422e-07 2.263892e-06 -4.283632e-07 2.862747e-06 -4.198421e-07 -2.736871e-07
-6.827409e-08 1.539726e-06 8.008957e-07 2.996633e-06 -1.533472e-07 -3.145035e-07
-4.811745e-07 2.953634e-06 3.853618e-07 2.970404e-06 2.250016e-07 3.724336e-07
-2.366607e-09 1.582229e-06 -1.031174e-06 1.447742e-06 -1.858909e-07 -1.018096e-07
-5.035699e-07 1.901864e-06 -3.538024e-07 2.043502e-06 -4.596136e-07 -1.867555e-07
4.780208e-06 -6.093289e-06 1.170761e-05 -1.258017e-06 7.406033e-07 1.023827e-06
4.860322e-06 -2.986621e-06 2.947391e-06 -9.055835e-08 -4.613316e-07 9.461091e-07
-2.996815e-09 -5.092040e-06 1.519479e-05 6.256328e-06 1.867201e-06 2.676719e-06
2.570742e-07 1.840104e-06 -7.778679e-07 2.164423e-06 -2.743989e-07 -1.873928e-07
2.457545e-07 1.534954e-06 -4.283635e-07 2.256704e-06 -2.748377e-07 -1.111207e-07
5.260455e-07 1.476346e-06 -7.339470e-07 2.103243e-06 -5.556228e-07 -4.050343e-07
5.061702e-06 -5.499882e-06 7.210466e-06 -2.483805e-06 -1.953779e-06 1.889442e-06
-2.468728e-07 7.524863e-07 -2.209198e-07 -4.890770e-09 3.442527e-07 -6.566498e-08
-2.229000e-07 8.047129e-07 -4.348486e-07 -1.299673e-07 3.598736e-07 -1.089908e-07
5.095660e-06 -4.030371e-06 3.305435e-06 -9.563879e-07 -9.368105e-08 -1.312011e-08
2.394130e-06 -8.539934e-07 -9.473295e-07 -2.507237e-07 4.662617e-07 -3.845070e-07
2.725152e-06 -3.013406e-06 7.926828e-06 -4.206307e-06 1.012205e-07 5.540968e-07
-1.067894e-06 3.079886e-06 -6.486349e-07 -1.484270e-06 -1.877274e-07 -1.022050e-07
-9.667123e-07 2.441313e-06 -8.510058e-07 8.491585e-07 5.933333e-07 7.907635e-08
4.483638e-06 -2.986621e-06 7.933530e-07 -1.608770e-07 8.463121e-08 -8.140215e-07
3.307027e-06 -1.237997e-06 -1.320876e-06 -3.837452e-08 1.036812e-07 -1.909489e-08
3.141008e-06 -7.659127e-07 -1.562903e-06 -6.261254e-07 1.152450e-07 1.513579e-08
3.034448e-06 -1.551119e-06 -7.527167e-07 -2.229210e-07 1.259041e-07 -5.102557e-07
4.127309e-06 -1.642839e-06 -8.928729e-07 -1.064989e-06 -7.080076e-08 -1.426412e-07
7.996383e-07 3.153504e-07 -7.377422e-07 -8.701572e-07 -2.427206e-07 1.843491e-07
1.728980e-06 -1.845155e-07 -8.902805e-07 -9.273510e-07 -1.794188e-07 2.864044e-07
-5.967928e-07 2.049974e-06 -8.389168e-07 1.182547e-06 2.521739e-07 1.517907e-07
-2.158627e-06 3.608189e-06 -5.698386e-07 3.037494e-07 7.435908e-07 -1.148713e-07
8.377151e-07 4.271922e-08 -7.453253e-07 -6.264221e-07 -2.956975e-08 5.228965e-08
5.837571e-07 3.694134e-07 -7.801863e-07 -8.712919e-07 -2.666794e-07 2.918861e-07
-9.655443e-07 3.179189e-06 -8.054730e-07 5.534540e-07 3.316342e-07 3.017789e-10
-7.564342e-07 2.734348e-06 -8.754815e-07 5.695998e-07 7.541158e-08 3.671207e-08
-9.655443e-07 2.345510e-06 -9.248638e-07 4.212351e-07 2.308172e-07 5.075659e-09
3.338151e-06 -3.138068e-06 7.616455e-06 -4.323101e-06 -7.712719e-07 1.782942e-06
-2.375830e-06 4.212613e-06 6.571946e-07 1.200997e-06 -1.872896e-07 -1.183159e-07
-1.273691e-06 3.787052e-06 -3.533213e-07 1.218591e-06 3.884393e-07 1.037129e-07
-9.874068e-07 3.233461e-06 -6.985338e-07 1.066955e-06 7.420649e-07 2.144318e-07
-1.231609e-06 3.605790e-06 -4.750584e-07 5.411424e-07 -3.985562e-08 6.812987e-08
-2.549829e-07 2.230519e-06 -8.451940e-07 1.761565e-06 2.091758e-07 1.054438e-07
-1.525346e-06 3.303155e-06 -3.533213e-07 1.744858e-06 4.187857e-07 9.541409e-08
-4.647485e-07 2.397233e-06 -8.821582e-07 9.412057e-07 4.805673e-07 1.002632e-07
-1.206784e-06 2.583038e-06 -6.182148e-07 8.802824e-07 3.856842e-07 1.060262e-07
-1.647349e-06 4.386824e-06 1.551778e-07 1.031715e-06 -4.040871e-07 -2.839964e-07
-2.531682e-06 3.805494e-06 3.609217e-07 2.663255e-07 -1.633137e-07 8.349077e-08
-1.597574e-06 3.965570e-06 3.349621e-07 6.754938e-07 -1.537473e-07 5.349059e-08
7.880162e-07 1.736863e-07 -5.554721e-07 -5.467587e-07 -1.189833e-07 1.836678e-07
9.434815e-07 5.801578e-09 -7.182971e-07 -5.902798e-07 -4.147059e-08 1.299446e-07
1.649981e-06 -4.831317e-07 -7.885961e-07 6.103356e-07 1.338188e-07 3.534410e-07
1.102628e-06 -3.666261e-08 -8.398043e-07 -8.788244e-07 -1.425919e-07 2.070622e-07
1.071673e-06 2.550640e-07 -7.226548e-07 -8.655177e-07 -1.047020e-07 1.300072e-07
1.648694e-06 -4.956633e-07 -8.166411e-07 5.994120e-07 8.216785e-09 1.432784e-07
2.168381e-06 -5.674108e-07 -8.565467e-07 3.778988e-07 -7.247889e-08 3.706136e-07
1.073261e-06 1.099361e-07 -7.471310e-07 -8.690787e-07 -2.269779e-07 2.054074e-07
1.161947e-06 1.537691e-07 -6.990245e-07 -8.012731e-07 -1.725714e-07 2.718287e-07
1.718836e-06 -4.291606e-07 -7.947908e-07 5.136735e-07 1.196532e-07 4.109607e-07
1.359637e-06 -4.103088e-07 -5.791398e-07 1.276478e-07 8.272157e-08 1.534998e-07
2.358478e-06 -6.024559e-07 -8.757946e-07 6.645152e-08 2.856970e-08 2.787514e-07
2.502910e-06 -7.837257e-07 -9.145158e-07 1.201362e-07 -4.178728e-10 3.375000e-07
8.808787e-07 -4.353747e-08 -6.738118e-07 -5.319186e-07 -1.452599e-07 1.960543e-07
2.453852e-06 -1.037456e-06 -9.029918e-07 2.331938e-07 5.914047e-08 3.167598e-07
2.728608e-06 -7.576031e-07 -2.753244e-07 -1.656489e-06 -1.963370e-07 1.363338e-07
3.537043e-07 1.054424e-07 -1.450925e-07 1.112932e-08 9.674274e-10 -1.623130e-09
2.300672e-06 -2.263553e-07 2.128590e-06 -3.771402e-06 4.353430e-07 -9.666540e-07
3.506171e-07 1.106801e-07 -1.450896e-07 1.223080e-08 2.716155e-09 1.332734e-10
3.298793e-07 1.236662e-07 -1.431196e-07 2.304443e-08 3.028679e-09 1.866358e-09
-1.665723e-07 6.588542e-07 -3.668126e-07 -3.744489e-08 1.187808e-07 -5.578151e-08
-1.738476e-07 8.283153e-07 -5.542627e-07 -1.155117e-07 1.102851e-07 -3.159371e-08
3.967649e-06 -3.560158e-06 4.996561e-06 -2.494389e-06 1.264006e-06 -9.217119e-07
-2.485900e-07 9.716589e-07 -5.561728e-07 -6.862619e-08 2.497638e-08 -2.262113e-08
3.759208e-06 -3.277762e-06 5.171177e-06 -3.720185e-06 -7.162966e-07 -8.133520e-08
-2.826702e-07 1.027582e-06 -5.456629e-07 -1.630063e-07 1.528453e-07 -8.225725e-08
-1.430741e-07 6.938721e-07 -4.160474e-07 -7.230456e-08 9.725325e-08 -5.519972e-08
1.244873e-06 -8.577363e-06 2.557451e-05 -5.424129e-06 2.824217e-06 -6.576328e-06
1.164310e-06 -8.020215e-06 1.504782e-05 -4.444583e-06 -4.047255e-06 -5.551794e-06
-2.968281e-06 -5.063035e-06 1.650731e-05 -5.563138e-06 1.311420e-07 -8.145426e-07
-3.069275e-06 -4.899911e-06 1.650731e-05 -5.503846e-06 1.286500e-07 -8.132883e-07
-4.752714e-07 1.862276e-06 -8.723424e-07 2.090331e-07 1.546251e-07 2.529653e-08
-3.271224e-07 1.393718e-06 -7.213552e-07 3.158997e-07 2.616654e-07 8.078147e-08
-5.487636e-07 1.573016e-06 -7.518851e-07 1.702873e-07 3.039476e-07 -2.562547e-09
-2.810843e-07 9.780743e-07 -5.280264e-07 5.937886e-08 8.435866e-08 1.719288e-08
-1.681176e-07 7.179619e-07 -4.460252e-07 -6.468976e-08 1.672319e-07 -1.125857e-07
-1.684720e-07 6.488861e-07 -2.382510e-07 -2.875029e-08 1.320471e-07 -9.618223e-08
-2.076972e-07 8.446147e-07 -4.592124e-07 -8.155929e-08 2.299174e-07 -1.102844e-07
-7.214943e-08 7.178138e-07 -4.291018e-07 -5.770014e-08 1.522897e-08 -2.516156e-08
4.628009e-07 5.725507e-09 -1.511565e-07 7.705237e-09 6.633402e-09 7.795793e-09
5.254380e-07 -1.119228e-09 -2.300562e-07 1.107565e-07 3.950976e-09 3.025133e-09
5.540891e-07 -2.714708e-08 -2.401432e-07 9.139568e-08 5.280513e-09 1.056804e-08
4.618144e-07 -1.610843e-08 -1.717290e-07 7.486237e-08 3.213448e-08 6.427216e-08
4.059415e-07 7.721929e-08 -1.691974e-07 -5.726095e-08 -1.261814e-08 6.168556e-09
4.413629e-07 2.956121e-08 -1.635769e-07 -2.857778e-08 -6.314431e-10 9.922442e-09
4.405592e-07 2.133914e-08 -1.634397e-07 -2.380732e-08 -4.278482e-09 1.389505e-08
4.484770e-07 2.331653e-08 -1.507571e-07 -1.385775e-08 -5.322905e-09 1.696814e-09
4.421874e-07 1.906208e-08 -1.546801e-07 -1.637640e-08 -6.518780e-09 3.099512e-09
4.445554e-07 2.515264e-08 -1.691321e-07 -1.898354e-08 1.058193e-09 1.350270e-09
4.483166e-07 2.013423e-08 -1.565161e-07 -9.420271e-09 -7.385617e-09 7.422506e-09
3.426925e-07 1.409139e-07 -1.919078e-07 -1.866566e-08 -3.257902e-09 1.507796e-08
3.788706e-07 7.354461e-08 -1.450648e-07 -3.483335e-09 -2.417235e-10 1.138577e-09
3.935549e-07 7.121029e-08 -1.802493e-07 -5.887861e-08 -1.120953e-08 1.945314e-08
3.811481e-07 7.115140e-08 -1.482625e-07 -1.015501e-08 -1.071549e-09 6.258743e-10
4.374821e-07 2.854071e-08 -1.474280e-07 -4.009152e-09 -1.446427e-09 3.735766e-09
4.212655e-07 4.272177e-08 -1.485359e-07 -6.067533e-09 -7.481709e-09 2.865278e-09
-2.734613e-07 1.022265e-06 -5.910088e-07 -4.985432e-08 6.308824e-09 3.197100e-09
3.966011e-07 6.783787e-08 -1.425538e-07 -1.404883e-08 -2.863170e-09 4.789159e-09
-2.307171e-07 5.597766e-07 -2.657247e-07 -5.044428e-09 9.211030e-08 -4.945461e-08
-2.557585e-07 7.521923e-07 -4.016460e-07 8.271034e-08 2.415271e-07 1.358952e-08
-3.063453e-07 1.010823e-06 -4.123243e-07 -2.512242e-08 4.484670e-07 -5.184157e-08
-3.781555e-07 1.208458e-06 -6.312821e-07 -1.171939e-08 5.114634e-08 1.358505e-08
1.183357e-08 8.671767e-07 -5.938809e-07 -2.387343e-07 -2.825604e-08 3.332441e-08
1.974319e-07 4.966106e-07 -4.559859e-07 -1.869398e-07 -2.122293e-08 2.012189e-08
3.329728e-07 1.434890e-07 -2.429937e-07 -1.133672e-07 -5.628862e-08 7.347263e-08
1.203904e-07 6.317739e-07 -5.459016e-07 -2.079089e-07 -3.382988e-08 3.228771e-08
-2.823227e-07 9.115706e-07 -4.971946e-07 1.520343e-08 9.675405e-08 1.278578e-08
2.160338e-07 5.932292e-07 -5.155230e-07 -3.658664e-07 -1.542425e-07 1.492395e-07
-7.855965e-08 7.145723e-07 -4.874585e-07 -1.651010e-07 -2.254011e-07 1.334197e-07
-4.393451e-07 1.988341e-06 -9.673093e-07 -9.409220e-07 5.440006e-07 -2.089316e-07
-6.911462e-08 1.084640e-06 -7.795284e-07 -5.168444e-07 -2.499989e-07 9.681240e-08
-2.672236e-07 7.343156e-07 -4.195182e-07 -2.933770e-08 1.921630e-07 -1.598282e-08
-3.725904e-07 1.255593e-06 -6.789214e-07 5.868660e-08 5.475928e-08 -1.280617e-08
-4.260498e-07 1.279616e-06 -6.339617e-07 3.605108e-08 2.063905e-07 -2.019235e-08
2.630191e-07 7.436075e-07 -6.472636e-07 -5.096302e-07 -6.441963e-08 7.123545e-08
-6.397975e-08 9.346298e-07 -6.502805e-07 -2.800734e-07 -6.524508e-08 8.580247e-08
2.857731e-07 9.075517e-07 -7.542831e-07 -7.963524e-07 -5.339124e-08 7.431511e-08
-4.981087e-08 7.660998e-07 -6.291701e-07 -3.620608e-07 -4.742330e-07 3.087170e-07
4.502144e-07 1.354224e-07 -2.690647e-07 -1.707165e-07 -4.078766e-09 9.794217e-09
1.167008e-07 8.533899e-07 -6.472636e-07 -4.480766e-07 -6.660169e-08 7.281246e-08
-5.747375e-07 1.842478e-06 -8.917687e-07 -1.839256e-07 -2.559684e-07 6.628776e-08
-3.142915e-07 7.999088e-07 -3.261347e-07 -7.906636e-08 -2.694118e-07 8.040441e-08
-4.384587e-07 8.502147e-07 -5.305451e-07 -5.848636e-08 -5.192195e-07 5.256766e-08
-1.576367e-07 9.696543e-07 -5.007850e-07 -2.488057e-07 -2.654083e-07 1.476062e-07
-2.377088e-07 6.629936e-07 -3.491416e-07 -4.134757e-07 -7.916082e-07 1.210649e-07
-3.423977e-07 6.252316e-07 -3.143876e-07 -2.855642e-07 -8.433386e-07 2.326298e-08
4.285187e-07 1.320845e-07 -2.966563e-07 -1.797482e-07 1.033715e-08 3.905019e-08
-4.265289e-07 5.577440e-07 -3.066219e-07 2.094733e-07 -8.123191e-07 1.121984e-07
3.470074e-07 6.043227e-07 -7.457857e-07 5.134948e-07 -4.433173e-07 -2.201119e-07
2.940571e-07 3.594498e-07 -6.532244e-07 1.341547e-07 -4.500176e-07 -1.387697e-07
-1.900138e-07 7.195612e-07 -2.862233e-07 7.119870e-08 -1.862618e-07 -1.691195e-07
1.725043e-07 6.723887e-07 -7.258508e-07 2.275283e-07 -2.483897e-07 -8.801762e-08
3.945826e-07 4.433524e-07 -6.470622e-07 8.965627e-08 -4.297847e-07 -1.125749e-07
-2.741297e-07 1.099279e-06 -6.192219e-07 3.928381e-08 -3.989696e-08 -8.171546e-08
3.551858e-07 3.204057e-07 -6.051479e-07 4.331265e-08 -4.871799e-07 1.434261e-08
-5.156235e-07 1.723568e-06 -9.291698e-07 1.869303e-07 -7.752928e-08 2.463669e-08
-1.747708e-07 1.104194e-06 -7.446981e-07 1.096773e-07 -2.711748e-08 -1.108809e-08
4.454539e-07 6.022155e-07 -9.690584e-07 5.124936e-08 -1.897227e-07 -1.129440e-08
-3.467910e-07 1.490552e-06 -8.415468e-07 5.005462e-07 -3.834398e-07 -7.429837e-08
7.606210e-07 4.971715e-07 -9.299627e-07 2.451579e-07 -4.415143e-07 -9.870303e-08
-4.889593e-06 2.319412e-06 1.248225e-05 -5.010481e-06 -3.611607e-06 -3.779150e-07
-3.007081e-06 2.062016e-06 8.342779e-06 -4.721627e-06 9.339163e-08 -7.023460e-09
-2.134741e-06 3.806522e-06 2.865546e-06 -3.288562e-06 -1.103036e-06 6.909924e-07
-3.445291e-06 3.795443e-06 5.399994e-06 -3.116339e-06 -1.183545e-06 -1.222383e-07
5.578095e-07 2.096911e-07 -6.986943e-07 -3.665779e-07 6.366716e-07 -2.912077e-07
-2.081319e-06 3.104167e-06 3.289556e-06 -3.257565e-06 2.893373e-07 -1.823359e-07
-1.796684e-06 3.698306e-06 1.691686e-06 -2.826107e-06 -2.158219e-07 -3.080264e-07
-1.526450e-06 3.898113e-06 -5.559942e-08 -2.175689e-06 -6.283186e-08 3.500091e-07
-2.987068e-06 3.776517e-06 2.908323e-06 -2.361323e-06 2.377452e-07 2.355694e-08
2.068839e-07 1.699843e-06 -1.020129e-06 -1.230064e-06 1.841281e-07 -1.099106e-07
2.608470e-07 2.212815e-07 -1.918231e-07 3.015583e-08 1.629449e-09 -1.602282e-09
-8.992907e-09 1.523671e-06 -9.620244e-07 -1.412058e-06 1.877579e-07 -8.529714e-08
-5.546441e-07 1.946193e-06 -7.050966e-07 -1.221178e-06 3.322298e-07 -9.358014e-08
-3.548535e-07 1.969770e-06 -9.438464e-07 -9.532186e-07 9.734689e-08 -8.273116e-09
-2.011546e-07 1.455178e-06 -8.031758e-07 -7.678374e-07 2.555403e-07 -9.492807e-08
2.785545e-07 1.885996e-07 -1.730031e-07 1.846004e-08 4.391944e-09 2.033164e-09
2.931124e-07 1.650044e-07 -1.613171e-07 2.112167e-08 2.094890e-09 5.672091e-09
3.432912e-07 1.101618e-07 -1.560322e-07 4.819994e-08 2.630579e-09 9.705142e-09
-1.553881e-07 1.232794e-06 -9.101097e-07 -8.496862e-07 3.693579e-07 -1.856024e-07
3.099578e-07 1.588786e-07 -1.429439e-07 2.660969e-08 1.040642e-08 -3.826524e-10
4.816488e-07 2.586883e-07 -7.016085e-07 4.042670e-09 5.091298e-07 -2.194294e-08
-1.491199e-07 1.294822e-06 -9.844442e-07 -8.154068e-07 1.115480e-07 -5.465738e-08
1.886291e-06 4.737482e-08 -1.175736e-06 -1.554793e-06 1.466563e-07 -6.713882e-08
-3.638762e-07 1.346690e-06 -6.270823e-07 6.686995e-08 2.464621e-07 2.929286e-08
-2.925779e-07 1.082743e-06 -5.014632e-07 1.600282e-08 1.237642e-07 2.715075e-08
-3.404144e-07 1.192588e-06 -5.977968e-07 8.498504e-08 2.173647e-07 -8.909354e-09
5.702359e-07 1.483646e-07 -3.481135e-07 -2.816761e-07 -9.531848e-09 1.976791e-08
2.444857e-07 2.429603e-07 -6.360611e-07 -3.543019e-08 5.407515e-07 -1.521537e-08
-9.659699e-08 1.342810e-06 -8.129204e-07 5.397891e-07 -3.420426e-08 -4.049803e-08
-3.615709e-08 6.584383e-07 -4.663478e-07 1.815127e-08 -3.429820e-08 -8.122502e-08
-1.884746e-07 1.207997e-06 -7.700060e-07 4.076785e-07 -2.753564e-07 -7.004781e-08
-3.322731e-07 1.121150e-06 -6.344120e-07 1.823635e-07 2.112047e-07 2.980431e-08
-4.140259e-07 1.501798e-06 -7.519356e-07 1.367978e-07 3.003967e-07 1.331080e-10
-1.747708e-07 1.186061e-06 -7.446981e-07 2.063452e-07 -3.778988e-08 -3.629178e-08
-2.800087e-07 1.262466e-06 -8.108008e-07 1.206450e-07 -2.191839e-08 8.354081e-09
-3.210555e-07 1.168661e-06 -6.123833e-07 5.236129e-08 3.750467e-08 2.812547e-08
6.633774e-07 -1.256037e-07 -2.787979e-07 5.213417e-08 2.618693e-08 1.173865e-07
1.205627e-06 -8.526356e-08 -7.398130e-07 -6.785729e-07 -1.813951e-07 2.921115e-07
6.471874e-07 -1.011396e-07 -2.277454e-07 6.846324e-08 1.429124e-08 7.347662e-08
5.399034e-07 -7.564355e-08 -1.790783e-07 5.138866e-09 4.904519e-09 1.048721e-08
6.671465e-07 -8.523955e-08 -2.792029e-07 7.083733e-08 6.942038e-09 1.831046e-08
5.823663e-07 -5.333376e-08 -2.400788e-07 1.038073e-07 2.380659e-08 7.406427e-08
4.037949e-07 6.292015e-08 -1.548851e-07 -2.895717e-08 -7.727666e-11 -5.313846e-09
1.272684e-06 -3.173757e-07 -6.695225e-07 -4.815664e-07 -6.196943e-08 3.022673e-07
1.452872e-06 -4.490856e-07 -7.347137e-07 -3.989562e-07 -4.687218e-08 3.469054e-07
1.759859e-06 -3.844607e-07 -8.145854e-07 -2.912385e-07 -4.380761e-08 1.495437e-07
1.501575e-06 -2.997530e-07 -7.668571e-07 -4.973613e-07 -7.453806e-08 1.597617e-07
2.556101e-07 2.177953e-07 -1.731500e-07 6.803995e-08 2.167812e-08 2.704857e-08
2.905242e-07 1.801764e-07 -1.891020e-07 8.100388e-08 4.629599e-09 -2.756147e-09
-2.145197e-07 6.932376e-07 -3.088787e-07 -1.086594e-08 3.393307e-08 -6.784956e-08
1.332433e-06 -2.835792e-07 -6.878316e-07 -3.587661e-07 1.577141e-09 5.632950e-08
-4.268701e-07 1.582426e-06 -8.150752e-07 -4.672589e-07 9.680516e-08 -4.247459e-08
1.872976e-06 -4.940110e-07 -8.433010e-07 -5.000267e-07 -5.524718e-09 7.626846e-08
-1.000482e-06 2.646105e-06 -8.926567e-07 -5.411990e-07 3.807862e-07 -8.825389e-08
-5.943369e-07 2.400240e-06 -9.398535e-07 -4.482328e-07 2.372157e-07 -7.740451e-08
1.019070e-06 2.382788e-07 -8.842523e-07 -5.227480e-07 6.714319e-07 -3.180780e-07
8.676876e-07 4.021612e-07 -1.096898e-06 -1.064284e-06 4.516681e-07 -3.798595e-07
-4.170442e-07 1.443829e-06 -7.101250e-07 -3.244441e-07 2.605107e-07 -7.013418e-08
-4.282616e-07 3.193732e-06 6.421275e-07 3.366893e-06 -3.648239e-07 -2.027204e-07
8.890531e-07 2.519657e-07 -8.363424e-07 -4.294224e-07 6.077449e-07 -2.096585e-07
1.269864e-06 4.962874e-07 -9.367110e-07 -8.214344e-07 6.953908e-07 -5.311478e-07
3.246451e-06 -1.116602e-06 -6.157981e-07 -1.932175e-06 2.670622e-07 1.455059e-07
-5.388840e-07 2.112870e-06 7.149351e-07 2.587647e-06 -4.130359e-07 -2.259880e-07
1.159793e-06 2.413067e-07 -8.044825e-07 -1.135653e-06 7.664362e-07 -8.448722e-07
6.707637e-07 5.409399e-07 -7.132808e-07 -7.998398e-07 -4.336221e-08 5.839666e-08
7.231170e-08 3.658237e-07 -2.546096e-07 5.661966e-08 5.294800e-08 6.135991e-08
6.377657e-07 2.951538e-07 -6.439903e-07 -6.156759e-07 -1.050843e-07 2.394364e-08
1.711835e-06 -4.254231e-07 -6.999015e-07 2.564383e-07 3.314922e-08 2.236865e-07
1.245161e-06 -2.721099e-07 -6.031521e-07 1.409710e-07 4.995844e-08 1.923764e-07
1.313279e-06 -4.261734e-07 -6.809097e-07 -5.561384e-08 4.794236e-10 1.104554e-07
1.447789e-06 -4.445142e-07 -7.054412e-07 -2.946441e-07 1.945472e-08 1.070717e-07
1.218729e-06 -2.892832e-07 -5.542537e-07 -2.000568e-09 -1.143504e-08 2.138534e-07
-5.931672e-07 2.094983e-06 -8.137877e-07 -3.382907e-07 4.420373e-07 -8.330461e-08
-4.516402e-07 1.818880e-06 -8.374894e-07 -4.807881e-07 4.445952e-07 -1.283930e-07
-8.778195e-07 2.134782e-06 -8.249588e-07 -2.997210e-07 4.420750e-07 -2.328937e-08
4.237611e-07 8.212680e-07 -8.724965e-07 -1.112276e-06 -2.617109e-07 2.976871e-07
1.745440e-07 2.969761e-07 -1.703975e-07 8.741343e-08 6.962649e-08 6.628262e-08
-4.293362e-07 1.722330e-06 -8.753738e-07 -5.082320e-07 7.329848e-08 -5.104279e-09
-6.201271e-08 3.815935e-07 -2.137874e-07 7.256309e-08 1.641062e-07 1.047311e-07
9.475466e-08 5.475182e-07 -3.475500e-07 1.667386e-07 7.703510e-08 5.822791e-08
1.480410e-07 2.915153e-07 -1.859038e-07 1.304157e-07 8.154117e-08 7.179349e-08
-1.003242e-06 2.410128e-06 -9.398535e-07 -3.452016e-07 2.386901e-07 -4.398940e-08
-4.400170e-07 1.831192e-06 -8.866826e-07 -4.262273e-07 1.323123e-07 -1.666108e-08
-4.963477e-07 1.646064e-06 -7.592068e-07 -1.141509e-07 3.323439e-07 -1.598898e-08
-4.997784e-07 1.920307e-06 -8.698186e-07 2.391033e-08 1.668792e-07 -1.886455e-08
-1.094886e-06 2.459168e-06 -9.231440e-07 3.763626e-08 2.269551e-07 -2.631695e-08
-1.569887e-08 5.085816e-07 -2.783388e-07 1.503484e-07 1.727492e-07 1.160696e-07
-6.612570e-07 2.285921e-06 -8.177147e-07 -9.755476e-08 4.294952e-07 2.278510e-09
-7.610789e-07 2.671268e-06 -8.539523e-07 5.372272e-07 6.209706e-07 7.850948e-08
6.242023e-07 3.667220e-07 -6.788879e-07 7.081778e-07 1.043344e-07 7.573539e-09
4.327240e-07 1.722852e-07 -4.704902e-07 3.463971e-07 9.311627e-08 1.140324e-07
4.337535e-07 2.659519e-07 -4.231040e-07 3.309214e-07 7.208812e-08 5.724713e-08
5.520275e-07 8.775394e-08 -3.273433e-07 2.518592e-07 1.865310e-08 2.118419e-08
5.637896e-07 3.937793e-07 -6.605313e-07 6.970122e-07 1.225215e-07 2.261254e-07
8.350750e-07 5.211130e-08 -5.407408e-07 5.038428e-07 3.281172e-08 1.047417e-07
6.296466e-07 3.020772e-09 -3.481589e-07 2.599516e-07 4.466923e-08 1.077673e-07
8.784218e-08 4.253129e-07 -1.941759e-07 9.156498e-08 6.113664e-08 6.515054e-08
6.614428e-07 -1.969976e-08 -3.567281e-07 1.997885e-07 -7.345168e-09 3.186753e-08
-2.468630e-07 3.883462e-07 -2.415827e-07 9.645170e-09 4.724137e-07 -7.457874e-08
-3.888426e-07 7.615457e-07 -3.235085e-07 3.227740e-08 5.521494e-07 -3.850409e-08
-2.478910e-07 6.928769e-07 -2.409300e-07 -1.261874e-09 2.952749e-08 -3.234204e-08
6.353675e-07 -5.577830e-09 -3.303782e-07 2.218976e-07 3.719751e-08 6.467133e-08
5.800406e-07 8.938031e-07 -8.150566e-07 -1.540266e-06 -3.303186e-07 2.157812e-07
8.199509e-07 2.491262e-09 -5.040998e-07 4.134800e-07 2.385387e-08 3.423152e-08
9.322546e-07 -4.046400e-08 -5.787946e-07 4.311139e-07 9.312379e-08 1.667440e-07
4.508579e-07 1.793032e-07 -4.813775e-07 3.498176e-07 6.259647e-10 1.364795e-08
-2.410797e-07 6.128016e-07 -2.554217e-07 -4.389420e-08 6.732090e-08 -2.215694e-08
-2.679024e-07 9.667483e-07 -4.131254e-07 -4.623948e-08 2.494097e-07 -8.386352e-08
8.758936e-07 2.333461e-07 -6.345737e-07 6.741365e-07 6.772772e-08 1.064838e-07
5.360294e-07 1.267105e-07 -3.416769e-07 2.942975e-07 3.976021e-08 5.777756e-08
-5.898530e-07 2.763841e-06 -7.313072e-07 -1.617268e-06 2.152689e-08 1.907122e-08
-8.022760e-07 2.581492e-06 1.503898e-06 -3.668000e-06 -5.818667e-07 1.692022e-07
-1.544591e-06 3.188225e-06 5.302236e-07 -2.549237e-06 2.775737e-07 -5.569512e-08
3.989475e-07 1.686344e-07 -3.010262e-07 -1.711979e-07 -3.377566e-08 -7.101188e-09
-2.598262e-07 5.305766e-07 -2.887119e-07 -8.624375e-10 2.594928e-07 -1.444622e-08
2.930656e-07 2.053161e-07 -2.085862e-07 -6.497106e-08 -3.910467e-08 3.982642e-08
-4.601996e-06 4.050925e-06 5.750717e-06 -3.426883e-06 -4.723311e-07 1.061938e-08
-5.372846e-06 4.816124e-06 3.369847e-06 -1.927776e-06 -3.164373e-07 -7.979560e-07
-5.296265e-06 5.090784e-06 7.526422e-06 -1.935501e-06 -1.750153e-07 -1.565332e-07
3.255849e-07 1.452529e-07 -2.108510e-07 -5.585831e-08 -1.553513e-08 3.574371e-08
2.887920e-07 2.016111e-07 -2.537717e-07 -7.306453e-08 -2.391990e-08 5.787888e-08
2.479086e-07 2.234574e-07 -2.519690e-07 -1.004265e-07 -6.861203e-08 7.999946e-08
2.087000e-06 -6.386578e-07 -8.719872e-07 -1.966782e-07 -3.829122e-08 6.168874e-08
1.628783e-06 -4.261734e-07 -7.296816e-07 -4.331382e-08 -5.883849e-09 7.598179e-08
3.148307e-07 2.606065e-07 -2.528653e-07 -1.255216e-07 -6.221148e-08 6.971355e-08
1.744266e-06 -6.386578e-07 -8.145854e-07 -2.095763e-07 -2.885675e-08 1.477997e-07
2.178882e-06 -6.553384e-07 -8.788983e-07 -5.391407e-08 1.801867e-08 9.437083e-08
1.659116e-06 -6.055339e-07 1.759152e-06 -3.233509e-06 -2.804922e-07 3.941990e-07
1.702387e-06 -1.840157e-07 -8.773001e-07 9.703650e-07 2.756582e-08 2.114263e-07
2.994482e-06 -2.945600e-07 -7.989085e-07 -2.057888e-06 -9.466825e-08 1.307667e-07
2.827841e-06 -9.489124e-07 -8.388438e-07 1.302459e-06 1.361956e-07 2.603790e-07
2.659844e-06 -9.080267e-07 3.353240e-07 -1.872510e-06 -3.080229e-07 3.851736e-07
7.578116e-07 1.284426e-06 -5.465408e-08 2.815816e-06 -1.328438e-07 -5.766204e-08
2.955945e-06 -4.760965e-07 4.673300e-07 -2.778345e-06 -1.666738e-07 8.987501e-08
1.308714e-07 1.909184e-06 6.741921e-07 3.782562e-06 5.385103e-07 6.696511e-07
2.922784e-07 1.391263e-06 5.920658e-08 2.850303e-06 -2.254805e-08 -2.372107e-08
1.308714e-07 2.239928e-06 -7.233031e-08 2.853187e-06 3.870407e-07 1.537138e-07
-7.452684e-08 1.761160e-06 2.177726e-06 4.164554e-06 -1.215424e-06 -5.376016e-07
1.659116e-06 2.435984e-07 8.296855e-07 -3.360848e-06 -3.121782e-07 2.656394e-07
2.726612e-06 -5.340343e-07 -9.912165e-07 -1.719462e-06 5.352162e-08 2.060902e-07
3.743945e-07 1.869136e-06 -4.424825e-07 2.394246e-06 4.381690e-09 -1.233086e-07
2.362349e-06 2.284000e-07 -3.691825e-08 -3.175740e-06 1.142716e-08 -5.047834e-08
2.197636e-06 -1.501444e-07 -1.424609e-07 -2.369220e-06 7.200978e-08 1.872197e-07
-1.167435e-05 -1.019035e-05 3.464220e-05 2.498791e-06 7.922613e-07 7.837195e-07
1.183886e-07 3.857832e-07 -2.581112e-07 -6.937129e-08 -5.947376e-08 8.530479e-08
-3.485904e-06 1.751672e-07 1.295136e-05 5.778929e-06 1.705108e-06 -6.158755e-07
2.027943e-07 3.658123e-07 -3.026582e-07 -2.682877e-07 -2.864064e-07 2.536119e-07
1.798971e-07 4.284254e-07 -4.013300e-07 -8.372046e-08 8.337528e-09 3.715830e-08
-7.958534e-06 1.610834e-06 1.203724e-05 3.677823e-06 9.017937e-06 4.058437e-06
-8.425342e-06 1.337031e-06 1.720445e-05 2.831076e-06 4.671175e-07 1.420629e-07
1.344937e-07 3.292179e-07 -2.981438e-07 -2.702529e-08 -2.576556e-08 1.058022e-07
-1.290922e-05 -3.335503e-06 4.678891e-05 -2.057120e-06 8.129016e-06 -8.877597e-07
-8.431893e-06 3.991737e-06 1.428348e-05 9.019425e-07 2.853432e-06 -7.996213e-07
2.005868e-06 6.453552e-07 -6.207674e-07 2.814047e-06 5.341459e-08 1.741938e-07
3.457447e-07 1.282189e-07 -1.738601e-07 -1.436622e-08 -3.625502e-09 1.737957e-08
2.824409e-07 1.489197e-06 -1.621988e-07 2.905344e-06 4.263424e-07 5.333851e-07
-1.359200e-06 3.219463e-06 6.363914e-07 2.881131e-06 4.767404e-07 1.880063e-07
-3.787474e-07 2.196475e-06 3.364748e-07 3.219439e-06 5.728166e-07 6.676706e-08
3.714669e-07 8.225192e-08 -1.623359e-07 -1.624524e-08 -4.366671e-09 6.162678e-09
4.303604e-07 6.395203e-08 -1.731588e-07 -7.032077e-08 -1.502208e-08 1.918331e-08
4.084650e-07 7.390201e-08 -1.827669e-07 -5.934856e-08 -4.894718e-09 6.914167e-09
4.159011e-07 4.240797e-08 -1.541269e-07 -7.135821e-09 -5.213469e-09 1.650443e-09
-7.452684e-08 1.464775e-06 2.244435e-06 4.427257e-06 -2.636983e-07 -5.284445e-07
1.410533e-06 1.417941e-06 6.741910e-07 3.933127e-06 2.851094e-07 3.310254e-07
-2.746426e-08 -1.505102e-07 -4.094777e-07 -4.026581e-10 -6.426685e-07 -2.265468e-08
3.857871e-07 9.039334e-08 -1.551505e-07 -2.566162e-08 -5.946649e-09 1.387219e-08
6.928914e-07 5.220671e-08 -7.317786e-07 5.180836e-08 -5.936636e-07 -2.854364e-08
-1.621565e-07 -2.366974e-07 -4.062807e-08 -4.935693e-09 -9.735521e-07 -8.068857e-07
3.972551e-07 7.250252e-08 -1.475255e-07 -2.172816e-08 -9.279385e-09 3.442738e-09
3.673248e-07 8.136635e-08 -1.479212e-07 -1.316649e-08 -4.180359e-09 6.207765e-09
3.734493e-07 8.875221e-08 -1.443158e-07 1.028368e-08 -2.420985e-09 -1.507302e-09
4.160518e-06 -1.606037e-06 -1.451978e-06 2.262265e-07 1.101704e-08 -7.900913e-08
3.238630e-06 -1.042244e-06 -1.273658e-06 2.009997e-07 -2.423786e-07 1.202027e-07
3.902757e-06 -1.345093e-06 -1.398053e-06 1.139449e-07 -1.585213e-07 -3.181200e-07
1.209385e-07 -5.795154e-07 7.392152e-08 -1.466833e-07 -5.354141e-07 -1.117858e-06
-3.259768e-06 5.144590e-06 2.206559e-06 1.337459e-06 -9.382854e-07 1.569596e-07
-2.876030e-06 4.839649e-06 1.207089e-06 7.242311e-07 5.397701e-07 -6.501764e-08
-7.162313e-08 5.536464e-07 -2.710397e-07 8.824160e-09 2.847551e-08 -1.349302e-08
-4.604903e-08 5.893367e-07 -3.156531e-07 1.041440e-10 3.358395e-08 6.359668e-09
-2.879104e-06 4.725203e-06 1.053576e-06 -7.748081e-07 2.401423e-07 -1.711480e-07
-5.709167e-08 6.233803e-07 -3.411518e-07 -1.925654e-08 2.622527e-08 -2.120293e-08
-3.204770e-08 5.583579e-07 -2.693014e-07 -8.940279e-09 8.118609e-08 -7.740885e-09
-1.022569e-07 3.277596e-07 -3.781834e-07 5.088085e-08 -4.744441e-07 -2.545965e-07
-4.379517e-08 6.360255e-07 -4.735967e-07 3.123978e-08 -7.319253e-08 -5.794658e-08
-1.533194e-06 3.072347e-06 1.867833e-07 -2.576448e-06 -8.110662e-07 1.079552e-07
-3.270008e-06 4.579843e-06 2.866711e-06 1.199881e-06 7.736200e-07 -1.911604e-07
-3.462958e-08 2.485586e-07 -3.142044e-07 1.940874e-09 -3.957661e-07 -1.844085e-08
-3.604490e-06 4.252980e-06 2.007293e-06 1.614177e-06 2.344270e-07 4.165941e-07
-7.925195e-08 2.315437e-07 -3.256078e-07 2.187794e-08 -4.996414e-07 -2.170307e-07
-3.815676e-06 5.986754e-06 3.160985e-06 -5.419393e-07 1.090944e-07 -1.200310e-07
-8.577672e-08 3.245215e-07 -2.909823e-07 1.044278e-09 -3.722340e-07 -1.701557e-07
5.019489e-08 4.423040e-07 -2.914179e-07 1.688026e-08 -3.183761e-07 -2.374066e-08
-4.000702e-06 4.695814e-06 2.677143e-06 -3.524697e-07 4.883645e-07 1.265046e-07
-1.418881e-08 7.187527e-07 -4.942571e-07 -2.028273e-07 2.505154e-07 -1.167532e-07
-2.105308e-08 8.592520e-07 -5.545280e-07 -2.729192e-07 4.167795e-08 -2.320371e-08
-1.076266e-07 6.982003e-07 -3.971685e-07 -6.375090e-08 5.193939e-08 -5.081894e-08
-2.521039e-07 9.495715e-07 -5.254036e-07 8.160395e-08 8.230060e-08 7.468738e-09
-2.713009e-07 1.036230e-06 -5.673588e-07 2.721829e-08 4.533525e-09 2.761433e-08
-1.607511e-08 7.676519e-07 -4.784116e-07 -1.714522e-07 6.542089e-08 -3.314733e-08
-1.039969e-07 5.876367e-07 -2.816744e-07 -1.040379e-08 2.858206e-08 -5.196337e-08
-2.157574e-08 6.781860e-07 -4.413610e-07 -9.333438e-08 3.633771e-08 -5.470354e-09
-3.868781e-08 7.358790e-07 -4.787591e-07 -2.017136e-07 6.875128e-08 -2.987542e-08
-6.145074e-08 6.875071e-07 -5.584679e-07 -1.677053e-07 1.339961e-07 -7.883058e-08
-1.794087e-07 6.587667e-07 -3.275244e-07 8.912691e-09 3.069155e-08 3.654736e-08
3.771795e-07 9.268450e-08 -1.631160e-07 -2.439376e-08 -5.353179e-09 9.712639e-09
3.624131e-07 1.419273e-07 -1.984198e-07 -6.252748e-08 -2.035242e-08 2.791268e-08
-1.755932e-07 6.300304e-07 -3.230838e-07 2.905095e-08 4.735021e-08 4.077111e-08
-1.412776e-07 9.110466e-07 -5.335372e-07 1.860103e-07 5.767730e-08 1.933872e-08
-1.469238e-07 8.720446e-07 -4.991290e-07 4.028529e-08 1.003075e-08 3.076119e-08
1.966572e-07 4.628497e-07 -3.425967e-07 2.686766e-07 1.116914e-07 6.427824e-08
3.412682e-07 1.540770e-07 -2.330793e-07 -6.556021e-08 -1.708957e-08 1.956366e-08
-1.255081e-08 8.432914e-07 -5.338982e-07 2.858493e-07 1.745332e-07 9.749905e-08
2.842324e-07 2.204435e-07 -2.337790e-07 -3.929872e-08 -2.079000e-08 4.170715e-08
4.122286e-07 5.740294e-08 -1.447083e-07 -9.926151e-09 -2.289686e-09 5.435850e-10
3.985597e-07 6.936669e-08 -1.414747e-07 -6.507211e-09 -1.251941e-09 1.804385e-09
4.042960e-07 6.476430e-08 -1.428258e-07 -2.031458e-09 -1.767446e-09 3.282038e-09
3.999706e-07 6.471187e-08 -1.460608e-07 -1.510209e-08 -3.482549e-09 5.400120e-09
4.006219e-07 7.892949e-08 -1.467280e-07 -1.190254e-08 -2.366620e-09 5.878994e-09
3.870281e-07 7.169430e-08 -1.430916e-07 -7.474552e-09 -8.739552e-10 3.501623e-10
3.092908e-07 2.175016e-07 -2.617741e-07 -4.912861e-08 -4.938716e-09 2.372245e-08
2.928383e-07 1.765141e-07 -1.633565e-07 -1.532610e-08 -7.057598e-09 2.402406e-08
3.489472e-07 1.022453e-07 -1.528803e-07 -1.227403e-08 -2.078729e-09 1.126511e-08
-5.989948e-08 5.537363e-07 -2.589412e-07 1.732821e-08 -7.753219e-08 -5.972144e-08
3.998061e-07 6.535554e-08 -1.431947e-07 -2.330840e-08 -7.346282e-09 1.065446e-10
2.927250e-07 1.957405e-07 -2.758765e-07 -7.151616e-08 -3.936040e-08 5.298797e-08
-2.102463e-07 3.953968e-07 -3.469191e-07 2.452847e-08 -3.602164e-07 -1.621969e-07
1.351103e-06 4.846661e-07 -1.289412e-06 8.688236e-07 -2.306793e-07 -1.397140e-07
1.979678e-06 2.708184e-07 -1.254031e-06 1.154961e-06 -1.428202e-07 -1.320739e-07
1.190636e-06 2.015223e-07 -8.640470e-07 9.943450e-07 -4.584214e-07 -4.240262e-07
1.362774e-06 5.675242e-07 -1.082007e-06 1.248648e-06 -4.358710e-07 -2.995184e-07
1.813519e-07 3.396928e-07 -3.333083e-07 -1.840503e-08 -1.917483e-08 8.559806e-08
-1.496870e-07 8.297397e-07 -5.696109e-07 2.692228e-08 -3.312264e-08 -1.140249e-07
-3.259541e-08 5.505375e-07 -4.211751e-07 1.541102e-08 -1.436442e-07 -6.560207e-08
-9.875309e-08 6.014763e-07 -3.762567e-07 9.622299e-09 -4.169799e-08 -9.815277e-08
3.110207e-07 1.898297e-07 -2.697259e-07 1.485176e-07 -1.261755e-09 -1.377441e-09
2.331940e-07 2.296948e-07 -1.933099e-07 1.091341e-08 4.907031e-09 2.305281e-08
1.216361e-07 4.213523e-07 -2.989245e-07 2.940040e-08 1.195144e-08 3.726960e-08
2.360699e-07 3.786559e-07 -3.833768e-07 -1.446695e-07 -5.327885e-08 4.174341e-08
3.479334e-07 3.764988e-07 -3.975712e-07 -3.110126e-07 -1.116357e-07 9.873084e-08
2.264895e-07 2.526743e-07 -1.892306e-07 -6.277791e-08 -5.289890e-08 8.023843e-08
9.332796e-08 2.908519e-07 -2.162425e-07 1.120642e-07 1.618130e-07 1.421378e-07
3.060514e-07 2.930933e-07 -4.131317e-07 -2.196199e-07 -1.010994e-08 3.700389e-08
3.856705e-07 1.887276e-07 -2.610212e-07 -1.640130e-07 -4.482967e-08 5.470260e-08
8.134605e-08 3.893080e-07 -1.995159e-07 2.687966e-08 3.574061e-08 4.550188e-08
4.674039e-07 2.736558e-07 -4.089666e-07 -3.531228e-07 -1.046568e-07 1.219122e-07
3.180317e-07 5.075593e-07 -5.677023e-07 -4.249791e-07 -7.129087e-08 -3.176848e-09
3.258197e-07 4.009768e-07 -5.111253e-07 -3.288641e-07 -6.093567e-08 4.017119e-08
3.846980e-07 7.287909e-08 -1.423344e-07 -1.083047e-08 -5.092443e-09 4.225586e-09
3.337594e-07 4.125582e-07 -5.300903e-07 3.296483e-07 -5.036321e-07 -1.645987e-07
4.284619e-07 1.165412e-07 -3.376476e-07 -1.951841e-07 -2.166643e-08 2.677016e-08
4.457486e-07 9.763050e-07 -7.457518e-07 7.864577e-07 -6.264934e-07 -4.106780e-07
6.928914e-07 5.221218e-08 -4.196299e-07 5.264681e-08 -5.890984e-07 7.337945e-10
1.129743e-06 7.175701e-08 -5.287027e-07 1.072823e-06 -4.901003e-07 -4.411361e-07
1.127213e-06 2.163557e-07 -1.076268e-06 2.747181e-07 -4.225911e-07 -9.956001e-08
-1.771271e-07 -3.272831e-07 1.181790e-07 -6.825663e-08 -7.654691e-07 -7.980072e-07
2.930870e-06 -1.298879e-06 -1.023146e-06 2.288133e-07 -1.378168e-07 -2.951081e-07
-1.877879e-07 -3.552683e-07 -1.578299e-08 -5.031311e-08 -6.895437e-07 -5.667182e-07
4.344126e-07 1.873866e-08 -1.780806e-07 -3.129858e-08 -6.749139e-09 1.013652e-08
5.291213e-07 -2.528013e-08 -1.961582e-07 -6.451548e-08 -9.951453e-09 3.015607e-08
5.268816e-07 -2.757742e-08 -1.950967e-07 -6.220634e-08 -1.639889e-08 3.788571e-08
4.374008e-07 -9.261235e-07 6.299703e-08 -1.798656e-07 -6.506020e-07 -6.752807e-07
3.192158e-06 -1.173732e-06 -1.367202e-06 6.329976e-07 -2.783657e-07 -4.092300e-07
3.307027e-06 -1.237999e-06 -1.084451e-06 -1.649579e-08 1.486624e-07 3.840081e-08
1.788379e-06 8.907603e-08 -1.171439e-06 4.478943e-07 -3.825151e-07 -1.145668e-07
7.105170e-07 5.667193e-07 -9.593968e-07 2.081059e-07 -3.282178e-07 -5.205601e-08
-1.058629e-08 4.693688e-07 -3.300761e-07 2.724233e-08 -2.394372e-07 -1.832188e-08
4.412456e-07 1.196086e-08 -1.816539e-07 -5.671256e-08 -1.356533e-08 3.090217e-08
-3.633066e-08 7.180169e-07 -5.047360e-07 3.111610e-08 -1.659659e-08 -6.593985e-08
2.429724e-08 6.692394e-07 -5.337025e-07 1.292019e-07 -1.883747e-07 -7.074939e-08
5.682364e-07 -7.661154e-08 -2.133507e-07 -3.416407e-08 -5.688565e-09 3.147775e-08
6.474180e-08 6.604533e-07 -5.991237e-07 5.057394e-08 -7.349526e-08 -1.993964e-08
1.328373e-09 6.736929e-07 -4.620990e-07 1.053597e-08 -7.577850e-09 -2.341668e-08
4.457407e-07 1.098613e-07 -3.091492e-07 -1.956685e-07 -1.416915e-08 7.702152e-08
5.376578e-07 -4.129359e-08 -2.105743e-07 -4.787269e-08 -7.945065e-09 5.067963e-09
5.273530e-07 -4.772414e-08 -1.782511e-07 -3.291491e-08 -8.611701e-09 3.267285e-08
5.465379e-07 -5.507989e-08 -1.971946e-07 -1.009514e-08 -6.834913e-09 7.697529e-09
5.880685e-07 -7.449456e-08 -2.521837e-07 -5.281393e-08 3.680692e-09 3.038450e-09
5.955710e-07 -3.320393e-08 -2.804881e-07 -1.054630e-07 -4.564155e-09 2.627483e-08
9.435808e-08 7.168004e-07 -6.971342e-07 1.911547e-07 -2.120831e-07 -1.296581e-07
-8.242611e-08 5.229776e-07 -2.700577e-07 2.087253e-08 -4.982242e-08 -1.042290e-08
5.824434e-07 -9.034932e-08 -2.652957e-07 -7.201893e-08 -3.514642e-08 1.065524e-07
-1.151742e-07 4.642349e-07 -2.280897e-07 1.428185e-08 4.334469e-08 6.704146e-08
5.605967e-07 -7.285858e-08 -1.875218e-07 -1.629821e-08 -7.806582e-09 1.659017e-08
5.183852e-07 -3.466516e-08 -2.237244e-07 -7.598447e-08 -3.825926e-08 6.413764e-08
-3.920372e-07 1.364264e-06 -8.162216e-07 4.673583e-07 2.493255e-07 9.960495e-08
-1.491561e-07 6.645437e-07 -2.460205e-07 5.853477e-08 1.675006e-07 6.638629e-08
2.829760e-07 2.303636e-07 -2.458184e-07 1.298932e-07 3.554847e-08 9.088440e-09
2.775193e-07 2.183426e-07 -1.863662e-07 6.922784e-08 9.304486e-09 8.081813e-09
-4.335358e-08 -2.554235e-07 -7.786722e-08 1.275151e-08 -7.975900e-07 -1.022095e-06
3.118873e-07 2.396508e-07 -2.987619e-07 2.041398e-07 5.793249e-08 1.795636e-08
3.327835e-07 2.062385e-07 -2.197717e-07 1.359710e-07 1.495279e-08 2.052389e-08
3.195891e-07 1.769694e-07 -1.834769e-07 9.276454e-08 2.029491e-08 1.942453e-08
2.703523e-07 1.781081e-07 -1.543040e-07 7.304961e-08 3.982471e-08 3.466728e-08
3.082727e-07 1.707802e-07 -2.151821e-07 1.009929e-07 8.424823e-09 7.866871e-09
7.496385e-07 -1.470302e-07 -3.011583e-07 3.186339e-08 1.191762e-08 7.635208e-08
4.660889e-07 2.819185e-08 -1.869501e-07 -7.865702e-08 -1.425767e-08 3.690786e-08
3.002463e-07 1.828452e-07 -1.730048e-07 9.144920e-08 1.955975e-08 2.727307e-08
5.153040e-07 6.573482e-09 -2.400899e-07 -1.119408e-07 -3.057181e-08 3.248606e-08
5.482072e-07 -4.304100e-08 -2.139717e-07 -5.708896e-08 -5.385505e-09 1.400617e-08
3.774053e-07 1.325526e-07 -2.179154e-07 -9.685286e-08 -1.356849e-09 1.581669e-08
3.621420e-07 1.441766e-07 -2.408037e-07 -1.088397e-07 -5.498594e-08 8.247291e-08
4.864888e-07 6.016954e-09 -1.984296e-07 -6.748215e-08 -1.937000e-08 1.902823e-08
3.674096e-07 1.077468e-07 -2.018893e-07 -6.908813e-08 -8.177483e-09 3.558366e-08
3.144095e-07 1.889759e-07 -2.532721e-07 -1.595227e-07 -6.781387e-08 6.635241e-08
3.101037e-07 1.731917e-07 -1.961006e-07 -1.235876e-07 -8.949089e-08 9.219916e-08
5.249342e-07 -9.944217e-09 -2.371051e-07 -8.256031e-08 -5.824062e-09 9.642155e-10
-1.941048e-06 3.650220e-06 3.364903e-07 -6.295986e-07 8.635461e-08 -1.659404e-07
5.873116e-07 -9.408019e-08 -2.068727e-07 -2.035003e-08 -6.866054e-09 3.919370e-08
5.649054e-07 -1.013240e-07 -1.728088e-07 -7.133100e-09 -6.472628e-09 1.582375e-08
-2.271538e-06 3.545223e-06 4.695570e-08 -8.188401e-07 2.645102e-07 1.435365e-07
-1.555293e-06 3.353199e-06 3.981982e-07 -1.582058e-06 3.121711e-07 -8.925296e-08
-1.156355e-06 3.756257e-06 -8.760897e-08 -1.337915e-06 3.375288e-07 -2.369564e-07
-1.170091e-06 3.590409e-06 -4.962128e-07 -8.643274e-07 1.331529e-07 3.058958e-08
5.720304e-07 -1.139076e-07 -1.745127e-07 -1.978087e-09 -2.234014e-09 1.855144e-08
3.864583e-07 6.238584e-08 -1.428161e-07 -2.434943e-09 2.298530e-10 -1.119593e-18
4.051251e-07 4.940660e-08 -1.494053e-07 -5.314345e-09 9.411161e-10 -1.000283e-17
-1.701311e-06 4.426192e-06 1.037063e-07 -4.454757e-07 4.860227e-07 -1.361121e-07
-2.158520e-06 3.769272e-06 3.205641e-07 2.992560e-07 1.286972e-07 -9.247207e-08
4.952965e-07 -1.864317e-08 -1.534566e-07 1.958508e-08 9.842422e-09 1.311305e-08
4.147857e-07 5.238061e-08 -1.490909e-07 7.200622e-09 7.683806e-09 3.868052e-09
6.159548e-07 -8.068889e-08 -2.916427e-07 9.902161e-08 1.784842e-08 4.637879e-08
4.877494e-07 -4.721047e-09 -1.849281e-07 1.106617e-08 6.688152e-09 3.301264e-09
5.245740e-07 -4.379721e-08 -1.770957e-07 4.440856e-08 1.832390e-08 2.875717e-08
5.014015e-07 -9.251818e-10 -2.081972e-07 7.320623e-08 1.939970e-08 1.831104e-08
5.004098e-07 -2.713636e-09 -2.258897e-07 8.614450e-08 1.177789e-08 3.644171e-08
4.332298e-07 2.880764e-08 -1.635842e-07 -9.613120e-09 -5.139240e-09 5.881928e-10
4.595332e-07 7.567557e-09 -1.672043e-07 -1.007343e-08 2.492585e-09 -5.021774e-17
7.699330e-07 -9.305495e-08 -4.051252e-07 1.608581e-07 5.771523e-09 4.727029e-08
6.560065e-07 -4.575663e-08 -3.256711e-07 1.430385e-07 1.016788e-08 1.072571e-08
5.736161e-07 -9.126116e-09 -2.753006e-07 1.154267e-07 3.763884e-09 2.529683e-08
4.553303e-07 1.017817e-08 -1.634107e-07 -6.000086e-09 -9.909185e-09 2.536360e-09
4.572084e-07 3.528734e-08 -1.653652e-07 -4.697179e-08 -1.529802e-08 1.429672e-08
5.580526e-07 -8.915505e-08 -1.676685e-07 -4.521147e-09 -9.222721e-09 1.080001e-08
5.028475e-07 -3.361531e-08 -1.478775e-07 -2.551012e-08 -1.254311e-08 2.292736e-08
5.628618e-07 -9.635334e-08 -1.686620e-07 -6.371269e-09 4.859494e-10 1.341363e-08
4.101684e-07 8.204626e-08 -1.776973e-07 -5.192582e-08 -1.124400e-08 1.154051e-08
3.075175e-07 1.540554e-07 -1.628881e-07 -2.007648e-08 -1.375703e-08 2.882715e-08
4.255308e-07 3.143044e-08 -1.725369e-07 -3.881395e-08 -7.229758e-09 1.944855e-08
4.419768e-07 3.472190e-08 -1.717434e-07 -5.100623e-08 -1.254538e-08 2.418101e-08
4.475793e-07 4.501332e-08 -1.819207e-07 -5.007013e-08 -6.604200e-09 1.100173e-08
3.711168e-07 2.097613e-07 -2.702921e-07 -1.595549e-07 -2.625446e-08 3.586653e-08
3.783967e-07 9.578394e-08 -2.115752e-07 -6.847129e-08 2.744910e-09 3.034576e-09
3.354006e-07 1.300048e-07 -1.718090e-07 -8.051081e-09 -5.270976e-09 1.977652e-08
4.900900e-07 -1.102612e-08 -1.877481e-07 -5.491745e-08 -2.754969e-08 3.207410e-08
3.251528e-07 1.440224e-07 -2.009168e-07 -1.263506e-08 -4.001063e-09 2.961522e-08
4.765239e-07 -2.818336e-09 -1.741215e-07 -1.134122e-08 -6.657091e-09 2.330930e-09
2.894766e-07 1.858272e-07 -2.325350e-07 -1.555512e-08 -5.993704e-09 4.432349e-08
3.710176e-07 8.670710e-08 -1.423126e-07 7.407958e-09 -9.546906e-10 1.564657e-09
4.651472e-07 1.093312e-08 -1.514152e-07 3.623324e-08 1.024400e-08 1.795130e-08
3.946788e-07 6.989598e-08 -1.418417e-07 -1.433061e-08 -4.768498e-09 3.613898e-09
3.619942e-07 8.861600e-08 -1.467541e-07 -1.121876e-09 -2.489481e-09 5.928256e-09
3.251451e-07 1.300048e-07 -1.706749e-07 -6.161730e-09 -5.517393e-09 1.609789e-08
3.434836e-07 1.187146e-07 -1.714238e-07 -8.156847e-09 -2.382634e-09 1.872778e-08
4.743330e-07 -9.971194e-09 -1.614972e-07 8.534501e-09 1.155252e-08 7.038207e-09
5.025102e-07 -3.744536e-08 -1.705565e-07 6.389785e-09 1.000405e-08 8.135620e-09
3.216355e-07 1.754395e-07 -1.810762e-07 -3.426624e-08 3.704837e-09 2.790811e-08
3.379902e-07 1.317768e-07 -1.809656e-07 -1.053003e-08 -2.553724e-09 9.136843e-09
2.928355e-07 1.765141e-07 -1.908911e-07 -1.499418e-08 -7.315756e-09 4.172649e-08
7.375931e-09 7.029908e-07 -4.458347e-07 1.536510e-07 2.098285e-08 2.147666e-08
-1.049687e-07 1.094782e-06 -6.912341e-07 3.678011e-07 1.573626e-07 5.803113e-08
4.241723e-08 6.840268e-07 -4.241807e-07 2.487666e-07 7.311340e-08 6.628966e-08
2.316077e-08 7.764210e-07 -5.544908e-07 3.550018e-07 9.126840e-08 3.137594e-08
-6.053716e-07 1.933038e-06 -9.915365e-07 -1.748087e-07 -2.901500e-07 3.223335e-09
-2.829134e-07 4.312538e-07 -3.442093e-07 9.136011e-09 -8.218714e-07 -2.305801e-07
-6.847848e-08 7.623451e-07 -6.235357e-07 3.641828e-07 1.250449e-07 6.470395e-08
-8.673233e-08 1.095263e-06 -7.694763e-07 5.876942e-07 2.505018e-07 8.147092e-08
2.423131e-07 5.842603e-07 -5.001469e-07 -3.791707e-07 -1.653529e-07 9.614076e-08
-5.508025e-08 9.023271e-07 -6.301905e-07 -6.136523e-08 -5.540698e-16 8.132939e-09
1.167008e-07 7.512674e-07 -5.459016e-07 -3.166842e-07 3.201614e-08 3.339423e-08
2.945309e-07 7.208229e-07 -6.004524e-07 -5.608738e-07 -1.235145e-07 9.045018e-08
1.134579e-06 -1.476565e-07 -6.545102e-07 -4.359818e-07 8.558938e-09 6.859403e-08
1.790181e-07 5.664031e-07 -6.192256e-07 -4.269806e-07 -7.587209e-08 6.149874e-08
5.311876e-07 6.573482e-09 -2.690169e-07 -1.279590e-07 -2.054637e-08 5.062469e-08
5.151729e-07 -7.431089e-09 -2.284286e-07 -9.087939e-08 -1.173308e-08 6.574724e-09
2.630191e-07 7.237484e-07 -6.970182e-07 -5.672840e-07 -1.073767e-07 3.152452e-08
1.111915e-07 5.303270e-07 -3.767575e-07 -6.686551e-08 -6.410037e-08 1.138260e-07
4.586443e-06 -1.737010e-06 -5.120244e-07 -3.291559e-07 2.914534e-08 -6.698492e-07
5.159253e-06 -4.931730e-06 2.951459e-06 6.018060e-07 2.067397e-08 -3.432515e-07
5.564512e-06 -4.550863e-06 7.716151e-06 9.331151e-07 2.465384e-07 2.009975e-06
5.310397e-06 -2.190871e-06 -5.024532e-08 3.741593e-07 -3.910954e-08 -6.004701e-07
-5.270688e-09 5.740653e-09 -3.061093e-07 -1.470587e-08 8.383153e-07 -4.993788e-07
1.083784e-06 5.797396e-07 -1.204174e-06 -1.143638e-06 1.162729e-07 -5.652379e-09
3.592346e-07 9.840892e-07 -9.304362e-07 -8.548224e-07 3.885361e-07 -1.528486e-07
5.032991e-07 1.074438e-06 -1.132960e-06 -1.336880e-06 1.213594e-07 -2.954947e-08
1.199232e-07 4.998813e-07 -4.290572e-07 -4.541426e-08 -6.872663e-09 8.638673e-08
1.123321e-07 7.124175e-07 -7.181357e-07 -5.027720e-07 -1.360712e-07 8.922641e-08
-3.166114e-07 1.506538e-06 -9.007091e-07 -2.358389e-07 -1.105716e-07 1.363652e-08
1.819682e-07 6.521614e-07 -6.069806e-07 -4.117369e-07 -1.817322e-07 8.533940e-08
-3.305633e-07 1.847849e-06 -9.696784e-07 -5.585462e-07 -7.220394e-08 4.020518e-09
-4.959702e-07 2.027881e-06 -8.686289e-07 -5.438415e-07 -2.555330e-07 1.537386e-07
-1.108387e-07 5.375019e-07 -2.632613e-07 8.607854e-08 -8.340160e-08 -1.258117e-07
-3.182052e-07 1.260464e-06 -8.436823e-07 -5.684851e-07 -1.597340e-07 1.227017e-07
-2.561050e-07 1.047293e-06 -5.433216e-07 -7.598453e-08 -3.133252e-07 1.339531e-07
-1.222274e-07 6.664410e-07 -3.115739e-07 -1.498006e-07 2.549670e-07 -1.051337e-07
-7.462532e-07 2.248780e-06 -9.971537e-07 -1.651076e-07 -3.027859e-07 3.223625e-08
-9.156169e-07 2.670445e-06 -9.975234e-07 -1.854784e-07 -3.024887e-07 2.428364e-08
-5.264621e-08 6.028638e-07 -2.484514e-07 -1.230068e-07 2.021683e-07 -9.789743e-08
3.089162e-07 1.599728e-07 -1.453761e-07 1.388118e-08 2.307511e-09 4.452521e-09
6.205205e-07 8.741515e-08 -5.734083e-07 -4.262232e-07 -1.839234e-08 4.176238e-08
5.585993e-07 1.345504e-07 -3.287880e-07 -2.870666e-07 -7.283618e-08 1.031833e-07
-1.259176e-07 5.742796e-07 -2.217491e-07 -1.889176e-08 5.188665e-08 -6.650580e-08
7.060251e-07 5.526913e-08 -5.530917e-07 -3.836648e-07 -5.199170e-08 1.041656e-07
7.210624e-07 -1.115803e-07 -3.401812e-07 -1.036004e-07 -1.652796e-08 8.967512e-08
1.111218e-06 -2.433486e-07 -5.624205e-07 -1.737494e-07 -8.433928e-09 4.633725e-08
9.378299e-07 -1.628690e-07 -4.800660e-07 -1.912543e-07 -2.468324e-08 6.199410e-08
9.047053e-07 -1.544244e-07 -4.695871e-07 -1.530926e-07 -2.755301e-08 1.524619e-07
-1.268107e-07 6.731825e-07 -3.606544e-07 -1.742554e-08 2.142718e-08 -4.415830e-08
8.885246e-07 -1.955912e-07 -4.336316e-07 -8.328700e-08 -2.007078e-08 1.151903e-07
-1.142735e-07 9.227310e-07 -5.647560e-07 -2.407102e-07 6.466768e-08 -2.894868e-08
1.042167e-07 7.364622e-07 -5.322231e-07 -2.848389e-07 3.021745e-07 -1.201359e-07
-1.673514e-07 7.242766e-07 -4.942571e-07 -1.059557e-07 2.504394e-07 -1.194783e-07
-4.180629e-08 7.768746e-07 -5.545280e-07 -1.907396e-07 2.461450e-08 -2.089221e-08
1.340542e-07 7.414633e-07 -6.218977e-07 -2.073996e-07 5.656741e-08 -1.846269e-09
1.171081e-07 2.128743e-06 -6.217935e-07 2.165917e-06 5.497651e-07 3.985315e-07
-8.120990e-08 5.738861e-07 -2.984610e-07 -5.222155e-08 1.290891e-07 -4.521358e-08
1.309696e-06 4.173003e-07 2.193277e-06 4.634405e-06 7.277347e-07 3.424513e-07
1.231158e-07 1.242211e-06 -8.253287e-07 1.188471e-06 3.175994e-07 1.571370e-07
1.231158e-07 1.631009e-06 -8.469042e-07 1.453523e-06 4.200896e-07 3.207101e-07
1.947410e-07 1.119728e-06 -9.032389e-07 1.071514e-06 5.803324e-08 1.081908e-07
1.338792e-06 4.207569e-07 2.758188e-06 4.659289e-06 2.196680e-07 1.957145e-08
-2.303556e-06 3.883769e-06 4.867301e-07 1.315838e-07 -5.531265e-08 -9.301036e-08
-9.681998e-07 2.802968e-06 1.847438e-07 1.930018e-06 -1.553366e-07 -1.027104e-07
-1.618227e-06 3.419766e-06 5.016788e-07 2.199330e-06 -3.123548e-07 -6.551583e-08
-9.400424e-07 3.252920e-06 -2.829601e-07 2.017247e-06 -6.187959e-07 -3.041795e-07
2.027211e-07 -4.165878e-07 7.746964e-06 5.146050e-06 -5.218935e-07 3.084226e-09
1.809577e-06 -1.067740e-06 5.687190e-06 4.564468e-06 2.862942e-07 4.828967e-07
2.187449e-06 -1.109674e-06 3.936541e-06 4.115289e-06 -1.061928e-07 1.165731e-06
1.439888e-06 -2.930306e-06 1.082289e-05 5.633737e-06 9.401581e-07 3.424248e-06
-7.943216e-07 -2.916554e-06 1.556214e-05 6.336687e-06 2.689719e-07 1.817160e-06
-1.454354e-06 3.171072e-06 -5.681659e-07 3.736470e-07 -3.715102e-07 -1.013379e-07
2.926473e-06 -3.343895e-06 8.404715e-06 4.579049e-06 -1.038906e-07 2.218489e-06
2.025798e-06 -7.381228e-07 1.916210e-06 4.175622e-06 9.300139e-07 4.164734e-07
-2.800430e-06 3.000628e-06 6.042118e-06 4.563371e-06 8.319541e-07 -5.769476e-07
-1.244009e-06 1.569461e-06 5.816724e-06 5.035792e-06 9.626671e-07 -4.340065e-07
4.620744e-06 -3.424335e-06 3.230576e-06 3.221092e-06 -1.065250e-07 2.459075e-07
4.935219e-06 -9.636612e-06 1.149201e-05 -1.547672e-06 3.032695e-07 2.117344e-06
3.554628e-08 5.466987e-07 -4.453717e-07 3.084480e-08 -2.517153e-07 -4.071951e-08
7.812571e-07 4.223406e-07 -8.212989e-07 1.388844e-06 3.919670e-07 4.157286e-07
1.189181e-06 2.086947e-08 -7.885812e-07 1.377157e-06 3.237532e-07 4.873112e-07
9.688562e-07 1.058290e-06 -9.102613e-07 1.909439e-06 1.523702e-07 6.393495e-08
-5.119502e-08 5.566134e-07 -3.592370e-07 2.468603e-08 -5.354665e-08 -5.348371e-08
1.535620e-07 6.615694e-07 -6.843630e-07 1.926352e-07 -2.117551e-07 -1.021582e-07
4.352837e-08 9.198966e-07 -8.362613e-07 3.936168e-07 -1.412957e-07 -6.660247e-08
1.222454e-06 7.454057e-07 -8.772111e-07 1.816758e-06 3.560291e-07 2.813834e-07
4.209604e-06 -2.579021e-06 3.591091e-06 -1.402530e-06 4.744215e-07 -7.875475e-07
-8.109289e-08 5.565875e-07 -3.505025e-07 1.882280e-07 -4.516372e-07 -2.540298e-07
2.195696e-07 7.123516e-07 -7.219158e-07 1.196220e-07 -1.100395e-07 -6.565882e-09
2.587581e-07 8.792077e-07 -8.699639e-07 5.561870e-07 -1.501236e-07 -6.577659e-08
-2.226264e-07 9.574139e-07 -6.165043e-07 2.572300e-07 1.634076e-07 3.565834e-08
-5.485480e-07 1.837308e-06 -8.737194e-07 6.529333e-07 4.209000e-07 9.834899e-08
1.454682e-07 8.384754e-07 -8.260940e-07 4.383311e-07 -2.237448e-07 -1.323401e-07
-3.271224e-07 1.148353e-06 -5.961180e-07 2.945801e-07 4.534964e-07 1.102383e-07
4.655920e-07 6.432942e-09 -1.868667e-07 3.204304e-08 5.197642e-09 7.266520e-09
7.200741e-07 -8.769280e-08 -3.469876e-07 1.423246e-07 2.595385e-08 2.257576e-08
6.740939e-07 -8.495487e-08 -3.388830e-07 1.371592e-07 7.464402e-09 8.690120e-08
1.437385e-06 1.416994e-07 2.047423e-06 -3.612738e-06 2.926234e-07 -1.291438e-07
1.958894e-07 6.513928e-07 -6.341616e-07 -4.698469e-08 4.053787e-08 -3.809314e-15
-3.182052e-07 1.232964e-06 -7.075729e-07 -5.648866e-07 -6.395408e-07 2.487762e-07
-3.158328e-07 8.094378e-07 -5.545790e-07 -8.101781e-08 -2.772789e-07 6.066136e-08
-4.082415e-07 1.446305e-06 -8.186547e-07 3.028176e-08 -1.947486e-07 7.345017e-09
-2.425996e-07 5.582443e-07 -3.019904e-07 1.126821e-07 -1.294508e-07 1.213573e-07
-2.310656e-07 4.392346e-07 -3.269426e-07 -1.851270e-08 -1.611849e-07 1.090265e-07
5.671535e-07 -9.009560e-08 -1.859085e-07 -3.641514e-08 -1.160291e-08 4.685285e-08
-3.048358e-07 7.518760e-07 -3.634102e-07 -1.615043e-08 -1.928893e-07 6.987405e-08
5.425635e-07 -4.637620e-08 -1.998031e-07 -2.010202e-08 -5.332518e-09 -2.006453e-09
-3.418073e-07 9.955854e-07 -5.222337e-07 -1.492901e-07 -2.784561e-07 1.548775e-07
-3.368193e-07 1.030237e-06 -5.289672e-07 -7.872589e-08 -1.652747e-07 8.726419e-08
-3.790356e-07 1.391560e-06 -7.720734e-07 -1.950058e-08 -1.627696e-07 2.966553e-08
-2.440911e-07 8.053944e-07 -4.210000e-07 -8.391852e-08 -1.568788e-07 1.430895e-07
4.775047e-07 -2.795568e-09 -1.774489e-07 -1.096534e-08 -8.243128e-09 5.317425e-10
-3.040185e-07 1.063692e-06 -5.398514e-07 -3.620849e-08 -1.879658e-07 8.204646e-08
5.630101e-07 -7.282745e-08 -2.055613e-07 -1.868887e-08 -1.115956e-08 1.197736e-08
5.297425e-07 -2.837624e-08 -2.083263e-07 -4.411595e-08 -1.930837e-09 9.047296e-09
4.371360e-07 2.960299e-08 -1.981436e-07 -6.184308e-08 -8.003374e-09 1.785383e-08
2.731492e-07 2.791942e-07 -2.484106e-07 1.644904e-07 6.483577e-08 5.541582e-08
-4.407125e-07 1.255505e-06 -5.369619e-07 -2.963849e-08 -5.474094e-07 4.455415e-08
-2.370809e-07 1.301684e-06 -8.108008e-07 2.956129e-07 -1.055884e-07 -4.791689e-08
-3.074999e-08 5.029133e-07 -3.413974e-07 1.595867e-07 1.920836e-07 8.468854e-08
4.302424e-08 4.375097e-07 -1.951787e-07 2.340487e-08 1.331455e-08 4.757721e-08
-3.444079e-07 8.450621e-07 -4.876160e-07 4.560138e-09 -4.294442e-08 -7.377115e-08
-3.497028e-07 1.180072e-06 -6.738758e-07 3.080270e-08 -3.200266e-08 -6.741385e-08
-5.982415e-07 2.401006e-06 -1.026148e-06 5.920315e-07 -1.823344e-07 -1.278145e-07
-6.246610e-07 2.156355e-06 -9.503138e-07 4.174699e-07 -5.146626e-07 -1.029961e-07
-3.404383e-07 8.317488e-07 -3.096083e-07 2.637203e-08 -2.569463e-07 -7.794606e-08
-5.918624e-07 1.694380e-06 -8.434357e-07 -1.333062e-07 -2.880266e-07 7.412084e-08
-2.915506e-07 1.048378e-06 -5.147611e-07 5.009987e-08 -1.643899e-07 -1.457424e-07
8.616616e-08 3.608805e-07 -2.307958e-07 8.232950e-09 1.242419e-08 3.996224e-08
-2.800087e-07 1.408460e-06 -8.108008e-07 2.091984e-07 -6.009958e-08 -3.796369e-08
1.060587e-08 4.136498e-07 -2.134620e-07 -4.868742e-09 3.421627e-08 7.251641e-08
4.662378e-09 4.781920e-07 -2.052772e-07 6.767047e-08 8.645324e-08 7.191183e-08
3.232497e-07 1.420343e-07 -1.464627e-07 3.130431e-08 4.203338e-09 6.216522e-09
4.868726e-07 -4.574134e-09 -1.882509e-07 1.133137e-08 5.139114e-09 5.666781e-09
6.155626e-08 4.304371e-07 -2.009543e-07 1.208645e-07 1.419634e-07 1.103885e-07
3.662197e-07 1.029604e-07 -1.457642e-07 2.451052e-08 1.266280e-09 5.302169e-09
3.807753e-07 7.902399e-08 -1.583284e-07 3.173269e-08 7.807106e-10 -1.144715e-09
3.977168e-07 9.447637e-08 -1.926807e-07 7.724146e-08 4.764380e-09 1.019327e-08
4.882709e-07 3.087274e-08 -2.322781e-07 1.206891e-07 2.742682e-08 2.885929e-08
3.836045e-07 7.902399e-08 -1.583284e-07 1.793718e-08 -2.910865e-09 -7.661754e-10
9.636546e-08 5.254242e-07 -5.628160e-07 -2.981207e-08 2.478313e-07 -1.872684e-08
9.557103e-08 3.939396e-07 -3.453202e-07 -3.796511e-08 3.693767e-07 -9.395049e-08
3.954013e-07 9.447637e-08 -1.778892e-07 7.644647e-08 1.121193e-08 1.867084e-08
4.061492e-07 6.409393e-08 -1.408055e-07 2.106384e-08 3.691842e-09 1.169417e-08
1.572049e-08 5.867085e-07 -3.419077e-07 -2.167128e-07 4.857918e-07 -2.099616e-07
-1.069385e-07 4.183710e-07 -2.881619e-07 -4.022994e-08 3.566444e-07 -1.543524e-07
3.910662e-07 7.214360e-08 -1.579975e-07 1.298485e-08 -1.173762e-09 3.396986e-09
3.833849e-07 8.360760e-08 -1.457980e-07 5.682677e-09 5.768740e-10 3.102351e-09
-9.920798e-08 7.335801e-07 -4.261820e-07 -3.589542e-08 4.910161e-09 -2.462224e-08
2.779312e-07 1.730876e-07 -1.454120e-07 1.084740e-08 7.565699e-10 3.866708e-10
-1.492037e-07 8.173617e-07 -6.806344e-07 2.411094e-07 -2.761824e-07 -1.544626e-07
-4.817583e-08 4.343410e-07 -2.834990e-07 -9.379845e-08 2.797550e-07 -1.088121e-07
-9.410149e-08 4.166409e-07 -2.831549e-07 -1.560848e-08 2.578612e-07 -1.027234e-07
-8.602032e-08 3.945928e-07 -2.401964e-07 -2.043503e-08 2.932770e-07 -1.085193e-07
-1.412497e-07 5.867518e-07 -2.310807e-07 -5.298887e-08 1.214614e-07 -6.145518e-08
-2.030872e-08 6.427428e-07 -5.164390e-07 1.632522e-07 -3.225181e-07 -1.799731e-07
-5.004087e-08 6.361503e-07 -3.852105e-07 -8.418628e-08 1.254725e-07 -5.891032e-08
-6.387009e-08 5.998199e-07 -4.350149e-07 -1.730417e-07 2.731023e-07 -1.147900e-07
-2.251584e-07 1.026922e-06 -5.478364e-07 -1.194337e-07 2.502218e-08 -2.355263e-08
6.465709e-08 5.956042e-07 -5.271155e-07 -8.314406e-08 1.766165e-07 -1.350048e-08
3.078540e-07 2.559257e-07 -2.973350e-07 2.130205e-07 -6.945124e-10 4.305322e-08
-1.735222e-07 9.264669e-07 -4.960051e-07 -1.167046e-07 2.823748e-08 -1.939361e-08
-1.016682e-07 7.947546e-07 -4.537730e-07 -1.154039e-07 1.978117e-08 -1.798628e-08
-1.514740e-07 7.157969e-07 -3.562988e-07 -7.707190e-08 1.432830e-07 -7.343777e-08
2.870767e-07 4.486640e-07 -4.536162e-07 4.114884e-07 9.600453e-08 1.294427e-07
-2.796968e-07 1.186269e-06 -6.651642e-07 -2.910575e-07 6.892189e-08 -3.260499e-08
-1.997202e-07 9.782923e-07 -5.478364e-07 -1.571877e-07 5.370548e-08 -3.171861e-08
2.870767e-07 4.216910e-07 -4.004944e-07 3.522718e-07 1.153405e-07 7.857577e-08
2.504096e-07 4.660743e-07 -4.935628e-07 4.054659e-07 9.451583e-08 9.055109e-08
1.663202e-06 2.338667e-07 -1.295281e-06 8.541575e-07 -9.503496e-08 4.762166e-08
1.446163e-07 3.314009e-07 -2.546094e-07 1.906266e-08 9.557532e-09 4.430836e-08
-1.373309e-07 1.170393e-06 -7.648393e-07 5.948385e-07 2.902817e-07 1.109176e-07
-6.779513e-08 6.199068e-07 -4.827851e-07 2.033996e-07 3.282601e-07 1.930089e-07
6.317613e-08 3.301673e-07 -2.035412e-07 7.545892e-08 1.095465e-07 1.081948e-07
1.576246e-07 7.528705e-07 -5.341930e-07 5.462184e-07 1.269818e-08 4.200123e-08
-1.144324e-07 8.549150e-07 -4.831943e-07 -1.663602e-07 2.357437e-08 -1.575962e-08
6.848975e-08 4.608258e-07 -3.406607e-07 7.168850e-08 2.430004e-08 5.804186e-08
2.635857e-07 3.665179e-07 -3.612269e-07 2.425064e-07 3.319993e-08 -9.761821e-09
3.008013e-07 3.225757e-07 -3.795153e-07 2.831213e-07 7.311856e-09 5.466029e-08
2.167062e-07 4.786748e-07 -4.996430e-07 3.448501e-07 1.070907e-08 3.117115e-08
2.585683e-07 6.021452e-07 -6.568754e-07 5.587369e-07 3.590847e-08 4.578635e-08
8.447567e-08 4.307570e-07 -2.538003e-07 8.608945e-08 8.357195e-08 7.932143e-08
7.858767e-08 4.486957e-07 -3.230944e-07 1.119525e-07 7.742216e-08 7.526221e-08
2.425495e-07 7.092058e-07 -5.881091e-07 6.268478e-07 1.801081e-07 1.272902e-07
-2.255610e-06 3.772710e-06 1.530289e-06 -2.817008e-06 -4.903082e-07 1.557313e-07
-1.865310e-06 3.744244e-06 2.473999e-06 -3.282301e-06 -7.786199e-08 1.438480e-07
-1.046164e-06 3.392592e-06 6.512654e-07 -2.773586e-06 -5.526365e-07 2.943570e-07
-4.445083e-08 5.229776e-07 -2.410902e-07 8.473033e-09 -3.979763e-08 -4.368886e-08
-3.484810e-07 2.928220e-06 -1.903339e-07 -2.412574e-06 1.092416e-07 9.419801e-08
2.335225e-07 5.504686e-07 -4.676343e-07 4.293774e-07 1.409545e-07 1.000699e-07
2.953885e-08 4.345272e-07 -2.037231e-07 8.358700e-08 8.768203e-08 7.844507e-08
1.961071e-06 1.206277e-07 -5.847517e-07 1.971815e-06 -5.825280e-07 -6.874012e-07
2.489473e-06 -1.572782e-07 -9.504193e-07 1.767149e-06 -3.123202e-07 -3.676169e-07
-5.246949e-07 2.313678e-06 1.001151e-06 -2.907252e-06 -5.963005e-08 -1.948728e-07
2.690386e-06 -7.932748e-07 5.842103e-07 2.380521e-06 -2.043153e-07 2.592076e-08
4.313991e-06 -2.034598e-06 -2.686461e-07 1.838660e-06 -1.346956e-07 -3.096741e-07
4.197072e-07 7.026488e-08 -1.719289e-07 -6.222232e-08 2.040488e-09 -3.996363e-09
4.344989e-07 5.767002e-08 -2.055113e-07 -1.035090e-07 -1.067401e-08 1.603559e-08
4.380235e-07 6.671803e-08 -2.635719e-07 -1.419279e-07 -1.762989e-08 3.389465e-08
4.217787e-07 8.943259e-08 -2.552589e-07 -1.260220e-07 -3.250159e-08 1.251981e-08
1.626522e-06 6.764451e-07 -6.974598e-07 -2.321603e-06 -3.726117e-07 3.836291e-07
-9.801147e-08 2.227726e-06 -6.130143e-07 -2.799993e-06 -2.068745e-07 -5.269191e-09
-2.864041e-07 1.754414e-06 5.970880e-07 -3.083356e-06 -4.149706e-07 3.414732e-07
1.993334e-06 1.309755e-07 -8.719338e-07 -2.750978e-06 -1.532958e-07 -2.065355e-07
5.708207e-07 -1.033633e-07 -1.788623e-07 -1.262660e-09 -3.379024e-09 8.716846e-09
1.709834e-06 -5.139020e-07 5.085345e-06 -4.401866e-06 -8.887729e-07 5.112095e-07
5.773608e-07 -4.304100e-08 -2.524571e-07 -8.107617e-08 -6.454571e-09 8.529740e-09
-2.125522e-07 7.970186e-07 4.714778e-06 -4.698419e-06 -6.856404e-08 1.109873e-06
5.642759e-07 -3.585692e-08 -2.234864e-07 -6.149253e-08 -4.399189e-09 6.872120e-09
1.645345e-06 -3.086916e-06 1.206728e-05 -5.248560e-06 -5.269799e-07 7.796449e-07
5.800048e-07 -2.263789e-08 -2.703620e-07 -1.175044e-07 6.161195e-09 1.877270e-08
5.492092e-07 -2.263789e-08 -2.371051e-07 -1.015015e-07 -4.730501e-09 4.820796e-09
5.916825e-07 -3.262483e-08 -2.996313e-07 -1.295423e-07 -2.131254e-08 6.886267e-08
7.124844e-07 -1.032226e-07 -3.491481e-07 -1.539454e-07 -6.081876e-09 2.175599e-08
1.360389e-06 -1.862187e-06 7.221964e-06 -5.307354e-06 4.141143e-07 -5.314250e-07
5.912146e-07 -6.866064e-08 -2.106876e-07 -4.494154e-08 -1.161942e-08 1.680294e-08
-1.216505e-06 1.907470e-06 5.137460e-06 -4.646041e-06 -6.627944e-07 -3.620043e-07
-8.125377e-07 -3.222499e-06 1.382249e-05 -6.238971e-06 -9.224548e-07 1.618339e-06
-3.224256e-06 -1.011244e-06 1.608686e-05 -6.175698e-06 5.978827e-08 4.293247e-07
4.716428e-06 -2.308963e-06 2.135476e-07 -1.825728e-06 3.729596e-07 -2.218354e-07
-2.407357e-06 2.319412e-06 6.896569e-06 -5.047637e-06 -3.580087e-06 1.861385e-06
4.348785e-06 -2.297927e-06 -5.168789e-07 -6.973962e-07 1.047970e-07 -6.248617e-07
2.716033e-06 -1.008893e-06 -9.285831e-07 -4.792549e-07 3.377353e-07 -3.594636e-07
4.356897e-06 -1.717988e-06 -7.447826e-08 -1.915681e-06 4.055219e-07 -5.522494e-07
4.331035e-06 -1.783569e-06 -6.689628e-07 -1.148183e-06 -1.414942e-07 7.171167e-08
2.780757e-06 -5.779510e-07 2.670180e-07 -2.618076e-06 3.171268e-07 -2.428952e-07
3.783962e-06 -1.612941e-06 1.234325e-06 -2.800583e-06 2.206470e-07 -7.842763e-07
1.318078e-06 7.145049e-07 -9.975441e-07 -1.713428e-06 4.445237e-07 -3.476200e-07
-7.937401e-07 -3.137398e-06 1.387010e-05 -6.170622e-06 -1.230921e-06 1.174021e-06
1.724585e-06 -8.790905e-07 -9.526679e-07 -1.331386e-08 3.789186e-07 1.029661e-07
5.318393e-07 -4.827244e-07 -4.591753e-07 -5.597324e-07 4.296328e-07 -3.019209e-07
1.279916e-06 -5.228666e-07 -8.831831e-07 -7.860505e-08 4.789253e-07 -3.314834e-08
-3.257348e-07 -4.433711e-07 -6.449820e-08 -4.024162e-08 4.154764e-07 -6.057479e-07
8.229434e-07 -1.574576e-07 -3.650526e-07 8.850493e-08 -2.117837e-08 4.994937e-08
4.263638e-07 7.208415e-08 -2.415802e-07 1.131742e-07 2.612590e-09 -5.144702e-09
3.761922e-07 1.071355e-07 -2.194947e-07 1.081111e-07 8.921264e-09 1.911616e-08
-2.758667e-08 5.655293e-07 -3.795224e-07 -1.731918e-08 -5.041176e-08 -2.212385e-08
5.635095e-06 -4.062698e-06 3.143547e-06 -4.656547e-07 8.554931e-09 -4.294335e-07
6.097513e-06 -5.513805e-06 4.256857e-06 2.081738e-06 1.132720e-07 3.769396e-07
5.644978e-06 -4.931730e-06 4.912494e-06 7.340819e-07 1.021593e-07 1.398042e-06
-5.964542e-07 2.419395e-07 -8.780364e-08 -4.271142e-07 9.756391e-07 -1.001394e-06
5.297267e-06 -4.446181e-06 4.246181e-06 1.434711e-06 1.274741e-07 4.821485e-07
1.093254e-06 -4.013682e-07 -4.495519e-07 -4.793914e-08 5.606788e-07 3.611603e-08
5.166816e-07 5.780138e-08 -3.256488e-07 -1.827566e-07 -1.438962e-08 3.797798e-09
5.688424e-07 -2.829337e-07 -4.808057e-07 -5.628729e-07 5.703328e-07 -3.034095e-07
4.230443e-08 -4.433795e-07 -4.527212e-07 -5.081504e-08 4.045324e-07 -3.665826e-07
5.244645e-07 1.677214e-07 -3.514834e-07 -2.685278e-07 -4.664822e-08 7.173317e-08
6.062470e-07 2.411579e-08 -4.080292e-07 -2.436778e-07 -3.387182e-08 5.939434e-08
5.696012e-07 9.056199e-08 -3.951857e-07 -2.886141e-07 -6.259006e-08 1.283103e-08
3.828815e-06 -5.352952e-06 9.737916e-06 3.620400e-06 -4.343510e-07 -1.240285e-06
5.241772e-06 -5.535397e-06 6.849232e-06 1.713401e-06 7.487378e-08 1.054449e-06
5.766908e-07 1.087480e-07 -3.587727e-07 -2.669167e-07 -4.439202e-08 7.043300e-08
-7.672534e-07 2.107234e-06 -8.360429e-07 4.477608e-07 3.890849e-07 1.159801e-08
-7.104928e-07 2.811477e-06 -8.486840e-07 9.785958e-07 3.112607e-07 6.457939e-08
-1.094886e-06 2.809327e-06 -8.417787e-07 5.976766e-08 4.155881e-08 -4.288164e-08
-1.273691e-06 3.240761e-06 -6.035192e-07 1.032572e-06 8.398047e-09 -5.567411e-08
4.601155e-06 -4.138524e-06 2.488298e-06 4.615857e-08 -4.263087e-07 -7.929717e-07
4.559347e-06 -3.337478e-06 1.968079e-06 1.874800e-06 3.479507e-08 7.283213e-07
1.652667e-06 -4.885665e-06 1.440514e-05 4.127082e-06 -1.177568e-06 -3.177846e-06
1.485417e-06 -2.431823e-07 -7.791276e-07 4.581520e-07 6.035788e-08 1.153393e-07
1.247885e-06 -2.626895e-07 -6.849803e-07 5.313290e-07 7.474247e-08 3.016111e-07
1.355937e-06 -2.428458e-07 -7.105127e-07 4.208349e-07 6.584540e-08 3.029789e-07
1.746368e-06 -3.716278e-07 -8.286844e-07 3.408382e-07 6.340062e-08 1.797980e-07
3.315447e-06 -1.500685e-06 2.365044e-06 2.293071e-06 -8.841077e-08 -3.317420e-07
1.587291e-06 -4.270635e-07 -7.791276e-07 5.066674e-07 5.628822e-08 1.196269e-07
-3.291772e-07 8.724963e-07 -3.101051e-07 7.254315e-09 -3.174478e-08 -5.189609e-08
1.567443e-06 -2.626895e-07 -7.878485e-07 6.980228e-07 1.305921e-07 3.648619e-07
1.003819e-06 -1.491230e-07 -5.642994e-07 2.936073e-07 4.739260e-08 2.121870e-07
1.068136e-06 -2.428458e-07 -5.608859e-07 3.319339e-07 4.381997e-08 2.304985e-07
-2.675551e-07 4.756546e-07 -3.318107e-07 1.059371e-08 -1.571897e-07 -9.062015e-08
-2.876740e-07 7.917272e-07 -4.801113e-07 3.831305e-08 -1.404061e-08 -1.155525e-07
1.262738e-06 -2.927997e-07 -6.678689e-07 -4.258816e-07 -4.639546e-09 1.116598e-07
5.472153e-07 -9.193372e-08 -1.699130e-07 2.092592e-08 6.827017e-09 4.946513e-08
1.920728e-06 -4.490856e-07 -8.380417e-07 -4.743719e-07 -1.119596e-07 4.889343e-07
1.725256e-06 -5.550904e-07 -7.095574e-07 -1.723638e-07 -1.064511e-08 2.092994e-07
-2.475706e-07 6.284871e-07 -2.605032e-07 5.098140e-08 7.125475e-08 -5.813308e-08
1.939688e-06 -4.490856e-07 -7.802985e-07 -5.246609e-07 -7.229929e-08 4.448489e-07
2.360438e-06 -8.954512e-07 -8.351413e-07 -8.109618e-07 -1.553214e-07 5.613840e-07
-2.074056e-07 5.541462e-07 -2.462944e-07 -1.971005e-09 9.570679e-08 -7.538071e-08
6.451741e-07 8.348837e-07 -8.890480e-07 1.374893e-06 1.171888e-07 2.126040e-07
7.812571e-07 7.053424e-07 -8.093567e-07 1.216403e-06 3.188990e-07 2.633906e-07
1.130510e-06 6.377790e-07 -8.776627e-07 1.402137e-06 1.613528e-07 1.700076e-07
2.448519e-09 5.705417e-07 -3.791949e-07 4.361381e-08 -1.142257e-07 -3.766117e-08
6.024721e-07 6.155948e-07 -7.908077e-07 9.739935e-07 1.042257e-07 2.983981e-09
4.186679e-07 7.746193e-07 -8.269336e-07 1.241742e-06 4.023162e-07 3.082606e-07
-5.449156e-07 1.374448e-07 6.080152e-06 -5.385529e-06 -3.113252e-07 6.639733e-08
3.145090e-07 -2.990106e-07 4.487850e-06 -4.343891e-06 2.126580e-07 -1.609910e-07
-8.767849e-07 5.169996e-07 6.267375e-06 -5.090781e-06 2.043663e-06 -4.416531e-07
4.038760e-08 5.717295e-07 -4.203935e-07 7.496883e-08 -2.337554e-07 -5.376254e-08
5.968362e-08 7.286437e-07 -6.018972e-07 1.286558e-07 -5.056017e-08 -3.030775e-08
-9.281634e-07 -1.463487e-06 8.300941e-06 6.390169e-06 2.622571e-06 -2.090822e-06
-1.498045e-07 7.710343e-07 -5.079895e-07 2.192041e-08 -5.957848e-08 -1.210429e-07
-8.760177e-08 6.014763e-07 -2.520168e-07 1.704744e-08 -1.324188e-08 -8.747463e-08
2.537262e-06 -1.337915e-06 3.097963e-06 3.577499e-06 -7.498822e-07 -8.023341e-07
-1.099545e-07 4.728988e-07 -2.572223e-07 4.934732e-09 -3.561390e-08 -7.624813e-08
9.202561e-07 5.397142e-07 -5.710478e-07 2.165030e-06 4.406261e-07 3.867081e-07
2.512415e-06 -5.128511e-07 -8.388438e-07 1.143365e-06 1.581217e-07 2.320877e-07
2.228958e-06 -2.501378e-06 3.358215e-06 5.190339e-06 2.876185e-07 6.338907e-07
2.016994e-06 8.212267e-07 6.766774e-07 3.712559e-06 -5.963007e-08 3.461694e-08
-1.698943e-07 2.315093e-06 2.698870e-06 4.689730e-06 3.601593e-07 -3.118456e-07
1.613214e-06 6.086931e-07 -8.644212e-07 1.940513e-06 3.204915e-07 3.920975e-07
2.073513e-06 3.580510e-07 -8.799361e-07 1.968349e-06 1.160511e-07 2.009662e-07
1.953150e-06 -6.316618e-07 1.810565e-06 3.662835e-06 2.261723e-07 -1.899064e-07
1.060146e-09 8.530067e-07 -6.516911e-07 -3.396021e-07 1.159005e-08 -8.520507e-08
3.937535e-06 -2.034296e-06 3.087251e-07 -1.231751e-07 -1.309137e-07 -4.656279e-08
3.214644e-06 -7.098839e-07 -9.013931e-07 2.112044e-06 -2.185754e-07 -2.224503e-07
2.367221e-06 -5.293190e-07 -1.594925e-07 2.518999e-06 -4.889362e-08 2.547412e-07
1.579005e-06 -8.887776e-06 1.414561e-05 4.237914e-06 -8.227295e-07 -1.043921e-07
3.062505e-06 -7.932748e-07 -2.587642e-07 2.203213e-06 -2.928622e-07 -7.251548e-07
4.518689e-06 -2.868719e-06 1.127063e-06 7.865353e-07 -4.326009e-08 -4.196520e-07
6.458711e-07 -4.247348e-07 -4.912079e-07 -4.284883e-07 -6.294775e-07 -2.600028e-07
1.966572e-07 4.673886e-07 -4.251633e-07 2.984761e-07 8.586544e-08 1.066252e-07
2.167062e-07 4.693741e-07 -3.675695e-07 2.776944e-07 1.127344e-08 1.758446e-08
1.216361e-07 4.230371e-07 -2.958232e-07 3.163675e-08 8.406702e-09 2.896849e-08
1.769554e-07 3.314009e-07 -2.327409e-07 1.538071e-08 1.367565e-08 1.644718e-08
1.161344e-07 4.911340e-07 -3.508188e-07 1.463609e-07 5.329670e-08 3.777508e-08
1.955674e-06 -8.414147e-07 -5.009671e-07 1.304399e-08 -1.815919e-07 1.495311e-07
1.397474e-07 -5.031506e-07 -3.537483e-07 1.208041e-10 -4.670082e-07 -6.927878e-07
2.568658e-06 -6.870890e-07 -1.165796e-06 4.801303e-08 -3.664451e-07 -1.505756e-08
-5.850533e-09 7.002091e-07 -4.374070e-07 2.788672e-07 2.657988e-07 1.289429e-07
-1.635012e-07 -8.888325e-07 1.176713e-07 1.535576e-07 -6.368479e-07 -1.042605e-06
2.568658e-06 -9.579437e-07 -1.138118e-06 1.026860e-07 -3.228560e-07 -4.288890e-09
-3.921428e-08 5.384924e-07 -2.484286e-07 4.796521e-09 -8.188324e-08 -1.961019e-08
-3.310202e-09 8.593415e-07 -5.663273e-07 2.980605e-07 4.741570e-08 7.988780e-09
3.120965e-08 6.198978e-07 -4.010419e-07 6.981606e-08 -5.668032e-09 2.135605e-08
-8.242611e-08 4.593225e-07 -2.357837e-07 6.894281e-16 -6.563630e-08 -3.177812e-08
-1.184998e-07 5.112634e-07 -2.737068e-07 -4.387866e-08 -5.811943e-08 -1.152320e-07
-7.730403e-08 7.019006e-07 -3.896943e-07 3.359462e-08 3.025489e-08 4.280831e-08
2.222876e-08 5.978474e-07 -4.290138e-07 1.734485e-07 7.690832e-09 4.764329e-09
3.197813e-08 5.864087e-07 -5.355788e-07 1.631590e-08 -1.282174e-07 1.092371e-09
1.284699e-07 3.506162e-07 -2.355225e-07 9.490602e-08 6.532747e-08 4.336359e-08
-1.010048e-07 9.146713e-07 -5.452846e-07 1.910447e-07 1.632925e-07 4.067707e-08
-8.670825e-09 6.086787e-07 -3.508216e-07 2.704779e-08 2.583206e-08 3.041879e-08
5.019489e-08 4.421759e-07 -4.926920e-07 1.788437e-08 -3.259683e-07 -8.472724e-09
5.969873e-08 5.459613e-07 -3.765903e-07 6.513345e-08 1.896391e-08 9.763411e-09
4.310201e-07 3.246734e-08 -1.563016e-07 -3.394162e-08 -1.142703e-08 9.843803e-09
5.152920e-09 5.999281e-07 -4.357649e-07 2.621102e-08 -1.194163e-07 -1.368289e-08
9.761006e-08 5.962937e-07 -5.268182e-07 1.150985e-07 -2.216920e-07 -6.465790e-08
-1.208756e-07 4.212449e-07 -2.672775e-07 4.427564e-09 -1.687658e-07 -1.153646e-07
-2.212570e-08 4.836320e-07 -2.959519e-07 7.166154e-08 -2.466727e-07 -1.619313e-07
-3.644566e-08 6.014763e-07 -3.630573e-07 -2.966301e-09 -4.277360e-08 -5.628942e-08
-7.518003e-08 4.088119e-07 -2.940653e-07 2.322767e-09 -1.609447e-07 -7.317805e-09
4.688105e-07 1.903349e-08 -2.084919e-07 -7.797156e-08 -3.586182e-08 4.755716e-08
4.106318e-07 5.318738e-08 -1.665613e-07 -5.260059e-08 -3.348887e-09 9.495927e-09
3.554627e-08 5.002968e-07 -4.680276e-07 2.039103e-08 -2.138945e-07 -2.781223e-08
4.625612e-07 1.912870e-08 -1.725485e-07 -7.616674e-08 -2.331358e-08 2.956956e-08
3.007360e-07 1.532109e-07 -1.522191e-07 5.533490e-08 1.358957e-08 1.341354e-08
2.287640e-07 2.094425e-07 -1.636486e-07 8.464405e-08 6.582777e-08 5.471205e-08
3.003957e-07 1.878881e-07 -2.067222e-07 9.444724e-08 3.351965e-08 4.644282e-08
3.039425e-07 2.277189e-07 -2.116676e-07 1.301135e-07 3.549111e-08 3.586404e-08
4.405288e-06 -6.759173e-06 8.730419e-06 -3.447862e-07 -7.582837e-07 -1.865055e-06
-1.231883e-05 -3.095594e-06 4.098727e-05 1.436223e-06 -1.055741e-05 -7.712033e-06
-8.831757e-06 -8.937329e-07 2.122420e-05 4.352064e-06 -4.567614e-06 -6.141341e-07
-8.592868e-06 -1.210909e-06 2.114890e-05 4.491821e-06 -4.853603e-06 -7.223304e-07
-1.012932e-05 -3.195969e-06 4.103156e-05 2.503720e-06 -1.072081e-05 -3.924285e-06
2.379521e-07 2.243316e-07 -1.600195e-07 1.278075e-08 4.317649e-09 1.801500e-08
-3.392678e-08 5.422524e-07 -3.233089e-07 -9.227167e-09 1.685474e-07 -2.192254e-08
-3.214084e-06 4.335499e-06 2.193043e-06 -5.348583e-07 -6.086677e-07 -2.536884e-08
-1.111133e-07 5.106515e-07 -2.102645e-07 -4.272307e-09 2.868034e-08 -4.444766e-08
-2.766678e-06 5.273149e-06 1.999654e-06 -1.778344e-07 4.778348e-07 -1.624121e-07
-3.757398e-06 4.986765e-06 5.060867e-06 -4.831958e-07 -7.627540e-07 -7.854925e-07
2.607957e-07 1.888836e-07 -1.876703e-07 4.071954e-08 1.153266e-08 1.587164e-08
-5.011083e-08 9.400654e-07 -6.743515e-07 5.200272e-07 2.028672e-07 1.383734e-07
3.112994e-07 1.474143e-07 -1.420406e-07 1.114619e-08 9.779582e-10 -1.233797e-10
2.558537e-07 2.854069e-07 -2.898784e-07 1.562126e-07 6.595601e-09 3.205526e-08
3.127127e-07 1.394815e-07 -1.474011e-07 2.612956e-08 5.353704e-09 -1.739679e-09
2.866654e-07 1.757553e-07 -1.708864e-07 4.160317e-08 4.771122e-10 -6.456863e-10
2.779926e-07 1.746049e-07 -1.489786e-07 2.932415e-08 1.031994e-08 7.565634e-09
3.318984e-07 1.375381e-07 -1.404818e-07 3.423864e-09 1.106561e-09 8.224083e-10
3.108231e-07 1.522494e-07 -1.425820e-07 6.777608e-09 3.407161e-09 4.734966e-10
3.210562e-07 1.421975e-07 -1.424060e-07 4.029693e-09 1.322561e-09 1.472976e-09
2.990391e-07 3.299786e-07 -3.266077e-07 2.564503e-07 4.662799e-08 5.266954e-08
2.778848e-07 1.730876e-07 -1.532826e-07 8.074344e-09 1.701887e-09 1.193858e-08
3.441597e-07 2.325450e-07 -2.564103e-07 2.026184e-07 5.293818e-08 5.555239e-08
2.503118e-07 4.383009e-07 -4.413955e-07 3.457978e-07 1.128984e-07 3.926552e-08
4.310233e-07 2.286024e-07 -4.532537e-07 3.680014e-07 5.789908e-08 9.360824e-08
3.216163e-07 4.104836e-07 -5.662439e-07 4.396983e-07 -1.886323e-09 2.127996e-08
-3.317716e-07 1.289644e-06 -7.530656e-07 7.573769e-08 -1.375355e-07 -8.730750e-08
1.358238e-06 -7.641439e-07 -4.674552e-07 -4.136717e-08 2.930245e-07 -6.013310e-07
-2.646114e-07 5.693927e-07 -3.284969e-07 1.037280e-07 -1.140883e-07 -8.624954e-08
-3.283616e-07 6.262063e-07 -3.269309e-07 -1.223604e-07 -1.234111e-07 -6.558888e-08
-4.071156e-07 1.126404e-06 -5.426073e-07 -1.191677e-08 -3.503956e-07 -1.177531e-08
1.538205e-07 7.796285e-07 -6.676531e-07 4.864303e-07 1.731984e-07 4.021216e-08
-2.841632e-07 4.924032e-07 -2.963822e-07 5.030679e-10 -5.079918e-08 -7.684129e-08
-1.766768e-09 5.469046e-07 -2.044350e-07 1.730793e-07 2.051541e-07 1.288341e-07
-2.419106e-07 1.831864e-06 -8.261681e-07 7.323286e-07 2.161207e-07 8.130239e-08
7.517582e-07 -1.393580e-07 -3.294803e-07 5.465772e-08 4.487440e-09 6.030002e-08
-7.641283e-08 3.974438e-07 -2.119420e-07 6.048410e-08 1.726231e-07 1.046608e-07
-7.642281e-08 3.842291e-07 -1.749413e-07 9.571549e-08 2.029866e-07 1.238469e-07
-2.347745e-07 5.630005e-07 -2.591774e-07 2.909782e-09 8.745805e-08 -2.622885e-08
6.370278e-08 6.809170e-07 -5.471795e-07 2.966403e-07 9.835456e-08 6.014462e-08
-2.488729e-07 6.928769e-07 -3.480327e-07 -1.400648e-09 2.890257e-08 -4.644501e-08
-2.519931e-07 7.340433e-07 -2.182037e-07 1.212659e-09 1.416330e-07 -9.947469e-09
3.937878e-07 1.909037e-07 -3.698091e-07 2.509778e-07 2.735892e-08 4.652443e-08
5.347130e-07 1.898314e-07 -3.808038e-07 3.151265e-07 3.097432e-08 3.302534e-08
1.217416e-06 -1.145255e-07 -7.913869e-07 -5.717563e-07 -9.206179e-08 2.050685e-07
-1.365791e-07 3.464316e-07 -2.704235e-07 -1.245877e-08 -3.503123e-07 -1.892442e-07
1.371697e-06 1.110563e-07 -8.926377e-07 -1.246915e-06 -1.905607e-07 1.403484e-07
-7.942288e-08 4.955648e-07 -2.454391e-07 -2.308850e-08 -5.200630e-08 -5.652591e-08
1.255758e-06 2.989846e-07 -8.250706e-07 -1.159122e-06 -2.263408e-07 2.989375e-07
-1.128381e-07 4.207029e-07 -2.563597e-07 7.347827e-09 -1.768729e-07 -1.277393e-07
7.791939e-08 7.916173e-07 -6.373546e-07 2.872679e-07 -3.999149e-07 -2.158350e-07
-4.362758e-07 2.535971e-06 -9.156606e-07 -1.339328e-06 3.230600e-07 -1.443783e-07
-6.404790e-07 2.197904e-06 -9.251881e-07 -7.812644e-07 3.127820e-07 -1.228908e-07
2.260848e-07 2.292170e-07 -1.614553e-07 1.805333e-08 6.696349e-09 1.383350e-08
1.926000e-08 1.943357e-06 -1.005696e-06 -1.202168e-06 4.433470e-07 -2.177152e-07
3.652825e-07 2.428701e-07 -2.697259e-07 2.096025e-07 5.275565e-09 2.551042e-09
2.149043e-07 2.273362e-07 -1.832611e-07 9.950717e-08 6.627286e-08 7.775876e-08
-1.667885e-07 1.604652e-06 -9.603905e-07 -6.921179e-07 1.348578e-07 -9.663312e-08
-7.288239e-07 1.957148e-06 -8.512409e-07 -5.186559e-07 4.077004e-07 -3.402661e-08
2.283891e-07 2.294603e-07 -1.595148e-07 1.100290e-08 7.272471e-09 2.048244e-08
-4.169473e-07 5.942031e-07 -2.852778e-07 -2.795645e-07 -8.092023e-07 -8.593945e-08
-3.103541e-07 2.805299e-07 -3.289360e-07 -3.466665e-08 -9.606691e-07 1.190339e-07
1.516333e-07 2.964949e-07 -1.683164e-07 4.957306e-08 3.134888e-08 5.269544e-08
2.095966e-07 2.629976e-07 -1.914702e-07 8.112675e-08 3.493214e-08 4.136341e-08
-2.818511e-07 3.491132e-07 -3.144221e-07 -1.538572e-08 -3.972573e-07 -2.213401e-09
-5.487306e-07 1.368166e-06 -6.782359e-07 -1.153923e-07 -7.838587e-07 6.725395e-08
1.943308e-07 2.620194e-07 -1.663411e-07 1.199348e-08 7.642690e-09 2.700544e-08
6.013227e-07 -1.159328e-07 -2.000138e-07 -9.944410e-10 -8.712806e-10 9.865167e-09
6.269410e-07 -1.341710e-07 -2.368608e-07 5.018017e-09 -4.659216e-09 4.275075e-08
2.306944e-07 2.595224e-07 -1.853973e-07 3.080956e-08 1.206994e-08 2.330170e-08
1.007419e-07 3.443112e-07 -1.863893e-07 1.025238e-07 9.586841e-08 8.343796e-08
5.670248e-07 -1.424707e-07 -1.984948e-07 -8.731932e-09 -1.160240e-08 1.246482e-07
6.056836e-07 -1.601511e-07 -2.056435e-07 -7.794974e-09 -3.392144e-10 1.147273e-07
-1.748549e-07 6.637405e-07 -3.004764e-07 -6.758771e-09 2.746722e-08 -6.697663e-08
-1.457808e-07 5.227477e-07 -2.167196e-07 -6.917831e-10 6.060818e-08 -7.347871e-08
-1.748110e-07 6.637405e-07 -2.164290e-07 -9.982256e-09 1.445899e-08 -5.647447e-08
2.502606e-07 7.097523e-07 -7.503539e-07 3.354952e-07 -4.031162e-07 -1.649377e-07
4.465709e-07 2.193414e-07 -3.772157e-07 4.574835e-08 -5.182155e-07 4.530715e-09
-1.673264e-07 5.337333e-07 -2.356357e-07 1.445927e-08 1.416823e-07 -7.695952e-08
2.681267e-07 7.820896e-07 -7.881173e-07 -3.361952e-07 1.103666e-07 -2.707737e-08
4.817901e-06 -4.031726e-06 4.093120e-06 -4.025174e-07 -2.946348e-07 7.520787e-07
1.429268e-06 -6.950221e-07 -6.252530e-07 3.330235e-07 -4.376573e-07 -7.241936e-07
6.374385e-07 1.581143e-07 -4.725728e-07 2.381641e-07 -6.247430e-07 -2.605529e-07
-2.343252e-06 3.612352e-06 3.326634e-07 9.871134e-08 2.758117e-07 -8.074617e-09
-4.226557e-06 4.824904e-06 1.999654e-06 6.748326e-07 4.739622e-07 -1.527172e-07
-3.833123e-06 4.961643e-06 1.660971e-06 -1.280424e-06 1.178019e-07 -1.229123e-07
-2.979893e-08 5.241786e-07 -2.988192e-07 2.771628e-08 -1.942478e-07 -4.608651e-08
-2.380699e-06 4.000329e-06 1.913377e-06 -1.384719e-06 2.661178e-08 -8.297717e-08
-8.697591e-07 2.160095e-06 -9.495990e-07 3.269897e-07 -4.977797e-07 -9.030765e-08
-1.178614e-06 2.654167e-06 -1.009579e-06 1.959730e-07 -2.519659e-07 -3.071704e-08
-2.715610e-07 1.013628e-06 -5.581382e-07 1.216769e-08 1.424074e-08 5.770551e-09
-2.892090e-07 1.089516e-06 -5.646499e-07 -5.925029e-09 1.168915e-15 -4.952785e-09
-8.824275e-08 5.714026e-07 -2.904397e-07 1.529559e-08 2.919552e-08 7.371281e-08
1.166688e-07 6.387298e-07 -4.547804e-07 3.245824e-07 1.238455e-07 7.914998e-08
-3.587845e-08 3.604703e-07 -2.407792e-07 1.075848e-07 3.139953e-07 1.740882e-07
-1.125565e-07 5.714026e-07 -3.052171e-07 9.132492e-09 2.480041e-08 5.468241e-08
-4.142253e-08 8.913986e-07 -5.186314e-07 3.059913e-07 6.841502e-08 2.642462e-08
-2.015181e-08 4.938566e-07 -2.255599e-07 7.810559e-08 8.740576e-08 9.796553e-08
5.116796e-07 -4.431927e-08 -1.562140e-07 -7.105256e-09 -8.448870e-09 9.719203e-09
4.734597e-07 -3.039022e-09 -1.487467e-07 -1.575554e-08 -7.296575e-09 9.412285e-09
4.526242e-07 4.507955e-09 -1.553752e-07 -3.935176e-08 -1.352977e-08 2.157010e-08
6.198399e-07 -1.135091e-07 -2.262727e-07 -5.625217e-09 6.722594e-09 5.125462e-09
1.379163e-07 3.607922e-07 -2.471989e-07 6.770166e-08 4.764740e-08 3.883374e-08
2.848637e-07 1.817717e-07 -1.538126e-07 4.047031e-08 1.523558e-08 5.944384e-09
3.066069e-07 1.288096e-07 -1.915909e-07 -8.244228e-08 -6.565062e-08 9.284624e-08
1.922245e-07 2.760619e-07 -2.187253e-07 1.569387e-08 7.105920e-09 3.267546e-08
1.391864e-07 3.596428e-07 -2.233205e-07 3.385693e-08 1.627423e-08 5.556328e-08
3.835874e-07 8.577467e-08 -1.541575e-07 -3.274302e-08 6.614036e-09 -8.836555e-10
3.725699e-07 8.024547e-08 -1.508749e-07 -4.780931e-08 -1.809797e-08 1.974713e-08
3.818425e-07 7.082314e-08 -1.464835e-07 -2.890511e-08 -8.979679e-09 8.812086e-09
3.520174e-07 9.407161e-08 -1.631893e-07 -5.652878e-08 -2.410869e-08 3.299454e-08
3.860028e-07 7.583240e-08 -1.818501e-07 -4.438262e-08 3.982263e-09 7.651368e-10
4.047538e-07 6.470486e-08 -1.719289e-07 -4.199008e-08 9.816940e-10 3.295832e-09
4.116086e-07 4.941395e-08 -1.441944e-07 -7.450042e-09 -4.370837e-10 3.423951e-10
4.293098e-07 3.248875e-08 -1.551508e-07 -4.722400e-08 -1.662561e-08 2.676595e-08
-4.907836e-08 6.086787e-07 -3.755303e-07 3.286576e-08 1.994972e-08 6.306526e-08
2.204514e-07 3.228659e-07 -3.266623e-07 -2.367267e-07 -1.856541e-07 1.374375e-07
2.609246e-07 2.346823e-07 -2.349538e-07 1.230018e-07 5.764983e-08 6.744682e-08
2.093054e-07 2.849810e-07 -2.370147e-07 1.551077e-07 6.894142e-08 5.201371e-08
1.514793e-07 4.199334e-07 -4.159989e-07 -6.863942e-08 -2.553480e-08 7.650459e-08
4.555379e-08 6.396619e-07 -4.764728e-07 -3.562434e-08 -1.485643e-08 1.031430e-07
1.008904e-07 5.190526e-07 -4.931613e-07 -3.561433e-08 -3.494884e-08 5.886996e-08
2.932243e-07 2.443769e-07 -2.156835e-07 -1.969016e-07 -1.191723e-07 1.362059e-07
1.832103e-07 3.396928e-07 -2.779052e-07 -2.005333e-08 -3.040309e-09 7.367267e-08
1.808133e-07 2.403948e-07 -1.729659e-07 9.688707e-08 1.002196e-07 7.964927e-08
5.780099e-07 -1.093240e-07 -1.808812e-07 1.982120e-10 -2.670750e-10 1.045899e-08
5.741039e-07 -1.093289e-07 -1.712782e-07 -5.177786e-09 3.376583e-09 1.539996e-08
6.003424e-07 -1.084956e-07 -2.012857e-07 -1.091932e-08 -7.910062e-09 4.003364e-08
-3.813699e-06 4.915150e-06 4.158969e-06 -1.906771e-06 2.690946e-07 8.628037e-07
-5.222752e-06 8.202885e-07 1.793050e-05 -5.717438e-06 -1.198179e-06 8.062433e-07
-1.130333e-05 3.292585e-06 2.365171e-05 -2.566487e-06 -9.041293e-06 -1.152555e-06
1.570414e-06 -3.061486e-07 -8.614044e-07 -1.072368e-06 -1.301278e-07 3.165164e-07
1.081801e-06 -1.125628e-07 -6.266846e-07 -4.920617e-07 -2.285987e-08 1.253712e-07
7.923010e-07 -4.524532e-09 -6.933106e-07 -5.581472e-07 -1.606228e-07 2.584746e-07
-1.963748e-07 9.028516e-07 -4.859456e-07 -3.044554e-08 6.991304e-17 -4.794749e-09
-5.943369e-07 1.746200e-06 -8.539555e-07 -3.074390e-07 1.239746e-07 -3.215336e-08
5.365905e-07 -6.014798e-08 -1.601093e-07 3.906304e-08 2.063521e-08 4.494978e-08
-5.514941e-07 1.536308e-06 -7.352240e-07 -1.661055e-07 2.987595e-07 -4.313794e-08
5.386915e-07 -5.122445e-08 -1.756468e-07 1.194774e-08 1.629077e-09 3.101994e-09
4.842851e-07 -2.048385e-08 -1.638426e-07 1.251794e-08 5.261328e-09 1.345565e-08
4.535560e-07 9.745016e-09 -1.713125e-07 1.001535e-08 7.800133e-09 5.652801e-09
-8.559291e-07 2.825159e-06 -8.502617e-07 -2.727492e-07 1.118845e-07 4.393140e-08
5.131248e-07 -5.748942e-08 -1.608158e-07 4.241556e-08 8.246718e-09 4.616681e-08
5.426616e-07 -7.534444e-08 -1.648115e-07 6.794021e-09 1.008375e-08 1.019899e-08
8.564685e-08 1.953415e-06 -9.844441e-07 -1.208707e-06 1.768731e-07 -9.449707e-08
5.273313e-07 -6.929035e-08 -1.634885e-07 2.754942e-08 6.433950e-09 4.113184e-08
3.131006e-07 1.422594e-07 -1.651648e-07 -9.717341e-09 -5.736221e-09 2.861279e-08
3.639207e-07 9.517189e-08 -1.509871e-07 -5.788952e-09 -4.981251e-09 1.039125e-08
-6.377451e-07 1.989734e-06 -8.124547e-07 -4.623681e-07 3.650026e-07 -9.750711e-08
2.933339e-07 1.639041e-07 -1.650669e-07 3.203660e-08 -6.072276e-10 5.079322e-09
2.148082e-07 3.171644e-07 -2.533818e-07 1.120755e-07 1.115563e-09 3.740625e-09
3.039425e-07 2.072571e-07 -2.426543e-07 1.417612e-07 9.064114e-09 4.634125e-08
3.494142e-07 1.137397e-07 -1.539735e-07 -7.186653e-09 -3.238588e-09 1.326929e-08
3.412165e-07 1.180186e-07 -1.518949e-07 -9.453160e-09 -6.693421e-09 1.251449e-08
3.337400e-07 1.823936e-07 -2.358100e-07 1.488677e-07 -2.138766e-09 2.647494e-08
2.731492e-07 2.530583e-07 -3.313415e-07 2.012643e-07 5.723387e-08 5.393350e-08
3.330729e-07 2.819618e-07 -4.315045e-07 3.275707e-07 1.608043e-08 2.504758e-08
4.160443e-07 1.000923e-07 -2.382830e-07 1.472175e-07 3.246098e-08 1.720425e-08
1.183357e-08 8.166263e-07 -5.938809e-07 -1.215516e-07 -2.539645e-08 2.006661e-08
-1.176401e-07 9.744415e-07 -6.656281e-07 -6.728959e-08 -2.004579e-08 5.765756e-08
-3.563170e-08 8.365922e-07 -5.831850e-07 -1.743008e-07 -9.324354e-08 1.056147e-07
-1.484515e-07 1.025593e-06 -7.119926e-07 -1.369212e-07 -4.632882e-08 6.720633e-09
3.523987e-08 6.453434e-07 -4.656359e-07 1.195132e-09 -5.947940e-08 1.675388e-09
3.857885e-07 1.277316e-07 -2.831147e-07 1.719910e-07 9.499200e-09 1.921349e-08
3.623443e-07 1.042864e-07 -2.148112e-07 9.105866e-08 -6.808233e-10 -1.252519e-08
-1.868455e-07 8.163126e-07 -6.417525e-07 -1.090917e-07 -1.287437e-07 9.348003e-08
2.311006e-07 5.159122e-07 -4.970615e-07 -2.832090e-07 -1.138670e-07 9.576794e-08
-1.307795e-07 1.238257e-06 -6.557362e-07 -5.621866e-07 -5.061526e-07 2.610810e-07
-1.241259e-07 3.929662e-07 -2.790205e-07 -1.494248e-08 -1.273026e-07 1.582838e-07
5.965213e-07 2.101735e-06 -6.349775e-07 -2.593941e-06 3.290216e-07 -1.597595e-07
1.419605e-06 1.182844e-06 -8.834423e-07 -2.394756e-06 2.409233e-07 -1.815168e-07
-1.868447e-07 5.964353e-07 -3.464544e-07 -3.221314e-07 -7.531252e-07 2.050225e-07
1.241462e-06 2.340256e-07 -1.092128e-06 -1.107394e-07 3.783985e-07 -2.208202e-08
1.733284e-06 2.893594e-07 -1.274620e-06 -1.479322e-06 1.420697e-07 -2.007547e-07
1.219755e-06 1.135643e-06 -1.096195e-06 -1.753681e-06 3.345343e-07 -2.230272e-07
2.962951e-07 9.614901e-07 -9.577225e-07 -1.199152e-06 5.515755e-07 -3.343289e-07
3.245999e-07 9.596627e-07 -9.432857e-07 -8.928524e-07 3.690965e-07 -1.911404e-07
-3.993402e-07 7.635575e-07 -3.485576e-07 -1.827380e-07 -9.153585e-07 1.609029e-07
-3.787806e-07 5.016093e-07 -3.137858e-07 1.158579e-07 -7.785255e-07 2.007539e-07
4.904963e-06 -2.778692e-06 2.735357e-06 1.066846e-06 4.451097e-07 8.292705e-07
5.393295e-06 -3.195051e-06 1.260415e-06 -5.506014e-09 1.344556e-07 4.260350e-07
2.943183e-07 4.539899e-07 -5.921935e-07 -4.517401e-07 -1.800552e-07 1.417280e-07
2.630191e-07 7.268522e-07 -7.542831e-07 -6.228992e-07 -7.248921e-08 7.561374e-08
2.148093e-07 7.045201e-07 -5.327838e-07 -4.610066e-07 -2.600403e-07 2.178036e-07
3.635776e-07 4.664342e-07 -5.091085e-07 -4.444345e-07 -7.537602e-08 5.172557e-08
2.407974e-07 3.015970e-07 -2.680652e-07 -4.879620e-08 -1.918294e-08 5.509477e-08
3.722145e-07 2.708126e-07 -3.216156e-07 -2.291808e-07 -8.086558e-08 8.185750e-08
3.316025e-07 3.970283e-07 -5.071815e-07 -3.208396e-07 -7.248847e-08 9.252712e-08
4.287193e-07 3.426785e-07 -4.163938e-07 -3.578784e-07 -5.801845e-08 5.035448e-08
3.479334e-07 3.681327e-07 -4.599095e-07 -3.386176e-07 -7.624996e-08 1.263017e-07
2.943183e-07 4.907511e-07 -5.443005e-07 -4.123816e-07 -1.286135e-07 1.649419e-07
-5.668539e-07 2.239879e-06 -9.778844e-07 -1.026228e-06 -1.142602e-07 -1.744897e-08
-1.055664e-06 3.123605e-06 -5.698693e-07 -3.497863e-07 -4.603366e-07 9.332125e-08
-3.525635e-07 4.203798e-07 -3.018223e-07 6.474216e-08 -6.554558e-07 2.616563e-07
-1.645457e-06 3.982295e-06 4.520371e-07 -1.335184e-07 -1.171618e-07 1.371172e-07
-4.452258e-07 2.152913e-06 -7.999463e-07 -1.550712e-06 -4.589081e-07 3.072419e-07
-1.918667e-06 4.062401e-06 3.930056e-07 -1.810327e-06 -5.653182e-07 4.025304e-07
-3.993402e-07 1.219399e-06 -7.004486e-07 -2.407795e-07 -7.487675e-07 1.647615e-07
2.555006e-06 -1.446926e-06 3.388517e-07 -7.733329e-07 2.702376e-07 -6.471474e-07
-5.487306e-07 7.999207e-07 -3.138726e-07 -7.836584e-08 -9.656209e-07 7.434912e-08
1.156885e-06 1.309755e-07 1.801972e-06 -3.552145e-06 3.368775e-07 -8.195222e-08
4.639226e-06 -2.866519e-06 3.131270e-06 -2.549230e-06 -1.505126e-07 -4.739206e-07
-4.681136e-07 1.624789e-06 -7.750974e-07 2.012916e-07 3.234425e-07 2.632229e-08
-6.548291e-07 2.277259e-06 -8.165919e-07 1.886776e-07 3.873950e-07 6.853371e-08
-7.815245e-07 2.012945e-06 -8.943804e-07 3.829735e-07 4.632754e-07 6.150102e-08
5.569884e-07 -1.335348e-07 -2.010442e-07 -3.511735e-08 -1.920602e-08 1.205798e-07
5.350918e-07 -6.897958e-08 -1.579931e-07 -6.181302e-09 -7.344034e-09 1.350611e-08
-2.409021e-07 5.598515e-07 -2.213632e-07 -1.614536e-09 4.783374e-08 -1.442004e-08
-2.830254e-07 7.617311e-07 -3.145628e-07 -6.458261e-08 5.305525e-07 -1.433084e-07
-3.186795e-07 6.068294e-07 -3.365022e-07 -1.148193e-07 -1.207337e-07 -1.846550e-08
-8.482993e-07 -1.695208e-06 1.200752e-05 6.119555e-06 1.977245e-07 2.489180e-06
-1.904528e-07 5.173504e-07 -2.725991e-07 1.968085e-08 9.036884e-08 4.512304e-08
-4.151132e-06 3.192346e-06 7.266860e-06 -3.232253e-06 1.339383e-06 -1.211377e-06
-8.767849e-07 2.370035e-06 4.681792e-06 -3.974806e-06 6.808600e-07 -9.756468e-07
-7.423836e-07 2.248489e-06 2.886681e-06 -3.993439e-06 -7.679030e-09 1.168116e-07
-2.173145e-07 8.954849e-07 -3.790505e-07 6.750843e-08 2.890997e-07 7.438751e-08
-4.165646e-06 2.617664e-06 1.162285e-05 -4.619024e-06 3.713621e-06 -1.031352e-06
-1.960073e-06 1.146670e-06 7.275841e-06 -5.442681e-06 1.146324e-06 -5.283852e-07
1.054443e-06 -5.105993e-07 3.793126e-06 -4.367432e-06 6.661308e-07 -5.641881e-07
1.042501e-06 5.122031e-07 7.773534e-07 -3.213688e-06 1.710522e-11 7.542094e-08
2.277007e-07 -4.794675e-07 6.080152e-06 -4.982422e-06 6.969372e-08 3.111922e-07
8.610297e-07 9.009055e-07 2.001561e-07 -3.520662e-06 -2.561894e-07 6.438053e-07
3.878062e-07 9.840892e-07 -8.442900e-07 -7.534353e-07 5.685098e-07 -3.807692e-07
3.572863e-06 -2.020834e-06 1.166787e-06 -1.447686e-06 -4.298309e-07 -8.378151e-08
1.296966e-07 6.074035e-07 -5.073105e-07 2.084960e-07 -3.333036e-07 -1.319178e-07
3.671724e-06 -1.097576e-06 -3.284949e-07 -1.816516e-06 1.616529e-07 3.092306e-08
7.146691e-07 4.470696e-07 -9.492678e-07 -1.047012e-06 6.410831e-07 -6.294752e-07
2.289068e-07 5.263641e-07 -6.150680e-07 -2.334866e-07 4.521103e-07 -1.946248e-07
2.078750e-07 4.189207e-07 -4.586443e-07 -2.669603e-07 5.384639e-07 -1.896833e-07
6.555727e-07 1.746099e-07 -6.939499e-07 -1.430110e-07 5.818465e-07 -1.617055e-07
1.724585e-06 -8.950672e-07 -8.411174e-07 -1.677733e-08 3.202491e-07 7.457875e-08
-1.614775e-08 9.154077e-08 -4.265417e-07 -2.447037e-08 1.007676e-06 -5.924870e-07
7.097445e-07 7.574323e-07 -9.667785e-07 -8.474205e-07 2.889126e-07 -1.558536e-07
-2.763062e-06 4.128585e-06 1.037061e-07 1.167547e-07 4.194401e-07 -7.890333e-09
-2.258015e-06 3.862136e-06 -8.760902e-08 -1.138029e-06 3.541746e-07 -1.433167e-07
-2.333179e-06 4.652447e-06 2.029844e-06 -3.815838e-09 -5.403978e-07 1.286955e-07
-1.544150e-06 3.843514e-06 3.195859e-07 -3.311001e-07 2.688588e-07 5.794687e-09
-4.267107e-06 -1.555624e-05 3.627365e-05 3.486818e-06 -1.240412e-06 -1.895522e-06
-1.045783e-05 -4.338775e-06 2.471999e-05 6.156108e-06 -4.348191e-07 -9.165860e-08
1.423889e-06 -2.997682e-06 7.397005e-06 6.619780e-06 -1.176365e-06 2.982337e-06
6.304364e-08 1.431949e-06 -8.512103e-07 -8.206318e-07 2.957329e-07 -9.448425e-08
9.842595e-10 1.232333e-06 -8.784787e-07 -8.508839e-07 3.675963e-07 -1.119602e-07
4.590856e-07 1.140436e-07 -3.110494e-07 2.317920e-07 5.816779e-08 4.281104e-08
1.559619e-06 -5.998644e-06 9.898137e-06 -2.887836e-06 2.874290e-07 2.685406e-07
4.313654e-07 1.531597e-07 -3.167072e-07 2.448310e-07 4.576560e-08 4.286304e-09
4.061439e-07 1.488591e-07 -3.699756e-07 2.587480e-07 3.013548e-08 4.649371e-08
7.990048e-07 -1.455776e-07 -3.926457e-07 1.869713e-07 3.274131e-08 1.083580e-07
-4.059046e-06 5.115092e-06 3.247570e-06 9.485371e-07 3.176671e-07 -3.730959e-09
-2.754672e-07 -1.106499e-05 2.411147e-05 4.978273e-06 -2.119418e-07 -6.084180e-06
4.205331e-06 -3.623990e-06 6.251059e-06 2.909522e-06 5.474061e-07 3.747270e-07
-1.009019e-07 1.095528e-06 5.315352e-06 4.891397e-06 -9.253992e-07 -7.368035e-07
6.367458e-07 -8.460961e-08 -2.792029e-07 9.869767e-08 6.886859e-09 1.339974e-08
-9.864011e-07 -2.888800e-06 1.739243e-05 5.575210e-06 -2.918162e-06 -1.724882e-06
-3.126154e-06 -2.153679e-06 1.775939e-05 6.195994e-06 -4.089175e-06 -4.711697e-06
5.287653e-07 1.834159e-08 -2.615364e-07 1.653943e-07 2.624358e-08 6.599895e-08
5.814244e-07 -4.403158e-08 -2.669153e-07 1.358190e-07 1.819437e-08 4.494621e-08
5.677271e-07 1.834159e-08 -3.054715e-07 1.940962e-07 5.052929e-08 5.652024e-08
2.819056e-08 6.736929e-07 -5.227572e-07 3.322136e-09 -2.031001e-08 -4.440890e-16
4.955127e-07 1.377588e-08 -2.300562e-07 8.720227e-08 4.532506e-09 8.705916e-10
5.813881e-07 6.874683e-09 -3.313727e-07 1.830698e-07 8.358938e-09 3.327855e-08
5.483198e-07 -5.526618e-08 -1.920005e-07 4.088793e-08 5.307607e-09 3.246580e-08
5.609591e-07 -1.034725e-08 -2.982288e-07 1.418048e-07 2.124684e-08 7.271129e-08
5.314530e-07 8.999549e-09 -2.461790e-07 1.423216e-07 7.560161e-09 2.802718e-08
5.210903e-07 -3.476493e-08 -1.909102e-07 -1.657262e-08 -1.415824e-09 4.249595e-09
-2.200912e-07 9.764058e-07 -5.335635e-07 3.076870e-08 1.541759e-08 1.677349e-08
-1.687601e-07 9.641479e-07 -5.335372e-07 1.447044e-07 3.161437e-08 1.199749e-08
1.783833e-06 -3.038081e-07 -7.471205e-07 -1.706669e-06 -1.369269e-07 2.679456e-07
4.823749e-07 -9.512402e-09 -1.814312e-07 -1.960021e-08 1.873885e-09 5.297114e-09
5.309153e-07 -4.397645e-08 -1.922110e-07 -1.009336e-08 2.287525e-09 3.979118e-16
2.250526e-06 -5.485171e-07 -8.207050e-07 -1.314863e-06 -9.543839e-08 3.889805e-07
1.637765e-06 -3.043104e-07 -8.666291e-07 -1.010903e-06 -1.370401e-07 3.344979e-07
4.357353e-07 1.774164e-07 -3.786542e-07 2.957998e-07 3.714576e-08 4.153241e-08
4.301279e-07 1.833057e-07 -2.716398e-07 2.369733e-07 5.825719e-08 6.733526e-08
3.619787e-07 2.147222e-07 -2.961820e-07 2.080450e-07 1.961395e-08 1.679082e-08
3.565219e-07 1.426929e-07 -2.830592e-07 1.786181e-07 3.606711e-08 3.813805e-08
4.538594e-07 1.623037e-07 -2.832954e-07 2.256432e-07 2.742901e-08 3.503822e-08
3.443869e-07 1.995515e-07 -3.299279e-07 2.435642e-07 5.650861e-08 5.879145e-08
4.778594e-07 5.481344e-08 -2.583542e-07 1.399771e-07 6.139703e-09 4.751731e-08
4.961781e-07 5.382335e-08 -2.947932e-07 1.627266e-07 9.856596e-09 2.688165e-08
-2.251584e-07 9.454831e-07 -5.478364e-07 -6.161449e-08 7.524751e-09 1.292702e-09
5.310456e-07 -2.193163e-08 -2.154031e-07 5.797706e-08 7.147832e-09 2.886264e-08
5.481548e-07 -5.507989e-08 -1.968174e-07 -1.057892e-08 -4.964396e-09 4.522793e-09
5.143887e-07 -4.266989e-08 -1.699509e-07 -8.769757e-09 -6.762481e-09 3.731078e-09
5.654532e-07 -5.785963e-08 -2.269035e-07 -6.312284e-08 -1.825396e-08 2.354045e-08
4.989382e-07 -2.349074e-08 -1.958536e-07 -4.046803e-08 -1.679631e-08 2.508479e-08
3.205992e-07 1.332378e-07 -1.410449e-07 6.417094e-09 -1.056435e-09 1.671094e-10
4.422838e-07 3.505686e-08 -1.732809e-07 2.055959e-08 3.405108e-09 -2.596969e-09
4.626826e-07 3.701504e-08 -1.775299e-07 6.043131e-08 1.388427e-08 2.663715e-08
4.717498e-07 9.942553e-09 -1.783451e-07 1.268644e-08 -3.323770e-09 -5.284230e-16
5.889335e-07 -8.818186e-08 -2.259853e-07 -4.455057e-08 -1.128801e-08 5.249136e-08
5.558827e-07 -8.912063e-08 -1.760902e-07 -3.316632e-09 -3.333234e-09 8.833003e-09
5.876799e-07 -1.310237e-07 -1.900679e-07 -7.088123e-09 -2.938017e-08 9.939784e-08
6.293855e-07 -1.243022e-07 -2.400010e-07 -1.570425e-08 -6.440994e-09 6.291246e-08
3.073312e-07 1.433205e-07 -1.456131e-07 6.512927e-09 1.077560e-15 -2.507567e-09
3.157340e-07 1.350760e-07 -1.405522e-07 4.351352e-09 2.826389e-09 2.358586e-09
3.160085e-07 1.314950e-07 -1.412903e-07 1.583874e-09 6.155506e-12 -1.712769e-09
3.362382e-07 1.230771e-07 -1.403091e-07 1.342101e-08 1.383260e-09 2.385910e-09
3.202477e-07 1.402726e-07 -1.400379e-07 7.841287e-09 9.522067e-10 2.712468e-11
3.105666e-07 1.529644e-07 -1.455901e-07 3.461176e-09 -9.248203e-11 4.147013e-09
3.009189e-07 1.529644e-07 -1.478002e-07 5.686655e-09 7.951180e-10 -5.476529e-10
3.038223e-07 1.686655e-07 -1.650243e-07 7.220698e-08 2.156367e-08 3.098392e-08
2.857510e-07 1.780031e-07 -1.548768e-07 3.311819e-08 7.848879e-09 5.827283e-09
2.960889e-07 1.648377e-07 -1.463053e-07 1.073684e-08 -1.954002e-10 -5.507859e-10
-1.645705e-08 8.322078e-07 -6.920501e-07 -3.024381e-07 1.820890e-07 -6.559458e-08
1.145729e-07 6.688964e-07 -6.284432e-07 -2.244360e-07 1.975222e-07 -5.064204e-08
-2.908227e-08 7.402363e-07 -5.759591e-07 -2.082706e-07 5.590540e-08 -1.649089e-08
-6.540716e-07 1.980183e-06 -8.863812e-07 6.256494e-07 -3.334683e-07 -8.751304e-08
-6.138099e-07 2.146198e-06 -1.011084e-06 8.321609e-07 -1.688791e-07 -7.845857e-08
-3.866464e-07 1.592686e-06 -9.127686e-07 3.033087e-07 -8.029915e-08 1.941930e-08
-5.272029e-07 2.190068e-06 -9.883921e-07 3.792942e-07 -1.110997e-07 3.023142e-09
3.265982e-07 1.436659e-07 -1.549499e-07 6.006131e-08 1.554056e-08 1.416300e-08
3.079735e-07 1.411368e-07 -1.458092e-07 1.033464e-08 1.381298e-11 1.525200e-09
2.703412e-07 2.062205e-07 -1.669329e-07 8.003842e-08 3.278972e-08 2.790239e-08
2.129350e-07 2.422307e-07 -1.797444e-07 1.125856e-07 5.791054e-08 4.255850e-08
-3.389997e-07 1.409036e-06 -6.983195e-07 4.617804e-07 -6.380025e-07 -1.817853e-07
-1.589806e-07 5.231885e-07 -2.075230e-07 -4.139868e-09 3.499021e-08 -6.862792e-08
-3.841680e-07 1.590552e-06 -8.582710e-07 1.615770e-07 -5.483513e-08 -3.253611e-08
-1.012836e-07 5.489722e-07 -2.231102e-07 -4.348274e-08 1.331881e-07 -1.013032e-07
-5.156235e-07 2.008338e-06 -9.540688e-07 2.703653e-07 -1.511070e-07 -2.968380e-08
-2.369995e-07 1.015823e-06 -6.073264e-07 1.216305e-07 -8.967227e-08 -1.027635e-07
-1.206628e-07 4.854314e-07 -2.171145e-07 -1.700904e-08 1.017812e-07 -5.076452e-08
-1.313596e-07 5.557057e-07 -2.215584e-07 2.239665e-08 3.834905e-08 -6.588071e-08
-1.485873e-07 6.516266e-07 -2.986377e-07 -2.140993e-08 4.216915e-08 -7.156841e-08
-3.642690e-07 1.601965e-06 -9.097590e-07 5.412427e-07 -1.157415e-07 -6.360327e-08
-5.982415e-07 1.855842e-06 -9.536265e-07 4.333753e-07 -1.299843e-07 -4.772288e-08
3.980847e-08 1.330229e-06 -9.139981e-07 -8.246195e-07 -2.533087e-07 1.431820e-07
-2.516327e-07 5.572617e-07 -2.411263e-07 1.361878e-09 5.526227e-08 7.246632e-09
-2.447109e-07 6.111600e-07 -2.490030e-07 4.300329e-08 6.371608e-08 -3.785342e-08
6.752940e-08 9.908103e-07 -7.215204e-07 -5.614539e-07 -8.976749e-08 5.667849e-08
-3.374161e-08 6.305182e-07 -4.233999e-07 -1.339036e-07 -2.410425e-07 2.202426e-07
-5.286719e-07 1.767698e-06 -8.781091e-07 -8.031054e-07 -3.652729e-07 1.355187e-07
-2.548631e-08 1.239253e-06 -7.710610e-07 -7.442801e-07 -1.934798e-07 1.224446e-07
-2.519941e-07 5.586030e-07 -2.243594e-07 2.465116e-09 4.572058e-08 -8.655007e-09
-1.818076e-07 1.272370e-06 -8.257713e-07 -5.060526e-07 -1.912502e-07 6.929651e-08
6.634879e-08 1.110674e-06 -7.963353e-07 -8.443949e-07 -3.076481e-07 1.472187e-07
-2.517555e-07 7.341139e-07 -2.528581e-07 4.169577e-09 1.385644e-07 5.647652e-09
-3.943543e-07 1.938171e-06 -9.346723e-07 6.932065e-07 2.355387e-07 8.915091e-08
-5.567512e-07 2.094457e-06 -8.193700e-07 4.898065e-07 3.869847e-07 9.556004e-08
-9.655443e-07 2.719488e-06 -8.756957e-07 5.017580e-07 6.293513e-08 -5.238293e-08
-2.259554e-07 6.029398e-07 -2.508202e-07 -4.891368e-08 6.422223e-08 -3.224707e-08
-2.736648e-07 8.896174e-07 -4.140819e-07 3.302460e-08 5.321680e-08 -1.447042e-08
-9.622412e-07 2.125444e-06 -8.139873e-07 4.149786e-07 3.669715e-07 8.632322e-08
1.429198e-06 -6.087068e-07 -8.727190e-07 -2.027206e-08 4.484353e-07 5.099769e-08
3.126739e-06 -7.817816e-07 -8.775506e-07 6.091158e-07 9.008371e-08 3.390766e-07
-5.068639e-08 1.281755e-06 -8.167075e-07 8.284913e-07 6.984053e-08 7.855472e-08
1.413436e-08 9.953058e-07 -6.201658e-07 4.583302e-07 1.475163e-07 9.266079e-08
-2.111025e-08 9.746788e-07 -6.711282e-07 5.598539e-07 1.535163e-07 6.606382e-08
4.202473e-07 5.330360e-07 -6.321236e-07 6.401034e-07 9.296385e-08 2.378723e-09
2.351936e-06 -9.483686e-07 -6.054159e-07 1.277630e-06 1.591102e-07 2.996910e-07
4.395698e-07 6.988642e-07 -6.827651e-07 8.010744e-07 1.861735e-07 1.703184e-07
5.282974e-07 2.724200e-07 -5.394427e-07 4.878619e-07 7.195710e-09 9.681371e-08
2.927181e-06 -9.544237e-07 -6.317539e-07 1.577685e-06 1.740784e-07 -3.622902e-08
5.299979e-07 6.750198e-07 -7.571015e-07 9.514512e-07 2.334273e-07 3.051519e-07
2.912919e-06 -9.575223e-07 1.807748e-07 1.732774e-06 2.963625e-07 4.529091e-07
-1.533873e-06 2.810293e-06 4.936458e-07 -1.849428e-06 6.000008e-07 -1.423720e-07
9.006247e-07 5.147045e-07 -7.770715e-07 1.012247e-06 6.596357e-08 8.969360e-08
6.712850e-07 6.908610e-07 -9.054927e-07 1.455372e-06 1.826972e-07 1.451917e-07
1.336238e-06 8.712222e-07 -9.048057e-07 1.982738e-06 1.023231e-07 1.242875e-07
1.126733e-06 4.475318e-07 -8.940062e-07 1.471152e-06 7.770732e-08 2.211933e-07
-7.400848e-06 4.515422e-06 8.802202e-06 -8.347534e-07 -1.967375e-07 -7.424891e-08
-1.519863e-06 3.483402e-06 1.547370e-07 -1.655083e-06 4.012687e-07 -1.263983e-07
-5.896172e-06 6.156957e-06 4.047098e-06 1.182021e-06 4.015299e-07 8.775561e-07
2.513359e-07 4.468881e-07 -3.923586e-07 3.107164e-07 7.474458e-08 6.419972e-08
-6.842536e-06 1.656647e-06 1.720445e-05 3.983710e-06 4.475129e-07 1.572740e-08
9.933404e-08 5.241763e-07 -3.848659e-07 1.760668e-07 4.300951e-08 1.301267e-08
-1.093765e-06 3.001462e-06 2.736053e-06 4.525619e-06 8.084020e-07 4.242387e-07
5.083439e-06 -3.295071e-06 3.287337e-06 -1.856614e-06 5.827956e-08 1.930774e-07
-9.274085e-07 1.608036e-07 8.715889e-06 5.747383e-06 1.234335e-06 9.997342e-07
-1.353682e-06 3.902503e-07 7.844318e-06 5.438906e-06 5.492583e-07 5.034238e-07
1.432931e-06 -1.875176e-07 -7.815320e-07 7.556115e-07 2.810372e-08 1.626706e-07
1.751171e-06 -2.491147e-07 -8.620726e-07 7.942859e-07 7.835620e-08 1.422769e-07
4.590331e-06 -1.988824e-06 6.119503e-07 -1.803417e-06 -7.656245e-08 3.587957e-07
2.926285e-06 -1.116845e-06 2.682364e-08 -1.941872e-06 2.672275e-07 -5.643538e-08
4.571070e-07 -2.133301e-08 -1.764390e-07 -7.681848e-08 -2.817501e-08 6.171884e-08
-1.418889e-05 -1.374560e-05 4.205580e-05 -5.089347e-06 7.732745e-07 -1.075623e-06
-1.401705e-05 -1.156455e-05 4.796454e-05 -4.898792e-06 2.480910e-06 -4.072356e-06
-1.881690e-05 -1.166683e-05 4.785957e-05 -1.250330e-06 2.314656e-06 -2.693329e-06
1.264318e-07 3.568437e-07 -2.731299e-07 9.755610e-08 6.661428e-08 5.486112e-08
-1.985597e-05 -1.653468e-05 5.419051e-05 1.245649e-06 1.392849e-06 6.861517e-08
3.554627e-08 4.980689e-07 -2.711635e-07 2.436173e-08 -2.074252e-07 -2.765505e-10
2.235654e-07 2.880215e-07 -2.730002e-07 1.462529e-07 9.316567e-08 9.376176e-08
2.808992e-06 -3.020326e-07 5.279779e-07 3.119396e-06 8.571536e-08 2.736451e-07
1.385161e-06 1.278101e-06 -5.701846e-07 2.767437e-06 2.279316e-07 1.731253e-07
1.417995e-06 -1.262640e-08 5.980588e-07 2.993679e-06 5.005097e-07 5.961346e-07
8.106913e-07 1.538182e-06 -4.413579e-07 2.733182e-06 5.021131e-07 4.415844e-07
5.755590e-06 -6.804028e-06 1.063457e-05 1.962884e-06 -1.342279e-06 -3.010898e-06
1.119785e-07 4.230196e-07 -2.609018e-07 1.343930e-07 1.071057e-07 9.030065e-08
5.508728e-07 -1.089833e-05 2.443433e-05 9.393510e-07 -1.885798e-07 -3.450708e-06
4.412192e-06 -5.524885e-06 9.056298e-06 1.688113e-06 -7.711068e-08 -2.128310e-06
3.602351e-06 -2.170642e-06 7.071240e-06 3.441704e-06 -5.197079e-07 -1.130358e-06
5.211013e-06 -5.369289e-06 6.251059e-06 2.545926e-06 4.283666e-07 4.436304e-07
1.653011e-07 3.156237e-07 -1.947057e-07 1.548320e-07 1.386547e-07 1.026149e-07
3.148783e-06 -2.889498e-06 7.077519e-06 4.784929e-06 -5.937202e-07 -1.806954e-06
-2.884475e-08 2.905500e-07 -2.819483e-07 -3.011566e-08 -3.645150e-07 -1.327029e-07
1.528858e-06 1.702941e-07 -1.313561e-06 1.977198e-07 -1.982286e-07 -1.228731e-08
1.928207e-06 5.571460e-09 -1.371303e-06 2.193599e-07 -1.003914e-07 -4.426574e-14
-9.884224e-06 -1.247794e-05 3.801502e-05 2.470975e-06 -4.289075e-06 -7.632064e-06
-4.340262e-07 -1.061115e-05 2.411181e-05 3.690770e-06 -1.511374e-07 -6.084185e-06
-3.861084e-06 -1.498186e-05 4.840827e-05 -2.889529e-07 1.833165e-06 -1.214751e-05
5.403153e-06 -6.739872e-06 8.361367e-06 5.912559e-07 -6.594634e-09 -1.688690e-06
-8.649418e-08 4.790301e-07 -2.346051e-07 -2.267784e-09 1.004898e-07 -6.105711e-09
1.666625e-06 -5.370624e-06 1.414562e-05 2.444280e-06 -1.574168e-06 -8.557196e-08
5.756391e-06 -6.768013e-06 1.421309e-05 -7.641262e-07 1.100951e-06 -5.310051e-06
9.182471e-07 -1.625812e-09 -5.497986e-07 -5.715148e-07 -7.240147e-08 1.268951e-07
1.901578e-07 -2.657246e-08 -4.460440e-07 1.429205e-07 6.205913e-07 -9.050982e-08
1.568117e-06 1.517741e-07 -8.416196e-07 -1.178625e-06 -1.658525e-07 2.514074e-07
-1.195769e-08 1.355798e-07 -3.472307e-07 -1.239677e-08 4.779081e-07 -3.258699e-08
1.159097e-09 5.291095e-08 -3.709034e-07 -5.633783e-09 5.408310e-07 -1.250174e-07
1.114733e-07 5.939481e-07 -5.355089e-07 9.186241e-08 -1.770919e-07 -7.543115e-08
-1.941055e-06 3.547361e-06 -5.468300e-07 -6.315647e-07 7.112201e-07 -1.445113e-07
-3.921428e-08 5.404311e-07 -4.111626e-07 6.761862e-09 -8.140360e-08 -1.110805e-09
-1.389430e-06 3.597924e-06 -6.745858e-07 -1.786624e-06 3.278343e-07 -1.766017e-07
-1.112730e-06 3.619992e-06 6.450237e-08 -1.229326e-06 3.049435e-07 -9.683976e-09
-1.544178e-06 4.414120e-06 3.847207e-07 -2.395557e-06 2.936462e-07 -1.054645e-07
-2.564918e-06 3.998137e-06 8.268579e-07 -6.538935e-07 3.453586e-07 5.004317e-08
-4.196932e-06 3.755814e-06 6.824669e-06 -2.574173e-06 -7.418300e-07 3.396511e-07
-5.152979e-06 4.657164e-06 6.023310e-06 -1.184624e-06 2.127768e-08 3.589453e-07
-9.197772e-07 3.105002e-06 -1.258216e-07 -2.090734e-06 3.169598e-07 -5.674860e-08
-4.196910e-08 6.433521e-07 -4.259281e-07 1.677017e-07 1.925636e-07 9.078114e-08
-2.877452e-06 2.430531e-06 8.342779e-06 -4.941000e-06 1.391838e-07 -3.662320e-08
-5.079277e-06 4.272351e-06 6.011015e-06 -1.990407e-06 -2.695105e-06 1.688134e-06
-4.181287e-06 4.054083e-06 7.079864e-06 -2.471265e-06 1.942568e-07 -3.265603e-07
1.216361e-07 4.173724e-07 -2.687834e-07 2.198991e-08 1.841502e-08 2.562479e-08
-8.670825e-09 6.365954e-07 -3.977916e-07 4.322803e-08 1.245390e-08 2.923954e-08
2.946673e-08 5.851409e-07 -3.777516e-07 3.752023e-08 -4.095193e-16 4.606820e-10
4.999603e-08 6.376410e-07 -4.458347e-07 2.020904e-07 5.107165e-08 3.215660e-08
-6.983506e-06 4.373070e-06 1.273158e-05 -7.006937e-07 -3.127555e-07 -4.689664e-07
-9.873689e-08 8.793370e-07 -5.177117e-07 3.274238e-07 3.316547e-07 1.475618e-07
-3.266596e-08 4.172618e-07 -2.270800e-07 2.458036e-08 5.082056e-08 7.115430e-08
-7.058800e-06 2.319412e-06 1.497520e-05 -4.431300e-06 -3.205165e-06 6.371872e-07
-8.213791e-06 1.395067e-06 1.613622e-05 -2.652592e-06 -3.758571e-07 2.579225e-07
-4.739101e-06 2.424627e-06 1.196248e-05 -4.834595e-06 6.942584e-08 1.719448e-06
2.819056e-08 6.834472e-07 -5.615412e-07 0.000000e+00 -4.656722e-09 3.171978e-09
-6.222190e-08 6.420160e-07 -3.711761e-07 -9.488612e-09 1.021877e-16 -5.384753e-09
1.856232e-07 2.812701e-07 -1.935220e-07 1.627832e-08 2.128891e-09 2.840308e-08
5.841034e-07 -7.647912e-08 -2.112029e-07 9.040007e-09 -2.003603e-09 -3.622518e-17
4.390303e-07 4.540554e-08 -1.858568e-07 8.051302e-08 1.303671e-08 3.901167e-08
2.669214e-07 1.962502e-07 -1.531783e-07 9.798519e-09 4.347552e-09 1.014940e-08
3.039425e-07 2.271961e-07 -2.160044e-07 1.300334e-07 3.909794e-08 3.691896e-08
6.268214e-08 3.798766e-07 -1.973565e-07 4.015663e-08 3.158324e-08 5.168084e-08
1.328166e-07 4.634259e-07 -3.449863e-07 2.255709e-07 1.571487e-07 1.081705e-07
-1.412776e-07 9.601795e-07 -6.042298e-07 2.230303e-07 6.640897e-08 -1.897256e-08
8.079278e-08 5.082958e-07 -3.732920e-07 2.245535e-07 7.683257e-08 5.863920e-08
5.190205e-07 -3.659641e-08 -1.857065e-07 1.071451e-08 7.132434e-10 4.945759e-09
1.046042e-07 4.539126e-07 -3.817247e-07 2.081885e-07 1.930597e-07 1.550613e-07
-2.283885e-07 3.559187e-07 -3.135893e-07 -8.282816e-09 -5.589611e-07 2.148868e-07
2.862299e-08 4.683138e-07 -2.782001e-07 2.678401e-08 -2.897083e-07 -7.938174e-08
-4.142253e-08 7.838078e-07 -4.981846e-07 2.146189e-07 5.437824e-08 3.020114e-08
-2.172716e-07 7.195326e-07 -6.170070e-07 -3.414377e-07 -3.865901e-07 2.433975e-07
2.331640e-08 5.725309e-07 -4.261431e-07 2.493188e-07 2.341883e-07 1.750033e-07
3.680685e-07 8.672832e-08 -1.476964e-07 -9.193319e-09 -9.804357e-10 6.653491e-09
-4.714423e-08 5.674429e-07 -3.319462e-07 -3.538721e-07 -6.012436e-07 2.546488e-07
-1.491518e-07 4.815836e-07 -2.509540e-07 2.113255e-08 1.084362e-07 6.471042e-08
-1.654889e-07 4.987479e-07 -2.387252e-07 9.464595e-09 4.529447e-08 4.975180e-08
9.204928e-08 2.285207e-07 -3.709606e-07 -1.168453e-07 -5.001178e-07 -6.478567e-08
3.849991e-07 7.357902e-08 -1.444062e-07 -2.832551e-09 -8.527575e-10 1.999133e-09
3.843961e-07 8.098796e-08 -1.695647e-07 -5.248177e-08 -2.147957e-08 1.390428e-08
-5.011978e-08 2.914720e-07 -2.953249e-07 2.561813e-09 -3.670573e-07 -7.921357e-08
-9.575247e-08 7.154840e-07 -4.955835e-07 2.860542e-08 -9.768933e-08 -1.190724e-07
5.399034e-07 -6.623562e-08 -1.605003e-07 9.450809e-09 3.587880e-09 7.238965e-09
2.030610e-07 5.085423e-07 -7.433569e-07 4.485218e-07 -6.079278e-07 -3.377444e-07
-8.875761e-08 2.908148e-07 -2.898935e-07 1.455151e-08 -3.688385e-07 -8.970205e-08
-1.537138e-07 7.312649e-07 -3.714159e-07 1.465484e-07 2.097871e-07 1.549304e-07
-7.671538e-09 4.250704e-07 -2.148762e-07 3.857012e-08 4.064771e-08 5.265906e-08
-1.957232e-08 4.985350e-07 -2.626178e-07 1.457907e-08 2.212009e-08 7.236983e-08
7.468827e-08 7.920577e-07 -6.752974e-07 -3.285774e-07 4.668847e-08 -2.389281e-08
-7.652207e-08 3.822243e-07 -2.760539e-07 -1.763850e-08 -3.040387e-08 1.390270e-07
-3.636271e-10 5.369511e-07 -3.922116e-07 -7.264071e-08 1.050460e-08 1.189301e-07
1.321204e-07 4.797285e-07 -4.466557e-07 -2.886507e-08 2.944099e-07 -5.491438e-08
2.006262e-07 1.982403e-07 -3.459896e-07 -8.993181e-08 4.855725e-07 -1.663521e-07
7.374962e-07 4.375201e-07 -9.290439e-07 -7.960921e-08 3.540115e-07 -2.403689e-08
2.311948e-07 3.108311e-07 -6.092900e-07 -6.974982e-09 4.961680e-07 -2.594246e-08
4.652516e-07 5.646804e-07 -7.736008e-07 -7.342384e-08 3.069938e-07 -2.410650e-08
8.457496e-07 -1.566516e-07 -4.231011e-07 -1.412497e-07 3.097186e-09 2.901691e-08
7.504072e-08 6.742636e-07 -5.924556e-07 -1.365206e-07 3.962801e-08 -7.019396e-09
5.461829e-06 -5.498638e-06 9.435953e-06 1.821998e-06 -1.281579e-07 1.473806e-06
4.975120e-07 -2.248500e-08 -1.667105e-07 -3.719258e-08 -6.981417e-09 2.866109e-08
2.364421e-06 -2.904893e-06 5.701041e-06 4.963613e-06 4.985563e-07 4.307956e-07
3.205267e-07 5.695408e-07 -6.060091e-07 5.724512e-07 4.574051e-08 1.020314e-07
-1.142969e-07 3.177779e-07 -2.912172e-07 1.984074e-08 -3.708695e-07 -1.729672e-07
2.721500e-07 4.143101e-07 -5.008577e-07 1.599194e-07 -4.199824e-07 -1.167342e-07
3.107627e-07 5.547743e-07 -4.918706e-07 5.193607e-07 1.068605e-07 1.049121e-07
4.366502e-07 3.755588e-07 -4.315045e-07 4.413197e-07 6.067338e-09 1.897213e-08
3.814465e-07 4.144242e-07 -4.247069e-07 4.066635e-07 5.496687e-08 4.739006e-08
-2.273910e-07 6.932376e-07 -3.229335e-07 -7.870523e-09 3.009792e-08 -5.412103e-08
2.870767e-07 3.906932e-07 -5.196313e-07 4.238157e-07 1.601201e-07 1.193914e-07
3.264671e-07 3.154044e-07 -3.279211e-07 2.751870e-07 7.254023e-08 7.548512e-08
1.966572e-07 4.632076e-07 -4.723941e-07 3.357075e-07 1.204406e-07 8.004847e-08
6.475758e-08 6.357159e-07 -5.467599e-07 3.593407e-07 9.844591e-08 6.609681e-08
3.297278e-07 1.296476e-07 -1.392702e-07 2.460376e-09 -2.321438e-10 7.684500e-11
3.360237e-07 1.303674e-07 -1.394656e-07 -3.488339e-10 7.544159e-10 1.024760e-09
3.192431e-07 1.401938e-07 -1.458249e-07 9.444970e-09 -3.919690e-10 2.529688e-09
-3.306847e-07 8.879144e-07 -5.796829e-07 8.117309e-08 -2.571401e-07 -1.008739e-07
3.273449e-07 1.245060e-07 -1.368119e-07 3.019647e-13 3.341999e-10 3.074736e-10
5.211292e-07 -2.727672e-08 -1.987155e-07 2.305080e-08 4.620621e-09 -4.470601e-09
4.262329e-07 3.548843e-08 -1.615903e-07 4.655709e-08 1.136427e-08 1.310904e-08
-1.063620e-06 3.077356e-06 -8.823931e-07 1.437272e-07 -7.388042e-07 2.493988e-08
-1.518203e-06 3.218015e-06 -5.006932e-07 -1.425643e-06 -7.543647e-07 1.199778e-07
5.134730e-07 -3.268338e-08 -1.844104e-07 -1.156049e-08 -1.140758e-08 5.496082e-09
4.962570e-07 -3.363411e-08 -1.621725e-07 -2.837503e-08 -1.060467e-08 3.584358e-08
4.760294e-07 -3.910060e-09 -2.114300e-07 -7.381244e-08 -2.721974e-08 4.440063e-08
4.925450e-07 -1.078501e-08 -1.809852e-07 -1.063706e-08 1.811428e-09 -4.826260e-16
5.117301e-07 -2.837624e-08 -1.897664e-07 -2.339728e-08 1.308316e-09 7.954350e-10
3.579969e-07 1.082681e-07 -1.523207e-07 -9.450591e-09 -1.163444e-09 9.308653e-09
3.746329e-07 9.716688e-08 -1.498413e-07 -5.015874e-09 -1.515135e-09 6.891875e-09
6.757241e-07 -9.456752e-08 -2.986972e-07 1.071160e-07 2.756099e-08 6.801827e-08
-1.196519e-07 2.016692e-06 -1.038299e-06 1.246832e-06 -1.949788e-07 -1.908977e-07
5.521346e-06 -2.986621e-06 3.025788e-07 1.998205e-07 -2.328199e-07 -4.742298e-07
4.930155e-06 -2.486820e-06 8.019442e-07 -6.159322e-07 -4.342383e-08 -1.195570e-07
3.679395e-07 9.306377e-08 -1.546099e-07 -1.841070e-08 -7.051914e-09 7.424316e-09
3.855368e-07 8.961876e-08 -1.465741e-07 -8.270005e-09 1.291025e-10 7.471578e-09
3.445774e-07 1.110938e-07 -1.824610e-07 -4.458971e-08 -1.495187e-08 2.337184e-08
3.677280e-06 -9.994230e-07 -9.620923e-07 -1.246510e-06 3.390903e-07 -6.118202e-07
2.894764e-07 1.840739e-07 -2.023549e-07 -1.593739e-08 -9.431302e-09 4.182140e-08
3.127394e-07 1.858272e-07 -2.098470e-07 -1.324081e-08 -9.742084e-09 1.848063e-08
3.436437e-07 1.187146e-07 -1.580222e-07 -7.943350e-09 -2.518975e-09 8.183929e-09
3.477616e-07 1.037920e-07 -1.650870e-07 -7.597916e-08 -3.048447e-08 2.879354e-08
3.720650e-07 9.875443e-08 -1.810253e-07 -7.205673e-08 -3.426424e-08 2.911492e-08
-2.922205e-07 1.261621e-06 -5.948130e-07 3.501719e-07 -4.236155e-07 -1.919780e-07
-3.497028e-07 1.399632e-06 -8.128019e-07 4.582215e-08 -1.113607e-08 -4.328657e-08
5.291379e-06 -2.191541e-06 -1.756525e-07 -4.507855e-07 6.266790e-09 -4.977899e-07
3.486505e-07 1.146169e-07 -1.720909e-07 5.309544e-08 2.003466e-09 9.586043e-09
4.377039e-07 5.397761e-08 -2.258272e-07 1.018862e-07 1.182540e-08 1.322171e-08
4.228127e-07 7.118314e-08 -1.914571e-07 8.694588e-08 2.666048e-09 3.027583e-09
1.344147e-06 -3.393402e-07 -6.664650e-07 -1.077139e-07 -4.554814e-08 1.400493e-07
8.984150e-07 -1.689573e-07 -4.677639e-07 -2.295824e-07 -1.920391e-08 3.750563e-08
1.378609e-06 -2.823150e-07 -7.347313e-07 -3.692481e-07 -6.320075e-08 3.553364e-07
1.199605e-06 -1.695275e-07 -6.752367e-07 -4.591269e-07 -7.402950e-08 2.778030e-07
5.540889e-07 -7.463369e-08 -1.945930e-07 -2.310399e-08 -3.354281e-09 3.066596e-08
5.171300e-07 -9.035358e-08 -1.936432e-07 -6.682264e-08 -2.751060e-08 9.491681e-08
4.771011e-07 -2.488978e-08 -1.696166e-07 -3.885257e-08 -1.457400e-08 2.347698e-08
6.211971e-07 -1.221658e-07 -1.755810e-07 -1.615147e-08 -7.726280e-09 8.791483e-08
6.956993e-07 -1.115803e-07 -3.015054e-07 -9.327021e-08 -2.187945e-08 5.891610e-08
6.229404e-07 -6.660069e-08 -2.466934e-07 -8.490595e-08 -1.093685e-08 4.523840e-08
6.793605e-07 -9.127876e-08 -2.981500e-07 -9.795487e-08 -6.679220e-09 4.239390e-08
8.737181e-07 -1.533295e-07 -4.240141e-07 -1.177413e-07 -2.948460e-08 1.095584e-07
4.419096e-07 3.188043e-08 -1.662901e-07 -3.534339e-08 -9.514836e-09 9.284588e-09
5.286005e-07 -5.503740e-08 -1.780584e-07 -8.061965e-08 -2.355023e-08 5.749283e-08
6.096928e-07 -1.115985e-07 -1.751346e-07 -3.068105e-08 -9.020818e-09 8.119281e-08
6.868777e-07 -1.386676e-07 -2.818602e-07 -5.289757e-08 -8.771829e-09 6.342391e-08
6.637899e-07 -1.355900e-07 -2.664238e-07 -2.483753e-08 -7.281089e-10 4.710760e-08
6.189402e-07 -1.351496e-07 -2.268131e-07 -3.032577e-08 -1.197369e-08 8.446044e-08
-2.522298e-07 1.702285e-06 -9.765685e-07 -9.256145e-07 -1.608051e-07 1.008306e-07
-3.593260e-07 1.555043e-06 -8.615472e-07 -4.396394e-07 -2.244805e-07 3.390359e-08
-3.399680e-07 1.409813e-06 -8.013880e-07 -2.861980e-07 -8.096879e-09 5.491339e-08
-1.848641e-07 1.039127e-06 -6.189681e-07 -1.961686e-07 -2.955666e-07 2.287513e-07
-4.959702e-07 1.518792e-06 -7.432714e-07 -4.416728e-07 -5.534951e-07 6.780889e-08
-2.294122e-07 5.539628e-07 -2.858319e-07 -5.060942e-08 -2.150047e-07 -1.802892e-07
6.883987e-07 4.690554e-08 -4.605140e-07 -3.005176e-07 -4.273345e-08 8.207224e-08
1.365033e-06 -2.823150e-07 -6.384564e-07 -3.418331e-07 -8.602349e-08 3.031639e-07
9.474648e-07 -8.542345e-08 -5.813001e-07 -3.347450e-07 -3.409134e-08 3.023636e-08
1.541300e-06 -2.937353e-07 -8.176190e-07 -6.423534e-07 -4.331799e-09 9.751870e-08
1.133916e-06 -2.107726e-07 -5.545355e-07 -1.513108e-07 -3.383662e-08 1.856121e-07
2.506035e-07 4.525680e-07 -3.911010e-07 3.143496e-07 4.998126e-08 3.030090e-08
1.413436e-08 7.721408e-07 -6.245444e-07 3.295956e-07 1.147918e-07 7.936861e-08
2.007427e-06 -5.495708e-07 -8.861965e-07 -8.510688e-07 -9.273537e-08 1.826248e-07
1.085284e-06 -1.709226e-07 -5.893446e-07 -3.411401e-07 -3.886950e-08 9.010935e-08
1.179509e-06 4.949601e-08 -7.296637e-07 -7.457618e-07 -6.708731e-08 1.296095e-07
7.616589e-07 1.402524e-07 -6.380286e-07 -5.872425e-07 -1.767867e-07 1.335218e-07
5.852529e-07 8.786654e-08 -5.540659e-07 -4.110389e-07 -1.098021e-07 1.638234e-07
6.670353e-07 3.245047e-08 -5.533772e-07 -4.134937e-07 -5.621723e-08 9.860257e-08
9.059863e-07 1.345460e-07 -5.499517e-07 -5.715497e-07 -7.511046e-08 1.284888e-07
9.587621e-07 -5.597604e-08 -6.253327e-07 -4.293879e-07 -3.182412e-08 1.118212e-07
8.221801e-07 -3.037428e-08 -4.849269e-07 -3.920746e-07 -6.815784e-08 1.852949e-07
2.409066e-07 3.462845e-07 -4.012992e-07 2.676146e-07 1.011969e-07 7.220058e-08
2.164725e-07 3.922984e-07 -3.912587e-07 2.284533e-07 4.275667e-08 2.791225e-08
2.840858e-07 1.633056e-07 -1.582507e-07 7.020930e-08 1.994992e-08 1.758458e-08
1.158497e-06 -2.177064e-07 -6.146543e-07 2.377152e-07 2.099115e-08 2.380335e-07
-3.921428e-08 4.593225e-07 -2.700577e-07 3.294586e-08 -3.307273e-08 -2.776112e-08
1.293632e-06 -3.716278e-07 -6.437710e-07 2.556081e-07 1.130195e-08 8.420204e-08
1.413436e-08 8.525692e-07 -6.532061e-07 4.523556e-07 2.552660e-07 1.006463e-07
3.216163e-07 4.345992e-07 -4.271232e-07 3.573329e-07 1.033093e-08 1.928666e-08
1.023935e-06 -2.714744e-07 -5.386809e-07 1.308616e-07 9.390334e-09 7.358653e-08
1.344036e-07 6.251028e-07 -4.750849e-07 3.378356e-07 7.078750e-08 4.120325e-08
-6.798532e-08 6.029606e-07 -4.077101e-07 1.637346e-07 2.766399e-07 1.117591e-07
-4.224423e-07 1.780663e-06 -8.285647e-07 8.502315e-07 2.046738e-07 1.115081e-07
-2.613854e-08 7.180169e-07 -5.784465e-07 2.531221e-08 -1.394150e-08 -4.834467e-08
-1.647123e-07 1.374619e-06 -7.958724e-07 8.096340e-07 2.612153e-07 1.834494e-07
-2.337756e-07 1.385182e-06 -7.351624e-07 4.427362e-07 1.243154e-07 4.289308e-08
2.335225e-07 5.425367e-07 -6.045574e-07 5.245938e-07 1.992010e-07 1.409807e-07
2.374026e-06 -1.167277e-06 8.202294e-07 2.499494e-06 -4.007882e-08 1.698518e-07
1.646174e-07 3.400626e-07 -2.115637e-07 1.076921e-07 7.536152e-08 7.279815e-08
5.054327e-07 -2.495201e-08 -1.899088e-07 4.773990e-08 1.275447e-08 2.619925e-08
3.528928e-07 1.081039e-07 -1.783129e-07 -7.182304e-08 -3.603578e-08 5.693705e-08
2.379008e-06 -9.427590e-07 -6.100907e-07 1.040439e-06 -9.288752e-09 3.668234e-07
5.862338e-06 -4.471000e-06 4.497768e-06 2.762701e-07 -1.064545e-07 1.257545e-06
3.081742e-06 -9.894101e-07 -7.095079e-07 9.106852e-07 1.990054e-07 4.157168e-07
3.667159e-08 5.511168e-07 -3.711030e-07 1.510532e-07 7.216892e-08 1.770986e-08
2.498505e-07 6.002703e-07 -4.217212e-07 5.047905e-07 -8.284705e-07 -5.114443e-07
2.502616e-06 1.294926e-07 -4.212745e-07 2.583414e-06 1.476203e-07 3.470291e-07
2.725687e-06 -9.534246e-07 4.059536e-07 2.190767e-06 3.699360e-07 -8.609559e-08
-1.454055e-07 3.619493e-07 -3.595078e-07 6.830701e-08 -5.011027e-07 -2.786638e-07
-9.880410e-06 3.622566e-06 1.650295e-05 -8.109559e-07 -2.247202e-06 8.748514e-07
3.380904e-08 3.727947e-07 -2.134428e-07 2.583495e-08 4.369095e-08 7.552378e-08
-1.660124e-06 3.077143e-06 3.847207e-07 -1.931678e-06 2.696633e-07 -1.015432e-07
-6.802100e-08 5.037053e-07 -2.075310e-07 7.228990e-08 1.078254e-07 6.710521e-08
-4.045145e-06 5.560916e-06 6.211947e-06 1.200481e-06 -2.093774e-06 -2.285399e-07
-1.219837e-08 4.236471e-07 -2.934696e-07 -6.732293e-08 2.941448e-07 -3.611591e-08
6.346062e-07 4.153829e-07 -8.683195e-07 -2.228620e-07 3.977117e-07 -8.929630e-08
5.827655e-07 9.556089e-07 -9.655301e-07 -8.299909e-07 2.731312e-07 -1.582741e-07
6.224831e-07 5.937915e-07 -9.921741e-07 -2.205838e-07 1.231409e-07 -4.504186e-08
-5.927552e-06 3.695593e-06 9.769966e-06 2.300995e-06 -1.567011e-06 -5.159296e-07
3.358710e-07 6.477044e-07 -7.845605e-07 -1.411690e-07 9.145077e-08 -2.572446e-08
-4.193648e-06 3.231886e-06 7.689326e-06 2.930131e-06 -3.812995e-07 1.186273e-07
-1.764488e-05 -4.704127e-06 4.698682e-05 -7.268259e-07 -1.369388e-05 6.928630e-09
-4.424651e-06 -5.169007e-07 1.449737e-05 6.011901e-06 -2.804257e-07 -1.184652e-06
-5.285205e-06 4.529307e-06 1.553135e-05 2.745210e-06 -6.047427e-06 -1.087727e-07
-7.649273e-06 3.292585e-06 1.293879e-05 -4.099313e-06 -8.518291e-06 3.498690e-06
-4.973939e-06 6.125873e-06 5.005198e-06 -8.964398e-08 -7.304645e-07 -2.544365e-07
1.042559e-06 4.404513e-07 -1.211508e-06 -2.934907e-07 1.363498e-07 -6.855098e-08
-3.386800e-07 1.697890e-06 -8.772926e-07 8.026598e-07 -3.210554e-07 -1.127895e-07
-2.231991e-07 1.131103e-06 -6.464696e-07 1.501603e-07 6.606579e-08 6.967071e-09
-1.880602e-07 4.315412e-07 -2.099397e-07 5.148916e-08 2.984964e-07 1.119270e-07
-2.943056e-07 1.007704e-06 -5.453897e-07 1.148610e-07 1.271478e-07 3.420548e-08
5.452964e-07 4.475668e-07 -1.011244e-06 -3.932550e-07 3.963949e-07 -1.774417e-07
3.054356e-06 -7.992112e-07 -1.387186e-06 -4.117866e-07 3.963269e-07 -3.917412e-07
2.342602e-06 -2.814457e-07 -1.521411e-06 -8.944393e-07 2.399730e-07 1.582969e-08
3.769384e-06 -1.313153e-06 -1.532880e-06 -4.979204e-07 8.408345e-08 7.311881e-09
-1.383217e-07 4.396058e-07 -2.517158e-07 5.296530e-08 2.349020e-07 1.249346e-07
-1.416403e-07 8.034982e-07 -5.266666e-07 2.432990e-07 3.821614e-07 1.671633e-07
3.632021e-06 -1.178344e-06 -1.602919e-06 -4.125802e-07 1.093737e-07 -9.631332e-08
3.205305e-06 -7.341502e-07 -1.657117e-06 -2.432620e-07 7.141222e-08 -3.474381e-14
4.423982e-08 3.238873e-07 -2.158195e-07 9.460654e-08 1.462429e-07 1.302844e-07
1.644993e-06 -2.426034e-07 -1.218963e-06 -1.683497e-07 4.732604e-07 2.339641e-08
7.211051e-07 -1.437068e-07 -3.147824e-07 3.275991e-08 -1.003791e-08 3.076085e-08
3.874964e-06 -1.208144e-06 -1.652579e-06 -1.983044e-07 5.568867e-08 -2.297485e-14
5.965862e-07 -1.325578e-07 -1.960293e-07 -2.127048e-08 1.823052e-08 1.123816e-07
3.540134e-06 -1.053464e-06 -1.502980e-06 -4.626011e-07 -4.667103e-09 -2.894565e-08
1.429198e-06 -6.428135e-07 -8.269425e-07 -2.951970e-08 4.360275e-07 3.640412e-08
2.795662e-06 -4.762575e-07 -1.615580e-06 -2.460243e-07 1.797910e-07 2.073562e-08
2.827580e-06 -8.950789e-07 -1.328706e-06 -1.154250e-07 2.447190e-07 2.950480e-08
3.991751e-06 -1.346945e-06 -1.579330e-06 -2.673197e-07 2.629662e-08 9.496936e-08
-1.424516e-06 2.962131e-06 -8.646145e-07 -2.159894e-07 -7.381271e-08 8.754109e-08
2.965469e-06 -1.146414e-06 1.712769e-06 3.810498e-06 -4.172618e-07 -2.505580e-07
2.594244e-06 -1.098176e-06 3.155289e-06 4.294052e-06 -2.741990e-08 -8.089358e-07
3.256757e-08 4.045414e-07 5.331145e-06 5.087018e-06 3.533550e-07 -8.240459e-07
3.616070e-06 -2.469112e-06 3.222591e-06 3.298553e-06 -4.707366e-07 -1.689351e-07
6.166690e-07 -1.601726e-07 -2.326715e-07 -9.252956e-09 4.604970e-09 1.008158e-07
-4.028758e-07 1.409491e-06 -7.620910e-07 2.358117e-07 1.865061e-07 2.375055e-08
1.653702e-06 -7.381228e-07 3.850187e-06 4.715436e-06 4.833050e-07 -5.980997e-07
2.991913e-06 -1.199272e-06 1.130779e-06 3.842760e-06 5.417009e-07 4.493509e-08
3.324424e-06 -3.002162e-06 3.245677e-06 3.942725e-06 1.416671e-06 1.200458e-06
1.281862e-06 -3.343895e-06 1.324832e-05 5.175133e-06 -6.433287e-07 2.865399e-07
5.472136e-07 -1.080343e-07 -1.845565e-07 3.126041e-08 1.171948e-08 9.705611e-08
5.479214e-07 -1.055022e-07 -1.806777e-07 -2.403378e-08 -1.341011e-08 5.200685e-08
4.967768e-07 -2.133405e-08 -1.808372e-07 -8.122032e-08 -2.425507e-08 4.653705e-08
5.032071e-07 -5.527808e-08 -1.590526e-07 -3.877544e-08 -1.486143e-08 4.067404e-08
4.560586e-07 4.621164e-09 -1.643282e-07 -5.501883e-08 -2.300667e-08 5.501272e-08
3.039425e-07 1.958441e-07 -2.630172e-07 1.567822e-07 3.303272e-08 3.913822e-08
5.911696e-07 -9.118759e-08 -2.242025e-07 -2.098935e-08 -3.471000e-09 7.420164e-09
6.042352e-07 -1.003428e-07 -2.342240e-07 -1.408784e-08 3.225134e-09 -5.961318e-10
6.154256e-07 -1.173658e-07 -2.122390e-07 -3.369409e-09 -1.302507e-09 1.484183e-08
-1.953048e-08 5.058854e-07 -3.379645e-07 8.810473e-08 9.958465e-08 7.711697e-08
6.514177e-07 -1.133348e-07 -2.398451e-07 -1.154204e-08 -9.004142e-10 7.686367e-09
2.409066e-07 3.487402e-07 -2.929565e-07 2.105472e-07 9.703854e-08 7.574496e-08
1.108729e-07 3.664654e-07 -2.096041e-07 1.745115e-07 1.882625e-07 1.255553e-07
3.741339e-07 3.558133e-07 -5.526321e-07 4.808626e-07 1.036707e-07 1.055799e-07
1.432488e-06 -2.283502e-07 -7.652563e-07 -8.043401e-07 -1.004870e-07 2.775218e-07
1.408435e-07 6.081025e-07 -5.048831e-07 -8.588103e-08 -8.654022e-09 2.889956e-08
2.515186e-06 -4.877968e-07 -8.409798e-07 -1.150820e-06 -1.265530e-07 2.245097e-07
2.011598e-07 5.038127e-07 -5.197307e-07 -2.675322e-07 -3.407200e-08 -3.702247e-09
6.349752e-07 -1.003428e-07 -2.342240e-07 -2.474466e-08 -1.907327e-09 6.806252e-09
5.203486e-07 -3.321082e-08 -2.058317e-07 -7.409918e-08 -2.760218e-08 7.257455e-08
2.002012e-06 -3.864526e-07 -6.592837e-07 -1.181703e-06 -2.896916e-07 4.708362e-07
5.539966e-07 -6.360810e-08 -1.804803e-07 -4.854829e-08 -1.463360e-08 4.494213e-08
6.006505e-07 -1.024442e-07 -2.549553e-07 -4.741357e-08 -4.231863e-08 8.958062e-08
6.603827e-07 -1.085389e-07 -2.526660e-07 -2.708232e-08 -6.688750e-09 4.166532e-08
1.249115e-06 9.025024e-07 -9.388022e-07 -2.153199e-06 -3.639950e-07 2.311854e-07
4.998688e-07 1.260895e-06 -6.736540e-07 -2.326326e-06 -2.340781e-07 1.754072e-07
1.951824e-06 -3.376208e-07 -1.244342e-06 -7.393377e-07 3.544966e-07 -2.509934e-07
1.513028e-06 3.157913e-07 -1.322125e-06 -4.025514e-07 6.788726e-08 -7.184726e-08
5.731604e-07 8.944376e-07 -8.434491e-07 -1.702878e-06 -1.748586e-07 1.211092e-07
8.126910e-07 1.024940e-06 -9.173322e-07 -1.584324e-06 -8.648271e-08 1.072996e-07
2.211429e-06 -1.935670e-09 -1.514268e-06 -8.499906e-07 1.345518e-07 -6.808557e-08
8.137559e-07 9.914229e-07 -4.557398e-07 -2.178023e-06 -1.534798e-07 2.547375e-07
1.596285e-06 6.781265e-07 -7.086478e-07 -2.313383e-06 -1.084387e-07 -3.479807e-08
3.456388e-06 -9.135980e-07 -1.502979e-06 -1.141932e-06 1.830440e-07 -3.251198e-07
8.119846e-07 8.809173e-07 -8.453712e-07 -1.654882e-06 -3.746920e-07 4.387129e-07
1.249115e-06 3.101764e-07 2.684521e-08 -2.401703e-06 -3.929668e-07 4.084384e-07
1.970976e-06 8.802292e-08 -1.447362e-06 -3.316044e-07 1.360003e-07 5.981470e-08
1.323368e-06 2.775066e-07 -1.106284e-06 -1.124460e-06 4.349178e-07 -3.381133e-07
4.287703e-07 1.520454e-06 -6.951705e-07 -2.602757e-06 -4.064951e-07 5.267851e-08
-2.158117e-06 4.618002e-06 5.433443e-07 2.802199e-07 6.264483e-07 -1.049061e-07
-1.633304e-06 3.605091e-06 -4.410202e-07 4.373706e-07 -2.968789e-08 -7.459476e-08
-1.857572e-07 6.433992e-07 -3.063326e-07 -9.197715e-08 2.193934e-07 -1.131270e-07
-2.337756e-07 1.174000e-06 -6.570595e-07 3.214935e-07 8.222338e-08 4.102849e-08
-1.525346e-06 3.551515e-06 1.424766e-07 1.945398e-06 1.749167e-08 -7.141712e-08
-3.271224e-07 1.453969e-06 -7.653956e-07 3.471843e-07 2.812870e-07 6.234805e-08
-4.797099e-07 1.729094e-06 -7.604982e-07 3.013499e-07 2.104427e-07 3.290780e-08
-2.129207e-06 4.206172e-06 4.757489e-07 1.283856e-06 6.068746e-07 2.254221e-07
8.667747e-07 -1.892178e-07 -4.417722e-07 2.505363e-08 -1.277545e-08 5.750006e-08
1.089444e-06 -2.042461e-07 -4.530647e-07 5.182263e-08 -1.588831e-09 1.949175e-08
7.907105e-07 -1.971398e-07 -3.930708e-07 -1.612225e-08 -9.663165e-09 1.232045e-07
-1.701393e-06 3.305413e-06 -6.827235e-07 9.845676e-07 6.578868e-07 5.328465e-08
8.764557e-07 -1.628661e-07 -4.602171e-07 -1.825998e-07 -2.340679e-08 1.377275e-07
8.551882e-07 -5.981202e-08 -5.297531e-07 -3.653487e-07 -3.181432e-08 1.538693e-07
2.949094e-06 -8.490838e-07 1.904816e-06 -2.692981e-06 -4.310149e-07 6.804712e-09
7.606495e-07 -1.036149e-07 -3.684489e-07 -1.997663e-07 -4.174410e-08 8.536109e-08
2.545873e-06 -1.235027e-07 -7.588753e-08 -2.712849e-06 2.077700e-07 -5.267183e-07
1.833115e-06 2.966568e-07 -9.164164e-07 1.800094e-06 2.372262e-07 3.277276e-07
1.646167e-06 2.815788e-07 -7.667641e-07 2.151743e-06 9.294890e-08 2.950651e-07
-4.753977e-07 1.996023e-06 -8.796264e-07 4.440260e-07 4.738967e-07 9.761169e-08
1.068074e-06 2.271880e-07 -8.333374e-07 1.022109e-06 3.503657e-08 2.213597e-07
1.977739e-06 -3.147199e-07 -8.794132e-07 1.323837e-06 4.420676e-08 4.398892e-07
1.591193e-06 -2.236156e-07 -7.879841e-07 1.032554e-06 1.801072e-07 3.883553e-07
1.567939e-06 -2.279869e-07 -3.881201e-07 2.032299e-06 2.472361e-07 3.341103e-07
2.091417e-06 -2.044764e-07 -7.397255e-07 1.913301e-06 2.254887e-07 2.730061e-07
2.853047e-06 -7.324010e-07 -4.732812e-09 1.938533e-06 9.778632e-08 5.704474e-07
1.615095e-06 2.260005e-07 -5.958930e-07 1.931209e-06 2.656344e-07 3.666302e-07
1.298807e-06 4.805487e-07 -8.859729e-07 1.394996e-06 1.056441e-07 1.492764e-07
3.119647e-06 -9.250369e-08 -7.082276e-07 -2.523758e-06 2.010801e-07 -2.123353e-07
2.239335e-06 -4.733268e-07 -5.980925e-07 1.041204e-06 8.244271e-08 3.957453e-07
1.958137e-06 -2.646719e-07 1.430422e-06 3.970217e-06 -2.676070e-07 4.144174e-08
2.011081e-06 -5.544074e-07 5.279778e-07 2.639107e-06 6.550768e-08 2.214816e-07
2.018677e-06 -4.309443e-07 -6.683794e-07 -1.980283e-06 1.747580e-07 -2.977342e-07
1.853666e-06 -3.257118e-07 -3.589134e-07 1.683357e-06 1.548569e-07 5.119365e-07
4.070313e-06 -1.847852e-06 6.667688e-07 2.066576e-06 7.351250e-09 5.424968e-07
4.767133e-06 -2.143302e-06 6.633018e-07 1.560903e-06 2.749824e-08 1.775396e-07
5.371597e-06 -2.869379e-06 1.968078e-06 1.002929e-06 1.191265e-07 4.601974e-07
3.089641e-06 -1.485423e-06 3.297497e-08 -2.005269e-06 8.144837e-08 -2.202601e-07
1.295361e-06 2.543431e-07 -3.087429e-07 -2.110221e-06 3.725867e-07 -7.470871e-08
1.641467e-07 3.815426e-07 -2.901147e-07 7.657705e-08 8.923225e-09 1.947723e-08
3.912039e-06 -1.319583e-06 -3.716899e-07 3.910074e-07 2.636393e-09 -4.589059e-08
4.271175e-07 5.896872e-07 -8.843351e-07 2.739702e-07 -2.709400e-07 -6.671695e-08
3.091259e-07 1.521388e-07 -1.543132e-07 1.743642e-08 4.961461e-10 6.801100e-09
3.441548e-07 2.233600e-07 -3.390381e-07 2.017262e-07 1.301991e-08 5.440090e-08
1.828191e-08 -2.358756e-08 -3.832478e-07 1.120543e-08 -5.966322e-07 -3.248537e-08
1.569511e-06 1.968618e-07 -1.376754e-06 -3.833178e-07 1.530515e-07 -1.050838e-07
3.007130e-07 1.639906e-07 -1.520687e-07 3.736324e-08 7.937681e-09 1.255585e-08
6.052442e-07 3.927085e-07 -7.512440e-07 -7.520623e-07 8.195175e-07 -5.424362e-07
1.419883e-06 3.157913e-07 -1.322125e-06 -7.549419e-07 1.447089e-07 -6.169451e-08
7.374962e-07 2.586889e-07 -9.972854e-07 -9.614566e-08 4.645075e-07 -1.359929e-08
3.984233e-07 6.670193e-07 -8.326876e-07 -2.054562e-07 1.316045e-07 -1.820728e-08
9.341740e-07 1.869267e-07 -8.323329e-07 -2.064959e-07 5.155173e-07 -1.575441e-07
2.660687e-07 5.409744e-07 -5.969556e-07 -2.611090e-07 4.330345e-07 -1.686754e-07
2.703911e-07 1.867457e-07 -1.661628e-07 4.849501e-08 1.130622e-08 1.536386e-08
3.195891e-07 1.467975e-07 -2.231739e-07 1.103485e-07 2.465282e-08 2.158381e-08
2.433644e-07 2.325313e-07 -2.050390e-07 1.255183e-07 4.359842e-08 3.723167e-08
4.538437e-07 1.119264e-07 -2.569154e-07 2.080853e-07 3.628866e-08 6.786017e-08
3.106151e-07 2.130553e-07 -2.443482e-07 1.362735e-07 2.607890e-08 -8.957207e-09
4.516573e-07 2.550286e-07 -3.852566e-07 3.257332e-07 2.842471e-08 2.648773e-08
2.798494e-07 1.986225e-07 -1.858971e-07 8.996290e-08 9.174351e-09 1.158604e-08
2.734074e-07 1.890995e-07 -1.501292e-07 1.414154e-08 2.064376e-09 5.664887e-09
3.002959e-07 1.556715e-07 -1.606983e-07 8.485480e-08 2.624688e-08 3.369386e-08
2.503755e-07 2.471345e-07 -2.090043e-07 3.696798e-08 3.634654e-09 1.384037e-08
2.520042e-07 2.181318e-07 -1.864867e-07 1.291989e-08 2.327656e-09 1.323546e-08
-6.123166e-08 5.357131e-07 -2.477639e-07 -1.464164e-08 6.019437e-08 -1.222738e-08
3.330729e-07 3.272701e-07 -3.489106e-07 2.700612e-07 2.283338e-08 2.065211e-08
2.568989e-07 1.996646e-07 -1.997202e-07 9.577801e-08 4.137820e-08 4.405526e-08
-3.547158e-07 1.295969e-06 -6.976030e-07 2.823788e-07 6.752107e-08 3.430314e-08
-3.348881e-07 8.813739e-07 -3.134737e-07 1.440077e-09 -2.428583e-08 -4.274397e-09
-2.469590e-07 4.606465e-07 -3.006927e-07 1.026122e-09 -6.133108e-08 -1.146676e-07
-1.305746e-07 4.843374e-07 -2.148398e-07 -1.267017e-08 1.766624e-07 -1.062619e-07
4.470672e-07 3.221667e-08 -1.442671e-07 2.640002e-08 5.453129e-09 1.597781e-08
3.631427e-07 9.918133e-08 -1.431976e-07 5.684219e-09 3.530252e-09 2.594537e-09
3.989611e-07 6.664814e-08 -1.544072e-07 4.230353e-08 9.261610e-09 1.113454e-08
4.512762e-07 2.732966e-08 -1.850994e-07 2.668199e-08 -6.310101e-09 2.758762e-09
-8.448626e-08 5.860251e-07 -2.545557e-07 -7.568735e-09 1.423293e-08 -2.891854e-08
-9.667968e-08 5.066790e-07 -1.858586e-07 -3.268803e-16 3.999531e-08 -1.447310e-08
-1.721562e-07 5.006845e-07 -2.351472e-07 -2.561878e-08 1.844675e-07 -9.252712e-08
-8.064899e-08 5.368548e-07 -1.971785e-07 -3.152582e-09 4.702708e-08 -1.250214e-08
2.305371e-07 2.725339e-07 -2.301902e-07 4.193563e-08 3.949511e-09 -4.443897e-09
3.248554e-07 1.248179e-07 -1.357845e-07 1.358815e-09 5.126552e-10 0.000000e+00
2.305371e-07 2.722643e-07 -2.301902e-07 7.458474e-08 3.905014e-09 6.332878e-09
2.685549e-07 1.988946e-07 -1.745808e-07 1.176556e-08 -1.160794e-15 -2.149102e-09
2.726101e-07 1.986655e-07 -1.813323e-07 2.461414e-08 3.472855e-09 1.050810e-08
2.503289e-07 2.298338e-07 -1.954034e-07 2.519840e-08 5.449806e-09 4.597514e-09
3.688781e-07 7.800261e-08 -1.663266e-07 3.093142e-08 5.931829e-09 1.002292e-08
2.518855e-07 2.296948e-07 -1.782343e-07 9.597541e-09 6.662512e-09 4.934660e-09
4.288420e-07 6.236345e-08 -1.671530e-07 5.376933e-08 8.371053e-09 1.816185e-08
2.644704e-07 1.891356e-07 -1.523877e-07 9.669359e-09 -9.263141e-11 6.800913e-09
-1.505863e-08 5.005900e-07 -3.353971e-07 -1.205789e-08 1.946579e-07 -1.112091e-08
8.671960e-08 7.341837e-07 -6.013121e-07 -2.469356e-07 6.659993e-08 -2.325483e-08
-3.204770e-08 6.062130e-07 -3.842578e-07 -2.924347e-08 1.013420e-07 -6.609081e-09
-5.557141e-08 3.532721e-07 -2.772760e-07 -5.759879e-09 2.860558e-07 -1.564287e-08
5.517026e-07 -6.933609e-08 -1.926952e-07 7.852921e-08 2.760571e-08 8.857540e-08
5.021507e-07 -2.243272e-08 -1.882107e-07 2.826153e-08 4.725720e-09 7.307548e-09
5.272699e-07 -6.039542e-08 -1.629160e-07 1.157878e-08 2.962669e-09 1.278080e-08
4.862744e-07 -3.198478e-08 -1.548635e-07 4.334126e-08 2.435372e-08 3.840262e-08
4.895387e-07 -2.782289e-08 -1.803329e-07 8.936590e-08 2.026433e-08 6.881118e-08
-4.466998e-07 1.506903e-06 -8.698189e-07 5.094066e-08 -2.251590e-08 9.466192e-09
-3.977541e-07 1.421198e-06 -7.802180e-07 2.035041e-08 -1.310221e-07 -4.134415e-08
-4.267191e-07 1.698357e-06 -8.409671e-07 1.604460e-07 -2.975175e-07 -5.892047e-08
-2.669988e-07 3.007719e-07 -3.057997e-07 -3.707569e-09 -6.351424e-07 5.578862e-08
-2.936217e-07 2.944393e-07 -2.676656e-07 -3.645225e-08 -9.379734e-07 -1.343876e-07
1.863996e-07 2.961512e-07 -1.997340e-07 2.612676e-08 8.735666e-09 4.002164e-08
-3.105866e-07 5.858545e-07 -3.283954e-07 1.035471e-07 -1.174255e-07 5.624043e-08
-2.891353e-07 6.007867e-07 -3.273821e-07 -1.234258e-07 -1.233144e-07 4.019662e-08
1.809130e-07 2.958703e-07 -1.886834e-07 1.140341e-07 8.146416e-08 6.314179e-08
-3.876659e-07 8.715338e-07 -5.798924e-07 -4.628445e-08 -2.557060e-07 3.775899e-08
-3.232739e-07 1.182730e-06 -6.655916e-07 1.437940e-07 -4.361037e-07 -1.819277e-07
1.756602e-07 5.141699e-07 -4.602821e-07 2.502940e-07 6.302336e-08 5.278321e-08
-1.014807e-08 3.437659e-07 -2.083708e-07 9.785711e-08 2.060494e-07 1.330918e-07
1.446165e-07 3.013008e-07 -2.039242e-07 7.138002e-09 8.513397e-09 2.942937e-08
-2.920265e-07 4.803152e-07 -2.976210e-07 -2.553495e-09 -5.857312e-08 -3.034270e-08
-8.355482e-08 5.508929e-07 -2.087289e-07 -1.306936e-08 5.109785e-08 -2.997780e-08
-1.193970e-07 5.163707e-07 -1.885844e-07 -6.920451e-09 5.660669e-08 -5.679149e-08
-9.554093e-08 5.187065e-07 -1.967910e-07 7.032165e-09 4.070234e-08 -2.643295e-08
1.493009e-07 4.091501e-07 -2.896914e-07 5.546203e-08 -5.061703e-09 1.580464e-08
3.171720e-07 1.501674e-07 -1.433465e-07 6.347225e-09 1.780987e-09 1.941571e-09
2.189454e-07 4.185258e-07 -6.608137e-07 -1.519003e-07 4.761769e-07 -1.736421e-07
3.919575e-07 9.592038e-07 -9.251864e-07 -8.115178e-07 2.992308e-07 -2.305918e-07
2.444857e-07 2.429615e-07 -3.710181e-07 -2.856401e-08 4.904393e-07 -3.330132e-08
-2.876992e-08 1.969961e-07 -3.602913e-07 -8.401773e-09 4.553421e-07 -1.043972e-07
4.444013e-06 -5.795837e-06 1.118843e-05 -8.777418e-07 8.785880e-07 -2.482870e-06
3.946668e-06 -1.639603e-06 1.766625e-06 -2.961578e-06 4.585461e-07 -9.696357e-07
1.966572e-07 4.515650e-07 -3.471734e-07 2.617915e-07 1.382649e-07 9.610021e-08
4.570424e-06 -2.499138e-06 1.831199e-06 -2.741178e-06 -2.220189e-07 7.723024e-07
6.171344e-07 -7.206913e-06 2.291786e-05 -4.279746e-06 5.614469e-06 -6.129792e-07
-8.670826e-09 6.295329e-07 -3.909606e-07 3.892366e-08 2.637657e-08 4.720779e-08
2.893934e-06 -4.417292e-06 8.960033e-06 -3.851882e-06 8.177154e-07 5.309165e-08
-1.713552e-07 3.363001e-07 -2.796891e-07 -5.246317e-08 -3.563897e-07 2.311488e-07
-4.681136e-07 1.572749e-06 -7.392133e-07 1.738317e-07 3.082212e-07 4.246618e-08
-2.561474e-07 4.604959e-07 -2.976165e-07 -5.119053e-09 -6.016950e-08 7.483683e-08
-5.764934e-06 -8.043607e-07 1.703687e-05 -4.775153e-06 -3.893733e-06 2.245063e-06
-2.465078e-08 1.049852e-06 -7.107927e-07 5.542643e-07 1.675214e-07 1.715711e-08
1.947410e-07 1.041358e-06 -7.856974e-07 8.730786e-07 1.162063e-07 7.288867e-08
5.256152e-07 -4.725037e-08 -1.660323e-07 7.336732e-08 1.002095e-08 5.717434e-08
1.563426e-07 8.059248e-07 -6.113594e-07 5.996000e-07 2.221800e-07 1.778953e-07
-3.766935e-07 1.075667e-06 -6.504007e-07 1.788715e-07 -5.548892e-07 -1.539381e-07
-1.208565e-06 2.765921e-06 -8.833981e-07 -6.668516e-07 -7.655086e-08 1.868630e-08
5.379467e-07 -8.625984e-08 -1.742025e-07 3.223812e-08 1.132320e-08 4.262172e-08
5.399034e-07 -6.576569e-08 -1.782844e-07 7.403858e-09 8.232028e-09 1.083806e-08
-1.775874e-07 4.766119e-07 -2.726445e-07 1.044496e-08 -4.024645e-08 -1.288539e-07
-8.054634e-08 5.140066e-07 -2.705058e-07 5.064229e-08 -5.414069e-08 -7.532468e-08
-2.047091e-08 5.930313e-07 -4.005059e-07 9.743532e-16 -3.236408e-08 -2.191382e-08
-2.063514e-06 3.665036e-06 -3.297006e-07 -6.758688e-07 3.684108e-08 7.918732e-08
-1.150955e-06 2.604518e-06 -9.918866e-07 -2.104697e-07 -2.715682e-07 2.738817e-08
-7.183381e-07 2.364730e-06 -9.610290e-07 -5.337647e-07 -3.023615e-07 5.999263e-08
-2.737800e-08 5.373588e-07 -2.759971e-07 1.019478e-07 -2.795060e-07 -1.087915e-07
3.878255e-07 8.592731e-08 -2.120948e-07 -8.056334e-08 -8.853031e-09 9.309695e-09
4.038996e-07 6.549484e-08 -2.302778e-07 -7.361473e-08 1.000693e-08 -1.045654e-08
4.160968e-07 5.242899e-08 -1.937501e-07 -6.273033e-08 -1.028072e-08 7.666214e-09
4.164050e-07 5.306049e-08 -1.497090e-07 -1.648085e-08 -4.711705e-09 7.572887e-09
4.049981e-07 9.834890e-08 -1.802493e-07 -8.088907e-08 -1.668012e-08 2.654832e-08
3.780169e-07 9.257268e-08 -1.687755e-07 -2.401914e-08 -8.860612e-09 6.686134e-09
3.934113e-07 7.199435e-08 -1.406267e-07 -4.121375e-09 -2.867206e-09 -6.919510e-10
2.375020e-07 3.070509e-07 -2.483010e-07 -2.211492e-07 -1.928405e-07 1.822159e-07
-1.605428e-06 3.265363e-06 -7.499572e-07 -6.786071e-07 -3.514951e-07 2.492950e-08
-6.787583e-07 2.188647e-06 -9.553888e-07 -3.204632e-07 -4.485451e-07 8.605364e-08
-5.208965e-07 1.829310e-06 -9.204424e-07 -4.935656e-07 -7.685309e-08 7.950972e-08
3.702468e-07 1.703688e-07 -2.595277e-07 1.532324e-07 2.604179e-08 -2.177128e-09
2.374992e-07 3.654514e-07 -4.166217e-07 -2.662621e-07 -1.592942e-07 2.085205e-07
2.419684e-08 4.953390e-07 -3.591195e-07 -2.145127e-08 -3.699878e-08 8.994060e-08
4.082857e-07 1.216375e-07 -2.764758e-07 1.615488e-07 7.598844e-09 -1.132915e-09
2.412335e-07 4.261144e-07 -4.063192e-07 -1.836872e-07 6.737079e-09 2.215051e-08
4.615342e-07 9.627999e-08 -2.525704e-07 1.786004e-07 1.275112e-08 3.161853e-08
6.083773e-07 -1.102966e-07 -1.984821e-07 4.189376e-08 1.166520e-08 1.189540e-07
5.679706e-07 -9.825785e-08 -1.604925e-07 3.567185e-09 3.568151e-09 1.170638e-08
5.743582e-07 -8.535947e-08 -1.979969e-07 5.252138e-09 2.293396e-09 1.100597e-08
5.739743e-07 -1.113194e-07 -1.709712e-07 2.080511e-09 -6.787982e-10 1.658623e-08
5.957868e-07 -9.260065e-08 -2.224258e-07 1.372733e-08 -5.133237e-09 6.312195e-09
5.709598e-07 -9.021738e-08 -1.795167e-07 1.136408e-08 6.951043e-09 1.473807e-08
1.564000e-06 -9.346181e-07 -8.426020e-07 -3.223190e-07 4.613478e-07 -2.895466e-07
6.128839e-07 -1.072247e-07 -2.399363e-07 1.019925e-08 -3.306292e-09 1.702616e-09
5.138745e-07 -5.411357e-08 -1.628449e-07 2.448953e-08 1.046573e-08 3.558444e-08
3.700949e-06 -1.317374e-06 -9.198225e-07 -9.113227e-07 3.385364e-08 8.065230e-08
3.630565e-06 -1.315396e-06 -1.420519e-06 -4.419732e-07 3.063887e-07 -2.623045e-07
4.308026e-07 3.832315e-08 -1.670334e-07 1.094051e-08 -3.217241e-09 -7.039649e-17
-7.773296e-08 1.111161e-06 -6.634927e-07 5.118310e-07 1.047694e-07 2.322862e-08
1.219812e-07 2.655402e-07 -2.030693e-07 1.038093e-07 1.030599e-07 9.472356e-08
-7.773296e-08 9.900914e-07 -6.634927e-07 3.871465e-07 1.096798e-07 3.334263e-08
-1.864285e-08 9.925695e-07 -6.210195e-07 4.944748e-07 1.491716e-07 7.889866e-08
7.460730e-07 5.356146e-07 -9.195192e-07 -1.292825e-06 -1.685524e-07 1.375149e-07
3.348120e-07 1.182557e-07 -1.546046e-07 2.969176e-08 -4.138545e-09 4.828569e-09
8.835511e-07 1.254796e-07 -8.051336e-07 -8.963495e-07 -2.251165e-07 3.197503e-07
7.458547e-07 5.324621e-07 -8.106016e-07 -1.147789e-06 -3.060546e-07 2.352068e-07
3.332078e-07 1.181947e-07 -1.375052e-07 2.863464e-09 1.718289e-09 1.344740e-09
2.402321e-06 3.478049e-08 -7.086883e-07 -2.164481e-06 3.362328e-08 3.234432e-08
1.934559e-06 7.576802e-08 -9.464633e-07 -1.544599e-06 -2.407471e-07 3.949913e-07
3.259731e-07 1.267358e-07 -1.366923e-07 2.895751e-09 2.763097e-10 -8.451953e-10
3.318227e-07 1.226757e-07 -1.374296e-07 4.413310e-09 -1.188863e-11 -3.205315e-10
3.854367e-07 8.404129e-08 -1.432656e-07 1.249406e-08 3.087582e-09 2.372627e-09
2.784658e-07 2.518499e-07 -2.498442e-07 -1.555094e-08 -1.344122e-08 2.672338e-08
1.245720e-06 4.045156e-07 -7.599880e-07 -1.757232e-06 -3.225568e-07 4.520732e-07
-5.011083e-08 1.083267e-06 -6.670292e-07 6.686485e-07 2.380118e-07 1.890246e-07
-2.331043e-07 7.644952e-07 -4.585295e-07 1.793291e-08 -3.731435e-08 -1.393733e-07
1.191239e-06 8.679601e-08 -9.194729e-07 -1.314628e-06 -1.620466e-07 2.274838e-07
-1.301594e-08 6.668046e-07 -5.364204e-07 1.409183e-07 -1.674828e-07 -1.132631e-07
1.128244e-06 3.620968e-07 -7.540304e-07 -1.849322e-06 -2.322937e-07 1.730290e-07
6.075305e-07 -1.240475e-07 -2.297896e-07 3.144247e-08 3.592428e-09 1.062607e-07
1.190762e-06 9.265734e-08 -8.130472e-07 -1.319724e-06 -2.279473e-07 3.405802e-07
5.972090e-07 -9.989114e-08 -2.157729e-07 1.490673e-08 2.366772e-09 1.490026e-08
2.371486e-07 7.128941e-07 -6.115166e-07 6.250096e-07 7.571706e-08 4.215960e-08
2.769029e-08 7.458501e-07 -6.674402e-07 5.517028e-07 1.421342e-07 1.000953e-07
-1.906597e-07 1.244828e-06 -6.896248e-07 5.610479e-07 1.729018e-07 2.072342e-09
1.263157e-06 -6.219130e-08 -8.331763e-07 8.141182e-07 8.483357e-08 8.695003e-08
1.678882e-06 -1.965613e-07 -8.390876e-07 9.503851e-07 2.361966e-07 3.729116e-07
1.555920e-06 -6.678054e-08 -8.865135e-07 1.383550e-06 1.343191e-07 2.936938e-07
8.122858e-07 3.221689e-07 -8.219530e-07 -1.252590e-06 -3.515907e-07 4.073331e-07
2.041501e-06 -1.513312e-08 -8.121339e-07 1.670718e-06 2.458497e-07 4.947245e-07
-2.355714e-06 3.857423e-06 -4.914039e-08 1.001004e-06 4.103179e-07 1.891608e-08
-1.424960e-06 3.721286e-06 2.470455e-07 4.401631e-07 6.824792e-08 1.399773e-07
-1.349022e-06 2.745625e-06 -8.499396e-07 -6.757510e-08 1.009367e-07 8.031115e-08
7.672745e-07 1.019294e-07 -7.202707e-07 -6.435264e-07 -7.799419e-08 1.023630e-07
-1.485670e-05 -8.712079e-06 6.576869e-05 3.233433e-06 -1.705620e-05 -9.461426e-06
-9.052859e-06 -1.161313e-07 2.471999e-05 3.575505e-06 1.344760e-07 -3.246364e-07
-1.023732e-05 -1.788055e-05 4.885936e-05 4.026288e-06 -1.993711e-06 -6.963328e-06
8.126910e-07 7.335688e-07 -8.096473e-07 -1.868680e-06 -1.065470e-07 1.475380e-07
-1.399391e-05 -2.229701e-05 5.532545e-05 -2.650731e-06 -9.387546e-06 1.145329e-05
-1.724473e-05 -8.712079e-06 6.575387e-05 4.489464e-06 -1.633564e-05 -1.015933e-05
-1.627176e-05 -3.613812e-06 4.183282e-05 -2.559333e-07 -6.073802e-06 -9.665672e-07
9.796383e-07 3.345175e-07 -9.261924e-07 -1.374750e-06 -4.608707e-08 9.677050e-08
-1.772993e-05 -1.975801e-05 7.144406e-05 1.752578e-06 -8.841753e-07 1.276272e-05
-2.117537e-05 -1.780617e-05 7.526982e-05 -1.862704e-06 -8.093707e-06 -1.469796e-06
-1.202499e-05 -1.166988e-05 5.347304e-05 -7.289786e-06 -1.023045e-05 1.149291e-05
2.247571e-06 -1.049956e-07 2.052603e-07 -2.567131e-06 2.140520e-07 3.168651e-07
1.150615e-06 1.508491e-06 3.467983e-07 -3.512662e-06 3.018408e-07 -2.112018e-07
-5.219580e-08 -3.343981e-06 1.794450e-05 5.762795e-06 -2.372565e-06 -3.054232e-06
1.704174e-06 -2.777426e-06 7.057543e-06 4.517261e-06 -3.845046e-07 -1.381693e-06
4.821699e-07 8.027829e-07 2.813211e-06 -3.884647e-06 5.775188e-07 -3.386108e-07
2.249593e-06 -1.727007e-07 1.182373e-06 -3.211333e-06 8.148145e-07 -1.860135e-07
1.702433e-06 -9.219945e-07 8.113108e-06 4.194262e-06 6.440035e-07 -1.721699e-06
1.953104e-06 8.417113e-07 2.598919e-07 3.670830e-06 -3.692038e-07 -2.057619e-07
-2.081791e-07 -2.117690e-07 4.779689e-06 5.189066e-06 7.673015e-07 -3.227222e-08
-5.609626e-07 2.180519e-06 -9.865326e-07 1.349684e-06 -5.530295e-07 2.174189e-08
-2.722466e-06 2.623010e-06 5.241806e-06 4.302156e-06 -1.298500e-06 -4.758787e-07
-1.155585e-06 6.752152e-08 8.139106e-06 5.211648e-06 -2.431056e-07 4.160975e-07
-2.942889e-07 1.784471e-06 1.313156e-06 3.440342e-06 8.156447e-08 -2.328807e-07
-1.037140e-06 2.390546e-06 2.452923e-06 3.952134e-06 6.151555e-07 3.439823e-07
-2.492717e-06 4.114241e-06 4.740586e-06 2.663003e-06 -1.390327e-06 -1.248349e-07
1.184203e-07 1.109908e-06 -8.442819e-07 7.709328e-07 2.185979e-07 1.216980e-07
1.644993e-06 -6.970711e-08 -1.207371e-06 -1.604213e-07 4.114056e-07 2.251724e-08
3.646080e-06 -5.900287e-06 1.040144e-05 -3.262828e-06 6.550199e-07 -2.787782e-06
1.370575e-06 2.340256e-07 -1.215663e-06 -1.147720e-07 3.846044e-07 -8.129661e-08
1.780956e-06 2.543431e-07 -7.542066e-07 -1.675037e-06 8.175685e-07 -8.136904e-07
-3.573175e-06 -8.343429e-06 2.617969e-05 -4.895590e-06 4.765453e-06 -1.184498e-05
3.590900e-06 -4.448330e-06 1.001918e-05 -4.226622e-06 7.231436e-07 -3.350564e-06
4.016593e-06 -2.232112e-06 2.986750e-06 3.490441e-06 7.397082e-07 1.007363e-06
-8.895924e-08 6.996948e-07 -4.103399e-07 1.349111e-07 2.333971e-07 9.743674e-08
-2.161408e-05 -2.157810e-05 6.640509e-05 -3.982100e-07 -1.449917e-06 -3.644699e-06
1.663107e-06 -6.697704e-06 2.299619e-05 -3.212018e-06 5.398636e-06 -9.403201e-07
-1.355343e-07 -2.240961e-07 -1.027508e-07 1.310221e-08 8.077486e-07 -4.311369e-07
5.631605e-06 -8.845995e-06 1.088642e-05 -1.472765e-06 -1.537840e-06 -6.263206e-06
2.584386e-06 -2.646059e-07 -1.031184e-06 -1.705219e-06 3.087283e-07 -3.195001e-07
-2.273904e-07 7.919910e-07 -3.707772e-07 -1.476530e-08 9.540342e-08 -6.529554e-08
-2.779764e-07 4.275528e-07 -2.420620e-07 3.690371e-08 5.011849e-07 -8.745458e-08
2.056118e-06 6.921366e-07 -9.511259e-07 -2.176204e-06 3.362384e-07 -2.722292e-07
1.575943e-06 6.669429e-07 -1.112669e-06 -1.452841e-06 3.156965e-07 -2.052869e-07
7.775585e-07 7.145049e-07 -7.026089e-07 -1.666162e-06 4.776799e-07 -3.269741e-07
1.165513e-06 -1.308600e-07 -6.471569e-07 -1.061780e-06 1.833422e-07 -4.680595e-07
1.711543e-06 3.247218e-07 -6.286362e-07 -2.356152e-06 3.019779e-07 -2.988331e-07
-1.913674e-07 5.057175e-07 -2.789074e-07 -2.311836e-08 3.848846e-07 -1.861467e-07
-2.510329e-07 9.034314e-07 -4.558429e-07 -1.229357e-07 2.468300e-07 -1.117800e-07
8.887658e-07 4.251680e-07 -1.198476e-06 -4.780073e-07 3.767858e-07 -2.414389e-07
5.596358e-07 1.182844e-06 3.467982e-07 -2.875042e-06 2.734474e-07 -1.152631e-07
-2.516982e-07 1.487325e-06 -8.272079e-07 -6.364195e-07 3.670383e-07 -1.241282e-07
-7.506807e-07 2.326517e-06 -6.845926e-07 -8.012954e-07 5.399880e-07 -1.604357e-07
-3.098485e-07 1.812087e-06 -9.603905e-07 -8.509425e-07 1.633721e-07 -8.625694e-08
2.060745e-06 3.247218e-07 -8.223145e-07 -2.158918e-06 1.554798e-07 -2.981444e-07
8.453581e-08 4.533775e-07 -3.414126e-07 1.175691e-07 7.328018e-08 6.612644e-08
-2.153629e-07 4.305958e-07 -2.750875e-07 -9.575242e-08 4.211071e-07 -1.824943e-07
-6.365205e-07 2.384602e-06 -6.388755e-07 -1.159363e-06 4.174227e-07 -2.047643e-07
3.382283e-07 1.465031e-07 -1.584646e-07 6.526758e-08 6.669929e-09 1.073618e-08
3.117571e-07 1.774526e-07 -1.859960e-07 7.817692e-08 5.392527e-09 6.992660e-09
-2.121215e-07 8.610402e-07 -3.760092e-07 1.029000e-07 2.529605e-07 7.026332e-08
-8.508281e-08 9.917327e-07 -6.635945e-07 4.792974e-07 1.651576e-07 1.345648e-07
4.381544e-07 1.897246e-07 -2.880707e-07 2.238166e-07 1.184627e-08 1.991257e-08
2.316077e-08 8.088899e-07 -5.186314e-07 3.645582e-07 5.713046e-08 2.163483e-08
-2.034060e-07 7.918210e-07 -5.485379e-07 3.113135e-07 4.140271e-07 1.290866e-07
-8.605803e-08 1.081293e-06 -7.790149e-07 5.786582e-07 1.557951e-07 8.442583e-08
5.415693e-07 -5.662669e-08 -2.129201e-07 2.590992e-08 4.562482e-09 9.176535e-09
5.440660e-07 -1.466056e-08 -2.356254e-07 9.725202e-08 1.280060e-08 1.447312e-08
3.754300e-07 1.284024e-07 -2.226393e-07 1.679303e-07 2.106767e-08 1.888173e-08
5.999901e-07 -9.996639e-08 -2.294657e-07 1.572098e-08 3.444433e-09 7.730521e-09
5.286113e-07 -3.705662e-08 -1.972531e-07 1.209592e-08 6.492263e-09 3.622756e-09
5.493478e-07 -4.286225e-08 -2.203556e-07 7.809872e-08 1.733794e-08 1.849983e-08
-3.278985e-06 4.416344e-06 4.111843e-06 -3.947507e-07 4.286296e-07 -9.985513e-08
6.440481e-07 -1.351436e-07 -2.854562e-07 -3.190981e-08 -1.869117e-08 1.318354e-07
6.167885e-07 -1.110443e-07 -2.134609e-07 6.630044e-10 -1.536863e-10 1.707838e-08
6.187750e-07 -1.173608e-07 -2.356390e-07 -3.499806e-09 -1.185781e-09 1.035038e-08
5.609605e-07 -9.825785e-08 -1.660552e-07 4.616851e-09 2.617612e-09 1.795184e-08
5.743582e-07 -9.506830e-08 -1.967981e-07 5.715031e-09 4.328275e-09 1.109834e-08
8.666001e-07 -2.113325e-07 -4.201337e-07 -1.793882e-08 -1.881162e-09 3.337001e-08
5.752414e-07 -7.895728e-08 -2.096640e-07 2.268215e-08 4.688978e-09 9.029020e-09
5.943573e-07 -9.074958e-08 -2.279065e-07 1.453052e-08 -2.483385e-09 3.401325e-09
2.218795e-06 -5.153974e-07 -8.145346e-07 -8.138454e-07 -2.522813e-07 5.379317e-07
3.525297e-07 1.157962e-07 -1.482437e-07 2.601466e-08 1.157665e-09 5.532714e-09
4.419442e-07 3.230720e-08 -1.622947e-07 2.358342e-08 7.449248e-09 1.450616e-08
4.292449e-07 3.897956e-08 -1.717636e-07 4.419564e-08 -1.947741e-09 1.537798e-08
3.705822e-07 1.034900e-07 -1.426632e-07 1.263421e-08 3.393028e-09 -5.977968e-11
3.863680e-07 7.790160e-08 -1.453403e-07 6.304155e-09 4.577501e-09 1.561958e-09
5.218426e-07 -5.919653e-08 -1.510784e-07 -2.673593e-08 -1.294068e-08 3.903300e-08
5.606772e-07 -5.913979e-08 -2.062828e-07 -5.421749e-08 -9.065288e-09 2.997477e-08
5.232648e-07 -7.942010e-08 -1.873959e-07 -5.831153e-08 -3.621079e-08 8.872003e-08
1.071092e-06 -4.876943e-07 7.729546e-07 7.980542e-07 -8.388257e-07 -1.595540e-06
-1.040096e-07 -4.858630e-07 -8.273254e-08 -9.884169e-08 -7.666883e-07 -1.115825e-06
1.175793e-06 -1.519607e-06 9.193164e-07 7.148833e-07 -1.753669e-07 -1.794706e-06
-1.621803e-07 7.913494e-07 -4.668614e-07 -3.031983e-08 1.439885e-08 -3.162232e-08
1.727720e-07 5.724678e-07 -5.213124e-07 -9.093995e-08 3.231948e-07 -8.284613e-08
-1.401236e-07 7.913494e-07 -4.476683e-07 -3.156258e-08 1.242561e-08 -8.067514e-09
-2.487128e-07 9.432149e-07 -4.818656e-07 -6.290642e-08 6.540517e-08 -4.238617e-08
3.265583e-07 1.187676e-07 -1.366923e-07 6.657379e-09 1.663272e-09 -2.254921e-09
4.706609e-07 3.232983e-07 -6.635459e-07 -6.178057e-08 5.153832e-07 -9.934895e-08
3.588205e-07 1.008079e-07 -1.508702e-07 1.452522e-08 -4.210785e-09 2.419232e-09
-1.282191e-07 4.179598e-07 -2.881619e-07 -1.923433e-08 3.409208e-07 -1.463439e-07
2.409066e-07 3.603875e-07 -3.512214e-07 2.407662e-07 6.002061e-08 9.071267e-08
3.257174e-07 1.355315e-07 -1.794987e-07 5.794384e-08 3.314906e-09 8.496400e-09
3.898859e-06 -1.053464e-06 -1.502980e-06 -7.734927e-07 1.471603e-07 -1.165393e-07
3.257277e-07 1.369807e-07 -2.257932e-07 9.963705e-08 -1.004228e-08 -5.273715e-09
2.684089e-06 -3.173422e-07 -1.560167e-06 -4.302940e-07 8.564804e-08 1.191031e-07
-4.072416e-07 1.147012e-06 -5.798346e-07 -5.279125e-09 -1.872552e-07 -1.321043e-08
-2.752764e-07 3.646877e-07 -3.114845e-07 -7.709536e-09 -3.959208e-07 8.413281e-08
3.051965e-06 -4.913679e-07 -1.532283e-06 -8.852847e-07 1.795202e-07 -8.924771e-08
1.667506e-06 1.897530e-07 -1.127779e-06 -8.834484e-07 4.867420e-07 -3.847095e-07
6.013949e-07 -1.110443e-07 -2.014613e-07 1.055777e-11 -1.142944e-09 9.365913e-09
-2.668852e-07 2.936706e-07 -3.080566e-07 -5.857965e-08 -5.797425e-07 1.426758e-07
6.223020e-07 -1.110443e-07 -2.203774e-07 6.860984e-10 -2.513636e-10 6.225657e-09
-4.219023e-07 1.542338e-06 -8.601649e-07 1.172797e-08 -5.883043e-16 -6.148309e-09
-8.591023e-08 5.310264e-07 -2.338486e-07 -3.365109e-08 1.086693e-07 -6.155678e-08
-2.813157e-07 3.870139e-07 -3.155122e-07 -4.743187e-08 -6.425101e-07 -5.443405e-08
-3.506304e-07 8.512659e-07 -3.349183e-07 -2.982149e-08 -2.664631e-07 2.616109e-08
-5.575793e-08 4.632399e-07 -2.465502e-07 2.554086e-08 1.740948e-07 -2.581345e-08
-3.392678e-08 5.174265e-07 -2.131950e-07 -9.795107e-09 1.294936e-07 1.254872e-09
-8.428539e-08 5.136437e-07 -2.067101e-07 8.487179e-09 6.263216e-08 -2.178107e-08
6.051653e-07 -9.302820e-08 -2.181487e-07 -3.351880e-08 1.449370e-09 3.461640e-08
-9.994121e-08 4.601339e-07 -2.263018e-07 -9.240224e-09 1.632024e-07 -5.141649e-08
-9.048594e-08 5.370338e-07 -2.494868e-07 -4.549486e-08 1.888467e-07 -9.032598e-08
-8.985125e-08 5.006068e-07 -2.059019e-07 -3.781108e-10 5.685115e-08 -2.696119e-08
6.074480e-07 -7.946348e-08 -2.242265e-07 -3.636207e-08 -1.950967e-09 5.432726e-09
-8.273593e-08 5.289407e-07 -1.925836e-07 -4.490861e-09 3.411617e-08 -1.894480e-08
-9.667968e-08 5.289407e-07 -2.051282e-07 -8.535152e-09 3.797255e-08 -5.718925e-09
-2.724062e-07 1.013628e-06 -4.931709e-07 9.628105e-09 2.234960e-08 -3.053494e-09
-5.856487e-07 2.137316e-06 -8.775422e-07 -1.366403e-08 4.995824e-07 -4.752369e-08
-7.084500e-08 1.081872e-06 -8.541564e-07 -5.449501e-07 2.104943e-07 -9.592188e-08
2.555996e-07 4.803049e-07 -7.072312e-07 -4.794181e-08 3.372567e-07 -2.242208e-08
2.630704e-08 7.207122e-07 -5.922136e-07 -1.979743e-07 3.808516e-08 -6.290059e-09
5.976930e-07 -8.855042e-09 -3.083490e-07 -1.807101e-07 -5.138613e-08 5.900357e-08
-8.670612e-08 2.957478e-07 -2.537656e-07 -9.031077e-09 3.496543e-07 -1.184453e-07
1.190551e-08 5.255867e-07 -3.747853e-07 -1.440188e-08 2.370283e-07 -1.016958e-08
5.692473e-07 2.863558e-08 -2.940620e-07 -1.940090e-07 -1.455807e-08 3.893281e-08
6.123442e-07 -1.350456e-08 -3.381006e-07 -1.693629e-07 -1.017504e-08 3.353280e-08
-1.597164e-07 1.440934e-06 -8.655779e-07 -8.293385e-07 -3.770469e-07 1.255181e-07
1.084953e-07 4.214699e-07 -4.488611e-07 -1.820027e-08 3.248654e-07 -2.139078e-08
-3.182052e-07 1.597690e-06 -8.575515e-07 -6.938293e-07 -2.974622e-07 1.576647e-07
3.286995e-06 -1.242391e-06 -7.300434e-07 -4.080539e-07 1.639917e-08 4.084760e-07
-3.620012e-07 1.652231e-06 -9.368054e-07 -7.681842e-07 -4.513224e-07 1.492989e-07
-9.482203e-07 2.378937e-06 -8.263938e-07 4.752967e-08 -3.594841e-07 -5.231500e-08
-1.046164e-06 3.123374e-06 -3.812501e-07 -2.159427e-06 -3.264994e-07 1.124086e-07
-5.286719e-07 2.376175e-06 -7.351521e-07 -1.120104e-06 -3.369089e-07 2.063572e-07
3.051178e-06 -9.090443e-07 -5.223056e-07 -1.848674e-06 -2.616716e-07 3.905834e-07
4.096066e-06 -2.018714e-06 8.923124e-07 -3.156561e-08 -9.985802e-09 2.971310e-07
3.903386e-06 -1.546574e-06 5.152440e-08 -8.960097e-07 -1.508577e-07 3.863300e-07
-9.281379e-07 2.874331e-06 -9.137210e-07 5.681929e-07 -7.526654e-07 -1.689691e-07
-2.208787e-06 4.044528e-06 3.289556e-06 -3.393831e-06 4.028149e-07 -1.538809e-07
-1.950582e-06 4.214588e-06 2.637782e-07 -1.724231e-06 5.978843e-08 5.440199e-08
-6.564111e-07 1.980945e-06 -9.775742e-07 5.766044e-07 -1.451746e-07 6.466800e-09
-9.260420e-07 2.468337e-06 -1.026148e-06 5.658643e-07 -2.088731e-07 -5.804232e-08
-1.143077e-06 2.841404e-06 1.117165e-07 1.561282e-06 -4.048373e-07 -2.158326e-07
-5.634712e-07 3.035992e-06 -6.809276e-07 1.806751e-06 -4.710073e-07 -2.039690e-07
-3.446859e-06 4.047938e-06 5.150177e-06 -3.065966e-06 6.494237e-07 6.806074e-07
-2.336958e-06 4.458334e-06 6.759270e-07 -1.128202e-06 1.022434e-06 -1.083527e-07
-8.846178e-07 2.935118e-06 -8.819657e-07 4.828502e-07 -6.747810e-07 -2.062676e-07
-7.744305e-07 -4.959663e-06 1.361596e-05 -5.657237e-06 -2.513111e-06 1.861202e-06
-5.917820e-07 2.584268e-06 -9.492308e-07 1.315150e-06 -4.589824e-07 -1.964777e-07
-1.936272e-06 4.084562e-06 -6.219850e-07 1.315530e-06 -3.618458e-07 3.227231e-09
-1.142704e-06 3.215105e-06 3.382799e-06 -4.241735e-06 -1.259763e-07 1.219900e-07
-9.904778e-07 8.318666e-07 6.271168e-06 -5.752570e-06 -1.716938e-06 9.518513e-07
3.101132e-08 2.062016e-06 2.887408e-06 -4.620045e-06 3.461375e-07 -1.688244e-07
-2.575984e-06 -4.762377e-07 1.450315e-05 -5.928580e-06 -2.253929e-06 2.278937e-06
-7.104928e-07 2.426918e-06 -8.891042e-07 8.695811e-07 1.105432e-07 -3.691139e-08
-7.516335e-06 3.917940e-06 1.357708e-05 -2.913695e-06 -2.086443e-06 6.109319e-07
-3.162889e-06 4.152551e-06 6.333318e-07 9.670625e-07 6.195335e-07 -6.659778e-08
-6.184844e-07 2.809103e-06 6.512650e-07 -3.215929e-06 -3.942943e-07 2.333262e-07
6.740434e-07 -2.852056e-08 -3.959383e-07 2.251593e-07 3.440062e-08 1.179807e-07
1.156948e-06 -1.423073e-07 -6.566298e-07 4.079512e-07 1.219249e-08 8.958810e-08
9.236619e-07 -1.469987e-07 -4.975454e-07 3.129830e-07 8.553177e-09 7.330514e-08
-2.166689e-08 1.861243e-06 -4.420229e-07 -1.998843e-06 -4.376444e-07 1.536182e-07
4.890323e-06 -7.520549e-06 1.206258e-05 5.697992e-07 4.375959e-07 2.562605e-06
1.194795e-06 -1.453492e-06 6.468307e-06 5.491531e-06 2.749774e-06 1.945871e-06
3.679032e-06 -1.631400e-06 4.817597e-07 3.042840e-06 -3.877485e-07 -2.010993e-07
-2.255610e-06 3.642741e-06 3.711649e-06 -3.639936e-06 -5.428977e-07 3.401896e-07
2.034491e-06 -3.002162e-06 1.183484e-05 5.074841e-06 1.453447e-06 2.608296e-06
5.396429e-07 3.162890e-07 -4.627415e-07 4.583116e-07 7.451965e-08 7.815440e-08
-1.109115e-08 1.366198e-06 -6.677259e-07 -2.125223e-06 -1.902264e-07 1.820569e-07
6.380271e-07 2.489131e-07 -4.536062e-07 4.896646e-07 7.196086e-08 8.918057e-08
4.379783e-07 3.418896e-07 -5.221331e-07 4.635330e-07 6.870635e-08 -2.005228e-09
6.769395e-07 1.325404e-07 -6.286084e-07 5.217857e-07 4.749570e-08 9.362082e-08
8.803470e-07 1.307636e-07 -6.066882e-07 6.176596e-07 5.223534e-08 6.395231e-08
9.072072e-07 -2.464255e-08 -7.142395e-07 6.319966e-07 1.027470e-07 1.662002e-07
6.528947e-07 1.594381e-07 -4.553379e-07 4.272426e-07 5.570349e-08 8.692762e-08
-2.732532e-06 4.217419e-06 1.014375e-06 -1.716482e-06 3.318129e-07 -3.075086e-08
-9.915158e-07 3.302199e-06 -7.590006e-07 -5.576033e-07 3.547223e-07 -1.709212e-07
8.473445e-07 3.245393e-07 -6.483831e-07 7.215325e-07 4.540713e-08 6.330176e-08
1.073910e-06 2.172793e-07 -7.288103e-07 8.755718e-07 1.435755e-07 2.471282e-07
-9.898356e-07 2.896376e-06 -6.617112e-07 -1.359681e-06 4.152682e-07 -1.046101e-07
-6.519555e-06 4.587300e-06 9.715977e-06 -1.663460e-06 3.269503e-07 1.018188e-06
8.631316e-07 2.215956e-07 -6.159112e-07 6.610620e-07 1.181325e-07 1.830478e-07
1.308609e-06 2.817531e-07 -8.829311e-07 1.426806e-06 1.798301e-07 1.160150e-07
-2.070076e-06 3.781978e-06 -6.485446e-08 -1.563810e-06 -4.728262e-07 6.790899e-08
-1.645457e-06 3.074820e-06 -5.364284e-07 -1.501617e-07 -4.331437e-07 5.908360e-08
3.046656e-06 -1.066688e-06 -5.376968e-07 -1.405761e-06 6.324071e-08 -7.516506e-08
-1.458036e-06 2.905031e-06 -5.665036e-07 -6.652049e-07 -4.369570e-07 1.094601e-07
2.474278e-06 6.687915e-08 -7.344955e-07 -2.216512e-06 -2.483223e-07 3.133309e-07
3.628290e-06 -2.066664e-06 6.922270e-07 -1.445345e-06 -2.734869e-07 -1.489171e-07
2.117237e-06 -5.142999e-07 -8.915859e-07 -7.336163e-07 -8.342826e-08 2.605957e-07
-2.303215e-06 3.816628e-06 -3.278170e-07 7.881796e-08 2.660163e-09 1.357032e-07
3.521125e-06 -1.847587e-06 3.167396e-07 -2.564590e-06 4.979857e-07 7.132138e-07
3.146293e-06 -2.041173e-06 1.423795e-06 -1.794050e-06 -6.607719e-08 2.770399e-08
6.243909e-07 4.369208e-07 -6.038187e-07 6.645975e-07 2.685361e-08 3.891957e-08
2.199476e-06 -5.656795e-07 2.528581e-07 -2.528285e-06 -1.574451e-07 2.803430e-07
4.110570e-09 3.952766e-07 -2.031645e-07 1.360100e-08 2.887286e-08 6.592693e-08
4.038655e-07 3.606945e-07 -4.952339e-07 4.682210e-07 8.351053e-08 1.489705e-07
5.036364e-07 1.717652e-07 -4.172042e-07 3.497170e-07 9.010612e-08 5.254697e-08
6.989764e-08 4.607356e-07 -2.881407e-07 6.708142e-08 4.066997e-08 4.816422e-08
-1.014193e-08 3.693350e-07 -1.940876e-07 7.030363e-08 1.682021e-07 1.386766e-07
-6.312583e-08 4.399032e-07 -2.155148e-07 1.216727e-08 3.061240e-08 7.377649e-08
1.848792e-08 4.375097e-07 -2.496820e-07 1.491123e-08 1.657089e-08 4.857994e-08
3.384153e-08 3.550148e-07 -2.106451e-07 6.159356e-08 1.034315e-07 8.310874e-08
1.848792e-08 5.108421e-07 -3.238541e-07 2.771972e-08 2.016469e-08 6.097650e-08
5.063563e-07 1.777729e-07 -4.241519e-07 3.480858e-07 -4.652722e-11 7.037659e-08
1.512633e-07 8.176053e-07 -5.577660e-07 4.879981e-07 7.300880e-08 5.619833e-08
2.487110e-07 2.170800e-07 -1.537290e-07 3.604580e-08 1.616319e-08 2.273275e-08
2.057059e-07 2.380149e-07 -1.669094e-07 4.877315e-08 3.768258e-08 3.100762e-08
4.283048e-09 5.438159e-07 -2.991552e-07 6.218200e-08 5.449357e-08 6.705894e-08
8.456058e-08 3.548101e-07 -1.869332e-07 4.212517e-09 2.160099e-08 5.445396e-08
1.441554e-07 3.056507e-07 -1.775895e-07 9.359058e-09 1.355194e-08 4.140074e-08
9.556690e-08 3.291347e-07 -1.864400e-07 2.420102e-08 2.739091e-08 5.685958e-08
1.423440e-07 3.422229e-07 -1.719712e-07 6.494493e-08 3.453417e-08 5.174322e-08
1.207697e-07 2.913489e-07 -1.785218e-07 6.997829e-08 7.903023e-08 9.678528e-08
3.264671e-07 2.880731e-07 -4.210446e-07 3.318251e-07 8.524177e-08 8.265221e-08
4.202473e-07 5.327036e-07 -5.662439e-07 5.799652e-07 3.892792e-08 3.897001e-08
2.585683e-07 5.758164e-07 -4.996430e-07 4.460964e-07 2.960299e-08 3.556803e-08
8.719877e-08 1.091698e-06 -7.662552e-07 4.711697e-07 -2.267029e-08 -2.883052e-08
2.144658e-07 1.324135e-06 -8.579557e-07 7.885938e-07 -5.848620e-08 -3.716099e-08
1.805588e-07 3.648019e-07 -3.337034e-07 -1.115300e-07 -7.361922e-08 8.304453e-08
3.871540e-07 1.526359e-07 -2.306967e-07 -1.071558e-07 -1.715577e-08 2.022611e-08
3.479742e-07 1.240251e-07 -2.006367e-07 -4.755724e-08 -9.635762e-10 2.971282e-09
4.579084e-07 5.073716e-09 -1.737841e-07 -3.643908e-08 -5.826349e-09 1.429621e-08
4.873553e-07 -5.503605e-08 -1.843278e-07 -7.615048e-08 -2.751307e-08 7.930594e-08
4.713719e-07 7.653159e-09 -1.725679e-07 -2.093509e-08 -2.367374e-09 -3.284901e-09
6.046112e-07 -9.437761e-08 -2.186779e-07 6.133822e-09 -2.226850e-09 -4.714077e-16
5.081204e-07 -2.650709e-08 -1.865981e-07 -1.055478e-08 -7.622375e-09 2.200753e-09
-6.787583e-07 1.640826e-06 -6.914325e-07 -2.998024e-07 -7.504424e-07 1.113184e-07
4.351952e-07 2.400579e-08 -1.570151e-07 -6.369055e-09 -4.203455e-10 2.916667e-09
-3.041849e-07 1.058452e-06 -6.540812e-07 -3.431610e-08 -3.010409e-08 5.366722e-08
-2.432205e-07 3.105947e-07 -3.379394e-07 -3.599320e-08 -8.843333e-07 2.106094e-07
6.151219e-07 -1.187014e-07 -2.202948e-07 -3.353171e-08 -1.495495e-09 8.325270e-08
5.653806e-07 -1.103272e-07 -1.830544e-07 -2.025726e-08 -3.810776e-08 8.562390e-08
5.755886e-07 -7.768698e-08 -2.083191e-07 -8.236502e-09 -6.655664e-09 9.337029e-09
-2.526445e-07 7.292749e-07 -3.954336e-07 -3.490642e-08 1.571169e-07 -5.300466e-08
5.992670e-07 -1.226201e-07 -2.257486e-07 -5.537462e-08 -1.402469e-08 7.343448e-08
-3.399852e-07 7.751824e-07 -3.771938e-07 1.654537e-09 -1.988219e-07 1.603277e-08
5.508526e-07 -6.576182e-08 -1.823288e-07 -6.583473e-08 -1.232247e-08 7.274608e-08
-5.219662e-07 1.752698e-06 -7.022138e-07 1.449008e-08 -5.393436e-07 -2.710461e-08
5.718928e-07 -1.222085e-07 -1.635651e-07 -1.866772e-08 -9.855186e-09 9.653189e-08
5.588028e-07 -1.013173e-07 -1.848445e-07 -1.442025e-08 -1.083699e-08 4.989264e-08
6.055075e-07 -1.256247e-07 -2.043729e-07 5.377930e-08 2.123052e-08 1.108317e-07
5.510735e-07 -1.308982e-07 -1.820241e-07 2.838593e-08 1.079562e-08 1.011732e-07
5.780099e-07 -1.093240e-07 -1.660833e-07 4.186042e-10 7.477753e-10 1.206577e-08
5.637918e-07 -9.035505e-08 -1.886953e-07 -6.979406e-08 -2.487389e-08 7.145586e-08
6.148946e-07 -1.118312e-07 -2.229640e-07 -3.133393e-08 -4.994648e-09 8.009829e-08
5.743582e-07 -9.509151e-08 -1.841352e-07 5.992181e-09 2.168522e-09 1.029827e-08
1.155005e-06 -2.163433e-07 -4.848493e-07 9.200727e-08 -5.596423e-07 3.052792e-08
-1.368706e-08 -1.163724e-07 -2.575390e-07 -1.699128e-08 -7.657337e-07 -2.950125e-07
3.400962e-07 5.653867e-07 -7.208022e-07 5.462721e-07 -6.937761e-07 -4.078378e-07
9.447997e-07 1.506309e-07 -7.940360e-07 1.318296e-07 -5.930896e-07 -1.697380e-07
2.110257e-06 -1.953691e-07 -1.232734e-06 1.853099e-07 -4.469830e-07 -1.657276e-07
5.485888e-07 -1.055071e-07 -1.523139e-07 -3.378263e-08 -1.783093e-08 8.337775e-08
1.155005e-06 -2.188072e-07 -8.011989e-07 8.708680e-08 -5.960120e-07 4.445026e-09
1.012002e-06 -1.290021e-07 -1.147484e-07 6.328386e-07 -9.711363e-07 -7.230062e-07
-1.529981e-08 -3.566465e-07 -1.767106e-07 -4.041119e-08 -8.512653e-07 -8.782391e-07
4.800303e-07 -1.221368e-08 -1.703084e-07 -6.939517e-08 -1.147780e-08 4.772587e-08
5.122084e-07 -3.490811e-09 -1.862915e-07 -4.167783e-08 -9.267982e-09 1.195376e-08
5.279795e-07 -4.739967e-08 -1.805480e-07 -3.649615e-08 -1.872709e-08 3.795546e-08
6.187551e-07 -1.029559e-07 -2.342240e-07 -4.035719e-08 -1.162072e-09 1.530625e-08
1.166688e-07 6.258594e-07 -4.057576e-07 3.202958e-07 2.011127e-07 1.313603e-07
1.332835e-07 4.454747e-07 -3.268177e-07 1.227894e-07 7.109545e-09 1.341571e-08
2.331641e-08 4.389416e-07 -2.381876e-07 2.121687e-07 2.560294e-07 1.566721e-07
4.751714e-07 3.691901e-09 -1.783860e-07 -7.975931e-08 -1.081727e-08 2.797311e-08
4.550301e-07 2.604680e-08 -1.652526e-07 -2.051659e-08 -3.413558e-09 -7.050053e-10
1.190552e-08 4.759383e-07 -3.660590e-07 -7.270106e-09 2.225191e-07 -1.173005e-08
-2.331874e-06 4.469225e-06 8.213760e-07 -2.134020e-06 5.440869e-07 -1.099081e-07
1.085256e-07 5.648789e-07 -5.046685e-07 -1.493041e-07 2.988024e-07 -7.924411e-08
1.166688e-07 6.091542e-07 -5.292336e-07 4.031207e-07 1.146954e-07 8.748593e-08
4.921230e-09 6.295148e-07 -3.964234e-07 -1.193438e-07 1.699189e-07 -6.834346e-08
-1.641580e-07 6.168114e-07 -2.942587e-07 -1.481013e-08 4.286771e-08 -7.381919e-08
3.530196e-08 4.422379e-07 -2.222148e-07 2.056625e-07 2.644984e-07 1.377302e-07
-3.032277e-06 -1.082317e-05 3.989828e-05 1.573425e-06 1.542310e-06 -1.248876e-05
-3.216061e-06 -1.483537e-05 3.369552e-05 2.785562e-06 -4.876453e-06 -9.688333e-06
-1.821500e-06 -5.790937e-06 1.705264e-05 6.517308e-06 -7.255193e-06 -6.084740e-06
3.730106e-07 -8.985986e-06 2.469738e-05 3.806978e-06 -1.353066e-06 -5.462767e-06
-1.869064e-06 -1.461545e-05 3.151362e-05 1.057613e-06 2.412731e-06 -2.760791e-06
-4.352252e-06 -1.413947e-05 2.931294e-05 -2.635702e-06 -7.146101e-06 -5.521915e-06
-4.697609e-06 -1.683243e-05 4.817439e-05 -1.601612e-06 3.422757e-06 -1.134711e-05
-1.324934e-05 -1.680531e-05 4.822771e-05 -2.123962e-06 3.494072e-06 -1.430189e-05
1.859833e-06 3.451437e-07 -8.432398e-07 -2.211872e-06 -2.549939e-07 1.467022e-07
4.986532e-07 -4.139068e-08 -1.650980e-07 3.217788e-08 1.023752e-08 3.515332e-08
5.075552e-07 -2.051962e-08 -1.912587e-07 1.246903e-08 -3.469800e-09 -5.306195e-16
4.850918e-07 -1.802661e-08 -1.579405e-07 1.254086e-08 6.822582e-09 5.806507e-09
4.487696e-07 9.816438e-09 -1.585804e-07 4.498513e-09 1.400711e-09 5.535498e-09
1.939772e-06 -5.683057e-07 -6.080984e-07 -1.451908e-06 -1.830643e-07 4.328663e-07
1.984298e-06 -6.167304e-07 -7.989084e-07 -1.483398e-06 -1.346564e-07 2.104792e-07
1.160384e-06 1.977683e-09 -7.503035e-07 -8.169248e-07 -7.547459e-08 2.810957e-07
-3.152728e-07 1.275386e-06 -7.946587e-07 1.184462e-07 -3.915975e-08 -4.353609e-09
5.258256e-07 6.013800e-07 -8.465734e-07 -1.137512e-06 -3.437591e-07 3.415680e-07
6.421660e-07 2.292395e-07 1.518735e-06 -3.590599e-06 -1.435211e-07 2.996264e-07
1.859833e-06 -7.824702e-07 4.082991e-07 -2.198532e-06 -4.261111e-07 5.670505e-07
8.210297e-07 9.328431e-07 -2.449999e-07 -2.392877e-06 -1.518655e-07 3.797617e-08
3.619810e-09 8.289260e-07 -6.175818e-07 -1.125342e-07 -3.083348e-08 3.575262e-08
3.504204e-07 1.109395e-06 -3.118841e-07 -2.181676e-06 -2.867094e-07 3.141867e-07
6.921928e-07 -1.615799e-07 -2.875917e-07 1.509106e-08 -3.222248e-09 1.224105e-07
7.968766e-07 -1.450323e-07 -3.266937e-07 4.325657e-08 7.582917e-09 7.652453e-08
7.209230e-07 -1.623740e-07 -2.991803e-07 3.702757e-09 1.304539e-10 1.600041e-08
6.757953e-07 -1.469737e-07 -2.659966e-07 -7.687624e-10 -4.900410e-09 4.272505e-08
7.338631e-08 1.001279e-06 -7.519245e-07 -5.928164e-07 -2.425354e-07 2.027874e-07
-2.166689e-08 1.754092e-06 -7.768524e-07 -2.490269e-06 -8.441890e-08 4.062296e-07
1.124788e-06 -2.823150e-07 -5.731443e-07 -2.900212e-07 -3.567823e-08 2.200492e-07
8.028784e-08 1.393407e-06 -8.762969e-07 -8.766494e-07 -1.813220e-07 9.414643e-08
-5.006319e-08 2.549592e-07 -2.218725e-07 -9.830814e-08 -3.694390e-07 2.512955e-07
-2.583097e-07 1.543690e-06 -9.305995e-07 -7.771298e-07 -5.092113e-08 1.253576e-07
-3.728243e-07 1.314052e-06 -8.224824e-07 -3.714759e-07 -2.517516e-07 5.722785e-08
1.942462e-06 -8.395056e-07 -7.785651e-07 -1.177272e-06 1.057832e-07 -4.530776e-07
1.075084e-06 -1.742559e-07 -5.760051e-07 -2.695756e-07 -4.243723e-08 2.055073e-07
4.660191e-06 -3.662138e-06 3.864657e-06 -2.764410e-06 -4.937189e-08 9.800747e-07
-5.345929e-07 -1.204521e-06 9.699859e-07 5.462350e-07 4.121458e-07 -1.226227e-06
8.922494e-07 -1.704815e-07 -8.360256e-07 -3.249079e-07 5.799359e-07 -3.717698e-07
3.619387e-06 -9.135980e-07 -7.905644e-07 -1.719241e-06 3.159610e-07 -4.992807e-07
-9.718057e-07 3.515082e-06 -3.577896e-08 2.073265e-06 -6.726585e-08 8.832218e-08
-1.379275e-06 3.426331e-06 9.754238e-07 2.136131e-06 -8.974174e-08 1.577235e-07
-2.090697e-06 4.259783e-06 2.472419e-06 2.548053e-06 -6.624562e-07 -4.465506e-08
-1.359200e-06 2.854766e-06 2.452922e-06 3.605590e-06 4.048431e-07 2.657472e-07
1.181817e-06 -1.650383e-07 -6.681712e-07 -3.906982e-07 -6.889150e-09 1.054747e-07
1.639151e-06 -3.092908e-07 -8.042521e-07 -6.094349e-07 -1.822739e-07 4.196576e-07
1.318426e-06 -2.275847e-07 -7.915219e-07 -6.243594e-07 -8.540537e-08 2.138437e-07
-9.219855e-08 5.633060e-07 -2.690294e-07 2.395704e-07 3.858732e-07 1.281091e-07
1.166637e-06 -1.705330e-07 -6.067965e-07 -4.221519e-07 -9.976677e-08 2.419849e-07
-1.208613e-06 3.321449e-06 -5.167006e-07 -1.095167e-06 -9.447511e-08 9.848806e-10
-2.625441e-08 6.600157e-07 -4.270858e-07 8.094050e-08 2.658122e-08 -2.430437e-09
-1.168109e-06 2.711904e-06 4.127802e-07 -2.406377e-06 2.276855e-07 -7.495459e-08
6.146368e-07 -1.101161e-07 -2.275720e-07 9.384024e-09 -8.310713e-09 6.748368e-09
-2.559055e-07 1.841747e-06 -5.027230e-07 -1.920803e-06 4.149831e-07 -1.311947e-07
-1.145605e-06 2.711721e-06 7.291054e-07 -2.424348e-06 6.623239e-07 -3.528036e-07
-9.902313e-07 3.686724e-06 5.413151e-07 -2.891526e-06 3.516969e-07 -6.383615e-08
5.230002e-07 -5.537315e-08 -1.685429e-07 6.710278e-08 2.245272e-08 6.071183e-08
5.299054e-07 -2.146106e-08 -2.191387e-07 5.944352e-08 2.679362e-09 -1.299164e-09
-1.702280e-06 3.240017e-06 -7.590007e-07 -2.980130e-07 3.439399e-07 -9.950153e-08
-9.128720e-08 -6.761525e-08 -1.645380e-07 -4.248391e-09 -8.402595e-07 -6.829966e-07
-1.124035e-07 4.854178e-08 -2.513809e-07 1.731510e-07 -9.053936e-07 -5.926594e-07
-9.254047e-08 -2.950314e-08 -2.633613e-07 5.368873e-09 -8.078803e-07 -5.874934e-07
2.232939e-07 2.064582e-07 -2.849422e-07 4.077101e-07 -8.138458e-07 -5.713940e-07
4.630093e-07 1.730108e-07 -3.555831e-07 4.304420e-07 -1.009387e-06 -9.616355e-07
5.187099e-07 5.333034e-07 -4.683565e-07 7.351552e-07 -8.677502e-07 -6.573799e-07
-1.793121e-07 -1.489958e-07 -2.352303e-07 -7.180531e-08 -6.736834e-07 -5.276075e-07
-1.853807e-07 -2.779135e-07 -2.181636e-07 -1.919904e-08 -5.938264e-07 -5.922016e-07
-4.776092e-08 -2.942701e-07 -4.395901e-07 -1.270760e-07 -5.262077e-07 -3.683660e-07
3.774954e-08 -2.193682e-07 -1.024456e-07 1.266177e-07 -8.401157e-07 -5.899260e-07
-2.220933e-08 -5.574371e-08 -2.389227e-07 1.323889e-07 -8.847776e-07 -5.427125e-07
-6.404278e-08 -1.391742e-07 -1.210486e-07 -4.184840e-09 -8.554327e-07 -6.473110e-07
1.191917e-07 -2.779135e-07 -7.260421e-08 2.717710e-07 -8.681632e-07 -8.129748e-07
5.063237e-07 -1.013202e-07 -2.921295e-07 3.949705e-07 -9.460410e-07 -1.014602e-06
4.026510e-07 -2.942701e-07 -2.340602e-07 1.691779e-07 -8.055264e-07 -6.896939e-07
-1.974267e-07 -1.838335e-07 -5.362073e-08 -9.893344e-08 -8.791501e-07 -6.228412e-07
8.280940e-08 -1.025577e-07 -1.819375e-07 5.406703e-08 -8.691319e-07 -5.722240e-07
-1.188306e-07 -6.708208e-08 -1.810978e-07 1.787408e-08 -8.823023e-07 -5.898702e-07
5.159324e-07 -8.291203e-08 -1.631995e-07 6.459216e-08 2.737146e-08 9.268377e-08
5.157712e-07 -8.336292e-08 -1.629375e-07 6.419852e-08 1.978873e-08 8.123613e-08
5.187031e-07 -8.272750e-08 -1.709631e-07 6.721367e-08 2.358730e-08 8.056304e-08
5.695376e-07 -1.027430e-07 -1.844155e-07 5.209491e-08 2.740812e-08 1.047197e-07
5.677914e-07 -1.192927e-07 -1.855470e-07 4.609463e-08 2.231598e-08 1.033057e-07
6.017413e-07 -1.126916e-07 -2.091224e-07 6.519168e-08 1.921459e-08 1.174233e-07
5.439425e-07 -9.422343e-08 -1.720195e-07 5.634924e-08 1.234934e-08 8.972372e-08
5.449227e-07 -8.747168e-08 -1.711548e-07 5.104632e-08 1.477511e-08 8.796569e-08
5.446661e-07 -8.634505e-08 -1.810036e-07 5.092181e-08 1.200129e-08 9.039576e-08
5.360597e-07 -8.663180e-08 -1.753103e-07 4.711411e-08 1.328682e-08 7.827790e-08
5.366330e-07 -9.260915e-08 -1.658689e-07 5.126002e-08 1.581026e-08 8.413124e-08
5.383139e-07 -9.688970e-08 -1.734988e-07 5.054203e-08 1.009328e-08 8.307329e-08
5.392975e-07 -9.020003e-08 -1.726595e-07 4.522493e-08 1.247016e-08 8.131342e-08
5.415708e-07 -9.249417e-08 -1.646518e-07 4.663413e-08 1.141284e-08 8.712670e-08
5.317923e-07 -8.666173e-08 -1.710159e-07 4.833685e-08 1.184146e-08 7.914514e-08
5.324662e-07 -8.960379e-08 -1.670002e-07 4.834380e-08 1.083250e-08 8.086202e-08
5.381757e-07 -8.961175e-08 -1.770917e-07 4.862612e-08 1.039088e-08 8.147298e-08
5.682721e-07 -1.022308e-07 -1.830490e-07 6.485204e-08 2.599999e-08 9.791477e-08
6.018532e-07 -1.022205e-07 -2.176891e-07 6.380280e-08 2.436316e-08 1.176361e-07
6.026906e-07 -9.693864e-08 -2.107875e-07 7.196726e-08 1.805657e-08 1.051664e-07
5.401335e-07 -1.121140e-07 -1.810894e-07 3.925361e-08 2.088914e-08 9.346389e-08
5.405725e-07 -1.111451e-07 -1.745055e-07 4.358707e-08 2.013324e-08 9.764608e-08
5.411682e-07 -1.027430e-07 -1.779333e-07 4.645677e-08 2.285830e-08 9.728934e-08
5.410907e-07 -1.192927e-07 -1.780924e-07 4.459712e-08 2.110754e-08 9.715124e-08
5.417241e-07 -1.192927e-07 -1.693246e-07 4.452938e-08 2.098349e-08 1.001251e-07
5.398307e-07 -1.122412e-07 -1.753680e-07 3.958351e-08 2.305720e-08 9.269758e-08
5.404190e-07 -1.111451e-07 -1.716964e-07 4.041749e-08 2.082201e-08 9.119940e-08
5.401827e-07 -1.099218e-07 -1.815149e-07 4.033820e-08 1.774059e-08 9.345904e-08
5.396122e-07 -8.291203e-08 -1.764120e-07 6.953876e-08 3.214085e-08 9.724778e-08
5.397713e-07 -8.272750e-08 -1.663623e-07 7.233979e-08 2.852977e-08 9.310566e-08
5.551265e-07 -8.350127e-08 -1.943104e-07 6.581454e-08 3.876039e-08 9.247059e-08
5.464644e-07 -9.537853e-08 -1.749248e-07 6.063027e-08 1.644029e-08 8.915629e-08
5.463437e-07 -8.958577e-08 -1.882649e-07 6.328329e-08 2.341248e-08 8.696164e-08
5.589401e-07 -8.837587e-08 -2.129050e-07 5.884915e-08 1.781111e-08 9.389592e-08
-1.292901e-07 -2.496170e-07 -5.539571e-08 -7.546322e-08 -7.971147e-07 -7.208939e-07
-9.779782e-08 -1.578699e-07 -1.107139e-07 -2.105320e-08 -8.344335e-07 -7.356328e-07
-1.119277e-07 -6.658447e-08 -1.337057e-07 9.725702e-08 -8.374582e-07 -6.773666e-07
-9.740976e-08 -1.271443e-07 -1.352748e-07 -2.527286e-08 -8.231008e-07 -6.702604e-07
-5.916088e-08 -2.903572e-09 -1.533794e-07 1.860566e-07 -7.883981e-07 -7.054936e-07
1.135033e-08 3.519341e-09 -1.738899e-07 2.097117e-07 -7.523288e-07 -6.335208e-07
1.257891e-07 -1.834405e-08 -2.048459e-07 2.307094e-07 -8.794856e-07 -8.202338e-07
1.585955e-07 2.099979e-07 -2.843512e-07 4.109605e-07 -7.934508e-07 -6.416236e-07
-1.546245e-07 -2.397614e-07 -2.774831e-07 -7.068715e-08 -6.030030e-07 -5.963940e-07
-1.625177e-07 -1.996522e-07 -2.155605e-07 -7.644070e-08 -6.571562e-07 -5.787477e-07
-1.663503e-07 -2.772576e-07 -2.253058e-07 -4.333636e-08 -6.016023e-07 -6.200211e-07
-9.682769e-08 -2.955617e-07 -3.249632e-07 -9.477257e-08 -5.588634e-07 -5.052903e-07
-1.796042e-07 -3.248078e-07 -1.910605e-08 -1.151979e-08 -8.051645e-07 -7.263364e-07
-6.212822e-08 -2.843145e-07 -3.398367e-08 5.879858e-08 -7.839725e-07 -6.785649e-07
-7.004190e-08 -1.970518e-07 -1.020170e-07 1.036736e-07 -8.251787e-07 -6.407403e-07
-9.803461e-08 -2.626181e-07 -7.080947e-08 1.150138e-08 -8.367104e-07 -7.150561e-07
1.525661e-08 -2.397614e-07 -1.119139e-07 9.128508e-08 -7.557161e-07 -7.642828e-07
-4.212133e-08 -2.772576e-07 -6.640449e-08 1.429157e-07 -7.772073e-07 -7.628526e-07
1.505690e-07 -1.694371e-07 -1.645178e-07 2.095724e-07 -8.357073e-07 -8.524553e-07
1.010762e-07 -2.955617e-07 -1.390709e-07 9.739251e-08 -7.400435e-07 -6.971672e-07
-1.447977e-07 -2.495713e-07 -8.033017e-08 -6.292907e-08 -8.320282e-07 -7.127528e-07
-1.590081e-07 -2.498354e-07 -5.075353e-08 -8.498417e-08 -8.396530e-07 -6.739462e-07
-2.715054e-08 -1.924033e-07 -1.175820e-07 2.098954e-09 -8.239706e-07 -6.537916e-07
-9.827736e-08 -1.828054e-07 -1.159198e-07 -1.296111e-08 -8.490305e-07 -6.922040e-07
5.164899e-07 -9.213897e-08 -1.630651e-07 6.336057e-08 2.401222e-08 9.618943e-08
5.172134e-07 -8.418723e-08 -1.626212e-07 6.610803e-08 2.639335e-08 9.725863e-08
5.155021e-07 -8.759458e-08 -1.624873e-07 6.297009e-08 2.254866e-08 9.142220e-08
5.166638e-07 -8.721242e-08 -1.641077e-07 6.419833e-08 2.319161e-08 9.074502e-08
5.484768e-07 -1.097297e-07 -1.735581e-07 6.093356e-08 2.427938e-08 1.066297e-07
5.495975e-07 -1.052809e-07 -1.737791e-07 5.690743e-08 2.508928e-08 1.049325e-07
5.482840e-07 -1.157286e-07 -1.743925e-07 5.291790e-08 2.198214e-08 1.040014e-07
5.661000e-07 -1.103553e-07 -1.886316e-07 6.398653e-08 2.113314e-08 1.107169e-07
5.291244e-07 -9.683086e-08 -1.699056e-07 5.581266e-08 1.418156e-08 9.938493e-08
5.326583e-07 -9.697565e-08 -1.681115e-07 5.659139e-08 1.429425e-08 9.496682e-08
5.369580e-07 -9.305658e-08 -1.677200e-07 5.224624e-08 1.556113e-08 9.365872e-08
5.365012e-07 -9.361658e-08 -1.742720e-07 5.279479e-08 1.280867e-08 9.560547e-08
5.266172e-07 -9.604875e-08 -1.668567e-07 5.377291e-08 1.589138e-08 9.724792e-08
5.305084e-07 -9.258701e-08 -1.673252e-07 5.041348e-08 1.586326e-08 8.991100e-08
5.308995e-07 -9.603719e-08 -1.655049e-07 5.328420e-08 1.601638e-08 9.197795e-08
5.306102e-07 -9.878396e-08 -1.676572e-07 5.424550e-08 1.334831e-08 9.276783e-08
5.349248e-07 -9.490092e-08 -1.672772e-07 4.990378e-08 1.458813e-08 9.147392e-08
5.361615e-07 -9.597382e-08 -1.658877e-07 5.071900e-08 1.359988e-08 9.429087e-08
5.281869e-07 -9.260100e-08 -1.665800e-07 5.098735e-08 1.518087e-08 9.103120e-08
5.281593e-07 -9.405958e-08 -1.656848e-07 5.136681e-08 1.530701e-08 9.125224e-08
5.304217e-07 -9.406436e-08 -1.677223e-07 5.154393e-08 1.506197e-08 9.069497e-08
5.481957e-07 -1.046340e-07 -1.726155e-07 6.364321e-08 2.203285e-08 1.051479e-07
5.489498e-07 -1.046476e-07 -1.730904e-07 6.342711e-08 2.427868e-08 1.014494e-07
5.661375e-07 -1.046485e-07 -1.938618e-07 6.346691e-08 2.446103e-08 1.106794e-07
5.663258e-07 -1.022000e-07 -1.888219e-07 6.533634e-08 2.093950e-08 1.078153e-07
5.322021e-07 -1.097297e-07 -1.704007e-07 5.500077e-08 1.949179e-08 1.020194e-07
5.365902e-07 -1.107728e-07 -1.744311e-07 4.740422e-08 2.037180e-08 9.825269e-08
5.365648e-07 -1.096286e-07 -1.701054e-07 5.068947e-08 2.031360e-08 1.008270e-07
5.372284e-07 -1.052809e-07 -1.722864e-07 5.249433e-08 2.152804e-08 1.008667e-07
5.371702e-07 -1.157286e-07 -1.723726e-07 5.111875e-08 2.053028e-08 1.007687e-07
5.372335e-07 -1.157286e-07 -1.670152e-07 5.158504e-08 2.138419e-08 1.022894e-07
5.365599e-07 -1.098967e-07 -1.709351e-07 4.721098e-08 2.230323e-08 9.759104e-08
5.370519e-07 -1.096286e-07 -1.682145e-07 4.772825e-08 2.095709e-08 9.642342e-08
5.366313e-07 -1.102367e-07 -1.747464e-07 4.829610e-08 1.800278e-08 9.825576e-08
5.296756e-07 -9.213897e-08 -1.681621e-07 6.926904e-08 2.970901e-08 9.990289e-08
5.295186e-07 -8.418723e-08 -1.700368e-07 6.952907e-08 2.969183e-08 9.934522e-08
5.295505e-07 -8.721242e-08 -1.612389e-07 7.004909e-08 2.883277e-08 9.844523e-08
5.405666e-07 -8.810103e-08 -1.783545e-07 6.555194e-08 3.539767e-08 9.911115e-08
5.339969e-07 -9.838252e-08 -1.760483e-07 6.146698e-08 1.984395e-08 9.798495e-08
5.344796e-07 -9.832132e-08 -1.681970e-07 6.165128e-08 1.881424e-08 9.571158e-08
5.330911e-07 -9.595654e-08 -1.781353e-07 6.202061e-08 2.094526e-08 9.190319e-08
5.438596e-07 -9.555743e-08 -1.917816e-07 5.994589e-08 1.934622e-08 9.963736e-08
3.904753e-07 1.007141e-07 -2.290952e-07 1.410233e-07 2.271192e-08 6.803130e-08
3.965863e-07 1.116733e-07 -3.034437e-07 2.039811e-07 5.006150e-08 1.141371e-07
3.406390e-07 1.175800e-07 -2.001821e-07 1.307233e-07 4.527850e-08 5.646031e-08
4.446624e-07 7.794260e-08 -3.112126e-07 1.927866e-07 6.684904e-08 1.252183e-07
4.447019e-07 7.864279e-08 -2.321145e-07 1.656645e-07 4.757906e-08 8.668160e-08
4.043900e-07 6.805273e-08 -2.219021e-07 1.305254e-07 5.676316e-08 7.113752e-08
4.971828e-07 7.488755e-10 -3.485648e-07 2.320909e-07 1.664359e-07 3.287422e-07
5.157834e-07 -3.627836e-08 -2.496422e-07 2.500069e-07 1.669954e-07 2.667992e-07
2.723980e-07 -1.452769e-06 1.136955e-05 5.615537e-06 2.554211e-06 3.497334e-06
-3.133894e-06 3.597835e-06 1.358474e-05 5.908738e-06 8.662367e-06 5.184686e-06
-2.863808e-06 4.696137e-07 1.054347e-05 5.398651e-06 5.535335e-06 4.847646e-06
-3.063855e-06 1.124853e-06 9.293111e-06 5.628558e-06 4.199465e-06 1.531855e-06
-2.672246e-06 1.271224e-06 9.724394e-06 5.095973e-06 3.680933e-06 1.944302e-06
-6.593679e-07 1.659132e-06 -6.800911e-07 7.359814e-07 -7.892131e-07 -2.439254e-07
4.601155e-06 -4.138524e-06 1.501456e-06 4.615857e-08 -7.259697e-08 1.077208e-06
-7.645742e-07 2.065017e-06 -2.824429e-07 5.259357e-07 -1.429514e-06 -2.280299e-07
-4.841427e-07 2.469132e-06 -7.858296e-07 1.051195e-06 -1.142839e-06 -3.780842e-07
-6.500523e-07 2.841579e-06 -7.568077e-07 9.227845e-07 -9.965877e-07 -2.581549e-07
3.586115e-07 1.400453e-07 -1.788103e-07 1.710667e-07 5.017419e-08 8.082470e-08
3.363351e-07 1.420197e-07 -2.111362e-07 1.372770e-07 5.977440e-08 7.461308e-08
3.004172e-07 1.575223e-07 -1.745090e-07 1.285734e-07 5.604601e-08 6.291798e-08
3.293005e-07 1.047613e-07 -1.730711e-07 1.220942e-07 5.565012e-08 7.246466e-08
3.059712e-07 1.461193e-07 -2.121020e-07 1.414755e-07 6.143313e-08 6.877910e-08
3.834348e-06 -4.701374e-06 5.475621e-06 2.432436e-06 -1.697257e-06 -3.138031e-06
3.538896e-07 1.504115e-07 -2.033339e-07 1.604041e-07 6.828501e-08 9.188092e-08
3.168976e-07 1.570630e-07 -1.948154e-07 1.571369e-07 7.367194e-08 8.403393e-08
-9.501032e-07 -5.198202e-07 5.860011e-06 1.928315e-06 -1.294524e-06 -2.832259e-06
-5.718254e-07 2.198755e-06 -5.349312e-07 -1.367100e-06 7.383751e-07 -3.974658e-07
-9.722765e-07 2.168753e-06 -4.416272e-07 -1.227759e-06 7.605795e-07 -3.360520e-07
-1.009590e-06 1.321489e-06 1.684867e-07 -1.016428e-06 1.206027e-06 -5.611811e-07
-5.479039e-07 1.055467e-06 -3.085179e-07 -3.776012e-07 1.204480e-06 -4.668347e-07
3.527799e-06 -2.173292e-06 4.762694e-06 3.093013e-06 -3.557143e-07 2.428577e-07
1.537969e-06 -6.714671e-07 2.882583e-06 1.744664e-06 -3.243134e-07 2.522028e-08
3.016441e-06 -4.781094e-07 -4.791734e-08 2.597630e-06 -3.394143e-07 7.252222e-08
5.598246e-07 -9.595079e-07 2.904930e-06 2.401108e-06 -2.419368e-07 -8.326289e-09
1.130946e-06 -3.093198e-06 7.624915e-06 4.064540e-06 -1.078563e-07 -1.459116e-06
1.261043e-06 -3.245354e-07 5.528497e-06 3.374077e-06 -8.604819e-07 -1.582646e-06
-3.416407e-07 1.920922e-06 -6.955701e-07 1.037418e-06 7.034342e-07 3.024571e-07
3.438115e-07 -1.587090e-07 -2.499982e-07 1.996487e-07 3.280798e-07 5.587389e-07
2.857552e-07 -1.344966e-07 -2.476916e-07 1.981895e-07 3.195131e-07 5.657454e-07
4.835905e-07 -1.455617e-07 -2.655847e-07 2.155315e-07 2.375777e-07 5.158571e-07
5.760121e-07 -7.322350e-08 -4.825239e-07 3.432578e-07 3.410617e-07 6.632464e-07
9.013569e-07 -1.851153e-07 -1.491941e-07 -7.705241e-07 -5.291786e-07 1.168737e-06
1.332544e-06 -1.101887e-07 1.598532e-07 -9.274150e-07 -7.506626e-07 1.300694e-06
1.681939e-06 -4.415362e-07 6.783242e-08 -2.381047e-06 -3.888390e-07 5.333865e-07
8.253567e-07 -1.095095e-06 1.099397e-06 -1.632591e-06 -6.875003e-07 8.500685e-07
3.222105e-08 -8.632209e-07 2.298425e-07 -3.626886e-07 -7.302442e-07 1.006327e-06
-1.500567e-07 1.240637e-06 -2.454100e-07 1.495281e-06 9.269842e-07 5.421495e-07
7.229267e-08 1.322073e-06 5.652543e-09 1.725393e-06 1.044743e-06 8.629013e-07
3.661388e-07 1.221850e-06 -4.739708e-07 1.493292e-06 9.713441e-07 7.017095e-07
3.605138e-08 3.564523e-07 -3.377486e-07 9.558197e-07 7.990883e-07 5.695403e-07
4.259241e-07 1.040882e-06 1.715603e-07 1.861851e-06 6.723791e-07 6.762176e-07
3.498378e-07 6.474035e-07 -5.056998e-07 1.598112e-06 1.141756e-06 6.779075e-07
-2.774844e-07 6.155198e-07 -1.520622e-07 1.267460e-06 8.943933e-07 6.360294e-07
3.508128e-08 4.561432e-07 -4.072778e-07 3.659227e-07 4.350249e-07 2.725239e-07
2.040816e-06 -4.327586e-06 2.751790e-06 1.130115e-06 -9.958358e-07 8.263325e-07
2.536132e-08 4.381897e-07 -4.066985e-07 3.810065e-07 4.549238e-07 2.476303e-07
-7.190160e-07 1.562510e-06 -6.923043e-07 -3.726771e-07 -5.703094e-07 1.313943e-07
1.182384e-07 5.032578e-07 -3.916980e-07 4.295219e-07 4.044224e-07 2.278112e-07
4.486936e-07 -6.510842e-08 -2.181444e-07 1.166862e-07 7.136042e-08 1.868070e-07
2.454958e-08 5.690329e-07 -3.893158e-07 3.604574e-07 3.861780e-07 2.497277e-07
1.287423e-07 4.116305e-07 -3.865743e-07 3.608764e-07 3.916847e-07 2.389320e-07
2.331636e-08 5.048754e-07 -3.867795e-07 2.995503e-07 3.952652e-07 2.436454e-07
2.644402e-06 -9.923066e-07 -4.968519e-08 1.036172e-07 1.208838e-07 6.572394e-07
2.573178e-06 -1.322913e-06 3.488992e-07 7.373534e-07 2.375675e-07 1.300730e-06
2.458135e-06 -1.500874e-06 8.560300e-08 -3.494969e-08 6.135229e-08 6.113550e-07
2.854583e-06 -2.163416e-06 8.362484e-07 4.639397e-07 1.150327e-07 9.967069e-07
1.352845e-06 3.556150e-07 -8.908205e-07 1.322873e-06 6.017907e-07 7.105967e-07
1.201670e-06 2.714948e-07 -5.933362e-07 1.449635e-06 6.431830e-07 7.607620e-07
3.274856e-07 5.497626e-08 -2.187186e-07 9.776279e-07 5.886563e-07 8.870691e-07
1.204829e-06 -1.555491e-07 -5.883207e-07 1.486239e-06 6.637185e-07 7.528541e-07
6.316334e-07 4.535396e-07 -1.018430e-07 8.438536e-07 1.027242e-06 1.462550e-06
-2.533104e-07 -1.290197e-07 -1.003385e-07 4.100592e-07 6.449528e-07 7.138961e-07
6.351875e-07 -9.340798e-08 -3.314556e-07 1.632324e-07 3.799581e-08 1.589365e-07
6.388393e-07 -7.690003e-08 -3.273617e-07 1.528324e-07 2.540443e-08 1.628716e-07
5.830033e-07 -5.848560e-09 -2.584396e-07 1.776481e-07 5.416607e-08 1.322376e-07
6.633324e-07 -9.340798e-08 -3.013671e-07 1.497244e-07 4.342625e-08 1.158572e-07
5.299736e-07 -2.781590e-08 -2.245911e-07 1.184472e-07 4.320144e-08 1.488345e-07
6.400615e-07 -5.333376e-08 -2.950883e-07 1.376884e-07 2.748040e-08 1.219807e-07
5.948499e-07 -7.934577e-08 -3.285232e-07 1.771380e-07 4.824035e-08 1.534124e-07
7.008858e-07 -1.212365e-07 -2.868328e-07 1.478566e-07 6.147433e-08 1.925922e-07
6.239845e-07 -1.178349e-07 -3.317335e-07 1.185186e-07 3.916375e-08 1.762816e-07
6.222019e-07 -9.703708e-08 -2.725765e-07 9.485138e-08 3.437785e-08 1.845118e-07
6.293425e-07 -1.303538e-07 -2.718207e-07 1.010343e-07 5.194028e-08 2.241370e-07
7.136112e-07 -1.440574e-07 -3.031687e-07 2.209836e-08 8.307380e-08 2.577790e-07
7.645488e-07 -1.204859e-07 -3.157191e-07 1.004576e-07 1.921365e-08 1.609077e-07
7.570746e-07 -1.436891e-07 -3.135138e-07 8.723522e-08 2.836312e-08 1.667151e-07
-7.999978e-06 4.394659e-06 1.903941e-05 -5.985881e-06 1.526125e-05 -3.558657e-06
-5.556035e-06 5.290338e-06 1.946900e-05 -4.502854e-06 1.459328e-05 -4.636458e-06
-2.408410e-06 -2.367384e-08 6.472895e-06 -4.207386e-06 4.423656e-06 -2.922483e-06
1.178340e-06 4.289227e-06 2.208003e-06 -2.791722e-06 3.489494e-06 -2.248551e-06
-6.116631e-06 6.098048e-06 7.843224e-06 -1.812444e-06 6.043219e-06 -1.303561e-06
-4.829030e-06 4.410004e-06 4.556250e-06 -2.747859e-06 4.082240e-06 -1.953796e-07
4.986573e-06 -3.304285e-06 3.621835e-06 1.316550e-06 4.481451e-07 2.791598e-06
4.577737e-06 -3.321238e-06 2.217663e-06 1.571631e-06 6.033424e-07 6.950153e-07
2.520513e-06 -5.657300e-07 6.033795e-07 1.469368e-06 -1.813459e-07 -3.866487e-07
4.456066e-06 -3.646832e-06 1.799390e-06 4.089974e-07 8.623338e-07 6.886969e-07
4.121035e-06 -2.986621e-06 7.933530e-07 -2.268731e-07 8.463121e-08 1.652815e-06
4.593135e-07 3.226645e-08 -2.818889e-07 -1.705259e-07 -1.293659e-07 1.730508e-07
5.162942e-07 7.238320e-08 -3.529920e-07 -3.032823e-07 -1.102913e-07 2.408161e-07
5.111812e-07 9.730761e-08 -4.054490e-07 -3.299891e-07 -1.176520e-07 2.057768e-07
3.332595e-06 -1.817494e-06 -6.471398e-07 1.376067e-06 -2.121613e-08 1.134100e-06
4.444536e-07 7.204976e-08 -2.314925e-07 -2.095309e-07 -1.005077e-07 1.252848e-07
5.180909e-07 1.063475e-07 -4.025674e-07 -2.660631e-07 -1.237789e-07 1.862361e-07
-2.906481e-07 1.429538e-06 -6.262692e-07 -5.618950e-07 8.243355e-07 -1.657837e-07
-4.552544e-07 1.247815e-06 -6.539596e-07 -7.571791e-07 7.021322e-07 -2.474514e-07
-1.589353e-07 1.088588e-06 -6.085532e-07 -5.228076e-07 6.865352e-07 -3.377717e-07
-3.561303e-07 7.520572e-07 -4.101145e-07 -3.397635e-07 8.584181e-07 -3.647126e-07
4.170391e-06 -1.908715e-06 6.548370e-07 3.226302e-08 -5.986042e-08 1.663283e-06
-2.105140e-07 7.509486e-07 -4.056921e-07 -2.707084e-07 8.288690e-07 -3.161292e-07
-4.039755e-07 7.459715e-07 -3.510436e-07 -3.124548e-07 8.187056e-07 -3.801668e-07
-2.670611e-07 7.555059e-07 -4.198795e-07 -2.711937e-07 8.386360e-07 -3.617534e-07
-4.537624e-07 1.012690e-06 -5.062434e-07 -3.098471e-07 7.414637e-07 -2.868734e-07
-2.927967e-07 9.242920e-07 -4.785548e-07 -2.119587e-07 7.296521e-07 -1.850051e-07
-8.502124e-08 4.422388e-07 -3.217757e-07 -6.886924e-07 9.660590e-07 -5.468233e-07
2.481138e-07 7.883024e-07 -4.325592e-07 -6.656721e-07 9.918171e-07 -7.392871e-07
5.571188e-07 5.479928e-07 -4.232920e-07 -1.059038e-06 7.888488e-07 -8.328145e-07
-2.559409e-06 1.385292e-06 4.875360e-06 5.209865e-06 2.471768e-06 6.123421e-07
-5.833160e-06 5.490217e-06 8.891879e-06 2.897272e-06 3.279809e-06 3.340995e-07
-5.923114e-06 5.349927e-06 5.878379e-06 9.632953e-07 6.870741e-07 -4.143486e-07
-6.491557e-06 4.803258e-06 1.490144e-05 2.217422e-06 4.738469e-06 2.140000e-06
-3.296375e-06 3.442769e-06 1.782514e-05 5.748950e-06 9.768946e-06 6.487405e-06
-7.081468e-06 3.221579e-06 1.648006e-05 3.418994e-06 7.946918e-06 1.318551e-06
-6.969509e-06 3.341988e-06 2.035490e-05 5.085315e-06 9.537183e-06 3.500352e-06
4.091303e-07 1.759117e-07 -3.504547e-07 3.112908e-07 9.295599e-08 1.739352e-07
5.423038e-07 1.427344e-07 -4.373420e-07 3.762467e-07 2.166448e-07 2.488969e-07
3.025269e-07 1.590103e-07 -2.811065e-07 2.293639e-07 1.509428e-07 2.013506e-07
3.961954e-07 2.300018e-07 -4.390626e-07 3.766182e-07 2.344703e-07 2.769621e-07
4.044724e-07 1.001119e-07 -2.742598e-07 2.653946e-07 1.430311e-07 1.658364e-07
-7.707931e-07 -2.917158e-06 3.276375e-05 -2.865262e-06 -2.350256e-05 -2.035955e-06
-1.638918e-05 -8.712079e-06 5.733848e-05 2.507826e-06 -1.728606e-05 3.065617e-06
-1.299190e-05 -3.668367e-06 3.113919e-05 1.215306e-05 -1.702412e-05 -1.832404e-05
-2.115589e-05 -2.157271e-05 9.813980e-05 2.794956e-07 -4.270511e-05 -2.714788e-05
-1.452502e-05 -1.944286e-06 4.586476e-05 6.203589e-06 -3.375687e-05 -3.110704e-06
-6.021215e-07 1.650261e-06 -2.951247e-07 9.844875e-07 -1.086785e-06 -2.493449e-07
-3.170976e-07 1.384325e-06 -3.387724e-07 9.376391e-07 -7.858039e-07 -3.067612e-07
-3.824006e-07 1.200874e-06 -4.571305e-07 5.123350e-07 -1.180572e-06 -3.910131e-07
-3.578187e-07 1.215463e-06 -5.476150e-07 5.404970e-07 -1.187399e-06 -4.425813e-07
-3.009918e-07 1.208464e-06 -6.525357e-07 8.907001e-07 -1.081999e-06 -4.586219e-07
2.068241e-07 3.016058e-07 -4.288912e-07 3.385255e-07 3.773598e-07 3.666049e-07
3.516333e-07 4.039388e-07 -3.892827e-07 4.312714e-07 3.002471e-07 2.964560e-07
3.075704e-07 4.529310e-07 -5.691878e-07 6.248494e-07 2.762793e-07 3.288910e-07
3.328844e-07 3.125607e-07 -4.979855e-07 4.748326e-07 2.100548e-07 2.249799e-07
-3.287108e-06 2.319412e-06 1.216355e-05 -4.746633e-06 -2.759690e-06 3.203822e-06
-8.199742e-07 -9.309092e-09 7.662080e-06 -4.624104e-06 -1.463799e-06 1.649351e-06
-3.103068e-06 -2.391774e-07 1.181378e-05 -5.475144e-06 -3.450049e-06 2.589322e-06
-2.349249e-07 -8.353221e-08 9.543433e-06 -4.960457e-06 -4.071055e-06 3.914896e-06
-1.701374e-07 -9.117025e-07 1.157727e-05 -4.625685e-06 -3.850341e-06 3.178556e-06
-4.337582e-07 1.172578e-06 -5.424449e-07 -6.115942e-07 1.009260e-06 -4.359619e-07
-1.565702e-07 6.146725e-07 -3.655818e-07 -4.215052e-07 7.953899e-07 -4.789732e-07
-3.331824e-07 -2.017592e-07 -1.373901e-07 -3.192809e-08 9.535546e-07 -5.054283e-07
-3.298971e-07 1.296741e-06 -5.529559e-07 -8.086229e-07 7.962350e-07 -3.781110e-07
-4.199062e-08 6.987223e-07 -3.854960e-07 -3.233079e-07 8.730815e-07 -3.918725e-07
-2.657217e-07 8.183915e-08 -4.844777e-08 -3.254314e-08 1.121980e-06 -3.929427e-07
-3.892137e-08 8.656489e-07 -3.640622e-07 -5.988323e-07 1.214270e-06 -5.993831e-07
1.189064e-06 -4.453227e-07 -5.098984e-07 3.544648e-08 1.010184e-07 5.167626e-07
1.180329e-06 -3.117038e-07 -4.773627e-07 3.362039e-09 -1.772908e-08 4.731143e-07
9.385944e-07 -3.124385e-07 -4.771093e-07 -3.368661e-08 -1.771301e-08 4.536070e-07
1.226935e-06 -3.529466e-07 -5.454903e-07 1.024614e-07 4.816691e-08 3.996408e-07
1.041727e-06 -2.892832e-07 -4.848116e-07 1.844224e-08 4.272883e-09 3.297910e-07
1.005206e-06 -2.923886e-07 -4.815826e-07 2.258107e-08 -1.926627e-08 4.634713e-07
8.935865e-07 -2.023353e-06 1.126311e-06 6.608206e-08 -3.176111e-07 7.481412e-07
9.900260e-07 -2.436773e-07 -4.772345e-07 2.643896e-08 -3.854754e-09 4.675511e-07
1.074862e-06 -3.007626e-07 -4.531537e-07 -1.244054e-07 -5.294478e-08 4.499581e-07
1.062521e-06 -2.577666e-07 -4.621320e-07 -6.662059e-08 -4.976338e-08 4.830304e-07
1.580754e-06 5.854708e-07 -2.076138e-07 2.415515e-06 7.249891e-07 7.682081e-07
4.183949e-06 -4.268287e-06 4.333361e-06 2.974201e-07 -6.059058e-07 -2.095761e-06
4.390098e-06 -3.737739e-06 5.150102e-06 1.278563e-06 5.335464e-07 -2.787773e-07
1.171081e-07 1.490071e-06 -4.283850e-07 2.219442e-06 7.209990e-07 7.304696e-07
3.354433e-06 -3.206296e-06 4.412941e-06 1.217245e-06 -1.251198e-06 -1.114900e-06
4.905556e-06 -6.845606e-06 8.816687e-06 2.335122e-06 -1.003725e-06 -6.063521e-06
4.268989e-06 -3.203327e-06 3.650518e-07 1.290662e-06 -1.291273e-06 -7.261627e-08
2.113375e-06 -7.840265e-07 2.573818e-06 4.525154e-07 -1.774560e-07 8.144854e-07
3.732895e-06 -4.532220e-06 2.477638e-06 -5.091072e-08 8.940905e-07 -3.564796e-07
4.232105e-06 -6.741598e-06 7.095057e-06 5.019615e-07 -6.359464e-07 -1.324108e-06
4.412447e-06 -4.895814e-06 7.067226e-06 -4.750027e-07 -1.015411e-06 -9.344633e-07
4.404480e-06 -4.949185e-06 4.677410e-06 3.739332e-08 -5.206988e-07 -2.400042e-06
4.949495e-07 5.191611e-08 -2.313231e-07 -1.974462e-07 -9.649051e-08 1.303616e-07
4.579768e-07 1.167108e-08 -2.056205e-07 -1.778291e-07 -9.628843e-08 1.909834e-07
3.835319e-07 -7.621480e-09 -2.077128e-07 -1.268831e-07 -7.617842e-08 1.715516e-07
4.515545e-07 5.740749e-09 -3.092576e-07 -2.078160e-07 -1.015627e-07 2.032368e-07
5.035934e-07 1.899530e-08 -3.122100e-07 -2.341294e-07 -8.519206e-08 1.685880e-07
5.698457e-07 -9.577905e-11 -2.544766e-07 -1.925942e-07 -7.737728e-08 1.660543e-07
4.846079e-07 -1.002976e-08 -1.984481e-07 -1.373114e-07 -6.522065e-08 1.260185e-07
5.249696e-07 6.887568e-11 -2.782121e-07 -1.586246e-07 -7.044454e-08 1.565620e-07
-5.279285e-07 2.041027e-06 3.832840e-07 1.650862e-06 -2.500142e-07 -9.777975e-08
-2.556231e-07 -8.289464e-10 2.844246e-07 2.408003e-08 -1.541972e-06 -7.017300e-07
-5.137578e-07 1.430391e-06 1.500908e-07 6.264087e-07 -7.634903e-07 -4.435195e-07
6.258811e-07 1.051339e-06 -7.358512e-07 1.564793e-06 7.521794e-07 5.862622e-07
-5.131544e-07 1.030526e-06 7.859602e-07 1.184361e-06 -1.861662e-06 -8.297819e-07
-1.463550e-07 1.919632e-06 1.882789e-07 1.861736e-06 -1.055148e-06 -6.607684e-07
-9.065411e-07 1.458953e-06 8.967733e-07 -2.099999e-06 1.358604e-07 -1.366991e-07
-1.086998e-06 2.492026e-06 4.883052e-07 -1.806366e-06 -1.164779e-07 6.456471e-07
-1.245295e-09 1.215667e-06 -5.914181e-08 -2.241499e-06 4.401369e-07 -5.407041e-07
-1.742770e-07 2.766431e-06 9.373076e-07 -2.868011e-06 7.232880e-07 -6.848924e-07
-1.254838e-06 -2.757472e-07 1.570742e-06 -8.759735e-07 5.955384e-07 -2.195491e-08
-2.804990e-07 8.734804e-07 -8.909516e-08 -5.232274e-07 -1.437128e-06 6.385467e-07
-1.454476e-07 8.466236e-07 1.431352e-07 -1.952912e-06 1.562362e-06 -8.755912e-07
-9.010408e-07 -8.178403e-07 1.650402e-06 -8.301084e-07 3.744342e-07 -1.397144e-07
-5.739470e-07 6.758646e-07 2.607378e-06 1.940418e-06 -1.245049e-06 -6.757211e-07
1.657292e-06 -6.522358e-07 2.091879e-06 1.613358e-06 -1.603469e-07 -1.333972e-06
3.774133e-07 -4.109017e-07 1.776420e-06 7.916602e-07 -2.899967e-07 3.605882e-07
1.200029e-06 3.630038e-07 1.937685e-06 3.231412e-06 -8.971206e-08 -5.263686e-07
1.372326e-06 -5.385241e-07 6.017617e-06 3.038202e-06 -2.791897e-06 -2.787745e-06
3.518291e-08 7.480637e-07 2.348970e-06 2.832224e-06 -5.234916e-07 -5.796387e-07
-1.095860e-06 -4.045238e-07 5.368545e-06 1.091584e-06 -3.317972e-06 -2.393795e-06
-2.953068e-07 1.615158e-06 -7.994705e-07 7.280554e-07 -7.704860e-07 -2.810980e-07
-3.467910e-07 1.823157e-06 -8.431027e-07 6.835969e-07 -8.217506e-07 -3.269587e-07
-3.467910e-07 1.147760e-06 -7.125041e-07 5.177984e-07 -6.458460e-07 -1.990416e-07
-2.789299e-07 8.993151e-07 -4.720072e-07 4.288297e-07 -8.446926e-07 -4.926009e-07
-5.433868e-08 8.880919e-07 -4.598116e-07 4.924475e-07 -8.506580e-07 -3.639589e-07
-2.095524e-07 1.022859e-06 -3.506587e-07 3.724990e-07 -6.630974e-07 -3.112622e-07
-2.932506e-07 9.445110e-07 -6.969234e-07 4.387000e-07 -7.430369e-07 -3.839539e-07
1.213099e-06 -1.992959e-07 -5.574805e-07 -1.144529e-06 -4.151225e-07 5.487637e-07
-2.413488e-07 2.497515e-07 -2.999237e-07 1.139819e-07 1.122827e-06 5.691542e-07
1.402236e-06 -4.346998e-07 -3.089420e-07 -9.408978e-07 -1.628340e-07 8.429697e-07
1.392999e-06 -5.784791e-07 -3.727860e-07 -1.277194e-06 -3.613835e-07 7.829283e-07
1.535471e-06 1.150052e-07 -5.911822e-07 -1.607686e-06 -5.884926e-07 1.020064e-06
3.029297e-07 -1.499575e-06 4.743856e-07 3.456944e-07 3.769456e-09 -4.378314e-07
5.899947e-07 1.264734e-07 8.089968e-07 1.851747e-06 -1.451836e-07 2.913823e-07
7.194896e-07 1.834305e-07 4.410343e-08 1.938203e-06 -1.010283e-06 -8.663591e-07
1.028175e-06 -1.640300e-07 4.131158e-07 2.140682e-06 -3.401538e-07 -4.149039e-07
1.349696e-06 -3.340920e-07 7.817258e-08 1.530584e-06 -8.762841e-07 -9.233418e-07
3.038223e-07 1.392322e-07 -1.650243e-07 8.773455e-08 3.003485e-08 3.098392e-08
-1.165939e-06 2.191342e-06 -1.620730e-07 -1.187848e-06 -7.488339e-07 1.962005e-07
-1.315545e-06 2.922070e-06 1.008437e-06 -9.394562e-07 -1.636086e-06 3.356836e-07
-4.940664e-07 1.529567e-06 -6.520660e-07 -5.825535e-07 -6.155351e-07 2.276524e-07
2.304853e-07 6.624050e-08 -2.651777e-07 -1.544909e-07 -2.242205e-07 2.396019e-07
-1.277112e-06 3.087816e-06 6.279282e-07 -1.162173e-06 -6.945924e-08 2.209611e-07
-7.297109e-07 2.199628e-06 -5.174449e-07 -1.325222e-06 -1.213469e-06 6.356837e-07
-1.325762e-06 1.628548e-06 5.171815e-07 -7.978428e-07 -5.530637e-07 1.702484e-07
-7.331033e-07 2.235015e-06 2.465615e-07 -1.459949e-06 -3.792136e-07 5.836620e-07
-6.744894e-07 1.043416e-06 -1.971761e-07 -4.553092e-07 1.192718e-06 -3.282135e-07
-6.384045e-07 2.181560e-06 -5.049838e-07 -6.712369e-07 1.370007e-06 -3.213872e-07
-3.452500e-07 1.571639e-06 -6.823416e-07 -5.005441e-07 -6.255298e-07 2.271567e-07
-4.723013e-07 2.265518e-06 -4.168837e-07 -1.507521e-06 7.404735e-07 -1.427990e-07
-3.990907e-07 1.908644e-06 -5.688699e-07 -1.675173e-06 1.055303e-06 -4.336595e-07
-3.722811e-07 1.076031e-06 -2.284892e-09 -1.495464e-06 5.443049e-07 -5.636561e-07
-8.140757e-07 2.395097e-06 -3.049247e-07 -1.475369e-06 6.043813e-07 -2.806508e-07
-9.955692e-07 2.356324e-06 6.829893e-07 -1.388977e-06 5.377836e-07 -2.212103e-08
-1.016763e-06 3.097417e-06 -4.966959e-07 -1.449873e-06 1.152814e-06 -2.830793e-07
9.754658e-07 -3.966849e-07 -4.800587e-07 1.389843e-07 2.429757e-07 7.508993e-07
1.623490e-06 -6.820405e-07 6.238841e-06 -3.348686e-07 -3.450042e-06 -2.733804e-06
2.646721e-06 -2.294117e-06 3.120673e-06 -9.044245e-07 5.259999e-07 2.190130e-07
6.771718e-07 2.081430e-07 -6.202030e-07 7.062073e-07 3.546738e-07 4.425321e-07
1.073910e-06 2.172793e-07 -7.247942e-07 8.755718e-07 3.288786e-07 4.733509e-07
7.007816e-07 2.203925e-07 -5.438614e-07 7.133732e-07 3.883972e-07 6.171094e-07
7.662329e-07 -1.451461e-08 -6.219514e-07 6.078077e-07 2.562759e-07 3.751369e-07
6.205848e-07 1.790864e-07 -4.377756e-07 5.696454e-07 3.054256e-07 4.058614e-07
-1.065576e-06 3.277330e-06 -7.646732e-08 -9.761730e-07 1.005556e-06 -2.425713e-09
-1.895402e-06 1.723293e-06 2.992079e-06 -1.207911e-06 -2.133814e-07 6.737718e-07
-7.594315e-07 -1.577967e-08 1.493393e-06 -3.227329e-07 4.536532e-07 9.936890e-10
-6.583570e-07 1.387378e-06 3.582911e-07 -8.921129e-07 1.541559e-06 -9.475703e-07
-1.733435e-06 2.196795e-06 1.063908e-06 -7.060902e-07 1.878493e-07 -6.892112e-07
-3.053622e-06 2.910291e-06 7.203190e-06 3.098863e-06 -4.293641e-06 -3.088603e-06
-3.200524e-06 3.296201e-06 5.447698e-06 1.724037e-06 -1.195443e-06 -9.642158e-07
-5.591496e-07 3.464060e-06 7.792643e-07 2.268739e-06 4.708632e-07 4.912714e-08
8.023136e-07 -1.587068e-07 -2.946506e-07 -3.727454e-08 -3.678229e-09 1.416937e-07
-1.977142e-06 2.945533e-06 1.736597e-06 2.448410e-06 -8.432165e-07 -9.609158e-07
-3.249807e-06 5.883644e-06 8.724636e-06 1.154920e-06 -7.035659e-06 -8.028541e-08
-2.304787e-05 -2.942501e-05 1.323350e-04 -4.827318e-06 2.377145e-05 -2.901233e-05
-2.934984e-05 -1.424831e-05 6.497332e-05 4.949252e-06 2.449900e-05 1.401019e-05
-2.011920e-05 -1.017775e-05 4.568316e-05 -2.376938e-06 3.150318e-05 -1.015402e-05
-2.837320e-05 -2.097128e-05 1.256607e-04 5.816568e-06 3.441236e-05 1.297176e-05
-2.146210e-05 -2.552525e-05 1.145535e-04 -7.659533e-06 1.342416e-05 -1.688102e-05
-2.922422e-05 -1.577957e-05 1.167155e-04 4.330275e-06 2.542892e-05 9.952342e-06
-1.027436e-06 -3.257368e-06 1.466598e-05 -5.028728e-06 -5.248310e-06 6.067040e-06
-4.377583e-06 -1.119153e-06 1.987975e-05 -7.818514e-06 -1.838827e-05 1.097973e-05
3.604322e-06 -1.325722e-06 -2.239069e-07 6.664625e-07 1.888081e-07 9.485038e-07
2.704182e-06 -2.075532e-06 2.370504e-07 3.875482e-07 1.182673e-06 5.169155e-07
2.455786e-06 -1.527168e-06 2.776949e-07 6.219824e-07 2.524288e-08 4.529664e-07
5.092057e-07 -1.085487e-06 1.194507e-06 -2.226574e-07 -1.833217e-07 1.108712e-06
2.328406e-06 -1.631062e-06 1.798132e-06 6.204471e-07 -6.737385e-07 4.315301e-07
1.474613e-06 -1.518176e-06 -1.554632e-07 3.956486e-07 1.085043e-06 1.388709e-06
1.557136e-06 -1.515066e-06 2.161718e-06 6.254062e-07 1.843850e-07 9.312709e-07
2.004202e-06 1.787791e-07 -6.026850e-07 -1.908308e-06 -4.939344e-07 7.531190e-07
1.859833e-06 -3.962418e-07 -3.236442e-07 -2.283220e-06 -1.936930e-07 1.157711e-06
3.347088e-06 -1.280800e-06 3.483734e-07 -2.075476e-06 -2.357182e-07 1.386259e-06
2.942627e-06 -1.723720e-06 1.725985e-07 -2.600790e-06 -7.075584e-07 1.093939e-06
8.420092e-07 -6.266021e-08 9.746597e-07 -1.431801e-06 -8.380670e-07 7.634656e-07
2.440573e-06 -3.300543e-07 3.295813e-07 -2.763270e-06 -5.599169e-07 1.099139e-06
2.470557e-07 1.446657e-06 -1.667626e-07 1.576182e-06 1.149394e-06 7.055196e-07
3.410824e-07 2.108137e-07 -3.245309e-07 2.655802e-07 1.420158e-07 1.740827e-07
3.809655e-07 1.207945e-06 -5.243042e-07 1.508435e-06 5.372139e-07 5.241788e-07
4.212318e-07 1.147826e-06 -7.513916e-07 1.523112e-06 8.171577e-07 6.730979e-07
-1.090623e-06 1.611180e-06 4.763152e-06 -4.365158e-06 3.149420e-06 -1.395364e-06
-4.457901e-07 5.356230e-07 2.464090e-06 -1.646982e-06 4.724924e-07 -6.202316e-07
4.597224e-07 7.771443e-09 1.143162e-06 -1.331627e-06 -3.974961e-07 -4.519951e-07
5.693738e-07 -4.485697e-07 2.341838e-07 -6.367760e-07 -4.357172e-07 1.366128e-06
2.143489e-06 -1.023569e-06 -1.171594e-07 9.675507e-09 -1.453203e-08 1.338644e-06
1.273308e-06 -8.639595e-07 -2.379256e-07 -4.233803e-07 -9.894139e-08 1.088117e-06
1.216281e-06 -5.114218e-07 -3.079073e-07 -3.984181e-07 -2.434212e-07 1.067270e-06
1.115960e-06 1.317009e-07 2.805354e-07 1.790538e-06 -3.840763e-08 -2.399814e-07
1.273478e-06 -6.465999e-07 -3.607636e-07 -4.149654e-07 -1.587273e-07 1.081142e-06
3.786971e-07 -6.203251e-07 1.143798e-07 -9.239701e-08 -1.913271e-07 1.440907e-06
4.920775e-08 -2.643590e-07 7.890043e-08 -1.689347e-07 1.982374e-08 1.159702e-06
-3.375109e-06 -8.536666e-06 3.667859e-05 1.799871e-06 4.551576e-06 2.434939e-05
-2.986129e-06 -8.545548e-06 3.871142e-05 1.766870e-06 3.399523e-06 2.887156e-05
-8.601185e-06 -1.463667e-05 5.269271e-05 3.273850e-06 1.443012e-05 2.519075e-05
-7.730206e-06 -7.928242e-06 4.482156e-05 5.765952e-06 2.598189e-05 4.388863e-05
-2.952366e-06 -9.196826e-07 2.606382e-05 -5.879960e-08 8.704149e-06 2.270625e-05
-7.958989e-06 -1.034282e-05 8.715757e-05 5.336174e-06 2.281524e-05 4.225186e-05
5.932405e-07 -1.081797e-07 -2.198431e-07 1.290297e-07 5.306492e-08 1.728285e-07
6.068063e-07 -1.102139e-07 -2.660099e-07 1.247405e-07 5.502045e-08 2.037897e-07
7.269821e-07 -1.335273e-07 -3.186298e-07 1.400495e-07 2.541684e-08 1.438892e-07
6.825629e-07 -1.142509e-07 -2.919143e-07 1.022350e-07 5.271581e-08 1.279753e-07
6.289093e-07 -8.231982e-09 -3.769011e-07 3.566283e-07 2.422627e-07 3.412938e-07
4.327240e-07 1.722852e-07 -4.079285e-07 3.463971e-07 1.265491e-07 1.523941e-07
5.696053e-07 2.688780e-08 -3.179512e-07 2.951649e-07 1.409520e-07 2.113427e-07
4.189021e-07 6.355642e-08 -2.655645e-07 3.220658e-07 1.995143e-07 3.186500e-07
4.218815e-07 8.959756e-08 -3.855865e-07 3.157082e-07 1.447027e-07 2.039170e-07
-3.835157e-07 2.104152e-06 1.606383e-06 2.063910e-06 1.034287e-06 -1.532457e-07
1.576753e-07 5.102193e-08 -2.506910e-07 2.092922e-07 3.301776e-07 3.545940e-07
5.143917e-07 2.054261e-07 -3.880077e-07 4.511493e-07 1.275089e-07 2.391202e-07
4.838294e-07 1.620695e-07 -4.960560e-07 4.068326e-07 2.110939e-07 2.965858e-07
4.591762e-07 1.581695e-07 -3.952032e-07 4.231337e-07 3.705748e-07 4.177204e-07
1.192942e-07 4.432069e-08 -2.696294e-07 2.256334e-07 3.185846e-07 3.815835e-07
3.481762e-07 1.017611e-07 -2.635751e-07 3.430674e-07 2.751957e-07 3.101811e-07
4.414087e-07 1.268694e-07 -4.389494e-07 3.625404e-07 2.673094e-07 4.115409e-07
4.781380e-07 1.698893e-07 -4.427759e-07 -4.208025e-07 -3.520968e-07 4.473648e-07
4.388664e-07 6.008521e-08 -2.917622e-07 2.689736e-07 1.719282e-07 2.974754e-07
4.570736e-07 1.007112e-07 -4.020829e-07 3.644827e-07 2.600571e-07 4.368708e-07
-5.119471e-06 -3.335944e-07 1.367072e-05 -8.619168e-06 1.024003e-05 -6.811910e-06
-2.148817e-06 -4.864424e-07 1.511029e-05 -5.818435e-06 7.590946e-06 -5.512441e-06
2.457856e-06 -2.472541e-06 1.024716e-05 -3.691184e-06 5.170143e-06 -7.546228e-06
-3.670008e-07 -7.417537e-07 1.395926e-05 -3.635187e-06 6.137510e-06 -5.170066e-06
4.047362e-07 2.933673e-07 -4.550052e-07 4.792352e-07 1.998867e-07 1.679481e-07
1.225879e-06 -2.429765e-07 2.023549e-06 -3.522232e-06 -3.708749e-07 2.575067e-07
1.993334e-06 1.309755e-07 6.125729e-07 -2.750978e-06 5.246676e-07 -1.030669e-06
1.054660e-06 -1.116523e-07 4.156579e-07 -3.383436e-06 2.345884e-08 -8.498109e-07
2.058935e-06 1.813335e-07 -9.546852e-08 -2.674685e-06 8.384700e-07 -9.201219e-07
1.476103e-06 -6.247786e-07 1.342885e-06 -1.970381e-06 -1.385580e-07 -3.585302e-07
5.689541e-07 -6.801317e-08 -2.649824e-07 -9.845643e-08 -6.262895e-08 1.024510e-07
5.916825e-07 -3.262483e-08 -2.372026e-07 -1.295423e-07 -2.533964e-08 7.695514e-08
5.629979e-07 -5.536122e-08 -2.736974e-07 -1.437949e-07 -7.892983e-08 1.790829e-07
5.679536e-07 -3.699859e-08 -2.890821e-07 -1.496066e-07 -5.065730e-08 1.458548e-07
6.092276e-07 1.869433e-07 -5.606536e-07 -5.772218e-07 -2.168112e-07 3.947967e-07
1.685899e-07 1.238212e-06 -7.973814e-07 -7.846162e-07 5.732151e-07 -3.196813e-07
5.032455e-07 1.806470e-07 -4.274560e-07 -4.722615e-07 -3.249175e-07 4.254683e-07
5.896726e-07 1.230526e-07 -5.263981e-07 -5.012111e-07 -2.873172e-07 2.686965e-07
4.695898e-07 1.523701e-07 -3.104027e-07 -3.512301e-07 -1.897418e-07 2.614760e-07
4.249141e-07 2.159045e-07 -4.475544e-07 -3.464525e-07 -2.258980e-07 2.136144e-07
2.983431e-07 1.730165e-07 -1.888687e-07 1.416833e-07 5.750142e-08 6.583343e-08
3.442043e-07 1.903465e-07 -2.791654e-07 2.106157e-07 1.163109e-07 6.253171e-08
3.019919e-07 2.531745e-07 -3.096806e-07 1.976802e-07 9.703931e-08 1.107687e-07
2.619304e-07 1.701007e-07 -1.844992e-07 1.792925e-07 9.989341e-08 9.401620e-08
2.878930e-07 1.618968e-07 -2.529677e-07 2.041500e-07 1.245954e-07 1.216842e-07
2.890142e-07 1.853176e-07 -1.747879e-07 1.349341e-07 6.124258e-08 5.653507e-08
2.137214e-06 -5.173020e-07 -7.328106e-07 -2.889053e-07 -1.020656e-07 8.040187e-07
3.724492e-07 3.754898e-07 -5.287574e-07 -6.517369e-07 -4.999505e-07 4.605883e-07
2.245206e-06 -5.733083e-07 -7.324961e-07 5.982413e-08 -2.490004e-08 7.919813e-07
1.294825e-06 -5.332101e-07 -6.383789e-07 -1.725508e-07 -8.937647e-08 6.811404e-07
1.486405e-06 -4.666942e-07 -4.515949e-07 -4.829966e-07 -2.238046e-07 6.087116e-07
1.582160e-06 -4.963047e-07 -6.734225e-07 -5.542699e-07 -2.276528e-07 6.448794e-07
1.816842e-06 -4.719219e-07 -7.266293e-07 -6.532721e-07 -1.823687e-07 8.443301e-07
2.002012e-06 -3.864526e-07 -6.969438e-07 -1.181703e-06 -2.841916e-07 9.288705e-07
2.057893e-06 -2.048437e-07 -7.465154e-07 -1.078158e-06 -3.736788e-07 8.950401e-07
1.509756e-06 -4.390405e-07 -4.252701e-07 -7.495831e-07 -3.608340e-07 8.442480e-07
1.344324e-07 1.016989e-06 -7.888659e-07 -6.436602e-07 6.269195e-07 -3.459185e-07
2.539815e-06 -9.582823e-07 -7.249689e-07 -1.045057e-06 -1.499544e-07 9.854088e-07
2.011307e-06 -7.093591e-07 -6.691716e-07 -6.816313e-07 -2.691907e-07 8.486853e-07
1.714250e-07 4.101575e-07 -5.295872e-07 -4.808395e-07 -5.174579e-07 4.690918e-07
1.897441e-07 6.728132e-07 -5.886579e-07 -5.402283e-07 -3.380583e-07 3.390653e-07
2.184429e-07 6.978577e-07 -6.472440e-07 -7.816254e-07 -4.672140e-07 2.888516e-07
2.148093e-07 6.496011e-07 -6.241902e-07 -5.561005e-07 -3.675576e-07 3.105092e-07
1.158497e-06 -2.177064e-07 -5.370566e-07 2.377152e-07 8.153910e-08 3.906349e-07
-1.005074e-06 1.810714e-06 8.162170e-08 -4.273564e-07 -8.305649e-07 1.947901e-07
-8.827486e-07 1.419412e-06 -8.203553e-08 -3.753992e-07 -1.228016e-06 1.846791e-07
-9.379263e-07 1.687990e-06 1.922303e-07 -5.060126e-07 -1.880835e-06 5.558938e-07
-8.819793e-07 -7.197432e-07 6.653801e-07 -3.713738e-07 -9.039265e-07 2.089456e-07
-8.120903e-07 1.561570e-06 -7.444091e-07 -4.412629e-07 -8.103384e-07 4.891493e-08
-4.889405e-07 1.502398e-06 -3.565755e-07 -4.669864e-07 -1.116112e-06 1.920853e-07
-6.756262e-07 1.642480e-06 -3.957341e-07 -3.342289e-07 -1.198960e-06 2.165445e-07
-3.993402e-07 1.366602e-06 -3.485576e-07 -3.185447e-07 -8.266691e-07 1.609029e-07
-6.560901e-07 1.161976e-06 -4.757695e-07 -3.484086e-07 -1.307165e-06 4.942203e-07
8.345934e-07 -1.533145e-07 -5.159600e-07 4.038899e-07 1.223580e-07 3.351105e-07
8.613976e-07 -7.628245e-08 -5.425143e-07 4.410632e-07 1.800327e-07 3.332925e-07
-5.396139e-07 -3.089643e-06 1.405177e-05 -5.344106e-06 4.630595e-06 -5.201442e-06
6.027665e-08 1.255912e-06 -8.004467e-07 -9.509301e-07 5.941286e-07 -3.906225e-07
-7.392967e-07 -3.287520e-06 2.794257e-05 -5.747435e-06 8.734243e-06 -1.674998e-05
-5.322490e-06 2.717745e-06 1.566993e-05 -5.869169e-06 1.062618e-05 -8.271706e-06
-2.511863e-06 -4.200848e-07 1.393701e-05 -3.979012e-06 7.042683e-06 -3.596862e-06
-2.311640e-06 3.166804e-06 5.543049e-06 -4.784226e-06 3.384227e-06 -2.832244e-06
-4.181788e-08 7.542476e-07 -5.301834e-07 -4.531709e-07 -8.876671e-07 4.750800e-07
-1.094502e-07 7.914074e-07 -5.369764e-07 -5.501376e-07 -8.879807e-07 5.225793e-07
9.646923e-08 6.296012e-07 -6.509336e-07 -4.730428e-07 -5.546258e-07 3.636929e-07
9.974417e-08 1.023721e-06 -6.452161e-07 -7.692454e-07 -5.440018e-07 3.419144e-07
-4.981887e-08 6.825746e-07 -3.401854e-07 -4.205020e-07 -5.259358e-07 3.139103e-07
1.455550e-07 1.062096e-06 -6.477993e-07 -7.179911e-07 -5.637022e-07 3.325586e-07
1.498692e-06 -3.130797e-07 -7.281445e-07 9.291320e-07 3.338659e-07 6.576577e-07
9.967313e-07 -2.265674e-07 -5.084000e-07 4.831677e-07 2.865697e-07 6.660263e-07
9.295060e-07 -1.501447e-07 -4.907429e-07 7.176793e-07 4.031685e-07 8.009855e-07
1.186655e-06 -2.166143e-07 -5.877555e-07 7.214552e-07 2.089002e-07 7.508179e-07
-2.382045e-08 5.837864e-07 -6.373546e-07 4.364239e-07 -4.993903e-07 -2.109812e-07
-4.216011e-08 6.632533e-07 -7.012892e-07 3.983359e-07 -6.005982e-07 -3.747208e-07
4.382268e-06 -3.213112e-06 3.611857e-06 -6.100852e-07 2.196247e-07 -9.862257e-08
3.082945e-06 -2.875412e-06 5.442816e-06 -5.589725e-07 5.390014e-07 5.187187e-07
5.033683e-06 -4.159463e-06 1.504851e-06 -1.807512e-06 -1.699548e-06 3.130626e-06
4.025944e-06 -3.376397e-06 1.952575e-06 -1.173662e-06 -1.266347e-06 6.937395e-07
5.065624e-06 -5.191632e-06 1.169622e-05 -9.609317e-07 1.312687e-06 4.172163e-06
4.532224e-06 -3.917569e-06 4.076124e-06 3.018747e-07 -6.476242e-07 2.451769e-06
7.056568e-07 -1.560457e-07 -2.316860e-07 7.364085e-08 2.534915e-08 2.526708e-07
7.386233e-07 -1.695100e-07 -3.154977e-07 -9.901442e-09 3.881079e-08 1.897873e-07
7.050778e-07 -1.668878e-07 -2.258463e-07 3.823491e-08 1.163188e-08 2.541205e-07
5.351865e-07 -1.308982e-07 -1.962578e-07 3.910086e-08 1.534382e-08 1.737130e-07
6.007812e-07 -1.439001e-07 -2.198375e-07 9.726104e-08 -1.341126e-08 1.881684e-07
7.098457e-07 -1.710151e-07 -2.071649e-07 3.424887e-08 3.153178e-08 2.419097e-07
4.078258e-07 7.104348e-08 -2.453857e-07 -1.326610e-07 -7.631416e-08 9.775703e-08
3.973409e-07 8.998409e-08 -1.755669e-07 -1.119719e-07 -5.223064e-08 6.813562e-08
4.072153e-07 9.329433e-08 -2.885487e-07 -1.610674e-07 -1.048842e-07 1.659310e-07
3.597436e-07 9.298344e-08 -2.376429e-07 -1.297088e-07 -5.794928e-08 8.012769e-08
3.857454e-07 1.254652e-07 -2.896511e-07 -1.980939e-07 -9.555532e-08 1.255676e-07
4.301868e-07 1.219044e-07 -2.478669e-07 -1.841803e-07 -6.425770e-08 7.269708e-08
3.267780e-07 1.116821e-07 -1.605616e-07 1.748916e-07 1.141489e-07 1.309915e-07
3.693331e-07 1.486054e-07 -2.949640e-07 2.033865e-07 1.195767e-07 1.306125e-07
3.689952e-07 1.351525e-07 -2.831850e-07 2.076247e-07 8.543457e-08 1.512769e-07
4.003548e-07 1.521341e-07 -2.477309e-07 1.582155e-07 5.607802e-08 6.229830e-08
3.728761e-07 7.680039e-08 -2.055783e-07 1.542829e-07 6.930582e-08 9.711611e-08
3.536828e-07 1.311796e-07 -2.598454e-07 1.879776e-07 6.113313e-08 8.181207e-08
3.423136e-07 1.528261e-07 -2.599643e-07 1.905452e-07 9.895067e-08 1.140946e-07
3.093349e-07 1.479824e-07 -1.972716e-07 1.708494e-07 6.666761e-08 9.723369e-08
3.993172e-07 1.114858e-07 -1.811019e-07 1.243337e-07 3.963225e-08 5.967909e-08
3.698500e-07 8.977291e-08 -2.170863e-07 1.492883e-07 7.515713e-08 8.649567e-08
3.722428e-07 1.417659e-07 -2.117228e-07 1.611705e-07 5.682922e-08 8.171207e-08
5.564175e-07 -6.504741e-08 -2.120333e-07 1.618091e-07 8.210323e-08 2.386736e-07
3.363617e-07 1.456702e-07 -2.676047e-07 1.763062e-07 6.817312e-08 9.342577e-08
3.205854e-09 6.766179e-07 -4.348184e-07 6.508973e-07 9.426137e-07 5.655690e-07
-2.099092e-07 9.259870e-07 -5.905059e-07 1.018851e-06 1.042531e-06 5.785418e-07
-1.063044e-08 7.630535e-07 -4.160796e-07 8.482849e-07 8.450834e-07 6.365922e-07
-4.267650e-08 6.176828e-07 -5.153320e-07 5.423722e-07 7.480127e-07 3.763182e-07
2.648347e-07 1.271951e-06 -7.490922e-07 1.123106e-06 6.611563e-07 4.153322e-07
-1.265991e-07 1.311622e-06 -5.779773e-07 8.197600e-07 1.115687e-06 5.458997e-07
8.251703e-07 -2.090483e-07 -4.182155e-07 2.081450e-07 7.540041e-08 4.052620e-07
9.777460e-07 -2.212145e-07 -4.450031e-07 2.724888e-07 1.216443e-07 4.369136e-07
4.173949e-07 1.056937e-07 -3.043654e-07 2.948691e-07 1.271143e-07 1.855867e-07
4.684904e-07 5.431267e-08 -2.969689e-07 3.765072e-07 2.361372e-07 4.180100e-07
4.316130e-07 5.953997e-08 -2.463383e-07 2.755717e-07 1.506653e-07 3.028108e-07
4.696232e-07 1.068802e-07 -4.388900e-07 4.406055e-07 3.146980e-07 4.199662e-07
5.517186e-07 -1.795647e-08 -2.963265e-07 3.173185e-07 2.349497e-07 4.077005e-07
6.117036e-07 1.058639e-07 -4.910650e-07 4.037894e-07 2.239034e-07 2.654545e-07
4.818484e-07 -1.075818e-07 -2.273207e-07 1.079117e-07 7.125206e-08 2.140793e-07
-1.464550e-06 2.046020e-06 4.870785e-07 -7.795467e-08 1.410738e-06 -8.270404e-08
-1.616393e-06 2.465262e-06 2.189914e-07 -2.036258e-07 7.023009e-07 2.762308e-08
-1.547524e-06 2.468339e-06 -1.622960e-07 -2.188877e-07 7.137952e-07 -8.315880e-08
-2.131643e-06 3.272766e-06 -1.518451e-07 -8.516899e-07 9.629444e-07 2.931551e-07
4.274440e-07 -9.685766e-08 -2.362937e-07 1.336109e-07 1.230164e-07 2.994950e-07
-1.214078e-06 3.430227e-06 -2.716277e-07 -1.041023e-06 1.065907e-06 -3.029990e-07
-9.183693e-07 2.516542e-06 -1.771305e-07 -4.028806e-07 7.321004e-07 -1.929562e-07
1.484701e-06 -3.402892e-06 1.282316e-05 -5.095186e-06 -3.566950e-06 4.720494e-06
2.184422e-06 -1.319868e-07 3.430805e-06 -3.300060e-06 -1.106104e-06 5.587249e-07
4.387697e-08 -5.108189e-08 6.357375e-06 -4.657030e-06 -1.697336e-06 1.436622e-06
-2.025186e-07 -2.788419e-06 1.158311e-05 -4.909362e-06 -3.711221e-06 3.186565e-06
2.429773e-07 2.141459e-07 -4.291042e-07 4.250707e-07 3.464859e-07 3.816969e-07
3.346420e-07 1.149701e-07 -3.516006e-07 4.243783e-07 3.937512e-07 4.819652e-07
2.952509e-06 -2.816862e-06 7.427514e-06 -3.878659e-06 -3.958953e-07 1.113780e-06
1.992654e-06 -1.922526e-06 5.091333e-06 -3.908375e-06 -7.749535e-07 2.675268e-06
2.020047e-06 -1.987460e-06 4.881714e-06 -3.860693e-06 1.746925e-07 1.053993e-06
3.024549e-06 -4.612823e-06 1.471449e-05 -1.635451e-06 -2.675686e-06 6.738783e-06
7.783014e-07 -3.846095e-06 1.467330e-05 -2.825836e-06 -1.332812e-06 6.101800e-06
3.232669e-06 -2.982747e-06 7.294662e-06 -1.903088e-06 9.530759e-07 4.414423e-06
2.723614e-06 -1.148523e-06 6.639193e-06 -3.211132e-06 -4.230159e-06 3.413511e-06
1.994018e-06 -1.931468e-06 5.994598e-06 -2.046526e-06 -2.292097e-06 6.652598e-06
3.115578e-07 -1.213891e-06 6.644115e-06 -1.491360e-06 -3.005868e-06 2.802027e-06
-3.117628e-06 2.121465e-06 6.043308e-06 -4.576010e-06 -3.176282e-06 2.557255e-06
-4.475238e-07 1.011439e-06 1.720784e-06 -3.427319e-06 -2.485714e-06 1.595669e-07
5.165294e-07 -2.839418e-06 4.361369e-06 -3.482923e-06 -5.687124e-06 1.896088e-06
-4.768299e-07 -2.008350e-06 1.012873e-05 -6.716333e-06 -4.429825e-06 7.923459e-06
-6.426137e-07 -8.332319e-07 1.927841e-05 -3.975517e-06 -3.179622e-07 3.372569e-06
-1.952674e-07 -3.078633e-06 1.266639e-05 -3.077506e-06 -8.974032e-06 2.189043e-06
-2.270121e-06 1.586030e-07 2.505475e-06 2.427222e-09 -8.680446e-07 -5.690916e-07
-2.481851e-06 2.975192e-06 2.882894e-06 2.329358e-06 -1.033222e-06 6.578353e-08
-2.969113e-06 2.209824e-06 4.382166e-06 2.044821e-06 -3.366133e-06 -3.969220e-07
-2.428027e-06 4.227578e-06 3.882570e-06 2.814148e-06 3.037588e-08 3.156761e-07
-3.034317e-06 3.307674e-07 6.682116e-06 1.614500e-06 -8.377280e-07 -7.958170e-08
-1.075467e-06 1.792578e-06 1.112979e-06 1.183177e-06 1.516583e-07 1.147264e-07
-2.745157e-06 3.544140e-06 1.058723e-06 2.097341e-06 3.131030e-07 1.039657e-07
-1.505685e-06 3.140296e-06 4.455195e-06 1.441487e-06 -1.590602e-06 -1.538859e-06
-5.299128e-06 4.453577e-06 2.801098e-06 2.498874e-06 6.270412e-09 -1.545208e-06
3.220654e-06 -2.206565e-06 1.573724e-06 8.973563e-07 -1.724953e-07 -2.760858e-07
3.717172e-06 -2.132092e-06 -2.369395e-06 -1.608436e-07 4.871848e-07 -1.839379e-08
6.489201e-07 -9.442376e-07 2.166824e-06 4.639836e-07 -4.128482e-08 1.421266e-07
5.100274e-07 -2.133301e-08 -1.764390e-07 -1.031632e-07 -2.817501e-08 7.503132e-08
5.128646e-07 -3.644150e-08 -2.001825e-07 -1.335407e-07 -4.695188e-08 1.517161e-07
5.039957e-07 1.427923e-08 -2.706743e-07 -1.522982e-07 -3.602286e-08 8.676571e-08
4.737206e-07 8.643656e-09 -2.333148e-07 -1.353236e-07 -6.096044e-08 1.152978e-07
4.818664e-07 -2.640844e-09 -2.164660e-07 -1.198381e-07 -5.329652e-08 7.931920e-08
-2.385267e-06 3.451378e-06 2.112078e-06 -1.567853e-06 3.253343e-07 -1.175469e-06
-2.220429e-06 4.799454e-06 7.304049e-07 -8.244393e-07 4.028980e-07 -3.589406e-09
1.629298e-06 -5.502973e-06 1.318186e-05 -4.276381e-06 7.084008e-06 -1.223647e-05
3.849283e-06 -7.159086e-06 2.141382e-05 -1.277256e-06 8.056374e-07 -1.279899e-05
2.878757e-06 -1.125823e-05 2.256291e-05 9.546699e-07 2.350704e-07 -1.194001e-05
7.667024e-06 -6.901584e-06 1.518306e-05 -4.660620e-06 3.480690e-06 -2.210809e-05
3.575608e-06 -1.026633e-05 2.976450e-05 -9.395178e-06 1.206554e-05 -1.971274e-05
5.715016e-06 -6.213504e-06 1.042154e-06 -1.693718e-06 5.647467e-06 -1.048805e-05
-6.285060e-06 1.696150e-06 1.710242e-05 7.404806e-06 -1.089338e-05 -1.001401e-05
-5.538884e-06 1.660055e-06 1.175958e-05 3.417817e-06 -5.665788e-06 -5.678317e-06
-5.084190e-06 2.018153e-07 1.266972e-05 4.973519e-07 -7.222166e-06 -4.769384e-06
3.283897e-06 2.178189e-06 7.734297e-06 2.271993e-06 -1.442483e-05 -5.827785e-06
-7.797302e-07 -1.208335e-06 1.388059e-05 6.548404e-06 -1.100068e-05 -1.373526e-05
9.355186e-07 4.106153e-07 -6.775775e-07 -1.264347e-06 -8.260802e-07 9.146801e-07
3.765272e-07 -1.058339e-07 -1.446389e-07 -7.105630e-07 -8.948031e-07 1.191059e-06
3.190059e-07 -3.889834e-07 -1.794341e-07 -3.075625e-07 -7.760544e-07 9.340462e-07
4.089461e-07 1.325110e-07 -3.983064e-07 -6.012872e-07 -6.711604e-07 7.977427e-07
4.665517e-07 5.695053e-08 -2.887020e-07 -6.045054e-07 -6.803541e-07 8.838284e-07
3.857758e-07 1.242696e-07 -3.157667e-07 -5.870190e-07 -6.162298e-07 7.288592e-07
7.881608e-07 -1.471120e-06 3.694856e-06 1.137418e-07 -6.950698e-07 -1.600751e-06
1.454082e-06 -1.520318e-06 3.105394e-06 2.554028e-06 1.834707e-07 1.428779e-07
8.386558e-07 -2.102697e-07 2.444786e-06 2.776046e-06 -2.195232e-07 -6.429403e-07
1.302345e-06 -6.692481e-07 1.413259e-06 1.740450e-06 -3.570098e-07 -6.021352e-07
1.391566e-06 -2.177317e-06 7.225821e-06 3.219472e-06 -6.646811e-07 -3.417961e-06
2.148006e-06 -7.481101e-07 1.531936e-06 9.844685e-07 -1.263946e-06 -7.733435e-07
2.115203e-06 -6.238046e-07 1.396739e-07 6.465371e-07 2.759237e-07 2.077877e-07
7.609849e-07 -1.802644e-07 -3.202648e-07 -2.857819e-07 -1.776454e-07 4.213424e-07
6.761029e-07 -1.257694e-08 -4.073317e-07 -4.556761e-07 -3.722159e-07 6.247289e-07
5.882208e-07 -5.491059e-08 -3.542688e-07 -3.635731e-07 -2.520234e-07 5.233064e-07
-4.811745e-07 2.953634e-06 1.108843e-06 2.970404e-06 -7.442005e-07 -2.879844e-07
7.003116e-07 6.596375e-09 -3.342353e-07 -4.953465e-07 -2.295976e-07 5.179887e-07
7.756224e-07 -5.748664e-08 -3.242340e-07 -3.315650e-07 -1.630316e-07 4.196211e-07
5.151614e-07 2.112730e-08 -2.364172e-07 1.530044e-07 6.105201e-08 8.675933e-08
5.188443e-07 1.872333e-08 -2.216971e-07 1.493302e-07 4.626240e-08 9.550672e-08
4.851159e-07 -1.015091e-08 -2.592519e-07 1.439067e-07 5.561422e-08 1.402848e-07
4.496255e-07 3.737108e-08 -1.767446e-07 1.323919e-07 2.647536e-08 8.022419e-08
4.981396e-07 -1.446849e-08 -1.946630e-07 1.227836e-07 4.678507e-08 1.004892e-07
4.723137e-07 6.442456e-09 -1.707386e-07 1.153185e-07 2.544475e-08 6.572780e-08
7.153554e-07 -3.502826e-07 -3.758273e-08 8.545946e-07 9.702605e-07 1.387628e-06
1.064593e-06 -7.926052e-08 -6.315232e-07 1.256423e-06 3.949430e-07 6.764902e-07
8.435198e-07 -3.602245e-07 -9.746343e-08 1.009605e-06 6.171028e-07 1.257018e-06
9.780711e-07 1.592802e-07 -5.256037e-07 1.242408e-06 5.626145e-07 9.031824e-07
9.993898e-07 1.631048e-07 -6.853764e-07 1.251502e-06 4.897813e-07 7.516374e-07
1.863720e-06 2.019665e-07 -7.484101e-07 1.595631e-06 3.861935e-07 7.840378e-07
1.091910e-06 -1.372829e-07 -2.519827e-07 1.488292e-06 5.785590e-07 6.604151e-07
-1.870710e-07 1.061155e-06 -5.342189e-07 -9.532424e-07 8.317020e-07 -4.833492e-07
-3.049839e-07 1.092812e-06 -4.333069e-07 -9.781179e-07 9.536312e-07 -3.540312e-07
-5.562401e-07 1.189861e-06 -1.545231e-07 -1.360144e-06 6.987963e-07 -2.673288e-08
-2.695054e-07 -1.372934e-07 3.191275e-07 -1.441154e-07 -1.366375e-06 -2.027704e-07
1.417958e-07 3.902421e-07 -2.654559e-07 3.598593e-07 5.195077e-07 3.357522e-07
2.331641e-08 4.160650e-07 -2.381876e-07 2.686688e-07 2.965849e-07 1.566721e-07
-5.023368e-09 6.312544e-07 -4.235714e-07 3.665277e-07 2.973994e-07 1.713931e-07
7.212411e-08 4.403330e-07 -3.466781e-07 3.252270e-07 3.148048e-07 2.272058e-07
1.399447e-07 3.999853e-07 -2.334407e-07 2.740408e-07 3.072845e-07 1.905844e-07
7.427770e-08 4.396940e-07 -3.420577e-07 2.645548e-07 2.855579e-07 2.325140e-07
-3.369256e-07 6.131763e-08 -2.084272e-07 -3.965001e-08 -1.056859e-06 -3.207932e-07
-2.761593e-07 1.710983e-06 -7.529102e-07 7.871037e-07 -8.601973e-07 -2.229234e-07
-6.698642e-07 1.666612e-06 -7.062129e-07 5.822480e-07 -8.363406e-07 -2.873099e-07
-4.035615e-07 9.774442e-07 -2.996021e-07 3.974289e-07 -1.073509e-06 -4.006496e-07
-4.677453e-07 1.021247e-06 -6.689113e-07 3.424500e-07 -6.944518e-07 -1.792226e-07
3.498814e-06 -8.756203e-06 2.201445e-05 2.797129e-06 5.508639e-06 1.141969e-05
5.290862e-06 -5.275183e-06 6.437069e-06 2.593988e-06 1.018420e-06 5.394791e-06
4.693287e-06 -7.513249e-06 1.089069e-05 4.721449e-07 -1.472473e-06 3.953224e-06
5.018299e-06 -3.592925e-06 6.792457e-06 1.680187e-06 2.006248e-06 4.442561e-06
6.074853e-06 -8.157406e-06 2.310691e-05 -1.573620e-07 2.839518e-06 1.566166e-05
5.150576e-06 -1.140065e-05 2.280297e-05 2.050744e-06 1.447324e-06 1.619713e-05
4.845061e-07 -3.910483e-07 -2.540193e-07 -3.605694e-08 2.137941e-07 8.830327e-07
-3.239648e-07 3.397118e-08 -9.648436e-08 -9.888838e-08 -1.126440e-06 -4.614848e-07
8.469884e-07 -3.493676e-07 -3.111750e-07 1.029991e-07 2.414465e-08 6.114122e-07
1.558382e-07 1.234640e-06 -7.983767e-07 7.578737e-07 -6.046448e-07 -3.220864e-07
-4.964985e-07 1.667178e-06 -6.855027e-07 -5.950928e-07 7.669080e-07 -1.609541e-07
-7.324671e-07 1.675258e-06 -5.549911e-07 -5.722468e-07 7.292858e-07 -1.514688e-07
3.443716e-06 -4.525846e-06 8.570405e-06 -1.998042e-06 -6.060489e-07 -4.965644e-06
3.884683e-06 -6.611329e-06 1.278807e-05 -4.623911e-07 1.891528e-06 -2.625258e-06
2.532666e-06 -7.355510e-06 1.423262e-05 -3.920179e-06 -6.316111e-07 -6.853595e-06
5.528225e-06 -5.002207e-06 1.011311e-05 -1.770829e-06 2.156925e-06 -3.980745e-06
6.017390e-06 -6.556268e-06 1.318635e-05 -1.175439e-07 4.312728e-07 -1.278934e-05
9.592842e-07 4.014796e-07 2.104361e-06 2.977024e-06 -2.880969e-07 -6.723725e-07
1.433348e-06 3.080823e-07 4.232829e-07 2.592396e-06 1.448117e-07 2.919490e-07
-4.321270e-07 9.204576e-07 2.482980e-06 2.059452e-06 6.984157e-07 -2.671879e-07
-4.332855e-07 1.548489e-06 3.842792e-06 3.329295e-06 -1.670926e-06 -1.634839e-06
7.333487e-08 1.713456e-06 -8.058229e-07 1.143650e-06 -7.836373e-07 -3.995951e-07
-4.916080e-07 1.395691e-06 4.509277e-06 3.197710e-06 -1.772242e-06 -1.922957e-06
-7.452684e-08 1.278788e-06 2.324919e-06 3.600905e-06 -4.732184e-08 1.616146e-07
-4.486534e-07 1.109953e-06 -5.345229e-07 2.820724e-07 1.125145e-06 2.444822e-07
-4.482472e-07 1.093459e-06 -3.059806e-07 2.602049e-07 1.137770e-06 1.775369e-07
-3.239216e-07 8.193231e-07 -4.775978e-07 3.236363e-07 6.983088e-07 2.442447e-07
-3.281691e-07 9.822438e-07 -4.784733e-07 2.882895e-07 7.554454e-07 2.476348e-07
-6.754281e-07 1.629447e-06 -6.352781e-07 -3.338730e-07 -8.631767e-07 1.655665e-07
-1.055664e-06 2.300201e-06 -6.328590e-07 -2.725713e-07 -7.224449e-07 6.898072e-08
-6.787583e-07 2.241624e-06 -7.069680e-07 -3.392092e-07 -9.615186e-07 1.819556e-07
-6.694202e-07 1.446974e-06 -7.097255e-07 -2.315072e-07 -6.744836e-07 9.327483e-08
-6.166474e-06 -1.726514e-06 1.948523e-05 -3.442303e-07 -1.068628e-05 -5.669314e-07
-7.731744e-06 -3.859443e-06 3.581565e-05 1.818653e-06 -2.261729e-05 -1.699040e-05
3.709910e-06 -2.679172e-06 1.755351e-06 1.833882e-06 1.061222e-06 5.864061e-07
3.938458e-06 -1.519436e-06 4.132270e-07 1.311885e-06 -2.064424e-07 1.024829e-06
4.090935e-06 -3.886784e-06 4.268239e-06 6.175139e-08 -5.509231e-07 1.189190e-06
4.883594e-06 -4.550863e-06 4.941753e-06 8.245602e-07 7.479559e-08 3.005590e-06
3.688925e-06 -4.625577e-06 9.428609e-06 2.740840e-06 -1.045510e-07 2.944934e-06
2.091885e-06 -1.698643e-06 2.055982e-06 -2.379269e-06 1.555171e-07 -1.199489e-07
3.061289e-07 -1.002753e-06 9.354353e-07 -1.254218e-07 -1.224101e-07 9.277094e-07
8.388635e-07 -5.658666e-07 6.538762e-07 -1.022161e-06 -2.858099e-07 5.936396e-07
6.567796e-07 -4.280991e-07 2.337688e-06 -1.342530e-06 -7.446297e-07 8.316083e-07
4.202838e-07 -1.308832e-07 1.913557e-06 -1.058685e-06 -7.587971e-07 4.043808e-07
-2.254098e-06 4.393076e-06 2.390788e-06 2.772872e-06 2.161343e-06 9.000123e-07
-8.256730e-07 2.326292e-06 2.622179e-06 3.170407e-06 1.572184e-06 3.554259e-07
-2.917055e-06 2.880420e-06 8.272189e-06 3.690756e-06 2.207825e-06 1.964804e-06
-5.400935e-07 2.413765e-06 1.788536e-06 3.395728e-06 2.239206e-06 1.092413e-06
-1.890936e-06 2.342663e-06 1.568879e-06 2.116820e-06 -2.247388e-07 -7.162295e-07
-1.892318e-06 2.363908e-06 4.638255e-06 2.168113e-06 1.058012e-06 -6.711275e-07
3.559078e-07 3.974903e-07 -4.982822e-07 4.301833e-07 2.204132e-07 2.203718e-07
1.730084e-07 2.852647e-07 -2.253879e-07 2.767796e-07 2.328895e-07 1.774799e-07
3.579530e-07 3.623857e-07 -4.010184e-07 4.383023e-07 3.315940e-07 3.006098e-07
9.957642e-08 1.495935e-06 -1.095812e-06 1.352916e-06 -1.044917e-06 -8.977566e-07
1.683467e-07 2.577548e-07 -2.728238e-07 2.973319e-07 2.571155e-07 2.639831e-07
2.207034e-07 2.694067e-07 -2.568095e-07 2.576594e-07 2.480909e-07 2.240821e-07
1.789224e-06 -3.497284e-07 4.337379e-07 1.702046e-06 5.123271e-07 7.082660e-07
1.636122e-07 9.201290e-07 -4.187364e-07 5.674812e-07 -9.194338e-07 -5.980013e-07
2.028429e-06 3.577979e-07 -7.807705e-07 2.173615e-06 4.011505e-07 3.299949e-07
1.636495e-06 -1.876583e-07 -9.054762e-08 2.658355e-06 -2.280011e-07 6.545838e-07
2.884514e-07 -4.310081e-07 1.560155e-06 7.840432e-07 -3.410413e-07 -1.748687e-07
1.470990e-06 -2.970132e-07 2.178115e-06 3.208481e-06 -6.727052e-07 -8.039855e-07
7.431642e-07 -1.974627e-07 -3.356070e-07 2.116948e-09 -1.479591e-08 3.306081e-07
9.047618e-07 -2.947755e-07 -4.775746e-07 4.827924e-08 -2.747766e-08 6.488686e-07
4.899065e-07 -2.753700e-07 -2.888859e-07 1.203910e-08 4.403249e-08 5.288594e-07
1.186288e-06 -3.086369e-07 -6.189560e-07 7.975697e-09 1.450656e-08 4.999003e-07
7.550300e-07 -2.753827e-07 -2.726178e-07 1.321956e-08 4.417040e-08 4.342677e-07
1.167233e-06 -2.932904e-07 -4.801584e-07 2.821522e-08 -1.722584e-08 4.852405e-07
3.819062e-07 1.345815e-07 -2.862761e-07 -1.612459e-07 -8.460971e-08 1.311809e-07
3.301829e-07 1.405867e-07 -1.993475e-07 -1.743201e-07 -9.691028e-08 9.110922e-08
3.749350e-07 1.813685e-07 -3.259498e-07 -2.188041e-07 -1.756171e-07 2.006270e-07
3.855197e-07 1.437533e-07 -3.297414e-07 -2.271937e-07 -1.561588e-07 2.138072e-07
3.390292e-07 1.677904e-07 -3.221476e-07 -2.551197e-07 -1.795470e-07 2.075065e-07
3.633665e-07 1.226880e-07 -2.190538e-07 -2.659417e-07 -1.381327e-07 1.557916e-07
3.853677e-07 8.127701e-08 -1.984540e-07 -1.656838e-07 -1.068400e-07 1.146759e-07
4.366884e-07 1.581456e-07 -3.760541e-07 -2.555389e-07 -1.433581e-07 1.500471e-07
-6.748888e-07 1.316154e-06 -3.050026e-07 1.403682e-07 -1.080836e-06 -6.057146e-08
-1.063620e-06 2.239253e-06 -6.440194e-07 1.624833e-07 -7.446111e-07 1.338025e-08
-7.498350e-07 2.396782e-06 -7.576460e-07 -2.112620e-08 -9.605095e-07 1.483679e-08
-7.345687e-07 1.511533e-06 -6.920836e-07 -5.220094e-08 -7.008330e-07 9.838134e-09
-7.735270e-07 1.604108e-06 -4.193101e-07 -7.113804e-08 -1.398363e-06 2.906615e-08
-7.606399e-07 1.293922e-06 -3.662735e-07 -8.003872e-08 -1.099071e-06 -2.937039e-08
-1.101200e-06 2.205413e-06 -6.564943e-07 1.249519e-07 -7.659074e-07 -8.302357e-09
4.987112e-07 4.266058e-07 -5.707793e-07 1.150354e-06 6.000888e-07 6.073922e-07
-8.210796e-06 3.200193e-06 9.462202e-06 -4.509629e-06 3.029071e-06 -3.318071e-06
6.468684e-07 4.714460e-07 -7.154381e-07 9.621133e-07 3.836446e-07 4.834371e-07
3.668777e-07 5.311791e-07 -5.194570e-07 7.253936e-07 5.068033e-07 4.939077e-07
3.542444e-08 4.262522e-07 -5.243235e-07 6.928529e-07 6.165587e-07 5.449008e-07
3.191605e-07 1.540352e-07 -4.988094e-07 5.931739e-07 5.841639e-07 5.858957e-07
7.763153e-07 -2.083403e-07 -4.777972e-07 2.806585e-07 2.114693e-07 5.702527e-07
1.036464e-06 -1.874435e-07 -5.181178e-07 4.857078e-07 1.918032e-07 6.983109e-07
7.916758e-07 -2.788464e-07 -4.645173e-07 2.643899e-07 1.852806e-07 6.011184e-07
1.021139e-06 -1.442121e-07 -4.736236e-07 4.485914e-07 1.759945e-07 4.591532e-07
1.090489e-06 -2.626895e-07 -6.503920e-07 4.889321e-07 1.598304e-07 5.248282e-07
9.663604e-07 -1.090246e-07 -5.690936e-07 3.245008e-07 1.148282e-07 3.497502e-07
9.756404e-07 1.050164e-06 5.956376e-07 -3.179308e-06 3.501537e-07 -1.391428e-07
2.679508e-07 1.743842e-07 1.442937e-06 -1.662586e-06 -6.073237e-07 6.753447e-07
1.068743e-06 2.888374e-07 3.491550e-07 -2.959551e-06 -1.482185e-07 -1.070229e-07
3.120954e-07 6.648504e-07 2.236928e-07 -1.511315e-06 -5.441730e-07 7.503373e-07
4.210861e-08 2.986078e-07 1.682298e-06 -2.258041e-06 -1.079329e-06 7.499950e-07
-1.971841e-06 2.259504e-06 5.518555e-07 7.231346e-07 -7.337007e-07 -6.179398e-07
-1.002679e-06 -1.069358e-06 2.608935e-06 -5.655393e-07 -3.201826e-07 3.227224e-07
6.395810e-07 1.688194e-06 -6.487945e-07 -1.379416e-06 5.782716e-07 -1.915479e-08
2.327756e-07 1.110379e-06 -8.166458e-07 -7.559060e-07 6.277784e-07 -3.150748e-07
7.573568e-08 6.739312e-07 -5.481007e-07 -5.517142e-07 9.722812e-07 -4.718880e-07
-1.421829e-07 8.181955e-07 -3.657496e-07 -4.216191e-07 6.611859e-07 -3.123704e-07
6.216618e-08 5.905128e-07 -3.853830e-07 -4.566201e-07 8.106205e-07 -4.517800e-07
-2.821688e-08 5.925188e-07 -6.616123e-07 -4.682147e-07 5.662605e-07 -2.748442e-07
-1.191549e-07 1.746713e-07 -3.060494e-07 -5.676534e-08 7.151547e-07 -4.070703e-07
-9.516356e-08 7.623019e-07 -5.822492e-07 -4.298007e-07 7.866330e-07 -3.500134e-07
-5.823172e-08 7.738655e-07 -5.976175e-07 -3.338593e-07 6.862316e-07 -3.624281e-07
6.056013e-07 -1.150764e-07 -4.072681e-07 4.958580e-07 5.253865e-07 7.638484e-07
6.367889e-08 7.119012e-07 -3.546729e-07 -3.702996e-07 6.867753e-07 -3.877770e-07
1.217602e-06 -2.600413e-07 -4.973608e-07 3.655255e-07 2.045304e-07 6.259047e-07
6.259190e-07 -1.716662e-07 -3.026447e-07 2.037856e-07 1.150699e-07 4.522920e-07
6.735068e-07 -1.871372e-07 -3.022898e-07 1.827330e-07 1.243920e-07 4.436402e-07
8.580723e-07 -3.005252e-07 -2.708771e-07 2.376572e-07 1.868488e-07 6.952744e-07
7.427997e-07 -3.000407e-07 -2.832424e-07 2.825222e-07 2.576380e-07 8.822897e-07
4.258747e-07 -3.282110e-07 -2.518998e-07 3.634023e-08 2.724229e-07 7.436674e-07
8.365296e-07 -3.134729e-07 -4.877196e-07 2.072521e-07 2.508585e-07 6.209714e-07
6.498375e-07 -1.643840e-07 -3.751746e-07 2.286014e-07 1.155243e-07 3.875042e-07
6.650031e-07 -1.351436e-07 -2.854562e-07 -4.139814e-08 -1.869117e-08 1.686802e-07
7.131914e-07 -1.908090e-07 -3.026248e-07 -5.086008e-08 -7.191711e-09 2.944080e-07
7.926069e-07 -2.275798e-07 -3.507236e-07 -5.563828e-08 -2.308115e-08 2.407676e-07
6.453044e-07 -1.912706e-07 -2.109030e-07 -3.913707e-08 -1.222990e-08 2.387304e-07
6.616016e-07 -6.539329e-07 1.613425e-07 -7.313252e-07 -5.442020e-07 1.448891e-06
5.945667e-07 -2.958261e-07 -3.084901e-07 -1.603711e-07 -2.817761e-07 1.105860e-06
2.615962e-07 -5.776937e-07 5.789464e-08 -1.454685e-07 -3.700737e-07 1.469718e-06
6.044889e-07 -4.503955e-07 -2.714809e-07 -5.081600e-07 -2.965140e-07 8.982224e-07
6.159521e-08 -1.175991e-07 1.091206e-06 4.336937e-08 8.455844e-07 -2.761658e-07
3.606039e-07 -1.007346e-07 -2.590036e-07 -4.536318e-07 -4.482513e-07 9.906198e-07
1.929584e-06 -6.574488e-07 -4.713886e-07 -9.248291e-07 -2.775741e-07 8.446937e-07
1.170122e-06 3.349897e-07 5.435361e-06 4.604799e-06 -2.460501e-06 -2.819832e-06
-4.289596e-07 -5.739757e-07 7.238412e-06 4.978870e-06 -1.444266e-06 -4.053930e-06
1.185349e-06 1.050058e-06 3.180671e-06 4.822630e-06 -3.113071e-06 -3.400380e-06
-4.779261e-07 -7.278472e-08 2.315736e-06 -2.417008e-07 3.594009e-07 1.072719e-06
1.169520e-06 -4.985542e-06 8.483376e-06 4.191258e-06 1.564196e-07 -2.986205e-06
1.185618e-06 -2.609046e-06 7.771173e-06 4.738313e-06 -5.285462e-07 -3.459958e-06
-3.506430e-06 7.500573e-07 1.051407e-05 4.731442e-06 -3.869938e-06 -5.510948e-06
-1.725005e-06 3.052494e-06 1.343568e-06 1.759741e-06 7.080838e-07 4.631252e-08
-2.570380e-06 -3.429216e-06 1.936501e-05 6.403685e-06 -7.030784e-06 -7.010305e-06
8.684187e-08 1.136312e-06 -4.390834e-07 -1.513682e-06 -7.729019e-07 3.848459e-07
-6.687854e-07 2.286479e-06 7.516035e-07 -1.432022e-06 -1.840160e-06 4.749005e-07
2.685317e-07 1.060397e-06 -5.642566e-07 -1.869919e-06 -6.296685e-07 7.889609e-07
2.744108e-07 1.092097e-06 1.611142e-07 -1.961759e-06 -8.904284e-07 9.366609e-07
6.124450e-07 -1.939397e-08 -1.360358e-07 -1.308706e-06 -4.454713e-07 7.208772e-07
3.979645e-07 4.143803e-08 -4.788766e-07 -5.707029e-07 -5.428452e-07 6.564119e-07
5.506907e-07 1.193503e-07 -3.995159e-07 -4.932884e-07 -6.544327e-07 8.122546e-07
4.714295e-07 -2.006170e-07 -3.619865e-07 -6.299791e-07 -6.268261e-07 7.491934e-07
4.702811e-07 -2.833358e-08 -3.936047e-07 -7.971053e-07 -5.696888e-07 7.597964e-07
6.263593e-07 7.736599e-08 -5.773460e-07 -7.018288e-07 -4.592985e-07 6.221177e-07
1.352478e-06 -3.165386e-07 -3.472225e-07 -9.720877e-07 -4.371802e-07 1.113272e-06
7.280403e-07 -5.623137e-08 -3.417674e-07 -2.120560e-07 -8.854382e-08 1.639126e-07
1.092831e-06 -4.082338e-07 -1.499859e-07 -1.118327e-06 -5.568408e-07 5.737241e-07
6.464950e-07 -6.465747e-08 -5.792298e-07 -1.229832e-06 -6.717885e-07 1.458837e-06
5.564439e-07 -2.232664e-07 -3.191384e-07 -3.617047e-07 -5.704264e-07 8.888989e-07
5.235973e-07 9.158992e-09 -4.073992e-07 -4.995263e-07 -3.375694e-07 5.805828e-07
9.696270e-07 -1.753693e-07 -6.053473e-07 -6.655529e-07 -4.537605e-07 8.628773e-07
-3.868913e-07 1.752567e-06 -7.892182e-07 6.050912e-07 -8.116235e-07 -2.645845e-07
1.204991e-06 -6.877484e-08 -5.718367e-07 -1.032301e-06 -3.908723e-07 7.097697e-07
-1.483466e-07 -2.527838e-07 -1.411583e-07 -2.704177e-07 -4.358971e-07 9.905309e-07
3.979569e-07 1.146178e-07 -2.669888e-07 2.284063e-07 8.192835e-08 1.037460e-07
6.157248e-07 4.283821e-08 -3.459818e-07 -6.735904e-07 -5.634056e-07 7.896877e-07
-1.759699e-07 7.375083e-07 -5.826815e-07 -4.898651e-07 -7.576071e-07 3.921917e-07
-5.989884e-08 7.040877e-07 -4.214137e-07 -4.207703e-07 -7.822611e-07 4.376634e-07
-1.641677e-07 1.252393e-06 -6.930166e-07 -6.861222e-07 -7.601696e-07 2.937315e-07
-2.326311e-07 1.177022e-06 -6.942127e-07 -7.794961e-07 -7.269490e-07 3.096910e-07
-1.307795e-07 1.306244e-06 -6.557362e-07 -7.070200e-07 -5.115526e-07 2.610810e-07
-3.576421e-07 1.058720e-06 -6.721523e-07 -4.095976e-07 -6.292671e-07 3.306651e-07
-2.166141e-07 1.279039e-06 -7.257539e-07 -7.190616e-07 -7.216782e-07 2.877256e-07
8.436313e-07 7.283588e-07 6.635519e-08 2.479183e-06 -5.987252e-07 -1.497183e-07
-2.486697e-08 7.387232e-07 -4.787067e-07 1.420988e-06 -6.250761e-07 1.277776e-08
6.347823e-07 1.151171e-06 -4.547201e-08 1.943878e-06 -1.208420e-06 -7.625050e-07
8.191409e-07 7.498515e-08 -2.250497e-07 1.327990e-06 -1.055146e-06 -1.112591e-06
1.241984e-06 1.094132e-07 4.411181e-07 1.509593e-06 -5.340710e-07 -3.362702e-07
6.497294e-07 -1.226191e-07 -2.016976e-07 -7.448563e-08 -1.814400e-08 1.355137e-07
1.455306e-06 1.683231e-07 1.968249e-07 1.930187e-06 -9.146182e-07 -1.564826e-06
4.121228e-07 -2.477978e-08 -1.972012e-07 -1.039924e-07 -7.289118e-08 1.928329e-07
-2.070867e-07 1.432852e-06 -6.659773e-07 6.309204e-07 -5.147212e-07 -2.560659e-07
2.027943e-07 3.843744e-07 -3.026582e-07 -3.453258e-07 -3.215206e-07 2.536119e-07
1.856372e-07 3.612544e-07 -3.425363e-07 -4.362680e-07 -4.991954e-07 3.493398e-07
2.538564e-07 2.916182e-07 -4.411657e-07 -3.881787e-07 -3.586655e-07 3.641990e-07
2.532299e-07 2.597579e-07 -3.215764e-07 -3.650134e-07 -3.429523e-07 3.073317e-07
3.168286e-07 3.015147e-07 -4.409599e-07 -3.397500e-07 -3.588176e-07 3.348406e-07
-3.668773e-07 -2.691519e-07 5.929078e-07 -1.617055e-07 -1.174661e-06 -2.142343e-07
3.915389e-07 5.341632e-07 -5.376464e-07 -5.898619e-07 -3.488425e-07 3.020868e-07
-1.235073e-06 -1.653613e-07 1.032863e-06 3.939216e-07 7.603170e-07 7.922820e-07
3.949517e-07 8.128226e-07 1.983039e-06 2.857001e-06 -4.640345e-07 -2.777918e-07
-2.212341e-07 6.075222e-07 1.341873e-06 1.554390e-06 7.533324e-07 2.703420e-07
3.117020e-07 7.649454e-07 3.746511e-07 2.414312e-06 5.259827e-07 9.206670e-07
5.601832e-07 -5.499450e-08 -2.563627e-07 1.262710e-07 7.658381e-08 1.751672e-07
5.077293e-07 -2.791188e-08 -2.555504e-07 1.503950e-07 8.299034e-08 1.880844e-07
5.037822e-07 -7.152270e-09 -2.311784e-07 1.294485e-07 6.663981e-08 1.123496e-07
5.603607e-07 -2.775987e-08 -2.589265e-07 1.367117e-07 5.077064e-08 8.724763e-08
5.194586e-07 -2.674334e-08 -1.861468e-07 1.214581e-07 5.729874e-08 1.361823e-07
4.556896e-07 4.654029e-08 -2.468612e-07 1.266220e-07 4.543637e-08 8.939525e-08
4.103425e-07 7.378546e-08 -1.798651e-07 1.082937e-07 3.441239e-08 5.202376e-08
4.608246e-07 5.863859e-08 -2.472432e-07 1.664761e-07 2.881475e-08 9.376309e-08
4.152447e-07 6.738509e-08 -1.937314e-07 1.065415e-07 1.493769e-08 6.232190e-08
6.868454e-07 -1.867635e-07 -3.418973e-07 1.008741e-07 3.091580e-08 2.486224e-07
3.891424e-07 9.447637e-08 -1.778892e-07 9.206680e-08 1.121193e-08 4.178963e-08
6.317984e-07 -1.470862e-07 -2.846877e-07 5.910862e-08 3.763470e-08 1.671618e-07
7.060952e-07 -1.537026e-07 -3.383334e-07 1.115606e-07 9.684358e-09 2.211078e-07
7.019334e-07 -1.335273e-07 -3.623657e-07 1.467309e-07 2.236140e-08 1.974361e-07
6.802048e-07 -1.737269e-07 -3.154352e-07 1.100548e-07 6.816165e-08 2.835439e-07
6.805885e-07 -2.028611e-07 -3.141107e-07 -1.274669e-07 -4.885683e-08 3.116244e-07
7.579087e-07 -2.024940e-07 -3.476615e-07 -1.362043e-07 -4.776046e-08 2.161881e-07
5.842863e-07 -1.284605e-07 -2.184712e-07 -9.318129e-08 -4.523139e-08 2.241668e-07
5.825085e-07 -1.390930e-07 -2.120814e-07 -7.456164e-08 -4.064806e-08 2.321998e-07
6.102376e-07 -1.640102e-07 -2.119392e-07 -8.258416e-08 -3.306096e-08 2.432645e-07
-2.683171e-07 -2.100001e-07 5.977414e-07 -6.332423e-08 -1.289088e-06 -5.232417e-07
3.021090e-06 -2.538387e-06 3.914515e-06 2.999528e-06 -1.405401e-06 -1.862905e-06
2.542306e-06 -2.333308e-06 5.174177e-06 3.884591e-06 -1.919425e-06 -3.729885e-06
3.575882e-07 -3.383684e-06 1.022354e-05 1.398332e-06 -3.007278e-06 -6.755551e-06
-4.702850e-07 2.085843e-06 6.694538e-09 -1.260963e-07 -1.732130e-06 -2.011633e-07
2.473517e-06 -3.384789e-06 1.465751e-05 5.663902e-06 -6.024844e-06 -9.620793e-06
2.313014e-07 8.304824e-07 8.023110e-06 4.810985e-06 -6.087864e-06 -5.605167e-06
6.275876e-07 -4.260601e-06 1.123317e-05 3.529183e-06 -1.716413e-06 -5.910765e-06
-1.945385e-05 -2.729997e-05 8.353976e-05 -3.778312e-06 -2.488591e-06 2.538524e-05
-8.446438e-06 -2.114263e-05 4.260221e-05 4.481951e-06 4.306696e-06 3.183343e-05
-1.442683e-05 -2.316919e-05 7.598911e-05 8.781476e-07 -4.375653e-06 2.189138e-05
1.150339e-06 -1.106687e-05 5.206676e-05 -3.682601e-06 -5.904262e-06 2.837104e-05
-2.065013e-07 9.699229e-07 -6.714819e-07 -4.387397e-07 4.819082e-07 -2.423928e-07
-1.680557e-07 6.846486e-07 -3.631564e-07 -2.905098e-07 5.935839e-07 -1.921120e-07
-2.280893e-07 8.110341e-07 -4.103327e-07 -1.502039e-07 5.590190e-07 -2.995393e-07
-1.589533e-07 7.507101e-07 -3.642896e-07 -2.473853e-07 5.603874e-07 -1.953609e-07
2.024209e-09 6.292685e-07 -3.313011e-07 -3.195238e-07 6.175251e-07 -2.679987e-07
-1.540199e-07 3.468607e-07 -2.900846e-07 -7.314831e-08 5.182559e-07 -2.483478e-07
-1.958665e-07 9.924672e-07 -6.826193e-07 -4.019984e-07 5.001309e-07 -2.483848e-07
-1.188431e-07 6.994496e-07 -2.748101e-07 -2.136582e-07 3.959627e-07 -1.661036e-07
-1.215608e-06 2.195354e-06 8.871145e-08 -7.129950e-07 8.441133e-07 -5.899468e-08
-1.678966e-06 3.554795e-06 -1.780285e-07 -3.936381e-07 6.809690e-07 -4.643717e-07
-8.168030e-07 1.615090e-06 -2.907010e-07 9.786666e-08 1.309359e-06 -1.731593e-07
-1.641016e-06 3.718178e-06 2.839432e-09 -1.877014e-07 1.207684e-06 -6.806624e-08
-1.168304e-06 2.619416e-06 -7.588026e-07 -3.359957e-07 9.130116e-07 6.627815e-08
-1.685041e-06 2.598083e-06 -9.913024e-07 -1.439354e-07 1.014788e-06 5.990340e-07
-1.645457e-06 3.982295e-06 -2.390740e-07 -1.335184e-07 -9.590041e-07 6.608634e-08
-1.184968e-06 1.967512e-06 -3.732060e-07 -3.677890e-08 1.315387e-06 1.581814e-07
-2.239393e-05 -1.145460e-05 7.235700e-05 4.576588e-07 2.911735e-05 6.326850e-06
-2.916804e-05 -3.119273e-05 1.046743e-04 2.357326e-06 1.247720e-05 6.262566e-06
3.011677e-07 1.799324e-07 -2.014128e-07 1.367276e-07 4.237436e-08 7.091530e-08
3.039425e-07 1.780612e-07 -2.160044e-07 1.360071e-07 7.562462e-08 3.691896e-08
3.004433e-07 1.568677e-07 -1.870967e-07 1.140314e-07 4.166406e-08 5.261431e-08
-7.896130e-07 2.477320e-06 -5.150326e-07 -1.322250e-07 -1.128076e-06 7.059102e-08
3.473558e-07 1.504069e-07 -2.092998e-07 1.102934e-07 3.650797e-08 5.059291e-08
9.818586e-07 1.072325e-06 -5.995012e-07 -2.056021e-06 -9.097756e-07 9.284952e-07
3.762262e-07 8.978061e-08 -1.561932e-07 9.141554e-08 2.264435e-08 3.962261e-08
-2.562133e-05 -2.433694e-05 1.098358e-04 -6.544115e-07 -3.183284e-06 -9.654398e-07
-1.412518e-05 -1.404492e-05 9.126487e-05 -1.163396e-06 -3.071489e-05 1.664660e-05
-1.709135e-05 -1.376161e-05 8.661685e-05 -3.034161e-06 -3.155526e-05 1.173673e-05
-1.873138e-05 -2.990957e-05 1.280045e-04 -1.621592e-06 -1.143434e-05 4.202747e-05
1.806372e-06 -1.101614e-05 2.316145e-05 -3.339880e-06 -5.510528e-06 2.374824e-05
-2.778333e-05 -3.329923e-05 8.876041e-05 -5.414319e-07 5.574909e-06 -9.237176e-06
-1.731834e-05 -1.634364e-05 1.170227e-04 7.144599e-06 2.422433e-05 7.318401e-06
-7.971115e-06 -1.572139e-05 7.329484e-05 4.351480e-06 7.951134e-06 4.166980e-05
-2.333570e-05 -2.123682e-05 9.394102e-05 2.664085e-06 -4.099457e-05 7.017463e-07
-1.316662e-05 -1.509779e-05 7.071732e-05 4.869064e-06 2.275511e-05 2.350302e-05
-2.936673e-05 -3.135796e-05 2.007154e-04 2.603839e-06 9.965432e-06 5.245920e-06
1.412078e-06 -4.805505e-07 7.470711e-07 -2.560869e-06 -1.042278e-06 -7.348338e-07
8.221830e-07 -5.587539e-07 9.375032e-08 -2.083713e-06 1.357832e-06 6.201445e-08
-8.135986e-07 1.274620e-06 6.024945e-06 -4.041940e-06 -3.570374e-06 2.145621e-06
-2.898865e-06 3.141083e-06 6.867677e-06 -3.690911e-06 -4.846199e-06 3.725684e-06
1.500527e-06 -1.090572e-06 3.128030e-06 -1.189614e-06 -7.194693e-07 1.384062e-06
-6.467461e-08 1.038919e-06 8.198228e-07 -2.114075e-06 2.634790e-07 -2.706508e-07
9.235790e-07 -3.192670e-07 -5.939991e-07 -4.472824e-07 -1.826887e-07 6.125975e-07
1.015455e-06 1.310427e-06 1.473582e-07 -1.564774e-06 1.779186e-07 -2.960600e-07
8.251069e-07 -9.708195e-07 1.545989e-05 -5.025565e-06 -1.650112e-05 9.809606e-06
6.919578e-07 -1.235237e-07 -3.918857e-07 -2.091964e-07 -8.088230e-08 2.823840e-07
8.704676e-07 -1.310842e-07 -5.773926e-07 -3.667348e-07 -2.390976e-07 5.943255e-07
9.347512e-07 -7.971191e-08 -5.476799e-07 -5.987908e-07 -1.901026e-07 4.771597e-07
3.986835e-07 -2.323450e-07 -3.311799e-07 -1.472565e-07 -2.195480e-07 5.446398e-07
4.122442e-07 5.181264e-08 -1.621126e-07 -8.278258e-08 -1.607851e-08 3.971748e-08
8.598927e-07 -1.136215e-07 -4.314110e-07 -2.628608e-07 -1.364418e-07 3.167184e-07
4.587467e-07 3.359516e-08 -1.943543e-07 -1.050059e-07 -1.926073e-08 4.142922e-08
6.235390e-07 -5.537180e-08 -5.285459e-07 -3.657770e-07 -2.321263e-07 4.412796e-07
1.252676e-07 6.596382e-07 -1.692818e-07 1.702410e-06 -6.122754e-07 -6.316971e-07
9.275704e-07 2.590663e-07 1.486425e-07 1.653723e-06 -8.819566e-07 -1.377773e-06
-1.101707e-06 8.092115e-07 1.068194e-06 9.288164e-07 -9.426895e-07 -2.685673e-07
3.344512e-08 1.301343e-06 -7.435214e-07 2.061928e-06 -8.193890e-07 -9.192376e-07
9.526546e-07 -2.602597e-07 6.757909e-07 2.581143e-06 8.842161e-08 -2.664149e-07
3.456308e-07 3.002926e-07 1.445648e-06 2.052921e-06 -1.547720e-06 -1.008348e-06
3.511924e-08 2.803864e-07 -2.683481e-07 3.194447e-07 3.942233e-07 4.478887e-07
5.215662e-07 3.788269e-07 -5.938623e-07 7.441564e-07 3.391385e-07 4.104752e-07
4.152229e-07 1.771166e-08 -2.690161e-07 4.184843e-07 4.480241e-07 5.854036e-07
8.233630e-07 2.438339e-07 -6.835825e-07 9.190627e-07 3.068598e-07 5.357153e-07
1.289596e-07 7.151189e-08 -2.547584e-07 3.096622e-07 4.827520e-07 5.522460e-07
7.279127e-07 8.884040e-08 -6.894198e-07 7.940289e-07 3.854663e-07 6.127016e-07
4.675171e-07 2.586404e-07 -4.409514e-07 5.406450e-07 2.964297e-07 3.234901e-07
5.617786e-07 3.148154e-07 -5.660070e-07 6.229399e-07 3.289450e-07 3.096120e-07
-2.997963e-06 -1.135683e-05 3.567843e-05 9.222815e-07 -4.702902e-06 2.835778e-05
-1.225986e-06 -8.556739e-06 2.125076e-05 2.570533e-06 2.169840e-05 4.837040e-05
3.913298e-06 -8.335135e-06 1.279498e-05 5.176241e-07 7.661095e-06 1.529684e-05
-1.140357e-05 -2.052978e-06 3.146683e-05 7.661690e-06 1.448414e-05 2.465051e-06
-5.054708e-06 -1.201166e-05 3.726400e-05 6.385526e-06 6.773332e-06 1.622490e-05
-1.849457e-05 -8.788052e-06 5.300706e-05 4.796507e-06 1.614961e-05 1.439158e-05
-2.831756e-06 -2.725253e-06 2.789626e-05 7.861048e-06 1.166386e-05 1.174523e-05
5.611549e-07 -9.009427e-09 -2.613618e-07 -1.528418e-07 -4.237116e-08 8.334340e-08
4.456285e-07 2.241200e-07 -5.742029e-07 -4.829687e-07 -3.202117e-07 3.556075e-07
5.126839e-07 2.017159e-07 -4.278723e-07 -4.549782e-07 -3.303176e-07 4.239596e-07
2.883072e-07 2.593762e-07 -2.977320e-07 -3.037235e-07 -3.030004e-07 3.093686e-07
3.530396e-07 3.701033e-07 -4.154312e-07 -3.898614e-07 -2.381476e-07 2.380262e-07
3.020197e-07 2.060159e-07 -3.427701e-07 -3.003348e-07 -2.294812e-07 3.271913e-07
4.074619e-07 2.954896e-07 -4.372760e-07 -3.476252e-07 -1.739614e-07 1.925380e-07
3.876697e-07 3.431740e-07 -4.447952e-07 -3.935568e-07 -2.077483e-07 2.290064e-07
1.498412e-06 1.613489e-06 1.015906e-06 -3.866027e-06 2.417767e-06 -2.046766e-06
1.633898e-07 5.771515e-07 4.039528e-06 -2.426722e-06 5.665632e-07 -1.525868e-06
-3.554486e-06 6.502558e-07 5.555316e-06 -2.591090e-06 1.094005e-06 3.474588e-07
-6.132426e-06 4.325408e-06 1.117633e-05 -1.630915e-06 5.988117e-06 -2.514206e-06
-1.567559e-06 2.017690e-06 7.243314e-06 -4.540525e-06 2.228349e-06 -2.070249e-07
-1.423610e-06 7.526009e-07 5.773953e-06 -3.828572e-06 3.917645e-06 -1.812136e-06
1.131632e-06 -1.446653e-07 1.760008e-06 -4.710167e-06 1.751493e-06 -2.562583e-06
2.513789e-06 -2.092375e-06 3.855312e-06 3.589262e-06 1.029612e-06 1.827072e-06
5.605810e-08 -5.565680e-09 -1.924215e-07 -3.281926e-07 -5.341183e-07 8.336422e-07
3.125068e-07 1.200659e-06 4.609374e-06 5.396508e-06 3.541277e-06 2.564281e-06
2.748452e-07 1.150659e-06 7.172587e-06 5.334238e-06 4.029452e-06 3.712976e-06
4.967137e-07 1.220926e-07 3.010508e-06 4.551305e-06 6.608840e-07 3.641073e-07
-9.408076e-07 6.385768e-07 5.220859e-06 2.719438e-06 2.251653e-06 6.611456e-07
1.641414e-06 -2.424489e-06 9.239507e-06 4.841862e-06 2.341099e-06 2.925199e-06
2.863348e-06 -2.094228e-06 2.284728e-06 3.132520e-06 2.790309e-07 1.469954e-06
-8.160764e-07 1.380351e-06 1.516949e-06 8.339067e-07 1.162097e-06 -2.939540e-07
-3.342601e-06 5.159463e-06 1.946471e-06 1.830870e-07 -3.217683e-07 -7.934395e-07
-2.684010e-06 1.594909e-06 6.784937e-06 6.521415e-07 -2.477073e-06 -2.239842e-06
-2.974031e-06 -5.238319e-08 5.987239e-06 1.043822e-08 -4.591526e-06 7.448999e-07
4.120758e-08 1.016306e-06 1.325910e-06 -2.064440e-06 -1.436053e-06 8.221505e-07
2.155412e-07 9.664780e-07 9.877490e-07 -3.058855e-06 -2.193672e-07 1.728633e-07
1.165157e-07 7.437658e-07 9.630964e-07 -2.497408e-06 -3.342875e-07 6.761308e-07
-5.373705e-07 -7.000773e-08 2.299027e-07 -4.033173e-07 -6.882315e-07 5.085971e-07
6.546685e-07 9.380941e-07 2.182158e-08 -1.832491e-06 -5.480120e-07 5.942164e-07
3.213687e-07 1.022774e-06 -4.056673e-07 -1.413640e-06 -8.479974e-07 6.147523e-07
4.793794e-07 1.756094e-06 8.004596e-07 -2.428437e-06 -2.893533e-08 8.857499e-08
-3.894775e-07 1.523518e-06 -5.101172e-07 7.161065e-07 -9.212863e-07 -4.500972e-07
-3.714706e-07 1.709625e-06 -6.470064e-07 9.414374e-07 -8.827961e-07 -3.714667e-07
-4.682229e-07 1.237016e-06 -3.649632e-07 3.803749e-07 -1.091678e-06 -2.345856e-07
-2.881320e-07 1.188837e-06 -3.990318e-07 4.639053e-07 -1.204733e-06 -3.126689e-07
-3.032206e-07 3.492610e-07 -2.485758e-07 2.299285e-07 -1.057892e-06 -4.608150e-07
-5.207803e-07 4.150790e-07 -7.423080e-08 9.892334e-08 -1.424065e-06 -6.063896e-07
-1.427203e-07 1.220979e-06 -6.590211e-07 7.002288e-07 -1.065916e-06 -4.306008e-07
-1.467679e-06 2.137399e-06 9.978432e-07 -1.424863e-06 -1.736544e-06 2.552107e-07
-8.752731e-07 1.103507e-06 2.433764e-07 -1.742253e-07 -1.561501e-06 6.794104e-09
-8.829517e-07 1.850207e-06 2.583113e-07 -4.403085e-07 -6.004300e-07 2.836239e-07
-1.494288e-06 2.614558e-06 -1.262677e-07 -5.482916e-07 -8.393295e-07 1.441216e-07
-8.198304e-07 1.572019e-06 -1.352692e-07 -4.869908e-07 -1.401994e-06 1.579803e-07
-6.602717e-07 2.284825e-06 -4.941565e-07 -8.632229e-07 -1.480507e-06 4.413395e-07
-1.465991e-06 3.778600e-06 -1.405429e-07 -7.339436e-07 -1.105177e-06 1.964436e-07
1.739991e-07 2.838255e-07 -3.196176e-07 2.737258e-07 2.448449e-07 1.966877e-07
1.661995e-07 3.424165e-07 -2.244660e-07 2.365562e-07 2.214968e-07 1.786149e-07
1.338382e-07 2.423438e-07 -2.176114e-07 1.459418e-07 1.799069e-07 1.730411e-07
2.128080e-07 2.148465e-07 -2.733648e-07 2.209751e-07 1.609152e-07 1.590699e-07
3.063821e-07 2.919036e-07 -2.999115e-07 3.063996e-07 2.042353e-07 1.995227e-07
7.608479e-07 4.680196e-07 -7.057359e-07 9.121040e-07 4.353060e-07 4.627559e-07
7.267689e-07 1.087563e-07 -5.909965e-07 7.814820e-07 4.905630e-07 6.107375e-07
1.201621e-06 2.223622e-07 -7.160159e-07 1.144720e-06 4.227719e-07 5.819931e-07
3.461787e-07 1.973422e-07 -3.054091e-07 5.593240e-07 5.537861e-07 5.343104e-07
6.258631e-07 2.175524e-07 -5.527524e-07 6.334790e-07 5.732373e-07 5.840950e-07
2.699765e-07 7.109962e-07 -6.394880e-07 -7.492398e-07 -4.568128e-07 3.108115e-07
6.293483e-07 -8.358591e-08 -4.630780e-07 7.425793e-07 5.980289e-07 7.615312e-07
2.209476e-07 7.159726e-07 -7.085224e-07 1.235017e-06 4.427690e-07 6.228469e-07
4.073840e-07 1.468000e-07 -5.077183e-07 6.480360e-07 8.254249e-07 9.331058e-07
6.097405e-07 5.986258e-07 -5.753164e-07 9.746687e-07 5.209893e-07 6.170533e-07
4.186679e-07 7.746193e-07 -7.198509e-07 1.241742e-06 5.348031e-07 4.843955e-07
6.602860e-07 4.920281e-07 -5.644953e-07 9.788554e-07 5.798069e-07 6.615883e-07
5.583667e-07 -1.335348e-07 -2.114491e-07 -4.532222e-08 -1.958098e-08 1.933959e-07
-2.765917e-07 1.076822e-06 -5.686548e-07 -3.314086e-07 4.788156e-07 -1.225572e-07
-2.146573e-07 7.657587e-07 -4.560797e-07 -1.849948e-07 6.050214e-07 -2.578712e-07
-1.884505e-07 1.112471e-06 -6.759877e-07 -3.546164e-07 4.525823e-07 -2.554174e-07
-1.900344e-07 1.109445e-06 -7.015775e-07 -3.581478e-07 4.676995e-07 -2.265226e-07
-1.836095e-08 1.319175e-06 -7.239056e-07 -7.444751e-07 5.912392e-07 -2.338681e-07
-1.888606e-05 -8.712079e-06 5.850463e-05 5.688880e-06 -1.738418e-05 -1.579932e-05
-2.612221e-05 -2.733953e-05 9.295451e-05 -1.907899e-06 9.110576e-06 5.032915e-06
-6.239404e-06 3.281785e-06 1.369257e-05 3.331300e-06 -8.967145e-06 -7.339553e-06
-1.242388e-05 -4.704127e-06 3.815862e-05 -5.301313e-06 -1.384259e-05 1.292192e-05
3.239148e-07 1.248368e-07 -1.674441e-07 9.337069e-08 2.994940e-08 3.691670e-08
3.537052e-07 1.115614e-07 -1.549412e-07 7.927315e-08 9.620811e-09 2.172007e-08
3.685384e-07 9.934198e-08 -1.908184e-07 9.682748e-08 2.823424e-08 3.942477e-08
-2.529996e-06 2.971956e-06 1.252842e-06 3.501941e-07 -3.721024e-09 -6.422424e-08
-3.993301e-06 3.680446e-06 4.219494e-06 -2.728764e-07 1.546903e-06 8.513059e-08
-1.367966e-06 3.181481e-06 6.479552e-09 -2.012505e-07 -5.368488e-07 2.359595e-07
1.768366e-07 4.491353e-07 -3.464110e-07 4.617960e-07 5.734876e-07 4.926338e-07
1.801665e-07 3.483533e-07 -5.102100e-07 4.085646e-07 3.833110e-07 3.162409e-07
1.549515e-07 6.668712e-07 -5.825336e-07 5.823054e-07 4.075693e-07 3.653086e-07
5.265590e-07 1.641192e-07 -4.375674e-08 -8.775951e-07 -6.085385e-07 1.064975e-06
1.050520e-06 -2.701871e-07 -2.261164e-07 -1.173933e-06 -2.382996e-07 6.745199e-07
1.795229e-06 -3.555732e-07 -6.493448e-07 -1.173931e-06 -3.256532e-07 8.773888e-07
1.449998e-06 -3.410056e-07 -5.475986e-07 -1.296652e-06 -9.546938e-07 1.064403e-06
2.033910e-06 -6.194555e-07 -6.794340e-08 -1.966152e-06 -4.559302e-07 6.210066e-07
2.062032e-06 -5.073271e-07 -7.382446e-07 -6.420604e-07 -3.944901e-07 1.002924e-06
6.240962e-07 -1.743493e-07 -5.838386e-08 -7.169399e-07 -5.405639e-07 1.357695e-06
1.904121e-06 -6.636643e-07 -5.280359e-07 -9.016302e-07 -1.440370e-07 7.608896e-07
5.397092e-07 6.164565e-07 -1.329507e-08 -2.179566e-06 -2.765188e-07 6.627520e-07
7.001028e-07 2.152553e-07 -3.237538e-07 -1.042618e-06 -5.948737e-07 7.854808e-07
1.634989e-06 5.708052e-07 -3.077976e-08 -2.162052e-06 -3.364502e-07 4.469586e-07
7.713341e-07 5.668863e-07 -7.030967e-07 -2.156341e-06 -5.004339e-07 1.046952e-06
1.859833e-06 -3.980122e-07 -1.229062e-07 -1.701374e-06 -5.480876e-07 9.930415e-07
-2.762329e-07 1.380430e-06 -7.699496e-07 -3.725538e-07 5.800356e-07 -2.206858e-07
-2.328703e-06 2.196843e-06 3.386600e-06 -3.536782e-06 -1.274472e-06 1.802055e-07
-4.029847e-07 1.035491e-06 -4.884462e-07 -1.919419e-07 7.343483e-07 -1.730668e-07
-4.026378e-07 9.308218e-07 -4.799358e-07 -2.223459e-07 7.276526e-07 -1.659539e-07
-5.290076e-07 1.409795e-06 -6.502925e-07 -4.741986e-07 8.557524e-07 -2.426754e-07
-2.917276e-07 1.652954e-06 -7.621484e-07 -7.274637e-07 6.860260e-07 -2.288671e-07
-3.454096e-07 1.389035e-06 -6.861294e-07 -3.864865e-07 9.946308e-07 -2.377592e-07
7.848918e-07 -3.234098e-07 -2.817282e-07 -7.985096e-08 -1.148050e-07 5.783427e-07
2.686240e-07 -3.250333e-07 -2.379476e-07 -1.202263e-07 -1.152133e-07 7.145065e-07
1.250177e-06 -3.263364e-07 -4.986656e-07 -2.161400e-07 -9.135353e-08 6.656200e-07
8.910882e-07 -3.894054e-07 -4.505006e-07 -2.589547e-07 -1.197818e-07 8.707671e-07
1.025776e-06 -2.576455e-07 -5.927127e-07 -3.293125e-07 -1.700350e-07 6.495589e-07
1.023336e-06 -2.310784e-07 -3.651762e-07 -3.359090e-07 -2.557426e-07 6.849696e-07
3.668413e-06 -8.752809e-06 2.452404e-05 2.453458e-06 -2.914277e-06 -3.043008e-05
1.616966e-06 -6.633133e-06 2.715595e-05 6.903915e-06 -9.936886e-06 -1.983186e-05
-1.644232e-06 -7.520018e-06 2.045605e-05 6.760027e-06 -5.766708e-06 -5.911907e-06
-2.462568e-06 -1.482513e-05 4.777142e-05 3.458037e-06 -6.495931e-06 -2.074253e-05
5.453467e-07 -4.894993e-08 -3.703885e-07 2.258434e-07 1.330331e-07 3.710173e-07
4.003403e-07 -6.883484e-08 -2.359294e-07 1.597267e-07 1.117046e-07 2.679606e-07
7.330782e-07 -1.259973e-07 -3.361311e-07 2.596675e-07 1.261041e-07 2.885940e-07
5.752451e-07 -1.126133e-07 -3.006281e-07 1.711738e-07 8.536004e-08 2.620136e-07
5.803374e-07 -8.689722e-08 -3.739831e-07 2.494052e-07 1.447135e-07 3.635698e-07
5.972531e-07 -1.260892e-07 -3.771483e-07 2.466737e-07 1.335488e-07 3.633041e-07
3.678676e-07 1.033928e-07 -1.732351e-07 9.718903e-08 1.956488e-08 3.782493e-08
-2.805767e-06 2.132574e-06 5.665496e-06 -1.065640e-06 -2.865093e-06 1.491068e-07
3.668716e-07 1.011584e-07 -1.658925e-07 1.122349e-07 2.919909e-08 5.246669e-08
3.100838e-07 1.048929e-07 -1.966710e-07 1.379528e-07 8.149898e-08 1.194514e-07
-1.555984e-06 -2.667501e-07 1.105486e-05 3.666204e-07 5.691249e-07 3.372024e-06
2.345276e-07 9.197217e-07 -2.152833e-07 -1.290293e-06 -1.074075e-06 6.810784e-07
5.043839e-08 1.093774e-06 -5.705499e-07 -1.069667e-06 -7.751978e-07 6.764500e-07
1.125484e-07 9.146077e-07 -3.556389e-07 -1.348239e-06 -1.029816e-06 8.150096e-07
-3.570391e-07 4.092198e-07 -9.213128e-08 -5.825870e-07 -1.003498e-06 7.941844e-07
-1.691761e-07 1.107411e-06 9.026383e-07 -1.858458e-06 -1.503041e-06 1.323228e-06
1.454118e-06 5.672148e-07 4.419724e-08 -2.198770e-06 4.023804e-07 -1.388664e-07
2.387228e-06 -8.580706e-07 3.923714e-07 -1.930442e-06 -5.044230e-07 9.362677e-07
1.719171e-06 -2.238788e-07 -8.952831e-08 -7.525619e-07 -3.950380e-07 1.269884e-06
-4.648100e-06 3.387678e-06 7.010593e-06 -2.869797e-06 -3.099040e-06 -8.554275e-07
2.780408e-06 -1.364881e-06 6.389130e-07 -8.109634e-07 -2.616619e-07 8.077520e-07
2.507116e-06 -1.073418e-06 9.101984e-08 -6.474205e-07 1.675940e-08 4.189045e-07
8.632923e-07 -6.439695e-08 3.535625e-06 -2.117671e-06 -2.472592e-07 6.844778e-07
-2.067016e-07 -1.113012e-07 1.317429e-06 -4.290689e-08 6.786841e-07 -9.191076e-08
4.653505e-07 8.412483e-07 4.329963e-07 -2.327719e-06 3.656743e-07 -6.125829e-08
5.296385e-07 7.641444e-09 -3.326449e-07 -3.365602e-07 -2.149503e-07 5.343685e-07
7.769493e-07 -5.393852e-08 -4.621340e-07 -3.348488e-07 -1.489418e-07 3.883613e-07
9.190961e-07 -1.727537e-07 -5.651449e-07 -3.393001e-07 -1.160260e-07 4.402876e-07
7.645253e-07 -1.499279e-07 -5.564494e-07 -4.743978e-07 -2.229440e-07 5.535209e-07
-6.951415e-06 -8.063974e-06 3.437115e-05 5.852889e-06 2.381075e-05 4.077815e-05
-2.207547e-06 1.018421e-06 7.879678e-06 2.903753e-06 6.006373e-06 1.510831e-06
8.556509e-07 -2.260979e-07 -4.105427e-07 -2.580427e-07 -8.121240e-08 4.339514e-07
7.732545e-07 -2.297021e-07 -3.136056e-07 -1.987482e-07 -2.297384e-07 8.024195e-07
-3.075162e-06 -8.138758e-06 3.409812e-05 -3.274910e-07 1.416185e-05 -2.674244e-05
-1.077361e-05 -6.551193e-06 6.367505e-05 -6.091437e-06 4.155975e-05 -2.232773e-05
-1.004248e-05 -5.326335e-06 6.052848e-05 -4.954333e-06 3.111900e-05 -2.655226e-05
-1.039530e-05 -6.174201e-07 2.518094e-05 -6.011974e-06 8.964135e-06 -6.031890e-06
6.220840e-07 5.732320e-07 7.948026e-06 -4.881851e-06 4.604716e-06 -4.943078e-06
-2.936355e-06 -3.589497e-07 1.026729e-05 -6.978549e-06 8.098817e-06 -1.308325e-06
-6.860211e-07 1.842357e-06 5.577373e-09 7.236723e-07 -1.025443e-06 -2.745004e-07
-1.987457e-06 2.745424e-06 3.161668e-06 8.288484e-07 7.506559e-07 -5.676160e-07
-7.599214e-07 1.945632e-06 9.677973e-07 1.772526e-06 -6.527267e-07 2.952471e-07
-8.104578e-07 9.775596e-07 1.158057e-06 5.780158e-07 -8.133671e-07 -4.586243e-07
-3.182138e-06 2.581050e-06 6.303947e-06 2.647892e-06 -1.089988e-06 -2.548792e-06
9.098913e-07 2.634885e-06 3.053098e-06 2.861817e-06 -3.857981e-06 -1.872131e-06
-2.859858e-06 2.314421e-06 5.856585e-06 5.007480e-06 -1.329302e-06 6.607794e-07
1.336991e-06 -6.065529e-07 3.138640e-06 2.977491e-06 -2.297331e-06 -2.230179e-06
-2.032696e-06 3.241043e-06 5.576855e-06 3.703443e-06 -5.505354e-06 -1.325620e-06
-2.679187e-06 4.518547e-06 1.332669e-05 -4.783435e-07 1.108747e-05 -2.708543e-06
-3.253130e-06 3.036165e-06 1.461691e-06 -1.547398e-07 5.694858e-07 -1.131706e-06
-5.690451e-06 2.827687e-06 7.357982e-06 -1.887131e-06 3.281736e-06 -2.255508e-06
-9.822449e-06 6.809947e-06 1.595387e-05 2.053865e-06 1.352645e-05 2.231015e-06
-4.537897e-06 4.834245e-06 7.281699e-06 2.716141e-06 3.681371e-06 2.276769e-06
-3.619984e-06 2.673152e-06 5.835241e-06 3.398944e-07 1.675468e-06 -1.096587e-06
6.347161e-07 -1.655566e-07 -2.679984e-07 -4.170140e-07 -4.216095e-07 8.743277e-07
5.258256e-07 7.592166e-07 -7.014107e-07 -9.720826e-07 -4.191997e-07 3.550587e-07
5.665077e-07 -5.209591e-08 -3.441416e-07 -3.683120e-07 -2.598598e-07 5.551312e-07
4.671549e-07 1.378495e-08 -2.945913e-07 -4.900660e-07 -4.250798e-07 7.435490e-07
4.411471e-07 4.137712e-08 -3.173112e-07 -4.284895e-07 -4.948755e-07 6.291832e-07
7.776973e-07 8.911437e-08 -4.837732e-07 -5.198412e-07 -1.481886e-07 3.454236e-07
5.640722e-07 6.085320e-08 -4.576463e-07 -3.859464e-07 -1.934125e-07 2.622965e-07
5.644158e-07 1.043888e-08 -2.507489e-07 -3.281007e-07 -2.288424e-07 3.615416e-07
7.198450e-07 5.448799e-09 -5.748659e-07 -5.451443e-07 -2.452987e-07 3.906150e-07
7.880162e-07 1.736863e-07 -5.350727e-07 -5.467587e-07 -2.207853e-07 3.223159e-07
3.691851e-07 8.956904e-08 -3.670031e-07 -3.369919e-07 -2.619578e-07 4.153268e-07
4.989839e-07 4.286066e-07 -6.731149e-07 1.148499e-06 6.127849e-07 5.793560e-07
3.356436e-07 1.781934e-07 -2.747273e-07 3.642998e-07 3.988175e-07 4.123741e-07
2.028046e-07 2.689227e-07 -4.838485e-07 4.782471e-07 5.096238e-07 4.470363e-07
2.577199e-07 3.408423e-07 -4.644297e-07 6.982039e-07 8.449689e-07 7.667480e-07
2.604492e-07 3.426354e-07 -3.236968e-07 5.606519e-07 4.985126e-07 4.512684e-07
-4.232470e-07 2.013124e-07 -3.038265e-07 1.753271e-07 6.464548e-07 6.014315e-07
-3.942552e-07 -7.749452e-07 5.218643e-06 3.761913e-08 -3.845402e-06 6.475781e-07
4.407627e-07 3.123432e-07 -3.894240e-07 6.044089e-07 6.806259e-07 6.467826e-07
-9.283193e-08 1.223177e-06 -6.301952e-07 -1.255193e-06 7.874199e-07 -3.932113e-07
-2.214602e-07 1.430173e-06 -5.473235e-07 -6.655490e-07 9.301533e-07 -3.106189e-07
-5.265345e-07 3.098274e-08 -6.340119e-08 -2.720042e-07 1.094284e-06 -5.339922e-07
-2.580769e-07 1.304260e-06 5.684248e-08 -9.240336e-07 1.269241e-06 -5.128771e-07
-4.010394e-07 1.334610e-06 -6.735670e-07 -6.875256e-07 6.984297e-07 -2.446561e-07
-4.279264e-07 1.435441e-06 4.620296e-08 -1.174281e-06 1.050618e-06 -5.884741e-07
-3.335195e-07 1.289692e-06 -5.524282e-07 -4.709311e-07 1.141964e-06 -3.815390e-07
-1.232193e-07 9.229067e-07 -3.595747e-07 -4.072976e-07 1.272495e-06 -5.509733e-07
-5.543129e-08 2.085519e-06 -7.648595e-07 -1.328068e-06 9.014996e-07 -4.018904e-07
2.071886e-06 -1.021276e-06 -5.660256e-07 -7.131790e-07 -1.837730e-07 1.103450e-06
2.601282e-06 -9.236233e-07 -1.670947e-07 -4.566755e-07 -3.146613e-07 7.195120e-07
1.732269e-06 -5.779757e-07 -4.604542e-08 -1.334588e-06 -7.312162e-07 1.253750e-06
6.360440e-07 -1.001800e-07 -2.582276e-07 -8.185000e-07 -5.822546e-07 1.092967e-06
9.321821e-07 -2.896098e-07 -3.416644e-07 -2.274560e-07 -2.651862e-07 1.099806e-06
1.370489e-06 -3.437874e-07 -4.736679e-07 -3.691473e-07 -3.597394e-07 1.015937e-06
9.352729e-07 -3.071128e-07 -6.710534e-07 -7.196571e-07 -3.367509e-07 6.564726e-07
1.799701e-06 -2.349045e-06 4.032579e-06 1.823705e-06 3.777113e-07 -1.014722e-06
2.856506e-06 -2.961191e-06 3.331930e-06 7.308386e-07 -7.551329e-08 3.069568e-08
1.660945e-06 -7.494743e-06 2.572582e-05 3.950007e-06 -8.048762e-06 -8.111025e-06
4.234400e-06 -4.723355e-06 1.178818e-05 2.491073e-06 -3.846299e-07 -1.350471e-05
4.259841e-07 1.058910e-06 -1.485166e-07 2.119116e-06 -1.024024e-06 -1.294214e-06
7.133699e-07 5.321901e-07 -9.413496e-07 1.583104e-06 -3.507065e-07 -6.341958e-07
-7.835627e-07 1.117002e-06 3.410920e-07 1.003000e-06 -1.229174e-06 -3.396791e-07
-1.884914e-08 6.018699e-07 -3.060411e-07 -6.652108e-07 -7.814907e-07 4.880421e-07
-7.012114e-08 -3.305313e-07 4.792315e-07 -6.078497e-07 -8.493605e-07 7.817357e-07
-1.436313e-07 6.598573e-07 -3.368340e-07 -6.756863e-07 -1.080728e-06 7.758046e-07
-2.107248e-07 9.352743e-07 -3.733304e-07 -3.869766e-07 -9.239084e-07 6.022870e-07
-3.322811e-07 6.897920e-07 -3.485368e-07 -6.579871e-07 -1.019105e-06 6.461405e-07
-1.496879e-07 2.490699e-06 -4.935005e-07 -1.270432e-06 -1.115877e-06 7.411543e-07
2.908491e-06 -2.665028e-06 1.009289e-06 -5.338161e-07 -1.803480e-07 1.032057e-06
1.457737e-06 -1.114834e-06 -9.058457e-08 -4.369323e-07 -1.348851e-07 1.276838e-06
1.955156e-06 -1.133805e-06 -1.975268e-07 -8.572315e-07 -2.345471e-07 8.756953e-07
1.503300e-06 8.430647e-07 1.533584e-08 -2.474685e-06 5.191319e-07 -4.259779e-07
1.951222e-06 -1.162925e-06 5.654162e-07 -1.022584e-06 -3.363076e-07 1.211908e-06
2.077971e-06 -1.153136e-06 -6.322583e-09 -9.847621e-07 -1.866623e-07 1.554672e-06
2.049397e-06 -8.945672e-07 8.020894e-09 -8.199861e-07 -3.131830e-07 1.394335e-06
4.290109e-06 -2.213644e-06 1.652667e-06 1.122596e-06 3.370373e-07 -4.507461e-07
4.400616e-06 -3.226051e-06 5.029999e-06 1.490929e-06 -1.037314e-06 -3.113395e-07
3.574038e-06 -3.253679e-06 3.254447e-06 1.585823e-06 -3.423541e-07 -1.097074e-06
2.733517e-06 -2.928735e-06 7.600181e-06 3.792188e-06 -3.041993e-06 -4.870374e-06
-4.175943e-07 -3.433644e-06 1.752318e-05 -5.250428e-07 -1.253317e-05 -3.065728e-07
3.950711e-06 -1.134297e-06 3.853956e-06 1.263229e-06 -1.627426e-06 -1.247064e-06
1.352936e-06 -1.574669e-06 2.584993e-06 3.672484e-06 4.782802e-07 -9.520850e-07
3.755235e-06 -1.451664e-06 1.573052e-06 1.753312e-06 -3.001550e-07 -5.193449e-07
-6.031768e-06 2.611221e-06 9.557885e-06 -4.230906e-06 3.496480e-06 -2.500842e-06
-6.879821e-07 1.229642e-06 -1.751037e-07 3.281243e-07 1.585905e-06 1.702984e-07
-1.940323e-05 -1.902754e-06 4.532063e-05 1.683460e-06 4.978220e-05 -1.979183e-06
-6.641848e-07 4.840450e-07 -1.195125e-07 -2.154743e-07 1.159292e-06 2.140969e-07
-4.666683e-07 9.999552e-07 -4.456143e-07 4.801176e-07 1.329941e-06 3.925517e-07
-7.775019e-07 1.294061e-06 -4.258737e-07 2.801924e-07 9.496868e-07 1.918939e-07
-4.593803e-07 1.083829e-06 -2.017031e-07 3.412632e-07 8.076704e-07 1.876301e-07
-4.570869e-07 1.086497e-06 -4.985502e-07 3.456789e-07 8.247112e-07 2.609439e-07
-2.826422e-07 9.610066e-07 -4.574860e-07 -5.377479e-07 -8.055953e-07 3.840435e-07
-4.877659e-07 1.766292e-06 -5.052930e-07 -1.037651e-06 -1.344204e-06 8.718696e-07
-4.196694e-07 2.454650e-06 -8.543991e-07 -1.016023e-06 -9.716078e-07 4.405382e-07
-7.509617e-07 2.787254e-06 -2.812408e-07 -6.850159e-07 -6.515114e-07 3.137867e-07
-6.607773e-07 1.503607e-06 -3.813688e-07 -5.034541e-07 -1.116363e-06 3.774141e-07
-1.847482e-07 -1.312811e-07 1.161621e-05 -5.384249e-07 -1.487134e-08 8.904072e-06
-1.416403e-07 9.789538e-07 -5.266666e-07 3.394068e-07 4.186856e-07 1.671633e-07
-7.686986e-07 2.842737e-06 -8.062175e-07 -7.237173e-07 -1.173558e-06 1.847699e-07
2.660333e-06 -1.091321e-06 1.373379e-06 -1.340650e-06 -6.221652e-08 -4.176204e-07
3.450923e-06 -2.452809e-06 1.815899e-06 -1.480216e-06 -3.123919e-07 1.837781e-07
4.258170e-06 -2.319379e-06 1.319046e-06 -9.321693e-08 2.651139e-07 7.569119e-07
2.497008e-06 -9.522098e-07 9.401316e-08 -4.095648e-07 -2.030276e-07 4.219091e-07
3.814797e-06 -4.605408e-06 1.917031e-06 2.800155e-06 -8.490820e-07 2.059029e-06
4.106648e-06 -4.424936e-06 4.929052e-06 2.449663e-06 8.776418e-07 1.731870e-06
5.058805e-06 -5.308116e-06 1.321480e-05 2.470254e-06 3.219614e-06 7.678936e-06
3.304844e-06 -6.856956e-06 6.733218e-06 4.371194e-06 2.730583e-06 3.318952e-06
2.876293e-06 -5.602946e-06 1.335164e-05 4.794663e-06 2.717621e-06 4.974433e-06
4.388753e-06 -6.051603e-06 9.227353e-06 1.615986e-06 4.819683e-07 3.155691e-06
7.907534e-07 -1.407565e-07 -4.266880e-07 2.089329e-07 6.693908e-08 4.232687e-07
-6.828046e-06 3.292585e-06 1.499243e-05 -3.694761e-06 -7.936141e-06 2.969671e-06
-1.393363e-06 1.691458e-06 7.605988e-06 -1.597170e-06 -6.606923e-06 -7.614128e-07
-7.615097e-06 -2.962986e-06 2.779537e-05 -2.932599e-06 -2.464053e-05 1.603835e-05
-1.603699e-05 -1.993022e-05 9.706362e-05 2.388039e-06 -3.511952e-05 1.785418e-05
-5.420341e-06 5.815392e-06 1.055053e-05 -3.552407e-06 -7.622567e-06 2.587541e-06
2.001507e-07 4.048059e-07 -2.006565e-07 -8.306014e-07 -1.089691e-06 7.009910e-07
-2.166689e-08 9.931110e-07 -5.814314e-09 -1.785414e-06 -7.678204e-07 6.532746e-07
3.619441e-07 9.847716e-08 -1.750077e-07 -1.217531e-07 -5.585438e-08 6.241162e-08
-3.484942e-07 2.444684e-06 -4.613381e-07 -1.516428e-06 -1.065269e-06 3.835994e-07
9.439037e-08 1.670015e-06 -8.079162e-07 -1.516596e-06 -7.009964e-07 5.355882e-07
-2.167332e-07 1.350104e-06 -6.475268e-07 -1.074525e-06 -9.288162e-07 5.587417e-07
1.112712e-07 1.116469e-06 -7.400948e-07 -1.171417e-06 -6.802854e-07 3.964866e-07
1.116972e-07 1.127400e-06 -5.726332e-07 -1.173628e-06 -7.625704e-07 4.162423e-07
-1.210162e-07 1.705866e-06 -6.424071e-07 -1.334160e-06 -6.981814e-07 2.740656e-07
1.086662e-06 -6.893580e-07 1.351348e-06 -1.208323e-06 -3.677576e-07 1.186439e-06
-5.079277e-06 4.272351e-06 6.685347e-06 -1.990407e-06 -2.008958e-06 8.277844e-07
2.349914e-06 -9.691426e-07 -1.368503e-07 -2.569844e-07 -2.774250e-07 1.435642e-06
2.433114e-06 -4.764206e-07 2.243079e-07 -1.386579e-06 1.298906e-08 1.420321e-06
2.507516e-06 -1.701673e-06 3.001062e-07 -1.284770e-07 1.442830e-07 4.979289e-07
1.002407e-06 -9.873240e-07 6.319312e-07 -5.035197e-07 -4.873293e-07 1.812082e-06
1.846439e-06 -5.408675e-07 -2.916868e-07 -1.218949e-06 -3.040167e-07 1.457516e-06
2.616629e-06 -1.160002e-06 4.739576e-07 -1.253050e-06 -7.466114e-07 1.089906e-06
2.392464e-06 -1.370089e-06 1.641144e-06 -1.776891e-06 4.355774e-07 -3.312943e-07
-3.364309e-06 6.420308e-06 7.655258e-06 1.246989e-06 7.731275e-06 2.308149e-06
-3.008028e-06 3.901439e-06 1.654379e-06 2.628990e-08 3.802030e-06 7.528767e-07
-1.182495e-05 4.674261e-06 2.139745e-05 -1.512984e-06 1.209084e-05 -2.474958e-06
-1.906049e-05 8.337486e-07 4.898495e-05 1.853208e-06 3.282618e-05 -7.690135e-06
-7.315476e-06 2.499802e-06 1.849754e-05 3.602101e-06 1.685103e-05 2.080663e-06
-8.994736e-06 3.570397e-06 1.945116e-05 2.710673e-06 2.595079e-05 8.104631e-06
3.702292e-08 -3.636560e-07 2.272431e-07 6.064601e-07 6.208470e-07 9.772141e-07
1.403236e-06 -3.569950e-07 -1.535969e-07 9.138935e-07 6.215645e-07 1.501409e-06
6.634587e-07 7.605711e-07 -5.430506e-07 1.901848e-06 7.386042e-07 2.757199e-07
1.889443e-06 -4.741902e-07 -1.321085e-07 8.870658e-07 5.908064e-07 1.076375e-06
1.294262e-06 1.375411e-06 1.274972e-07 2.908263e-06 6.173161e-07 7.690324e-07
6.967580e-07 5.846668e-07 1.446601e-07 1.975944e-06 6.520080e-07 5.292558e-07
6.059895e-07 -3.035638e-07 1.068700e-06 1.695836e-06 6.859639e-07 8.314232e-07
8.785730e-07 7.508728e-08 -6.806032e-07 7.486914e-07 4.012906e-07 5.748093e-07
2.680424e-07 -1.091151e-07 -2.499272e-07 2.582264e-07 4.280450e-07 5.952313e-07
5.513891e-07 -1.939327e-08 -4.171094e-07 3.184409e-07 2.762596e-07 3.995955e-07
1.077797e-06 2.392303e-07 2.978600e-07 2.464212e-06 2.051362e-07 2.758256e-07
6.960803e-07 7.466807e-07 -5.580231e-07 1.405497e-06 7.481628e-07 7.032573e-07
6.153628e-07 8.544313e-08 -7.211302e-08 1.679932e-06 5.544117e-07 6.676293e-07
1.113140e-06 -9.898868e-08 -4.586172e-07 6.446737e-07 2.008799e-07 5.313901e-07
6.935564e-07 -5.816360e-08 -4.633337e-07 3.940915e-07 3.041022e-07 6.006593e-07
2.136762e-07 7.153520e-08 -2.493313e-07 2.914602e-07 3.530797e-07 5.502299e-07
4.418242e-07 6.023063e-08 -3.659008e-07 2.656929e-07 1.623029e-07 2.898194e-07
7.191422e-07 -1.909277e-08 -4.382616e-07 4.478834e-07 1.966737e-07 3.905626e-07
8.865810e-07 2.905906e-08 -4.851705e-07 5.404386e-07 1.742008e-07 3.718763e-07
7.338917e-07 -2.139518e-07 -4.862097e-07 2.731378e-07 2.682308e-07 5.459819e-07
5.761393e-07 -7.685887e-08 -2.612764e-07 3.146850e-07 2.099868e-07 4.575348e-07
-7.058800e-06 2.319412e-06 1.543604e-05 -4.431300e-06 -2.894745e-06 1.911199e-07
-1.296831e-06 2.827410e-06 1.642605e-06 -1.803521e-06 4.584519e-07 -1.208927e-07
-1.561691e-06 2.086694e-06 5.693715e-06 -1.346879e-06 -3.615724e-06 1.726962e-06
-6.661781e-07 1.201204e-06 5.063568e-06 -2.567539e-06 -2.928329e-06 2.265019e-06
6.764179e-08 2.200110e-06 2.336945e-06 -3.437398e-06 -1.188553e-06 1.353566e-06
-1.455841e-06 2.055589e-06 1.770749e-06 -1.425863e-06 -1.799189e-06 7.446388e-07
1.903171e-06 -1.867066e-06 5.937922e-06 -2.172317e-06 9.507567e-07 -1.019347e-06
1.211878e-06 -3.724451e-06 1.413076e-05 -5.116952e-06 7.096343e-06 -3.744161e-06
1.261429e-06 -2.615914e-06 9.416421e-06 -5.748921e-06 2.856523e-06 -3.877306e-06
1.502814e-06 -2.237879e-06 5.262281e-06 -3.689453e-06 5.848378e-07 -3.787331e-06
2.794762e-06 -2.301327e-06 4.695034e-06 -3.730939e-06 8.513785e-07 -2.759375e-06
1.621877e-06 -5.137899e-07 -5.953474e-07 -3.181017e-07 -1.251490e-07 8.919657e-07
1.454393e-06 -5.884533e-07 -6.476325e-07 -6.743044e-08 -1.346039e-08 7.267486e-07
1.336977e-06 -4.017585e-07 -5.030840e-07 -6.881622e-08 -2.357173e-08 6.713614e-07
1.173112e-06 -5.729231e-07 -3.418975e-07 -4.003599e-08 2.984548e-08 8.897425e-07
1.653732e-06 -5.533506e-07 -1.633489e-07 -2.090278e-08 2.322230e-07 8.364511e-07
1.274851e-06 -6.190312e-07 -3.985489e-07 -5.757855e-08 -8.090236e-08 9.500145e-07
1.755931e-06 -6.528769e-07 -6.978431e-07 8.791933e-08 -2.353392e-08 1.280860e-06
2.613424e-06 -1.222601e-06 3.152488e-07 -1.727248e-06 -2.627100e-07 -1.277176e-06
1.499481e-06 -8.591410e-06 2.855747e-05 -3.963483e-06 -2.651060e-06 1.661716e-05
9.762119e-07 -2.970912e-06 6.868428e-06 -3.785762e-06 -6.592244e-06 1.700709e-05
-8.640678e-07 -4.959453e-06 1.273974e-05 -1.012551e-06 -2.762942e-06 6.484931e-06
3.826539e-06 -1.134309e-05 1.210632e-05 -3.063266e-06 -1.418346e-06 9.095600e-06
3.131412e-06 -3.625637e-06 5.551861e-06 -1.970638e-06 -2.899290e-06 6.561746e-06
2.989403e-06 -4.699535e-06 1.381937e-05 -8.982004e-07 1.699415e-06 6.559070e-06
5.029995e-06 -5.375510e-06 1.025391e-05 -3.437959e-07 -1.381619e-07 9.955038e-06
1.694648e-07 -4.357997e-06 1.219816e-05 -1.070203e-06 -1.393824e-06 8.071399e-06
3.836574e-06 -6.219090e-07 6.759853e-06 6.176915e-07 -2.578479e-07 1.592498e-05
5.892086e-07 -1.509490e-07 -2.480968e-07 1.485625e-07 1.529903e-07 4.034918e-07
9.607226e-07 -1.980917e-07 -4.272238e-07 2.527646e-07 9.012211e-08 4.287619e-07
1.023355e-06 -3.089683e-07 -5.812969e-07 2.347956e-07 1.106295e-07 4.816047e-07
7.676075e-07 -1.086999e-07 -3.535844e-07 2.148160e-07 1.234566e-07 3.336724e-07
1.077071e-06 -2.579758e-07 -6.586190e-07 4.750719e-07 1.617312e-07 5.413117e-07
9.784856e-07 -2.166405e-07 -5.660581e-07 2.702360e-07 6.994225e-08 4.785314e-07
9.655690e-07 -1.278228e-07 -4.413535e-07 3.375653e-07 1.627389e-07 4.943625e-07
7.846221e-07 -1.765363e-07 -4.768808e-07 2.406978e-07 2.050534e-07 5.822932e-07
9.687244e-07 -1.127864e-07 -4.630264e-07 3.202833e-07 1.746671e-07 5.034607e-07
-1.013927e-06 -1.620617e-05 3.171619e-05 -7.252172e-06 -1.221468e-05 1.718999e-05
-1.551571e-05 -3.769220e-06 4.980591e-05 -7.031469e-06 -2.118042e-05 9.496567e-06
-1.933284e-06 -1.166988e-05 4.061331e-05 -7.160634e-06 -8.355242e-06 1.915913e-05
-2.005140e-07 5.434830e-08 1.122534e-06 8.171410e-08 -3.024724e-06 2.599262e-06
4.296396e-07 7.749677e-08 -2.465072e-07 1.613917e-07 5.549503e-08 1.102803e-07
4.569166e-07 4.060150e-08 -1.903324e-07 1.246307e-07 3.934201e-08 7.644533e-08
4.151535e-07 4.692648e-08 -1.770883e-07 1.209821e-07 4.896844e-08 8.771578e-08
3.806767e-07 8.098472e-08 -1.600572e-07 1.299702e-07 5.075304e-08 7.028491e-08
3.741376e-07 2.133159e-08 -2.084458e-07 1.408813e-07 6.623569e-08 1.415906e-07
5.487958e-07 2.908326e-08 -2.456775e-07 2.003473e-07 8.343553e-08 1.433416e-07
1.323153e-06 -2.031815e-07 -5.811908e-07 -4.030676e-07 -1.571701e-07 4.999645e-07
8.335567e-07 -1.742559e-07 -4.473424e-07 -2.044593e-07 -4.624142e-08 2.941885e-07
6.956964e-07 -1.897541e-07 -3.041306e-07 -1.941864e-07 -1.541190e-07 4.861533e-07
8.698301e-07 -2.112956e-07 -4.639473e-07 -2.252798e-07 -7.637255e-08 2.967275e-07
7.798228e-07 -1.832303e-07 -3.800567e-07 -1.561776e-07 -1.192703e-07 3.441819e-07
-9.467015e-06 -1.465670e-06 3.799173e-05 2.237757e-06 -2.031879e-05 -1.682457e-05
8.609431e-07 -3.987771e-07 -4.776717e-07 -3.409371e-08 -1.152870e-08 6.685942e-07
1.038265e-06 -2.458419e-07 -4.931334e-07 2.026050e-08 -2.218997e-08 3.193840e-07
9.943979e-07 -4.372501e-07 -4.900339e-07 7.181207e-08 2.743166e-08 6.683279e-07
3.036570e-07 1.583123e-07 -2.025924e-07 2.241057e-07 1.547073e-07 1.662587e-07
1.701706e-06 -4.415089e-07 -6.754309e-07 9.166827e-08 3.644329e-08 6.183657e-07
2.931854e-07 2.342864e-07 -2.529991e-07 1.841729e-07 1.248475e-07 1.215303e-07
1.478187e-06 -4.494775e-07 -5.154691e-07 4.854668e-08 9.496785e-09 6.556509e-07
1.433140e-06 -5.703171e-07 -5.255137e-07 -6.646440e-08 4.469562e-08 6.928153e-07
9.536338e-07 -2.260342e-07 -4.524673e-07 -7.909808e-08 -3.575863e-08 4.468471e-07
1.668450e-06 -4.054084e-07 -6.535448e-07 -6.730164e-08 -4.669396e-08 6.163465e-07
-1.366261e-05 -1.791559e-05 6.828562e-05 -1.209866e-06 -1.542123e-06 1.998672e-05
-7.717064e-06 2.952195e-06 1.619565e-05 3.478460e-06 1.359378e-05 -3.776725e-07
-8.892883e-06 -6.867118e-07 3.482600e-05 7.549174e-07 2.495198e-05 1.159730e-05
-2.935810e-06 3.283061e-06 4.539109e-06 7.782434e-07 1.473516e-05 6.711108e-06
9.769771e-07 -1.534383e-06 5.269128e-06 -1.480414e-06 4.467927e-05 1.191303e-05
-2.352462e-06 2.188367e-06 3.368971e-06 -2.670192e-06 3.227546e-07 1.535266e-07
-1.814084e-06 3.551179e-06 2.955727e-06 -1.990335e-06 -1.340373e-06 4.870863e-07
-1.438731e-06 1.949042e-06 1.191434e-06 -2.718150e-07 9.752537e-07 3.466037e-08
2.697334e-07 2.224335e-07 -2.657669e-07 2.676253e-07 1.158234e-07 1.650151e-07
-3.971311e-06 4.320344e-06 3.213075e-06 -1.305542e-06 -1.529635e-06 4.464376e-07
-4.112546e-06 2.015909e-06 6.957593e-06 -1.879819e-06 -3.660066e-06 1.909236e-08
-2.745089e-06 2.098070e-06 8.900915e-06 -1.130757e-06 -4.316337e-07 -9.239856e-07
-2.153640e-06 -5.187185e-07 3.970879e-06 6.915484e-07 5.222005e-07 7.780222e-08
-4.064344e-09 1.855793e-06 -7.913298e-08 -9.842658e-07 8.135038e-07 -2.765693e-07
-2.124227e-06 3.082725e-06 2.317686e-06 -9.727988e-07 2.141182e-07 -4.554491e-07
-2.493476e-06 2.850929e-06 3.673247e-06 -2.750585e-06 -1.165139e-06 1.010739e-06
-2.448533e-06 3.784952e-06 5.387834e-06 -2.995251e-06 1.052704e-07 6.939491e-07
-2.494825e-06 4.394582e-06 3.950211e-06 -1.745072e-07 -2.602210e-07 1.610274e-06
-1.914036e-06 3.477104e-06 1.659511e-06 -1.694111e-06 1.608058e-07 1.045363e-07
8.894536e-07 -2.097347e-07 -3.419646e-07 4.967126e-08 2.352671e-08 2.703191e-07
2.751483e-06 -6.771106e-06 1.620392e-05 4.391861e-06 3.815588e-06 5.119146e-06
3.908995e-06 -9.571260e-06 2.728068e-05 6.757553e-07 -2.325934e-06 1.780560e-05
6.080972e-07 -3.332333e-06 8.521561e-06 4.293226e-07 8.269769e-07 5.534803e-06
3.199211e-06 -3.059856e-06 8.146804e-06 2.845625e-07 -1.674716e-06 5.986860e-06
4.523816e-06 -7.444108e-06 1.216504e-05 7.230914e-07 -1.039032e-06 6.774886e-06
4.322415e-06 -5.040539e-06 2.690441e-05 -7.397063e-07 -3.394849e-06 1.800503e-05
4.423866e-06 -6.953964e-06 1.724012e-05 3.782171e-06 3.016596e-06 6.550849e-06
4.159434e-06 -3.681346e-06 3.265728e-06 2.252321e-06 -6.148839e-07 1.003910e-05
6.389789e-07 4.858242e-08 -4.660883e-07 3.821769e-07 1.784945e-07 2.889086e-07
3.614802e-07 3.802562e-08 -1.855528e-07 1.318075e-07 1.011522e-07 1.277926e-07
4.524290e-07 2.717518e-08 -2.895516e-07 1.862252e-07 9.403332e-08 2.107234e-07
4.716070e-07 -8.084142e-09 -2.910744e-07 2.040123e-07 1.085189e-07 2.145810e-07
4.913852e-07 2.591112e-09 -2.375030e-07 2.336997e-07 1.409819e-07 2.648816e-07
3.597274e-07 -1.794128e-08 -2.401308e-07 1.719724e-07 1.221429e-07 2.363567e-07
-1.781256e-07 1.111539e-06 -4.917016e-07 3.304340e-07 -1.470504e-06 -5.631472e-07
3.132487e-07 1.718254e-07 -1.771333e-07 1.555224e-07 9.349454e-08 8.771264e-08
-6.410398e-07 1.357250e-06 -4.883798e-07 4.512021e-07 -1.115997e-06 -2.065456e-07
-3.464953e-07 1.359753e-06 -4.266846e-07 6.491821e-07 -1.126094e-06 -6.883337e-07
2.160805e-07 2.729859e-07 -1.932768e-07 1.963110e-07 1.521079e-07 1.280456e-07
-2.342262e-07 8.850808e-07 -4.295916e-07 5.550085e-07 -9.285421e-07 -5.316601e-07
-3.616450e-07 -3.355661e-07 -2.384961e-07 1.985976e-08 -8.906877e-07 -5.352380e-07
-1.568440e-07 7.361337e-07 -4.222964e-07 5.031558e-07 -9.391252e-07 -5.076320e-07
-3.008249e-07 1.228658e-06 -6.002132e-07 8.987987e-07 -9.954211e-07 -4.552442e-07
4.030844e-07 4.670573e-08 -1.826559e-07 9.784467e-08 4.508644e-08 6.979928e-08
-9.875713e-08 6.621548e-07 -3.207202e-07 5.358040e-07 -1.060720e-06 -6.440404e-07
-2.945272e-07 8.835986e-07 1.057341e-05 2.843161e-06 5.746451e-06 4.557574e-06
-1.475748e-06 1.894109e-06 3.533440e-07 -4.586501e-07 -6.651147e-07 2.978301e-07
-1.539034e-06 2.853849e-06 -5.295652e-08 -6.093202e-07 -7.199005e-07 -1.122164e-07
-7.947352e-07 1.184783e-06 2.885048e-07 8.743277e-09 -1.495660e-06 2.071685e-07
-1.435281e-06 3.095611e-06 1.397149e-06 -5.340790e-08 -1.469110e-07 3.339492e-07
-4.212749e-07 2.375755e-06 7.643405e-08 9.661375e-08 -1.655672e-06 -2.403698e-07
-1.193559e-06 2.474425e-06 -6.389620e-09 2.385554e-07 -1.655229e-06 4.465675e-08
2.948884e-07 -3.530052e-07 -2.482836e-07 -7.061867e-08 1.666793e-09 7.652979e-07
5.061741e-07 -5.102234e-07 -2.531607e-07 -6.437640e-08 -3.814571e-08 9.168212e-07
1.047991e-06 -3.559367e-07 -3.326686e-07 -7.171676e-08 -1.602772e-08 8.886379e-07
5.327965e-07 -5.641030e-07 -2.704982e-07 -4.042878e-08 4.583075e-09 9.156270e-07
-1.018244e-08 8.879528e-07 1.002311e-06 -2.374599e-06 5.427480e-07 -8.077408e-09
2.156872e-06 4.594141e-08 2.822560e-06 -3.946499e-06 3.427019e-08 6.126539e-08
1.020891e-06 -1.102832e-07 2.831122e-06 -3.402025e-06 -4.260444e-08 5.171561e-07
2.336197e-06 -1.982431e-06 3.935109e-06 -2.594500e-06 -6.347911e-07 1.691542e-06
1.753375e-06 1.655367e-07 2.441564e-06 -3.865954e-06 -7.728053e-07 1.357961e-06
3.264250e-06 -3.136900e-07 9.113955e-07 -3.172046e-06 1.131515e-08 2.614377e-07
1.268827e-06 -1.120485e-06 1.687377e-06 -2.431041e-06 3.753403e-07 -3.210900e-07
4.493115e-06 -1.926245e-06 1.404130e-06 -3.262826e-06 -1.009817e-06 7.522734e-07
-2.768371e-06 3.605157e-06 1.257374e-06 1.533481e-06 6.240328e-07 1.183803e-07
-1.912046e-06 1.754176e-06 1.332892e-05 2.873267e-06 2.509418e-06 5.184259e-06
-1.385702e-06 1.333941e-06 2.304485e-06 4.645908e-07 3.923575e-07 9.660651e-07
-1.671921e-06 3.526564e-06 9.758498e-07 1.419271e-06 -9.409730e-07 1.496574e-07
4.375602e-07 6.738509e-08 -2.304149e-07 1.226604e-07 2.719308e-08 4.668128e-08
-7.509091e-07 2.227498e-06 -7.007250e-07 -4.739037e-07 1.252946e-06 -2.392034e-07
-7.883808e-07 1.345569e-06 -1.103519e-07 -2.580622e-07 1.687726e-06 -2.973641e-07
-8.878672e-07 1.937160e-06 -2.997463e-07 -7.996822e-08 1.276102e-06 -1.088363e-07
-6.703169e-07 2.253130e-06 -6.949103e-07 -2.591208e-07 8.542733e-07 -1.155360e-07
-9.500529e-07 1.227852e-06 5.225218e-07 -1.430425e-07 1.265376e-06 -2.727064e-07
-7.863508e-07 1.382835e-06 -3.494535e-07 -4.087640e-08 8.704473e-07 8.030519e-08
8.463954e-07 -2.348533e-07 -4.351317e-07 7.782190e-08 6.058823e-08 3.455074e-07
9.554606e-07 -2.706737e-07 -4.271675e-07 1.806883e-07 8.650567e-08 4.212102e-07
7.690347e-07 -2.818343e-07 -3.822213e-07 -1.566426e-09 1.469274e-08 3.320522e-07
9.067812e-07 -1.831621e-07 -3.986051e-07 1.526965e-07 3.243137e-08 2.668209e-07
7.478982e-07 -2.273636e-07 -2.648839e-07 1.441734e-07 3.962895e-08 4.416761e-07
3.606575e-07 8.722046e-08 -1.589352e-07 7.795476e-08 1.948346e-08 3.100758e-08
-9.715785e-08 6.967337e-07 -2.867142e-07 -3.971342e-07 9.869852e-07 -2.950399e-07
-2.986263e-07 8.122805e-07 -2.509147e-07 -1.856139e-07 1.095821e-06 -2.939812e-07
4.136905e-07 2.166627e-08 -1.686115e-07 9.466158e-08 3.130028e-08 6.887961e-08
-3.868614e-07 9.331449e-07 -3.827478e-07 -1.739697e-07 8.171978e-07 -1.250629e-07
3.196619e-06 -4.798665e-06 4.617547e-06 -8.940850e-07 5.370241e-07 5.649015e-06
5.944300e-06 -2.354854e-06 2.303725e-06 4.093643e-07 1.768177e-07 1.151447e-06
4.341655e-06 -6.929955e-06 1.083578e-05 4.259039e-07 4.048391e-08 5.022773e-06
3.054448e-06 -3.452737e-06 7.037341e-06 9.622565e-07 2.895382e-06 5.405214e-06
3.613534e-06 -5.033195e-06 9.516093e-06 -6.406350e-07 -6.515990e-07 5.197227e-06
5.561396e-06 -8.501062e-06 1.573674e-05 -6.988816e-07 1.022248e-06 1.192564e-05
2.741981e-06 -2.303701e-06 5.505976e-06 1.197181e-06 6.960079e-07 3.516903e-06
3.879505e-06 -2.196712e-06 2.226564e-06 3.555492e-06 2.165189e-06 2.232190e-06
6.661887e-07 -7.463506e-08 -4.035350e-07 2.720531e-07 6.414623e-08 2.298020e-07
8.318239e-07 -4.174250e-09 -5.169747e-07 4.033066e-07 1.247288e-07 3.333933e-07
7.848042e-07 -4.768657e-07 -2.979140e-07 -3.428584e-07 -1.992680e-08 8.353104e-07
1.299924e-06 -6.845844e-07 -5.027903e-07 -7.845246e-08 -2.341622e-07 9.909846e-07
1.311844e-06 -6.723599e-07 -2.278861e-07 1.228804e-07 2.975923e-07 1.360550e-06
1.137439e-06 -6.191023e-07 -3.790371e-07 1.930671e-07 9.357058e-08 8.741455e-07
1.040708e-06 -5.627777e-07 -4.639267e-07 2.679095e-07 6.255471e-08 9.743687e-07
-2.936822e-07 1.347265e-06 -7.430506e-07 -4.091613e-07 5.815842e-07 -2.438604e-07
-1.187162e-06 2.216312e-06 -2.525300e-07 -8.005069e-07 7.633562e-07 -1.906636e-07
-6.233622e-07 2.330113e-06 -7.367311e-07 -7.627415e-07 9.329289e-07 -3.282715e-07
-5.009092e-07 1.853014e-06 -6.867910e-07 -5.785055e-07 7.444457e-07 -1.068141e-07
-5.695921e-07 1.237533e-06 -6.617214e-07 -2.947307e-07 1.066696e-06 -1.456413e-07
-1.511652e-07 -1.415030e-06 1.696256e-05 -1.747208e-07 5.280620e-06 5.476378e-06
-2.696529e-07 9.991352e-07 -6.373546e-07 3.261153e-07 -4.079118e-07 -3.097287e-07
-4.561704e-07 1.792660e-06 -7.079852e-07 -3.532726e-07 8.956455e-07 -2.669927e-07
1.602408e-06 -7.899394e-07 -5.862786e-07 -5.225902e-07 -1.513292e-07 8.219738e-07
1.582776e-06 -4.248717e-07 -6.784193e-07 -5.469240e-07 -2.359859e-07 6.449342e-07
8.261666e-07 -2.440381e-07 -4.118113e-07 -1.284902e-07 -9.145278e-08 4.864119e-07
1.294106e-06 -5.429394e-07 -4.928496e-07 -1.698640e-07 -8.868953e-08 6.827922e-07
8.962896e-07 -3.701825e-07 -3.288731e-07 -2.418423e-07 -1.779861e-07 7.955475e-07
9.273314e-07 -2.990656e-07 -4.377023e-07 -2.008148e-07 -1.667208e-07 8.442471e-07
-1.579679e-07 3.720763e-07 -2.905394e-07 -5.777096e-08 5.187308e-07 -2.455725e-07
6.143670e-08 -1.326591e-07 4.818102e-06 -2.276847e-06 -2.029031e-07 -6.823695e-07
1.694508e-06 8.029604e-08 -3.128888e-07 -2.248935e-06 -7.677755e-07 2.852410e-07
1.762992e-06 -1.460453e-06 2.461326e-06 -2.357588e-06 -2.417274e-07 -4.478048e-07
5.385198e-07 1.099331e-06 -3.150487e-07 -1.165998e-06 -5.654789e-07 8.944138e-07
6.427645e-07 -1.789327e-06 2.823170e-06 -1.756074e-06 -1.031491e-06 9.913147e-07
4.469477e-06 -6.051603e-06 7.217728e-06 2.380200e-06 8.074023e-07 8.132854e-07
6.474706e-07 2.161368e-08 9.258704e-07 -1.534345e-06 -4.253531e-07 9.419052e-07
1.504265e-06 1.241871e-07 1.342893e-06 -6.582156e-07 -6.419457e-08 1.646990e-06
7.313631e-07 -2.030435e-07 -3.313910e-07 -1.176097e-07 -5.129870e-08 3.487626e-07
9.360194e-07 -2.089382e-07 -3.899240e-07 -1.401999e-07 -8.792300e-08 4.302699e-07
6.521507e-07 -1.226171e-07 -2.765186e-07 -7.494058e-08 -2.627755e-08 1.552161e-07
4.856331e-07 -2.231774e-07 -3.142048e-07 -2.124648e-07 -1.736198e-07 5.610832e-07
7.035633e-07 -1.209013e-07 -3.068419e-07 -1.243653e-07 -6.609458e-08 2.732598e-07
8.383518e-07 -1.303655e-07 -3.804361e-07 -2.189666e-07 -1.011128e-07 3.123119e-07
6.632634e-07 -1.521356e-07 -3.866782e-07 -1.541519e-07 -8.936537e-08 2.786537e-07
4.153844e-07 1.994972e-08 -4.870298e-07 4.190891e-07 4.312799e-07 5.816787e-07
2.355300e-07 2.523636e-07 -3.406076e-07 3.108623e-07 2.397742e-07 2.530107e-07
2.388504e-07 2.530231e-07 -2.561868e-07 3.093801e-07 2.506054e-07 2.296711e-07
4.035146e-07 7.684132e-08 -1.711492e-07 1.243559e-07 3.563489e-08 8.642938e-08
2.538118e-07 3.469679e-07 -5.066949e-07 5.621935e-07 5.910112e-07 6.087049e-07
2.467791e-07 2.927657e-07 -2.628455e-07 3.979702e-07 3.603891e-07 3.911061e-07
1.453423e-07 9.695805e-08 -2.558151e-07 2.112922e-07 3.405732e-07 3.459164e-07
4.138187e-07 1.589607e-07 -3.447071e-07 4.153934e-07 3.576318e-07 4.046196e-07
3.114142e-07 7.012591e-07 -6.600350e-07 8.414706e-07 4.056193e-07 4.296532e-07
2.182484e-06 -8.271557e-07 -4.758433e-07 5.595026e-07 2.082301e-07 8.235748e-07
1.922236e-06 -7.099181e-07 -6.131990e-07 7.287724e-07 1.548077e-07 1.032100e-06
2.356997e-06 -1.296152e-06 -2.479288e-07 7.495558e-07 1.683878e-07 8.544541e-07
2.501829e-06 -8.514148e-07 -3.956737e-07 1.208083e-07 1.973573e-08 1.502362e-06
2.184017e-06 -1.114134e-06 5.511816e-07 9.292380e-07 3.620217e-07 6.757479e-07
2.830698e-06 -1.809448e-06 5.714364e-07 1.196369e-06 2.128875e-07 9.308951e-07
1.753539e-07 4.725994e-07 -2.997344e-07 9.112553e-07 -1.209743e-06 -9.160423e-07
1.757670e-07 1.163496e-06 -3.335096e-07 1.512827e-06 -9.566556e-07 -5.933626e-07
5.349873e-07 5.950122e-07 -2.592176e-07 1.398390e-06 -9.553275e-07 -7.816116e-07
3.581234e-07 1.390361e-06 1.086343e-06 2.566308e-06 -1.580821e-07 4.081257e-07
5.299979e-07 6.096382e-07 -6.528812e-07 8.342858e-07 3.891838e-07 3.823871e-07
9.087081e-07 -1.611699e-07 -4.325292e-07 -2.909870e-07 -1.468133e-07 3.192370e-07
1.081287e-06 -2.396859e-07 -5.481202e-07 -2.587540e-07 -1.499475e-07 3.734509e-07
4.887266e-07 -1.666115e-07 -2.466504e-07 -1.455309e-07 -8.838762e-08 4.244444e-07
7.984192e-07 -2.628218e-07 -4.177403e-07 -2.119476e-07 -1.043764e-07 4.608725e-07
6.694910e-07 -1.741061e-07 -3.258289e-07 -1.383326e-07 -8.712121e-08 3.144525e-07
6.486898e-07 -1.754883e-07 -2.142044e-07 -1.444296e-07 -8.495448e-08 3.504851e-07
1.264179e-06 -3.084661e-07 -5.494466e-07 3.452962e-09 1.843143e-08 4.253974e-07
7.512204e-07 -2.339315e-07 -3.786093e-07 4.087271e-09 2.879229e-08 3.368695e-07
9.032939e-07 -3.480493e-07 -4.926405e-07 1.143114e-07 7.188946e-08 7.420223e-07
8.340297e-07 -2.940191e-07 -4.342659e-07 1.051696e-07 5.531859e-08 3.473372e-07
1.262126e-06 -2.797140e-07 -5.996556e-07 1.629531e-07 2.475748e-08 4.843405e-07
1.274313e-06 -4.095954e-07 -6.332021e-07 1.008918e-07 1.423449e-08 4.566531e-07
7.264069e-07 -2.019039e-07 -2.473958e-07 2.176949e-08 -3.876646e-09 4.151308e-07
2.751002e-06 -9.176526e-07 -6.786555e-07 -5.793167e-07 -2.359511e-07 1.018648e-06
1.452596e-06 -3.993825e-07 -6.403660e-07 -1.398123e-07 -9.838936e-08 5.754835e-07
9.911094e-07 -2.288977e-07 -3.565121e-07 -1.197429e-07 -1.601219e-07 8.288713e-07
4.432237e-07 -3.157089e-07 -2.934200e-07 -2.197283e-07 -2.314000e-07 8.622862e-07
1.598134e-06 -5.139765e-07 -6.077639e-07 -5.474295e-07 -1.308951e-07 8.078983e-07
-2.498046e-06 -2.382772e-06 1.695310e-05 6.882962e-06 7.604614e-06 6.043451e-06
1.109632e-06 1.562932e-06 4.444204e-06 4.103305e-06 2.322873e-06 2.878632e-06
-1.179147e-06 1.192078e-06 2.879328e-06 2.237545e-06 -2.490919e-07 -1.645258e-07
-5.773126e-07 2.439664e-06 2.040689e-06 3.407776e-06 1.786224e-06 3.085506e-07
-8.062771e-07 7.994839e-07 6.058334e-06 2.560335e-06 4.195291e-07 1.797227e-06
2.420232e-07 3.394608e-07 2.611672e-06 3.099784e-06 -3.059679e-07 -2.401072e-07
1.972129e-07 2.512329e-07 3.068308e-06 1.953055e-06 -1.197869e-06 1.791498e-07
3.128113e-06 -2.695082e-06 3.042788e-06 -1.615351e-06 -2.350088e-07 7.719354e-07
1.284130e-06 -1.222998e-06 4.919225e-06 -2.193685e-06 2.297460e-07 2.157350e-06
3.156779e-06 -3.155025e-06 3.722390e-06 -2.157451e-06 -1.217098e-07 1.858590e-06
1.182827e-06 -8.565692e-07 3.024580e-06 -1.526145e-06 -9.405126e-07 1.194509e-06
3.328201e-06 -2.562081e-06 2.075335e-07 -1.080104e-06 -1.462918e-06 -6.447486e-07
8.656729e-07 -1.934350e-06 4.737144e-06 -6.456820e-07 2.975686e-07 1.635013e-06
1.738886e-06 3.763669e-07 -5.438300e-07 1.290299e-06 3.670455e-07 1.372901e-06
4.975887e-06 -2.802761e-06 2.561473e-06 -2.991060e-06 9.170272e-08 1.798700e-06
3.029331e-06 -1.703662e-06 7.419972e-07 -1.594020e-07 8.952943e-08 1.044593e-06
2.681704e-06 -1.490127e-06 9.343136e-07 8.989739e-07 5.158532e-07 1.316253e-06
2.405275e-06 -2.309470e-06 4.475069e-06 6.607176e-07 9.721064e-07 1.060915e-06
2.139561e-06 -1.471024e-06 2.079612e-07 1.108552e-06 -2.012150e-08 1.297300e-06
1.611626e-06 -9.983154e-07 2.608851e-06 1.276201e-06 -2.815210e-07 1.132278e-06
3.389939e-07 -1.505274e-06 1.150461e-06 9.090834e-08 3.844332e-07 5.628185e-07
-1.678320e-06 -3.032185e-06 1.965637e-05 2.828523e-06 5.539859e-06 1.198373e-05
4.169247e-06 -3.689619e-06 1.524585e-05 2.256791e-06 1.650007e-06 1.159555e-05
3.408613e-07 -2.142905e-06 1.156433e-05 3.641501e-06 1.890488e-06 6.003820e-06
-2.867694e-06 -4.231714e-06 2.500913e-05 6.813730e-06 1.375028e-05 1.315400e-05
4.363043e-07 -2.167672e-06 1.004819e-05 3.658754e-06 2.310917e-06 4.933780e-06
-3.131019e-06 -8.577350e-06 2.426255e-05 9.212546e-06 7.126656e-06 1.386823e-05
-2.839001e-06 -3.810560e-06 2.009148e-05 6.697371e-06 7.745017e-06 1.425384e-05
-4.259183e-06 -1.096351e-05 3.332351e-05 3.052552e-06 2.721307e-05 2.594282e-05
3.383727e-06 -6.846240e-06 2.033739e-05 4.414510e-06 4.010868e-06 1.215603e-05
-3.452500e-07 8.315011e-07 -3.335923e-07 -3.670453e-07 -7.089899e-07 2.317803e-07
-6.748938e-07 2.265281e-06 -7.290882e-07 -3.154047e-07 -9.590305e-07 1.632550e-07
-3.678491e-07 1.682689e-06 -4.278704e-07 -2.225688e-07 -1.195919e-06 2.336207e-07
-5.286719e-07 1.767698e-06 -6.268723e-07 -8.031054e-07 -9.499678e-07 2.115487e-07
-3.452505e-07 1.184822e-06 -4.762906e-07 -4.347756e-07 -1.297183e-06 4.652278e-07
-5.925392e-07 6.583195e-07 -3.494165e-07 3.226500e-07 -1.048046e-06 3.094432e-07
-6.109144e-07 6.130473e-07 -3.365440e-07 2.079414e-07 -1.033748e-06 2.018054e-07
7.181157e-07 -1.636443e-07 -3.113620e-07 -1.355447e-08 -5.272132e-08 1.675346e-07
8.104353e-07 -1.550012e-07 -3.445760e-07 -8.186176e-08 -3.553415e-08 2.309513e-07
-3.046341e-07 1.364827e-06 -6.820485e-07 -4.190003e-07 5.694685e-07 -6.555197e-08
6.905482e-07 -1.702056e-07 -2.206564e-07 -9.828514e-08 -6.037966e-08 3.562810e-07
7.339569e-07 -2.266392e-07 -3.340483e-07 -5.291672e-08 -4.479687e-08 3.568528e-07
4.956487e-07 -1.972087e-07 -2.364269e-07 -9.075840e-09 -2.476670e-08 3.037427e-07
6.715452e-07 -1.819423e-07 -2.279489e-07 -8.073362e-08 -7.006780e-08 3.685096e-07
7.021524e-07 -2.384420e-07 -3.318333e-07 -8.398284e-08 -5.547681e-08 3.531046e-07
-1.675664e-06 3.118903e-06 1.422117e-06 -7.214431e-07 -1.722335e-07 2.282503e-08
-1.330683e-06 1.687726e-06 2.834212e-07 6.003013e-09 -1.558995e-06 1.238519e-07
-9.364600e-07 2.501433e-06 -4.565933e-07 -2.776066e-07 -1.082495e-06 -3.579244e-08
-1.892776e-06 3.167766e-06 1.055645e-06 -7.560550e-07 -1.366774e-06 4.979879e-07
-2.502522e-06 2.903227e-06 1.432368e-06 -5.089787e-07 -3.766195e-07 -1.501831e-07
-1.481758e-06 3.814780e-06 -1.153747e-07 -1.299590e-08 -1.052364e-06 -7.651765e-08
-1.002158e-06 1.577630e-06 6.014095e-07 -1.956180e-06 -2.863043e-07 3.429293e-07
-1.174340e-06 2.006799e-06 -1.882360e-08 -1.229653e-06 -1.249590e-06 2.110952e-07
-1.027080e-06 2.449677e-06 1.423820e-07 -7.702198e-07 -8.506710e-07 3.694860e-07
5.683701e-07 -1.406435e-07 -2.052611e-07 1.437221e-08 3.618815e-09 1.791263e-07
1.821647e-08 9.601236e-07 1.610666e-07 -1.913359e-06 -9.548482e-07 7.778950e-07
8.114220e-07 5.551523e-07 -6.927503e-07 -1.108875e-06 -3.992841e-07 4.248441e-07
-1.574036e-06 2.702554e-06 1.244489e-06 -1.922341e-06 -5.460919e-07 3.166142e-07
5.857696e-07 -7.693586e-08 -4.834707e-07 3.168184e-07 2.407863e-07 5.160911e-07
8.115631e-07 -6.978047e-08 -5.023518e-07 4.848959e-07 2.271853e-07 6.046683e-07
8.991640e-07 -1.619850e-07 -5.019377e-07 5.106731e-07 2.583700e-07 6.281868e-07
1.115858e-06 -1.628066e-07 -5.237152e-07 7.841973e-07 3.019106e-07 6.877953e-07
1.307581e-06 -3.939722e-08 -7.109016e-07 8.963214e-07 2.051886e-07 6.105658e-07
1.346048e-06 -2.946188e-07 -5.483646e-07 5.891156e-07 2.619800e-07 6.706082e-07
1.522272e-06 -3.098154e-07 -7.166391e-07 6.416711e-07 2.628713e-07 5.858743e-07
1.113138e-06 -2.183089e-07 -5.392651e-07 7.971150e-07 3.780958e-07 6.650078e-07
1.224312e-06 -1.798372e-07 -6.982314e-07 6.760827e-07 3.474785e-07 5.854706e-07
1.796674e-06 -1.057915e-06 7.912371e-07 1.752760e-06 9.467264e-08 8.199729e-07
1.500513e-06 -4.995648e-07 4.291727e-07 3.115443e-06 4.671183e-07 3.168806e-07
6.421522e-07 6.573178e-08 -3.704962e-07 3.843094e-07 2.163501e-07 3.315587e-07
6.671751e-07 2.549601e-09 -4.572665e-07 4.823804e-07 3.749195e-07 4.667792e-07
8.565036e-07 9.047314e-08 -4.780661e-07 7.449489e-07 2.985141e-07 4.943469e-07
2.139715e-07 -1.454988e-08 -2.477506e-07 2.098587e-07 2.940449e-07 4.193792e-07
8.302918e-07 -1.550115e-07 -4.649396e-07 4.009919e-07 1.848895e-07 4.809400e-07
6.429784e-07 5.189659e-08 -3.674624e-07 3.858303e-07 2.182881e-07 3.295336e-07
6.264018e-07 7.406075e-09 -6.225910e-07 6.063612e-07 2.967024e-07 4.750448e-07
-5.083031e-07 1.272191e-06 -3.448089e-07 3.750299e-07 -1.137137e-06 -3.984127e-07
-1.089175e-06 3.440283e-06 6.983100e-08 1.083519e-06 -1.388119e-06 -2.979705e-07
-1.377283e-06 -8.107303e-08 1.044834e-06 -9.683285e-08 -1.476964e-06 -1.312012e-07
-5.459089e-07 4.378824e-07 -3.281864e-07 1.008809e-08 -7.680210e-07 3.756384e-07
-7.720014e-07 2.215002e-06 -2.716962e-07 3.803186e-07 -1.206572e-06 -3.263724e-07
-1.584204e-06 3.016041e-06 5.658222e-07 1.484266e-06 -2.871948e-07 9.886790e-08
-1.577657e-06 2.281345e-06 5.025632e-07 -8.431567e-07 8.119241e-07 -3.482501e-07
-2.322686e-06 2.912103e-06 3.114933e-06 -2.869371e-06 -1.095154e-06 6.793634e-07
-1.499605e-06 3.519272e-06 2.848351e-07 -1.439049e-06 5.489507e-07 5.851292e-08
-1.109939e-06 2.494012e-06 8.609990e-07 -1.855043e-06 -8.705680e-08 -3.522327e-07
-8.860970e-07 1.810229e-06 -3.853120e-07 2.386669e-07 8.886171e-07 1.137290e-07
-5.391475e-07 9.907474e-07 -4.710044e-07 1.825758e-07 1.149297e-06 1.514435e-07
-4.861295e-07 4.826028e-07 -2.380432e-07 -2.608462e-07 9.982741e-07 1.250012e-07
-3.114848e-07 1.023701e-06 -5.916080e-07 1.827766e-07 5.155373e-07 1.018081e-07
6.219077e-07 -1.271726e-07 -2.425874e-07 -1.691767e-07 -1.252225e-07 2.671724e-07
6.927292e-07 -1.712529e-07 -3.077008e-07 -9.840797e-08 -7.289185e-08 2.763771e-07
7.205147e-07 -2.280459e-07 -3.135874e-07 -4.700947e-08 -3.879036e-08 3.087390e-07
6.842487e-07 -1.424391e-07 -2.998989e-07 -6.011288e-08 -5.542198e-08 1.480183e-07
7.031745e-07 -1.713202e-07 -3.281376e-07 -1.007932e-07 -7.171829e-08 3.187821e-07
4.664321e-07 -2.368119e-07 -2.492241e-07 -6.736383e-08 -5.354112e-08 4.687328e-07
8.070009e-07 -1.964254e-07 -2.744723e-07 -1.201287e-07 -1.236226e-07 5.728489e-07
3.047875e-07 1.621889e-07 -3.566049e-07 3.948336e-07 3.567034e-07 4.645620e-07
3.705196e-07 2.906901e-07 -3.295184e-07 5.077148e-07 5.377590e-07 5.537830e-07
1.958008e-07 2.402332e-07 -2.585428e-07 3.711149e-07 3.804959e-07 2.871373e-07
8.122858e-07 3.221689e-07 -6.738017e-07 -1.252590e-06 -5.330494e-07 6.958266e-07
4.510654e-07 1.017953e-07 -2.894063e-07 -2.958336e-07 -1.271580e-07 1.812145e-07
3.933223e-07 8.863717e-08 -3.248184e-07 -2.656557e-07 -1.543935e-07 2.281732e-07
3.483995e-07 1.970049e-07 -4.419409e-07 -3.674266e-07 -3.307821e-07 3.263153e-07
7.101296e-07 3.264424e-08 -4.077890e-07 -4.164477e-07 -3.909669e-07 6.086225e-07
6.243421e-07 5.670047e-08 -4.321598e-07 -3.746781e-07 -1.900865e-07 3.038418e-07
6.150308e-07 5.125760e-08 -3.413847e-07 -3.005248e-07 -1.173579e-07 2.045299e-07
9.929846e-07 -2.670519e-07 -3.331846e-07 -5.355004e-08 -5.408224e-08 9.122765e-07
2.817302e-06 -9.970563e-07 -6.563757e-07 1.498875e-07 6.559235e-08 1.044055e-06
1.554553e-06 -5.359026e-07 -9.802006e-08 -5.183389e-07 -4.165089e-07 1.234370e-06
2.628292e-06 -1.434258e-06 -1.094209e-07 -4.162851e-07 -3.984653e-08 7.765751e-07
1.926421e-06 -9.801002e-07 -4.919452e-07 -1.666621e-07 -6.118312e-08 6.695037e-07
3.172883e-07 1.352100e-07 -1.693304e-07 8.690975e-08 2.550880e-08 3.333144e-08
1.032439e-08 2.275341e-07 -3.111556e-07 -1.543637e-07 -3.943449e-07 3.073883e-07
-1.511252e-07 6.353420e-07 -5.616198e-07 -4.344322e-07 1.013320e-06 -5.341348e-07
-2.413456e-07 6.403888e-07 -3.989703e-07 -1.986304e-07 6.334017e-07 -2.738154e-07
2.138411e-08 6.139047e-07 -3.845732e-07 -4.380045e-07 8.013740e-07 -4.717158e-07
3.699634e-07 4.561860e-07 -5.431066e-07 6.440733e-07 2.622413e-07 2.879645e-07
8.104483e-07 2.263414e-07 -6.711640e-07 -9.460091e-07 -5.131974e-07 5.510206e-07
3.017820e-07 6.688955e-07 -4.283879e-07 6.393684e-07 9.354856e-07 4.908308e-07
-3.128687e-07 9.942383e-08 -2.032475e-07 2.677516e-07 1.227302e-06 5.827847e-07
3.699634e-07 4.894064e-07 -4.746011e-07 5.407220e-07 1.686056e-07 1.593990e-07
-1.074533e-07 7.014072e-07 -4.622697e-07 4.253650e-07 6.453313e-07 2.601359e-07
-2.320433e-07 6.507668e-07 -4.551455e-07 3.370589e-07 6.552029e-07 2.610403e-07
-1.368465e-07 1.120844e-06 -5.457681e-07 5.523459e-07 7.701351e-07 2.935836e-07
-2.432085e-07 5.941843e-07 -3.258359e-07 3.109535e-07 9.042876e-07 4.087865e-07
-2.110520e-07 1.105767e-06 -5.536826e-07 6.662728e-07 1.057198e-06 5.070634e-07
-1.141994e-07 1.277839e-06 -6.124224e-07 8.420517e-07 1.073993e-06 5.948892e-07
-3.215071e-07 1.356986e-06 -5.612802e-07 9.255674e-07 -7.050356e-07 -2.672474e-07
4.860112e-08 -9.925250e-08 -2.553877e-07 -2.327006e-07 -3.388265e-07 7.887235e-07
3.230059e-07 4.666467e-09 -2.169309e-07 1.712414e-07 1.442481e-07 2.385830e-07
5.022816e-07 1.103454e-07 -4.698875e-07 -3.931564e-07 -2.155526e-07 3.028265e-07
5.915331e-07 1.187882e-08 -3.005731e-07 -3.096990e-07 -3.126893e-07 5.080115e-07
6.106423e-07 -1.022262e-08 -4.241590e-07 -2.711458e-07 -1.780841e-07 2.782260e-07
5.881233e-07 -9.666998e-08 -2.525581e-07 -1.905811e-07 -1.845031e-07 3.289175e-07
8.192116e-07 5.856875e-07 -6.368507e-07 1.504447e-06 -6.473297e-07 -3.127227e-07
2.052492e-07 -1.821233e-07 -2.851457e-07 -1.590474e-07 -3.364784e-07 7.756685e-07
4.202191e-07 -6.135472e-09 -2.448583e-07 -2.190026e-07 -2.021415e-07 3.533219e-07
6.133416e-07 -1.932579e-08 -2.519315e-07 -2.592161e-07 -1.696773e-07 3.246528e-07
-4.498256e-06 4.148278e-06 4.445223e-06 1.020633e-06 2.122655e-06 1.515283e-07
-2.917646e-06 2.197183e-06 5.080577e-06 3.296014e-06 2.017355e-06 1.194453e-06
-2.662890e-06 4.010419e-06 1.912995e-06 8.695140e-07 1.501755e-09 1.681778e-06
2.374992e-07 2.471476e-07 -4.166217e-07 -2.702600e-07 -2.099262e-07 2.085205e-07
2.932506e-07 -1.650078e-07 -2.609234e-07 1.489481e-07 2.743482e-07 7.886149e-07
-1.356749e-05 -7.631896e-07 2.003923e-05 -9.536664e-06 -1.906060e-05 9.818894e-06
-9.426654e-06 6.860171e-07 4.400285e-05 -1.792083e-06 -1.560981e-05 1.521178e-05
-2.753980e-06 -2.373136e-07 1.785264e-05 -4.931470e-06 -6.929240e-06 6.116354e-06
-1.281133e-06 -5.978808e-06 3.185422e-05 -8.557682e-06 -1.076101e-05 1.683192e-05
-2.685534e-06 7.225195e-07 1.712598e-05 -4.083838e-06 -6.584305e-06 7.181566e-06
-1.325013e-06 3.518820e-06 6.560584e-06 -9.487178e-07 -3.515626e-06 4.394189e-06
-3.311436e-06 -1.975916e-06 4.976167e-05 -2.789709e-06 -2.440632e-05 3.638190e-05
-9.583049e-07 3.423079e-07 6.783355e-06 -3.487424e-06 -4.584901e-06 4.721128e-06
4.738857e-07 1.903349e-08 -2.084919e-07 -1.038840e-07 -3.586182e-08 6.567189e-08
5.852529e-07 8.786654e-08 -4.086004e-07 -4.110389e-07 -1.507603e-07 2.164378e-07
1.781841e-06 -4.498958e-07 -3.534942e-07 1.009266e-06 2.341368e-07 1.478170e-06
9.456707e-07 -1.060363e-07 1.411448e-07 1.038950e-06 6.991942e-07 1.181991e-06
1.667167e-06 -7.019686e-07 -1.257074e-07 1.216029e-06 4.607633e-07 1.138325e-06
7.950362e-07 -1.418946e-07 -4.607933e-07 1.996124e-07 6.019893e-08 3.094483e-07
4.874337e-07 -3.827589e-07 -1.307965e-07 4.700516e-07 4.112097e-07 1.228343e-06
1.675055e-06 -2.779987e-08 -3.676682e-07 1.235089e-06 5.922816e-07 6.456058e-07
2.560711e-07 -3.361959e-07 -7.052683e-08 3.395764e-07 6.870418e-07 1.231831e-06
1.404985e-06 -4.645950e-08 -4.301117e-07 1.312207e-06 5.295164e-07 9.900477e-07
3.565219e-07 1.426929e-07 -2.310586e-07 1.786181e-07 4.991988e-08 5.050881e-08
5.045099e-07 -3.529496e-07 -1.994482e-07 4.698033e-07 5.077865e-07 1.084562e-06
1.228482e-06 -3.756145e-07 -1.729949e-08 1.085469e-06 8.668835e-07 1.417307e-06
-1.346762e-05 -1.859491e-05 7.262420e-05 3.400186e-06 -1.969721e-05 -2.440799e-05
-2.763858e-06 -1.709730e-05 5.191132e-05 2.227613e-06 -8.033879e-06 -2.020019e-05
-1.197532e-05 -7.333474e-06 4.622590e-05 6.479388e-06 -1.781779e-05 -1.204514e-05
-1.530991e-05 -6.823938e-06 5.629494e-05 9.051399e-06 -2.055194e-05 -1.718053e-05
-2.382045e-08 9.991352e-07 -7.765832e-07 5.502920e-07 -5.659504e-07 -2.976339e-07
-1.972534e-05 -1.719334e-05 1.092356e-04 -2.718235e-06 -1.927513e-05 -3.181994e-05
-1.770258e-05 -1.056669e-05 9.396560e-05 -9.258256e-08 2.350872e-05 -1.041194e-05
-7.320706e-06 -1.128577e-05 4.620412e-05 7.060993e-06 -2.099039e-05 -5.546690e-05
-1.786283e-05 -1.416052e-06 3.715758e-05 1.169274e-06 -2.065526e-05 3.130521e-07
-1.965058e-05 -1.427867e-05 1.056789e-04 -3.698565e-06 -3.152297e-05 -1.156083e-05
4.376704e-06 -2.308963e-06 4.856975e-07 -1.788611e-06 1.736670e-07 -2.643029e-08
3.889451e-07 -4.063479e-07 9.815030e-07 1.094893e-08 3.141242e-07 1.171980e-06
-2.405208e-05 -2.229701e-05 1.141636e-04 -2.725522e-06 -1.202715e-05 3.753698e-06
4.669376e-07 5.623485e-09 -2.635061e-07 1.544318e-07 5.859467e-08 1.312551e-07
4.650585e-07 2.288442e-08 -2.460233e-07 1.571940e-07 7.606801e-08 1.347420e-07
5.235045e-07 -3.791352e-08 -1.862041e-07 1.224935e-07 5.354486e-08 1.342969e-07
4.357353e-07 1.774164e-07 -3.312125e-07 2.957998e-07 9.849787e-08 1.293418e-07
2.997526e-06 -9.801002e-07 -5.679201e-07 -1.935690e-07 -8.274205e-08 1.051199e-06
4.431915e-07 2.304355e-08 -1.925854e-07 1.525640e-07 5.778575e-08 1.005342e-07
4.441098e-07 7.827428e-08 -2.416980e-07 1.928862e-07 6.204431e-08 1.235489e-07
3.414093e-07 2.133614e-07 -3.965004e-07 2.676621e-07 1.902493e-07 1.767026e-07
3.984950e-07 7.291161e-08 -1.807557e-07 1.317791e-07 4.091238e-08 5.894307e-08
1.148507e-06 -4.882450e-07 -3.578977e-07 1.698088e-07 -3.579242e-09 9.330060e-07
4.811780e-07 7.740837e-08 -2.636232e-07 1.906120e-07 6.687922e-08 7.887555e-08
-4.352232e-08 1.515145e-07 -3.204828e-07 1.564638e-07 6.437314e-07 5.267366e-07
1.876331e-06 -1.309805e-06 4.088150e-06 2.423704e-06 -5.077150e-07 1.544761e-06
-5.063305e-07 -8.794618e-07 2.988147e-06 2.761588e-07 -7.065748e-07 1.314205e-06
3.275089e-06 -7.232907e-06 2.300552e-05 5.907030e-06 6.845549e-06 1.305455e-05
3.368186e-07 -8.349212e-08 -2.472387e-07 1.903714e-07 2.706729e-07 5.475421e-07
1.093137e-06 -6.551662e-06 1.803532e-05 5.344810e-06 4.537277e-06 1.002566e-05
2.919994e-06 -1.327975e-06 2.627075e-06 3.372245e-06 8.511557e-07 1.609488e-06
-1.596138e-06 -1.848009e-06 1.425362e-05 4.728814e-06 3.320113e-06 6.253107e-06
-2.386525e-07 -8.220334e-08 -1.423033e-07 1.287310e-07 1.257289e-06 1.124649e-06
-1.501266e-06 3.574788e-06 7.992298e-07 1.860723e-06 5.924241e-07 5.345608e-07
-1.327182e-06 2.548728e-06 -1.692900e-07 1.061620e-06 1.368939e-06 3.403694e-07
6.615290e-07 -8.173073e-08 -2.651930e-07 1.484339e-07 2.271352e-08 1.191953e-07
6.972678e-07 7.203313e-09 -3.722448e-07 3.219859e-07 1.009509e-07 1.747714e-07
-5.437361e-06 1.473300e-06 1.670371e-05 -5.809130e-06 -6.332475e-06 7.872399e-06
-2.419686e-06 2.640152e-06 4.744862e-06 4.590028e-07 2.381539e-06 1.135156e-06
-1.408411e-06 2.708058e-06 2.493413e-07 1.397109e-06 3.175992e-07 3.925562e-07
7.706666e-07 -2.535368e-07 -3.208807e-07 8.169856e-07 6.142262e-07 9.843106e-07
-2.527021e-07 3.088387e-08 -2.139513e-07 7.174397e-08 1.542543e-06 3.404111e-07
-4.259597e-07 1.238562e-06 -6.842209e-07 -2.536085e-07 1.009644e-06 -2.398221e-07
1.193265e-06 -2.396636e-07 -2.915355e-07 1.396419e-06 4.268129e-07 1.526570e-06
1.208872e-06 -1.913181e-07 -5.447607e-07 1.049377e-06 6.533741e-07 9.913918e-07
4.102453e-07 1.283405e-07 -3.925070e-07 6.443854e-07 6.434912e-07 8.144340e-07
2.160277e-07 -1.083749e-07 -2.584391e-07 3.410558e-07 6.196367e-07 6.209556e-07
1.114718e-06 8.972703e-07 -8.214224e-07 1.695078e-06 6.721923e-07 7.068083e-07
4.917309e-07 1.541552e-07 -4.700959e-07 4.808418e-07 2.320027e-07 3.033817e-07
1.173368e-06 7.009156e-07 -3.170261e-07 1.234710e-06 1.036264e-06 9.115365e-07
-1.416551e-07 5.611534e-07 -2.776495e-07 2.475253e-07 4.466251e-07 1.491124e-07
2.042291e-07 7.123550e-07 -6.550522e-07 1.126047e-06 5.402224e-07 4.885406e-07
7.812571e-07 3.995794e-07 -7.231608e-07 1.170033e-06 5.675920e-07 5.350425e-07
-2.382491e-07 8.879862e-07 -4.019592e-07 -2.440619e-07 -8.504105e-07 4.250076e-07
-7.211275e-07 -4.177346e-06 1.398966e-05 5.801749e-06 -9.468731e-06 -1.391419e-05
6.170442e-07 -1.317225e-07 -2.784888e-07 7.956969e-08 4.872540e-08 1.906448e-07
2.532139e-06 -3.706910e-06 1.043864e-05 5.782589e-06 -8.928978e-06 -9.025680e-06
1.843143e-06 -1.469501e-05 2.925926e-05 6.080566e-06 -1.319616e-05 -2.119497e-05
5.111505e-07 3.639434e-08 -3.724055e-07 -2.158686e-07 -7.590344e-08 1.522617e-07
3.088384e-06 -8.280638e-06 2.276134e-05 5.044552e-06 -2.480335e-06 -1.460726e-05
4.742617e-06 -8.036645e-06 1.318902e-05 1.757694e-06 3.210802e-07 -1.254039e-05
3.684342e-06 -6.602738e-06 1.264219e-05 1.467595e-06 -1.944079e-06 -1.422866e-05
4.288613e-06 -6.794080e-06 2.298254e-05 3.533788e-06 -3.108804e-06 -1.409068e-05
4.409367e-07 9.317513e-08 -2.465934e-07 -1.278657e-07 -5.501508e-08 7.459966e-08
-2.600662e-07 1.095644e-06 -4.174524e-07 -5.516813e-07 -1.032400e-06 4.066999e-07
4.466743e-07 7.292721e-08 -2.087418e-07 -1.079875e-07 -2.709328e-08 4.520341e-08
4.321537e-07 4.174902e-08 -2.172028e-07 -1.377055e-07 -4.424317e-08 8.692687e-08
4.440419e-07 4.988160e-08 -2.146707e-07 -1.061536e-07 -4.951860e-08 7.637789e-08
-2.782750e-06 3.203850e-06 6.072696e-06 -3.783529e-06 -3.431082e-06 2.457338e-06
-1.267293e-07 7.851690e-07 -3.934382e-07 -3.075367e-07 -6.904612e-07 4.351433e-07
4.194361e-07 5.554619e-08 -2.488995e-07 -1.275679e-07 -5.828368e-08 1.070628e-07
4.354331e-07 4.501319e-08 -1.741296e-07 -9.911880e-08 -4.568313e-08 6.260161e-08
3.619911e-06 -2.325185e-06 1.371245e-06 1.482348e-06 -2.729341e-07 4.632223e-07
1.627078e-06 -1.182789e-06 2.539548e-06 -8.011190e-07 -5.714687e-07 7.042386e-07
2.241585e-06 -8.982295e-07 3.476515e-07 1.935812e-06 2.450782e-07 7.491671e-07
-9.305753e-06 6.879124e-06 1.139050e-05 2.315287e-06 1.395415e-05 5.690256e-06
6.910628e-07 -5.235515e-07 1.485553e-07 5.078836e-07 4.123033e-07 1.219017e-06
2.003819e-06 -5.608854e-07 -2.784977e-07 8.383709e-07 6.446488e-07 1.231078e-06
1.337961e-06 -2.259413e-06 6.672691e-06 3.542545e-06 8.076974e-08 -1.231995e-06
1.596677e-06 -1.927207e-06 3.210806e-06 1.103220e-06 5.842135e-07 1.137542e-06
5.046642e-08 1.476346e-06 -7.074471e-07 2.132094e-06 -9.608772e-07 -7.462743e-07
3.924452e-07 4.753995e-08 -2.007287e-07 -9.577168e-08 -8.069980e-08 1.067573e-07
1.226094e-06 -4.685227e-07 3.059019e-07 1.017193e-06 3.433381e-07 1.087580e-06
5.396474e-07 7.439571e-08 -4.278410e-07 5.326910e-07 4.624360e-07 8.066867e-07
-2.326311e-07 1.447315e-06 -7.015655e-07 -8.165763e-07 -7.209821e-07 3.027022e-07
1.114638e-06 -1.004229e-07 -6.629152e-07 6.440127e-07 2.385208e-07 5.111465e-07
4.748922e-07 4.717820e-09 -3.211840e-07 3.746452e-07 3.886078e-07 7.689911e-07
3.990610e-07 2.822599e-07 -4.687165e-07 5.631492e-07 4.729359e-07 3.853304e-07
-3.673419e-06 4.075734e-06 1.230992e-06 -1.531541e-06 -4.412416e-07 8.774689e-08
4.617196e-07 9.643704e-08 -3.246040e-07 2.939424e-07 1.219024e-07 2.554482e-07
7.582593e-08 1.913791e-07 -2.775870e-07 -1.457707e-07 -2.846888e-07 2.512318e-07
4.932752e-07 6.573482e-09 -2.184860e-07 -1.085289e-07 -2.267186e-08 8.631618e-08
6.272455e-07 8.536729e-08 -4.806731e-07 5.134880e-07 3.024927e-07 5.903823e-07
8.774182e-07 -2.042560e-07 -4.838425e-07 5.316767e-07 3.767212e-07 6.021684e-07
-1.267293e-07 1.106782e-07 -2.783185e-07 -9.575198e-08 -9.018653e-07 6.113474e-07
8.827270e-07 -1.215194e-07 -6.793686e-07 7.787468e-07 3.647933e-07 5.887597e-07
6.613517e-07 -1.409123e-07 -3.107021e-07 -1.534292e-07 -5.673639e-08 2.868361e-07
6.820993e-07 -6.719105e-08 -4.097119e-07 -2.037618e-07 -7.291830e-08 2.691246e-07
6.009675e-07 -6.462271e-08 -2.294874e-07 -2.111201e-07 -9.521461e-08 2.550250e-07
1.245720e-06 5.600013e-07 -7.660794e-07 -1.595680e-06 -5.247262e-07 6.083701e-07
3.249492e-07 -3.817479e-08 -2.923735e-07 -2.042510e-07 -9.678707e-08 3.868886e-07
-5.006319e-08 2.286464e-07 -3.186077e-07 -1.768982e-07 -5.074138e-07 3.354144e-07
6.017508e-07 -9.185114e-08 -3.041512e-07 -1.404972e-07 -7.753278e-08 2.058608e-07
5.741637e-07 -4.604143e-08 -3.036881e-07 -1.665443e-07 -7.292618e-08 2.031852e-07
5.541999e-07 -8.670506e-08 -2.091948e-07 -1.304976e-07 -4.517688e-08 1.834910e-07
5.997739e-07 -5.401285e-08 -2.668450e-07 -1.767139e-07 -8.409009e-08 2.056162e-07
4.057716e-06 -6.929955e-06 9.906375e-06 -2.582955e-07 4.830914e-07 5.832971e-06
5.434726e-07 3.870856e-06 5.940501e-07 1.810393e-06 7.067525e-07 5.102485e-08
5.570387e-07 -5.503605e-08 -1.843278e-07 -1.027378e-07 -2.751307e-08 9.501911e-08
2.034491e-06 -3.002162e-06 5.285499e-06 5.074841e-06 4.555250e-07 2.650380e-06
6.204433e-07 -5.840760e-08 -2.993760e-07 -1.756877e-07 -3.891918e-08 1.657182e-07
-9.498572e-07 1.602435e-06 1.864961e-07 1.042102e-07 1.916092e-06 -1.517228e-07
-6.164907e-07 1.216401e-06 -3.318348e-07 -1.248122e-08 9.126965e-07 2.728261e-09
-7.038060e-08 -3.630309e-06 1.701442e-05 5.754057e-06 8.434619e-06 7.124782e-06
-6.807593e-07 3.780852e-07 2.612114e-07 -2.164545e-07 1.535623e-06 9.639511e-09
-5.922103e-07 8.682716e-07 -1.643042e-07 -5.764709e-07 1.495659e-06 1.696045e-08
-5.296442e-07 1.497758e-06 -2.071352e-07 2.674772e-07 9.164354e-07 2.492691e-08
-5.009174e-06 3.356727e-06 8.402053e-06 -2.294223e-06 5.491643e-06 -5.069108e-07
-2.098356e-06 -7.442867e-07 3.028106e-05 2.690248e-06 -2.377957e-05 2.128044e-05
-4.231859e-06 5.330086e-06 1.952876e-05 -3.679035e-06 1.266927e-05 -6.226239e-06
-1.147131e-05 5.102244e-06 1.676022e-05 -4.938191e-07 9.330981e-06 -2.226992e-06
2.027760e-07 3.832386e-07 -4.872861e-07 -3.451792e-07 -2.944813e-07 2.496001e-07
-1.579411e-06 -5.911290e-06 1.625389e-05 -6.666821e-06 -3.503780e-06 6.172839e-06
-6.118993e-06 1.819021e-06 1.467495e-05 -3.890725e-06 5.318526e-06 -2.543124e-06
-1.865310e-06 3.371806e-06 9.022432e-07 -2.741961e-06 -4.550649e-07 2.117592e-07
-3.505444e-07 -3.332921e-07 6.954073e-07 -5.781538e-08 -1.363786e-06 1.107559e-06
-2.903661e-06 2.947007e-06 5.018608e-06 -1.741139e-06 1.313564e-06 3.227862e-07
9.977602e-07 -2.097347e-07 -4.510435e-07 4.645757e-08 1.968547e-08 2.894180e-07
-6.165892e-06 5.865866e-06 1.340763e-05 1.546846e-06 1.132685e-05 4.232627e-06
-3.595881e-06 2.633429e-06 7.999381e-06 -8.439327e-07 3.732188e-06 -1.072280e-06
6.320254e-07 -5.339448e-07 8.735023e-07 -1.114204e-07 -3.491869e-07 9.176027e-07
8.784754e-07 9.610258e-07 -5.409774e-07 1.916175e-06 -9.218027e-07 -8.941621e-07
2.396751e-06 -9.643293e-06 1.125249e-05 -2.569743e-06 -2.290271e-06 4.605377e-06
-9.077016e-08 6.230920e-07 -2.913799e-07 5.248722e-07 -1.029776e-06 -6.597706e-07
3.709158e-06 -1.717988e-06 2.013414e-07 -2.305559e-06 4.862139e-07 -2.886979e-07
2.431308e-07 1.323864e-06 -8.197161e-07 1.033110e-06 -6.790746e-07 -4.339015e-07
6.521862e-08 6.439821e-07 -4.388091e-07 4.593483e-07 -8.435556e-07 -4.142882e-07
4.698751e-08 7.469472e-07 -2.261694e-07 1.000519e-06 -1.034675e-06 -9.365739e-07
4.229287e-08 6.544895e-07 -4.486145e-07 4.336701e-07 -9.436785e-07 -6.821280e-07
2.134611e-07 1.292817e-06 -7.944142e-07 1.063472e-06 -6.987112e-07 -4.137967e-07
1.181647e-06 -3.566752e-07 -5.335142e-07 2.244178e-07 7.859127e-08 3.809699e-07
3.645116e-07 -1.415985e-07 -2.597603e-07 1.181724e-07 1.811887e-07 4.887052e-07
-2.007726e-07 -2.118861e-07 -2.086910e-07 1.668882e-07 -7.925424e-07 -5.904085e-07
1.323149e-07 5.689720e-07 -4.063175e-07 6.772792e-07 -8.194298e-07 -6.181311e-07
-9.925379e-07 2.076176e-06 -2.387460e-07 5.302356e-07 1.277506e-06 1.400229e-08
-1.172731e-06 1.815709e-06 3.096747e-07 -8.892678e-08 3.641442e-07 -3.997838e-07
-5.961017e-07 1.229128e-06 -1.965791e-07 -2.962201e-08 9.874409e-07 -6.932047e-08
8.104332e-07 -1.955912e-07 -3.532593e-07 -8.247546e-08 -1.673182e-08 2.312218e-07
3.357508e-07 -1.575028e-08 -2.802184e-07 1.751274e-07 2.061654e-07 3.604767e-07
1.023278e-06 -1.447975e-07 -6.211475e-07 4.492743e-07 2.186235e-07 5.025789e-07
-1.556828e-06 2.740492e-06 -3.041224e-07 7.868870e-07 1.306381e-06 2.354108e-07
-7.213763e-07 1.295727e-06 4.068464e-07 -3.324203e-07 1.237313e-06 9.043842e-10
-8.917735e-07 2.084796e-06 -6.204205e-07 -4.216450e-07 8.656024e-07 -9.267227e-08
-3.130420e-06 3.578921e-06 2.826170e-06 3.884294e-08 -2.103541e-07 6.226915e-07
5.804173e-08 -2.992572e-06 1.097341e-05 -6.428159e-06 2.212239e-06 -5.278277e-06
-1.435669e-06 2.408638e-06 5.529443e-07 -1.575728e-06 -3.066220e-07 1.035762e-07
-1.589224e-06 3.739541e-06 -2.767598e-07 8.916168e-07 6.709230e-07 4.256267e-09
-2.457041e-06 4.023909e-06 1.364024e-06 -5.189127e-07 2.313915e-07 -1.521013e-07
-3.989832e-06 6.025053e-06 3.578022e-06 -1.826636e-07 1.623924e-06 8.691406e-08
1.199270e-06 7.265718e-08 -5.341878e-07 1.445928e-06 -6.475337e-07 -5.120025e-07
1.226564e-06 -2.112220e-07 -5.592847e-07 8.619522e-07 5.533568e-07 8.231080e-07
-6.873015e-06 2.023790e-06 8.980859e-06 4.840820e-06 3.004502e-06 5.627914e-07
-8.315546e-07 1.501558e-06 -6.023042e-07 -5.219757e-07 -8.091896e-07 1.629859e-07
1.043199e-06 -2.650953e-07 -4.504720e-07 5.957250e-07 3.747901e-07 9.171402e-07
7.950138e-07 -2.177502e-07 -3.823107e-07 4.366852e-07 2.484636e-07 8.482175e-07
2.979636e-07 -2.696067e-07 -2.580581e-07 2.596494e-07 4.933733e-07 8.458384e-07
-3.369256e-07 9.836148e-07 -2.959323e-07 1.338175e-07 -7.856845e-07 -1.959238e-07
-5.179397e-07 8.295901e-07 3.412281e-06 2.660397e-06 -3.948424e-07 1.352276e-07
4.705148e-07 -1.938556e-07 -2.875952e-07 2.709565e-07 3.210041e-07 7.751970e-07
6.410979e-07 -1.577813e-07 -2.078229e-07 -5.973959e-08 -3.919973e-08 2.308665e-07
7.132541e-07 -1.886822e-07 -2.371388e-07 -5.442213e-08 -3.675687e-08 3.878558e-07
9.120333e-07 -2.055978e-07 -4.298976e-07 -1.469548e-07 -6.921644e-08 2.543248e-07
7.252669e-07 -1.889472e-07 -3.357692e-07 -5.624527e-08 -1.707586e-08 3.403114e-07
-4.523745e-07 -4.032587e-08 2.244017e-08 -1.185172e-07 -1.063241e-06 4.288228e-07
9.428576e-07 8.366588e-07 1.204073e-06 -3.095115e-06 1.291426e-06 -5.548729e-07
-3.501589e-07 -6.821578e-08 2.345296e-07 -4.462563e-08 -9.375409e-07 2.627728e-07
-2.172580e-07 9.554396e-07 -3.596077e-07 -4.584509e-07 -6.187520e-07 3.248454e-07
-1.472641e-07 9.171696e-07 -3.974724e-07 -6.044824e-07 -1.049752e-06 4.543163e-07
-2.172614e-07 9.575781e-07 -6.775619e-07 -4.590149e-07 -5.853819e-07 3.047487e-07
-2.379461e-07 1.915698e-06 -8.142452e-07 -1.073931e-06 -8.234668e-07 4.959798e-07
-8.483919e-07 -2.641706e-08 5.363313e-07 -2.599869e-07 -1.189796e-06 1.779235e-07
-5.552822e-07 9.818304e-07 -2.018637e-07 -5.578348e-07 -9.208302e-07 1.574071e-07
-1.028213e-06 3.163936e-06 -3.568504e-07 -1.468117e-06 -1.047445e-06 4.276268e-07
-4.141751e-07 1.788743e-06 -4.584500e-07 -1.082688e-06 -9.115557e-07 3.766649e-07
-7.355097e-07 1.493801e-06 7.177252e-07 -1.997095e-06 1.488524e-07 -2.546248e-07
-1.285761e-07 1.208665e-06 9.496403e-07 -2.041854e-06 6.316701e-07 -1.051594e-07
-6.033551e-07 1.343449e-06 5.822773e-07 -1.104566e-06 1.451749e-06 -7.176759e-07
-3.813786e-07 1.017322e-06 4.260641e-08 -6.151214e-07 1.185343e-06 -5.661454e-07
-2.326311e-07 1.851598e-06 -7.721960e-07 -1.134560e-06 -8.642662e-07 5.226742e-07
-3.289739e-07 -1.193514e-07 3.983059e-07 -9.157913e-08 -1.116569e-06 5.032476e-07
-2.789908e-07 1.238080e-06 -5.192736e-07 -8.638292e-07 8.941604e-07 -4.847926e-07
-1.502674e-07 6.612644e-07 -1.917267e-07 -6.796185e-07 -1.146767e-06 7.321688e-07
-3.396782e-07 1.302530e-07 5.682070e-07 -1.115965e-06 -1.091324e-06 1.226325e-06
1.437533e-07 1.891216e-06 -2.827666e-08 -2.106407e-06 1.014800e-06 -4.019245e-07
1.306957e-06 3.363286e-07 1.109281e-06 3.384190e-06 -4.586252e-08 -6.112995e-07
-2.537886e-07 1.891265e-07 -4.409366e-07 -3.139897e-08 -1.435067e-06 3.888555e-07
-8.753390e-07 1.661082e-06 2.820440e-06 2.733031e-06 1.516222e-07 5.556950e-07
-7.928430e-07 5.685577e-08 6.348195e-06 4.211481e-06 5.461067e-07 1.070523e-06
-1.114020e-07 1.131826e-08 -1.999194e-07 -1.311017e-07 -9.254468e-07 8.518208e-07
-8.126639e-07 6.015922e-08 7.507227e-06 4.213531e-06 2.988044e-07 3.120058e-07
1.549154e-06 -1.398231e-07 1.576587e-06 3.672168e-06 8.377609e-07 2.363896e-07
-1.926053e-07 3.059950e-07 2.020949e-06 3.532426e-06 1.995382e-06 2.790318e-07
-1.609052e-07 -3.099909e-07 2.312235e-08 -3.606706e-08 9.343876e-07 -9.374605e-07
2.902156e-07 1.023965e-06 -4.959547e-07 -2.059888e-06 6.328374e-07 -4.278331e-07
6.850260e-07 1.068958e-06 -5.021289e-07 -1.595752e-06 6.552398e-07 -4.726452e-07
1.650971e-07 9.380007e-08 -2.435896e-07 -1.550887e-07 -3.452072e-07 3.927042e-07
-1.572347e-07 1.162486e-06 -6.600967e-07 -1.522327e-06 -6.376281e-07 8.168366e-07
1.224925e-07 -1.301032e-07 -1.898122e-07 -1.425445e-07 -5.643811e-07 9.372285e-07
1.083947e-07 5.260409e-07 -3.882123e-07 -5.183054e-07 -6.663993e-07 4.231967e-07
1.899129e-07 -1.282888e-07 -2.778815e-07 -1.491804e-07 -3.802576e-07 7.896865e-07
1.366490e-07 6.225250e-08 -2.171599e-07 -3.211209e-07 1.093358e-06 -7.680266e-07
5.379246e-07 4.828522e-07 -2.679672e-08 -1.144208e-06 7.837510e-07 -1.018814e-06
5.251061e-07 9.143730e-07 -5.145979e-07 -9.772329e-07 8.979595e-07 -7.673876e-07
3.157243e-07 7.491004e-07 -7.527334e-07 -9.697319e-07 -5.592824e-07 4.275330e-07
4.658612e-07 1.252022e-06 -6.008245e-07 -1.360703e-06 1.066129e-06 -6.743697e-07
1.952418e-07 2.009270e-07 -5.080233e-08 -1.554645e-06 8.972862e-07 -9.279183e-07
-1.422486e-07 -4.464151e-09 -1.152891e-07 -3.428489e-07 9.152983e-07 -7.189140e-07
6.538151e-07 -4.751612e-08 -3.480082e-07 3.156520e-07 1.175974e-07 2.532563e-07
6.996071e-07 -7.119997e-08 -3.308258e-07 2.333707e-07 1.088637e-07 2.945264e-07
-2.457958e-08 -1.791443e-07 -1.163050e-07 -1.493193e-07 -5.441042e-07 1.057838e-06
5.174712e-07 -8.165200e-08 -2.311714e-07 1.887576e-07 1.570529e-07 3.345313e-07
5.980076e-07 -8.029953e-08 -2.575305e-07 1.782010e-07 6.858364e-08 1.775641e-07
4.126937e-10 -2.627468e-07 -6.393185e-07 -2.951305e-09 -1.785795e-06 6.738377e-07
1.645654e-07 4.309417e-07 -5.268685e-07 -4.927455e-07 -5.036762e-07 4.518260e-07
1.151579e-07 5.891372e-07 -2.020254e-07 1.143736e-06 1.322220e-06 9.728391e-07
-3.122663e-07 -7.907683e-08 2.601125e-07 -4.486577e-08 -1.168157e-06 6.895847e-07
6.171618e-07 -6.047804e-08 -2.678950e-07 1.597090e-07 6.235202e-08 2.024479e-07
-5.286719e-07 2.376175e-06 -8.170895e-07 -1.120104e-06 -1.014554e-06 4.256013e-07
-2.107248e-07 6.807276e-08 -2.723785e-07 -3.282232e-08 -8.051646e-07 4.235917e-07
5.771797e-07 -1.118468e-07 -2.199248e-07 1.699287e-07 1.023406e-07 2.395283e-07
-2.602905e-07 2.076078e-06 1.752953e-08 7.985304e-07 -1.047816e-06 -5.679733e-07
3.548167e-07 -1.327339e-07 -2.587000e-07 1.270866e-07 1.869376e-07 4.874306e-07
7.350043e-07 -1.228692e-07 -4.276712e-07 2.621250e-07 8.570291e-08 2.585138e-07
-8.735455e-08 -1.166044e-07 -1.759030e-07 -1.392645e-07 -9.558124e-07 1.065344e-06
8.836394e-07 -1.323395e-07 -4.032803e-07 1.668422e-07 8.386792e-08 2.231178e-07
-1.210380e-07 -3.984998e-07 1.899335e-07 -1.374986e-07 2.577271e-07 -5.186205e-07
7.526551e-07 -1.491230e-07 -4.481729e-07 2.509337e-07 5.775437e-08 2.610022e-07
7.105622e-07 -1.718910e-07 -3.528626e-07 3.273627e-08 1.961444e-08 2.287283e-07
2.251108e-06 -5.407280e-07 -7.311985e-07 -9.313836e-07 -2.253265e-07 6.859758e-07
-2.421825e-07 -2.341968e-07 5.178905e-07 -8.522914e-08 -2.711309e-07 1.072205e-06
7.925985e-07 -2.097347e-07 -3.190624e-07 3.169043e-08 1.907576e-08 1.858353e-07
6.677957e-07 -1.636723e-07 -3.284900e-07 1.471513e-07 6.982469e-08 3.071353e-07
6.634879e-08 1.253531e-06 -7.863276e-07 -1.129174e-06 -6.471182e-07 4.479790e-07
6.770483e-07 -1.722647e-07 -2.137691e-07 1.090536e-07 3.906476e-08 2.606418e-07
4.911634e-07 5.068160e-08 -3.231279e-07 -2.001727e-07 -7.305057e-08 1.540289e-07
5.117220e-07 3.199660e-08 -2.762462e-07 -2.170058e-07 -1.091012e-07 1.263528e-07
1.837510e-06 -4.409394e-07 -6.994351e-07 -7.685886e-07 -4.058943e-07 1.035006e-06
3.749765e-07 3.568070e-07 -6.592731e-07 -6.483124e-07 -4.392858e-07 4.349877e-07
5.617092e-07 9.640860e-08 -3.617736e-07 -3.364729e-07 -1.130218e-07 1.581195e-07
4.654460e-07 2.030756e-08 -2.363159e-07 -1.384419e-07 -7.094360e-08 1.077120e-07
4.450290e-07 4.423542e-08 -1.924935e-07 -1.683892e-07 -8.697138e-08 1.507658e-07
1.776821e-06 -5.282382e-07 -7.008289e-07 -7.073843e-07 -1.977780e-07 8.105657e-07
3.982882e-07 8.926779e-09 -1.982512e-07 -9.382705e-08 -7.286135e-08 1.014460e-07
-2.937662e-07 1.384355e-06 -1.880758e-07 -6.161138e-07 -1.400306e-06 7.591618e-07
4.111315e-07 6.246682e-08 -1.651850e-07 -1.125700e-07 -5.752069e-08 8.098535e-08
3.133159e-07 -2.199131e-07 -2.774236e-07 -9.117045e-08 -2.731059e-07 8.318805e-07
7.287956e-08 -2.429251e-07 1.488594e-07 -1.439980e-07 -7.242947e-07 7.975540e-07
9.193416e-07 -3.786186e-07 -4.279188e-07 2.355339e-07 1.666970e-07 1.021620e-06
1.417003e-06 -3.832305e-07 -6.622781e-07 2.885268e-07 1.399044e-07 5.777001e-07
1.929693e-06 -2.866519e-06 3.018650e-06 -2.226267e-06 1.806416e-07 3.798345e-07
3.124989e-06 -2.756508e-06 3.883852e-06 -1.353972e-08 -1.083397e-06 3.995641e-06
-4.155024e-07 -6.559730e-07 1.343566e-05 -2.272290e-07 -2.649898e-07 8.936878e-06
3.908160e-07 -4.619916e-07 1.055036e-06 3.214226e-07 -1.537584e-07 -6.449221e-07
7.633339e-07 -3.003759e-07 -4.984819e-07 2.852449e-07 2.351195e-07 8.299553e-07
1.411206e-06 -3.837076e-07 -5.361148e-07 2.447419e-07 1.223280e-07 7.265826e-07
2.079508e-06 -8.334423e-07 -7.803507e-08 -1.725971e-06 1.492918e-06 -9.228559e-07
1.033316e-06 -3.515825e-07 -5.876224e-07 3.103048e-07 8.918144e-08 4.942612e-07
9.963115e-07 -2.845029e-07 -4.815572e-07 2.431178e-07 1.703270e-07 4.648708e-07
1.653616e-06 -4.556461e-07 -5.994687e-07 5.027612e-07 2.943677e-07 7.138830e-07
6.862018e-07 -1.689904e-07 -3.014322e-07 2.214992e-07 1.290183e-07 4.808020e-07
1.558199e-06 -4.733268e-07 -7.060621e-07 7.420469e-07 2.356844e-07 7.312210e-07
-3.280257e-07 2.102831e-06 1.716618e-06 2.625710e-06 -1.702743e-06 -2.997232e-07
1.488184e-06 -4.815614e-07 -6.190425e-07 6.535337e-07 1.895787e-07 7.872067e-07
1.065485e-06 -4.193522e-07 3.510397e-06 -3.102768e-06 9.350207e-08 2.306192e-07
5.865168e-07 -4.797079e-07 2.483377e-07 -1.336390e-07 -6.144321e-07 -1.296253e-06
7.731437e-07 1.641381e-07 1.955391e-06 -3.768759e-06 -3.833413e-07 -6.557753e-07
7.294599e-07 -7.450872e-07 7.692533e-06 -4.321419e-06 2.124195e-06 -6.274738e-07
-1.178498e-06 4.082244e-07 3.205433e-06 -2.459913e-06 1.997237e-07 6.903388e-08
-3.554824e-06 4.100490e-06 4.962065e-06 -1.112932e-06 2.455616e-06 -1.023385e-06
5.974816e-07 -2.852056e-08 -2.953666e-07 1.722940e-07 3.369534e-08 1.177374e-07
-7.295539e-07 1.085333e-06 4.102074e-06 -3.040180e-06 6.701280e-07 -8.429041e-08
-5.145868e-06 -4.617821e-06 2.940029e-05 -8.282868e-06 1.588116e-05 -7.247726e-06
-3.673419e-06 2.967840e-06 4.654616e-06 -1.905248e-06 1.224300e-06 -2.148504e-07
-1.896981e-06 3.801223e-06 1.691314e-06 -1.000226e-06 1.573474e-06 4.957274e-07
-5.231908e-07 1.044728e-06 3.814459e-09 -1.163517e-06 -1.128419e-06 4.512545e-08
3.488109e-07 1.449796e-07 -1.849523e-07 1.051585e-07 2.553282e-08 2.306761e-08
4.732610e-07 -7.309381e-09 -2.073628e-07 2.068126e-07 9.906625e-08 1.640538e-07
-1.592817e-06 4.167066e-06 6.167724e-07 -1.896327e-06 -8.400457e-07 3.461791e-07
-1.865310e-06 2.192736e-06 2.876161e-06 -2.766827e-06 2.035526e-07 1.906055e-07
-1.777578e-06 2.150510e-06 3.574498e-07 -1.969652e-07 -1.491488e-06 4.036985e-07
-1.355343e-06 2.930564e-06 9.855014e-07 -8.487048e-07 -1.620086e-06 7.380707e-07
2.233549e-07 4.511339e-07 -3.406989e-07 -4.221037e-07 -4.750647e-07 3.245936e-07
3.991179e-07 3.459469e-07 -5.277212e-07 -5.114795e-07 -5.010910e-07 4.386520e-07
4.609985e-07 5.090500e-07 -5.233930e-07 -7.892681e-07 -4.723326e-07 4.278607e-07
3.515726e-07 1.222344e-07 -1.669868e-07 7.900226e-08 2.974814e-08 2.869257e-08
5.258256e-07 4.161863e-07 -7.244626e-07 -8.833146e-07 -5.576247e-07 4.183319e-07
4.318188e-07 7.867955e-08 -2.161633e-07 1.252649e-07 4.489418e-08 4.151354e-08
2.750325e-07 5.777770e-07 -5.667789e-07 -8.341100e-07 -6.773613e-07 5.278486e-07
2.748575e-07 5.648194e-07 -7.461647e-07 -8.312603e-07 -6.134872e-07 5.059784e-07
3.952645e-07 5.817337e-07 -1.461468e-07 1.591927e-06 9.169031e-07 9.778009e-07
1.284487e-06 -4.627904e-07 2.563905e-06 3.099194e-06 1.469385e-07 7.659297e-08
4.598920e-07 -7.477478e-08 -2.242098e-07 1.029734e-07 5.949155e-08 2.108414e-07
1.647864e-06 6.737313e-07 -3.667762e-07 2.311027e-06 6.592380e-07 9.545801e-07
2.955959e-06 -1.259528e-06 9.749376e-07 2.023015e-06 4.800355e-07 8.183359e-07
3.746848e-07 5.286924e-09 -2.267718e-07 1.501595e-07 1.401412e-07 2.212562e-07
1.812684e-06 -7.583234e-07 7.114750e-08 1.574159e-06 4.842304e-07 2.818576e-07
4.083015e-07 7.644498e-08 -1.831814e-07 1.111114e-07 3.293953e-08 4.943945e-08
-1.546594e-07 -3.890831e-07 9.493417e-07 -9.787833e-08 -1.092914e-07 1.453114e-06
2.577255e-06 -8.176392e-07 2.255058e-06 3.050378e-06 -3.364316e-07 6.841065e-07
2.318530e-06 -3.360954e-08 3.783038e-07 2.459443e-06 2.863358e-07 4.583874e-07
4.023530e-07 4.814121e-09 -1.995778e-07 1.189879e-07 6.370128e-08 1.612490e-07
1.176588e-06 8.557364e-07 3.955553e-07 3.324152e-06 6.003943e-07 4.131553e-07
1.186087e-06 -2.635171e-07 2.654465e-06 3.515145e-06 1.164037e-08 -2.412899e-07
-2.898029e-06 3.194482e-06 1.671495e-06 -1.780131e-06 1.400932e-06 2.674452e-07
8.358351e-08 -3.175041e-07 2.158282e-07 -7.806586e-08 -2.221576e-07 1.443367e-06
4.860322e-06 -2.986621e-06 3.254777e-06 -9.055835e-08 -4.229274e-08 -1.313286e-08
-1.797752e-06 3.059683e-06 4.057392e-06 -2.107494e-06 1.758484e-06 -1.605187e-06
-1.767708e-05 -1.983501e-05 1.135441e-04 1.803695e-06 -1.603802e-05 4.181379e-05
2.530357e-06 -8.883314e-07 -5.785175e-07 -4.371710e-07 -1.900759e-07 1.052086e-06
-1.489142e-07 -2.609219e-07 2.901440e-07 8.539693e-08 9.128727e-07 1.101930e-06
1.857473e-06 -6.125199e-07 -5.306191e-07 -3.212658e-07 -1.070020e-07 7.658885e-07
3.926992e-06 -1.501889e-06 -3.274894e-07 -1.070866e-08 8.220065e-08 1.184936e-06
-4.295801e-07 1.106420e-06 -5.383293e-07 6.832944e-08 9.397352e-07 5.961158e-08
-3.756737e-08 1.670358e-07 3.107650e-08 4.115728e-08 -1.431650e-06 -2.292197e-07
9.293168e-07 -7.271323e-08 -5.461545e-07 8.019145e-07 3.990724e-07 8.623882e-07
1.662258e-07 -2.432207e-07 2.881175e-07 -2.498525e-08 3.015817e-08 1.770361e-06
2.806152e-06 -1.938591e-06 8.272758e-07 -1.145629e-06 -4.680175e-07 7.472174e-07
2.570746e-06 -2.289828e-06 3.517330e-06 7.191864e-07 -1.080304e-07 2.013525e-07
-1.996059e-07 1.179613e-06 -6.728102e-07 -6.687319e-07 7.366272e-07 -2.948045e-07
-3.748634e-07 8.097225e-07 -5.095978e-07 -3.693791e-07 8.868848e-07 -4.821370e-07
-2.829186e-07 1.509663e-06 -3.886514e-07 -8.213729e-07 1.271099e-06 -8.101548e-07
-4.487538e-06 -3.490793e-06 4.829095e-05 -1.198676e-06 -2.512522e-05 -1.615476e-05
-3.233329e-07 1.202231e-06 -5.487394e-07 -8.235626e-07 8.142304e-07 -3.835259e-07
-2.436709e-07 2.141240e-06 1.034003e-07 -1.959319e-06 9.528096e-07 -6.803832e-07
-9.663353e-09 6.598994e-07 -8.430640e-07 -6.588927e-07 9.436637e-07 -6.708755e-07
4.728178e-08 1.199895e-06 -6.697724e-07 -7.691480e-07 8.435033e-07 -4.308786e-07
-4.834094e-07 8.653101e-07 -4.034819e-07 -5.851279e-07 1.219554e-06 -7.444012e-07
-3.126154e-06 -2.153679e-06 1.280793e-05 6.195994e-06 -3.041308e-06 -4.309848e-06
2.885631e-06 -2.044108e-06 2.850843e-06 -3.488954e-07 -6.674495e-07 4.343841e-09
-1.132612e-05 -5.837171e-06 3.210486e-05 -8.955226e-06 1.102540e-05 -7.244317e-06
3.363565e-06 -1.449304e-06 2.956112e-06 -2.909556e-06 -4.763984e-07 4.770615e-07
-6.582010e-07 -9.637324e-07 1.798106e-06 -4.909320e-07 1.610510e-07 -4.117390e-07
-5.423380e-07 8.939706e-08 1.778246e-06 2.394089e-07 -1.943917e-06 -2.334191e-06
-1.319305e-06 2.135126e-06 2.534568e-06 2.241393e-06 5.245442e-07 7.428495e-07
-3.225619e-06 2.087704e-06 5.607002e-06 1.505080e-06 -1.953694e-06 -1.005386e-06
-1.206784e-06 2.583038e-06 -3.129171e-07 8.802824e-07 1.319629e-06 1.872969e-07
-8.507754e-08 -6.708373e-07 5.664491e-06 -2.115972e-08 -1.041499e-06 1.760155e-06
-2.021875e-06 3.178699e-06 1.008302e-06 1.017228e-06 1.460714e-07 -7.111135e-08
5.652645e-07 2.102931e-06 3.167626e-06 2.246807e-06 -2.999670e-06 -6.847451e-07
-1.578920e-06 1.340494e-06 2.093934e-06 1.023765e-06 8.001129e-07 6.907598e-07
-2.041008e-07 -8.955390e-09 -3.280123e-07 8.142597e-08 1.244275e-06 8.713010e-07
7.109662e-07 -1.228405e-07 -3.059873e-07 1.496246e-07 4.134295e-08 2.624891e-07
-1.441866e-07 3.369447e-07 -2.519022e-07 1.159681e-07 5.753777e-07 2.220038e-07
6.111817e-07 -1.234605e-07 -2.164307e-07 1.363694e-07 7.630577e-08 2.849018e-07
4.703724e-07 -1.044355e-07 -2.378475e-07 1.209648e-07 6.080433e-08 2.252118e-07
-2.277398e-07 2.625153e-07 -2.496811e-07 5.035428e-08 1.102153e-06 3.128634e-07
-4.065203e-07 1.733643e-06 -7.283825e-07 6.147970e-07 6.016746e-07 2.115787e-07
1.405822e-06 -2.137910e-07 -7.452591e-07 8.442645e-07 3.007089e-07 6.842859e-07
2.609246e-07 1.878373e-07 -2.349538e-07 1.404471e-07 6.720270e-08 6.744682e-08
6.982710e-07 -1.980264e-07 -3.366482e-07 9.111111e-08 3.945896e-08 2.407545e-07
5.593224e-07 -1.478761e-07 -2.214495e-07 1.808504e-08 4.283083e-08 1.766188e-07
-2.779764e-07 3.587313e-07 -3.095779e-07 2.366519e-08 5.955715e-07 -1.367292e-07
-3.059444e-07 1.675410e-06 6.699999e-07 -2.259531e-06 -2.475034e-07 -8.028066e-09
1.083547e-06 -2.609498e-07 -5.223117e-07 4.722166e-07 2.306534e-07 7.338980e-07
-7.748541e-07 1.011959e-06 4.949105e-06 1.313185e-07 1.251646e-06 -1.923405e-06
8.230261e-07 -1.491230e-07 -3.655001e-07 2.298102e-07 7.232732e-08 1.768109e-07
-9.986128e-07 -1.081897e-06 4.716763e-06 -1.052606e-06 1.992694e-06 -1.619882e-06
-8.777030e-07 5.045849e-07 4.285581e-06 -2.239397e-06 7.298232e-07 6.703663e-07
-2.708276e-06 1.679363e-06 1.381193e-05 -3.918658e-06 4.784054e-06 -4.659868e-06
-1.624705e-06 1.394922e-06 2.900859e-06 -3.128055e-06 -2.496080e-08 -3.442237e-07
-1.596108e-06 2.575267e-06 2.440801e-06 -1.978514e-06 -3.834900e-07 3.266004e-07
3.605186e-06 -1.121079e-05 2.555091e-05 -3.284353e-06 -2.894722e-06 1.290065e-05
-2.943352e-07 2.615319e-07 1.572832e-05 -5.758383e-07 2.894465e-06 8.047771e-06
3.342453e-06 -1.140065e-05 1.829459e-05 1.587251e-06 1.346199e-06 5.668096e-06
-2.784611e-07 1.344427e-06 9.686678e-07 -2.014906e-06 -5.983424e-07 -1.224450e-07
-8.451837e-07 1.299019e-06 1.699488e-06 -6.853640e-08 1.291888e-07 5.046890e-07
-8.335092e-07 6.620831e-07 3.165594e-08 -2.325005e-06 3.706527e-07 7.566701e-07
-3.517331e-06 2.033623e-06 7.435085e-06 4.577596e-06 -3.982029e-06 -2.620195e-06
1.711131e-06 -8.585402e-06 7.147484e-06 -3.879085e-06 -2.471787e-06 1.403057e-05
5.666826e-07 1.405981e-06 8.392854e-07 -2.751525e-06 5.928906e-07 -4.337664e-07
-4.594772e-07 -4.133035e-07 2.276967e-06 -1.052802e-08 6.254470e-07 1.417079e-06
1.304392e-08 2.212558e-06 3.672106e-07 -1.289462e-06 8.697060e-08 3.367906e-08
-1.526450e-06 3.898113e-06 1.039126e-06 -2.175689e-06 1.013246e-06 -1.297603e-07
-2.777155e-07 1.096827e-06 -3.306844e-07 -5.114818e-07 1.201207e-06 -5.167323e-07
6.431659e-07 8.126790e-08 -3.751533e-07 3.588090e-07 1.028725e-07 1.610907e-07
-4.362943e-07 8.285521e-07 -1.115059e-08 -3.237292e-07 1.340370e-06 -5.764443e-07
-1.205261e-06 -2.739096e-07 6.101281e-07 -3.162449e-08 9.117294e-07 -5.106639e-07
2.613079e-07 1.185257e-06 -4.833486e-07 -1.481260e-06 1.013347e-06 -8.154139e-07
4.896036e-07 5.863859e-08 -2.880894e-07 1.873299e-07 4.490571e-08 7.839784e-08
1.592297e-07 9.116371e-07 -2.854515e-07 -7.043172e-07 1.273797e-06 -8.068343e-07
1.344491e-06 -2.984157e-07 -6.587131e-07 5.950362e-07 3.267038e-07 6.569845e-07
5.641197e-07 2.933004e-07 -5.994692e-07 7.083987e-07 2.951298e-07 3.619025e-07
-1.373309e-07 1.170393e-06 -6.814233e-07 5.948385e-07 5.126898e-07 2.132253e-07
-2.330221e-07 1.125736e-06 -5.701977e-07 2.921995e-07 4.809980e-07 1.597270e-07
7.888536e-07 -1.720151e-07 -3.608083e-07 6.539283e-07 4.759357e-07 1.116956e-06
1.735141e-06 -3.098262e-07 -6.538641e-07 1.166060e-06 4.078111e-07 8.549207e-07
1.494092e-06 -3.738246e-07 -5.166214e-07 8.484785e-07 3.258423e-07 1.016802e-06
1.256756e-06 -4.650419e-07 -4.669711e-07 5.567538e-07 2.863700e-07 9.853702e-07
9.081971e-07 -2.265162e-07 -3.126992e-07 5.344938e-07 5.600273e-07 1.040896e-06
4.324746e-07 4.814121e-09 -1.913345e-07 1.076676e-07 5.303599e-08 9.700309e-08
-3.234106e-07 2.154455e-08 -2.669875e-07 1.007957e-07 9.224270e-07 -5.486310e-09
3.980516e-07 7.532841e-08 -2.346425e-07 1.364147e-07 3.619357e-08 7.416187e-08
-3.620480e-08 -2.257533e-07 1.009387e-06 1.234555e-07 -8.309897e-07 -2.624015e-07
4.356329e-06 -4.387418e-06 4.914327e-06 -2.214124e-06 -8.759151e-07 4.046513e-06
5.461483e-06 -4.905162e-06 4.445847e-06 -6.136879e-07 -9.839116e-08 1.865279e-06
-2.676913e-07 4.479419e-07 -3.258224e-07 -1.018110e-08 6.142094e-07 -6.398894e-08
4.167876e-06 -7.830859e-06 1.282045e-05 -1.333296e-07 -3.092993e-07 6.621402e-06
1.391562e-06 -7.955444e-07 2.827566e-07 1.691379e-06 -1.151361e-07 -3.390570e-07
2.769168e-07 5.527952e-08 -2.110428e-07 1.590519e-07 1.221840e-07 1.831848e-07
-1.982114e-07 6.977777e-08 -2.563121e-07 1.395098e-07 9.181168e-07 7.112265e-07
-2.441659e-07 7.854614e-07 -4.806479e-07 3.807837e-07 7.422347e-07 2.369178e-07
-2.481453e-07 1.044974e-06 -5.551881e-07 4.096623e-07 4.349044e-07 1.465562e-07
-1.109877e-06 -1.166988e-05 2.617208e-05 -5.649114e-06 -7.282528e-06 9.277014e-06
2.645037e-06 -1.517739e-07 1.138428e-06 3.199844e-06 8.928001e-08 9.497362e-07
-4.226464e-07 1.169273e-06 -3.836397e-07 9.195504e-07 1.010362e-06 4.338280e-07
1.589297e-06 -2.448032e-06 6.622522e-06 3.004772e-06 2.556216e-06 3.756142e-06
1.190451e-06 -7.381228e-07 5.705735e-06 3.875379e-06 4.181510e-07 1.640266e-06
-6.484509e-07 -1.006525e-07 2.180103e-06 6.018833e-08 -2.401773e-07 2.654046e-07
3.382283e-07 1.159997e-07 -1.584646e-07 7.485125e-08 6.387892e-09 1.073618e-08
2.542293e-06 -1.756604e-06 4.375175e-06 1.513747e-06 9.155173e-07 -6.649295e-07
3.238105e-06 -1.473181e-06 1.605914e-06 3.335536e-06 -2.703785e-07 -2.557202e-07
-4.591700e-07 1.243890e-06 3.176545e-06 3.150511e-06 3.579818e-07 -1.006171e-07
1.962353e-06 -2.811657e-07 1.021661e-06 3.383173e-06 -3.332761e-07 6.101428e-07
-4.492264e-07 -2.065133e-07 1.111374e-06 7.863700e-08 1.259928e-06 1.550026e-07
4.916625e-07 3.087274e-08 -2.130785e-07 1.328823e-07 1.942444e-08 5.655278e-08
-2.277398e-07 1.612968e-08 -1.942810e-07 6.564444e-08 8.431676e-07 3.113037e-07
4.813635e-07 4.814121e-09 -1.858774e-07 1.283336e-07 5.590153e-08 1.200708e-07
-7.710426e-07 1.038688e-07 2.395685e-05 -5.346754e-08 -5.602311e-05 -1.656128e-06
2.239553e-06 -9.375581e-07 1.316487e-06 2.909983e-06 -1.176829e-07 2.900830e-07
1.404296e-06 -3.352083e-07 -2.246829e-07 1.537741e-06 -5.724674e-07 6.116726e-09
1.687382e-06 -6.114997e-07 8.178350e-07 2.160777e-06 -6.985034e-07 -1.038325e-06
1.705044e-06 1.206277e-07 -4.600910e-07 2.231163e-06 -7.298777e-07 -6.287856e-07
-4.532818e-07 9.267213e-07 -2.783156e-07 1.262262e-07 7.088279e-07 1.367520e-07
2.038316e-07 3.401274e-07 -3.380866e-07 3.358548e-07 2.865196e-07 1.989737e-07
1.986001e-07 4.056947e-07 -4.712759e-07 4.663683e-07 4.675177e-07 4.492641e-07
4.894042e-07 -7.543660e-08 -1.768575e-07 9.203010e-08 3.659995e-08 1.281748e-07
3.730822e-07 3.113605e-07 -5.866791e-07 5.898319e-07 3.392470e-07 3.723938e-07
6.091891e-07 -1.256247e-07 -2.043729e-07 5.828774e-08 2.123052e-08 1.470058e-07
3.617033e-07 3.374054e-07 -4.955874e-07 5.808227e-07 4.813288e-07 4.228194e-07
6.911687e-07 -1.907611e-07 -2.104349e-07 -1.180128e-08 6.121921e-09 2.337468e-07
9.394438e-07 -1.867635e-07 -3.943310e-07 1.220333e-07 4.107758e-08 2.546884e-07
3.797485e-07 2.358036e-07 -4.407140e-07 4.581180e-07 2.550260e-07 2.997583e-07
3.816696e-06 -8.505437e-06 2.140554e-05 3.056009e-06 1.332136e-06 -1.007195e-05
1.413436e-08 6.319202e-07 -4.538046e-07 3.601988e-07 3.172091e-07 1.424834e-07
2.482335e-07 -4.886246e-07 1.014795e-07 -1.019723e-07 -5.184935e-07 1.123197e-06
1.151368e-08 1.011701e-07 -2.694912e-07 2.109084e-07 4.315290e-07 3.444601e-07
5.776005e-07 -1.249194e-07 -3.051659e-07 1.719047e-07 6.011971e-08 2.741570e-07
2.419282e-07 3.956685e-07 -4.201850e-07 4.710029e-07 3.162469e-07 2.175526e-07
4.332098e-07 3.110280e-07 -4.584642e-07 4.889504e-07 2.771910e-07 2.966818e-07
5.001931e-07 -2.323353e-08 -2.887222e-07 1.396141e-07 5.062020e-08 1.301453e-07
3.842437e-07 2.477360e-07 -4.478743e-07 3.959721e-07 2.317449e-07 2.914602e-07
3.422238e-07 9.977248e-07 -7.807509e-07 1.273219e-06 -6.158069e-07 -5.215309e-07
-1.472564e-07 1.521728e-06 -8.769899e-08 1.266693e-06 -7.453517e-07 -7.492994e-07
-2.034701e-08 1.199124e-06 -6.684651e-07 7.555468e-07 -9.819397e-07 -5.474796e-07
-5.876341e-07 -6.310567e-08 1.446184e-07 2.012318e-07 -1.258421e-06 -6.803542e-07
4.414314e-08 1.228769e-06 1.529461e-08 1.189305e-06 -1.187237e-06 -7.544178e-07
3.865876e-07 5.484240e-08 -1.575573e-07 -6.454185e-08 -3.010778e-08 4.780832e-08
4.085363e-07 7.466372e-08 -1.836705e-07 1.085058e-07 3.489509e-08 5.489008e-08
3.529358e-07 1.120755e-07 -1.757051e-07 7.909201e-08 1.741538e-08 2.973272e-08
3.431810e-07 1.480000e-07 -1.868434e-07 1.071059e-07 4.241377e-08 5.710511e-08
3.672268e-07 9.508211e-08 -1.658391e-07 9.314674e-08 2.567990e-08 3.017906e-08
4.254834e-07 3.596757e-07 -5.732748e-07 -5.672196e-07 -2.665107e-07 2.867681e-07
5.048031e-07 1.005246e-07 -3.443434e-07 -3.936796e-07 -2.007587e-07 3.230277e-07
1.364775e-08 -2.592808e-09 -2.410205e-07 -1.659541e-07 -7.249898e-07 7.492208e-07
3.319135e-07 1.228447e-07 -1.657052e-07 1.137226e-07 4.123615e-08 4.068274e-08
3.304663e-07 1.382442e-07 -1.900687e-07 1.317589e-07 3.829631e-08 6.095870e-08
3.823381e-07 7.924589e-08 -2.107166e-07 1.314559e-07 6.807207e-08 7.438394e-08
2.529033e-07 8.387440e-07 -6.070358e-07 -6.594394e-07 -4.381096e-07 2.741190e-07
3.393072e-07 1.167094e-06 -7.949958e-07 -1.336860e-06 -5.979489e-07 5.785411e-07
3.783857e-07 1.119476e-07 -1.912342e-07 1.246763e-07 4.027157e-08 7.543115e-08
3.874351e-07 1.459994e-07 -2.745820e-07 1.697107e-07 7.003496e-08 9.379663e-08
3.428294e-07 1.200054e-07 -2.082025e-07 1.331064e-07 3.944868e-08 5.255754e-08
4.130612e-07 5.125655e-08 -1.896201e-07 -8.332737e-08 -2.863111e-08 4.600899e-08
2.675252e-06 -2.159620e-06 2.544028e-06 4.846422e-07 -5.875400e-07 6.113717e-07
9.273345e-08 9.355214e-08 -2.424907e-07 -1.361546e-07 -3.426574e-07 3.917053e-07
-4.369972e-07 -1.908255e-08 -1.425245e-07 -8.826726e-08 1.114816e-06 -4.685208e-07
1.650971e-07 1.690559e-07 -2.063577e-07 -1.432727e-07 -2.184865e-07 2.108433e-07
-2.056196e-07 1.129358e-06 -7.060264e-07 -7.741963e-07 6.326278e-07 -3.150975e-07
-9.600507e-08 1.120862e-06 -5.673377e-07 -4.773901e-07 7.291553e-07 -2.739418e-07
-5.630430e-07 1.860772e-06 -6.611910e-07 -7.223090e-07 -9.983645e-07 2.483818e-07
-4.041687e-07 9.747161e-07 -4.738268e-07 -6.497751e-07 -1.328217e-06 3.997763e-07
-2.537886e-07 6.992178e-08 -9.031201e-08 3.947464e-08 -1.108989e-06 4.238089e-07
-3.242400e-07 1.757842e-07 -3.047485e-07 -4.880622e-08 7.124633e-07 -3.893793e-07
-1.494002e-07 4.178991e-07 -2.262399e-07 -8.524000e-07 1.011650e-06 -6.499892e-07
7.321137e-08 7.371404e-07 -4.740628e-07 -4.347519e-07 1.022696e-06 -6.042944e-07
5.086592e-07 -2.133031e-08 -2.270735e-07 -1.025727e-07 -3.826715e-08 8.818131e-08
6.024074e-07 -5.206620e-08 -3.037027e-07 -1.965842e-07 -7.042374e-08 2.291692e-07
5.275747e-07 1.498564e-08 -2.637277e-07 -1.674993e-07 -5.349401e-08 1.429027e-07
5.357993e-07 -3.541354e-08 -2.135732e-07 -1.166560e-07 -4.536368e-08 1.143137e-07
5.287760e-07 -5.514573e-08 -2.071256e-07 -1.363316e-07 -6.268820e-08 1.595073e-07
-2.382491e-07 2.231831e-07 -3.681789e-07 -1.115596e-07 -8.831925e-07 4.009669e-07
6.133709e-07 -7.021461e-09 -3.014312e-07 -1.964795e-07 -8.209696e-08 1.090452e-07
5.773739e-07 -2.487581e-08 -2.743438e-07 -1.908827e-07 -1.079727e-07 1.890694e-07
6.350538e-07 -9.722952e-08 -3.110848e-07 -1.452459e-07 -6.055435e-08 1.790221e-07
-5.864383e-08 6.657683e-07 -3.931973e-07 -5.336592e-07 -8.418023e-07 2.440838e-07
-3.147747e-07 -1.773058e-07 1.497663e-07 7.012059e-09 -1.438469e-06 1.368125e-07
4.825932e-07 -4.861420e-08 -1.938416e-07 -7.498814e-08 -5.494263e-08 9.883606e-08
-1.010989e-06 2.449376e-06 -9.554948e-08 -3.619549e-07 -8.840393e-07 2.223343e-08
6.573032e-07 -1.305884e-07 -2.255226e-07 -1.496443e-07 -8.761502e-08 2.817621e-07
5.356825e-07 -3.325460e-08 -2.805379e-07 -1.174385e-07 -5.824134e-08 1.265685e-07
8.247593e-07 -2.065838e-07 -4.363966e-07 2.080368e-07 8.032999e-08 4.016312e-07
3.494740e-07 1.290328e-09 -2.246484e-07 -1.222587e-07 -1.376892e-07 2.130451e-07
5.240223e-07 -1.229853e-07 -2.102940e-07 -1.168884e-07 -5.339000e-08 2.340291e-07
4.455897e-07 6.117769e-08 -1.986705e-07 -1.119491e-07 -1.977422e-08 4.958810e-08
4.384874e-07 3.008761e-08 -2.275818e-07 -1.430687e-07 -8.339552e-08 1.280084e-07
8.481140e-07 -2.793371e-06 2.794161e-05 -3.802626e-06 -9.179794e-06 1.872191e-05
1.130017e-06 -7.236366e-06 1.429278e-05 -6.808755e-06 -6.993094e-06 6.362389e-06
1.798071e-06 2.949870e-06 1.060484e-06 -1.195995e-06 -1.223410e-05 1.267459e-05
-1.458956e-06 -1.603038e-05 5.019329e-05 -7.296514e-06 -1.534121e-05 2.209434e-05
-1.389444e-05 -4.862796e-06 6.911436e-05 -8.377420e-06 -3.425380e-05 1.381449e-05
-3.309112e-06 -1.399696e-06 -1.341481e-05 -2.836125e-06 -2.273257e-05 3.655741e-05
5.547811e-07 -1.708658e-07 -1.898502e-07 -6.433312e-09 -1.061456e-08 2.494042e-07
-4.007468e-06 -1.563886e-05 6.790120e-05 -5.995538e-06 -1.926601e-05 3.735439e-05
7.720689e-07 -1.386676e-07 -2.824511e-07 -7.203647e-08 -1.636634e-08 1.270427e-07
-6.181008e-07 2.905150e-06 1.601433e-05 1.986848e-06 -3.751710e-05 2.760277e-05
6.666728e-07 -1.771663e-07 -2.010233e-07 -2.129240e-08 -2.902947e-08 2.139769e-07
7.210624e-07 -1.115803e-07 -2.740813e-07 -1.036004e-07 -2.109000e-08 1.170405e-07
9.652261e-07 -2.313971e-07 -4.955051e-07 -1.718667e-07 -4.017405e-08 3.198133e-07
4.058723e-06 -2.066236e-06 5.310904e-07 -9.521433e-07 6.869073e-08 1.033510e-06
3.204160e-06 -1.473181e-06 1.563821e-06 2.699384e-06 -2.925368e-07 -8.605470e-07
7.308362e-07 -1.543790e-07 -3.152987e-07 -7.770743e-08 -4.920743e-08 3.102750e-07
4.439049e-07 -1.441853e-07 -3.099668e-07 -1.140696e-07 -1.593788e-07 3.785817e-07
6.946990e-07 -2.379954e-07 -2.332311e-07 -8.470227e-08 -4.123083e-08 3.855139e-07
9.245512e-07 -2.433403e-07 -3.906307e-07 -1.157682e-07 -9.766490e-08 4.406629e-07
2.018988e-07 4.207277e-07 -4.826880e-07 -8.203286e-07 -5.722159e-07 6.003007e-07
3.164500e-07 6.795367e-07 -5.758695e-07 -1.136971e-06 -7.305163e-07 7.556880e-07
8.119846e-07 6.499305e-07 -7.351671e-07 -1.347296e-06 -5.680092e-07 5.625670e-07
4.342851e-07 4.432607e-07 -6.936262e-07 -8.970591e-07 -5.246995e-07 6.429434e-07
4.699135e-07 7.111676e-07 -7.258959e-07 -1.045296e-06 -4.256961e-07 5.316439e-07
2.651834e-07 4.714786e-07 -5.644699e-07 -6.541139e-07 -6.714628e-07 4.899762e-07
-2.379890e-08 2.411060e-07 -3.576884e-07 -1.581732e-07 -5.459834e-07 3.894651e-07
-8.528570e-07 5.767057e-07 1.004271e-05 -1.068302e-07 -4.315732e-06 6.885916e-06
5.386447e-09 5.070313e-07 -3.655407e-07 -4.696052e-07 -6.295148e-07 3.739827e-07
-1.267293e-07 2.133109e-07 -3.739607e-07 -1.421272e-07 -7.055542e-07 4.086714e-07
8.160985e-08 9.159054e-07 -5.641261e-07 -9.640146e-07 -8.257219e-07 5.485568e-07
8.063789e-08 9.058591e-07 -7.492018e-07 -9.608762e-07 -7.555250e-07 5.282355e-07
-2.528226e-06 5.135653e-06 1.458561e-06 4.528056e-07 -7.043119e-07 -1.055376e-07
1.920889e-07 1.285378e-08 -2.370799e-07 -1.693977e-07 -3.096991e-07 3.944501e-07
4.791974e-08 5.504433e-07 -5.540238e-07 -3.825726e-07 -3.861914e-07 2.858878e-07
7.380767e-07 -1.544244e-07 -3.233871e-07 -1.088874e-07 -2.874390e-08 1.614181e-07
3.004566e-07 5.203466e-08 -2.215968e-07 -1.287787e-07 -1.284780e-07 1.771884e-07
2.813888e-07 7.634364e-07 2.623258e-08 1.639774e-06 8.202757e-07 6.171989e-07
4.302082e-07 1.403869e-06 -7.574523e-08 2.274998e-06 5.925819e-07 9.465322e-08
4.455324e-07 -3.694510e-08 2.835662e-07 1.553869e-06 1.510690e-07 6.614695e-07
3.741811e-07 1.941240e-06 -1.916732e-07 2.533708e-06 8.412596e-07 6.188239e-07
-2.491084e-07 9.027755e-07 -4.892349e-07 2.321231e-07 7.896796e-07 2.500732e-07
8.457868e-07 1.314075e-06 -5.557363e-07 2.206715e-06 8.750464e-07 8.155059e-07
1.731227e-07 5.423593e-07 -8.575502e-08 1.137013e-06 9.176273e-07 4.530860e-07
-2.396140e-07 2.502225e-07 -2.517583e-07 3.608570e-08 7.070349e-07 2.573682e-07
3.760788e-06 -2.247834e-06 9.007108e-06 3.477535e-06 2.671853e-06 3.048239e-06
2.584202e-06 -3.500438e-06 4.404191e-06 9.635311e-07 2.303875e-07 -1.151666e-07
3.268917e-06 -2.370419e-06 4.426858e-07 6.104755e-07 5.978057e-07 -4.667311e-07
-7.423695e-07 1.277771e-06 -7.198275e-08 -3.400681e-07 -1.420933e-06 4.345457e-07
-5.351813e-07 -3.571249e-07 5.356595e-07 -3.846076e-07 -9.350439e-07 5.202027e-07
2.627878e-06 -5.509549e-06 1.152886e-05 -3.858415e-06 -1.057258e-06 4.345879e-06
3.128764e-07 6.416419e-08 -2.560585e-07 1.832331e-07 1.831576e-07 2.549762e-07
-7.963680e-08 1.626638e-06 -6.799925e-07 -1.349840e-06 -1.526717e-06 7.295656e-07
-2.797360e-07 1.353101e-06 -5.785870e-07 5.500490e-07 1.064991e-06 2.645113e-07
-2.034060e-07 1.316968e-06 -6.748687e-07 4.706973e-07 5.932374e-07 2.253572e-07
-2.396140e-07 3.439162e-07 -2.985472e-07 6.801339e-08 7.839241e-07 2.489926e-07
-2.034060e-07 1.011617e-06 -5.485379e-07 3.969283e-07 4.423929e-07 1.290866e-07
-3.122663e-07 1.399023e-06 -1.839839e-07 -3.168485e-07 -1.325634e-06 5.666887e-07
-5.852133e-07 9.718663e-07 -3.870526e-07 -6.948142e-07 -8.614139e-07 4.448639e-07
6.278406e-07 -4.762377e-07 6.156354e-06 -5.114637e-06 -1.994926e-06 1.027799e-06
-5.352840e-07 9.291404e-07 -1.316154e-07 -5.581686e-07 -1.382635e-06 4.414606e-07
3.593851e-07 1.658479e-07 -2.307503e-07 -2.032651e-07 -1.501401e-07 1.761504e-07
4.503926e-07 1.432842e-07 -3.406848e-07 -3.177755e-07 -2.139277e-07 2.909834e-07
6.151540e-07 8.519057e-08 -5.735971e-07 -5.532409e-07 -2.720773e-07 4.218817e-07
8.644788e-07 1.712438e-07 -6.513651e-07 -7.379968e-07 -3.314584e-07 4.170988e-07
3.109553e-06 -2.110504e-06 5.271182e-06 -7.365807e-07 3.119175e-07 6.305884e-07
3.923547e-07 9.369261e-08 -4.414533e-07 -5.218094e-07 -3.482776e-07 4.609625e-07
5.071049e-07 3.014227e-07 -5.739803e-07 -6.060192e-07 -3.403593e-07 3.616823e-07
7.959254e-07 1.925731e-07 -6.097115e-07 -7.305890e-07 -5.188859e-07 6.899105e-07
5.914714e-07 1.546859e-07 -6.149415e-07 -6.653926e-07 -4.162308e-07 5.810324e-07
-2.712985e-07 -1.616663e-07 5.543785e-06 3.470282e-06 1.036829e-06 1.563520e-06
3.405144e-06 -3.465723e-06 3.445514e-06 7.947099e-07 -1.516755e-09 1.001316e-06
4.174691e-07 2.097576e-07 -4.571070e-07 -6.293038e-07 -6.099913e-07 5.751858e-07
2.581731e-07 1.674409e-07 -3.827894e-07 -5.161519e-07 -5.245365e-07 5.052667e-07
4.667497e-07 1.533207e-07 -3.178977e-07 -4.166015e-07 -4.879143e-07 6.239532e-07
5.082223e-07 2.983471e-07 -4.523938e-07 -6.038381e-07 -3.252148e-07 3.738027e-07
2.963663e-07 7.268661e-08 -2.520862e-07 -1.469983e-07 -1.964022e-07 2.521138e-07
5.562803e-07 -6.517222e-08 -2.009292e-07 -1.151767e-07 -5.856248e-08 1.746660e-07
2.814531e-07 4.684387e-07 -4.601384e-07 -5.773597e-07 -3.679835e-07 4.324990e-07
1.682599e-06 -9.459371e-07 1.220864e-07 -2.173613e-08 3.370322e-07 1.674422e-06
2.225104e-07 -2.278744e-06 6.664046e-06 -1.891754e-07 1.238416e-07 2.656273e-06
4.302891e-07 -5.509728e-08 -2.395471e-07 -1.197554e-07 -1.242721e-07 2.946479e-07
3.482254e-07 5.098314e-08 -2.215319e-07 -1.160088e-07 -1.277308e-07 1.791080e-07
1.076694e-06 -8.130733e-07 -3.738619e-07 4.145538e-07 2.364578e-07 1.464987e-06
7.338631e-08 9.019711e-07 -5.965789e-07 -6.450583e-07 -4.044503e-07 2.448436e-07
2.385882e-06 -1.334675e-06 -3.542917e-07 4.397286e-07 2.223518e-07 8.958939e-07
6.155436e-07 -4.799722e-08 -2.861408e-07 -1.751639e-07 -5.332510e-08 1.592484e-07
1.854245e-06 -7.346013e-07 9.951160e-07 1.608032e-06 6.339739e-07 5.077092e-07
2.055877e-06 -8.446013e-07 4.549300e-07 1.510306e-06 8.596852e-07 4.080970e-07
2.304853e-07 8.528504e-08 -2.477581e-07 -1.518259e-07 -2.059031e-07 2.418930e-07
5.190346e-07 4.032916e-08 -2.741610e-07 -1.872014e-07 -4.263362e-08 9.791416e-08
2.316311e-06 -1.180073e-06 -3.987699e-07 4.817074e-07 1.085693e-07 1.338418e-06
2.935515e-06 -5.509549e-06 1.084603e-05 -3.455480e-06 -1.317916e-06 4.774146e-06
5.177968e-07 1.061738e-07 -2.900307e-07 -2.647169e-07 -1.314436e-07 1.780360e-07
-2.571018e-07 -4.745627e-07 3.502691e-06 9.998966e-08 2.598079e-07 2.978692e-06
-4.860842e-07 -1.023467e-05 1.838871e-05 -1.352801e-06 -8.551247e-06 4.416260e-05
9.637473e-07 -8.919070e-06 2.228535e-05 -3.328428e-06 -4.708490e-06 2.275424e-05
4.503015e-07 9.265147e-08 -2.365072e-07 -1.742031e-07 -9.185057e-08 1.183683e-07
3.208298e-07 9.311796e-08 -2.017780e-07 -1.065103e-07 -7.103575e-08 9.956045e-08
-2.098431e-07 1.504328e-06 -7.199058e-07 7.857774e-07 7.640737e-07 2.905659e-07
4.033078e-07 6.635813e-08 -2.814407e-07 -1.916056e-07 -1.190798e-07 1.710054e-07
-5.114196e-07 1.924583e-06 -2.021737e-07 -2.358982e-06 -1.558420e-07 4.517435e-07
4.736784e-07 1.097536e-08 -1.920190e-07 -1.326946e-07 -4.945901e-08 1.214533e-07
4.869412e-07 3.452628e-08 -3.505037e-07 -2.836824e-07 -1.771760e-07 2.902675e-07
6.332777e-07 -2.449143e-08 -4.188074e-07 -2.803501e-07 -1.185104e-07 2.234332e-07
-2.332319e-07 1.602198e-07 -2.090603e-07 1.143149e-07 7.216067e-07 1.868124e-07
5.047531e-07 3.654284e-08 -4.286074e-07 -2.776790e-07 -1.729150e-07 3.006581e-07
1.513697e-06 -4.086317e-07 -5.458154e-07 5.349227e-07 2.985688e-07 9.141693e-07
-2.072099e-07 1.311503e-06 -5.732283e-07 8.127694e-07 1.291562e-06 4.641287e-07
1.404620e-06 -3.746973e-07 -6.193576e-07 7.899073e-07 1.544161e-07 8.677526e-07
-7.370074e-08 1.292812e-06 -7.581256e-07 8.652415e-07 6.199670e-07 2.956858e-07
1.284923e-07 -2.376605e-07 -2.516927e-07 1.315286e-07 4.320545e-07 9.490847e-07
-5.187236e-07 4.846913e-07 2.557588e-07 -5.517056e-07 -1.294437e-06 6.766373e-07
-3.297901e-07 6.850698e-07 -2.118288e-07 -6.582186e-07 -1.082320e-06 5.934472e-07
-6.038803e-07 1.361266e-06 1.543066e-07 -5.656663e-07 -1.480237e-06 9.044777e-07
-6.862663e-07 9.311031e-07 -1.999106e-07 -6.393485e-07 -7.643946e-07 4.090698e-07
3.433171e-07 -2.008926e-07 -2.343797e-07 8.210893e-08 1.984638e-07 6.700356e-07
-6.731863e-07 2.327008e-06 5.453034e-07 -2.564792e-06 1.213341e-07 -5.933215e-07
-4.322849e-07 1.674619e-06 1.835870e-07 -1.660309e-06 -5.643344e-07 1.305285e-07
-2.041008e-07 -6.131720e-08 -1.100787e-07 9.982585e-08 9.271880e-07 8.651478e-07
-1.557790e-06 -3.930932e-07 1.075183e-05 -5.910933e-08 -5.886975e-06 -5.609899e-06
-2.293809e-06 3.642924e-07 2.637725e-05 -5.199644e-07 -4.909155e-06 2.544597e-05
-7.624224e-07 3.044411e-06 -4.123764e-07 -1.515754e-06 -1.137749e-06 3.314934e-07
-5.567512e-07 2.094457e-06 -7.606119e-07 4.898065e-07 9.310099e-07 2.199586e-07
-4.452258e-07 1.685441e-06 -4.049337e-07 -1.416935e-06 -6.928047e-07 3.477060e-07
7.920507e-08 8.990254e-07 -6.388685e-07 9.738121e-07 6.818177e-07 5.238306e-07
1.480333e-07 4.522815e-07 -4.596600e-07 8.465154e-07 7.919894e-07 6.170582e-07
3.037787e-07 9.998995e-07 -6.442439e-07 1.371027e-06 7.485687e-07 5.290549e-07
3.175429e-07 6.225563e-07 -7.230821e-07 -1.087103e-06 -6.706026e-07 4.431126e-07
6.871643e-07 7.397416e-07 -3.866591e-07 1.413498e-06 6.293500e-07 8.141369e-07
-1.553000e-06 2.131684e-06 2.358562e-06 3.335379e-06 -1.394504e-06 2.446352e-07
3.602351e-06 -2.170642e-06 3.081666e-06 3.441704e-06 3.856680e-07 -7.205140e-08
1.599759e-06 -7.193195e-07 -5.916180e-07 -4.387711e-07 -1.165675e-07 9.111174e-07
-2.591742e-07 7.205746e-08 -1.362977e-07 2.475622e-08 1.264028e-06 5.159297e-07
2.709996e-07 4.286605e-07 -1.169075e-07 9.673420e-07 7.628210e-07 7.876096e-07
2.522084e-06 -9.929344e-07 -2.281918e-07 1.212416e-07 1.042676e-07 1.435655e-06
-6.390426e-07 5.986603e-07 -2.980456e-07 -2.162489e-07 -8.869116e-07 -3.646599e-07
-1.461801e-07 7.103282e-07 -3.740937e-07 -6.479975e-07 -1.060090e-06 1.988392e-07
2.086868e-06 -5.472422e-07 4.652308e-07 -1.977771e-06 2.549525e-08 4.684605e-07
2.736952e-06 -1.521315e-06 -4.203112e-08 -1.044612e-07 -1.193367e-07 7.054348e-07
-4.367076e-07 -2.712296e-07 6.222238e-07 -1.180990e-07 -1.381825e-06 -5.257178e-08
2.561551e-06 -8.805854e-07 -3.067629e-08 2.258978e-07 1.162675e-07 6.068732e-07
4.761336e-08 5.220558e-07 -4.998531e-07 -6.186997e-07 -8.862724e-07 7.021116e-07
-2.194128e-07 -4.453079e-07 2.023408e-06 3.742840e-07 -4.021800e-08 3.646659e-08
2.384428e-06 -1.168935e-06 -6.952217e-08 5.157540e-07 -2.200622e-08 7.314363e-07
-2.794380e-07 1.492362e-08 3.137993e-06 -1.466475e-07 -6.804287e-08 3.359632e-07
-1.437096e-07 1.289688e-06 -1.010267e-07 2.062440e-06 -3.201061e-07 -3.601315e-07
4.348193e-07 8.022213e-07 -6.328897e-07 1.320028e-06 -5.987931e-07 -4.010971e-07
5.925774e-07 1.415493e-06 5.965958e-07 2.448247e-06 -1.466002e-07 -4.389633e-08
-1.130333e-05 3.292585e-06 1.679433e-05 -2.566487e-06 -8.139645e-06 -1.621792e-06
1.458747e-08 5.885433e-07 -7.115816e-07 6.870111e-07 -6.784234e-07 -4.169790e-07
1.608483e-07 1.044999e-06 9.790491e-06 5.822510e-07 -4.583612e-06 6.481463e-06
-4.569533e-06 -1.405932e-05 5.084461e-05 5.573504e-06 1.650525e-05 2.654788e-05
2.603972e-06 -1.446726e-06 2.574494e-06 -1.183674e-06 3.099985e-07 2.707686e-07
-1.209559e-07 7.995206e-07 -7.380051e-07 5.945668e-07 -6.967312e-07 -4.337717e-07
2.707246e-07 -2.209792e-06 2.869085e-05 -1.859374e-06 -2.162492e-05 -1.796653e-05
3.663347e-07 1.431697e-06 -8.350716e-07 1.838506e-06 -8.748590e-07 -4.731912e-07
-7.949084e-07 1.299069e-06 1.003875e-06 2.096227e-06 -2.612258e-07 -1.058484e-07
2.917260e-06 -2.556194e-06 5.737714e-06 -1.093356e-06 -1.227577e-06 1.328642e-07
-2.646812e-07 1.957068e-07 -1.809309e-07 2.418898e-08 1.192556e-06 -2.226091e-07
2.402973e-06 -2.817732e-06 4.162201e-06 -2.089882e-06 1.475607e-06 1.590425e-06
5.259809e-06 -4.097891e-06 3.155631e-06 -1.929827e-06 -4.748839e-07 1.277429e-06
3.282267e-06 -5.543094e-06 8.794038e-06 -4.628576e-06 -9.623420e-07 5.271997e-06
2.076573e-06 -2.436597e-06 5.306513e-06 -4.165311e-06 -2.785095e-06 4.225283e-06
-5.882275e-07 2.023964e-06 1.957246e-06 -3.997489e-06 -1.855935e-06 7.863554e-07
1.937192e-06 4.539870e-08 5.482691e-06 -3.641911e-06 -2.123535e-06 4.371043e-06
1.220858e-08 -4.762377e-07 7.389211e-06 -4.911816e-06 -1.836901e-06 1.579140e-06
1.740077e-07 1.034895e-06 -6.764513e-07 1.000256e-06 4.547713e-07 3.095226e-07
4.243642e-06 -5.968936e-06 1.181079e-05 -4.570209e-06 -4.772340e-06 1.015020e-05
4.838674e-07 5.593008e-08 -3.074170e-07 2.256442e-07 7.915106e-08 1.375425e-07
2.213762e-06 -4.102716e-06 5.852604e-06 -2.636964e-06 -2.861886e-06 6.551174e-06
6.802542e-07 -5.789892e-06 1.577371e-05 -3.710507e-06 -2.119723e-06 6.401079e-06
2.816198e-06 -2.435627e-06 5.086926e-06 -4.025916e-06 -2.738977e-06 4.030867e-06
3.307060e-06 -3.056046e-06 7.954379e-06 -4.277066e-06 -3.016847e-06 5.232893e-06
1.515509e-06 -4.688545e-07 -5.156167e-07 -7.218806e-07 -4.592041e-07 1.021538e-06
1.049583e-06 5.001110e-08 -4.911578e-07 -1.206731e-06 -8.938541e-07 1.058991e-06
1.707449e-06 -6.404372e-07 3.091426e-07 -1.150996e-06 -4.897157e-07 4.482333e-07
1.388731e-06 -2.466615e-07 -6.826404e-07 -5.208824e-07 -3.292201e-07 7.313041e-07
1.856951e-07 4.733478e-07 -3.514317e-07 -4.087203e-07 -4.786814e-07 3.451668e-07
5.584756e-07 -5.348364e-08 -2.209750e-07 2.013937e-07 1.540534e-07 3.133839e-07
7.812571e-07 4.223406e-07 -7.080507e-07 1.388844e-06 5.866556e-07 7.607533e-07
5.363746e-07 -7.735404e-08 -2.844059e-07 1.873379e-07 7.110763e-08 2.365083e-07
1.263198e-06 -1.237904e-07 -7.686744e-07 -1.177898e-06 -5.194028e-07 6.916102e-07
2.277771e-07 4.711989e-07 -2.846344e-07 -6.588457e-07 -6.152324e-07 4.936123e-07
6.700751e-07 1.830260e-07 -5.121806e-07 -9.756923e-07 -5.431698e-07 8.088562e-07
7.983492e-07 5.370909e-08 -5.054472e-07 -6.548602e-07 -5.496574e-07 7.763822e-07
8.710004e-07 -7.463506e-08 -4.861900e-07 3.238126e-07 1.113760e-07 2.779545e-07
7.267037e-07 2.495060e-07 -6.170924e-07 -9.914618e-07 -4.915888e-07 5.388145e-07
-9.178473e-07 2.549758e-06 -3.743106e-07 -3.851133e-07 8.810563e-07 -2.014311e-07
-4.209324e-07 1.060254e-06 -4.298062e-07 -3.101954e-07 1.345956e-06 -3.136472e-07
-3.997565e-07 7.821143e-07 -2.948816e-07 -2.795371e-07 1.020599e-06 -3.624399e-07
-5.664546e-07 1.675507e-06 -5.780356e-07 -7.664553e-07 1.162230e-06 -4.436194e-07
3.233933e-08 -2.629990e-07 5.280521e-07 1.441671e-07 -2.972048e-08 1.178758e-06
-1.483090e-05 -3.181562e-06 5.222853e-05 2.449089e-06 -1.333530e-05 1.181415e-07
5.746987e-07 3.525553e-08 -2.829809e-07 2.181292e-07 6.563008e-08 1.124057e-07
1.567443e-06 -2.626895e-07 -6.930840e-07 6.980228e-07 2.279975e-07 5.371006e-07
-4.466395e-07 1.293731e-06 -6.906153e-07 -3.984970e-07 7.022937e-07 -2.860063e-07
1.452508e-07 -2.247294e-07 -1.926442e-07 6.310839e-08 3.886786e-07 8.786305e-07
1.339840e-06 4.371248e-08 -7.153944e-07 -1.029001e-06 -3.522504e-07 7.606660e-07
-8.579175e-06 4.375222e-06 1.066647e-05 8.895870e-07 -4.137055e-06 -4.455895e-07
2.780475e-07 5.934672e-08 -2.861528e-07 -3.095604e-07 -4.453399e-07 6.405685e-07
1.921162e-07 4.816789e-08 -2.639750e-07 -2.951393e-07 -2.966177e-07 4.670785e-07
4.480637e-07 3.015970e-08 -4.077273e-07 -4.421576e-07 -3.906690e-07 6.123281e-07
1.013927e-06 3.412695e-07 -5.822874e-07 -1.244276e-06 -3.386617e-07 6.226921e-07
8.163817e-07 7.435819e-08 -5.601941e-07 6.788136e-07 1.813959e-07 3.182728e-07
4.238467e-07 4.148943e-08 -2.050361e-07 1.018519e-07 3.255422e-08 6.297773e-08
4.881506e-07 -3.448167e-08 -1.879221e-07 1.387490e-07 5.396274e-08 1.221790e-07
8.164464e-07 2.636566e-07 -5.564463e-07 6.747108e-07 2.272794e-07 3.177010e-07
1.977739e-06 -3.147199e-07 -8.405999e-07 1.323837e-06 2.266890e-07 8.011338e-07
1.295250e-06 -4.190460e-08 -6.999085e-07 7.805994e-07 2.922575e-07 5.296127e-07
4.735510e-07 4.016466e-08 -2.518603e-07 1.563010e-07 3.823567e-08 1.008044e-07
-6.590656e-07 -3.075414e-06 1.811278e-05 -7.974568e-07 -3.040443e-05 -3.554831e-06
4.768154e-07 -1.398017e-08 -1.872052e-07 1.380764e-07 4.947420e-08 1.240639e-07
-5.567471e-07 -2.538642e-07 1.135871e-06 5.091717e-08 -1.154642e-06 8.767686e-07
-2.229264e-06 -3.074725e-06 2.264890e-05 -1.221506e-06 -1.883924e-05 2.189904e-05
5.419050e-07 2.971197e-08 -2.592418e-07 2.042129e-07 7.738497e-08 1.530556e-07
4.295361e-07 7.154498e-08 -2.283867e-07 1.872141e-07 1.162277e-07 1.868794e-07
-2.159671e-06 -1.441363e-06 1.715819e-05 -6.087375e-06 -6.940552e-06 4.453011e-06
-6.905025e-08 -8.854677e-07 8.203852e-06 6.747725e-06 -6.312091e-06 -4.722762e-06
4.529725e-07 2.773410e-08 -2.013353e-07 1.874878e-07 8.239619e-08 1.655738e-07
-5.706121e-07 5.256890e-07 5.392890e-06 4.173295e-06 -1.246823e-06 -1.408096e-06
9.901386e-08 7.065207e-07 -5.592204e-07 5.388653e-07 5.645421e-07 3.736923e-07
-1.352561e-07 2.644364e-07 -2.856680e-07 1.365358e-07 4.165711e-07 3.215920e-07
-2.733500e-07 -2.517481e-07 1.422905e-06 1.095354e-07 9.910490e-07 4.581008e-07
1.995587e-07 3.287731e-07 -3.329720e-07 2.928255e-07 2.621577e-07 2.021094e-07
9.624695e-08 8.286143e-07 -5.429354e-07 5.694477e-07 2.750678e-07 2.321791e-07
2.950171e-07 4.448706e-07 -5.325098e-07 5.868598e-07 3.870573e-07 2.883181e-07
-6.078975e-07 -4.046206e-08 4.813277e-06 5.349652e-07 -3.838385e-06 -9.113410e-07
7.424824e-08 4.527028e-07 -2.532296e-07 2.626982e-07 3.196568e-07 2.272442e-07
1.223625e-07 5.505418e-07 -4.237403e-07 3.937416e-07 2.408055e-07 1.498886e-07
-1.379275e-06 3.426331e-06 2.757164e-07 2.136131e-06 5.657496e-07 2.527579e-07
1.046042e-07 4.161867e-07 -3.298125e-07 2.484303e-07 2.870190e-07 2.109209e-07
-7.539625e-08 1.457924e-06 4.691125e-07 3.171456e-06 4.426229e-07 4.615765e-07
1.166688e-07 6.091542e-07 -5.221427e-07 4.031207e-07 2.822124e-07 2.081387e-07
4.154273e-07 -6.612906e-06 4.083568e-05 8.415654e-06 -1.238215e-05 -2.316407e-05
-7.746642e-06 -1.705567e-05 5.077075e-05 4.141949e-06 2.039116e-06 -3.491073e-05
-1.722797e-07 1.172587e-06 -6.155404e-07 -6.465400e-07 6.521248e-07 -3.513031e-07
-3.013756e-07 1.127893e-06 -7.427977e-07 -4.685801e-07 5.690929e-07 -2.443979e-07
-1.195409e-06 8.802072e-07 1.949413e-06 6.973424e-07 -2.146496e-07 -1.692015e-07
-3.499096e-07 2.793920e-07 -2.366361e-07 1.019596e-10 7.616368e-07 -3.311946e-07
3.641663e-07 6.064291e-07 -5.089814e-07 1.622425e-06 5.021223e-07 5.216955e-07
5.304163e-07 8.803792e-08 -4.369406e-07 8.369752e-07 5.375557e-07 7.616422e-07
-1.804083e-06 2.878121e-06 1.357092e-07 6.889794e-07 7.517401e-07 -2.659941e-07
-3.489799e-07 -1.975985e-07 7.305993e-06 -5.839347e-07 -1.035401e-05 -1.120684e-06
-3.267633e-08 -9.620765e-07 6.372182e-06 2.222340e-07 -8.722752e-06 -3.979888e-07
-1.412701e-06 1.578495e-06 3.243883e-06 9.837661e-07 7.849185e-07 2.713704e-08
1.434923e-06 -1.025332e-06 -3.029290e-07 6.644968e-08 2.543120e-07 1.234844e-06
-8.317325e-06 1.929344e-06 1.237153e-05 5.576353e-06 -3.537215e-06 -1.173580e-06
-5.042020e-06 4.498277e-07 1.880694e-05 -2.080313e-06 -7.916348e-06 -2.887384e-05
4.503301e-06 -4.516970e-06 8.159628e-06 -1.689999e-06 1.356472e-06 -9.813074e-07
8.374357e-07 -3.416160e-07 -1.504608e-07 6.631098e-07 4.834482e-07 1.324984e-06
1.225136e-06 -1.337466e-07 -6.078850e-07 8.606751e-07 4.894607e-07 8.362801e-07
-5.649600e-07 -2.145951e-07 3.141406e-06 -8.142697e-08 -1.445730e-06 5.880797e-08
-1.666898e-06 -3.662561e-07 7.365027e-06 2.787651e-06 -1.623705e-06 -2.992579e-06
1.268402e-06 -3.017983e-07 -6.125192e-07 1.047978e-06 4.613026e-07 8.630664e-07
1.669889e-06 -6.003046e-07 -3.795864e-07 1.456628e-06 3.056064e-07 6.535611e-07
3.646080e-06 -5.900287e-06 6.606752e-06 -3.262828e-06 -2.086459e-07 -2.310383e-06
3.492921e-08 -2.453610e-07 -2.586239e-07 -8.182197e-08 -1.831095e-07 7.699147e-07
-1.219083e-05 1.714791e-06 3.279520e-05 1.748160e-06 1.064540e-05 -1.380284e-06
9.518602e-07 3.482709e-07 -7.468145e-07 -1.191165e-06 -5.185937e-07 7.499222e-07
4.216291e-06 -3.625394e-06 4.680344e-06 -2.550144e-06 9.562338e-07 -2.616675e-06
3.853834e-07 1.798239e-07 -3.293189e-07 2.519372e-07 9.617177e-08 1.024045e-07
4.364892e-07 1.593078e-07 -3.783134e-07 2.964693e-07 1.632024e-07 1.319310e-07
3.764157e-07 1.132953e-07 -2.496794e-07 2.201745e-07 8.257627e-08 1.306576e-07
2.379008e-06 -9.427590e-07 -7.815298e-07 1.040439e-06 1.625896e-07 8.922616e-07
4.495906e-07 1.317958e-07 -3.864060e-07 2.617183e-07 1.401530e-07 2.023763e-07
-2.448776e-07 7.520186e-07 -4.077417e-07 5.235658e-07 8.400716e-07 3.729111e-07
-6.639996e-07 3.179390e-07 -9.522966e-08 -8.003645e-08 1.042324e-06 3.432206e-07
5.756391e-06 -6.768013e-06 1.331936e-05 -7.641262e-07 -1.033199e-06 -4.974689e-06
4.734792e-06 -1.446926e-06 3.388517e-07 -1.219873e-06 2.702376e-07 8.927091e-08
2.551544e-06 -4.745627e-07 9.776008e-07 -1.010645e-06 -1.125768e-07 -3.159853e-07
-5.490921e-07 9.270425e-07 -2.719468e-08 6.613481e-07 1.627904e-06 5.654200e-07
-4.683521e-07 1.134720e-06 -1.486988e-07 5.434072e-07 9.091745e-07 3.870717e-07
-9.999093e-07 4.549019e-07 9.610641e-08 -2.552846e-07 1.195079e-06 5.564239e-07
4.904963e-06 -2.778692e-06 7.321589e-07 1.066846e-06 -1.627346e-07 2.480397e-07
-2.115251e-07 1.015976e-06 -1.081554e-07 6.567511e-07 7.858957e-07 4.819909e-07
6.268447e-07 4.307334e-07 -4.133076e-07 -1.533503e-06 -5.265707e-07 6.550141e-07
8.071745e-07 1.915758e-07 -4.934629e-07 -1.449547e-06 -6.662653e-07 6.866615e-07
5.019992e-06 -2.866519e-06 2.414121e-06 -3.042097e-06 3.307918e-07 1.737790e-06
-7.288239e-07 1.957148e-06 -6.816576e-07 -5.186559e-07 8.107513e-07 -1.673364e-07
2.983579e-06 -1.120485e-06 1.251113e-06 -3.650872e-06 6.244142e-07 5.721402e-07
4.369351e-07 1.651837e-07 -3.182117e-07 -4.023604e-07 -4.892689e-07 6.270156e-07
-5.838802e-08 6.515167e-07 4.415523e-08 -1.216977e-06 9.495243e-07 -6.034700e-07
-6.644935e-07 1.451823e-07 1.562626e-06 -3.232105e-08 -7.481880e-07 -7.238188e-07
1.728985e-06 4.594141e-08 2.427876e-06 -4.083550e-06 -2.546084e-08 -4.847739e-07
4.264419e-07 4.417861e-07 -5.087727e-07 -8.903481e-07 -5.893198e-07 6.753571e-07
5.430935e-07 4.672923e-07 -5.741013e-07 -8.306456e-07 -6.027438e-07 6.848239e-07
4.596642e-07 1.846653e-07 -3.122713e-07 -6.982413e-07 -5.912218e-07 6.528361e-07
1.004904e-06 1.670524e-07 5.755335e-07 -1.331354e-06 7.164671e-07 -1.123897e-06
8.522072e-07 -2.918822e-07 -2.333150e-07 -6.325862e-07 -6.362941e-07 1.152195e-06
8.691848e-07 -2.414444e-06 4.763412e-06 -2.164507e-07 2.589431e-07 2.707476e-06
2.974797e-06 -3.439036e-06 5.252330e-06 9.150550e-07 1.471172e-06 4.286929e-06
5.280287e-07 2.419395e-07 -8.780364e-08 -1.062121e-06 9.756391e-07 -6.804876e-07
3.190583e-06 -2.968210e-06 -1.184195e-07 1.356695e-07 2.096399e-06 -6.890909e-07
2.405075e-06 -1.120485e-06 2.870796e-06 -3.731048e-06 7.110817e-07 1.356244e-07
-4.909282e-07 -2.924860e-07 1.743262e-06 -1.142235e-09 -1.157645e-06 3.490295e-07
-2.453633e-07 2.299471e-07 -3.209764e-07 8.426678e-08 7.910793e-07 1.607146e-07
-2.402341e-07 3.890566e-07 -3.047252e-07 6.008537e-08 5.767122e-07 5.553568e-08
-1.344746e-06 -1.959071e-05 7.448117e-05 1.079209e-06 -4.429435e-06 4.792621e-05
5.853100e-07 6.593239e-07 -8.185320e-07 -9.989531e-07 6.199720e-07 -3.750127e-07
3.806044e-06 -6.072571e-06 1.954974e-05 -4.306413e-06 -5.328111e-06 1.314822e-05
2.963468e-06 -1.441641e-06 3.426258e-07 -1.336279e-06 1.237999e-06 -6.690436e-07
1.466737e-07 1.235884e-06 -7.886729e-07 -8.098160e-07 5.680387e-07 -3.044969e-07
1.878966e-08 4.969901e-09 -2.740079e-07 -1.573053e-07 -4.889676e-07 6.106088e-07
3.888941e-06 -2.230223e-06 1.683540e-06 -6.116499e-07 3.814642e-07 6.904236e-07
3.541306e-06 -2.096011e-06 7.388638e-07 -6.467329e-07 3.188725e-07 -7.994659e-08
4.088105e-06 -3.159395e-06 2.098630e-06 5.242771e-07 -5.777855e-07 3.692826e-07
-2.141919e-07 1.024605e-06 -5.442272e-07 6.501523e-07 7.102179e-07 4.477618e-07
-2.996472e-07 7.063892e-07 -3.376733e-07 4.619154e-07 8.331834e-07 3.185655e-07
-2.498973e-07 7.503321e-07 -5.101410e-07 5.517301e-07 6.814114e-07 2.949885e-07
-1.994332e-07 7.227966e-07 -4.831352e-07 6.073980e-07 6.846259e-07 3.552977e-07
-3.602969e-07 8.043245e-07 -3.044535e-07 9.482348e-08 6.048231e-07 2.571783e-08
-5.487645e-08 6.096948e-07 -3.800445e-07 3.794401e-07 5.837274e-07 2.563259e-07
-3.868445e-07 1.546695e-06 -6.314683e-07 -2.650260e-07 4.567553e-07 -9.696952e-08
-3.108861e-08 7.623441e-07 -1.937033e-07 8.404934e-07 6.830404e-07 4.140045e-07
-1.498200e-07 1.127828e-06 -6.637198e-07 1.133137e-06 6.948330e-07 4.374024e-07
9.355696e-08 5.397154e-07 -3.841976e-07 6.712592e-07 7.321726e-07 5.309163e-07
-2.407357e-06 2.319412e-06 7.901658e-06 -5.047637e-06 -3.038033e-06 1.306152e-06
-3.604916e-07 1.376601e-06 -6.079384e-07 1.163386e-07 5.252654e-07 3.986043e-08
-5.365504e-07 1.402839e-06 -6.954874e-07 -4.600270e-07 9.824371e-07 -2.811205e-07
1.255298e-07 4.580436e-07 -4.883181e-07 6.898594e-07 5.946872e-07 4.943296e-07
-1.755657e-06 7.429800e-07 1.264317e-05 -6.155998e-06 -8.030930e-06 5.641702e-06
-7.511090e-07 1.178333e-06 8.422024e-07 -2.501749e-06 3.868980e-07 -2.223176e-07
1.347962e-06 3.370080e-08 2.050797e-06 -3.185465e-06 -2.796014e-07 2.751940e-06
-2.556681e-06 3.354324e-06 5.021151e-06 -3.034139e-06 -2.801555e-06 1.997976e-06
-1.137623e-06 1.875664e-06 2.296685e-06 -8.669726e-07 -1.473201e-06 6.321285e-07
1.113743e-06 -4.830929e-07 -2.980421e-07 1.869543e-07 -2.144919e-08 8.595635e-07
-9.873689e-08 1.017771e-06 -5.177117e-07 4.577410e-07 3.384581e-07 1.475618e-07
1.445285e-06 -8.204968e-07 -3.661334e-07 2.721189e-07 -2.396444e-08 1.047846e-06
8.966505e-08 -4.789854e-07 -4.338309e-08 3.657775e-08 4.011899e-07 1.113003e-06
1.045429e-06 -4.358566e-07 -5.958738e-07 3.475262e-07 3.367983e-07 1.231878e-06
1.347274e-06 -5.610089e-07 -5.464538e-07 2.229968e-07 3.229976e-07 1.070876e-06
1.364775e-08 1.044733e-07 -2.604789e-07 -1.185232e-07 -5.102348e-07 4.423772e-07
-4.868743e-07 1.085431e-06 -4.512106e-07 -2.610370e-07 1.302960e-06 -5.215101e-07
-3.683150e-07 8.938378e-07 -3.387517e-07 -1.091571e-07 1.315257e-06 -3.667547e-07
-6.672439e-07 1.700870e-06 -7.190775e-07 -1.607014e-07 1.027704e-06 -1.214537e-07
1.199605e-06 -1.695275e-07 -5.741456e-07 -4.591269e-07 -1.594255e-07 4.799307e-07
-3.888706e-07 1.109416e-06 -5.411836e-07 -2.667781e-08 8.886535e-07 -6.471131e-08
-5.570939e-07 1.990819e-06 -7.140250e-07 -2.502306e-07 6.884433e-07 -1.282398e-07
-5.820381e-07 1.755313e-06 -5.323571e-07 -3.303330e-08 7.816424e-07 -3.641750e-08
-7.139613e-07 2.037083e-06 -7.520561e-07 1.567634e-07 8.708869e-07 -7.777396e-08
-6.182577e-07 1.520419e-06 -5.350695e-07 -2.610186e-07 8.401143e-07 -2.648054e-08
-7.622043e-07 1.124028e-06 -3.161709e-08 4.590756e-08 1.737218e-06 2.037769e-07
7.518658e-07 -1.602129e-07 -3.491549e-07 -1.778390e-08 1.395857e-08 2.098049e-07
5.460917e-07 -1.390930e-07 -2.219906e-07 -5.832474e-08 -3.863814e-08 1.899206e-07
7.817803e-07 -1.955912e-07 -3.298932e-07 -6.663271e-08 -1.981123e-08 1.739003e-07
-4.754755e-07 1.084328e-06 -5.456927e-07 -7.393226e-08 8.996325e-07 -4.487412e-08
1.273095e-06 -4.659964e-07 -4.749194e-07 2.550586e-07 2.051797e-08 8.552817e-07
-2.451789e-06 2.962631e-06 1.354782e-06 2.915445e-06 -1.027576e-06 -1.255325e-07
-1.465839e-06 3.066736e-06 1.190518e-06 -7.870238e-07 -5.427427e-07 1.529549e-07
2.055039e-06 -5.905478e-07 -6.492814e-07 1.819836e-07 1.365217e-07 1.325412e-06
-3.147747e-07 2.497977e-07 -3.163980e-07 -1.298896e-08 -1.258236e-06 8.375061e-08
-3.255589e-07 -4.822640e-08 2.447619e-07 1.289014e-07 -1.549209e-06 3.108640e-08
-3.734750e-06 4.036688e-06 3.711100e-06 2.668969e-06 6.861088e-07 -3.879972e-07
1.915456e-06 -6.064148e-07 -6.329187e-07 2.940960e-07 1.440854e-07 1.386121e-06
-2.473378e-06 3.629428e-06 1.742665e-06 2.056973e-06 1.006416e-06 1.036649e-07
-5.961933e-06 4.418650e-06 1.005011e-05 1.826018e-06 1.811529e-06 5.944744e-07
9.456183e-07 -3.742838e-07 -4.157757e-07 2.652622e-07 1.592858e-07 9.611074e-07
-2.343252e-06 3.612352e-06 2.717343e-07 9.871134e-08 1.242393e-06 -1.904248e-08
5.276441e-07 7.189839e-08 1.263902e-06 -1.967982e-06 -2.817136e-07 -8.249418e-07
-1.535729e-06 9.842954e-07 1.034559e-05 -2.924348e-07 -1.340568e-05 -5.187041e-06
1.657985e-06 -4.581344e-07 -5.511129e-07 5.044600e-07 2.649213e-07 7.808265e-07
1.780373e-06 -7.817816e-07 -6.395512e-07 4.987557e-07 1.598631e-07 7.564072e-07
3.696602e-07 -1.518326e-05 4.042210e-05 -2.600476e-06 2.283164e-06 -2.008171e-05
3.560232e-06 -4.847138e-06 4.616020e-06 3.101666e-06 -9.850064e-07 2.517075e-07
1.899436e-06 -4.747455e-07 -7.745408e-07 5.267863e-07 2.317907e-07 7.016666e-07
-2.166689e-08 1.754092e-06 -7.638863e-09 -2.490269e-06 -9.160307e-07 9.321045e-07
2.203869e-07 4.700507e-07 -4.748941e-07 -6.622122e-07 -5.918314e-07 5.355576e-07
-2.905783e-06 -1.294835e-06 2.148306e-05 -8.900554e-06 1.072086e-05 -1.104532e-05
1.760645e-06 -7.843657e-07 -6.354926e-07 4.774207e-07 1.805436e-07 1.197404e-06
2.869116e-07 3.277596e-07 -3.781834e-07 4.303095e-07 -4.744441e-07 -2.633861e-07
-1.512243e-07 9.417721e-07 -3.781834e-07 3.018498e-07 -5.000879e-07 -2.357046e-07
-5.433227e-07 3.998864e-08 2.919211e-07 -2.957451e-08 4.863026e-07 1.335128e-07
2.141714e-07 1.085895e-06 -7.741625e-07 7.334009e-07 -6.218509e-07 -3.653414e-07
-2.372628e-07 2.648214e-07 -3.557498e-07 1.046703e-07 -6.761440e-07 -4.240410e-07
-1.055915e-07 7.542781e-07 -3.758838e-07 3.802137e-07 -5.946343e-07 -2.587776e-07
-8.015166e-07 2.566892e-06 -2.936978e-07 -1.792230e-06 -7.876462e-09 5.323877e-07
4.328223e-06 -4.236906e-06 6.489891e-06 -1.651132e-06 3.187424e-06 -2.243507e-06
1.466515e-07 8.764152e-07 -4.211386e-07 5.947117e-07 -9.319841e-07 -5.902313e-07
2.833387e-06 -2.224881e-06 9.780120e-07 4.920550e-06 -1.221777e-08 3.763404e-06
7.294599e-07 -2.780650e-06 8.805336e-06 -5.448033e-06 1.134259e-06 -1.783392e-07
-6.415326e-06 4.568631e-06 1.018340e-05 -2.831738e-06 4.680351e-06 -7.163893e-07
2.772288e-06 -1.029948e-06 1.868633e-06 1.040565e-06 1.611782e-06 2.085567e-06
2.735582e-06 -2.159283e-06 4.099641e-06 1.245256e-06 -7.254329e-07 2.456403e-06
3.030802e-06 -1.935660e-06 3.974511e-06 2.650185e-06 8.847499e-07 2.420979e-06
3.849600e-06 -4.933606e-06 7.664971e-06 -3.351752e-06 -1.220305e-06 -7.317080e-06
3.048554e-06 -2.088375e-06 6.593551e-06 -4.174468e-06 1.359964e-07 -2.309993e-06
2.239335e-06 -4.733268e-07 -7.855882e-07 1.041204e-06 3.166904e-07 6.765947e-07
-1.709862e-06 3.589476e-06 1.369441e-06 -3.174850e-07 -4.481662e-08 -4.141202e-07
2.028636e-06 -1.353606e-06 9.718828e-08 -1.295479e-06 -1.874031e-08 7.299887e-07
1.241801e-06 1.232758e-07 -1.130870e-07 -1.622658e-06 -6.983345e-07 1.115588e-06
-2.333179e-06 4.652447e-06 7.232269e-07 -3.815838e-09 -3.957655e-08 1.012016e-07
2.352679e-06 -2.182696e-06 6.093488e-06 -2.757183e-06 8.409217e-07 -1.767968e-06
2.351300e-06 -6.886289e-07 3.163330e-06 -2.601531e-06 1.822498e-06 1.665702e-07
-4.066470e-07 -2.836235e-07 2.106290e-06 1.188469e-07 1.773023e-08 6.241771e-07
1.704709e-06 2.285687e-06 1.765277e-06 -2.804097e-06 1.453196e-07 -9.633151e-07
1.410708e-07 6.990201e-07 -5.433846e-07 7.529192e-07 5.781190e-07 4.973423e-07
-7.481006e-07 1.367598e-06 2.620958e-06 -3.023302e-06 3.854066e-08 -3.599645e-07
4.206119e-08 6.931114e-07 -5.332510e-07 7.140815e-07 5.493644e-07 3.311079e-07
2.300672e-06 -8.305404e-07 3.292957e-06 -3.045072e-06 4.336027e-07 4.646761e-07
-9.080136e-08 2.205933e-07 3.035223e-06 -2.324743e-07 6.472191e-07 7.092306e-07
-3.436969e-07 -5.320880e-07 1.143320e-06 8.931655e-08 -7.313912e-07 1.373470e-06
3.331743e-07 7.109906e-07 -5.492641e-07 8.025406e-07 5.721667e-07 4.617072e-07
3.036924e-08 8.273367e-07 -5.614512e-07 6.292171e-07 5.760857e-07 3.610155e-07
6.519416e-08 1.075293e-06 -5.812621e-07 -8.194373e-07 -6.766554e-07 5.317842e-07
-2.395767e-07 -5.351873e-07 1.317711e-06 1.028507e-07 -6.369692e-07 2.554531e-07
2.013401e-07 9.226293e-07 -6.490664e-07 7.590416e-07 5.280929e-07 2.733768e-07
-1.436329e-07 -2.533591e-07 5.993318e-07 -3.202060e-08 -8.265204e-07 6.182006e-07
5.412442e-07 8.611991e-07 -6.910617e-07 1.074381e-06 5.546293e-07 3.975638e-07
-9.018483e-08 8.706432e-07 -6.768435e-07 7.727414e-07 5.911881e-07 4.226342e-07
2.175514e-06 -1.252727e-07 -9.548728e-08 -2.068073e-06 1.633403e-07 -2.797703e-07
2.402621e-06 -1.773693e-06 1.601755e-06 1.398031e-06 2.215196e-07 8.992782e-07
2.699404e-06 -1.349355e-06 -1.185506e-07 2.598389e-07 -1.070527e-06 4.658368e-07
1.904439e-06 -9.456808e-07 -2.145726e-07 -9.860490e-07 -2.349725e-07 8.273222e-07
1.040864e-07 -2.487045e-07 -2.272839e-07 -8.412825e-08 -3.994360e-07 8.113810e-07
6.363234e-07 -1.617590e-07 -2.013020e-07 -4.027705e-08 -3.011401e-08 2.360803e-07
4.603025e-06 -2.531582e-06 1.386677e-06 4.583607e-07 1.316247e-07 1.008692e-06
4.164624e-07 -5.510059e-08 -1.985800e-07 -9.987775e-08 -8.882867e-08 2.008504e-07
5.472166e-07 -3.461318e-08 -2.757609e-07 -1.452499e-07 -6.430721e-08 1.640409e-07
3.068795e-06 -2.525339e-06 8.992922e-07 2.163472e-07 1.038187e-08 1.388862e-07
2.927077e-06 -1.500565e-06 6.950212e-07 2.552048e-09 1.214197e-07 1.179699e-06
-1.004685e-06 -1.233527e-06 3.066335e-05 -1.614868e-06 2.839615e-05 -7.393923e-07
1.278725e-06 -2.811657e-07 3.041715e-06 3.571093e-06 -5.005621e-07 -2.201884e-07
-1.817724e-05 -5.449334e-06 9.234967e-05 -5.955394e-06 3.347515e-05 -8.362727e-06
-1.097228e-06 -3.809898e-06 1.650259e-05 -5.657912e-06 -2.235391e-06 6.748017e-06
8.030166e-07 -3.001477e-07 -3.284267e-07 5.992698e-07 4.101614e-07 1.116630e-06
-1.445009e-05 -1.054587e-05 8.869011e-05 8.889664e-06 -4.075188e-05 -2.603492e-05
1.206820e-06 -4.231357e-07 -2.492808e-07 4.104174e-07 5.442111e-07 1.180090e-06
2.880567e-06 -1.523925e-06 5.836001e-07 6.620241e-07 7.507342e-08 8.893279e-07
3.863668e-06 -1.838419e-06 5.227684e-07 1.851780e-06 2.698468e-07 6.444277e-07
-3.201753e-07 1.871717e-06 5.616575e-07 -2.528517e-06 -1.881503e-07 -4.107241e-07
-3.765603e-06 -1.552384e-05 2.354236e-05 -6.163511e-06 -1.599091e-05 3.325858e-05
1.608888e-07 -1.559141e-07 4.817581e-06 -1.591103e-07 7.688758e-07 2.512410e-06
-8.604178e-07 -1.047683e-06 1.341811e-05 -7.110140e-07 -4.612535e-06 6.280359e-06
-3.677926e-06 -1.307838e-06 3.555851e-05 4.626470e-07 -2.708127e-06 2.886790e-05
-5.002527e-08 3.067707e-07 5.883311e-07 5.349148e-07 1.332288e-06 1.077665e-06
1.276312e-06 -1.350360e-05 3.324901e-05 2.894347e-06 5.077385e-07 1.337114e-05
-8.505125e-06 4.796521e-06 1.355603e-05 -2.157711e-06 1.083492e-05 -1.142634e-06
2.689431e-06 -1.473181e-06 1.058266e-06 3.723681e-06 -6.159034e-07 2.960931e-07
-1.248833e-05 -9.741754e-06 7.918288e-05 -8.741435e-06 3.034431e-05 -3.681153e-05
-7.611212e-07 2.227277e-06 4.074699e-07 -1.474691e-06 -4.878528e-07 3.659002e-07
-4.864949e-07 -6.692350e-08 -1.706016e-08 -3.247546e-07 -1.165483e-06 2.688843e-07
-4.218252e-07 1.391308e-06 -3.205836e-07 -4.234645e-07 -1.390866e-06 7.243941e-07
-1.956096e-06 1.469098e-06 6.227670e-06 -3.000947e-06 1.028738e-06 -1.067141e-06
3.300276e-07 1.159517e-07 -1.499329e-07 6.482363e-08 1.435164e-08 1.841547e-08
2.955945e-06 -4.760965e-07 2.225973e-07 -2.778345e-06 -4.325289e-07 1.066069e-06
8.883848e-07 -6.261652e-08 -1.095828e-07 -1.437791e-06 -8.613075e-07 7.218534e-07
-1.402238e-07 8.858066e-07 1.257055e-06 -1.671780e-06 -9.913016e-07 1.426973e-06
5.609591e-07 -1.034725e-08 -2.335662e-07 1.418048e-07 2.350642e-08 7.534285e-08
-2.764954e-06 3.970965e-06 5.636322e-06 -2.118073e-06 5.109877e-07 6.174815e-07
-8.390131e-07 2.202366e-06 2.318241e-06 -2.414948e-06 2.896772e-07 -6.264943e-07
-1.606442e-06 -4.300218e-07 6.183578e-06 -1.089023e-06 1.023843e-06 -2.006160e-06
-1.114857e-06 1.924315e-06 1.521081e-06 -4.524011e-08 -1.503365e-06 -6.522224e-07
-1.072936e-07 1.414866e-06 -7.132902e-07 -8.153437e-07 -7.006029e-07 2.903216e-07
3.254274e-07 -2.580093e-07 -2.629796e-07 1.129750e-07 2.158502e-07 9.394810e-07
1.730077e-06 -4.733268e-07 -7.645845e-07 8.040772e-07 1.743200e-07 6.757835e-07
9.498887e-08 -2.472083e-07 -5.453551e-07 1.265786e-07 2.602738e-07 6.771075e-07
-1.788520e-07 6.888564e-07 -3.556852e-07 -4.735892e-07 -7.467125e-07 3.642982e-07
3.215135e-07 -2.105384e-07 -2.490651e-07 1.273441e-07 2.106137e-07 6.239094e-07
1.412040e-06 -4.291606e-07 -6.321076e-07 4.278183e-07 1.086835e-07 5.251632e-07
-8.143700e-08 7.719631e-07 -4.133907e-07 -5.640256e-07 -8.186244e-07 4.534912e-07
-4.152985e-07 1.428514e-06 -5.640950e-07 8.711142e-07 9.088802e-07 4.469220e-07
-4.165563e-07 5.428612e-07 -3.862381e-07 -2.663240e-07 -1.079246e-06 4.588055e-07
-2.071576e-07 1.525725e-06 -6.082530e-07 -8.830699e-07 -8.426762e-07 5.235143e-07
-2.087312e-07 1.351392e-06 -4.752382e-07 -1.080372e-06 -9.736222e-07 6.018122e-07
-1.373309e-07 1.427706e-06 -6.793611e-07 7.512064e-07 4.821244e-07 2.068597e-07
-3.191958e-07 6.056448e-07 -4.042710e-07 2.976297e-07 -8.031616e-07 -4.372952e-07
-6.779588e-08 6.232431e-07 -3.499420e-07 2.714082e-07 4.895738e-07 2.821151e-07
-5.495543e-07 1.927834e-06 -5.193361e-07 8.524445e-07 -9.361244e-07 -3.893021e-07
-3.862756e-07 3.482342e-07 -2.383428e-07 2.183528e-07 -1.193949e-06 -2.802205e-07
-1.028659e-07 1.025854e-06 -3.731160e-07 9.481719e-07 -1.112031e-06 -5.345060e-07
8.608974e-08 1.212615e-06 -7.182184e-07 7.325761e-07 -6.265124e-07 -2.436018e-07
-2.059570e-07 9.303311e-07 -7.521504e-07 6.429919e-07 -6.754863e-07 -3.833501e-07
-2.175316e-06 3.508376e-06 -5.293472e-07 1.260142e-06 1.012280e-06 -5.588018e-07
-5.758622e-07 -2.109081e-07 1.502048e-06 6.801372e-07 4.417947e-07 6.863881e-07
1.463511e-07 -7.062534e-07 3.397170e-05 3.046631e-06 -2.505972e-05 1.585230e-05
-2.205156e-06 2.908531e-06 1.546840e-06 1.417435e-06 6.196302e-07 -1.406009e-07
-9.919997e-06 3.562415e-06 1.998030e-05 -4.158441e-06 -1.939301e-05 9.912301e-06
-1.047796e-05 -4.704127e-06 2.800184e-05 -3.997215e-06 -1.280841e-05 7.289601e-06
-1.764488e-05 -4.704127e-06 5.061071e-05 -7.268259e-07 -1.562705e-05 -2.020253e-06
-7.711555e-07 -7.076041e-07 2.548280e-05 1.220272e-06 -2.569961e-05 2.357923e-06
-1.468117e-06 -1.255583e-06 1.961247e-05 3.071281e-07 -2.183267e-05 2.142502e-05
-4.597292e-07 -3.056322e-07 2.156440e-06 9.589906e-07 -9.882046e-07 2.023755e-07
-1.918466e-06 3.890338e-06 3.536896e-06 2.731592e-06 6.077229e-07 -6.319183e-07
-1.538500e-07 -1.579893e-07 4.601712e-07 -9.058973e-08 1.270393e-06 -3.698046e-07
1.222962e-06 -1.196512e-06 1.752226e-06 1.067995e-06 -3.121571e-05 4.497853e-06
-8.820878e-06 -1.441363e-06 2.720469e-05 -6.455016e-06 -7.825566e-06 4.814297e-06
-1.288552e-05 -3.269966e-06 3.822458e-05 3.388891e-06 -1.217685e-05 -8.449658e-06
-3.455301e-06 -1.091663e-06 1.544843e-05 5.559764e-06 -7.520683e-06 -4.646819e-06
3.702925e-06 -1.079840e-05 2.482559e-05 1.987101e-06 -9.966541e-07 -1.346107e-05
2.181888e-06 -8.341090e-07 -3.360206e-07 5.530353e-07 4.068028e-07 8.308171e-07
-9.864011e-07 -2.888800e-06 1.286860e-05 5.575210e-06 -1.941085e-06 -1.248076e-06
-2.225162e-07 5.900052e-08 3.370166e-06 3.330311e-07 -3.388631e-06 -3.138049e-06
9.017984e-08 -1.538622e-07 -1.451270e-07 1.091781e-07 4.869539e-07 8.556446e-07
1.510001e-08 -2.446845e-07 -1.912059e-11 6.912787e-08 5.167551e-07 1.096217e-06
-9.648731e-07 7.905030e-07 1.554929e-06 1.596869e-06 4.746287e-07 6.047968e-07
-1.342343e-06 2.520185e-06 7.188995e-07 1.755486e-06 1.232478e-06 2.224725e-07
-1.346853e-06 2.399861e-06 2.156906e-06 2.353903e-06 -3.039944e-07 -8.243552e-08
-1.819447e-05 -2.222132e-06 4.408922e-05 -6.318029e-06 3.123442e-05 -9.810445e-06
3.105363e-08 -2.175796e-07 -6.023449e-08 4.517772e-08 3.687543e-07 1.159738e-06
-2.220509e-07 -2.182863e-08 2.981598e-07 1.337207e-07 1.436224e-06 8.344171e-07
-3.199046e-06 4.869607e-06 1.775181e-06 -1.357045e-06 -1.315540e-07 1.550825e-07
2.128278e-07 -1.537097e-08 -2.564242e-07 1.701575e-07 3.002643e-07 4.347072e-07
-6.617009e-06 4.413392e-06 1.285938e-05 -2.610326e-06 5.025880e-06 -1.836176e-06
8.296950e-07 -7.589708e-09 -4.376975e-07 4.005654e-07 1.931635e-07 3.984723e-07
-4.474718e-08 -2.698758e-07 6.248240e-08 1.197150e-07 1.555700e-07 8.326751e-07
1.189181e-06 2.086947e-08 -7.461571e-07 1.377157e-06 3.448265e-07 6.702155e-07
7.358820e-07 -2.766705e-07 -2.217942e-07 8.484486e-07 6.297764e-07 9.335466e-07
7.437789e-07 -2.937027e-07 -3.242740e-07 2.530389e-07 2.738950e-07 8.907012e-07
-6.524778e-06 -2.057012e-06 2.374584e-05 2.608170e-06 3.115148e-05 1.230726e-05
-1.862779e-05 -2.973932e-07 3.013138e-05 5.673661e-06 2.758712e-05 1.850046e-05
3.620574e-07 1.983867e-07 -3.554525e-07 7.190244e-07 7.355868e-07 8.339492e-07
-5.742011e-06 3.697813e-06 2.038378e-05 1.702324e-06 9.642372e-06 6.251897e-06
-1.932030e-06 1.923655e-06 5.103530e-06 3.028131e-06 -1.266735e-06 -2.610095e-08
6.575381e-07 9.726305e-08 -4.256690e-07 4.365558e-07 1.289961e-07 2.148891e-07
-9.693660e-08 6.625491e-07 -3.428416e-07 2.477320e-07 4.699090e-07 2.830595e-07
7.812571e-07 7.053424e-07 -7.533107e-07 1.216403e-06 5.188012e-07 5.113102e-07
3.066588e-07 8.835183e-08 -1.663575e-07 1.463876e-07 8.033144e-08 1.148863e-07
-1.083197e-06 2.070584e-06 1.653796e-06 2.900683e-06 -8.273336e-07 1.660579e-07
4.706081e-07 4.800421e-08 -4.174423e-07 3.776640e-07 2.924626e-07 4.375313e-07
-1.341928e-06 1.446790e-06 1.193302e-06 1.824723e-06 -4.400137e-07 2.077428e-07
-4.799329e-07 -1.990042e-07 -1.130580e-07 2.486580e-07 -1.560172e-06 -2.652934e-07
2.802690e-07 9.582703e-08 -2.028222e-07 1.473754e-07 1.404439e-07 1.779217e-07
2.149043e-07 1.931834e-07 -1.832611e-07 1.268560e-07 8.425879e-08 7.775876e-08
-8.907336e-07 1.595611e-06 -4.994123e-07 5.602454e-07 -9.413496e-07 -2.274043e-07
6.991361e-07 -9.685242e-07 4.596186e-06 4.732806e-07 -6.889929e-06 -5.657654e-06
-1.028227e-06 2.055527e-06 -2.978618e-07 4.661795e-07 -1.444979e-06 -3.585946e-07
-5.581985e-07 1.895238e-06 -3.145375e-07 6.343585e-07 -1.133564e-06 -2.035151e-07
2.650289e-07 3.022370e-07 -3.339369e-07 6.895335e-07 6.500199e-07 6.213755e-07
-7.452684e-08 8.621152e-07 2.038943e-06 4.648510e-06 -4.273155e-07 7.175897e-07
-3.512248e-08 -2.925280e-07 6.340691e-07 8.668371e-08 7.748390e-07 9.110425e-07
-5.006266e-07 3.989688e-07 -1.848572e-07 3.511355e-07 -1.125726e-06 -2.153169e-07
-3.506918e-06 4.490034e-06 4.498955e-06 -3.031331e-07 1.285864e-07 -1.200646e-06
1.234553e-07 -2.986751e-07 -1.090910e-08 1.060676e-07 2.582911e-07 1.336334e-06
2.842574e-06 -1.708551e-06 5.271367e-07 -1.131249e-07 1.736579e-07 -3.082506e-07
-1.492511e-06 2.369429e-06 -2.734529e-08 2.340426e-07 -8.454983e-07 -1.727196e-07
-1.134013e-06 2.427175e-06 -1.683562e-07 -2.365331e-08 -1.040763e-06 -9.770906e-08
-1.340388e-07 -2.777129e-07 6.211852e-07 2.234237e-07 8.437786e-07 5.720341e-07
-4.170641e-08 -4.480078e-07 4.064022e-06 1.415829e-08 -1.880084e-07 -1.594991e-06
3.014249e-08 -4.798999e-07 4.707120e-07 9.193683e-08 8.276677e-07 8.263124e-07
1.909457e-07 1.177208e-07 -3.503060e-07 8.403922e-07 7.776351e-07 7.530464e-07
5.228872e-07 -3.693046e-08 -3.645298e-07 2.506598e-07 1.931777e-07 3.258134e-07
-1.083197e-06 2.826288e-06 6.519377e-07 2.649913e-06 1.004273e-06 2.311555e-07
1.100621e-07 1.123166e-06 -4.957585e-07 1.239067e-06 9.223533e-07 5.495566e-07
-7.405494e-07 4.106968e-07 3.822331e-06 1.092385e-06 -9.217576e-07 -1.345198e-06
1.122733e-06 -3.558735e-07 -4.443381e-07 7.758229e-07 3.412028e-07 1.145680e-06
-3.558154e-07 -7.885820e-08 1.254953e-06 -5.299601e-08 -1.328684e-06 -7.748053e-07
6.894198e-07 -1.840924e-07 -3.201625e-07 4.215971e-07 3.383841e-07 6.777022e-07
5.447946e-07 -7.616361e-08 -4.011120e-07 5.154392e-07 5.097022e-07 7.525342e-07
-1.083197e-06 2.514891e-06 3.405004e-06 3.467055e-06 3.246155e-07 6.900518e-07
2.038341e-07 -1.273515e-07 -2.339721e-07 1.388479e-07 3.377699e-07 5.516931e-07
-2.861899e-07 -3.196291e-07 1.019853e-06 -2.328963e-08 1.398276e-06 3.875352e-07
8.945627e-07 -1.615834e-07 -6.201161e-07 5.101639e-07 2.096102e-07 5.120129e-07
1.920801e-06 3.611895e-07 -7.942197e-07 1.703049e-06 4.860335e-07 6.346791e-07
5.249359e-07 3.148245e-07 -3.465698e-07 7.474645e-07 7.679623e-07 1.096285e-06
5.615876e-07 -3.089455e-07 -2.707242e-07 4.240341e-07 5.525666e-07 1.100343e-06
-1.696202e-08 6.018542e-07 -4.727761e-07 -6.622822e-07 -7.488915e-07 4.910293e-07
-2.379890e-08 5.780880e-07 -3.640534e-07 -3.081869e-07 -5.508237e-07 4.123493e-07
-3.800241e-07 1.262297e-06 -6.830464e-07 -7.331365e-07 -7.501459e-07 2.373806e-07
-2.541598e-07 9.041475e-07 -7.080009e-07 -5.088770e-07 -7.173956e-07 3.231321e-07
5.592961e-07 -7.429651e-08 -1.895979e-07 1.126381e-07 5.385447e-08 1.521769e-07
3.739711e-06 -2.171025e-06 -1.871605e-07 5.930359e-07 -4.228866e-08 1.047452e-06
5.742280e-07 -1.093420e-07 -2.011068e-07 1.205322e-07 3.428859e-08 1.533889e-07
6.376050e-07 1.285920e-07 -3.925827e-07 4.302642e-07 1.614460e-07 2.117067e-07
-1.304529e-07 -2.613754e-07 -1.023493e-07 -3.309011e-07 -1.022194e-06 5.581962e-07
-3.289739e-07 1.786972e-07 -2.053667e-07 -4.636715e-08 -1.036566e-06 2.138920e-07
-5.195475e-07 2.400605e-06 -4.544594e-07 -9.164118e-07 -1.587419e-06 5.021068e-07
-9.397393e-07 1.650559e-06 -3.617482e-07 -2.235000e-07 -1.462060e-06 -1.818414e-08
4.299749e-07 4.149588e-08 -1.657265e-07 1.040881e-07 2.343845e-08 4.565605e-08
5.391690e-07 1.176821e-07 -3.220332e-07 2.741259e-07 8.510147e-08 1.349105e-07
4.941138e-07 -6.933749e-08 -1.867581e-07 8.556208e-08 2.756383e-08 1.306822e-07
-9.875981e-07 2.971343e-06 -6.668860e-07 -4.794753e-07 -1.154669e-06 1.298998e-07
-8.827084e-07 1.656114e-06 8.033762e-08 -4.511021e-07 -1.799287e-06 2.950332e-07
-1.028213e-06 2.175129e-06 -3.146318e-07 -1.201672e-06 -6.988884e-07 2.248350e-07
5.691478e-07 -6.998281e-08 -2.557131e-07 1.161360e-07 4.186187e-08 1.292979e-07
-5.283264e-07 1.256256e-06 -3.266846e-07 -3.785907e-07 -1.003011e-06 3.416299e-07
1.032898e-06 1.088652e-06 1.657145e-08 -1.966727e-06 3.933896e-07 -3.761428e-07
6.673481e-07 1.511862e-06 1.767634e-07 -1.270719e-06 1.482192e-06 -5.825858e-07
5.998405e-07 -1.629306e-07 -2.237711e-07 -9.238119e-09 2.581472e-08 1.883902e-07
-8.637345e-08 4.489172e-07 -2.363308e-07 -1.047705e-06 1.476497e-06 -6.920831e-07
5.554008e-07 -1.424707e-07 -1.984948e-07 -1.457703e-08 -1.160240e-08 1.681764e-07
-4.137220e-07 1.440062e-06 -1.897045e-07 -1.204498e-06 1.157016e-06 -5.824157e-07
3.249800e-08 1.506972e-06 -5.400050e-07 -1.022875e-06 1.156204e-06 -4.565904e-07
-2.432205e-07 1.357461e-07 -3.379394e-07 -7.907543e-08 -8.069800e-07 2.106094e-07
5.083402e-07 9.201073e-07 2.525486e-07 -2.504986e-06 6.579624e-07 -3.663536e-07
6.480737e-07 2.420157e-07 4.579299e-08 -1.668535e-06 1.805913e-06 -9.635032e-07
-5.093803e-07 1.263952e-06 -4.826183e-07 2.380948e-07 -1.287662e-06 -1.526746e-07
2.868682e-07 2.231263e-07 -5.771845e-07 -8.654620e-07 6.738956e-07 -5.553666e-07
1.179326e-07 9.842095e-07 -2.403861e-07 -1.818964e-06 6.391660e-07 -4.407547e-07
2.932243e-07 1.684271e-07 -2.156835e-07 -1.792845e-07 -1.599293e-07 1.362059e-07
2.375020e-07 1.124532e-07 -2.483010e-07 -1.776455e-07 -2.672171e-07 1.822159e-07
2.282262e-07 3.199277e-07 -4.436856e-07 -3.891498e-07 -3.573720e-07 3.560191e-07
1.425236e-06 7.283588e-07 -5.053711e-07 2.343234e-06 -6.546785e-07 -7.245879e-07
2.221292e-07 -2.237695e-08 -2.746348e-07 -2.149146e-07 -4.606188e-07 4.383500e-07
1.730362e-07 -2.830232e-09 -2.351485e-07 -1.895007e-07 -3.269697e-07 3.841734e-07
-9.449964e-08 -2.184173e-07 1.558966e-06 2.131904e-07 -6.143131e-07 5.071961e-07
4.425385e-07 2.240886e-07 -4.521228e-07 -4.826556e-07 -3.200928e-07 3.563634e-07
-2.950521e-07 2.130151e-09 -2.525606e-07 1.898262e-08 -8.858933e-07 -2.078467e-07
4.611991e-07 1.897819e-08 -2.122389e-07 -1.011443e-07 -4.311765e-08 8.355748e-08
5.140229e-07 6.637684e-08 -2.636435e-07 -1.862178e-07 -6.091801e-08 1.006443e-07
-6.801391e-07 1.365148e-06 -2.631314e-07 1.283990e-07 -1.374176e-06 -1.072918e-07
-1.209895e-06 2.355346e-06 -3.708416e-07 -1.112118e-06 -1.642666e-06 4.166764e-07
5.837909e-07 7.283588e-07 8.319086e-07 2.837327e-06 -8.860522e-07 -5.226068e-07
5.311876e-07 6.573482e-09 -2.663444e-07 -1.279590e-07 -3.760970e-08 6.976406e-08
6.434474e-07 -9.847175e-09 -3.705958e-07 -2.482322e-07 -7.714056e-08 1.688319e-07
4.658497e-07 1.253466e-08 -2.925422e-07 -1.870704e-07 -8.658382e-08 2.206912e-07
-2.936217e-07 1.908795e-07 -2.676656e-07 -3.156079e-08 -8.160629e-07 -1.343876e-07
-1.645457e-06 3.074820e-06 -6.278296e-07 -1.501617e-07 -1.024608e-06 1.278250e-07
-7.415930e-07 2.362849e-06 -6.668282e-07 -1.183679e-07 -7.725832e-07 1.522918e-08
-3.345679e-07 4.791628e-07 3.600748e-07 5.595438e-07 -1.480139e-06 -6.375592e-07
1.660121e-07 5.461811e-07 -6.644592e-07 7.526345e-07 5.867242e-07 4.613106e-07
-7.796418e-08 1.167292e-06 -6.791730e-07 9.307899e-07 7.177075e-07 4.866268e-07
3.746848e-07 -1.501351e-07 -2.501370e-07 3.081171e-07 4.292159e-07 9.875950e-07
3.233353e-07 -5.994654e-07 3.879051e-08 -5.144108e-08 4.288502e-07 1.222323e-06
4.350310e-07 -1.095585e-07 -2.243285e-07 1.275537e-07 9.996032e-08 3.437475e-07
6.618202e-07 -1.558298e-07 -3.254514e-07 5.358337e-08 2.767058e-08 2.221510e-07
5.159450e-07 -2.076132e-07 -2.649601e-07 4.683777e-08 2.997541e-08 3.404769e-07
1.525407e-06 -5.060582e-07 -5.271555e-07 7.149608e-07 3.374319e-07 7.338825e-07
2.035598e-06 -6.071092e-07 -5.540387e-07 2.226441e-07 1.448943e-07 6.970480e-07
2.048253e-06 -9.284702e-07 -5.891574e-07 1.903464e-07 -8.262863e-09 7.061963e-07
2.549512e-06 -8.693511e-07 -7.102228e-07 6.307769e-07 2.756869e-07 8.725682e-07
1.925120e-06 -9.927704e-07 -5.601430e-07 5.108553e-08 -2.018448e-08 7.550284e-07
7.907105e-07 -1.971398e-07 -3.021362e-07 -1.612225e-08 -2.067910e-08 1.510871e-07
7.754225e-07 -7.349745e-08 -3.335063e-07 -2.263818e-07 -4.892280e-08 2.013312e-07
7.901361e-07 -1.379820e-07 -3.578138e-07 1.984112e-07 1.029411e-07 3.401167e-07
8.964405e-07 -1.884601e-08 -4.978870e-07 4.892851e-07 1.276554e-07 2.851864e-07
-4.959702e-07 1.332698e-06 -6.942257e-07 -4.393315e-07 -6.405717e-07 1.798706e-07
6.240169e-07 -4.577620e-08 -2.653561e-07 -1.539217e-07 -1.991857e-08 1.209640e-07
6.256648e-07 -5.840760e-08 -2.815936e-07 -1.556096e-07 -4.223156e-08 1.113929e-07
6.335497e-07 -5.384918e-08 -4.047699e-07 -2.039707e-07 -9.290280e-08 2.421481e-07
5.768548e-07 -5.509269e-08 -2.125670e-07 -1.472973e-07 -1.142808e-07 2.308759e-07
1.591327e-07 5.368267e-07 -4.076761e-07 -8.414910e-07 1.064330e-06 -7.280142e-07
2.608031e-08 6.599767e-07 -5.448856e-07 -6.498016e-07 9.872602e-07 -5.537839e-07
-4.194002e-07 1.379656e-06 2.232147e-06 -3.560449e-06 -5.332744e-07 4.607370e-07
-2.379890e-08 1.158963e-07 -2.888890e-07 -1.171427e-07 -7.165491e-07 5.839429e-07
3.331565e-07 1.855530e-08 -2.352210e-07 -1.844892e-07 -3.179365e-07 3.461133e-07
2.916064e-07 3.439991e-07 -3.037935e-07 -3.471268e-07 -3.366233e-07 2.729696e-07
6.110056e-08 1.213204e-06 -3.431199e-07 -1.518951e-06 9.270147e-07 -5.208018e-07
6.744122e-08 1.914678e-06 -5.652784e-07 -1.585741e-06 1.050284e-06 -5.304114e-07
6.321131e-07 1.480654e-06 -7.544858e-07 -1.607635e-06 1.101146e-06 -6.391339e-07
-1.338466e-08 4.943776e-07 -5.329773e-07 -6.436105e-07 -8.179524e-07 4.744730e-07
-3.012889e-08 -8.070078e-07 -5.374253e-08 -1.969131e-07 7.932606e-07 -6.454132e-07
6.436738e-07 1.341579e-06 -7.520694e-07 -1.632564e-06 6.625534e-07 -5.448181e-07
3.916806e-07 7.250814e-08 -3.568095e-07 -2.356832e-07 -1.788184e-07 2.571276e-07
4.755290e-07 1.584670e-07 -4.700861e-07 -3.587211e-07 -1.995273e-07 2.974274e-07
2.374938e-07 2.387006e-07 -3.459408e-07 -2.665818e-07 -2.664003e-07 2.598612e-07
1.440167e-07 3.953004e-07 -5.075018e-07 -3.561872e-07 -2.849998e-07 2.845792e-07
-1.511922e-07 1.720677e-07 4.381965e-06 8.699888e-08 7.017974e-07 -1.346163e-06
3.479334e-07 3.088609e-07 -4.392584e-07 -3.501770e-07 -1.810537e-07 1.753244e-07
3.804231e-07 1.227555e-07 -2.261147e-07 -2.130376e-07 -1.485804e-07 1.869497e-07
-9.554554e-08 7.733013e-08 2.043762e-06 -2.907661e-07 1.511122e-07 -1.513284e-06
1.245720e-06 3.959808e-08 -5.294413e-07 -1.755502e-06 -6.390871e-07 9.211864e-07
5.915418e-06 -4.031632e-06 3.812251e-06 -1.278541e-06 6.362894e-09 1.969015e-06
-2.267980e-06 3.675981e-06 2.194659e-06 9.209262e-07 5.706308e-07 8.846473e-07
3.717869e-07 1.992215e-07 -3.737508e-07 -2.565776e-07 -1.329066e-07 1.768296e-07
2.746913e-07 2.867741e-07 -3.845937e-07 3.168025e-07 1.432501e-07 1.614859e-07
3.558632e-07 2.565444e-07 -3.073820e-07 3.264676e-07 1.824212e-07 1.928126e-07
2.593539e-06 -1.152768e-06 1.995188e-06 -3.066819e-06 -3.131300e-07 6.622230e-07
-7.780831e-07 -4.553866e-07 1.307301e-05 -4.786753e-07 -7.241954e-06 2.379501e-06
1.981814e-06 -1.249749e-06 1.351723e-06 -2.331964e-06 1.121859e-06 6.874067e-07
2.448259e-07 1.341579e-06 -7.565783e-07 -2.033267e-06 7.638994e-07 -4.854660e-07
2.576436e-06 -7.464016e-07 -2.186697e-07 -2.416510e-06 4.746911e-07 -7.118449e-07
2.150258e-07 2.148425e-07 -2.038992e-07 2.212160e-07 1.607260e-07 1.342096e-07
2.169601e-07 2.790044e-07 -2.023806e-07 1.905059e-07 1.496803e-07 1.372855e-07
-1.877489e-07 -1.516580e-06 1.196850e-05 -4.152522e-06 -1.798610e-05 1.264416e-05
2.478956e-07 3.315225e-07 -3.275094e-07 2.638062e-07 1.282623e-07 1.122423e-07
7.017371e-07 -1.290063e-07 -1.012336e-07 -7.492364e-07 7.429841e-07 -8.769070e-07
1.213587e-08 4.745812e-07 -3.357097e-07 3.620245e-07 5.130467e-07 2.397886e-07
4.004317e-06 -2.866519e-06 7.467548e-07 -2.292157e-06 1.183713e-07 1.581550e-07
-6.908165e-08 7.052627e-08 -2.332346e-07 2.294271e-07 6.480020e-07 3.772202e-07
1.250071e-06 -1.519607e-06 9.193164e-07 3.745813e-07 -1.753669e-07 -1.022060e-07
4.731152e-06 -4.550863e-06 3.400636e-06 4.396645e-07 -2.109731e-08 -1.062746e-07
-5.831590e-07 -4.359575e-07 2.539564e-06 2.806304e-08 -1.694112e-07 7.301316e-07
-6.787583e-07 1.432370e-06 -6.914325e-07 -2.456716e-07 -6.662403e-07 1.113184e-07
-2.151765e-07 1.696927e-07 -2.584458e-07 1.885660e-07 6.095782e-07 4.884779e-07
5.529892e-07 -7.570603e-07 1.082558e-06 2.137377e-08 6.623707e-07 3.169919e-07
5.455011e-07 -3.286513e-07 6.186081e-07 1.434785e-07 -4.836816e-07 4.916360e-07
2.141495e-07 2.705788e-07 -3.407093e-07 2.571101e-07 2.387822e-07 2.612329e-07
-6.948193e-06 -9.353204e-06 2.912751e-05 6.405953e-06 1.865015e-05 4.106672e-05
-8.605494e-07 1.234131e-06 -3.055174e-07 2.967164e-07 -1.279815e-06 -1.371751e-07
3.001084e-07 2.012966e-07 -2.688006e-07 2.261498e-07 1.572647e-07 1.382091e-07
4.171450e-07 2.005769e-07 -3.812114e-07 -2.485711e-07 -1.362328e-07 1.626822e-07
3.004566e-07 1.150655e-07 -2.252679e-07 -1.196961e-07 -1.241295e-07 1.601100e-07
-8.208959e-07 1.993402e-06 -7.360671e-07 -9.621828e-08 -8.021449e-07 -4.597282e-08
1.771790e-07 4.698589e-07 -4.885935e-07 4.129030e-07 3.134378e-07 3.213840e-07
4.277499e-07 1.523197e-07 -3.734600e-07 3.229311e-07 1.596371e-07 2.296493e-07
2.872960e-07 1.183532e-07 -2.093536e-07 1.965807e-07 1.741789e-07 1.770091e-07
3.849136e-07 9.027283e-08 -3.539252e-07 -2.461549e-07 -2.691687e-07 3.283791e-07
-1.592260e-07 5.977963e-07 -3.861414e-07 3.340092e-07 8.322036e-07 5.758335e-07
6.020375e-08 5.139297e-07 -3.833844e-07 5.215071e-07 7.387811e-07 5.235071e-07
-5.487306e-07 1.436106e-06 -3.138726e-07 -1.229962e-07 -8.884292e-07 7.434912e-08
-7.452684e-08 2.007195e-06 1.371703e-06 3.716718e-06 3.276507e-07 7.595161e-08
1.560400e-07 1.268942e-07 -2.529687e-07 1.816672e-07 3.198155e-07 3.517955e-07
3.657136e-07 1.798061e-07 -3.140847e-07 3.262100e-07 2.055398e-07 1.944972e-07
8.372933e-07 -2.145485e-07 -4.299083e-07 4.516366e-07 3.425498e-07 1.009273e-06
3.436927e-07 3.837904e-07 -4.419741e-07 4.158600e-07 1.965178e-07 1.789441e-07
1.231158e-07 1.252798e-06 -6.763358e-07 1.497107e-06 7.012163e-07 5.747685e-07
-1.866294e-07 1.657335e-06 -6.710505e-07 1.253470e-06 8.617339e-07 4.268110e-07
4.328814e-07 3.208420e-07 -4.148567e-07 4.441718e-07 1.624548e-07 2.022978e-07
-1.407585e-07 1.161904e-07 -2.578715e-07 -9.260718e-08 6.759206e-07 -4.189704e-07
4.105503e-06 -1.363515e-06 -1.429753e-07 -8.462139e-07 -2.579413e-07 1.206659e-06
6.784192e-07 -9.700321e-08 -2.681526e-07 9.861014e-08 2.878732e-08 1.398076e-07
2.111230e-07 3.686376e-07 -3.510155e-07 3.578844e-07 2.901507e-07 2.131946e-07
1.689759e-06 -4.146035e-07 -6.840207e-07 -4.887042e-08 -2.757070e-08 6.012843e-07
3.016989e-07 1.821328e-07 -3.478649e-07 3.192757e-07 2.130290e-07 2.421905e-07
8.628272e-07 -2.064982e-07 -3.459471e-07 7.907164e-08 1.873629e-08 2.838301e-07
-1.562774e-07 1.095448e-06 -6.983089e-07 -5.522783e-07 7.887059e-07 -3.297787e-07
1.507170e-07 -2.439861e-07 5.250567e-08 -9.523717e-08 -2.450051e-07 1.567221e-06
9.047053e-07 -1.544244e-07 -4.198659e-07 -1.530926e-07 -4.560907e-08 2.488616e-07
4.297428e-07 -1.951801e-07 -2.411397e-07 -7.777269e-08 -8.854054e-08 4.484850e-07
-5.261823e-08 -2.375231e-07 2.579532e-08 -1.025088e-09 -4.214480e-07 1.462755e-06
-5.138313e-06 -5.237802e-06 3.018136e-05 9.190879e-06 -1.547955e-05 -1.265933e-05
1.675871e-06 -6.266500e-07 -6.831703e-07 1.901911e-08 -1.871073e-08 6.015426e-07
3.555802e-07 -2.187510e-07 -2.478168e-07 -7.637603e-08 -1.445902e-07 7.222035e-07
2.813992e-06 -7.884074e-07 -7.491194e-07 -6.739313e-07 -2.296852e-07 9.929923e-07
-9.440495e-07 -1.110497e-06 1.220155e-05 6.932831e-06 -7.401209e-06 -1.457880e-05
-1.401069e-06 3.665541e-07 3.073092e-05 -2.876617e-06 -5.606820e-06 -2.147947e-05
1.107429e-06 -4.044328e-07 -6.016211e-07 -8.400675e-08 -3.948635e-08 5.264413e-07
-2.966466e-07 -3.880048e-06 1.306163e-05 3.225534e-06 -8.384387e-06 -1.329045e-05
-5.160725e-06 -2.947631e-06 1.807953e-05 3.484481e-06 -9.507404e-06 -8.744468e-06
2.268016e-07 -1.152018e-06 3.794520e-06 2.464612e-07 2.001575e-06 1.738901e-06
3.224891e-06 -4.856715e-06 9.754049e-06 3.355242e-06 -9.655651e-07 -6.009742e-06
4.494071e-06 -6.093225e-06 1.740640e-05 -8.234183e-07 3.049875e-06 -1.199961e-05
-6.412163e-06 -8.286111e-06 4.014271e-05 5.697396e-07 -2.066942e-05 -2.075672e-05
-3.836070e-07 -3.396845e-07 1.050158e-06 7.039022e-08 -1.201590e-06 -6.960998e-07
-4.395301e-07 2.043744e-06 1.401222e-06 3.148707e-06 -5.982975e-07 -4.720865e-07
-8.586800e-07 2.989774e-06 1.064615e-06 -2.018643e-06 -7.499166e-08 -4.814261e-07
-1.170069e-06 1.547629e-06 6.079443e-06 4.245052e-06 7.071252e-07 1.403021e-06
9.721473e-07 -1.966263e-06 1.107186e-05 5.674480e-06 6.333279e-06 9.138047e-06
-1.833059e-06 -5.602946e-06 2.000520e-05 6.279645e-06 2.294385e-06 8.441499e-06
-2.193374e-06 -2.604025e-07 2.003344e-05 -1.174562e-06 1.007193e-05 2.546241e-05
2.823749e-07 -2.002484e-06 1.233935e-05 5.452156e-06 3.147896e-06 3.366702e-06
-2.689360e-06 -3.176014e-06 1.881779e-05 6.493045e-06 7.136725e-06 5.786106e-06
-2.691174e-06 1.990803e-06 7.644857e-06 4.857311e-06 3.238500e-06 1.610780e-06
-3.279223e-06 -2.113540e-06 3.211040e-05 7.866540e-06 1.599831e-05 1.522778e-05
5.803060e-07 -5.333376e-08 -2.400788e-07 1.342704e-07 2.380659e-08 1.154552e-07
1.003819e-06 -1.491230e-07 -5.192870e-07 2.936073e-07 8.809028e-08 3.002582e-07
7.399009e-07 -1.456164e-07 -2.918802e-07 1.099848e-07 2.526302e-09 1.646117e-07
6.751582e-07 -1.463163e-07 -2.833089e-07 3.457335e-08 4.985872e-09 1.754202e-07
6.001120e-07 -1.722547e-07 -2.066984e-07 3.575449e-08 -3.963918e-09 1.884545e-07
1.355937e-06 -2.428458e-07 -6.154492e-07 4.208349e-07 1.301934e-07 4.455799e-07
7.253580e-07 -1.601213e-07 -2.956553e-07 -1.417247e-08 -7.077044e-09 2.786980e-07
-3.410319e-08 -1.779293e-06 1.282323e-05 5.269199e-06 4.095332e-06 7.119855e-06
2.412114e-06 -1.803669e-06 6.775296e-06 2.155590e-06 2.906324e-06 3.189404e-06
2.540840e-06 4.299550e-08 5.256940e-07 3.504539e-06 3.794689e-07 2.607380e-07
2.168381e-06 -5.674108e-07 -7.926237e-07 3.778988e-07 1.169582e-07 7.810732e-07
-3.586652e-06 -2.625708e-06 1.890460e-05 7.437182e-06 7.660352e-06 6.503864e-06
-2.259699e-06 1.771715e-08 5.795777e-06 1.158657e-06 3.734475e-06 2.851048e-06
2.101437e-06 -5.528623e-07 -7.332034e-07 8.934207e-07 3.186271e-07 7.648523e-07
2.790273e-08 -2.364200e-07 1.651510e-07 8.099461e-08 1.722442e-07 1.094062e-06
-2.198202e-07 8.322078e-07 -4.942571e-07 -2.006841e-07 2.782651e-07 -2.090665e-07
2.933662e-07 1.343937e-07 -3.827213e-07 -4.742917e-07 -5.257082e-07 5.036409e-07
6.452716e-07 7.737135e-07 -7.577827e-07 1.184554e-06 5.479775e-07 5.482391e-07
3.736553e-07 4.954521e-07 -4.570614e-07 6.923581e-07 9.799939e-07 7.595114e-07
4.239789e-07 7.113969e-07 -1.565220e-07 2.018549e-06 4.671826e-07 6.540962e-07
4.175911e-07 4.620178e-07 -5.705507e-07 -1.000199e-06 -7.208490e-07 6.676611e-07
9.332796e-08 2.586848e-07 -2.162425e-07 1.428031e-07 1.888696e-07 1.421378e-07
-9.574796e-08 -4.304100e-08 -2.924689e-07 1.784770e-07 5.962066e-07 5.251063e-07
2.950171e-07 6.739900e-07 -5.273601e-07 6.676401e-07 2.186997e-07 1.708516e-07
-7.458384e-09 9.838514e-07 -6.328596e-07 8.911495e-07 1.012974e-06 7.113008e-07
1.690103e-07 -2.592137e-07 -1.646407e-07 -3.190404e-07 -8.644349e-07 7.522427e-07
6.508508e-07 -6.299143e-08 -3.910032e-07 -8.207427e-07 -5.496080e-07 7.205754e-07
-4.352232e-08 8.547591e-08 -3.158077e-07 1.978577e-07 5.853487e-07 5.251152e-07
1.274103e-07 -1.550726e-07 -2.195513e-07 -2.841768e-07 -6.688110e-07 6.997071e-07
1.216781e-07 2.741889e-07 -1.935016e-07 -7.033032e-07 -9.389181e-07 9.187137e-07
-9.134407e-07 1.189919e-06 -2.913716e-07 -2.793670e-07 1.287705e-06 -1.822271e-07
-8.504211e-07 1.991836e-06 -7.323768e-07 -1.379593e-07 7.574380e-07 1.036349e-07
1.663689e-07 2.797119e-07 -3.350477e-07 2.793421e-07 2.292006e-07 2.167573e-07
1.081371e-06 -1.323873e-08 -7.046412e-07 9.276765e-07 3.115005e-07 4.975990e-07
-8.674984e-07 1.546836e-06 -2.913916e-07 2.155434e-07 7.618505e-07 -7.784766e-09
-8.677200e-07 2.106985e-06 -3.071857e-07 2.291106e-07 1.218562e-06 -1.133676e-08
-8.696125e-07 1.587387e-06 -4.060789e-07 1.958829e-07 1.138898e-06 1.475082e-08
2.262958e-07 -4.059268e-07 -6.136276e-07 -4.183172e-08 5.840501e-08 6.491359e-07
1.495087e-06 9.245761e-08 -7.593235e-07 1.113001e-06 3.975318e-07 6.871167e-07
1.729453e-07 -4.387014e-07 -8.644948e-08 1.263616e-07 5.043393e-07 1.043280e-06
-5.356240e-07 -2.151022e-07 2.213717e-06 -1.149406e-07 3.643805e-07 -7.221763e-07
-6.575569e-07 1.794328e-06 -6.020209e-07 -3.391670e-07 8.676514e-07 -1.621318e-07
-1.164680e-05 -8.788052e-06 4.443672e-05 4.181721e-06 1.571746e-05 1.070215e-05
1.701678e-06 -6.934488e-07 -3.526114e-07 -2.393286e-07 1.187854e-07 8.112981e-07
-4.165646e-06 2.617664e-06 7.380602e-06 -4.619024e-06 2.607274e-06 -7.724805e-07
-1.780008e-06 3.251983e-06 1.862852e-06 -2.049017e-06 1.709826e-06 -1.629320e-06
-1.367662e-06 -1.201166e-05 3.513879e-05 5.091292e-06 6.536525e-06 1.075469e-05
1.337392e-06 -3.661555e-07 -4.899704e-07 -7.944513e-08 -6.564704e-08 6.939712e-07
4.290547e-06 -5.102611e-06 1.848184e-06 -8.248931e-07 -4.985235e-06 1.466715e-05
4.086231e-07 -9.643293e-06 2.613480e-05 -3.648413e-06 -2.319882e-06 1.181696e-05
9.468403e-07 -5.584474e-07 -3.385667e-07 -1.903474e-07 -1.127550e-07 8.739498e-07
3.755193e-07 9.761158e-08 -2.894200e-07 -1.736794e-07 -1.147638e-07 1.546763e-07
1.663077e-06 -4.401220e-06 2.399229e-05 -1.741387e-06 2.068255e-05 4.307198e-05
4.675234e-07 -8.472460e-07 3.232900e-06 8.984897e-08 -2.370167e-06 -2.799439e-06
3.269127e-07 1.406596e-07 -2.852804e-07 -1.743413e-07 -9.909492e-08 1.140147e-07
-2.603669e-06 -7.458873e-06 2.559405e-05 1.727153e-06 -5.093742e-06 -2.876656e-05
1.836058e-06 -2.707583e-06 2.825441e-05 -4.131398e-06 -2.026642e-05 -1.801427e-05
4.044588e-07 4.147682e-08 -2.831069e-07 -1.777122e-07 -1.305866e-07 1.831372e-07
1.744253e-06 2.413067e-07 -8.044825e-07 -1.680929e-06 7.664362e-07 -4.757701e-07
-1.159928e-07 -1.288161e-07 4.635846e-07 1.433366e-07 2.070816e-06 3.128279e-09
-2.866488e-07 2.567298e-07 -2.760385e-07 4.669378e-08 6.706365e-07 -2.238961e-07
4.333692e-07 1.303306e-07 -2.877838e-07 -2.402743e-07 -1.339989e-07 1.664140e-07
-1.023776e-06 2.231356e-06 -7.671373e-07 4.891991e-08 9.468474e-07 8.725135e-09
-2.492717e-06 4.114241e-06 3.882280e-06 2.663003e-06 5.251168e-08 3.216991e-07
3.722145e-07 1.955497e-07 -3.039975e-07 -2.531494e-07 -9.798406e-08 1.060366e-07
-1.017297e-06 1.623551e-06 5.812829e-06 5.240131e-06 -4.009052e-07 -1.172533e-06
3.590156e-07 7.653121e-07 -3.362009e-07 9.253718e-07 1.010303e-06 4.921391e-07
3.179594e-07 5.561773e-07 -5.167839e-07 5.861333e-07 3.566009e-07 3.052238e-07
5.581436e-07 1.104665e-07 -3.634938e-07 -2.793656e-07 -1.110612e-07 1.444139e-07
4.515423e-07 1.020009e-07 -4.014416e-07 -2.966963e-07 -1.207406e-07 1.856193e-07
-1.333235e-05 -1.615531e-05 1.046285e-04 7.894622e-08 -1.544069e-05 -2.612250e-05
-1.387343e-05 -2.109724e-05 5.766883e-05 -3.897934e-06 -6.983657e-07 -1.988822e-05
2.350443e-06 -1.981445e-06 2.537546e-06 -2.750128e-06 3.376053e-07 -1.676246e-06
-1.212882e-05 -1.813461e-05 8.514730e-05 1.127621e-06 -6.231344e-06 -3.814393e-05
-4.037390e-07 -2.206931e-07 8.211055e-08 1.040522e-07 -5.874515e-07 1.767262e-07
-8.767849e-07 2.370035e-06 2.809481e-06 -3.974806e-06 -5.283489e-07 -1.910193e-07
-1.010206e-05 -9.742070e-06 5.883957e-05 -9.075356e-06 2.733236e-05 -1.753301e-05
-1.018962e-05 -8.736245e-06 2.575747e-05 -1.072294e-05 9.367249e-06 -2.355691e-05
7.468377e-08 1.000304e-06 -6.292186e-07 -5.074376e-07 4.339836e-07 -2.193239e-07
2.173521e-06 -1.304595e-06 4.358798e-07 -2.622713e-06 -2.964259e-07 -6.711116e-08
2.300672e-06 -2.088424e-06 3.463665e-06 -3.822943e-06 -7.116049e-07 5.204554e-07
2.662628e-07 2.197389e-07 -1.851824e-07 1.637386e-07 9.499321e-08 9.475685e-08
2.430653e-07 1.455812e-07 -2.050297e-07 1.576199e-07 1.262434e-07 1.158015e-07
2.855267e-07 1.840920e-07 -2.566785e-07 1.977732e-07 1.122520e-07 1.185672e-07
1.434437e-06 -1.298349e-07 -3.769472e-07 -1.667669e-06 4.927965e-07 -3.211502e-07
3.733418e-07 7.701133e-08 -1.807131e-07 1.538736e-07 6.659036e-08 1.042054e-07
3.455764e-07 1.894624e-07 -2.552984e-07 1.796120e-07 1.149761e-07 1.093068e-07
3.218396e-07 1.031279e-07 -2.057579e-07 1.341622e-07 8.696996e-08 1.186865e-07
-9.622412e-07 2.901970e-06 -6.998044e-07 5.076223e-07 8.616315e-07 7.366544e-08
1.086391e-06 -1.538649e-07 -4.971994e-07 6.561806e-07 3.260107e-07 7.757145e-07
1.295361e-06 2.543431e-07 -7.542066e-07 -2.110221e-06 8.175685e-07 -6.790614e-07
2.590722e-06 -5.415321e-07 -4.815333e-07 1.785405e-06 4.227926e-07 1.119811e-06
3.870817e-06 -8.381877e-07 -1.408186e-07 -1.921545e-06 4.078141e-07 -3.685118e-07
9.591440e-07 -3.739456e-07 -3.268850e-07 2.742823e-07 2.013614e-07 1.002406e-06
1.679271e-06 -6.370068e-07 -3.961240e-07 1.866370e-08 -1.163622e-07 1.329924e-06
5.179978e-07 -1.285737e-07 -2.676020e-07 2.294616e-07 1.809504e-07 5.657675e-07
9.371872e-07 -4.413690e-07 -3.216359e-07 3.187591e-07 2.255944e-07 9.762689e-07
-3.587845e-08 3.003482e-07 -2.407792e-07 1.241777e-07 3.660203e-07 1.740882e-07
8.310109e-07 -6.228750e-08 -2.825283e-07 6.825757e-07 4.754677e-07 1.292343e-06
1.912096e-06 -9.585861e-07 -4.388232e-07 8.522162e-07 3.283304e-07 9.445192e-07
1.736175e-07 2.751916e-07 -2.024481e-07 1.977591e-07 1.524482e-07 1.082580e-07
3.231817e-07 1.992273e-07 -3.509284e-07 -2.568878e-07 -1.334216e-07 1.656923e-07
1.046042e-07 3.528474e-07 -2.218530e-07 2.232403e-07 2.160353e-07 1.393493e-07
4.550603e-07 1.491644e-07 -4.118666e-07 -3.130160e-07 -1.069871e-07 1.753165e-07
3.797206e-07 4.684434e-08 -1.791510e-07 1.122997e-07 5.747661e-08 1.062803e-07
3.850682e-07 6.802374e-08 -2.120848e-07 -2.295758e-07 -1.558088e-07 2.046215e-07
4.508538e-07 1.469994e-07 -3.206922e-07 -2.555919e-07 -1.089956e-07 1.024100e-07
3.799323e-07 1.109456e-07 -2.213581e-07 -2.051167e-07 -1.510595e-07 1.936567e-07
-1.396113e-07 2.802916e-07 -3.416072e-07 -1.517457e-07 -5.197823e-07 3.807993e-07
4.364887e-07 6.254558e-08 -2.124006e-07 -2.162304e-07 -1.465565e-07 2.179296e-07
4.935606e-07 1.762448e-08 -2.443808e-07 -2.712329e-07 -1.871413e-07 3.396598e-07
3.720203e-07 -2.805437e-08 -2.439835e-07 -1.641824e-07 -1.236908e-07 2.695280e-07
-2.155101e-07 9.147013e-07 -5.418603e-07 -2.213905e-07 4.392929e-07 -1.660572e-07
-1.865086e-06 2.569287e-06 1.998274e-06 3.140724e-07 1.414108e-06 -5.455150e-08
-7.975137e-07 2.599013e-06 -4.007140e-07 8.959411e-07 1.427302e-06 2.177059e-07
-9.701558e-07 1.493550e-06 9.446736e-07 4.435026e-07 7.059581e-07 7.332454e-08
-1.710553e-06 3.540203e-06 2.915523e-07 6.899033e-07 1.324744e-06 7.923935e-08
-1.424960e-06 2.760214e-06 -1.647456e-07 3.087058e-07 5.736387e-07 -2.840282e-08
-5.533727e-07 1.682728e-06 4.987204e-07 1.456834e-07 5.673614e-07 -3.982628e-08
1.888682e-07 3.927085e-07 -7.512440e-07 -8.246898e-07 8.195175e-07 -3.407876e-07
-1.188877e-07 6.990352e-07 -5.033403e-07 -2.137949e-07 4.074778e-07 -1.621079e-07
3.060999e-07 1.170994e-07 -1.816441e-07 1.340478e-07 9.092626e-08 1.012427e-07
-2.586585e-07 1.485765e-07 -1.862557e-07 -6.389324e-08 1.067560e-06 -3.001780e-07
-1.913674e-07 3.890197e-07 -2.789074e-07 -4.825610e-08 4.466146e-07 -1.861467e-07
3.422681e-07 2.199407e-07 -2.521303e-07 1.923374e-07 8.746019e-08 8.414879e-08
3.273121e-07 1.565093e-07 -2.595327e-07 3.165571e-07 2.489023e-07 3.059032e-07
1.300551e-07 -2.039766e-08 -2.394907e-07 2.333498e-07 5.187301e-07 6.256148e-07
3.449520e-07 1.057622e-07 -2.050986e-07 1.738757e-07 9.076315e-08 1.232939e-07
4.045412e-07 1.619354e-07 -2.663120e-07 2.096564e-07 7.415297e-08 1.061142e-07
-5.376373e-07 1.568985e-06 -5.380586e-07 -1.080309e-06 1.062619e-06 -3.808226e-07
3.242164e-07 2.409869e-07 -2.519482e-07 1.996542e-07 6.937730e-08 6.312453e-08
-1.900344e-07 8.936745e-07 -5.146850e-07 -2.831216e-07 4.096852e-07 -1.336695e-07
3.691979e-07 8.374583e-08 -2.664759e-07 -3.369317e-07 -2.237767e-07 4.171063e-07
3.558169e-07 2.564453e-07 -4.063710e-07 3.263996e-07 1.781146e-07 1.896999e-07
2.409066e-07 3.462845e-07 -3.247905e-07 2.676146e-07 1.332525e-07 1.149669e-07
-3.650962e-06 3.820568e-07 1.189203e-05 4.989963e-06 -7.139463e-06 -2.151934e-06
-3.027542e-06 4.553131e-06 4.656447e-06 -1.714801e-06 -4.166530e-06 2.009743e-06
4.782192e-07 6.729589e-09 -1.868384e-07 -1.202156e-07 -2.539023e-08 9.455701e-08
2.970866e-07 -2.972997e-08 -2.638251e-07 -1.476627e-07 -2.346963e-07 4.027410e-07
-8.753442e-07 1.094273e-06 -2.549682e-07 -1.632100e-07 -1.407980e-06 -1.249920e-08
-7.124833e-07 2.297475e-06 6.061210e-06 1.426723e-06 -8.483901e-06 -1.904953e-06
-1.071596e-05 2.656232e-06 2.157484e-05 1.770047e-06 -1.075623e-05 -2.178759e-06
7.046972e-07 -1.354348e-07 -3.026801e-07 -1.679904e-07 -1.656588e-07 4.786812e-07
-3.515382e-06 1.338698e-06 1.307091e-05 4.881995e-06 -1.360880e-06 -4.247774e-06
-3.642723e-06 2.412080e-06 8.575377e-06 4.836722e-06 -3.317779e-06 -2.253378e-06
-5.339819e-06 3.341860e-06 6.559249e-06 1.766313e-06 -8.598716e-07 -7.161307e-07
1.311696e-06 -6.352329e-07 -4.070451e-07 -1.943432e-07 -2.841771e-07 1.110433e-06
7.285867e-07 -1.938249e-07 -2.424125e-07 1.757079e-08 3.624055e-09 4.113005e-07
5.163853e-07 -2.477570e-08 -1.899046e-07 -1.191663e-07 -5.965812e-08 1.431691e-07
-2.814217e-06 1.726720e-06 9.141579e-06 1.565863e-06 -1.916551e-06 2.063171e-06
2.124895e-07 -4.948490e-07 1.718584e-07 1.632699e-07 -6.567727e-07 -1.617128e-08
-6.827426e-06 5.313649e-06 1.227358e-05 2.258975e-06 -1.282403e-05 2.215022e-06
2.260350e-06 -2.811657e-07 4.916770e-07 2.662192e-06 -4.629473e-07 -8.364314e-07
-1.482278e-06 2.476725e-06 6.164062e-07 4.579985e-07 -5.661684e-07 1.084064e-07
-2.934970e-06 2.988550e-06 4.855874e-06 2.255986e-06 -2.512311e-06 -2.687893e-07
-2.115088e-06 2.767081e-06 3.718136e-06 3.608802e-06 1.410374e-06 4.341640e-07
2.568446e-06 -2.467576e-06 3.752449e-06 -1.539193e-06 1.601044e-06 -1.232365e-06
2.745819e-06 -2.347183e-06 1.087966e-06 2.981768e-07 5.901470e-07 -6.822991e-08
1.855979e-06 -3.844124e-06 8.590868e-06 -5.398883e-07 1.431684e-06 -8.583009e-07
3.907194e-06 -2.534039e-06 3.180927e-06 5.009272e-07 2.565681e-07 -1.735990e-06
-1.727617e-07 -3.643354e-07 2.437376e-07 1.542938e-07 -8.759451e-07 8.022177e-08
3.874263e-06 -2.184899e-06 7.182534e-07 8.483767e-07 1.654000e-07 1.224195e-07
4.287945e-06 -4.447790e-06 5.653618e-06 8.858865e-07 -3.046323e-07 -1.156675e-06
3.837763e-06 -2.303451e-06 5.232566e-06 -3.181982e-06 4.866111e-06 -7.537818e-06
-1.205445e-07 -1.622092e-07 3.417931e-07 -7.824064e-08 -4.574664e-07 1.467654e-06
1.294281e-06 -5.779231e-07 1.625709e-07 -1.360500e-06 -6.291680e-07 1.524693e-06
3.315447e-06 -1.500685e-06 2.848099e-07 2.293071e-06 3.044993e-08 1.008778e-06
2.509813e-06 -2.141216e-06 2.756594e-06 -2.983240e-07 2.397657e-07 -5.483416e-07
-1.920446e-05 -1.622999e-05 7.622327e-05 -5.458970e-06 -1.603388e-05 2.546995e-05
4.513589e-06 -4.208241e-06 3.500123e-06 3.879979e-07 1.084126e-07 -1.790591e-06
-2.312263e-05 -1.913770e-05 1.000423e-04 -2.309887e-06 1.731495e-05 -1.429927e-06
2.369638e-06 -1.489312e-06 -1.628016e-07 -2.055768e-07 5.773911e-08 1.471170e-06
4.931103e-06 -2.320116e-06 2.613015e-06 -8.805175e-07 8.469907e-07 -2.899127e-06
1.773123e-07 1.494713e-07 -2.344523e-07 -1.279855e-07 -1.938573e-07 1.832811e-07
-1.918667e-06 3.423435e-06 -2.805029e-07 -1.490858e-06 -1.129862e-06 8.815085e-08
2.932808e-07 2.498927e-07 -2.305290e-07 -2.473117e-07 -1.869685e-07 1.955513e-07
1.747300e-06 2.071926e-07 4.654920e-06 -3.879499e-06 -1.799296e-06 2.183550e-06
5.585993e-07 1.345504e-07 -3.438636e-07 -2.870665e-07 -8.913154e-08 1.382251e-07
7.807063e-07 -2.555084e-07 3.776055e-06 -2.258080e-06 2.656085e-07 8.789053e-07
5.927211e-07 3.336301e-07 -5.157008e-07 -5.491897e-07 -2.312880e-07 2.616919e-07
3.570925e-07 -2.924860e-07 1.747524e-06 -1.265607e-06 -3.361222e-07 7.027000e-08
2.560530e-06 -1.939991e-06 3.427027e-06 -3.669612e-06 -5.996022e-07 8.854657e-07
1.934057e-06 -3.356414e-08 -1.831437e-07 -1.840103e-06 2.150167e-07 -1.329755e-06
-2.010847e-07 1.561615e-06 1.020694e-06 2.386182e-06 2.586517e-07 3.909678e-07
9.181654e-07 5.633259e-07 -5.958516e-08 1.297048e-06 8.157255e-07 5.780889e-07
1.829782e-07 4.785022e-07 4.704680e-07 2.212559e-06 6.066726e-07 5.618408e-07
1.567270e-07 9.840892e-07 -8.442900e-07 -8.619628e-07 5.685098e-07 -3.663398e-07
-4.658127e-07 9.790821e-07 6.781735e-07 1.077086e-06 1.556465e-06 5.267028e-07
-4.721352e-07 1.014723e-06 9.685964e-07 1.264229e-06 5.484928e-07 5.165864e-07
5.209698e-07 7.332621e-08 -2.935333e-07 -2.472014e-07 -1.478156e-07 1.944004e-07
4.475396e-07 5.019677e-08 -2.306493e-07 -1.105294e-07 -5.187245e-08 6.522471e-08
1.981187e-07 1.585723e-07 -2.260769e-07 -2.561465e-07 -2.403154e-07 3.215180e-07
4.440348e-07 9.036903e-08 -2.713121e-07 -2.142423e-07 -5.313637e-08 9.169606e-08
6.300145e-07 -9.167527e-08 -4.529107e-07 -2.571695e-07 -1.439380e-07 3.893829e-07
4.447123e-07 7.061411e-08 -3.403153e-07 -2.091776e-07 -8.791038e-08 1.229539e-07
-8.911371e-07 2.068490e-07 -1.250850e-07 8.272636e-08 9.973266e-07 6.358700e-07
-3.895265e-07 1.561453e-06 -2.156625e-07 1.281414e-06 1.296794e-06 8.094668e-07
-4.552050e-07 1.518462e-06 -5.274003e-07 1.210739e-06 6.519372e-07 4.369605e-07
-2.197351e-07 1.419833e-06 -7.132215e-07 7.901342e-07 6.256215e-07 3.242636e-07
1.378609e-06 -2.823150e-07 -6.406309e-07 -3.692481e-07 -7.083280e-08 4.137729e-07
-9.450912e-07 1.796648e-06 -4.486648e-07 6.491966e-07 9.819208e-07 4.409550e-07
1.158871e-06 -4.056547e-07 -4.876990e-07 -6.440938e-07 -2.190469e-07 7.618500e-07
-4.140221e-07 1.040848e-06 -7.020189e-07 -1.916583e-07 7.338478e-07 -1.245031e-07
1.578149e-06 -6.109634e-07 -6.461324e-07 -2.080711e-07 -6.061926e-08 5.996700e-07
1.705602e-08 5.501110e-07 -5.606510e-07 -5.050146e-07 -6.761344e-07 4.777341e-07
-5.431863e-06 1.000790e-06 1.513092e-05 1.086279e-06 -2.304374e-05 -6.074887e-06
2.962806e-07 3.243240e-07 -4.524395e-07 -8.024538e-07 -7.547639e-07 5.864749e-07
1.551212e-07 3.352973e-07 -2.874319e-07 -5.278379e-07 -6.935233e-07 6.167179e-07
-3.369208e-06 2.110989e-06 2.623522e-05 -5.651893e-07 -4.278546e-06 2.606051e-05
-6.372658e-06 4.510936e-06 1.588639e-05 8.409763e-07 -7.193455e-06 -3.693982e-07
-1.236374e-05 -2.570144e-06 4.050136e-05 -5.662634e-06 -4.302608e-05 2.188909e-05
1.790928e-07 -8.336434e-08 -2.593794e-07 -2.575583e-07 -6.470683e-07 5.055470e-07
-1.722227e-05 -1.321979e-05 5.911545e-05 -3.013669e-06 -3.136617e-05 1.364926e-05
-1.350809e-08 -8.797931e-08 -2.377286e-07 -2.587491e-07 -8.181194e-07 5.431566e-07
-1.797279e-06 -6.713855e-06 3.137751e-05 -7.090119e-06 -1.161745e-05 1.742022e-05
4.719657e-08 5.200801e-07 -2.908630e-07 -6.197258e-07 -9.084504e-07 6.978858e-07
-4.288405e-06 -2.774557e-06 2.825628e-05 -8.635123e-06 -2.208022e-05 1.201726e-05
7.138401e-07 -1.754525e-07 -2.892482e-07 -4.007204e-08 -2.290711e-08 2.790375e-07
2.690386e-06 -7.932748e-07 -3.919459e-08 2.380521e-06 -6.231740e-07 -4.351051e-07
9.969210e-07 -2.844831e-07 -4.911726e-07 -7.208682e-08 -5.440881e-09 3.168713e-07
-4.475243e-07 1.970785e-06 -1.990487e-07 1.775895e-06 -7.619940e-07 -4.546906e-07
4.381612e-06 -3.317942e-06 3.689136e-06 3.001739e-06 7.873522e-08 1.307641e-06
4.068042e-06 -3.317942e-06 4.029180e-06 2.013395e-06 1.785364e-07 -3.602732e-07
3.847944e-06 -1.860402e-06 2.743410e-07 2.179294e-06 -4.391714e-07 -2.268581e-07
8.700402e-07 -2.351347e-07 -2.955954e-07 7.698887e-09 1.234114e-08 6.188084e-07
8.083546e-07 -2.035247e-07 -2.725653e-07 8.371403e-08 3.619947e-08 4.228193e-07
8.126406e-07 -2.582054e-07 -4.621127e-07 -5.419687e-08 -6.491745e-08 6.811963e-07
1.098353e-06 -3.902058e-07 -4.728462e-07 -7.991099e-08 1.291692e-08 5.158593e-07
8.749490e-07 -2.290819e-07 -3.402306e-07 2.976142e-08 1.496105e-08 2.672551e-07
6.999525e-07 -2.504185e-07 -2.404152e-07 -3.423444e-08 -4.475774e-09 4.115869e-07
2.524301e-06 -5.602946e-06 9.180703e-06 4.880904e-06 2.809257e-06 2.824753e-06
6.298178e-07 5.584247e-07 -3.802866e-07 9.178638e-07 1.194410e-06 9.100355e-07
-2.129558e-07 6.322274e-07 4.206914e-08 1.269749e-06 7.156729e-07 5.904380e-07
-6.743964e-07 2.026786e-06 2.705029e-08 1.765983e-06 5.460806e-07 3.226451e-07
-1.069672e-06 2.058568e-06 6.653632e-07 1.899551e-06 7.663932e-07 2.537650e-07
-1.732773e-07 1.562807e-06 2.999195e-07 2.379074e-06 2.368788e-07 3.931021e-07
1.687389e-07 1.816738e-06 -7.703240e-07 1.604140e-06 8.025926e-07 4.904013e-07
-2.126701e-05 -2.550615e-05 8.492365e-05 -7.740903e-06 1.623786e-05 -2.066372e-05
-1.629673e-08 8.943098e-07 -6.712351e-07 -4.081972e-07 5.033083e-07 -2.867683e-07
1.000037e-06 -1.411604e-06 2.453220e-05 -1.426391e-06 3.187186e-05 7.244544e-06
2.035091e-07 3.336728e-07 -2.617850e-07 3.379594e-07 3.663164e-07 2.874911e-07
-1.924261e-05 -8.788052e-06 6.633899e-05 4.067319e-06 1.648146e-05 -8.567000e-08
-1.460300e-05 1.370376e-07 4.266432e-05 -1.448330e-06 4.606902e-05 3.998916e-06
-2.844930e-07 -2.089923e-06 1.183363e-05 2.655241e-07 1.132115e-05 5.680348e-06
3.124910e-07 3.941225e-07 -3.852757e-07 5.674098e-07 7.791102e-07 6.285674e-07
-6.925778e-07 -1.043373e-06 1.494428e-05 -1.122036e-06 -7.264538e-07 1.147705e-05
3.511924e-08 1.388644e-07 -2.356814e-07 1.707561e-07 3.930501e-07 3.752093e-07
2.923043e-06 -3.481719e-06 8.042428e-06 5.072536e-06 8.600418e-06 8.778794e-06
3.740728e-07 3.813322e-07 -3.359917e-07 4.782178e-07 5.479232e-07 4.352962e-07
-1.016626e-05 -3.176014e-06 2.110623e-05 7.064336e-06 7.160608e-06 4.657489e-06
-1.592260e-07 4.463990e-07 -3.873538e-07 4.323866e-07 8.185082e-07 5.860318e-07
-4.697609e-06 -1.683243e-05 4.872323e-05 -1.601613e-06 4.698044e-06 -1.387338e-05
2.023749e-07 6.675709e-07 -5.345568e-07 6.702078e-07 5.597812e-07 3.753374e-07
6.343088e-07 -1.601511e-07 -2.056435e-07 -1.137637e-08 -3.392144e-10 1.722027e-07
-6.691545e-06 -1.780563e-05 5.211659e-05 5.475464e-07 -1.270460e-05 -3.261015e-05
6.520885e-07 -1.335348e-07 -2.010442e-07 -4.581411e-08 -1.920602e-08 1.508500e-07
-2.368993e-05 -1.710511e-05 9.506216e-05 4.243359e-06 -1.126100e-05 -3.609715e-05
-4.542449e-07 -2.319431e-06 8.845570e-06 4.027307e-06 -2.408931e-06 -9.733986e-07
9.967532e-07 -2.255053e-07 -4.811539e-07 -7.355903e-08 -4.351677e-08 3.195477e-07
7.114492e-07 -2.096952e-07 -3.458232e-07 3.244028e-08 5.633864e-09 2.253238e-07
6.438783e-07 -1.574337e-07 -2.080844e-07 -5.999387e-08 -3.327693e-08 1.419988e-07
6.850113e-07 -1.990356e-07 -2.312346e-07 -2.798330e-08 -3.399220e-08 3.969471e-07
5.268616e-07 -1.905887e-07 -2.472059e-07 -1.445773e-08 6.999525e-09 3.122229e-07
-1.087869e-07 7.821736e-07 -6.213370e-07 4.020799e-07 5.008072e-07 2.682324e-07
-1.297946e-07 3.261715e-07 -2.455139e-07 1.104361e-07 4.160345e-07 1.842141e-07
-4.065203e-07 1.359408e-06 -7.137195e-07 4.589217e-07 6.276208e-07 1.896935e-07
1.481007e-06 -1.188317e-06 3.853290e-06 2.601140e-06 -1.047252e-06 -2.708907e-07
2.174185e-06 3.742797e-07 7.053121e-07 1.648776e-06 8.157083e-07 4.261428e-07
7.279577e-07 7.068387e-07 1.361946e-06 2.515508e-06 1.461579e-06 6.212688e-07
6.339868e-07 6.884909e-07 1.665379e-06 2.471172e-06 1.809955e-06 1.764820e-06
4.499858e-07 -1.610843e-08 -1.717290e-07 9.693976e-08 3.213448e-08 9.121419e-08
1.503622e-06 -7.768024e-07 3.561504e-06 2.016446e-06 3.417180e-07 -2.382787e-07
-1.460078e-05 4.406886e-06 3.994433e-05 5.709220e-06 -2.889045e-05 -4.539390e-06
6.638157e-08 8.882705e-07 -5.466325e-07 5.397359e-07 4.117037e-07 1.532858e-07
7.209471e-08 4.313752e-07 -2.532683e-07 3.257415e-07 3.220081e-07 2.266676e-07
-6.302343e-06 1.970440e-06 1.281946e-05 -5.430411e-06 -7.357975e-06 2.432723e-06
-2.410481e-06 -6.649458e-07 4.681319e-06 -1.469481e-06 -3.876913e-06 -1.515888e-06
4.781688e-07 -4.648963e-08 -1.875546e-07 9.050387e-08 3.211868e-08 1.170578e-07
-2.421230e-06 1.026356e-06 1.206939e-05 -3.159290e-06 -5.122278e-06 5.908697e-07
-3.097522e-06 2.354245e-07 1.240496e-05 -4.677918e-06 -2.738093e-06 2.987803e-06
-6.779490e-08 2.734493e-07 -2.418574e-07 1.398800e-07 3.945904e-07 1.650288e-07
-5.011083e-08 9.400654e-07 -6.094663e-07 5.200272e-07 4.136776e-07 2.408535e-07
-9.901859e-08 9.952524e-07 -6.202544e-07 5.768662e-07 4.674950e-07 2.643838e-07
-1.592260e-07 1.856704e-07 -2.534962e-07 1.523959e-07 6.081861e-07 3.344217e-07
-1.269413e-06 1.776490e-07 -3.090524e-08 1.545393e-07 1.065594e-06 9.294927e-07
-5.011083e-08 1.083267e-06 -6.094742e-07 6.686485e-07 4.243938e-07 2.407984e-07
3.050645e-07 4.180834e-07 4.161992e-08 9.491780e-07 6.789309e-07 4.116731e-07
-1.441866e-07 1.233601e-07 -2.549670e-07 1.065793e-07 5.491543e-07 2.205983e-07
-2.623602e-07 4.268918e-07 -2.652424e-07 6.922138e-08 5.173255e-07 1.670952e-07
-1.262615e-05 6.090934e-06 2.785022e-05 -2.095524e-06 -2.450380e-05 6.517697e-06
-2.597843e-06 6.167305e-06 9.606207e-06 -8.691060e-08 -1.241641e-05 -1.424080e-06
1.609882e-07 5.539365e-07 6.584344e-07 1.547735e-06 1.001675e-06 7.243564e-07
-1.202499e-05 -1.166988e-05 5.104329e-05 -7.289786e-06 -8.282238e-06 1.278552e-05
-9.327377e-06 -3.913878e-06 4.578775e-05 2.356071e-06 -5.030855e-05 -7.990690e-06
-5.290035e-06 5.538058e-06 8.416654e-06 2.674445e-06 -6.020323e-06 -1.021145e-06
6.319807e-07 1.587788e-07 -1.627625e-07 9.280918e-07 1.162258e-06 1.428717e-06
1.969441e-08 7.371781e-07 -3.989252e-07 1.581617e-06 6.355620e-07 5.766589e-07
1.527484e-07 2.779606e-07 -1.270952e-07 1.267583e-06 8.081738e-07 7.380092e-07
1.338382e-07 1.792571e-07 -2.227711e-07 1.682019e-07 2.063738e-07 1.705350e-07
5.381006e-07 -6.468679e-08 -2.122139e-07 1.849606e-07 9.853798e-08 2.047355e-07
-6.942652e-07 5.235088e-08 7.060507e-07 7.247815e-07 6.599484e-07 6.159198e-07
1.012173e-06 -7.703185e-08 -5.592548e-07 5.826400e-07 1.618008e-07 3.894055e-07
5.039137e-07 -5.206732e-07 -1.466356e-07 5.157198e-07 6.465585e-07 8.453957e-07
1.657942e-06 -9.897328e-07 -2.809121e-07 -2.897472e-08 -9.643501e-08 8.541741e-07
1.329224e-06 -1.171172e-06 3.101538e-06 -2.852184e-06 -7.202067e-07 8.403591e-07
2.235654e-07 2.895286e-07 -2.730002e-07 1.947595e-07 1.006908e-07 9.376176e-08
3.356308e-07 -4.983188e-08 -2.408236e-07 1.781419e-07 1.720695e-07 3.994890e-07
-1.294036e-06 2.262509e-06 -8.324469e-08 1.027471e-06 7.245889e-07 5.136679e-08
-3.665738e-09 1.443642e-06 8.896163e-08 -1.514561e-06 1.343723e-06 -8.806463e-07
1.111063e-06 1.405981e-06 8.576528e-07 -3.270851e-06 5.569538e-07 -2.822161e-07
-7.139291e-07 2.154759e-06 -5.576330e-07 1.168642e-06 1.043754e-06 3.270539e-07
-3.408038e-07 -7.182298e-08 1.404913e-08 8.798318e-08 1.138328e-06 4.056610e-08
-6.655241e-07 1.099223e-06 -4.651858e-07 3.351872e-07 1.159494e-06 1.653243e-07
-4.683032e-07 1.145063e-06 -1.477507e-07 5.442002e-07 7.731289e-07 3.812652e-07
-8.437870e-07 1.574655e-06 -2.864350e-07 1.133835e-06 7.711167e-07 3.502063e-07
4.856565e-08 1.429157e-06 -3.374863e-07 1.758416e-06 4.967757e-07 3.672383e-07
-7.139291e-07 2.639681e-06 -5.427763e-07 1.544078e-06 7.421091e-07 3.176177e-07
-9.993129e-07 1.413675e-06 5.637101e-07 -1.681347e-06 1.388121e-06 -8.205748e-07
-2.043945e-07 1.071106e-06 -7.161235e-07 6.206376e-07 7.376194e-07 3.218535e-07
4.770253e-07 4.623004e-07 -1.978906e-08 -2.319536e-06 -2.546848e-07 -5.966013e-07
1.102993e-06 5.523321e-07 1.951185e-06 -3.168616e-06 -1.241576e-06 7.594469e-08
-2.332319e-07 8.606650e-07 -3.758252e-07 3.321822e-07 8.302229e-07 3.614374e-07
-9.200015e-08 -3.034318e-06 5.745950e-06 1.242874e-06 2.309910e-07 -3.650105e-06
-7.370074e-08 1.427425e-06 -7.518862e-07 1.059288e-06 5.490981e-07 2.867532e-07
2.436508e-07 3.676280e-07 -3.668955e-07 2.888987e-07 1.424793e-07 1.533543e-07
-1.346312e-08 -5.125180e-07 3.171800e-06 3.393819e-06 -9.736496e-08 -3.280376e-07
3.803383e-07 8.168260e-08 -1.749846e-07 9.227638e-08 3.897334e-08 4.559497e-08
2.904859e-06 -2.257885e-06 3.260709e-06 2.744935e-06 -7.222101e-07 -1.001608e-06
3.575258e-07 2.397034e-08 -1.704695e-07 1.392629e-07 8.542461e-08 1.360733e-07
4.180266e-06 -7.030902e-06 1.154572e-05 2.827981e-06 -1.078943e-06 -4.592188e-06
-5.278899e-06 3.597568e-06 1.747347e-05 6.005936e-06 -1.233424e-05 -8.825250e-06
-6.268938e-06 -1.193565e-06 3.241992e-05 6.026346e-06 -1.210522e-05 -1.385727e-05
-1.845497e-05 -1.558181e-05 6.399186e-05 6.590696e-06 2.605842e-05 1.538862e-05
-8.690812e-06 -2.111816e-05 1.006036e-04 4.460985e-06 5.568975e-06 2.938515e-05
-8.965924e-06 -8.490376e-06 6.464353e-05 3.855372e-06 3.190217e-05 2.286489e-05
-1.796034e-07 1.739699e-07 -3.117448e-07 3.782743e-07 8.542676e-07 7.884698e-07
1.231158e-07 1.242211e-06 -7.175871e-07 1.188471e-06 6.748741e-07 3.937612e-07
-3.004318e-07 -1.112162e-07 -5.697952e-09 5.138954e-08 1.532201e-06 6.664649e-07
3.592605e-06 -1.315270e-05 2.260093e-05 3.850095e-06 2.181495e-06 1.561812e-05
2.257285e-07 3.932604e-07 -5.063723e-07 6.443494e-07 6.394986e-07 4.844503e-07
-8.667648e-08 1.971268e-07 -2.008637e-07 1.239149e-07 6.471992e-07 3.973617e-07
-7.897796e-07 -7.675234e-06 2.620163e-05 6.766333e-06 8.727348e-06 1.243427e-05
-3.004318e-07 4.012640e-08 3.709192e-08 9.078265e-08 8.570244e-07 6.652121e-07
-3.564414e-07 1.337071e-06 -6.781678e-07 8.987562e-07 5.933154e-07 3.499572e-07
-4.069611e-06 -9.061773e-06 4.016511e-05 3.992629e-06 2.091478e-05 2.520086e-05
-2.493317e-09 -1.828142e-05 4.167577e-05 -4.879761e-07 8.315001e-06 2.375951e-05
2.409066e-07 3.060420e-07 -2.929565e-07 2.397678e-07 1.162126e-07 7.574496e-08
1.033162e-06 -1.815947e-05 2.787458e-05 -9.866320e-07 8.465268e-06 1.939915e-05
4.387453e-07 3.211101e-07 1.599837e-06 3.123828e-06 -6.458748e-07 -8.929189e-07
-2.559087e-08 -1.573479e-06 1.888305e-06 8.514471e-07 1.550932e-06 1.361811e-06
-2.134741e-06 3.806522e-06 3.941627e-06 -3.288562e-06 -1.958854e-07 2.322112e-07
1.819691e-06 -5.350609e-07 8.549720e-07 1.870118e-06 -6.183336e-07 -1.556886e-06
-8.701837e-07 2.460735e-06 -4.862739e-07 4.104543e-07 -8.623920e-07 -1.775665e-08
-4.244458e-07 -3.492474e-07 5.245023e-06 3.493693e-08 -2.461743e-06 -1.685218e-06
-5.564586e-07 -1.738643e-06 1.000058e-05 -1.953028e-06 -7.183227e-06 -4.423455e-06
-1.247628e-06 5.406124e-07 4.533254e-06 4.542943e-07 -2.421823e-06 5.986757e-07
4.794447e-07 -4.988218e-08 -1.961071e-07 9.017894e-08 4.141425e-08 1.132458e-07
4.538437e-07 1.119264e-07 -2.543929e-07 2.080853e-07 4.652643e-08 5.856159e-08
-1.166595e-06 2.801830e-06 -6.601551e-07 2.321010e-07 -9.217038e-07 -1.297404e-07
-7.110917e-07 1.326268e-06 -4.782448e-07 1.853078e-07 -1.223833e-06 -1.888906e-07
-1.097038e-06 3.285189e-06 -6.852950e-07 1.950666e-07 -1.147233e-06 -2.507008e-08
5.827763e-07 -2.781933e-08 -2.374994e-07 1.258329e-07 3.193121e-08 1.128182e-07
8.382045e-08 5.938830e-07 -3.047281e-07 -7.425170e-07 -8.683157e-07 9.591649e-07
2.172362e-07 3.582037e-07 -4.516150e-08 -9.870222e-07 -6.399709e-07 9.060614e-07
7.243363e-08 4.378598e-07 -3.168298e-07 -8.473401e-07 -9.685142e-07 9.158946e-07
2.604631e-07 -4.395655e-07 2.610400e-08 -3.952183e-07 -9.249347e-07 9.204631e-07
-3.952508e-08 2.127725e-06 -2.255836e-07 -2.130354e-06 -9.778766e-07 5.841101e-07
-2.670132e-07 8.953548e-07 -3.114418e-07 -5.365646e-07 -8.834958e-07 7.683658e-07
-8.489459e-07 -3.785229e-07 2.527466e-06 9.067540e-08 -5.161239e-07 -2.436161e-07
-1.002158e-06 2.649398e-06 -2.000390e-07 -1.961057e-06 -8.178913e-07 3.404865e-07
6.332151e-07 9.975086e-07 -4.526885e-07 -1.864677e-06 -7.240523e-07 4.927620e-07
5.233633e-07 -7.148243e-08 -1.868114e-07 1.351047e-07 5.090579e-08 1.367152e-07
1.692667e-07 5.705798e-07 1.488473e-07 -1.604817e-06 -6.463071e-07 5.609197e-07
1.070123e-06 1.305150e-06 5.464185e-07 -2.815784e-06 -3.805022e-08 -1.717057e-07
-2.581811e-07 1.157373e-06 5.715169e-07 -3.290522e-06 4.237879e-08 2.030960e-07
-1.655714e-07 2.296808e-07 -3.473442e-07 -1.369199e-07 -5.968589e-07 3.500313e-07
1.049064e-07 1.412872e-06 1.965319e-08 -9.357239e-07 -1.084628e-06 6.741401e-07
3.333192e-08 1.066580e-06 -3.272945e-07 -1.445059e-06 -6.442639e-07 3.282177e-07
-1.458036e-06 2.783722e-06 -2.765830e-07 -7.742679e-07 -6.765360e-07 2.122049e-07
4.120768e-06 -3.673102e-06 3.827123e-06 -2.328421e-06 4.696585e-07 -2.315417e-06
1.917055e-06 -1.684066e-06 2.264526e-06 -2.247221e-06 3.406294e-07 -1.079049e-06
1.650971e-07 2.462408e-07 -2.676952e-07 -2.156174e-07 -2.170497e-07 2.740023e-07
1.736468e-06 -4.664493e-07 2.507682e-06 -2.385069e-06 7.755089e-07 -3.111925e-07
4.491170e-06 -4.920697e-06 6.428553e-06 -1.521133e-06 4.121923e-07 -7.534808e-07
-1.597574e-06 3.965570e-06 4.018537e-10 6.754938e-07 -1.105570e-06 -8.996516e-08
-1.338876e-07 -2.326823e-06 3.721005e-06 4.402200e-07 3.354602e-07 -3.822364e-07
-5.487306e-07 1.518805e-06 -6.782359e-07 -1.243924e-07 -7.141465e-07 6.725395e-08
-3.103541e-07 2.719443e-07 -3.289360e-07 -3.509722e-08 -8.764590e-07 1.190339e-07
2.235654e-07 2.584247e-07 -2.520870e-07 1.790753e-07 1.325962e-07 1.304471e-07
2.771960e-07 2.070926e-07 -2.021475e-07 2.200156e-07 1.699895e-07 1.639232e-07
4.456844e-07 -7.352032e-08 -2.262020e-07 1.223644e-07 5.996326e-08 1.920341e-07
4.041547e-07 1.910833e-07 -3.271114e-07 2.681865e-07 1.215679e-07 1.551085e-07
2.412240e-07 2.971178e-07 -3.007380e-07 3.175569e-07 1.986403e-07 1.628909e-07
2.577173e-07 1.416827e-07 -1.841296e-07 1.811957e-07 1.105127e-07 1.460558e-07
3.264671e-07 3.154044e-07 -3.400713e-07 2.751870e-07 1.097680e-07 1.057098e-07
4.893210e-07 -1.152397e-07 -2.209674e-07 -8.707033e-08 -6.365183e-08 2.111291e-07
3.982288e-07 -5.641162e-08 -2.185680e-07 -1.174280e-07 -7.697128e-08 2.220729e-07
6.561497e-07 -8.404466e-08 -3.913554e-07 -1.892444e-07 -7.626693e-08 2.853701e-07
8.051934e-07 -1.615799e-07 -2.875917e-07 7.060558e-09 -3.222247e-09 1.517400e-07
9.558751e-07 -2.053977e-07 -4.646291e-07 -1.524934e-07 -6.850754e-08 2.985405e-07
-3.317225e-09 6.806320e-07 -1.968611e-07 1.874409e-06 -5.707671e-07 -4.756473e-07
6.904051e-07 -1.109060e-07 -4.045632e-07 -2.186826e-07 -9.590935e-08 2.460788e-07
-9.810109e-07 1.612252e-06 1.358668e-06 2.029415e-06 8.873985e-08 -2.657598e-07
4.057175e-08 -3.392858e-07 2.645343e-07 2.833703e-07 -2.028883e-07 -6.827362e-07
5.675136e-07 -1.316058e-07 -2.044563e-07 -3.796111e-08 -4.964045e-08 1.460458e-07
5.848197e-07 -7.912143e-08 -3.094453e-07 -1.129055e-07 -6.646312e-08 1.628866e-07
6.039770e-07 -9.035358e-08 -1.936432e-07 -9.072255e-08 -2.751060e-08 1.234718e-07
6.065584e-07 -9.034932e-08 -2.652957e-07 -9.116417e-08 -3.514642e-08 1.441019e-07
6.872549e-07 -1.145979e-07 -3.327420e-07 -1.369691e-07 -3.900088e-08 1.509816e-07
-7.807001e-09 2.314793e-07 -3.197907e-07 -1.554277e-07 -3.911487e-07 3.209047e-07
1.000018e-06 5.856875e-07 -1.814411e-07 1.896375e-06 -9.402831e-07 -6.849319e-07
1.908278e-07 5.370839e-07 -6.167443e-07 -5.641776e-07 -4.264580e-07 3.359799e-07
1.878966e-08 -9.880096e-08 -2.494279e-07 -1.331260e-07 -4.459246e-07 6.160414e-07
3.429240e-07 8.102779e-08 -1.797053e-07 1.071069e-07 4.393293e-08 6.936026e-08
2.536774e-07 3.006186e-07 -3.056888e-07 -3.919199e-07 -3.166582e-07 2.857938e-07
9.864527e-07 -1.270642e-07 7.964696e-07 -1.413100e-06 1.329548e-06 -8.735004e-07
-6.454693e-07 1.679286e-06 2.795758e-07 -8.653336e-07 7.766923e-07 2.151638e-07
-3.271224e-07 1.453969e-06 -5.961180e-07 3.471843e-07 4.574026e-07 1.102383e-07
7.742201e-07 3.278800e-07 -6.294551e-07 -8.908016e-07 -4.233630e-07 5.498434e-07
3.425151e-07 1.209882e-07 -1.822535e-07 7.948891e-08 1.672278e-08 2.140030e-08
-6.572173e-07 1.912962e-06 6.562435e-08 1.371652e-06 9.784893e-07 3.716278e-07
4.186138e-07 1.137969e-07 -2.499718e-07 1.911865e-07 8.167231e-08 1.268808e-07
-4.212270e-07 1.070033e-06 -4.860176e-07 2.853970e-07 1.133589e-06 1.477918e-07
-1.094141e-06 1.753566e-06 -6.302658e-08 8.022701e-07 -7.425067e-07 -2.595351e-07
-6.128566e-07 2.748617e-06 -7.480248e-07 1.171517e-06 -1.417527e-06 -6.089312e-07
-2.171967e-06 3.201317e-06 3.185769e-06 8.344855e-07 1.236427e-07 -1.820155e-07
1.795897e-06 -1.003789e-06 1.253196e-06 1.418517e-06 -4.700067e-08 9.524384e-07
-2.078595e-06 3.294717e-06 6.007872e-07 9.410215e-07 -2.127160e-07 -6.811152e-08
-1.465291e-06 2.019163e-06 3.285079e-08 -5.446644e-07 -1.704745e-06 3.521741e-07
-5.931672e-07 1.558901e-06 -6.757591e-07 -2.232767e-07 6.832682e-07 -1.068762e-07
3.865911e-06 -3.045224e-06 3.046071e-07 -4.729510e-07 -4.033986e-07 1.271570e-06
4.711696e-07 -7.625977e-07 4.334563e-06 -7.210257e-08 -3.027429e-07 3.162897e-06
-8.779386e-07 -1.062689e-06 1.808765e-05 -4.020310e-07 5.461795e-06 1.477093e-05
-2.864680e-07 3.609293e-07 -2.534832e-07 2.323178e-08 7.671917e-07 -2.271596e-07
3.055182e-06 -1.120485e-06 2.396150e-07 -2.780931e-06 4.396147e-08 -2.394851e-07
-3.110531e-07 -3.099909e-07 3.802725e-07 2.127554e-07 1.032434e-06 -5.138530e-07
-1.207129e-07 -3.112149e-07 3.963245e-08 -2.586068e-09 7.712097e-07 -4.225504e-07
2.542123e-07 6.692864e-07 -6.404397e-07 -1.082801e-06 6.365732e-07 -4.412944e-07
-4.131318e-07 5.380199e-07 -2.958551e-07 1.450728e-07 6.772966e-07 -1.529048e-07
3.175242e-06 -6.111364e-07 1.366017e-06 -9.292759e-07 -8.400381e-07 5.943929e-06
-3.908543e-07 -9.312061e-07 6.880328e-06 2.268291e-07 -4.324049e-06 2.906487e-06
-2.728032e-07 2.010829e-08 -1.138593e-07 8.508972e-08 1.081214e-06 -4.462727e-07
5.130671e-06 -5.106394e-06 1.580424e-06 -1.070258e-06 1.289478e-06 3.329621e-06
1.914580e-06 -8.368026e-07 1.218834e-06 -1.588493e-06 7.259980e-07 -5.737152e-07
7.277034e-08 -3.367716e-07 2.497975e-07 -1.579236e-07 -1.368273e-07 -4.457430e-07
-2.862181e-07 8.977562e-07 -4.904558e-07 -2.151577e-07 7.735082e-07 -2.002583e-07
-3.625242e-07 7.242913e-07 -1.371499e-07 -5.428227e-07 1.422847e-06 -1.998604e-07
-5.389844e-07 1.290304e-06 -6.476680e-07 2.156273e-08 5.872004e-07 -1.509182e-07
-4.521340e-07 1.440172e-06 -7.659466e-07 -3.846349e-07 6.119846e-07 -1.788430e-07
7.266466e-07 -2.097347e-07 -3.423719e-07 3.460807e-08 1.836735e-08 2.418426e-07
3.787101e-07 -1.098889e-09 -2.851547e-07 2.445959e-07 2.352515e-07 3.643998e-07
4.053126e-07 1.204710e-07 -2.745374e-07 1.951693e-07 7.085332e-08 9.473196e-08
6.396641e-07 -6.904468e-08 -2.656357e-07 1.522504e-07 6.643494e-08 1.949602e-07
3.671172e-07 1.491632e-07 -2.592282e-07 2.155940e-07 1.032996e-07 1.183677e-07
9.325588e-07 -2.721099e-07 -4.865384e-07 8.716301e-08 1.667228e-08 3.621542e-07
7.547156e-07 -1.710705e-07 -2.949999e-07 5.817611e-08 -1.365707e-08 1.777107e-07
9.492714e-07 -2.721099e-07 -4.516987e-07 1.094812e-07 9.780873e-09 3.031589e-07
3.898331e-07 7.851220e-08 -1.879532e-07 9.396471e-08 2.465914e-08 3.911511e-08
4.239171e-07 9.912328e-08 -2.405962e-07 1.949071e-07 7.538740e-08 1.371566e-07
5.106141e-07 -1.708650e-07 -2.277239e-07 -2.257244e-09 -1.260878e-08 2.995685e-07
3.451036e-07 1.035323e-07 -1.888491e-07 1.721227e-07 9.745077e-08 1.360032e-07
3.813433e-07 1.039270e-07 -2.219308e-07 2.154170e-07 1.429573e-07 1.979773e-07
3.582636e-07 8.099565e-08 -1.852804e-07 1.226767e-07 5.792690e-08 9.412924e-08
6.321875e-07 1.771398e-07 -6.174205e-07 5.718026e-07 3.478983e-07 4.610370e-07
3.888786e-07 9.447637e-08 -2.076154e-07 1.009868e-07 1.956046e-08 2.578562e-08
9.300636e-07 -1.428332e-07 -4.870720e-07 3.636089e-07 1.191857e-07 2.744029e-07
5.381644e-07 2.229166e-09 -2.570069e-07 1.838600e-07 6.131398e-08 1.533147e-07
-1.991114e-06 -6.070731e-06 2.841246e-05 -2.431842e-06 1.925587e-05 -5.045910e-05
6.818645e-07 -4.706886e-08 -3.249166e-07 2.420152e-07 1.235351e-07 2.918612e-07
2.919243e-07 -2.208802e-06 1.731613e-05 -8.430014e-06 8.212217e-06 -1.281195e-05
6.740434e-07 -2.852056e-08 -3.481423e-07 2.251593e-07 6.486758e-08 1.687508e-07
7.767846e-07 -9.340798e-08 -3.644809e-07 1.994814e-07 6.372000e-08 1.859102e-07
7.157936e-07 -7.463506e-08 -3.497466e-07 2.536251e-07 7.349719e-08 1.642160e-07
1.149228e-06 -1.428332e-07 -6.055486e-07 4.658012e-07 1.606437e-07 3.901744e-07
3.665789e-07 8.089850e-08 -1.724315e-07 1.096825e-07 4.115509e-08 5.385083e-08
7.870139e-07 -2.123864e-08 -4.991222e-07 3.916217e-07 1.234609e-07 2.679874e-07
-7.584258e-07 -1.134050e-05 4.039159e-05 -6.805494e-06 1.292907e-05 -1.714526e-05
1.023300e-06 -1.272499e-07 -5.997597e-07 -1.395109e-06 1.272392e-06 -7.050845e-07
9.901824e-07 -1.955912e-07 -4.544728e-07 -1.005409e-07 -3.583660e-08 2.784133e-07
5.051599e-07 -1.617571e-07 -2.349488e-07 -2.744285e-08 -4.127982e-08 3.124647e-07
9.907756e-07 -2.198257e-07 -4.418158e-07 -9.485117e-08 -2.841497e-08 2.713043e-07
9.309112e-07 -2.910776e-07 -4.471528e-07 -1.251070e-07 -4.531498e-08 4.482108e-07
1.119940e-06 -3.016819e-07 -6.051193e-07 -1.215602e-07 -3.068246e-08 5.254952e-07
2.340663e-08 1.255912e-06 -8.275021e-07 -1.376121e-06 8.902163e-07 -3.583588e-07
1.268343e-06 -3.403245e-07 -5.874465e-07 1.280955e-07 7.093438e-08 4.756182e-07
4.337535e-07 2.659519e-07 -3.314269e-07 3.309214e-07 9.153388e-08 1.045700e-07
7.460322e-07 1.023965e-06 -5.186425e-07 -1.731141e-06 6.909592e-07 -4.517021e-07
2.367617e-08 4.594141e-08 2.963680e-06 -4.662392e-06 3.398490e-07 3.512384e-07
4.282055e-07 7.209671e-08 -2.685727e-07 1.890973e-07 1.135296e-07 1.573206e-07
-4.264932e-07 -3.367716e-07 1.596329e-06 -4.225261e-08 8.460242e-07 5.603177e-08
5.279478e-08 1.907470e-06 2.589763e-06 -4.154865e-06 -9.420302e-08 5.062836e-09
3.814890e-07 3.149056e-08 -2.668638e-07 2.405726e-07 2.113061e-07 2.532788e-07
-1.533873e-06 2.810293e-06 -4.888023e-07 -1.849428e-06 9.076779e-07 -7.161167e-07
3.174992e-07 1.896355e-06 -7.726236e-07 -1.826154e-06 7.788735e-07 -4.886194e-07
5.631358e-07 6.623652e-08 -3.105109e-07 2.764487e-07 1.177222e-07 2.125716e-07
3.321866e-07 1.709845e-07 -2.273562e-07 2.700303e-07 1.850286e-07 2.262974e-07
2.366737e-07 1.519548e-07 -2.622072e-07 2.256351e-07 2.118494e-07 2.839925e-07
-8.255585e-06 1.505253e-06 1.285248e-05 -4.336698e-06 -4.509719e-06 -9.772930e-07
4.079400e-07 1.202772e-07 -3.848149e-07 2.849396e-07 1.404121e-07 2.047254e-07
1.033450e-06 -5.772466e-09 -1.165789e-07 -1.169975e-06 -4.856429e-07 6.251342e-07
3.145090e-07 -2.990106e-07 5.057759e-06 -4.343891e-06 -2.802843e-07 3.658921e-07
4.104173e-07 1.021027e-07 -2.734349e-07 2.271955e-07 1.133822e-07 1.597487e-07
4.036041e-07 1.904206e-07 -2.625286e-07 2.675456e-07 1.130891e-07 1.434495e-07
3.451072e-07 5.440004e-08 -1.904815e-07 1.633958e-07 1.176452e-07 1.428088e-07
2.304853e-07 2.462918e-07 -2.673040e-07 -2.122543e-07 -2.173152e-07 2.440432e-07
5.381285e-07 5.416179e-08 1.095688e-06 -1.386040e-06 -9.573930e-07 7.001353e-07
-1.458036e-06 3.928637e-06 -2.803383e-07 -8.816868e-07 -1.031262e-06 2.793315e-07
4.299876e-07 8.130426e-07 -6.127751e-07 9.885822e-07 7.444252e-07 6.722177e-07
-1.489632e-06 2.429661e-06 -3.004405e-07 2.160260e-07 -8.353306e-07 -2.020259e-07
3.911475e-07 5.506656e-08 -1.635760e-07 8.903602e-08 2.894521e-08 5.242135e-08
3.280912e-07 4.343397e-07 -5.599354e-07 8.516912e-07 6.379019e-07 4.542777e-07
5.698541e-08 7.259703e-07 -6.115937e-07 5.176155e-07 4.311205e-07 2.682005e-07
4.383154e-08 6.938106e-07 -7.055438e-07 7.336266e-07 5.114604e-07 3.728462e-07
-1.230862e-05 -6.412049e-07 3.967153e-05 1.668352e-07 2.573945e-05 -8.414138e-06
7.294599e-07 2.287519e-07 3.968750e-06 -4.972133e-06 3.592006e-07 -1.183050e-06
-9.325653e-08 -2.071429e-08 -8.390993e-08 1.941230e-07 9.411846e-07 9.751744e-07
-6.689297e-08 3.157033e-07 -2.286545e-07 2.601728e-07 6.863825e-07 3.804903e-07
6.206379e-07 1.517492e-08 -2.995034e-07 2.750399e-07 1.346684e-07 2.437657e-07
2.966892e-08 8.187069e-07 -7.056031e-07 6.253385e-07 6.118771e-07 3.792165e-07
2.153930e-07 5.607732e-08 -2.726018e-07 1.896665e-07 3.073406e-07 4.298119e-07
-1.001523e-07 8.407854e-07 -4.356903e-07 7.552989e-07 9.437742e-07 5.540844e-07
-9.693660e-08 4.342005e-07 -3.531845e-07 2.413407e-07 5.617565e-07 2.834488e-07
1.231158e-07 1.053532e-06 -6.624802e-07 1.234550e-06 6.352478e-07 3.767219e-07
5.427749e-07 8.747883e-07 -5.985768e-07 1.318484e-06 8.206185e-07 7.856427e-07
2.964465e-07 1.886650e-07 -3.115281e-07 2.195831e-07 1.080579e-07 1.072833e-07
3.017055e-07 2.077223e-07 -2.542543e-07 2.173271e-07 1.455469e-07 1.458277e-07
-6.471823e-09 1.539447e-07 -2.831712e-07 1.690422e-07 4.486869e-07 3.622492e-07
3.674577e-08 2.032772e-07 -2.428977e-07 1.710827e-07 2.771296e-07 2.344985e-07
5.157296e-07 6.954184e-07 -5.854466e-07 1.078397e-06 6.151880e-07 6.092501e-07
4.186679e-07 9.031858e-07 -7.087907e-07 1.065166e-06 5.786722e-07 4.549327e-07
2.870767e-07 3.906932e-07 -4.494167e-07 4.238157e-07 1.911173e-07 1.450151e-07
5.003442e-07 -2.075985e-08 -3.087611e-07 1.887752e-07 9.322824e-08 2.021745e-07
6.763776e-08 4.234462e-07 -2.871244e-07 3.674690e-07 5.306273e-07 3.822020e-07
1.715074e-07 7.198491e-07 -6.938161e-07 7.985264e-07 6.844707e-07 5.107944e-07
2.397123e-07 9.788214e-08 -2.265700e-07 1.649093e-07 1.942698e-07 2.099747e-07
-2.629788e-07 3.900247e-07 -3.610467e-07 3.998948e-08 9.515202e-07 -7.361021e-08
3.264671e-07 2.880731e-07 -3.399392e-07 3.318251e-07 1.204642e-07 1.060568e-07
-8.857542e-07 1.728118e-06 -6.452616e-07 -1.813235e-07 9.816164e-07 -1.176990e-07
-4.296491e-07 1.104323e-06 -5.266247e-07 6.563748e-08 7.971323e-07 5.788396e-08
2.928977e-07 -1.283601e-07 -2.447641e-07 1.449815e-07 2.888336e-07 5.703436e-07
-6.474210e-09 -5.034462e-08 -2.999442e-07 2.002586e-07 7.454357e-07 7.367469e-07
7.015281e-07 -1.364654e-07 -3.076048e-07 3.761474e-07 2.126406e-07 6.131200e-07
-5.880538e-07 1.740778e-06 -7.113725e-07 -2.074301e-08 6.503415e-07 8.217300e-09
-3.941966e-07 6.392159e-07 -2.889100e-07 -3.294745e-07 9.746949e-07 -4.606228e-08
-1.066821e-06 2.708658e-06 1.082441e-06 -2.261229e-06 2.308080e-08 -4.046882e-07
-4.000702e-06 4.695814e-06 1.460554e-06 -3.524697e-07 -6.825057e-07 -6.322450e-08
-3.710448e-07 4.599258e-08 4.092112e-06 -3.661370e-07 1.401222e-06 -3.499175e-07
-5.310664e-07 2.552901e-06 2.025015e-06 3.290235e-06 9.247432e-07 -3.883555e-07
-1.918667e-06 4.120683e-06 1.245462e-06 -2.025081e-06 -6.876440e-07 5.804428e-07
1.650971e-07 3.080172e-07 -2.641547e-07 -2.644814e-07 -2.424483e-07 2.777593e-07
-6.021541e-07 2.953046e-06 1.742612e-07 2.402972e-06 9.064416e-07 4.258796e-07
1.395007e-07 1.102862e-06 -1.296941e-07 -1.342470e-06 -8.032793e-07 3.958740e-07
2.300672e-06 -2.263553e-07 1.488850e-06 -3.771402e-06 5.956442e-08 -4.188894e-07
-4.236500e-07 1.256355e-06 -5.525224e-07 9.228869e-07 1.326019e-06 4.073773e-07
1.591193e-06 -2.236156e-07 -7.483412e-07 1.032554e-06 3.063157e-07 5.979521e-07
1.723500e-06 -1.030524e-06 4.392139e-06 -3.170707e-06 3.221905e-06 -2.774952e-06
7.488847e-07 -5.883977e-07 1.347063e-06 -1.233188e-06 -6.802365e-07 6.854039e-07
4.814134e-07 4.328298e-07 -4.934005e-07 8.128885e-07 4.281493e-07 4.330625e-07
3.145090e-07 1.505294e-06 7.891804e-07 -3.613104e-06 -5.652996e-07 8.350850e-08
5.481495e-07 9.615692e-08 -4.074930e-07 6.112590e-07 4.396851e-07 7.553014e-07
3.437037e-07 1.985073e-07 -5.426969e-07 5.601289e-07 5.748376e-07 5.921211e-07
5.022917e-07 3.623001e-07 -5.063235e-07 7.152773e-07 4.668750e-07 4.505911e-07
-2.601208e-06 3.104086e-06 3.410160e-06 3.669267e-06 -1.476104e-07 -2.418312e-07
6.954793e-09 -4.185779e-07 -9.876869e-08 2.340266e-07 7.081557e-07 8.859622e-07
-6.093324e-07 1.083735e-06 1.992669e-07 8.621398e-07 5.924026e-07 6.879942e-07
1.176588e-06 4.283933e-08 3.064832e-07 3.822916e-06 2.025055e-07 8.371220e-07
-2.161528e-07 -4.775928e-07 1.276162e-06 9.452613e-08 -1.639372e-07 9.603056e-07
2.961776e-06 -1.891510e-06 8.102891e-07 2.899335e-06 8.762444e-07 -5.082226e-08
1.171081e-07 1.123875e-06 -4.024968e-07 1.749437e-06 6.685975e-07 5.212970e-07
3.048240e-07 -1.458920e-06 4.348253e-06 5.612655e-06 2.233324e-06 2.609125e-06
4.326803e-07 1.035417e-06 -2.169789e-07 1.846345e-06 8.527729e-07 6.565559e-07
1.995092e-07 4.901944e-07 -2.980908e-07 7.266899e-07 1.165823e-06 6.200264e-07
-2.549092e-07 -5.541213e-07 2.556747e-06 2.005051e-06 5.064564e-07 7.022637e-07
6.794153e-07 2.835906e-07 -4.266126e-07 1.548560e-06 5.696662e-07 6.841565e-07
3.946668e-06 -1.639603e-06 2.682786e-06 -2.961578e-06 -1.557056e-07 9.641656e-07
-1.298914e-06 1.182466e-06 3.869698e-06 2.081778e-06 -4.726845e-07 7.049962e-08
-3.040050e-06 2.638808e-06 1.010242e-05 2.101742e-06 4.900947e-06 -1.079270e-06
4.843477e-08 -2.458195e-07 8.084647e-08 -1.154431e-07 -3.056707e-07 1.315224e-06
2.984186e-07 -9.591040e-09 -2.480418e-07 -1.613867e-07 -2.958960e-07 4.016584e-07
-4.650517e-07 -1.634131e-07 9.219472e-07 -5.719485e-08 -2.782709e-07 -8.662442e-07
1.318945e-08 5.396542e-07 1.487922e-07 -1.844235e-06 -6.477783e-07 5.545492e-07
-6.587706e-08 -3.131290e-07 8.722230e-07 -1.009450e-07 -5.642303e-07 5.527004e-07
-2.706160e-06 2.713474e-06 3.983254e-06 2.629142e-06 2.200627e-07 4.943000e-07
1.658487e-06 -1.741484e-07 -6.857007e-07 -1.079951e-06 -2.331594e-07 6.115001e-07
5.068162e-06 -4.003770e-06 6.392308e-06 -2.256677e-06 9.193982e-07 -4.133305e-06
-3.592212e-06 4.992390e-06 5.190077e-06 6.535808e-07 1.354317e-06 -1.039491e-06
-3.677803e-06 1.919944e-06 3.897150e-06 2.276541e-06 -4.520291e-08 -2.850379e-07
5.980294e-07 1.023965e-06 -5.051601e-07 -2.618584e-06 1.110017e-06 -5.538952e-07
-3.629475e-08 6.130261e-07 -2.918828e-07 6.501897e-07 1.203838e-06 3.177833e-07
-4.454198e-07 2.829045e-06 -3.751710e-07 -1.995467e-06 8.580325e-07 -3.589845e-07
-2.796107e-07 6.761235e-07 -2.916801e-07 3.042521e-07 7.119606e-07 5.868089e-08
-3.547666e-07 5.617165e-07 -2.969651e-07 4.508756e-07 1.066273e-06 2.523621e-08
-5.599907e-07 1.480588e-06 -6.208503e-07 3.847060e-08 5.739674e-07 9.935598e-08
1.897167e-07 -4.665653e-07 -4.247544e-08 -9.798192e-08 6.252364e-07 -1.996209e-08
-3.888291e-07 1.380877e-06 -6.270033e-07 -4.101963e-08 5.324144e-07 -2.598316e-08
-5.786587e-07 1.427775e-06 -4.125656e-07 2.325001e-07 1.105701e-06 1.118155e-08
-2.516982e-07 1.487325e-06 -7.127768e-07 -6.364195e-07 5.100416e-07 -1.938401e-07
-7.870716e-07 1.196399e-06 -1.940423e-07 -2.503681e-07 1.259209e-06 -3.195035e-07
-3.749120e-07 1.636756e-06 -6.694704e-07 3.960339e-07 6.429783e-07 1.351650e-07
-6.548291e-07 2.277259e-06 -7.028461e-07 1.886776e-07 6.086106e-07 2.587498e-08
-6.148362e-07 1.075129e-06 -4.063424e-07 -7.529772e-08 1.198295e-06 7.745510e-09
-6.627784e-07 1.884201e-06 -7.061527e-07 5.709306e-07 9.208991e-07 2.060164e-08
-2.518069e-07 3.782108e-07 -3.104707e-07 3.262670e-08 6.433390e-07 7.283462e-09
-6.548291e-07 1.621802e-06 -6.826807e-07 1.499836e-07 6.815307e-07 2.214271e-08
1.121106e-07 3.798207e-07 -4.999396e-07 5.247107e-07 5.190637e-07 3.907926e-07
2.070563e-07 4.941176e-07 -4.808740e-07 3.681979e-07 2.109900e-07 1.977853e-07
8.870888e-08 7.240060e-07 -5.305847e-07 5.162841e-07 5.421422e-07 4.041595e-07
2.358695e-07 2.532762e-07 -2.342414e-07 2.627028e-07 2.529916e-07 2.024803e-07
-2.129237e-06 4.144806e-06 4.790780e-07 1.466599e-06 4.150014e-07 7.584198e-08
-2.296320e-07 3.934238e-07 -2.681937e-07 -2.151098e-08 4.903941e-07 -1.791049e-07
-2.830504e-07 1.458762e-08 -1.641659e-07 7.495205e-08 9.315830e-07 -5.074836e-07
9.668246e-08 3.268261e-07 -2.451043e-07 2.725693e-07 3.050218e-07 2.678693e-07
1.992395e-07 4.100359e-07 -3.864820e-07 3.210578e-07 1.839726e-07 1.388384e-07
-2.327725e-08 2.976916e-07 -2.435666e-07 1.337426e-07 2.561282e-07 1.930546e-07
4.552103e-08 2.697739e-07 -2.357153e-07 1.392206e-07 2.736116e-07 2.258681e-07
5.032533e-07 4.301064e-08 -2.805826e-07 -1.455987e-07 -3.304870e-08 8.260701e-08
5.711646e-07 1.026688e-08 -2.757001e-07 -1.969523e-07 -7.651295e-08 1.689991e-07
4.199579e-07 5.484240e-08 -1.591227e-07 -7.737094e-08 -1.908888e-08 3.438870e-08
4.087561e-07 9.073547e-08 -2.287444e-07 -1.154328e-07 -5.803237e-08 1.159159e-07
-5.452824e-07 1.440752e-06 -5.368745e-07 -7.412494e-07 9.422424e-07 -3.431522e-07
4.657631e-07 3.140193e-08 -2.250696e-07 -1.103235e-07 -4.698685e-08 5.399795e-08
3.993762e-07 6.043542e-08 -1.727646e-07 -1.211811e-07 -6.768282e-08 7.062630e-08
4.429322e-07 1.910231e-08 -1.701120e-07 -9.506086e-08 -2.676851e-08 6.749016e-08
4.377325e-07 -7.528644e-09 -1.826368e-07 -8.322551e-08 -4.719439e-08 7.613302e-08
-2.071999e-07 9.124862e-07 -4.088122e-07 4.298306e-07 8.658030e-07 3.673006e-07
5.367482e-07 -1.028997e-07 -1.940818e-07 -5.919399e-08 -3.045377e-08 1.425233e-07
-1.026347e-08 5.070691e-07 -2.686960e-07 3.048859e-07 4.834153e-07 1.909130e-07
-4.890813e-08 9.228130e-07 -5.436438e-07 4.819154e-07 7.566133e-07 3.974171e-07
-5.816638e-08 4.559153e-07 -3.720331e-07 4.093737e-07 8.609740e-07 6.135955e-07
-4.594524e-07 3.902615e-07 -2.944922e-07 -4.208455e-08 7.311971e-07 3.744653e-07
-1.129313e-07 6.848184e-07 -4.556480e-07 3.740086e-07 6.295939e-07 2.689343e-07
3.894962e-07 1.173215e-07 -2.635046e-07 2.963229e-07 2.556113e-07 3.196599e-07
5.922678e-07 -1.037989e-07 -2.098184e-07 -1.110687e-07 -1.628103e-08 1.645699e-07
6.093680e-07 1.853472e-07 -5.741278e-07 6.575656e-07 5.456195e-07 6.066237e-07
2.769209e-07 4.494448e-07 -6.813813e-07 8.375201e-07 4.339783e-07 4.609973e-07
3.774088e-07 1.028454e-07 -1.962252e-07 1.083286e-07 3.004060e-08 2.940704e-08
1.424301e-07 4.959757e-07 -4.542628e-07 8.529780e-07 1.018188e-06 7.379514e-07
-1.133860e-06 2.448374e-06 -3.678161e-07 -3.236267e-08 -1.093155e-06 -4.262259e-08
-1.063620e-06 3.263774e-06 -6.718095e-07 1.829901e-07 -1.156444e-06 -3.771293e-09
-4.359041e-08 -1.187790e-07 -2.629727e-07 1.835640e-07 6.435643e-07 7.942865e-07
3.284570e-07 4.268832e-07 -6.628299e-07 8.525592e-07 4.336561e-07 4.274138e-07
8.058581e-07 1.476346e-06 -7.083739e-07 1.852509e-06 -9.349159e-07 -7.763550e-07
7.801920e-07 2.084739e-07 -7.177584e-07 9.975117e-07 5.867964e-07 8.358888e-07
2.935372e-08 1.001021e-06 -6.613250e-07 -8.274598e-07 -5.721676e-07 3.082367e-07
-2.162610e-06 4.824977e-06 1.067661e-06 6.783251e-07 -1.059661e-06 6.169654e-08
9.949331e-07 -2.892832e-07 -4.496009e-07 2.316325e-08 2.815129e-09 2.799997e-07
7.853898e-08 8.255454e-07 -6.540683e-07 -6.543529e-07 -5.480734e-07 3.326740e-07
4.209604e-06 -2.579021e-06 7.984767e-07 -1.402530e-06 1.577537e-07 6.637313e-07
1.042851e-07 1.304736e-06 -7.980842e-07 -1.069839e-06 -6.017903e-07 4.605168e-07
-8.315546e-07 2.828830e-06 -6.762085e-07 -7.534149e-07 -1.116163e-06 2.929840e-07
-2.502522e-06 4.639516e-06 1.231156e-06 -6.814872e-07 -5.077042e-07 -7.700681e-08
-4.537013e-07 1.077713e-06 -4.179812e-07 -3.888571e-07 -1.023577e-06 3.965739e-07
-5.631505e-07 1.550524e-06 -3.168709e-07 7.744458e-08 -8.552382e-07 -1.779393e-08
-3.147747e-07 1.286705e-06 -4.204960e-07 -4.478040e-08 -1.090649e-06 8.992026e-08
-3.678491e-07 2.060543e-07 -3.614009e-07 -1.125981e-07 -1.188559e-06 2.097342e-07
-2.502522e-06 3.822306e-06 -2.389129e-07 -5.095295e-07 -1.070610e-06 -1.506184e-07
-7.918280e-07 2.147355e-06 -4.386662e-07 -1.268218e-06 -7.613787e-07 1.560824e-07
-4.680910e-07 1.147129e-06 -3.796708e-07 -3.484235e-07 -1.263721e-06 2.894088e-07
-2.166689e-08 1.861243e-06 -6.327223e-07 -1.998843e-06 -6.704552e-07 4.463965e-07
2.890412e-08 9.940666e-07 -5.931547e-07 -1.329173e-06 -7.704259e-07 4.409413e-07
6.475567e-07 5.728791e-08 -3.547499e-07 -3.149823e-07 -1.112758e-07 1.834948e-07
2.304853e-07 1.331586e-07 -2.350441e-07 -1.293494e-07 -1.864068e-07 1.716649e-07
-2.289680e-06 3.743587e-06 4.086025e-06 -8.486992e-07 1.655404e-06 1.609860e-07
9.300063e-07 -1.256034e-07 -3.531961e-07 -3.070936e-07 -2.804636e-07 6.078560e-07
3.856705e-07 1.354385e-07 -2.570604e-07 -1.826814e-07 -6.770779e-08 6.972579e-08
-1.374750e-07 1.321985e-06 -1.079890e-08 -1.465508e-06 -9.732801e-07 6.920305e-07
4.508538e-07 1.434312e-07 -3.427835e-07 -3.063818e-07 -9.257625e-08 1.395244e-07
2.419548e-07 2.941000e-07 -3.662624e-07 3.186246e-07 1.559540e-07 1.535656e-07
1.966572e-07 4.632076e-07 -4.482547e-07 3.357075e-07 2.021052e-07 1.595420e-07
4.053496e-07 1.976395e-07 -3.111034e-07 -2.425408e-07 -1.007550e-07 1.069149e-07
2.168508e-07 4.679755e-07 -4.516251e-07 4.230601e-07 2.952069e-07 2.777199e-07
1.538241e-07 5.134639e-07 -5.865667e-07 5.996466e-07 4.497455e-07 3.580313e-07
3.699634e-07 3.792865e-07 -5.158964e-07 5.079397e-07 2.618861e-07 2.063547e-07
2.870767e-07 4.216910e-07 -4.504658e-07 3.522718e-07 1.824069e-07 1.410896e-07
1.722654e-07 1.745529e-07 -2.253441e-07 1.615798e-07 1.987499e-07 2.154225e-07
-4.504648e-07 1.448109e-06 -5.739192e-07 5.482056e-07 1.090006e-06 2.821268e-07
-4.362747e-07 1.668767e-06 -5.366951e-07 7.050818e-07 8.940709e-07 2.582054e-07
-7.626151e-07 1.753616e-06 -5.791548e-07 7.665733e-07 7.265543e-07 2.941549e-07
-2.833901e-07 1.115042e-06 -6.963205e-07 5.100395e-07 5.449468e-07 2.691107e-07
3.959911e-07 -2.414345e-08 -2.119664e-07 -1.416940e-07 -1.410951e-07 2.386328e-07
8.465006e-07 -3.625080e-07 -2.842766e-07 -4.848106e-08 -3.603055e-08 5.914075e-07
1.186374e-06 -4.494537e-07 -6.185254e-07 2.768117e-08 2.156274e-08 4.974197e-07
4.920072e-07 -2.016996e-07 -2.516095e-07 2.453052e-08 -3.994061e-10 3.308798e-07
1.574051e-06 -3.804383e-07 -6.334944e-07 -2.631501e-07 -8.026103e-08 3.729589e-07
1.796620e-06 -8.604545e-07 -5.218418e-07 -4.695751e-07 -8.898087e-08 7.934329e-07
-4.311001e-07 1.208694e-06 -6.724027e-07 4.634329e-07 6.041398e-07 2.876779e-07
4.888899e-08 -3.151809e-07 1.529945e-07 3.496655e-08 -5.300386e-07 1.331480e-06
-1.047067e-06 -4.249041e-07 1.987367e-06 -4.778696e-07 2.619915e-08 1.368200e-07
-3.105076e-06 1.779753e-07 4.968120e-06 -1.216751e-06 9.813113e-07 4.123619e-07
-2.328194e-06 -6.021762e-08 3.082032e-06 -2.592119e-07 4.689603e-07 3.250727e-07
2.439154e-07 -3.129443e-07 -1.645128e-07 8.860479e-09 -1.828953e-07 1.159076e-06
9.256821e-07 -3.132661e-07 -3.358358e-07 -2.082784e-07 -1.391830e-07 8.775093e-07
-2.800435e-06 2.612870e-06 5.846174e-06 -3.007187e-06 9.227142e-07 -1.641387e-06
1.192401e-06 -2.313971e-07 -6.295166e-07 -2.112561e-07 -9.094881e-08 4.142516e-07
1.676195e-06 -5.508511e-07 -4.354507e-07 1.205721e-08 -2.634653e-08 1.344881e-06
4.354456e-07 -2.330191e-07 -2.594807e-07 -1.054511e-08 -5.554351e-09 5.119310e-07
1.075084e-06 -1.742559e-07 -5.214293e-07 -2.695756e-07 -1.037676e-07 3.589447e-07
6.577336e-07 -1.351451e-07 -2.030682e-07 -4.114414e-08 -1.699660e-08 1.488392e-07
1.212882e-06 -3.804383e-07 -6.294287e-07 -1.927743e-07 -9.849951e-08 4.119148e-07
3.284118e-07 -2.256439e-07 -2.252056e-07 -4.222388e-08 -7.223857e-08 7.511234e-07
-1.733379e-06 4.017996e-08 9.147771e-06 -4.401822e-06 2.076151e-06 -2.183830e-06
-1.965135e-05 -1.398535e-05 9.443087e-05 -3.233817e-07 2.738187e-05 -2.920722e-06
-1.004212e-05 -2.880027e-06 4.481073e-05 3.209133e-06 5.326372e-05 4.403333e-06
-4.290421e-06 -9.211595e-06 4.367332e-05 3.682681e-06 1.990730e-05 2.103744e-05
-7.958534e-06 1.610834e-06 2.078339e-05 3.677823e-06 9.346499e-06 3.609541e-06
-2.395775e-06 -8.310241e-06 3.569719e-05 4.894796e-07 5.267270e-06 2.483580e-05
-3.390347e-06 4.538150e-06 8.473520e-06 -1.563910e-06 5.595506e-06 -1.476871e-06
-6.477021e-06 4.564089e-06 9.355882e-06 -1.673788e-06 5.436648e-06 -1.371014e-06
-3.595325e-06 4.480761e-07 5.761021e-06 -3.210352e-07 2.361466e-06 -6.787248e-07
-1.068462e-06 4.055301e-06 2.766287e-06 -6.688723e-07 3.076651e-06 -5.364930e-07
3.644551e-07 5.763606e-07 -5.590593e-07 -5.878809e-07 -3.238631e-07 2.668180e-07
8.135214e-07 3.609414e-07 1.477639e-06 2.478755e-06 -5.545861e-07 -5.442876e-07
-9.850696e-08 -2.554235e-07 -7.786722e-08 1.941140e-07 -7.975900e-07 -5.121850e-07
1.124356e-06 -6.007543e-07 1.322420e-06 2.299587e-06 -1.076237e-06 -4.317844e-07
1.103692e-07 9.089554e-07 -5.247314e-07 -1.344467e-06 -9.320710e-07 7.271410e-07
1.364775e-08 4.392349e-07 -2.912709e-07 -3.763212e-07 -5.475601e-07 5.544238e-07
4.649569e-07 5.340250e-07 -6.382364e-07 -1.063474e-06 -8.516009e-07 7.324285e-07
-2.629788e-07 1.975613e-07 -3.000596e-07 2.631657e-08 7.547412e-07 -7.163145e-08
-6.612570e-07 2.285921e-06 -7.544549e-07 -9.755476e-08 6.533140e-07 -5.520129e-08
-6.766628e-07 1.337512e-06 -5.148162e-07 -3.146038e-08 8.515061e-07 5.105868e-08
1.323297e-07 3.201059e-07 -2.895567e-07 -9.459806e-07 -1.005354e-06 6.585031e-07
1.509048e-07 7.185949e-07 1.254208e-06 -1.843188e-06 -1.218992e-06 8.148729e-07
6.104159e-07 6.979134e-07 -5.769742e-07 -1.678775e-06 -6.519282e-07 7.103196e-07
1.905730e-08 -7.207859e-06 2.058680e-05 -6.709143e-06 -8.013506e-06 9.438259e-06
3.379051e-06 -9.643293e-06 2.396786e-05 -3.071365e-06 -2.730283e-06 1.228408e-05
-6.612570e-07 1.620271e-06 -7.319724e-07 -4.651698e-08 6.965090e-07 -4.856592e-08
-3.430275e-07 6.272820e-07 -3.289799e-07 -1.631798e-07 7.339739e-07 4.838360e-08
-3.681796e-07 1.122336e-06 -3.309693e-07 -1.122057e-07 5.674529e-07 -9.274568e-08
1.766832e-06 -7.812265e-07 -5.587819e-07 4.881072e-07 1.083255e-07 7.328180e-07
6.632919e-07 -1.111370e-05 2.717177e-05 -3.520031e-06 -2.491317e-06 1.236204e-05
-2.387276e-07 -8.336493e-06 2.295571e-05 -7.353196e-06 -8.290977e-06 9.797084e-06
-4.356190e-06 -1.630593e-05 6.238944e-05 -6.659572e-06 -1.511811e-05 3.896680e-05
4.111886e-07 -1.791559e-05 5.919355e-05 -1.430516e-06 -1.441792e-06 2.678468e-05
-2.017802e-05 -1.605113e-05 9.008140e-05 -1.904543e-06 -1.117124e-05 2.354070e-05
1.922398e-06 -1.716086e-06 1.378733e-05 -6.606563e-08 1.968072e-06 -8.945812e-06
3.968396e-06 -3.637689e-06 2.640286e-06 -2.477857e-06 -7.521107e-07 9.713837e-07
-1.172141e-05 -1.609629e-05 5.797359e-05 -6.460833e-06 -1.475465e-05 1.674028e-05
-3.354102e-07 -1.267767e-06 1.547163e-05 -4.200361e-06 -1.569788e-05 1.054547e-05
-1.399391e-05 -2.229701e-05 6.515323e-05 -2.650731e-06 -1.106246e-05 1.527403e-05
9.291819e-07 -7.752121e-08 -6.174461e-07 5.761194e-07 1.677962e-07 4.615832e-07
7.040051e-07 -1.436149e-07 -5.005757e-07 3.694090e-07 2.608191e-07 6.926235e-07
4.464278e-07 -9.288580e-08 -2.559443e-07 2.096306e-07 1.713575e-07 4.388848e-07
5.267373e-07 -1.128300e-07 -2.835096e-07 3.298935e-07 2.686729e-07 6.733181e-07
6.314253e-07 -1.080223e-07 -2.469191e-07 2.111747e-07 1.412913e-07 3.764910e-07
7.738510e-07 -2.045432e-07 -2.979662e-07 2.824317e-07 2.378603e-07 5.860187e-07
5.594936e-07 -6.646890e-07 5.296547e-06 -6.618985e-08 4.614955e-07 -3.593544e-06
-4.196761e-07 1.095932e-06 -3.181024e-07 7.070338e-08 6.978661e-07 -1.642656e-08
-5.419307e-07 9.842004e-07 -2.772200e-07 1.870439e-07 1.304911e-06 7.742853e-08
-4.822863e-07 1.204562e-06 -6.124172e-07 6.654385e-08 5.842621e-07 1.649714e-07
-2.828665e-07 1.359907e-07 -3.258303e-07 -9.817209e-09 1.308332e-06 1.706272e-07
-3.523877e-07 6.954222e-07 -3.449853e-07 2.863865e-07 7.528259e-07 -5.328657e-08
-8.691635e-07 1.586581e-06 -7.324190e-07 1.961476e-07 1.067627e-06 9.475937e-08
-7.274370e-07 1.247460e-06 -3.490965e-07 3.476142e-07 1.410330e-06 3.184207e-07
-6.654212e-07 2.046045e-06 -7.257856e-07 4.148926e-07 9.341204e-07 2.088309e-07
-8.445900e-07 2.494925e-06 -4.720993e-07 8.725988e-07 1.196269e-06 2.465888e-07
4.244043e-07 7.939318e-08 -2.499887e-07 3.126615e-07 2.397603e-07 2.974224e-07
5.108416e-07 -1.223056e-07 -2.669896e-07 2.988909e-07 4.382973e-07 5.539786e-07
-1.424960e-06 2.047523e-06 -2.814537e-07 4.632175e-07 1.264141e-06 -4.208589e-08
1.054160e-06 1.998222e-07 -6.668288e-07 8.970182e-07 3.105267e-07 4.733213e-07
-8.737042e-07 2.889865e-06 -7.199368e-07 1.854482e-07 8.128905e-07 8.370986e-08
1.704034e-06 5.786297e-07 2.246514e-06 4.495545e-06 1.582495e-07 -5.904484e-07
6.254814e-07 5.108290e-08 -5.043325e-07 3.958018e-07 1.958210e-07 2.654661e-07
5.454866e-07 -1.596967e-08 -2.594983e-07 2.047199e-07 7.375960e-08 1.527610e-07
5.904950e-07 -3.756687e-09 -3.674294e-07 2.297576e-07 8.842828e-08 2.133624e-07
6.355459e-07 -9.418628e-10 -3.443959e-07 2.741569e-07 1.027351e-07 2.585958e-07
5.378097e-07 6.999327e-08 -3.282495e-07 2.874831e-07 1.075153e-07 1.318397e-07
2.594982e-07 8.733608e-08 -2.082878e-07 1.608294e-07 1.482498e-07 1.645858e-07
2.166898e-08 1.279609e-06 -7.322587e-07 8.533637e-07 6.197153e-07 2.430777e-07
1.736175e-07 3.163491e-07 -2.934258e-07 2.158610e-07 2.128735e-07 1.726581e-07
3.680901e-07 2.948273e-07 -3.335038e-07 3.148976e-07 1.121804e-07 1.285455e-07
-2.044274e-07 1.066525e-06 -5.337565e-07 6.149335e-07 7.151988e-07 3.393786e-07
5.620049e-07 4.177880e-07 -5.484890e-07 6.319190e-07 2.773122e-07 3.029510e-07
-2.143621e-07 1.022731e-06 -6.499025e-07 5.676412e-07 4.767045e-07 3.235585e-07
-1.401240e-07 9.167996e-07 -5.329747e-07 5.151335e-07 7.492495e-07 3.954724e-07
7.792287e-07 4.594112e-07 -7.273518e-07 9.157914e-07 4.197998e-07 4.806254e-07
6.566540e-08 -1.181091e-07 -2.191801e-07 1.671771e-07 6.376704e-07 9.869436e-07
-2.119930e-07 -2.378432e-07 -9.858968e-08 4.945166e-08 3.314569e-07 1.958188e-07
-2.119930e-07 -1.962056e-07 3.314485e-07 1.623565e-07 1.822442e-06 2.121340e-07
-1.424960e-06 2.864444e-06 -6.531343e-07 3.520548e-07 8.464552e-07 1.088391e-07
-6.699058e-07 1.981425e-06 -4.609497e-07 4.565491e-07 8.784631e-07 1.690621e-07
-2.096056e-07 7.825533e-07 -4.531853e-07 2.804764e-07 6.391129e-07 2.680366e-07
-2.822705e-07 1.162961e-06 -4.875581e-07 5.012008e-07 6.913019e-07 2.531448e-07
-4.893777e-08 1.479232e-06 -2.357635e-07 1.332058e-06 8.763794e-07 5.801528e-07
4.170310e-07 2.662885e-08 -1.813476e-07 9.021543e-08 4.266700e-08 6.368842e-08
-7.526030e-07 1.840053e-06 -4.159219e-07 6.980280e-07 1.373270e-06 2.095200e-07
-5.300094e-07 1.550661e-06 -4.261875e-07 2.541571e-07 7.846327e-07 1.032337e-07
-4.665594e-07 1.015580e-06 -1.920019e-07 4.788126e-07 1.456577e-06 3.822012e-07
2.867749e-07 -3.894712e-07 3.515523e-07 -6.046695e-08 4.407244e-07 4.578220e-07
-1.033706e-06 1.600346e-06 1.697669e-06 1.114114e-06 1.254417e-06 1.189196e-06
-4.094391e-07 2.141350e-06 -6.646494e-07 1.103271e-06 9.836957e-07 3.519789e-07
-7.539625e-08 1.958939e-06 2.787321e-07 2.630798e-06 9.928244e-07 5.487204e-07
-4.059542e-07 1.253530e-06 1.263695e-06 1.611127e-06 1.009197e-06 1.684133e-07
-1.418606e-07 9.475252e-07 -1.522614e-07 1.069244e-06 8.849215e-07 6.096444e-07
-5.358134e-07 2.371604e-06 -2.087316e-07 2.342841e-06 6.572625e-07 3.918631e-07
-3.937469e-07 -1.959989e-07 8.953272e-07 -1.060592e-07 7.288686e-07 5.043777e-07
-4.207772e-07 9.670025e-07 2.419105e-07 1.053823e-06 1.352881e-06 6.533307e-07
-4.124439e-07 -2.435775e-07 3.920472e-07 -1.950642e-07 1.928271e-06 6.517726e-07
8.015086e-07 -1.577729e-07 -2.856322e-07 5.375606e-08 1.035567e-08 1.405593e-07
-6.138586e-07 1.646534e-06 -6.963684e-07 4.769504e-07 6.345925e-07 2.417597e-07
-3.622009e-07 7.283918e-07 -2.403838e-07 5.426903e-07 1.304442e-06 9.395073e-08
-6.937752e-07 1.252553e-06 -7.875422e-08 3.778611e-07 1.092630e-06 1.936526e-07
-7.545896e-07 1.803765e-06 -4.950445e-07 7.065515e-07 1.058589e-06 2.898431e-07
-5.567512e-07 1.646690e-06 -6.406129e-07 4.209592e-07 6.642610e-07 1.246075e-07
-9.671684e-07 1.976134e-06 -6.621590e-07 -4.374060e-07 -8.678429e-07 7.372051e-08
6.798084e-07 -1.204859e-07 -2.718174e-07 1.002923e-07 1.904651e-08 1.397521e-07
-7.372530e-07 1.690915e-06 -4.286972e-07 -1.324705e-07 -1.432045e-06 6.545465e-08
-3.590887e-07 1.334945e-06 -4.068664e-07 4.845546e-08 -1.108226e-06 -6.432105e-08
-1.112413e-06 1.568470e-06 -2.780580e-07 4.044130e-08 -1.373476e-06 -8.956431e-08
-2.256817e-06 4.578113e-06 8.354831e-07 -6.784201e-07 -6.729778e-07 -1.787198e-07
-7.350679e-07 2.359183e-06 -7.571312e-07 -5.353598e-08 -9.788349e-07 1.912538e-08
1.891254e-08 7.486017e-07 2.959383e-06 1.925861e-06 -2.140270e-07 -4.824850e-07
-1.008168e-06 1.697340e-06 -2.210146e-07 -9.711625e-08 -1.607657e-06 -1.211647e-07
-3.993402e-07 1.440635e-06 -7.004486e-07 -3.177643e-07 -6.792362e-07 1.647615e-07
-6.686591e-07 1.181171e-06 -3.334323e-07 -2.157783e-07 -1.304483e-06 1.867953e-07
-5.232171e-07 8.202416e-07 -3.243994e-07 -5.172054e-07 -1.163720e-06 -1.530295e-08
-7.601758e-07 -2.433544e-07 1.339200e-07 -1.809355e-07 -1.517172e-06 -1.227690e-07
-3.114164e-07 -2.234575e-07 5.993324e-07 -3.864472e-08 -1.328023e-06 6.083696e-08
-1.055664e-06 2.246060e-06 -7.368075e-07 -2.457258e-07 -9.369636e-07 7.569696e-08
-1.458036e-06 2.905031e-06 -6.777092e-07 -6.652049e-07 -1.116810e-06 2.591087e-07
3.933047e-07 9.620729e-07 -7.679464e-07 1.321474e-06 -7.641151e-07 -5.153270e-07
-6.040294e-07 2.328042e-07 -8.134976e-08 -7.112041e-08 -1.236260e-06 3.411666e-07
1.659116e-06 6.915684e-07 8.555715e-07 -2.880574e-06 -8.606651e-07 9.163503e-07
3.504204e-07 6.980198e-07 -4.380230e-07 -1.589870e-06 -7.896283e-07 5.828221e-07
4.110044e-06 -4.031632e-06 4.901734e-06 -1.084774e-06 -3.834939e-08 -1.834021e-07
6.989133e-07 2.105892e-07 8.359977e-09 -1.045327e-06 -6.824790e-07 7.070886e-07
1.302946e-07 -1.078525e-07 -2.472368e-07 -1.176200e-07 -4.528265e-07 5.957847e-07
-4.560198e-08 6.642418e-07 -3.956704e-07 3.980720e-07 -6.389249e-07 -4.288784e-07
-2.291028e-07 -2.924860e-07 4.417963e-06 -1.044594e-07 6.098793e-07 1.470364e-06
8.299327e-07 1.723640e-07 -4.058954e-07 -1.423199e-06 -7.528941e-07 9.732812e-07
1.467250e-06 5.790057e-07 -6.852567e-07 -2.082206e-06 -5.459563e-07 7.825743e-07
4.654973e-07 -2.916035e-09 -1.915117e-07 -1.490062e-07 -1.015308e-07 1.692313e-07
4.176837e-07 1.373361e-07 -2.521444e-07 -1.725491e-07 -6.405313e-08 8.239262e-08
-3.061628e-07 1.178327e-06 -3.738129e-07 7.452159e-08 -1.401612e-06 1.164834e-07
3.853934e-07 1.347259e-07 -2.069024e-07 -1.603914e-07 -8.818081e-08 1.137931e-07
4.095812e-07 7.511119e-08 -1.915760e-07 -1.548953e-07 -9.753824e-08 1.336570e-07
-3.281050e-07 -2.797064e-07 6.137238e-06 7.494274e-07 -2.722150e-06 -1.468944e-06
4.442533e-07 8.847004e-08 -3.210173e-07 -2.123978e-07 -6.911678e-08 1.202728e-07
1.766211e-07 2.156453e-06 -7.324838e-07 1.834220e-06 -5.754995e-07 -4.117447e-07
-4.857751e-07 1.192334e-06 -5.315946e-07 -1.194337e-07 8.179761e-07 -4.794078e-08
-1.129351e-06 2.775026e-06 -1.541651e-07 1.850154e-07 6.004647e-07 -8.502641e-08
-6.666702e-07 1.965332e-06 -7.131267e-07 4.512154e-07 6.614746e-07 2.128039e-07
-8.463673e-07 1.078621e-06 3.368755e-07 5.515172e-07 1.974543e-06 5.395982e-07
-2.185986e-09 1.101892e-06 2.160933e-06 3.071988e-06 -4.905691e-07 1.151797e-07
-4.938403e-07 4.040434e-07 -3.818129e-08 3.929645e-07 1.273742e-06 7.064881e-08
3.739011e-07 -7.381228e-07 6.067858e-06 4.890229e-06 2.334418e-07 7.197636e-07
9.442343e-07 -3.157252e-07 -4.438448e-07 -1.847479e-07 -4.335419e-08 5.303772e-07
-9.503114e-07 2.043644e-06 -3.062856e-07 4.217737e-07 1.273988e-06 7.571312e-08
-7.546100e-07 7.746750e-08 1.177511e-07 -1.091678e-08 9.901941e-07 7.783630e-08
-2.185393e-08 2.287855e-07 4.429922e-07 -9.281775e-07 -1.325387e-06 9.454522e-07
1.245720e-06 1.710878e-07 -6.246367e-07 -1.465200e-06 -6.144186e-07 7.227076e-07
6.208990e-07 -1.256037e-07 -2.787979e-07 5.944963e-08 2.618693e-08 1.654646e-07
7.080361e-07 -1.545397e-07 -3.450180e-07 7.163953e-08 2.521012e-08 2.584920e-07
6.950901e-07 -9.456752e-08 -2.633898e-07 1.194149e-07 2.432193e-08 1.087321e-07
5.234367e-07 -7.437381e-08 -3.871203e-07 2.564538e-07 1.558013e-07 3.362104e-07
-6.143103e-08 6.138728e-07 -2.951352e-07 -5.529447e-07 -7.760332e-07 7.789771e-07
2.639128e-06 -7.817816e-07 -7.576114e-07 7.417653e-07 2.670664e-07 8.120165e-07
3.557973e-07 -9.270940e-08 -2.424697e-07 1.410394e-07 1.806336e-07 3.947557e-07
5.280425e-07 8.011508e-07 -6.277297e-07 -1.496157e-06 -6.853271e-07 8.092184e-07
7.487569e-07 -2.439963e-07 -4.259723e-07 1.420605e-07 1.004777e-07 4.410789e-07
8.890953e-07 -2.177064e-07 -4.228125e-07 1.787319e-07 6.213585e-08 2.428250e-07
8.691339e-07 -1.335273e-07 -4.220878e-07 1.811801e-07 5.431564e-08 2.427890e-07
-7.503625e-08 5.731171e-07 -3.008208e-07 3.694547e-07 9.385952e-07 2.998764e-07
1.869751e-07 2.598056e-07 -2.984830e-07 -7.442541e-07 -5.591687e-07 6.565660e-07
1.820225e-07 3.439552e-07 -2.263957e-07 -7.964362e-07 -7.909430e-07 5.722288e-07
-1.544150e-06 3.843514e-06 -2.546917e-07 -3.311001e-07 1.168323e-06 -1.577038e-07
-2.527021e-07 -2.632550e-07 -1.485476e-07 9.129488e-08 8.841040e-07 3.394506e-07
-1.334985e-06 -1.301924e-07 1.656940e-06 9.305442e-08 9.845496e-07 6.798179e-07
-8.315546e-07 2.094311e-06 -7.023956e-07 -5.208308e-07 -9.077174e-07 1.633031e-07
-7.777385e-07 1.343379e-06 -3.507474e-07 -1.031142e-07 -1.154645e-06 1.195153e-07
-7.311837e-07 1.175314e-06 -2.939033e-07 2.896041e-08 -1.407971e-06 -1.366082e-07
-1.544619e-07 1.874337e-06 -3.897440e-07 -5.137774e-08 -1.857212e-06 1.452028e-07
8.328899e-07 3.277511e-07 3.952153e-07 -2.312982e-06 -3.477825e-07 2.409812e-07
-1.028213e-06 2.505968e-06 -8.211830e-07 -1.116542e-06 -9.453420e-07 2.843729e-07
-1.686800e-06 2.146555e-06 8.902559e-07 8.630164e-07 6.958847e-07 2.988390e-07
-8.103259e-07 1.282522e-06 1.488283e-06 2.812247e-06 3.775975e-07 3.554967e-07
-8.827004e-07 2.031333e-06 -1.478057e-07 -4.304633e-07 -1.676689e-06 2.690639e-07
-4.527069e-07 1.436371e-06 9.208639e-08 1.658650e-06 2.206247e-08 -7.080315e-07
-4.040696e-07 1.055607e-06 -3.186396e-07 -6.847034e-07 -9.919175e-07 3.910300e-07
-4.981087e-08 6.798516e-07 -6.291701e-07 -4.202969e-07 -4.881639e-07 3.087170e-07
7.637852e-07 -6.813911e-06 2.739571e-05 4.943919e-06 3.314338e-06 1.022262e-05
-3.879954e-07 -1.791559e-05 2.957440e-05 -7.513441e-07 -7.797566e-07 1.120224e-05
-4.239454e-07 1.723620e-06 8.329618e-07 8.382741e-07 1.537807e-06 4.487017e-07
-1.960932e-06 2.252767e-06 4.629274e-06 3.141070e-06 -1.831563e-06 -1.466489e-06
-9.941528e-07 8.156251e-07 8.737685e-06 5.538627e-06 -3.835195e-06 -1.432769e-06
-8.088276e-07 2.106085e-06 -8.431822e-09 9.930682e-07 1.518391e-06 6.978525e-07
-1.966512e-05 -2.229701e-05 9.063363e-05 -3.346304e-06 -1.171641e-05 2.615923e-05
1.180773e-06 -1.140065e-05 2.857990e-05 2.448624e-06 1.220788e-06 1.225403e-05
1.671968e-06 -4.987578e-06 9.850595e-06 -3.559368e-06 -1.733917e-06 3.551517e-06
-1.633295e-05 -9.467881e-06 7.364850e-05 9.895290e-06 4.854250e-05 1.318911e-05
-3.219882e-06 7.926300e-07 7.976707e-06 3.629189e-06 3.355473e-06 3.612195e-06
-9.293027e-07 6.441376e-07 1.857457e-07 -5.252476e-07 1.558081e-06 3.083524e-07
-7.451848e-07 1.198378e-06 -4.189804e-08 6.739397e-07 9.587693e-07 2.670431e-07
-3.807040e-07 1.675540e-06 -4.484813e-07 8.012648e-07 1.290406e-06 3.248307e-07
3.895421e-06 -1.534587e-06 4.601942e-07 9.940746e-07 1.128340e-07 5.575657e-08
2.309560e-07 7.480634e-07 -4.593649e-08 1.553044e-06 8.540705e-07 8.383796e-07
1.980967e-09 1.671454e-06 -7.028797e-07 1.191201e-06 8.549547e-07 4.017785e-07
-1.969281e-07 -6.794147e-08 -9.426925e-09 1.531279e-07 9.053262e-07 1.081311e-06
1.310953e-07 -2.755927e-07 -1.527668e-07 1.370496e-07 3.975845e-07 1.112409e-06
-1.040643e-06 2.069353e-06 -5.646624e-07 4.242353e-07 7.886861e-07 1.277685e-07
-4.759148e-07 1.043746e-06 -5.376709e-07 1.510317e-07 9.434170e-07 5.954868e-08
-1.363551e-05 2.373243e-06 4.456031e-05 -1.069747e-06 3.273924e-05 -8.268235e-06
-3.755128e-07 -5.752835e-07 3.202173e-06 -3.314103e-08 -2.093501e-06 1.642258e-06
-3.673419e-06 4.190260e-06 5.069148e-06 -2.137650e-06 5.023558e-07 -1.004680e-07
-5.056324e-07 -2.235004e-07 1.907052e-06 1.596204e-07 -6.610968e-07 -3.314929e-07
-6.220819e-07 4.477421e-07 4.069924e-06 -3.670711e-07 2.298978e-06 3.615701e-07
-3.018513e-07 4.696627e-07 4.447307e-08 7.291310e-07 1.485049e-06 4.368769e-07
1.333976e-08 9.715068e-07 5.739463e-06 2.474607e-06 2.072616e-05 -4.373450e-05
-2.574281e-05 -1.548233e-05 9.017773e-05 6.148587e-06 -2.330822e-06 -1.038893e-05
-1.563392e-06 2.860062e-06 -3.943199e-07 6.882787e-07 5.883226e-07 2.055696e-07
-1.791498e-05 -1.843422e-05 1.043788e-04 3.120073e-06 3.197799e-05 -1.850419e-05
4.405288e-06 -6.759173e-06 6.019295e-06 -3.447862e-07 5.765555e-07 -1.070329e-06
-9.543184e-07 2.944882e-06 -2.568660e-07 1.434781e-06 1.115496e-06 3.997590e-07
1.884875e-06 -8.485517e-07 -4.008525e-07 8.007636e-07 2.636356e-07 9.729236e-07
-6.365316e-07 2.176469e-06 -2.901115e-07 8.653262e-07 1.585017e-06 4.336505e-07
-8.065901e-07 2.222882e-06 -5.117703e-07 1.017994e-06 5.653974e-07 3.347346e-07
-1.847223e-08 -3.122213e-07 -1.548565e-08 1.217049e-07 7.043140e-07 1.075070e-06
-6.451048e-07 2.433795e-06 -7.237775e-07 8.799622e-07 7.079887e-07 2.025143e-07
1.754660e-06 -4.180801e-07 -5.583737e-07 1.225026e-06 3.721574e-07 7.752917e-07
1.701796e-06 6.404529e-07 2.261115e-06 4.077134e-06 1.266585e-07 -3.105579e-07
-4.893114e-07 1.341543e-06 9.955690e-07 3.202077e-06 4.253006e-07 2.924038e-07
-2.511230e-07 1.586843e-06 6.849202e-07 2.025429e-06 9.932298e-07 5.243157e-07
-6.235370e-06 2.675935e-06 1.362757e-05 3.784976e-06 -9.449780e-06 -6.646743e-06
8.221846e-07 2.301006e-07 -2.318032e-07 4.302269e-07 -6.199281e-07 -1.302856e-06
6.812361e-07 -3.472765e-07 -1.159255e-07 -1.144643e-06 -3.888838e-07 7.597031e-07
-1.281490e-07 1.240139e-06 -4.726805e-07 1.497515e-06 9.762468e-07 7.062911e-07
-3.071371e-07 1.802003e-06 1.009043e-06 2.600874e-06 5.055125e-07 2.050086e-07
-2.235075e-06 3.278206e-06 3.189936e-06 1.393597e-06 -1.882676e-08 -3.442520e-07
1.954092e-06 -6.302703e-07 -2.846727e-07 -1.205810e-06 -6.967499e-07 1.079544e-06
2.726612e-06 -5.340343e-07 -4.797990e-07 -1.719462e-06 -3.021263e-07 9.486380e-07
5.879024e-07 -1.287315e-07 -2.770628e-07 -6.043405e-07 -6.571506e-07 1.260363e-06
3.980561e-06 -2.866519e-06 6.556109e-06 -2.959589e-06 2.391217e-07 4.512199e-07
3.014041e-06 -2.816862e-06 6.073865e-06 -3.881654e-06 -3.973847e-07 -2.316648e-07
2.765793e-07 1.038465e-06 -6.469756e-07 -9.919234e-07 6.708920e-07 -4.326626e-07
1.298878e-06 -2.816862e-06 6.454309e-06 -5.065614e-06 4.945507e-07 2.382687e-06
1.866983e-07 -4.309925e-07 -3.368187e-07 -2.328418e-07 -4.102567e-07 8.682521e-07
1.947889e-07 1.619122e-07 -2.036087e-07 1.566737e-07 1.348001e-07 1.274715e-07
5.693541e-08 1.724977e-07 -3.047882e-07 -5.150558e-07 -7.423928e-07 9.644859e-07
3.151206e-07 7.569292e-07 -5.516565e-07 -9.711686e-07 -6.064921e-07 4.447123e-07
1.004720e-06 -1.093828e-07 -5.857917e-07 -1.125625e-06 -4.362253e-07 6.283730e-07
-3.389136e-08 -1.050104e-07 -3.413889e-07 -1.142923e-07 -6.195112e-07 6.938009e-07
3.794857e-07 7.575003e-08 -1.632852e-07 1.515539e-07 7.230771e-08 9.347851e-08
6.238487e-07 5.332331e-08 -3.449704e-07 -3.786343e-07 -1.949529e-07 3.178921e-07
8.191635e-07 -1.350776e-07 -5.098833e-07 -3.768577e-07 -2.175471e-07 3.784574e-07
7.834585e-07 -1.040972e-08 -5.307798e-07 -4.981223e-07 -2.267793e-07 4.512118e-07
4.310097e-07 -8.892284e-08 -2.807840e-07 -2.012949e-07 -2.852066e-07 4.260513e-07
7.626716e-07 -1.179559e-07 -4.050671e-07 -2.565432e-07 -9.188680e-08 3.469708e-07
6.277713e-07 -9.178711e-08 -3.323578e-07 -2.576737e-07 -1.461325e-07 3.817036e-07
4.961786e-06 -4.166941e-06 1.118512e-05 -1.783167e-06 -2.077171e-06 3.899991e-06
9.867753e-07 -1.723413e-07 -5.207700e-07 -3.548359e-07 -1.051321e-07 3.848291e-07
4.094555e-07 -9.222799e-08 -2.457587e-07 -1.347878e-07 -1.010416e-07 3.478898e-07
6.724037e-07 -1.089918e-08 -3.327760e-07 -2.617079e-07 -6.765196e-08 1.326593e-07
5.059438e-07 -7.942010e-08 -1.873959e-07 -7.763360e-08 -3.621079e-08 1.247073e-07
3.077163e-06 -5.082923e-06 1.329544e-05 -2.800421e-06 -4.486849e-07 -6.680475e-06
4.584074e-07 -1.850316e-06 4.054064e-06 -6.743603e-07 1.177469e-06 -3.959369e-08
7.851326e-07 -1.439426e-07 -2.921392e-07 -3.253391e-07 -4.258729e-07 7.790691e-07
1.124788e-06 -2.823150e-07 -6.280793e-07 -2.900212e-07 -9.136510e-08 4.224468e-07
4.574054e-07 -2.478293e-08 -1.992114e-07 -9.228389e-08 -5.461100e-08 1.128373e-07
6.107999e-07 -5.434097e-09 -3.594942e-07 -2.780802e-07 -1.524496e-07 2.143224e-07
1.086212e-06 -1.726261e-07 -3.833732e-07 -6.007007e-07 -3.919668e-07 9.976566e-07
2.353525e-06 1.728139e-07 5.511514e-08 2.454634e-06 -9.698084e-07 -5.631766e-07
7.439772e-07 -9.694854e-08 -4.073144e-07 -4.731355e-07 -3.686338e-07 6.219903e-07
-5.667879e-07 1.462068e-06 -7.527172e-07 7.595159e-07 -7.196625e-07 -2.751904e-07
1.176840e-06 -1.029766e-07 -5.405046e-07 -4.651447e-07 -2.067486e-07 4.846815e-07
-1.748710e-07 2.817541e-07 -3.324067e-07 6.321342e-08 -7.103737e-07 -3.866560e-07
-3.307681e-07 2.114775e-06 -5.401936e-07 1.374292e-06 -8.919657e-07 -4.608909e-07
5.313407e-07 1.509660e-06 -2.860163e-08 2.712154e-06 -9.648704e-07 -7.609117e-07
1.051205e-06 -9.771418e-08 -6.697156e-07 -6.802627e-07 -3.422743e-07 5.738540e-07
-7.607668e-07 2.244977e-06 -6.951434e-07 2.078442e-07 -7.427887e-07 -2.627299e-08
1.339921e-06 -1.562959e-07 -3.570558e-07 -4.352751e-07 -4.158664e-07 8.665278e-07
1.716024e-07 -3.204282e-07 -2.740822e-07 -2.305142e-07 -2.902031e-07 7.902456e-07
5.173703e-07 -2.927516e-08 -1.948196e-07 -1.298055e-07 -2.443964e-08 1.189847e-07
-1.278977e-06 2.513557e-07 5.310193e-07 1.209642e-07 1.181300e-06 7.734181e-07
6.258811e-07 8.597866e-07 -7.396491e-07 1.856347e-06 6.684694e-07 5.930574e-07
5.155301e-07 6.918199e-07 -6.621690e-07 1.077534e-06 5.583808e-07 5.931446e-07
4.874821e-07 -1.070521e-07 -2.140701e-07 -8.663572e-08 -5.354873e-08 2.148856e-07
8.241992e-07 -1.145979e-07 -3.296516e-07 -1.898236e-07 -4.301624e-08 1.765231e-07
1.637536e-06 -1.472941e-07 -4.958677e-07 -1.005601e-06 -7.402738e-07 1.171257e-06
8.106913e-07 1.245937e-06 -4.283329e-07 2.282554e-06 8.684608e-07 7.433737e-07
-1.218681e-06 2.201698e-06 -5.075391e-07 -7.105745e-07 1.369060e-06 -2.782041e-07
-2.802298e-05 -2.960731e-05 9.854360e-05 5.190443e-06 4.117668e-06 5.349222e-06
3.474875e-06 -1.344392e-05 3.192169e-05 3.132421e-06 2.157757e-06 1.163653e-05
-1.598704e-06 -5.780166e-06 2.947260e-05 -8.708486e-06 -1.268939e-05 2.131537e-05
-6.135036e-07 -8.788855e-06 2.596597e-05 2.924169e-06 2.265927e-05 4.374296e-05
-3.256312e-06 -8.716482e-06 3.238339e-05 8.913773e-06 7.855329e-06 1.791555e-05
-1.257209e-05 -3.733765e-06 4.238019e-05 -5.806319e-06 -2.032222e-05 5.823206e-06
-1.947544e-05 -2.733172e-05 1.023305e-04 -3.726429e-06 -9.915796e-07 2.056231e-05
-2.105715e-05 -8.712079e-06 5.165727e-05 3.668935e-06 -1.641039e-05 -2.461155e-06
-1.485670e-05 -8.712079e-06 4.881802e-05 3.233433e-06 -1.526233e-05 -1.193553e-05
-1.367372e-05 -1.923487e-05 7.194842e-05 -3.190220e-06 1.471882e-05 -1.122855e-05
-2.800905e-07 1.220759e-06 4.993836e-07 -8.946677e-07 7.977744e-07 -7.665404e-08
-2.791048e-06 -1.496348e-06 2.101660e-05 7.587355e-06 6.277261e-06 1.373062e-05
-9.623256e-06 -2.329333e-06 4.601363e-05 -6.850251e-06 3.181679e-05 -1.447267e-05
-1.397868e-06 1.964916e-06 1.073453e-06 -3.558938e-07 1.571448e-06 -1.057857e-07
-3.647544e-06 3.618370e-06 3.993795e-06 -2.109261e-06 -1.070211e-06 -3.049884e-07
-1.524606e-05 -2.138157e-05 9.121928e-05 1.227369e-06 8.128119e-06 1.632784e-05
-2.267890e-06 3.298530e-06 1.173243e-06 -8.106921e-07 2.209837e-07 -1.926916e-07
1.398640e-06 -6.257935e-07 -6.263721e-07 1.857102e-07 4.932598e-08 6.804600e-07
1.243717e-06 -3.360214e-07 -6.315093e-07 -2.081706e-07 -1.358979e-07 7.049150e-07
7.873895e-07 -2.422811e-07 -3.047408e-07 -2.141387e-07 -1.610560e-07 4.890285e-07
1.157310e-06 1.086291e-06 -3.547369e-07 2.124849e-06 -5.640819e-07 -5.854115e-08
1.022547e-06 7.512995e-07 -8.864100e-08 1.423738e-06 -1.156200e-06 -1.179870e-06
7.937062e-07 -2.560720e-07 -2.868084e-07 -5.591300e-08 -3.828943e-08 6.032927e-07
5.966588e-07 1.640684e-07 -6.191162e-07 -6.035769e-07 -2.540708e-07 3.581642e-07
1.659116e-06 -6.055339e-07 8.372793e-07 -3.233509e-06 -6.966081e-07 9.763519e-07
3.290336e-07 1.325713e-06 -8.308394e-07 1.289105e-06 -8.111815e-07 -5.791999e-07
1.515621e-06 -5.932983e-08 2.105265e-06 -3.397953e-06 2.002331e-06 -1.491196e-06
-3.985446e-06 -1.931690e-06 4.536242e-05 -1.648747e-07 1.564205e-05 2.850600e-05
3.596638e-06 -2.140495e-06 5.524611e-06 -4.091942e-06 4.854916e-07 -1.933241e-06
3.145090e-07 7.657249e-07 4.113216e-06 -3.622181e-06 6.729831e-07 7.418546e-08
3.713076e-06 -1.615068e-06 4.643206e-06 -2.882751e-06 1.257711e-06 -2.452146e-06
4.253695e-07 9.495601e-08 -3.397781e-07 4.054090e-07 4.151454e-07 4.408321e-07
4.810875e-07 5.577583e-08 -2.482865e-07 2.266634e-07 7.923385e-08 1.216983e-07
6.313173e-07 -5.417670e-09 -3.733939e-07 2.822839e-07 1.167363e-07 2.186771e-07
1.394424e-08 5.724820e-07 -3.287728e-07 3.339078e-07 4.376634e-07 2.435421e-07
5.561230e-07 -8.342954e-08 -2.644366e-07 3.264552e-07 2.376680e-07 3.938395e-07
5.700441e-07 3.353503e-07 -6.111420e-07 7.471291e-07 3.052639e-07 3.917281e-07
4.043821e-07 5.316128e-08 -2.961806e-07 2.123450e-07 9.047735e-08 1.841556e-07
1.993290e-07 3.973739e-07 -3.428125e-07 6.371273e-07 8.002253e-07 6.911669e-07
-8.667648e-08 1.662320e-07 -2.035011e-07 1.555119e-07 6.233213e-07 3.991740e-07
-1.206971e-07 6.667027e-07 -3.349263e-07 3.464084e-07 5.328754e-07 2.903314e-07
-9.693660e-08 1.861631e-07 -1.849290e-07 1.365479e-07 6.431171e-07 4.107251e-07
5.337597e-07 -6.563664e-08 -2.743730e-07 1.870397e-07 8.854805e-08 2.296019e-07
-1.653042e-07 2.282500e-07 -2.998381e-07 1.162463e-07 7.607733e-07 4.579297e-07
6.562057e-07 -2.556499e-08 -4.707517e-07 2.769280e-07 1.590837e-07 2.448772e-07
8.871869e-07 2.488975e-08 -5.906539e-07 5.375553e-07 2.206128e-07 4.366678e-07
-1.400576e-06 2.031651e-07 9.877357e-06 8.716317e-07 -3.552834e-07 -1.361991e-05
-3.573175e-06 -8.343429e-06 2.714749e-05 -4.895590e-06 5.235196e-06 -1.051429e-05
-5.445734e-07 6.260216e-07 5.720997e-06 -4.095395e-07 -7.148866e-06 -7.943280e-06
5.948633e-06 -1.345794e-05 2.014980e-05 -1.225539e-06 -3.289747e-06 -1.954720e-05
-4.000236e-06 1.239560e-06 2.249923e-05 -6.312507e-07 -3.437535e-06 -2.658063e-05
-5.347438e-06 1.334920e-07 1.564179e-05 -8.440246e-06 1.136712e-05 -6.851296e-06
1.112678e-06 -1.301918e-07 -5.674170e-07 4.982175e-07 1.831290e-07 4.329004e-07
5.542489e-07 6.966421e-08 -4.773364e-07 6.244615e-07 3.446388e-07 7.957468e-07
-3.008991e-08 -2.179015e-07 3.546871e-06 1.525772e-08 2.588893e-06 -1.551573e-06
1.778973e-06 -1.854796e-07 4.225894e-07 -2.574841e-06 4.575837e-07 -5.541139e-07
1.436609e-06 4.753029e-08 2.084032e-07 -2.818861e-06 9.265647e-08 1.576439e-08
-4.697931e-07 1.405981e-06 1.067969e-06 -3.518292e-06 1.014298e-06 -3.569974e-07
-4.921796e-07 2.024783e-06 1.317951e-06 -5.236416e-07 -7.712361e-07 6.534509e-07
-1.157628e-06 1.537945e-06 2.040829e-07 -5.947346e-07 -1.386169e-06 8.758977e-07
-8.767849e-07 2.270199e-06 4.064368e-06 -3.932400e-06 3.367783e-07 -1.614532e-07
-6.169479e-07 2.547635e-06 8.019937e-07 -2.702662e-06 -9.749540e-07 7.570991e-07
-5.673951e-07 -5.416969e-07 7.571477e-06 1.448679e-07 3.534342e-07 5.201138e-06
2.421550e-07 7.268910e-07 -2.025354e-07 -2.060895e-06 1.718142e-07 -7.716311e-08
-3.001115e-07 2.768923e-06 1.065796e-06 -3.002631e-06 6.718131e-07 -5.339298e-07
-4.679878e-07 1.292693e-06 -4.694812e-07 2.019512e-07 -1.234213e-06 -2.386036e-07
-1.021134e-07 -3.438165e-07 5.557477e-06 7.831823e-07 -5.487892e-06 5.367173e-06
-2.921285e-07 -1.113012e-07 1.839718e-06 1.378308e-07 -1.699398e-07 -5.528373e-07
-6.246610e-07 2.137280e-06 -7.479449e-07 4.666007e-07 -6.706662e-07 -1.492136e-07
-3.524572e-07 8.809775e-07 -3.757361e-07 8.920440e-08 -1.026465e-06 -3.183229e-07
1.596338e-06 -5.674108e-07 -7.091713e-07 2.950331e-07 6.199434e-08 5.650374e-07
1.701790e-06 -7.508072e-07 2.131475e-07 1.085816e-06 -8.209625e-08 1.291239e-06
1.535046e-06 -3.566752e-07 -7.297596e-07 2.892459e-07 1.095946e-07 5.198454e-07
-7.632328e-07 1.495401e-06 -7.607968e-07 1.572770e-07 -1.034321e-06 -5.265728e-08
-1.026149e-06 2.390875e-06 -1.114482e-07 5.388037e-07 -8.919497e-07 -1.393094e-07
-3.590887e-07 2.349441e-07 -3.147787e-07 -7.208302e-09 -1.308841e-06 -5.543475e-08
-5.527696e-07 1.928257e-06 -3.513342e-07 8.523779e-07 -9.505405e-07 -3.547305e-07
2.379552e-07 6.001923e-08 -2.691082e-07 2.008804e-07 2.376495e-07 2.892973e-07
3.337724e-07 -9.293457e-08 -2.414256e-07 1.622343e-07 1.822540e-07 4.005569e-07
8.032040e-07 1.030075e-07 -5.585871e-07 5.613718e-07 1.628313e-07 3.225748e-07
3.175429e-07 1.121310e-06 -7.603307e-07 -1.192146e-06 -5.070255e-07 3.638182e-07
-1.101557e-06 1.928612e-06 -2.651344e-07 1.029183e-06 -1.012428e-06 -3.825945e-07
5.539331e-07 -1.576181e-07 -2.210791e-07 -5.589816e-08 -3.541846e-08 1.860344e-07
4.862555e-07 -1.808199e-07 -2.295089e-07 -5.024373e-08 -5.045242e-08 3.105736e-07
1.234847e-06 -2.950156e-07 -5.619646e-07 -1.494531e-07 -1.372033e-08 4.546166e-07
-2.169506e-07 2.404166e-07 -3.161478e-07 -8.963385e-08 -6.809908e-07 2.813284e-07
4.674039e-07 2.432301e-07 -4.233618e-07 -4.309203e-07 -1.480981e-07 1.850448e-07
2.519808e-07 5.508208e-07 -3.702334e-07 -5.613760e-07 -6.325237e-07 3.593734e-07
1.013668e-06 -3.431806e-07 -5.212306e-07 1.506376e-07 7.020227e-08 6.609705e-07
7.980813e-07 -3.352723e-07 -4.620351e-07 -9.814755e-08 -6.645633e-08 6.792521e-07
1.145669e-06 -2.506922e-07 -5.665456e-07 -3.004117e-07 -1.836545e-07 5.932933e-07
4.257447e-07 -1.427309e-07 -2.474227e-07 -8.636288e-08 -1.006658e-07 3.554886e-07
1.194726e-06 -4.490856e-07 -6.017043e-07 -3.941330e-07 -1.193623e-07 6.411326e-07
7.604579e-08 2.047804e-07 -3.197985e-07 -1.584996e-07 -4.005265e-07 3.364601e-07
5.019716e-08 5.411531e-07 -3.177697e-07 -3.852303e-07 -4.231130e-07 3.094343e-07
6.634879e-08 1.110674e-06 -7.271914e-07 -8.443949e-07 -6.605538e-07 2.895906e-07
-3.599957e-07 8.088909e-07 -3.264557e-07 -5.296506e-07 -1.132132e-06 1.090731e-07
9.662626e-07 -3.185419e-07 -4.850143e-07 1.066524e-07 3.283512e-11 3.514300e-07
7.045123e-07 -2.099239e-07 -2.304689e-07 5.497456e-08 3.061188e-08 2.514586e-07
1.174670e-06 -4.146035e-07 -6.199200e-07 -4.442224e-08 -2.482729e-08 4.944105e-07
6.703083e-07 -1.464984e-07 -2.034904e-07 3.653140e-08 3.868742e-09 1.499523e-07
7.206864e-07 -1.977088e-07 -2.972634e-07 -2.760534e-10 -1.867687e-08 2.839451e-07
-5.631505e-07 1.612054e-06 -7.357002e-07 8.202179e-08 -6.801982e-07 1.289542e-08
-1.645457e-06 2.411333e-06 8.167994e-09 -1.941013e-07 -8.762348e-07 9.352342e-08
4.531478e-07 -2.501378e-07 -2.596804e-07 -2.871613e-08 -9.025501e-09 5.039279e-07
-3.046112e-07 2.363893e-07 -3.322288e-07 -2.297921e-08 -8.830043e-07 3.164810e-08
-3.674408e-07 9.159987e-07 -4.550043e-07 4.268273e-07 -9.110406e-07 -2.297260e-07
2.785394e-07 1.102294e-06 -8.148182e-07 1.004352e-06 -7.622460e-07 -4.254280e-07
-4.031343e-07 1.835119e-06 -7.527306e-07 5.095949e-07 -7.159002e-07 -2.781514e-07
8.385731e-07 -2.028862e-07 -3.841364e-07 8.816183e-08 1.990953e-08 3.294191e-07
7.093856e-07 -2.112177e-07 -3.461587e-07 5.214193e-08 1.267885e-08 2.505574e-07
-5.889243e-07 1.148021e-06 -4.038910e-07 6.687708e-07 -1.191749e-06 -4.773564e-07
5.472539e-07 -1.662759e-07 -2.343361e-07 4.102221e-08 1.291613e-08 2.162977e-07
-2.099140e-07 1.045568e-06 -6.780138e-07 3.770334e-07 -5.849350e-07 -2.681672e-07
-3.429477e-07 1.185752e-07 -2.387125e-07 -1.005566e-07 -1.080511e-06 -2.423758e-07
-6.595698e-07 1.914335e-06 -7.516753e-07 6.905447e-07 -8.988366e-07 -2.557765e-07
-6.779513e-08 6.981868e-07 -4.827851e-07 2.920142e-07 3.428889e-07 1.930089e-07
-3.423936e-07 2.677449e-08 -2.556541e-07 -6.557030e-08 -8.341195e-07 -5.437640e-07
-1.393980e-07 6.577315e-07 -3.355595e-07 2.938679e-07 5.129915e-07 2.859236e-07
3.178102e-08 6.967425e-07 -6.288724e-07 5.625402e-07 3.989399e-07 2.894510e-07
1.736175e-07 3.763665e-07 -3.199767e-07 2.392546e-07 1.523239e-07 1.207885e-07
1.563426e-07 7.415790e-07 -5.939849e-07 6.381035e-07 3.574209e-07 2.226276e-07
-3.155693e-07 1.329305e-06 1.101014e-07 1.951424e-06 5.459613e-07 3.371097e-07
2.145261e-08 2.816049e-07 -2.280379e-07 1.354688e-07 2.576763e-07 1.663523e-07
1.563426e-07 7.319302e-07 -5.984885e-07 5.317510e-07 3.239315e-07 2.154060e-07
1.413436e-08 8.525692e-07 -6.256863e-07 4.523556e-07 3.598835e-07 2.435744e-07
2.927365e-07 3.780755e-08 -2.396539e-07 -1.755984e-07 -1.969704e-07 2.673518e-07
1.740077e-07 8.959100e-07 -6.712043e-07 7.919510e-07 4.982534e-07 2.979773e-07
3.529841e-07 2.699822e-08 -2.214890e-07 -1.461615e-07 -1.234407e-07 1.903809e-07
-1.493621e-07 4.183710e-07 -2.704437e-07 -8.628714e-08 4.874982e-07 -2.233780e-07
4.816442e-07 5.821544e-07 -1.649518e-07 -1.208909e-06 1.091155e-06 -8.280910e-07
-6.063762e-07 2.232630e-06 -4.335442e-07 -9.001415e-07 7.885212e-07 -2.665064e-07
7.775585e-07 7.145049e-07 -9.006184e-07 -1.666162e-06 7.610428e-07 -6.381696e-07
2.962951e-07 9.614901e-07 -7.892130e-07 -1.199152e-06 7.264814e-07 -5.044679e-07
-3.034731e-07 1.155901e-06 -6.132342e-07 -2.091072e-07 5.012765e-07 -1.360031e-07
5.853015e-07 1.797598e-07 -4.102301e-07 -4.086694e-07 -1.623624e-07 2.163350e-07
4.330546e-07 3.465209e-08 -2.150369e-07 -1.915186e-07 -1.616477e-07 2.414014e-07
4.060706e-07 4.386702e-08 -1.883404e-07 -1.796989e-07 -9.191155e-08 1.464152e-07
-3.681852e-07 1.127644e-06 -6.260126e-07 -1.124255e-07 5.116520e-07 -8.683763e-08
-4.562142e-07 1.666355e-06 -6.961958e-07 -7.571931e-07 7.176960e-07 -2.538621e-07
-1.323086e-07 -2.770456e-07 4.227224e-07 -9.979585e-08 9.503916e-07 -5.298515e-07
-1.475360e-06 1.343044e-06 2.537349e-06 1.291801e-06 4.358298e-07 1.117722e-06
-3.775028e-07 1.083763e-06 -3.812679e-07 -1.283397e-07 8.496224e-07 -1.201956e-07
-6.634467e-07 1.915184e-06 2.146415e-07 -2.441846e-06 1.132670e-06 -6.904209e-07
6.147862e-07 2.428366e-07 -3.737635e-07 -1.149990e-06 1.271239e-06 -7.845329e-07
-2.972003e-07 3.956780e-08 -1.350656e-07 6.023978e-09 1.081603e-06 -5.334857e-07
-2.688063e-06 3.564407e-06 6.292278e-06 4.087726e-06 6.124619e-06 2.847396e-06
-2.434358e-07 1.804413e-07 -2.799486e-07 5.369534e-09 7.486519e-07 -3.437335e-07
-8.711759e-07 1.135183e-06 1.375416e-08 5.221076e-07 9.925691e-07 2.155600e-07
-4.881242e-07 2.879605e-07 2.041052e-06 2.273984e-07 -3.092648e-07 1.178651e-07
8.560853e-07 -1.742559e-07 -4.198530e-07 -2.052475e-07 -4.597856e-08 2.492141e-07
8.322407e-07 -2.090987e-07 -3.918737e-07 -2.279773e-07 -1.006349e-07 4.160240e-07
9.472673e-07 -2.898794e-07 -4.822554e-07 -1.324086e-07 -3.509518e-08 3.272775e-07
5.074154e-07 -1.644858e-07 -2.208619e-07 -7.453595e-08 -3.854860e-08 2.935190e-07
-1.069113e-07 -8.766298e-07 1.144410e-07 3.654866e-07 -4.844422e-07 -7.152426e-07
-7.508276e-06 -4.292026e-06 3.563508e-05 1.522681e-06 -2.139336e-05 -2.340723e-05
1.154084e-07 6.512397e-07 -5.429196e-07 4.433588e-07 2.751061e-07 2.308940e-07
3.484720e-06 -1.535803e-05 4.338171e-05 9.990133e-07 1.718051e-06 -2.767252e-05
2.634049e-07 2.661892e-07 -2.903940e-07 2.113934e-07 8.032812e-08 1.038912e-07
3.468035e-07 4.741552e-07 -4.563166e-07 5.672575e-07 4.240721e-07 3.827895e-07
2.942304e-06 -1.032072e-06 4.054198e-06 1.577701e-06 -1.608440e-06 -4.405047e-06
2.808581e-06 -1.282677e-06 4.373547e-06 -1.623196e-06 1.398650e-06 -4.465610e-06
-5.674339e-07 2.014498e-06 9.776340e-07 -1.665593e-06 8.904326e-07 3.251872e-08
2.824988e-06 -6.303234e-06 2.039604e-05 -2.211100e-06 5.396172e-06 -1.056985e-05
-2.828665e-07 1.070263e-07 -1.785518e-07 1.252532e-08 9.478125e-07 1.661004e-07
-5.567512e-07 1.506520e-06 -6.369706e-07 3.382776e-07 7.092148e-07 1.214464e-07
5.599143e-06 -7.157401e-06 9.875694e-06 -1.541347e-06 9.380394e-07 -4.058549e-06
-1.670203e-08 -4.372481e-06 1.514537e-05 -2.664736e-07 -1.950661e-06 -1.090083e-05
-3.718465e-07 -6.107940e-06 1.727148e-05 5.581135e-07 3.158004e-06 -1.307673e-05
-4.996966e-07 1.109776e-06 -6.394685e-07 2.187618e-07 7.467342e-07 1.110363e-07
4.726329e-06 -6.794214e-06 8.707172e-06 -1.060549e-06 1.026493e-06 -5.281667e-06
-8.680427e-07 2.919928e-06 -7.786524e-07 -4.506759e-07 1.116965e-06 -1.932867e-07
-7.002465e-06 -1.677836e-05 5.079014e-05 5.081799e-06 3.081587e-06 -2.829238e-05
-3.005796e-07 2.245351e-07 -2.279490e-07 -1.503413e-09 8.283729e-07 -2.056142e-07
3.396065e-06 -3.144308e-06 6.597259e-06 2.439812e-06 1.002762e-06 -1.876021e-06
4.170511e-06 -4.616417e-06 8.244798e-06 -2.350434e-06 1.899798e-06 -7.247658e-06
-2.804945e-07 2.204387e-07 -2.302924e-07 1.732142e-08 6.923036e-07 -2.044357e-07
4.933322e-06 -4.858582e-06 8.453027e-06 -1.693711e-06 1.762189e-06 -5.514307e-06
6.257614e-07 -1.277739e-07 -3.268012e-07 -9.917562e-08 -3.928632e-08 1.902338e-07
6.652124e-07 -1.356552e-07 -3.080468e-07 -1.697166e-07 -9.565029e-08 2.286685e-07
3.565325e-07 -1.281798e-07 -3.406375e-07 -1.561814e-07 -2.484899e-07 5.745236e-07
9.441197e-07 -1.344418e-07 -3.029255e-07 -6.549678e-07 -3.333654e-07 8.557870e-07
1.160078e-06 -3.812294e-07 -5.971444e-07 -3.837145e-07 -1.451579e-07 6.509620e-07
5.942644e-06 -6.755497e-06 1.000328e-05 -1.595278e-07 -4.993062e-07 -6.700362e-06
1.281071e-06 -3.623237e-07 -5.997689e-07 -1.813567e-07 -1.406929e-07 6.638703e-07
2.737208e-06 -6.368512e-07 -5.032445e-07 -1.376786e-06 -3.852468e-07 1.001097e-06
4.148699e-08 -1.869286e-07 -2.279055e-07 -1.088948e-07 -5.276868e-07 9.758661e-07
1.914175e-06 -5.955540e-07 -5.509847e-07 -8.824910e-08 4.338633e-08 7.405241e-07
-2.285454e-06 -1.427203e-05 3.690445e-05 1.512790e-06 -3.041871e-06 -1.632656e-05
1.201843e-06 -5.303397e-07 -6.175800e-07 -6.637761e-07 -3.299682e-07 7.774949e-07
2.790850e-07 8.850672e-07 -7.247448e-07 -9.141209e-07 -4.807238e-07 4.475723e-07
2.199669e-07 -1.292975e-07 -2.758027e-07 -1.294836e-07 -3.107068e-07 6.364022e-07
1.500224e-06 -7.348029e-06 3.172679e-05 3.758221e-07 -6.281315e-06 -2.331803e-05
2.184429e-07 8.808159e-07 -7.347713e-07 -9.339064e-07 -4.874217e-07 4.123329e-07
1.859833e-06 -7.824702e-07 9.596280e-07 -2.198532e-06 -4.385959e-07 1.047968e-06
1.086671e-06 -1.999265e-07 -5.491469e-07 -5.894053e-07 -2.005448e-07 8.407564e-07
-1.225396e-05 4.190269e-06 3.193982e-05 8.236262e-07 2.923417e-05 -8.535036e-06
8.119846e-07 8.862895e-07 -7.668197e-07 -1.487848e-06 -4.745269e-07 4.312427e-07
-1.918667e-06 3.034626e-06 1.270570e-06 -1.429515e-06 -2.997291e-07 1.365256e-07
-6.891324e-07 1.203409e-06 3.711356e-07 -1.940309e-06 -1.041113e-06 6.363287e-07
-1.995190e-05 -1.192834e-05 9.742215e-05 -2.512855e-06 3.013328e-05 -7.195625e-06
-2.923655e-07 -5.338180e-08 3.431588e-07 -7.650407e-08 -1.059141e-06 9.844459e-07
-5.246949e-07 2.313678e-06 1.772002e-06 -2.907252e-06 -9.222387e-07 2.872015e-07
-1.607482e-06 -1.555792e-05 3.821789e-05 -4.080659e-06 -1.657143e-06 -4.797265e-05
-2.922703e-07 -7.869940e-08 -1.815556e-07 -3.978826e-08 -9.631252e-07 4.099078e-07
-3.219579e-07 6.765242e-07 -1.983906e-07 -1.046768e-07 -1.388098e-06 1.644501e-07
1.249115e-06 3.101764e-07 -5.323574e-07 -2.401703e-06 -7.101699e-07 7.896812e-07
1.171081e-07 1.597197e-06 -7.120782e-07 1.831541e-06 6.944086e-07 4.592230e-07
-2.368656e-07 -2.569282e-07 1.959746e-07 -8.376254e-08 -7.986121e-07 8.599858e-07
-2.645604e-07 -5.400901e-08 -1.562552e-08 -7.432185e-08 -4.972702e-07 3.866899e-07
2.511505e-07 -6.642561e-06 1.973800e-05 -7.965922e-06 4.367837e-06 -1.262147e-05
-1.272527e-05 -2.178211e-05 7.836639e-05 -1.450759e-06 2.095321e-05 -2.554146e-05
-4.139836e-06 4.283622e-06 6.718485e-06 -1.717218e-06 -1.732508e-06 1.336473e-06
-2.869099e-06 1.907470e-06 4.092106e-06 -4.491623e-06 -8.831007e-08 2.343996e-07
-1.800840e-05 5.021539e-07 4.619205e-05 1.493139e-06 -5.075617e-05 -1.440122e-05
-1.456793e-05 -2.483934e-05 1.142682e-04 -2.916916e-06 1.271208e-05 -2.695585e-05
1.209241e-06 -2.264483e-06 1.535796e-05 9.440814e-07 -8.548764e-06 6.557824e-06
-4.087948e-06 2.506594e-06 1.368945e-05 -4.979328e-06 9.875621e-06 -6.959782e-06
-1.058558e-05 -6.271473e-06 3.099269e-05 -6.320970e-06 3.854683e-05 -1.971242e-05
-9.736812e-07 1.409735e-06 1.214460e-06 4.929487e-07 1.974758e-06 3.154919e-08
-5.777359e-07 1.014134e-06 -1.036849e-07 6.702950e-07 9.783924e-07 1.173010e-07
-6.374723e-07 5.123512e-07 2.836045e-07 3.044618e-07 -1.177001e-06 -4.095062e-07
-7.298207e-07 1.209627e-06 1.504247e-08 4.192696e-07 9.267489e-07 3.001423e-07
-3.932227e-07 1.313259e-07 -1.428991e-07 -1.641141e-07 1.151217e-06 -1.938372e-07
2.869612e-06 -1.521315e-06 -5.956642e-07 6.971346e-08 -2.254586e-07 1.119352e-06
2.529794e-07 -2.703436e-07 -2.194377e-07 -1.376130e-07 -1.794241e-07 1.076725e-06
1.606172e-06 -9.621830e-07 -3.084748e-07 -7.807156e-08 -4.180244e-08 8.943866e-07
2.800747e-06 -1.419445e-06 -5.700238e-07 -4.995216e-07 -3.059342e-08 1.095671e-06
1.939688e-06 -4.490856e-07 -7.267950e-07 -5.246609e-07 -1.922415e-07 7.370848e-07
9.600699e-07 -2.866759e-07 -3.657010e-07 -5.791106e-08 -1.208815e-07 1.055018e-06
-3.408038e-07 1.258355e-07 -1.799961e-07 1.295854e-08 1.785269e-06 5.157105e-08
3.592793e-06 -1.198470e-06 -4.883511e-07 -1.194978e-06 -4.380827e-07 9.034725e-07
-2.559623e-07 8.921679e-07 3.642053e-07 1.041810e-06 1.286917e-06 4.728408e-07
-6.593952e-07 1.906697e-06 -3.178475e-07 1.366114e-06 1.044359e-06 4.588380e-07
3.892806e-06 -2.649124e-06 -6.754733e-08 -3.142319e-07 -3.316496e-07 1.212822e-06
1.257680e-06 -5.910006e-07 -3.268186e-07 1.628788e-07 1.325237e-07 1.100429e-06
-1.458700e-06 1.383597e-06 9.382779e-07 9.454007e-07 1.226363e-06 5.361592e-07
2.608190e-07 3.198573e-07 -7.660177e-08 -9.968666e-07 -9.815968e-07 1.191035e-06
-6.756380e-07 2.018373e-06 1.202843e-07 1.770835e-06 5.151393e-07 3.584371e-07
-1.730943e-06 3.879258e-06 5.270528e-07 6.821190e-07 -9.060812e-07 -4.145713e-07
-8.433709e-07 1.403273e-06 5.106130e-07 8.635763e-07 1.261676e-06 1.424057e-07
-1.332950e-06 2.587181e-06 4.643085e-07 1.064398e-06 9.343285e-07 1.491638e-07
-1.583703e-08 5.863133e-07 -3.259684e-07 6.839218e-07 1.303574e-06 5.139755e-07
1.711817e-07 5.822340e-07 4.186557e-06 -1.952960e-06 5.334286e-07 -1.220090e-07
-6.334265e-07 -9.945253e-07 1.836018e-06 -2.773081e-07 -1.068042e-06 1.136163e-06
-4.234020e-07 1.023071e-06 3.959540e-07 1.232590e-06 3.580810e-07 6.467224e-07
7.645178e-08 -2.257786e-07 -2.342351e-07 -9.047620e-08 -3.976433e-07 8.688459e-07
8.429115e-07 -9.544388e-08 -6.755402e-07 -6.710451e-07 -3.471089e-07 6.171612e-07
5.377538e-07 4.469403e-08 -1.076695e-07 -1.388003e-06 -8.464430e-07 7.213699e-07
-1.332627e-06 9.880234e-08 9.858705e-07 -2.307352e-07 1.474119e-06 7.881719e-07
-1.406519e-06 2.582307e-06 3.616735e-07 1.383475e-06 -7.779049e-08 2.820986e-07
1.659357e-06 -1.122373e-06 -1.730290e-07 1.161565e-06 9.674727e-07 1.182893e-06
1.278125e-06 7.441779e-07 1.835608e-07 2.068670e-06 9.169525e-07 4.871843e-07
-4.707928e-07 4.752479e-08 -6.607744e-08 -2.324228e-07 1.094988e-06 -6.089574e-07
1.520463e-06 -2.599192e-06 7.183228e-06 4.640951e-06 -8.323054e-07 -2.956880e-06
2.236336e-06 -8.265603e-07 -2.915433e-07 8.040554e-07 2.219771e-07 7.812065e-07
-2.208249e-07 7.486794e-07 -3.993335e-07 -3.426791e-07 8.548482e-07 -3.230073e-07
-4.964063e-07 1.686030e-06 -6.692463e-07 -5.983985e-07 8.561515e-07 -1.906747e-07
-2.529647e-05 -2.138157e-05 8.712083e-05 4.125303e-07 7.983265e-06 3.907128e-06
-2.630018e-05 -2.261168e-05 1.431599e-04 3.757695e-06 -3.078399e-05 -2.631134e-05
4.200101e-06 -1.079942e-05 1.338725e-05 1.990129e-06 -5.492510e-07 -5.102841e-06
-1.089208e-06 -1.742733e-06 1.256523e-05 3.480905e-07 2.384293e-06 -1.116244e-05
-1.502810e-06 1.672244e-06 2.643200e-07 1.325412e-07 1.828844e-06 -1.779358e-07
-6.207050e-07 1.506667e-06 -4.894263e-07 -8.424578e-07 1.625367e-06 -2.048798e-07
-1.739014e-05 -2.053458e-05 1.144538e-04 -5.452032e-07 -3.755883e-05 -1.271655e-05
-1.032852e-06 1.738410e-06 -5.859041e-07 -3.859257e-07 1.523691e-06 -8.353382e-07
-4.438111e-07 6.569319e-07 -9.754669e-08 -3.278954e-07 1.259915e-06 -2.491005e-07
2.229544e-06 -7.214954e-06 1.433783e-05 4.960153e-06 -6.223700e-06 -9.989734e-06
-3.855853e-07 3.744358e-07 -1.394122e-07 -1.151517e-07 9.840377e-07 -2.117631e-07
-3.032277e-06 -1.082317e-05 2.778493e-05 1.573425e-06 -1.043575e-06 -1.351901e-05
-4.475324e-06 -1.773204e-06 1.614508e-05 8.206221e-07 2.967027e-06 -3.653962e-05
-4.992061e-07 5.242734e-07 -2.313655e-07 2.503833e-07 9.748657e-07 -9.685295e-08
2.665179e-06 -1.575249e-06 5.827155e-06 3.673842e-06 8.216105e-07 1.043749e-06
-5.476849e-07 6.228208e-08 4.769169e-06 1.061866e-07 4.282761e-06 3.314277e-06
2.186672e-06 -1.650464e-06 9.793097e-07 1.672677e-06 3.230092e-07 -6.205549e-08
-5.039635e-08 1.013119e-06 -6.334543e-07 -4.249221e-07 4.097199e-07 -1.786934e-07
2.788023e-06 -1.628413e-06 -5.183838e-07 1.732021e-06 1.304553e-06 -8.771021e-07
2.270341e-06 -9.961800e-07 5.635968e-07 1.523641e-06 -7.143239e-07 -6.719221e-07
1.292149e-06 -1.621899e-07 2.496692e-06 3.587467e-06 1.156123e-06 8.524781e-07
1.783050e-06 -5.947965e-07 1.223092e-06 1.769217e-06 -1.888314e-07 -1.513841e-07
-3.042054e-07 1.380423e-06 -5.233751e-07 -8.677130e-07 8.856368e-07 -4.737537e-07
3.417829e-07 -1.952554e-07 -2.623787e-07 -8.110055e-08 -1.500717e-07 7.080214e-07
-1.553881e-07 1.232794e-06 -7.242290e-07 -8.496862e-07 5.852987e-07 -2.666342e-07
9.080468e-07 -2.386830e-07 -5.714029e-07 -2.793365e-07 -1.468139e-07 4.494986e-07
1.272684e-06 -3.173757e-07 -5.730075e-07 -4.815664e-07 -1.647949e-07 4.892135e-07
2.138260e-06 -9.801002e-07 -7.126374e-07 -1.487582e-07 -7.299092e-08 7.669639e-07
1.334140e-06 -6.747242e-07 -4.012162e-07 -2.008201e-07 -5.764866e-08 1.322744e-06
1.117398e-06 -4.358188e-07 -4.119133e-07 -5.970123e-07 -3.005123e-07 9.863170e-07
-2.352974e-07 1.931670e-06 -7.564072e-07 -1.065442e-06 8.589041e-07 -4.424301e-07
1.998610e-06 -7.902404e-07 -7.258784e-07 -4.944906e-07 -1.774650e-07 7.259863e-07
-5.067197e-07 1.590299e-06 -6.531481e-07 2.870612e-07 6.423822e-07 1.208622e-07
1.504301e-07 -2.352469e-07 -2.161210e-07 -2.545052e-08 -2.198086e-07 1.088707e-06
1.352338e-06 -9.907728e-07 -2.400037e-07 7.169159e-09 -2.605747e-07 1.523322e-06
-3.134349e-07 4.352097e-07 -4.021275e-07 -3.436359e-08 8.912348e-07 -1.338756e-07
-3.888426e-07 8.809489e-07 -3.235085e-07 -1.764011e-08 6.027041e-07 -3.850409e-08
2.981177e-07 -2.332253e-08 -2.810752e-07 -2.464852e-07 -2.633425e-07 4.508698e-07
-9.693660e-08 3.099913e-07 -2.341749e-07 1.155835e-07 3.740214e-07 1.654213e-07
-1.512461e-06 2.604511e-06 8.147655e-07 1.460433e-07 -2.103876e-06 5.531173e-08
1.407856e-06 -2.056991e-07 -6.936019e-07 -8.208965e-07 -2.909479e-07 6.572869e-07
1.350926e-07 1.795703e-07 -2.393289e-07 1.675707e-07 1.967905e-07 1.875133e-07
3.283655e-07 1.980011e-07 -2.393986e-07 2.931132e-07 2.780212e-07 2.913680e-07
7.612918e-07 -1.794930e-07 -4.601805e-07 -2.865457e-07 -1.610716e-07 3.900040e-07
4.387890e-07 3.779334e-08 -2.734411e-07 -3.401978e-07 -2.858936e-07 4.868902e-07
3.980091e-07 2.860505e-07 -6.107059e-07 -7.686574e-07 -4.664414e-07 5.564127e-07
5.345505e-07 -9.703274e-08 -4.080941e-07 -5.311190e-07 -3.690361e-07 5.579689e-07
4.723138e-07 -4.434317e-08 -1.787004e-07 -8.349950e-08 -3.565588e-08 1.046736e-07
8.813621e-07 1.130570e-07 -6.275252e-07 -7.818894e-07 -3.737801e-07 4.374304e-07
6.591508e-07 -3.448661e-08 -4.640927e-07 -3.642101e-07 -1.295893e-07 3.122183e-07
2.227822e-06 -6.266500e-07 -7.478293e-07 2.917382e-08 3.717863e-09 8.083571e-07
1.266974e-06 -5.285071e-07 -4.162868e-07 -7.118925e-08 1.670536e-08 9.702730e-07
-1.834970e-07 1.238503e-06 -8.210345e-07 7.896088e-07 -5.986503e-07 -4.113228e-07
3.671724e-06 -1.097576e-06 -3.511140e-07 -1.816516e-06 -8.232650e-08 7.586892e-07
7.004120e-08 5.653867e-07 -7.208022e-07 6.503706e-07 -6.937761e-07 -4.308466e-07
-2.968067e-08 9.294381e-07 -6.878773e-07 5.244350e-07 -7.466762e-07 -2.769068e-07
3.756837e-07 1.386924e-06 -8.007093e-07 1.228264e-06 -7.675147e-07 -6.188459e-07
-1.048629e-07 7.565192e-07 -6.720326e-07 3.789055e-07 -5.720968e-07 -2.676466e-07
-4.131004e-07 3.706204e-07 -3.538015e-07 2.711727e-08 -6.620217e-07 -2.964610e-07
-3.415387e-07 -1.413805e-07 9.005864e-08 -1.269152e-07 -1.289348e-06 -5.476545e-07
9.199259e-07 -3.791698e-07 -2.905293e-07 2.355985e-07 1.914955e-07 1.045947e-06
-5.008145e-07 9.954117e-07 -4.766303e-07 2.809055e-07 7.390383e-07 2.741476e-07
1.460880e-06 -5.674108e-07 -6.871226e-07 2.978235e-07 5.984969e-08 6.027486e-07
1.505284e-06 -4.786301e-07 -6.290347e-07 6.462150e-07 1.567632e-07 8.901853e-07
2.106468e-06 -9.284702e-07 -7.510072e-07 2.251765e-07 -2.856752e-08 8.280448e-07
-6.939146e-07 1.547155e-06 -3.257822e-07 6.832241e-08 -1.340470e-06 -9.348768e-08
-7.280872e-07 7.167287e-07 -1.139654e-07 -4.877738e-07 -1.523425e-06 -3.395875e-07
-9.197663e-07 8.781412e-07 4.656067e-07 7.044093e-07 -8.239385e-07 6.619777e-09
-7.242483e-07 9.366564e-07 5.139734e-08 6.191240e-07 -1.373303e-06 -2.458938e-07
-1.658367e-06 1.091790e-06 1.530406e-06 1.006026e-06 -1.367473e-06 -1.522198e-07
4.458655e-08 1.826458e-08 2.359778e-07 9.873744e-07 -1.115492e-06 -6.896464e-07
-1.055664e-06 3.123605e-06 -6.286756e-07 -3.497863e-07 -1.019309e-06 1.241084e-07
-1.251194e-06 3.411469e-06 -6.379229e-07 7.483418e-07 -7.907281e-07 -3.469369e-07
-4.679878e-07 1.005359e-06 -2.743365e-07 1.858680e-07 -7.820725e-07 -1.847266e-07
-7.059335e-07 2.050324e-06 -5.070936e-07 2.611149e-07 -1.028070e-06 -1.533206e-07
-1.618830e-06 2.331354e-06 8.265598e-08 3.468282e-07 -8.619364e-07 3.195306e-08
-3.240318e-07 -4.501130e-07 4.693804e-07 3.261331e-08 -9.610089e-07 2.226767e-07
-8.916528e-07 1.007333e-07 8.648582e-07 3.042005e-07 -1.717267e-07 -2.306779e-07
-8.997357e-07 1.653759e-06 3.640071e-07 8.646615e-07 -1.040412e-06 -4.695660e-07
-2.265898e-06 2.743408e-06 3.226379e-06 -1.167557e-06 -6.457434e-07 5.823850e-07
-1.405656e-06 3.149207e-06 1.963529e-06 2.863138e-06 1.804181e-07 -3.522665e-08
-1.324934e-05 -1.680531e-05 4.951025e-05 -2.123962e-06 4.844912e-06 -1.630403e-05
-3.372476e-06 2.630332e-06 3.070984e-06 -5.294320e-07 -2.249347e-06 -6.235320e-07
-2.722414e-06 3.056933e-06 3.260256e-06 2.224783e-06 -8.565964e-07 -1.201087e-07
-8.783244e-06 -2.135615e-06 3.964421e-05 8.687185e-06 1.766462e-05 1.101727e-05
-1.085524e-05 -1.803632e-06 3.266320e-05 8.042825e-06 1.767609e-05 6.178682e-06
-2.721049e-07 6.998957e-07 -3.300284e-07 -2.329586e-07 7.151570e-07 -5.841783e-08
-3.003694e-07 3.001107e-07 -1.954198e-07 1.206483e-08 1.039954e-06 -2.029267e-07
-2.947520e-06 3.925131e-06 2.569304e-06 1.041932e-06 -1.174843e-07 -1.048517e-06
-5.001729e-06 3.174750e-06 6.567325e-06 1.143084e-06 -7.144732e-07 -7.724680e-07
-4.326419e-07 1.060198e-06 -3.664601e-07 -5.866368e-08 8.407701e-07 -1.378067e-07
-8.778195e-07 2.134782e-06 -7.901836e-07 -2.997210e-07 7.486632e-07 3.607019e-08
-3.372652e-06 4.607695e-06 6.782738e-06 -2.670169e-07 -2.967668e-06 -5.179356e-07
2.638342e-07 -1.322460e-06 8.689741e-07 -2.465253e-07 -2.659397e-07 7.682851e-07
4.829687e-06 -2.669726e-06 7.985255e-07 -5.547081e-07 -2.159365e-07 5.295918e-07
-5.302362e-06 4.853959e-06 8.067774e-06 2.989946e-07 -2.327868e-06 -1.512952e-07
-1.189514e-06 2.644527e-06 -6.432507e-07 -8.117045e-07 9.384573e-07 -2.302125e-07
-5.253250e-07 2.819958e-06 -6.900284e-07 1.753636e-06 -9.014275e-07 -5.532449e-07
3.426794e-07 1.264500e-07 -1.507328e-07 7.644149e-08 1.883075e-08 2.411770e-08
3.666379e-07 1.219712e-07 -2.103513e-07 1.262193e-07 4.028266e-08 4.874095e-08
3.003957e-07 1.592555e-07 -2.067222e-07 1.158286e-07 4.052557e-08 4.644282e-08
-3.134349e-07 2.645016e-07 -1.781010e-07 -2.326990e-08 1.165391e-06 -2.292369e-07
-4.567322e-07 7.563887e-07 -3.573044e-07 2.109132e-07 7.215346e-07 -1.417145e-07
-5.894868e-07 1.919597e-06 1.552464e-07 -1.532224e-06 8.481649e-07 -5.747563e-07
-8.467448e-08 4.386746e-07 3.618117e-06 -1.998272e-06 -6.988566e-07 1.582825e-08
-8.748647e-07 2.227943e-06 -6.196722e-07 -3.427714e-07 8.354782e-07 -9.708677e-08
-1.548224e-06 2.858890e-06 -7.730215e-07 -2.012620e-07 1.107240e-06 -1.042133e-07
-2.646812e-07 -1.389751e-08 -1.539872e-07 7.417461e-08 9.343026e-07 -2.251636e-07
-5.001777e-07 1.166637e-06 -7.077494e-07 -1.215064e-07 7.500830e-07 -1.089116e-07
-2.561907e-07 -2.322236e-08 -2.634150e-08 7.989288e-08 1.626888e-06 -4.722390e-08
3.002959e-07 1.500493e-07 -1.606983e-07 1.053682e-07 4.017999e-08 3.369386e-08
7.500537e-08 -4.880365e-08 -2.003873e-07 1.886387e-07 4.726108e-07 5.948182e-07
-8.257991e-08 -2.583898e-07 4.904821e-07 1.323796e-07 2.835783e-07 1.138620e-06
1.833115e-06 2.966568e-07 -8.182909e-07 1.800094e-06 4.383370e-07 6.808843e-07
3.684454e-07 1.578219e-07 -2.526039e-07 2.261880e-07 7.736491e-08 1.153877e-07
1.193130e-06 4.093175e-07 -7.022781e-07 1.298971e-06 2.981044e-07 3.820721e-07
5.122120e-07 -1.867967e-07 1.407070e-06 1.719056e-06 1.883046e-07 1.151270e-06
1.224281e-06 2.431381e-07 -6.976265e-07 1.989813e-06 5.105137e-07 5.779270e-07
3.059635e-07 1.454437e-07 -1.783347e-07 1.418054e-07 6.742159e-08 6.220540e-08
3.022558e-07 1.564838e-07 -1.784646e-07 1.030337e-07 4.490864e-08 5.873838e-08
1.442680e-06 1.469273e-07 -7.425771e-07 1.177665e-06 3.660759e-07 6.362337e-07
-3.819630e-07 7.589289e-07 -3.431245e-07 3.700318e-07 9.711399e-07 4.213602e-07
7.842423e-07 1.819903e-07 -7.317762e-07 9.866708e-07 3.837641e-07 4.922674e-07
1.111997e-06 2.454977e-07 -2.561776e-07 1.394861e-06 5.290351e-07 6.671352e-07
-2.269537e-07 7.686898e-07 -4.047592e-07 8.181289e-07 1.376323e-06 7.577422e-07
6.937030e-07 -5.701781e-08 -3.242220e-07 3.959610e-07 3.306815e-07 6.812616e-07
-1.900026e-07 7.810421e-07 -2.783318e-07 2.623138e-07 6.674035e-07 1.986756e-07
-7.733868e-08 9.419234e-07 1.065182e-06 2.608880e-06 1.742208e-07 4.618014e-07
-2.406812e-07 9.683959e-07 -5.719327e-07 3.733333e-07 3.910518e-07 2.395288e-07
-2.193411e-07 1.588494e-06 -8.005334e-08 2.017429e-06 9.743478e-07 5.331342e-07
-1.380667e-07 2.888470e-07 -2.750493e-07 2.554387e-07 6.835988e-07 2.129915e-07
-1.033961e-07 -8.566472e-08 -8.770914e-08 1.387932e-07 9.813007e-07 9.814902e-07
-2.500855e-07 -2.622042e-08 -6.084448e-08 1.994056e-07 1.099500e-06 1.116671e-06
1.222454e-06 7.454057e-07 -7.709636e-07 1.816758e-06 5.571777e-07 6.309369e-07
-1.240287e-07 -2.940442e-07 1.351904e-07 6.482351e-08 6.513084e-07 1.207720e-06
-6.108029e-07 1.117385e-06 1.167616e-07 8.527735e-07 7.429513e-07 5.905659e-07
-1.653042e-07 1.520581e-07 -2.839175e-07 8.700093e-08 8.237532e-07 4.544795e-07
-4.261918e-07 7.089915e-07 -3.281301e-07 -1.720902e-07 7.060527e-07 1.254704e-07
-1.893352e-07 6.749729e-07 -3.437837e-07 4.957041e-07 9.474128e-07 1.464696e-07
-3.777801e-07 8.323042e-07 -3.152392e-07 4.328707e-07 8.531021e-07 4.099409e-07
7.946407e-07 -1.601509e-07 -2.911388e-07 -2.740217e-09 -3.025215e-10 1.589145e-07
6.235402e-07 -1.607166e-07 -1.936565e-07 -7.368280e-08 -1.018639e-08 2.086045e-07
5.472468e-07 -1.617571e-07 -2.135436e-07 -2.736771e-08 -2.731070e-08 1.982309e-07
5.041380e-07 -9.189234e-09 -2.935411e-07 -2.077342e-07 -1.129654e-07 2.380058e-07
5.160330e-07 -1.070521e-07 -2.076446e-07 -7.974453e-08 -5.413433e-08 1.758663e-07
7.465077e-07 -1.544244e-07 -3.376632e-07 -1.321635e-07 -2.580737e-08 2.174654e-07
-2.332319e-07 7.447970e-07 -4.015070e-07 2.880531e-07 9.328761e-07 3.674144e-07
6.575045e-07 -1.565823e-07 -3.337122e-07 -6.600355e-08 -3.416497e-08 2.086304e-07
7.498852e-07 -1.566130e-07 -3.118528e-07 -8.726559e-08 1.259590e-08 1.762706e-07
7.115861e-07 -1.304675e-07 -3.051898e-07 -1.282071e-07 3.866707e-09 1.683154e-07
5.933956e-07 -1.611769e-07 -2.095931e-07 1.610835e-08 -3.096233e-08 1.718359e-07
-4.613840e-07 1.383127e-06 -6.890077e-07 5.979553e-07 8.148802e-07 3.238802e-07
6.229596e-07 -1.277624e-07 -2.215955e-07 -9.888089e-08 -3.355842e-08 1.683496e-07
-4.527889e-07 1.689260e-06 -6.884854e-07 7.484415e-07 6.398212e-07 3.185152e-07
-3.136546e-07 1.025928e-06 -3.312660e-07 1.838158e-07 5.428818e-07 1.004174e-07
4.072989e-07 5.843218e-08 -2.245792e-07 2.217148e-07 1.250006e-07 1.895503e-07
4.242972e-07 5.850003e-08 -2.655072e-07 2.250816e-07 1.150902e-07 1.704043e-07
-2.122779e-06 1.281128e-06 1.213318e-05 -3.437497e-06 -8.048179e-06 4.209413e-06
-1.652729e-07 6.247119e-07 -3.365023e-07 4.401889e-07 -8.803900e-07 -2.946051e-07
-5.767311e-06 1.437528e-06 1.307069e-05 -5.931606e-06 -7.602795e-06 1.597471e-06
-8.286573e-09 6.853894e-07 -3.929875e-07 4.200760e-07 -7.930763e-07 -3.330419e-07
-3.115333e-06 1.877882e-06 8.435521e-06 -4.243830e-06 -2.445818e-06 1.229648e-06
-9.026410e-06 3.278289e-06 1.882727e-05 -5.455130e-06 -1.184436e-05 1.743738e-06
-2.292249e-07 2.357240e-07 -3.247805e-07 4.314718e-08 -6.938898e-07 -2.900388e-07
-7.951123e-06 3.363667e-06 1.870647e-05 -4.977376e-06 -1.150192e-05 2.114613e-06
-4.583522e-06 3.292266e-06 1.228761e-05 -2.837244e-06 -4.814246e-06 1.382940e-06
-1.012898e-06 2.052785e-06 3.260648e-06 -1.967026e-06 5.495191e-08 9.415475e-08
-2.539853e-07 -2.723220e-08 -1.598387e-07 -5.218595e-08 -1.041787e-06 -6.014138e-07
9.297063e-07 -3.339159e-07 -3.962422e-07 3.835219e-07 3.974682e-07 9.526523e-07
8.798900e-07 -3.278179e-07 -3.502561e-07 3.744839e-07 3.037758e-07 7.947187e-07
-1.063620e-06 2.308922e-06 -7.311705e-07 1.449460e-07 -9.569343e-07 9.894698e-09
6.523996e-07 -1.799562e-07 -2.825629e-07 3.681629e-07 1.988143e-07 7.750554e-07
-5.609626e-07 2.180519e-06 -6.697854e-07 1.349684e-06 -1.023329e-06 -3.057660e-07
1.143325e-06 -3.064832e-07 -5.210347e-07 4.077356e-07 1.642770e-07 8.837943e-07
8.702882e-07 -1.428332e-07 -5.477793e-07 3.835434e-07 1.087105e-07 3.478716e-07
3.265982e-07 1.289872e-07 -1.549499e-07 8.288383e-08 1.966359e-08 1.416300e-08
3.293343e-07 7.456626e-08 -1.906806e-07 1.361690e-07 8.438569e-08 1.306333e-07
3.608249e-07 1.460314e-07 -1.902823e-07 1.011653e-07 2.356714e-08 2.520782e-08
6.089615e-07 -1.108971e-07 -2.043017e-07 1.353263e-07 9.414377e-08 2.779030e-07
8.517227e-07 -2.054150e-07 -4.591815e-07 2.137142e-07 6.205249e-08 2.990546e-07
3.625645e-07 1.115338e-07 -1.903376e-07 1.184579e-07 2.218446e-08 2.594088e-08
-5.358134e-07 2.253586e-06 -2.694602e-07 1.875080e-06 1.030194e-06 4.304522e-07
5.793507e-07 -8.693786e-08 -2.457393e-07 2.491568e-07 1.463428e-07 3.836721e-07
5.263275e-07 1.585662e-07 -4.876761e-07 5.000947e-07 2.291779e-07 3.220127e-07
3.445523e-07 1.289930e-07 -1.945855e-07 1.235431e-07 5.494866e-08 4.912398e-08
7.605215e-07 -1.869298e-07 -3.342602e-07 1.870073e-07 1.191418e-07 3.487575e-07
3.238080e-07 1.444507e-07 -1.656643e-07 9.867846e-08 3.226043e-08 3.865464e-08
1.244873e-06 -8.577363e-06 1.798667e-05 -5.424129e-06 7.960511e-07 -3.348526e-06
3.978430e-06 -3.696519e-06 6.983657e-06 -1.190200e-06 1.386566e-06 -1.756728e-06
1.119168e-07 4.827833e-07 -1.379151e-07 6.830004e-07 -8.872218e-07 -4.833509e-07
4.107885e-06 -3.242435e-06 1.728749e-06 1.763498e-06 -3.318877e-07 9.367445e-07
2.157072e-06 -3.602206e-06 6.440377e-06 -2.299421e-06 6.754160e-09 -1.605638e-06
6.146445e-07 -1.247892e-07 -2.722666e-07 1.104430e-07 4.254788e-08 1.817284e-07
7.019481e-07 -1.217658e-07 -3.255515e-07 1.471668e-07 4.912869e-08 1.986123e-07
2.427325e-06 -1.082906e-06 4.652915e-07 1.642985e-06 4.665016e-07 1.168764e-06
4.711084e-06 -2.274754e-06 2.871120e-06 -1.148501e-06 1.868051e-06 -2.529854e-06
1.314142e-06 -4.291606e-07 -6.690098e-07 4.146992e-07 1.175341e-07 5.855355e-07
9.612252e-07 -2.428458e-07 -5.729460e-07 3.586904e-07 9.095863e-08 3.546407e-07
1.292708e-06 -1.194040e-07 4.590587e-09 -2.010725e-06 7.314117e-08 -2.497451e-07
-3.735501e-06 4.751683e-06 1.061308e-06 -3.938145e-07 3.912468e-07 -7.873182e-07
-4.087194e-07 1.133354e-06 -3.257754e-07 2.634225e-07 -7.267381e-07 -2.436928e-07
9.608117e-07 -3.356947e-07 -4.995392e-07 2.022140e-07 7.468051e-08 6.964901e-07
-1.105611e-06 2.806340e-06 -6.996723e-07 1.066231e-06 -9.993713e-07 -3.326263e-07
8.762876e-07 -2.964008e-07 -4.850952e-07 2.534080e-07 1.833163e-07 5.863363e-07
1.304646e-06 -4.349892e-07 -6.605105e-07 4.059257e-07 1.152581e-07 5.880113e-07
-2.279341e-07 1.354248e-07 -1.294784e-07 9.280846e-08 -1.320093e-07 3.330659e-07
-7.298443e-07 1.441821e-06 -5.959560e-08 6.518289e-07 -7.388710e-07 -1.211420e-07
1.521272e-06 -3.809732e-07 -6.342624e-07 3.089103e-07 1.267151e-07 5.211609e-07
1.187571e-06 -3.566752e-07 -6.231904e-07 2.389417e-07 6.828848e-08 4.420771e-07
-3.604490e-06 4.252980e-06 1.876267e-06 1.614177e-06 -3.738880e-07 -6.787363e-07
-1.143077e-06 2.841404e-06 -3.923688e-07 1.561282e-06 -1.039331e-06 -6.104732e-07
1.265880e-07 1.590498e-06 1.070161e-06 -1.725456e-06 -2.217245e-08 -5.632461e-07
-2.125660e-07 -2.274987e-09 -1.308530e-07 -4.854818e-08 -7.102795e-07 -1.660532e-07
1.156885e-06 1.309755e-07 3.070250e-07 -3.552145e-06 8.268972e-07 -4.679175e-07
-2.482970e-07 1.907470e-06 3.524338e-06 -4.250766e-06 -1.956237e-07 2.877057e-07
1.121625e-06 1.023965e-06 -5.972189e-07 -2.078062e-06 3.613569e-07 -3.146330e-07
-1.515319e-07 -8.079929e-07 2.067378e-06 -9.176484e-08 -4.570717e-07 -1.613912e-07
4.637258e-07 5.033699e-07 -6.687945e-07 -7.879970e-07 -4.432474e-07 4.180919e-07
-3.308845e-06 -1.420469e-06 1.166637e-05 -1.081268e-06 -6.758212e-06 2.758636e-06
3.644551e-07 5.588118e-07 -6.912764e-07 -7.365271e-07 -3.710814e-07 3.485501e-07
7.604579e-08 1.020211e-07 -2.738722e-07 -1.322699e-07 -5.333328e-07 4.816358e-07
2.250696e-07 3.006614e-07 -3.393626e-07 -4.998462e-07 -4.365295e-07 5.387621e-07
3.504204e-07 1.355590e-06 -7.492743e-07 -1.756007e-06 -6.041009e-07 4.124088e-07
-4.485921e-07 -2.818356e-07 4.135148e-07 -2.935959e-07 -1.002481e-06 6.720413e-07
1.726430e-07 3.777439e-07 -3.347135e-07 -4.450589e-07 -4.861995e-07 3.358707e-07
-3.384296e-07 2.279537e-08 2.862228e-06 -1.280529e-06 -1.235368e-06 1.048615e-06
1.537188e-07 3.312491e-07 -4.735707e-07 -5.310313e-07 -6.625570e-07 6.486731e-07
5.258256e-07 6.013800e-07 -7.773610e-07 -1.137512e-06 -5.366129e-07 5.283747e-07
1.255758e-06 2.989846e-07 -7.701749e-07 -1.159122e-06 -4.830249e-07 6.994157e-07
-1.023011e-06 1.037855e-06 3.163762e-06 -2.274846e-06 3.943604e-07 2.342876e-07
2.590241e-07 2.527058e-07 -3.383931e-07 -4.713062e-07 -4.380686e-07 5.324735e-07
7.079115e-07 -3.750058e-08 -3.255503e-07 1.947201e-07 9.532008e-08 1.406397e-07
3.175429e-07 1.052766e-06 -7.617684e-07 -1.453483e-06 -7.027681e-07 5.837369e-07
5.287653e-07 1.834159e-08 -3.030029e-07 1.653943e-07 3.398360e-08 9.097369e-08
7.903349e-07 -2.065869e-08 -4.609225e-07 -6.808372e-07 -5.531565e-07 7.820411e-07
-3.234106e-07 1.454853e-07 -2.691845e-07 8.961054e-08 1.318149e-06 -5.455274e-09
4.215732e-07 -3.579879e-08 -2.195006e-07 1.284890e-07 6.159646e-08 1.686431e-07
-7.166265e-07 8.672101e-07 -1.788654e-08 7.402794e-07 1.311270e-06 4.454168e-09
4.943670e-07 1.141409e-08 -2.483549e-07 1.676091e-07 4.750850e-08 1.099681e-07
-5.925949e-07 1.073301e-06 -2.112007e-07 -8.430698e-08 1.257884e-06 -7.600767e-08
-9.622412e-07 2.125444e-06 -7.015534e-07 4.149786e-07 1.016456e-06 7.419635e-08
-1.424960e-06 3.721286e-06 2.416565e-07 4.401631e-07 1.259138e-06 1.038858e-07
-2.271538e-06 3.545223e-06 -1.795791e-07 -8.188401e-07 1.168939e-06 -8.412139e-08
4.129281e-07 3.991915e-08 -1.833771e-07 1.384635e-07 4.072829e-08 9.640871e-08
-2.513092e-06 3.970241e-06 2.912215e-06 2.969116e-06 4.548780e-07 5.344215e-07
2.766115e-06 -1.869479e-06 6.565854e-06 4.711427e-06 2.055856e-06 3.654161e-06
-5.898392e-07 1.220208e-06 -6.876542e-07 2.511277e-08 7.316526e-07 1.011492e-08
-1.206784e-06 3.248462e-06 -3.889846e-07 1.203329e-06 9.088103e-07 2.152463e-07
6.187941e-07 1.002176e-06 4.106800e-06 2.179549e-06 4.377763e-06 3.944432e-06
-1.168552e-06 -1.013070e-05 6.594462e-05 -1.213899e-06 -1.210246e-05 4.741892e-05
2.890412e-08 1.519297e-06 -6.698146e-07 -1.679812e-06 -7.872527e-07 5.866030e-07
-2.367051e-06 2.538460e-06 1.427280e-05 4.853641e-06 1.779664e-05 1.292019e-05
-2.382491e-07 4.780936e-08 -1.251358e-07 -5.954231e-08 -1.128045e-06 6.081941e-07
-1.656473e-06 -7.692342e-07 1.983437e-06 -8.082946e-07 -6.492764e-07 -1.022781e-07
-3.122663e-07 2.539096e-08 -1.547479e-07 -1.872602e-08 -1.034007e-06 4.266007e-07
-4.452258e-07 2.257096e-06 -2.680808e-07 -1.723490e-06 -1.014293e-06 6.051035e-07
-4.493127e-06 -3.176014e-06 1.963159e-05 6.730750e-06 7.268480e-06 6.020313e-06
-5.381533e-06 4.989226e-06 7.808956e-06 1.778994e-06 -5.428274e-06 1.507649e-07
-1.924704e-06 2.450035e-06 2.177868e-06 8.960917e-07 5.430589e-07 -7.980106e-08
4.904031e-07 9.241344e-08 -4.496637e-07 -5.253084e-07 -4.440042e-07 4.484962e-07
-2.919967e-07 9.385598e-07 2.077194e-06 1.999433e-06 -3.362902e-07 1.291184e-06
-2.420166e-07 -1.896968e-07 5.606185e-07 -9.332134e-08 -1.263561e-06 9.800047e-07
1.177624e-06 -9.004280e-08 -6.818274e-07 -7.515577e-07 -3.472196e-07 5.292423e-07
-8.392591e-07 1.065329e-07 4.800433e-06 2.519384e-07 -2.936364e-06 1.022828e-06
1.859833e-06 3.451437e-07 -5.315099e-07 -2.211872e-06 -4.431159e-07 5.355926e-07
-7.088228e-07 1.560111e-06 -1.717982e-08 -1.223154e-06 -1.032166e-06 2.935823e-07
3.628290e-06 -2.066664e-06 3.727770e-07 -1.445345e-06 -4.019171e-07 1.218703e-06
1.934559e-06 7.576802e-08 -6.077926e-07 -1.544599e-06 -5.623644e-07 9.581888e-07
-1.190238e-06 2.793982e-06 3.941894e-07 2.237895e-06 -3.684861e-07 -2.832224e-07
1.498064e-08 1.163437e-06 -6.891241e-09 1.509641e-06 -9.502822e-07 -3.558846e-07
-5.742634e-07 1.225705e-06 -2.188039e-07 3.638481e-07 -1.279906e-06 -3.717618e-07
1.774382e-06 -9.977281e-07 -3.899916e-07 7.843075e-08 -1.267582e-07 1.357636e-06
1.728334e-06 -4.095954e-07 -7.049710e-07 1.258234e-07 3.470646e-08 5.993559e-07
3.759908e-06 -1.334675e-06 -4.910451e-07 8.209580e-07 3.367969e-07 8.743649e-07
-3.950786e-07 9.379138e-07 -4.195579e-07 4.207918e-07 -8.126780e-07 -3.658884e-07
1.718686e-06 -8.432825e-07 3.783405e-07 1.254978e-06 1.896436e-07 9.605417e-07
3.439416e-07 -9.417116e-07 5.518085e-07 -5.467673e-08 2.474639e-07 1.034899e-06
-5.654599e-07 1.491441e-06 -2.402982e-07 3.280911e-07 -8.873217e-07 -3.418685e-07
-1.179798e-07 6.323812e-07 -3.216026e-07 -2.397336e-07 4.484431e-07 -2.625511e-07
-9.320459e-08 1.021050e-06 -3.393387e-07 9.333784e-07 -1.071161e-06 -5.537846e-07
-2.627757e-07 2.791663e-07 -3.136760e-07 8.213456e-09 -9.634879e-07 -3.489942e-07
6.714162e-08 4.183710e-07 -2.881619e-07 -2.658955e-07 3.566444e-07 -1.566709e-07
-5.712800e-07 1.513422e-06 -4.376458e-07 1.221706e-06 -8.893916e-07 -3.407927e-07
-5.393456e-07 2.844041e-06 -5.625574e-07 1.520131e-06 -1.044364e-06 -4.488380e-07
2.564539e-06 -1.081348e-05 2.748339e-05 -4.138875e-06 -4.369342e-06 1.700567e-05
3.447423e-06 -1.891677e-06 1.128536e-06 -2.759229e-08 1.013103e-07 1.067910e-07
3.856681e-06 -8.347960e-06 7.772315e-06 4.876941e-07 6.696337e-06 1.209979e-05
-1.920874e-05 -1.640729e-05 9.200207e-05 -5.431420e-06 -1.388380e-05 2.514860e-05
-4.420835e-07 1.171654e-06 -3.546860e-07 -1.031140e-07 7.577869e-07 -1.415727e-07
1.947889e-07 2.084052e-07 -2.021113e-07 1.347341e-07 1.218494e-07 1.289089e-07
-3.512705e-07 2.282334e-07 -1.981637e-07 3.409902e-09 6.721207e-07 -2.122848e-07
-3.989174e-07 1.625211e-06 -6.982137e-07 -3.420037e-07 6.250116e-07 -1.162043e-07
5.794853e-07 1.834159e-08 -2.958288e-07 2.169128e-07 5.075034e-08 1.102489e-07
-3.254110e-07 1.198012e-06 -5.356452e-07 -5.162496e-07 1.098107e-06 -4.371615e-07
2.626151e-07 1.740923e-07 -1.878551e-07 1.520844e-07 8.603223e-08 9.095854e-08
-4.265221e-07 1.345492e-06 -5.466530e-07 -5.374220e-07 1.009344e-06 -3.425011e-07
-3.703899e-07 8.499529e-08 -5.679810e-08 1.450563e-07 1.038000e-06 -1.083298e-07
-2.624211e-07 8.773672e-07 -5.969779e-07 -3.137232e-07 6.780873e-07 -3.645207e-07
-3.161119e-07 9.612555e-07 -4.838446e-07 -1.593436e-07 7.471488e-07 -2.049359e-07
2.235654e-07 2.278686e-07 -1.836176e-07 1.615643e-07 9.998846e-08 7.956880e-08
2.887527e-07 1.550351e-07 -1.782593e-07 1.080694e-07 4.572562e-08 5.426648e-08
-5.931672e-07 2.094983e-06 -6.704327e-07 -3.382907e-07 6.112377e-07 -1.017852e-07
2.331640e-08 6.098794e-07 -4.261431e-07 3.281834e-07 2.776122e-07 1.750033e-07
-2.107248e-07 -7.618078e-08 -1.136976e-07 -6.290386e-08 -1.197660e-06 8.761478e-07
-8.748506e-08 -3.386909e-09 -2.739306e-07 -1.390668e-07 -6.324178e-07 5.654888e-07
1.998263e-07 4.792960e-07 -4.926330e-07 -4.208604e-07 -3.287165e-07 2.434351e-07
4.024056e-07 8.626200e-07 -5.370181e-07 -1.322026e-06 -5.968106e-07 5.434480e-07
5.652509e-07 3.818904e-08 -2.847097e-07 -2.311173e-07 -5.432731e-08 8.276518e-08
9.378821e-08 4.852859e-07 -1.226755e-07 -8.825578e-07 -1.245567e-06 1.038966e-06
6.883987e-07 4.690554e-08 -3.768195e-07 -3.005176e-07 -9.600464e-08 1.671104e-07
5.744809e-07 1.678538e-07 -4.846410e-07 -4.838212e-07 -2.404302e-07 2.995631e-07
4.049981e-07 5.902167e-08 -1.802493e-07 -8.302111e-08 -3.862206e-08 2.654832e-08
3.065552e-07 6.842729e-08 -3.498933e-07 -2.887413e-07 -2.680398e-07 3.349460e-07
-2.846324e-07 5.912301e-07 -3.495402e-07 1.725102e-07 -8.887753e-07 -3.859764e-07
8.144761e-08 1.338251e-06 -7.410489e-07 1.230308e-06 -8.191397e-07 -4.351722e-07
-5.658876e-08 4.221434e-07 -4.280941e-07 2.635804e-07 -8.756903e-07 -4.146615e-07
-1.726073e-07 2.000514e-07 -3.488300e-07 6.976554e-08 -6.592279e-07 -3.841625e-07
1.258189e-06 -4.146035e-07 -5.528067e-07 -2.968923e-08 -3.622097e-08 4.187245e-07
1.478592e-06 -6.266500e-07 -6.332901e-07 8.672867e-09 -9.055204e-09 6.668727e-07
4.401346e-07 3.094661e-08 -1.841994e-07 -1.424388e-07 -6.258756e-08 1.334309e-07
3.865876e-07 8.007035e-08 -1.591227e-07 -8.094723e-08 -1.998485e-08 3.347746e-08
5.844219e-07 -7.189362e-07 2.356726e-07 9.209751e-08 -2.162197e-07 1.333983e-06
3.861297e-07 8.705310e-08 -2.275107e-07 -2.464350e-07 -2.257149e-07 3.024220e-07
2.961860e-07 -1.841591e-08 -2.231992e-07 -1.513740e-07 -2.129976e-07 2.913437e-07
6.381434e-07 -9.678919e-08 -3.079077e-07 -1.478164e-07 -9.313390e-08 2.291160e-07
5.842773e-07 2.267512e-07 -4.214022e-07 -4.214742e-07 -1.437047e-07 2.020934e-07
-2.850522e-07 1.260531e-06 -3.851054e-07 -1.435782e-07 1.247582e-06 -3.986332e-07
-1.475425e-06 2.204974e-06 1.247924e-06 -1.721071e-06 6.093239e-07 -2.511331e-07
3.637007e-07 -5.405005e-09 -2.168520e-07 -1.160170e-07 -1.266975e-07 2.255578e-07
-5.500221e-07 -5.942424e-08 -2.278138e-09 4.018021e-08 1.123374e-06 -1.806607e-08
4.519745e-07 6.371682e-08 -3.582612e-07 -2.213805e-07 -1.731221e-07 2.615390e-07
9.353463e-07 -2.313971e-07 -4.556854e-07 -1.628372e-07 -4.342059e-08 2.698104e-07
-7.197882e-07 1.285386e-06 -1.128622e-09 -3.450282e-07 7.993791e-07 2.160418e-08
4.834606e-07 -1.427305e-07 -2.184241e-07 -7.338754e-08 -6.681513e-08 2.710329e-07
-7.506807e-07 2.326517e-06 -6.127001e-07 -8.012954e-07 9.587006e-07 -3.491245e-07
6.335740e-07 -6.858637e-08 -3.043235e-07 -2.128103e-07 -7.409877e-08 2.286038e-07
-2.042064e-06 1.466961e-06 2.006027e-06 -1.063045e-06 1.414470e-06 -1.634930e-07
-2.217518e-07 -3.002724e-08 -7.895161e-08 7.416390e-08 1.848592e-06 -1.045263e-07
-2.596533e-07 8.768374e-07 -3.914497e-07 -1.418871e-07 9.753492e-07 -3.440383e-07
3.224806e-07 -4.745627e-07 1.216932e-06 -6.527061e-08 -8.927783e-07 4.588188e-07
-7.740967e-07 9.740710e-07 4.649476e-07 6.343876e-07 -1.708239e-06 -6.612977e-07
-1.102878e-06 3.203030e-06 -3.000768e-07 -1.486856e-06 -9.842116e-07 3.356198e-07
-3.928948e-07 9.977831e-07 -6.552768e-07 2.699980e-07 7.049615e-07 1.356026e-07
-9.456884e-07 2.926955e-06 9.127965e-07 2.814858e-06 -8.166926e-07 -7.309316e-07
-4.205044e-07 1.030617e-06 -3.720885e-07 5.093177e-08 8.735118e-07 -9.704513e-09
5.539703e-07 -6.467407e-08 -2.960959e-07 1.624539e-07 6.898636e-08 2.600686e-07
-1.273890e-05 -1.201166e-05 4.254076e-05 6.074805e-06 6.991788e-06 1.517342e-05
3.267921e-07 -4.574197e-08 -2.845691e-07 2.065153e-07 1.939888e-07 3.694562e-07
7.486588e-07 -7.299067e-08 -3.571484e-07 2.214100e-07 7.623538e-08 1.951653e-07
5.344189e-07 -2.697431e-08 -2.646837e-07 1.225194e-07 6.466106e-08 1.580067e-07
-5.845197e-06 3.297330e-06 7.500821e-06 1.393200e-06 5.938698e-06 1.692011e-06
5.867420e-07 -5.044066e-09 -2.852611e-07 1.795126e-07 5.888171e-08 1.487979e-07
4.744674e-07 6.426304e-09 -2.258910e-07 1.160871e-07 3.788693e-08 8.115462e-08
1.130972e-06 -5.602946e-06 1.431086e-05 5.723193e-06 2.801316e-06 1.021666e-05
9.682199e-07 -1.114556e-07 -5.055289e-07 3.184786e-07 1.117242e-07 3.084000e-07
3.352106e-06 -7.474813e-06 1.717914e-05 5.832612e-06 8.596573e-06 1.442040e-05
3.103904e-06 -1.628269e-07 7.657182e-07 -9.820389e-08 6.007023e-07 3.623746e-06
-4.204253e-07 2.232062e-07 1.502570e-06 -4.402040e-07 -7.160305e-07 4.195821e-07
3.324424e-06 -3.002162e-06 5.917603e-06 3.942725e-06 6.615773e-07 7.965027e-07
5.134569e-07 -2.061777e-08 -2.750212e-07 1.778151e-07 8.096022e-08 2.246171e-07
-7.540846e-07 1.037310e-06 -8.846274e-08 2.907095e-07 -1.635076e-06 -4.505670e-07
2.039679e-06 -2.293223e-06 3.511976e-06 2.613284e-06 2.203572e-07 5.038002e-07
-3.149409e-06 -2.888889e-06 1.217563e-05 7.389866e-06 5.398977e-06 3.717840e-06
3.860662e-07 7.852008e-08 -1.904710e-07 9.321924e-08 2.560209e-08 4.248237e-08
-6.546549e-07 1.936041e-06 -5.591136e-07 5.725051e-07 -1.105214e-06 -4.539708e-07
-6.679553e-07 2.022579e-06 -8.042655e-07 4.966890e-07 -8.285650e-07 -4.369557e-08
3.571051e-07 9.513001e-08 -1.656561e-07 7.975287e-08 2.594945e-08 2.558116e-08
4.673549e-07 5.863859e-08 -2.276003e-07 1.491100e-07 3.344445e-08 5.605206e-08
-5.726957e-07 6.928378e-07 -2.301419e-07 -4.323682e-07 -1.073656e-06 -1.668544e-07
-9.281379e-07 2.171376e-06 -8.093337e-07 4.207519e-07 -9.253787e-07 -1.369249e-07
-9.343959e-07 1.217978e-06 2.580362e-07 -7.434413e-08 1.770159e-06 -2.339846e-07
-1.023776e-06 3.023867e-06 -7.347816e-07 9.396000e-08 6.950014e-07 5.459305e-09
-2.939741e-07 1.244401e-07 -2.362608e-07 3.135037e-08 -1.376254e-06 -2.390846e-07
-4.045145e-06 5.560916e-06 3.884986e-06 1.200481e-06 -1.095104e-06 -3.095001e-07
-5.494171e-07 1.608974e-06 8.817232e-08 7.042404e-09 1.935706e-06 -3.823173e-08
-1.216266e-06 1.749254e-06 5.566762e-07 -8.092979e-07 6.071888e-07 -2.073179e-07
-2.354550e-06 3.033568e-06 1.972607e-06 1.065994e-06 -4.995593e-07 -4.839087e-07
-1.014423e-06 2.705513e-06 -3.145138e-07 2.867234e-07 6.651140e-07 -2.830297e-08
-2.504993e-07 -2.937333e-07 5.284550e-06 3.430844e-06 -9.140111e-07 -9.433266e-07
-1.570477e-06 1.443835e-06 7.759785e-07 9.933305e-07 1.389991e-06 5.664492e-07
-6.405977e-07 1.384161e-07 3.507546e-07 1.035225e-07 3.806779e-07 -2.995556e-07
1.176588e-06 1.166310e-06 2.706040e-07 3.145401e-06 7.234821e-07 4.760052e-07
-6.673167e-08 1.466467e-06 -4.877450e-07 1.316647e-06 7.245094e-07 3.613228e-07
2.001464e-07 1.623406e-06 -3.169334e-07 1.824804e-06 9.242361e-07 3.639078e-07
4.198135e-07 5.483575e-07 2.675266e-07 2.045189e-06 4.375555e-07 6.499648e-07
-2.496493e-07 -1.121506e-07 -1.901330e-07 -7.221372e-09 7.400533e-07 -2.292847e-08
-1.347782e-06 2.422545e-06 1.507905e-06 1.728272e-06 9.402441e-07 8.127172e-08
5.759454e-08 1.279110e-06 7.363347e-07 2.537444e-06 6.169262e-07 4.263221e-07
4.421430e-06 -3.233810e-06 3.481917e-06 1.898179e-06 -1.218785e-07 -6.337101e-07
7.692501e-07 -1.093709e-07 -3.615716e-07 -2.416240e-07 -8.126833e-08 1.870101e-07
2.184429e-07 8.019265e-07 -6.285800e-07 -7.038647e-07 -4.089953e-07 3.039289e-07
-6.905527e-06 4.410089e-06 1.464689e-05 -2.068185e-06 -8.098920e-06 3.682919e-06
3.644551e-07 4.789747e-07 -5.828873e-07 -6.318778e-07 -4.003707e-07 2.591064e-07
7.604579e-08 4.102825e-07 -3.177300e-07 -2.769645e-07 -4.230305e-07 3.546324e-07
1.078920e-07 6.250789e-07 -3.942128e-07 -4.907464e-07 -6.551243e-07 4.186192e-07
4.789236e-07 1.527347e-07 -3.176756e-07 2.866196e-07 1.017860e-07 1.560849e-07
3.819384e-06 -4.244956e-06 6.206936e-06 2.022731e-07 -4.578894e-07 -5.851485e-06
-2.160164e-08 2.096185e-07 -2.673069e-07 1.533190e-07 3.920792e-07 2.700899e-07
2.602967e-07 1.487932e-07 -1.812223e-07 1.499189e-07 1.164425e-07 1.365587e-07
2.731492e-07 2.530583e-07 -2.484106e-07 2.012643e-07 6.207126e-08 5.541582e-08
1.727609e-07 2.145293e-07 -2.072239e-07 1.354827e-07 1.182756e-07 1.158538e-07
-5.216417e-06 -1.441363e-06 1.919067e-05 -7.089456e-06 -7.235900e-06 7.450523e-06
3.024696e-07 1.276232e-07 -1.767983e-07 1.263391e-07 8.119359e-08 1.021632e-07
2.335225e-07 5.504686e-07 -5.272952e-07 4.293774e-07 2.543735e-07 1.884121e-07
3.984402e-07 1.139929e-07 -2.098427e-07 1.244422e-07 4.206879e-08 5.454732e-08
2.369980e-07 1.841117e-07 -1.914563e-07 1.287097e-07 7.561833e-08 8.040443e-08
3.014628e-07 1.124270e-07 -1.499401e-07 1.148493e-07 7.357882e-08 8.105652e-08
2.204290e-06 -2.627169e-06 6.181848e-06 -4.099352e-06 -2.707313e-06 3.828825e-06
1.018435e-06 -6.508364e-07 2.345898e-07 4.433753e-07 5.891969e-07 1.627873e-06
-5.324831e-07 2.244922e-06 3.483614e-06 -1.700097e-07 -7.123641e-07 2.163801e-06
-3.053922e-07 1.658629e-06 -8.190264e-07 8.320286e-07 -8.235901e-07 -2.603037e-07
-1.036727e-06 -2.257239e-06 1.412282e-05 -3.079807e-06 -3.379189e-06 5.789302e-06
-4.087197e-07 1.123667e-06 -7.234736e-07 2.615200e-07 -6.591989e-07 -2.252009e-07
-7.125307e-07 2.306974e-06 -7.756646e-07 2.341310e-07 -6.876700e-07 -6.503527e-08
-4.679878e-07 1.866285e-06 -7.649410e-07 2.536931e-07 -7.175138e-07 -1.323992e-07
8.131386e-07 -3.062807e-08 -4.844597e-07 3.686703e-07 1.230247e-07 3.016676e-07
-7.498350e-07 1.566112e-06 -6.916528e-07 -1.086216e-08 -6.797370e-07 6.850188e-09
-3.590887e-07 -1.823557e-07 1.086410e-07 -1.858726e-08 -1.507079e-06 -1.248129e-07
-5.337138e-07 6.462232e-07 -3.007598e-07 3.039384e-07 -1.093455e-06 5.748537e-08
-9.281379e-07 3.165684e-06 -7.862347e-07 6.367201e-07 -7.091947e-07 -1.234550e-07
6.299796e-07 -1.087484e-07 -3.791077e-07 2.122240e-07 1.246052e-07 3.963915e-07
3.961074e-07 7.045100e-08 -2.317468e-07 2.663333e-07 1.635121e-07 2.292122e-07
5.623227e-07 -5.883962e-08 -2.057958e-07 1.543506e-07 9.231722e-08 2.320847e-07
2.360815e-06 -1.578140e-06 1.250438e-06 1.109482e-06 -8.437355e-09 1.777763e-06
1.722654e-07 1.095111e-07 -2.247545e-07 1.711056e-07 1.989374e-07 2.144876e-07
5.827683e-07 -1.427316e-07 -2.287068e-07 -1.107215e-07 -9.390677e-08 2.999786e-07
2.459507e-07 2.905904e-07 -4.277638e-07 3.993658e-07 3.793771e-07 3.791599e-07
5.830195e-07 -7.958026e-08 -2.107985e-07 -1.119311e-07 -5.356754e-08 1.466364e-07
3.276438e-07 5.917339e-08 -2.545420e-07 3.282691e-07 3.399479e-07 5.451295e-07
1.625803e-06 -3.067525e-07 -6.698600e-07 -6.474490e-07 -2.553929e-07 6.595522e-07
5.699148e-07 2.730914e-10 -3.704398e-07 -1.927547e-07 -7.902559e-08 1.670827e-07
4.498153e-07 -9.222799e-08 -2.102822e-07 -1.182451e-07 -8.018776e-08 2.434237e-07
7.668343e-07 -2.003666e-07 -3.990183e-07 -1.942922e-07 -9.936629e-08 3.711775e-07
3.465220e-07 1.891131e-07 -2.887593e-07 2.869252e-07 1.686096e-07 2.006260e-07
5.641188e-07 6.562538e-08 -3.980146e-07 2.803234e-07 1.253435e-07 1.503735e-07
7.003818e-07 3.029714e-07 -5.817999e-07 6.645963e-07 2.806674e-07 4.117241e-07
4.210198e-07 -6.517222e-08 -2.116548e-07 -9.824674e-08 -7.243863e-08 2.366402e-07
-3.309086e-07 9.981279e-08 1.218897e-06 1.221767e-07 8.310160e-07 7.512734e-07
3.858403e-07 1.224651e-07 -2.686246e-07 2.282083e-07 1.271099e-07 1.708937e-07
-1.133059e-06 1.873221e-06 -2.866906e-07 7.624534e-07 -1.114153e-06 -4.039793e-07
-7.041689e-07 1.545363e-06 5.592842e-09 8.357218e-07 -8.392655e-07 -3.978087e-07
-1.129974e-06 1.219354e-07 1.659543e-06 7.883409e-08 1.502581e-06 -1.581738e-07
4.287703e-07 1.520454e-06 -2.939661e-07 -2.602757e-06 -5.730075e-07 4.886386e-07
1.782622e-06 7.590663e-07 4.260257e-07 -2.782853e-06 -6.279806e-07 1.401998e-06
-1.403265e-07 -2.573615e-07 4.302962e-07 -6.776826e-08 -8.015395e-07 1.385817e-06
8.212217e-07 -4.845406e-08 -4.222822e-07 -7.281888e-07 -7.582252e-07 9.439421e-07
4.836394e-06 -2.181704e-06 1.256828e-06 7.761676e-07 9.508465e-08 8.895204e-07
-1.143183e-06 -8.416503e-06 3.233301e-05 6.468367e-06 -1.987408e-06 -8.753305e-06
-1.204309e-05 5.594934e-06 2.568101e-05 -3.279440e-06 -2.336519e-05 1.046649e-05
1.571259e-07 -9.079863e-06 2.785259e-05 -8.194133e-06 9.459708e-06 -1.640222e-05
8.119846e-07 5.598883e-07 -7.969198e-07 -1.706944e-06 -4.813800e-07 7.324629e-07
3.238419e-06 -7.402125e-06 2.302205e-05 2.491184e-06 -2.049608e-06 -1.109553e-05
3.779737e-06 1.125782e-06 5.171261e-06 3.021463e-06 -7.180768e-06 -1.141973e-05
3.083689e-06 -9.105084e-07 -4.580790e-07 1.418487e-06 3.919476e-07 9.396996e-07
1.154210e-06 -4.190851e-07 -4.993845e-07 4.111521e-07 2.198108e-07 9.053229e-07
2.025695e-06 -7.817816e-07 -7.924490e-07 5.725810e-07 1.093225e-07 7.841039e-07
4.305384e-07 2.314453e-07 -3.837417e-07 5.512152e-07 5.832290e-07 8.277733e-07
-3.982799e-06 -7.629681e-07 2.000100e-05 -2.205562e-07 9.910597e-06 2.574825e-05
2.895482e-06 -9.978865e-07 -4.394639e-07 1.229155e-06 3.959370e-07 1.012948e-06
-5.987859e-06 6.660891e-06 7.662957e-06 1.089436e-06 7.562990e-06 1.870653e-06
9.469134e-07 -3.004282e-07 1.902707e-07 1.813081e-06 1.049610e-06 1.235531e-06
-1.605405e-05 7.027512e-07 3.299552e-05 -1.745592e-06 1.225267e-05 -5.822631e-07
-1.735998e-07 2.114976e-06 3.744764e-07 -1.220212e-06 -7.489078e-07 5.210547e-08
-8.351070e-06 3.408054e-06 1.464896e-05 -3.564262e-06 5.265950e-06 -2.301438e-06
-8.241787e-06 7.768063e-07 2.583761e-05 -4.209906e-06 1.085761e-05 -4.164573e-06
1.853666e-06 -3.257118e-07 -6.605470e-07 1.683357e-06 4.366980e-07 7.961350e-07
1.666237e-06 -4.416582e-07 1.404422e-06 2.795780e-06 5.311583e-07 8.697899e-07
6.652760e-07 1.975817e-07 -2.870686e-07 1.595504e-06 4.713393e-07 7.916112e-07
1.825824e-06 -3.239881e-07 -2.241503e-07 1.441057e-06 1.422337e-08 5.749791e-07
-5.439605e-06 4.338449e-06 8.598396e-06 7.612035e-07 -5.068335e-06 -4.998094e-07
8.025590e-07 -1.690898e-07 -4.613034e-07 -2.616318e-07 -1.627095e-07 3.810414e-07
-1.299760e-06 3.385406e-06 -5.214439e-07 2.297803e-07 1.056637e-06 2.076534e-07
-2.788229e-06 6.281820e-06 7.031635e-06 -2.387620e-06 -7.823171e-06 3.085264e-06
-8.308377e-06 5.609366e-06 1.400550e-05 1.206418e-06 -2.134282e-05 -1.513774e-06
3.877742e-07 -1.353638e-07 -3.143186e-07 -1.300937e-07 -1.782641e-07 5.487929e-07
1.539699e-06 -1.640410e-07 -6.944507e-07 -6.880893e-07 -2.809052e-07 7.201788e-07
9.382677e-07 -2.782306e-07 -5.851788e-07 -4.212648e-07 -2.030727e-07 5.981382e-07
1.939772e-06 -5.683057e-07 -6.083854e-07 -1.451908e-06 -5.325903e-07 9.577167e-07
2.735941e-06 -1.016394e-06 -1.966904e-07 -1.420813e-06 -4.375363e-07 1.029738e-06
1.475491e-06 -2.036874e-07 -4.464190e-07 -7.385884e-07 -6.603271e-07 1.092720e-06
-2.683101e-06 1.288104e-06 7.341224e-06 -2.522619e-06 -2.563043e-06 1.916572e-06
-2.460093e-06 2.119682e-06 6.793048e-06 -3.436079e-06 -1.766142e-06 8.058784e-07
-2.206204e-07 -1.538898e-07 4.096328e-07 1.915155e-07 6.203813e-07 8.204232e-07
-2.970481e-07 -9.581790e-08 7.733089e-07 1.267633e-07 9.071472e-07 4.524677e-07
-2.379824e-06 2.327458e-06 3.271322e-06 -6.568551e-07 4.748819e-07 8.785511e-07
-2.449966e-06 2.585435e-06 3.069330e-06 -5.648913e-07 -1.850638e-06 1.525499e-06
-2.967553e-06 1.078090e-06 2.365536e-06 2.137865e-06 1.505272e-06 -1.215207e-06
-3.373075e-06 4.380728e-06 4.581867e-06 -2.903712e-07 -4.468184e-07 -4.845051e-07
-3.541064e-06 4.854271e-06 2.701169e-06 -5.503585e-07 -8.810048e-07 3.614094e-07
1.836961e-07 1.103909e-07 1.103978e-07 1.075381e-06 1.120826e-06 1.550891e-06
4.773837e-07 -7.210304e-07 6.528551e-06 3.638240e-06 -2.619516e-06 -2.502320e-06
8.106913e-07 6.523231e-07 -3.294359e-07 2.543187e-06 6.601062e-07 6.945479e-07
-2.087762e-07 -2.426602e-07 9.017501e-08 1.206433e-08 1.102599e-06 1.358799e-06
2.102666e-06 -2.020803e-07 -8.573910e-09 2.468528e-06 5.879911e-07 6.692945e-07
-5.715846e-06 -5.332189e-06 3.202870e-05 -4.826679e-06 1.060251e-05 -7.221734e-06
-2.011331e-07 -4.053836e-06 1.609514e-05 -5.831390e-06 5.505069e-06 -6.047372e-06
2.942093e-06 -2.652695e-06 1.024602e-06 -8.099626e-07 -2.926996e-07 1.057739e-06
-5.029391e-06 -1.725457e-05 4.562242e-05 -1.030206e-06 6.238421e-06 -5.262588e-05
-5.285205e-06 4.529307e-06 1.237923e-05 2.745210e-06 -3.838567e-06 -8.826035e-07
-2.780223e-06 3.019689e-07 6.217119e-06 -3.391789e-08 -3.409805e-06 -2.567027e-06
-5.296061e-06 4.444311e-06 1.041489e-05 1.760603e-06 -3.283660e-06 1.198355e-06
5.368774e-07 -7.084887e-08 -2.628499e-07 1.386316e-07 6.108831e-08 1.551004e-07
-2.654053e-06 1.350667e-06 9.329564e-06 -5.470266e-06 1.583684e-06 -1.858887e-06
5.653849e-07 -7.015336e-08 -1.994756e-07 1.049236e-07 4.474900e-08 1.534039e-07
-6.668602e-08 8.322078e-07 -6.127985e-07 -3.263217e-07 3.756647e-07 -1.919702e-07
8.872339e-07 -1.884988e-07 -4.298730e-07 1.812853e-07 1.928410e-08 3.250128e-07
7.054584e-07 -1.776342e-07 -3.327404e-07 1.249222e-07 5.966669e-08 3.061085e-07
2.598820e-08 6.096364e-07 -7.121149e-07 -4.338131e-07 6.043358e-07 -2.935561e-07
-1.090623e-05 -1.870184e-06 3.076664e-05 -5.815953e-06 3.444978e-05 -2.141926e-05
-1.297825e-07 2.203614e-06 1.502230e-05 4.499171e-06 1.567459e-05 1.676407e-05
-1.188583e-05 7.462745e-07 2.486834e-05 -3.190649e-06 1.061328e-05 -1.481175e-06
-6.460098e-06 4.742262e-06 4.564316e-06 -1.993777e-06 8.185635e-07 -1.409919e-06
-1.081037e-05 3.368912e-06 1.771082e-05 -4.995938e-07 3.602360e-06 1.740327e-06
-1.937829e-07 5.740653e-09 -3.061093e-07 -6.123260e-08 8.383153e-07 -5.582080e-07
-2.871140e-06 4.013658e-06 4.295273e-06 -1.453264e-07 3.148609e-06 1.369880e-06
-3.665451e-07 1.662309e-06 -2.090418e-07 4.541515e-07 1.294225e-06 4.420339e-07
-5.064085e-07 2.221596e-06 -9.129316e-08 1.672628e-06 7.300568e-07 2.569482e-07
-9.114224e-07 2.903707e-06 -7.595532e-07 -4.778931e-07 1.127656e-06 -1.830807e-07
-4.321520e-06 3.339800e-06 5.955204e-06 1.940047e-06 -3.359911e-06 -9.433814e-07
-5.789076e-08 -6.489630e-07 4.907538e-06 2.450938e-07 -5.399868e-06 8.464225e-07
-3.239572e-07 2.067108e-06 4.235289e-07 2.723524e-06 -3.245204e-07 -6.629997e-07
-4.963477e-07 1.646064e-06 -6.279446e-07 -1.141509e-07 4.808161e-07 -5.339119e-08
-5.737279e-07 1.440893e-06 -6.751069e-07 1.036778e-07 6.029812e-07 -1.203538e-07
-2.129164e-06 3.307258e-06 7.005468e-07 1.024309e-06 1.252083e-06 2.068695e-08
-1.311169e-06 8.159076e-07 3.263376e-06 5.624528e-07 -3.666861e-07 7.724581e-07
-4.776213e-07 1.532681e-06 -5.290652e-07 2.284832e-07 8.147841e-07 5.795202e-08
-2.853138e-07 3.806184e-07 -3.209580e-07 3.990741e-08 9.327685e-07 7.923483e-08
-3.080035e-06 3.985378e-06 2.153892e-06 8.398390e-07 -4.174725e-07 1.304758e-06
-2.054276e-07 3.296982e-07 -3.028616e-07 7.104256e-08 5.575826e-07 1.561697e-07
-2.453633e-07 3.603413e-07 -3.466275e-07 8.705912e-08 8.908884e-07 1.603817e-07
-1.331678e-07 3.257174e-07 -2.674702e-07 1.289766e-07 3.623442e-07 2.250966e-07
2.183981e-07 5.958745e-07 -4.808760e-07 4.769099e-07 2.125723e-07 2.011452e-07
-9.871766e-06 1.589301e-06 2.756921e-05 4.114046e-06 9.650835e-06 6.205850e-06
-8.264568e-06 -1.477616e-05 4.891403e-05 3.405728e-06 1.921855e-05 2.927083e-05
-2.824750e-06 -3.945419e-06 2.022291e-05 6.574543e-06 5.364816e-06 9.780627e-06
-1.933388e-05 -1.927176e-05 1.017363e-04 1.508892e-06 3.719317e-05 -1.391435e-06
-2.049187e-05 -1.941573e-05 8.230345e-05 -5.372452e-06 1.505943e-05 -2.176665e-05
7.016469e-07 -6.854919e-08 -4.241968e-07 2.356962e-07 7.096938e-08 2.607711e-07
1.046042e-07 4.869991e-07 -3.817247e-07 2.734802e-07 2.197054e-07 1.550613e-07
-6.421176e-06 4.316600e-06 8.593589e-06 -9.717483e-07 -2.080616e-06 -6.649583e-07
3.989571e-07 3.491581e-08 -1.833998e-07 -9.051775e-08 -3.497807e-08 6.181981e-08
3.528928e-07 7.366001e-08 -1.783129e-07 -8.684144e-08 -4.291083e-08 5.693705e-08
5.430283e-07 -4.821177e-08 -2.257453e-07 2.219293e-07 1.434227e-07 3.219860e-07
5.011021e-07 9.891286e-08 -2.712783e-07 -1.919560e-07 -5.457758e-08 8.840904e-08
4.191883e-07 2.416533e-08 -1.684164e-07 -7.677994e-08 -2.969866e-08 5.830069e-08
4.998327e-07 -2.782289e-08 -1.803329e-07 1.126182e-07 2.026433e-08 9.504506e-08
5.628000e-07 -7.059904e-08 -2.704278e-07 1.075879e-07 5.490325e-08 1.389626e-07
4.860621e-07 -9.928332e-09 -1.765426e-07 1.322491e-07 2.850298e-08 1.043912e-07
5.165830e-07 -2.034749e-08 -2.083897e-07 1.765655e-07 8.520433e-08 2.051897e-07
1.020963e-07 8.094791e-07 -7.296404e-07 5.395385e-07 -7.058581e-07 -3.833510e-07
-1.412724e-07 3.099042e-08 -2.540605e-07 4.643467e-08 -8.427226e-07 -5.618785e-07
-1.441211e-07 1.213209e-07 -3.624170e-07 6.935189e-08 -7.143631e-07 -4.523586e-07
5.255280e-07 -1.865306e-08 -1.974886e-07 1.696255e-07 9.489173e-08 1.949492e-07
1.489680e-06 -4.462083e-07 -6.274768e-07 5.779798e-08 5.271067e-08 6.777687e-07
8.013476e-07 1.708922e-07 -6.878535e-07 -8.664934e-07 -3.101938e-07 5.332877e-07
1.270126e-06 -4.905574e-07 -4.717529e-07 1.248626e-08 9.416750e-08 8.269648e-07
8.983380e-07 -2.780850e-07 -3.092253e-07 4.239894e-08 3.656831e-08 6.006595e-07
4.137150e-07 -6.201420e-08 -2.278126e-07 1.308338e-07 1.042118e-07 2.961707e-07
6.296466e-07 3.020772e-09 -3.022037e-07 2.599516e-07 6.402244e-08 1.025670e-07
-4.393616e-07 7.742711e-07 -3.040260e-07 4.814964e-07 -1.072731e-06 -6.159216e-08
-2.181584e-06 3.883973e-06 3.165293e-06 3.417178e-06 8.325576e-07 8.242342e-07
-7.373303e-07 1.306221e-06 -3.838752e-07 -9.759670e-08 -1.137432e-06 9.866561e-09
-2.726068e-07 1.319699e-06 -6.928779e-07 4.553811e-07 5.995947e-07 2.610371e-07
-2.531682e-06 3.805494e-06 1.034170e-08 2.663255e-07 -1.132292e-06 -1.181524e-07
-2.517150e-07 1.248582e-06 -6.408175e-07 5.255914e-07 5.784078e-07 8.339816e-08
-9.279710e-07 1.941753e-06 -2.516745e-07 6.863239e-07 -1.315267e-06 -2.980080e-07
6.077133e-07 -9.222799e-08 -2.216826e-07 -1.487977e-07 -9.715400e-08 2.770003e-07
3.967847e-07 -1.353289e-07 -2.468708e-07 -1.113852e-07 -1.087394e-07 3.521668e-07
-3.646973e-07 1.096795e-06 -5.428281e-07 7.137887e-08 9.465029e-07 6.160268e-08
7.149404e-07 -8.824735e-08 -3.196462e-07 -2.599879e-07 -1.606505e-07 4.145188e-07
7.470223e-07 -1.169040e-07 -3.273745e-07 -1.378882e-07 -4.548607e-08 2.205757e-07
-2.315423e-07 7.075461e-07 -2.811880e-07 2.254891e-07 5.179400e-07 1.387079e-07
-1.415633e-07 7.842447e-07 -4.545463e-07 3.007591e-07 6.400603e-07 2.611932e-07
8.221801e-07 -3.037428e-08 -4.192655e-07 -3.920746e-07 -1.133135e-07 2.244069e-07
-2.896060e-07 8.342508e-07 -3.310111e-07 3.009931e-07 7.555617e-07 1.558989e-07
-5.902735e-08 6.557997e-07 -2.820248e-07 3.960934e-07 6.093003e-07 1.809207e-07
3.085860e-07 -2.565701e-08 -2.276031e-07 -1.553000e-07 -2.022372e-07 3.128824e-07
5.239016e-07 -7.678089e-09 -2.056564e-07 -2.198229e-07 -9.540692e-08 1.920711e-07
-4.944321e-06 -1.140360e-05 4.372179e-05 6.508210e-06 -2.632816e-05 -4.602124e-05
3.297716e-07 2.882403e-09 -2.250742e-07 -1.220997e-07 -2.133100e-07 2.944501e-07
1.981187e-07 1.006646e-08 -2.340580e-07 -1.682563e-07 -3.126515e-07 4.019799e-07
-2.476349e-05 -1.288256e-05 8.046251e-05 -1.059578e-06 -3.419570e-05 -9.466214e-06
-1.709154e-05 -3.774878e-06 4.628824e-05 2.704691e-06 -5.093051e-05 -1.399104e-05
-1.332943e-05 -2.484528e-05 9.254227e-05 -3.004325e-06 1.372844e-05 -3.160080e-05
-6.823615e-06 1.025668e-06 1.955072e-05 2.106723e-06 -1.388642e-05 2.440922e-06
-6.728106e-06 7.127840e-08 2.445756e-05 5.003527e-06 -1.647483e-05 -4.877786e-06
-2.104892e-05 -1.258409e-05 8.368878e-05 -2.546279e-06 -3.553407e-05 -6.000069e-06
-6.104381e-06 7.530895e-07 3.178245e-05 -1.098820e-06 -1.676738e-05 -7.877163e-06
1.435152e-06 -8.164160e-07 2.374727e-06 -3.576963e-06 -3.398043e-05 -3.043816e-05
-6.416784e-06 1.066982e-06 1.289657e-05 5.562076e-06 -1.493549e-05 -3.847319e-06
-9.130000e-06 3.594204e-06 2.428828e-05 5.234623e-06 -1.285304e-05 -5.219479e-06
-2.332319e-07 2.056952e-07 -2.692159e-07 1.508712e-07 1.251205e-06 6.155683e-07
-3.416407e-07 1.528791e-06 -6.931474e-07 7.961788e-07 7.896769e-07 2.991704e-07
-3.262288e-06 2.297452e-06 3.679729e-06 1.848400e-06 -2.117273e-07 4.656804e-08
2.068022e-06 -8.661985e-06 1.732747e-05 -1.527133e-07 5.421657e-07 -8.213733e-06
-6.987318e-07 1.141557e-06 2.767825e-06 3.634599e-06 -7.613924e-07 -4.431574e-07
2.025798e-06 -7.381228e-07 2.447051e-06 4.175622e-06 6.839734e-07 1.697314e-07
-1.916840e-05 -1.686826e-05 1.072746e-04 -2.585863e-06 -3.331254e-05 -9.142659e-06
-5.628595e-06 -1.314730e-05 4.192865e-05 4.734050e-06 -8.003664e-06 -1.930425e-05
-3.048048e-07 7.119521e-07 -2.981382e-07 -1.457386e-07 5.522154e-07 -1.304677e-07
-1.880058e-07 6.181194e-07 -2.631011e-07 -2.310835e-07 5.930488e-07 -1.946536e-07
-5.546441e-07 1.946193e-06 -9.005879e-07 -1.221178e-06 1.025066e-06 -2.071186e-07
-1.012932e-05 -3.195969e-06 3.030497e-05 2.503720e-06 -1.182082e-05 -4.022543e-06
-4.513720e-07 1.897727e-06 -7.686358e-07 -5.328590e-07 5.738395e-07 -1.831399e-07
-4.613108e-07 1.158573e-07 -1.479250e-07 -1.911822e-07 1.230312e-06 -4.640535e-07
1.251183e-06 -8.678417e-07 8.082488e-06 1.985794e-06 -5.507245e-06 -3.424814e-06
-1.486859e-06 -7.658785e-07 8.601795e-06 2.531040e-06 -1.042050e-06 -1.771506e-06
-1.821500e-06 -5.790937e-06 2.044006e-05 6.517308e-06 -5.940575e-06 -5.971615e-06
-3.549347e-06 -5.956505e-06 4.101182e-05 1.009314e-05 -1.872786e-05 -1.691413e-05
4.629510e-07 -3.874682e-08 -1.887264e-07 1.029669e-07 5.061059e-08 1.212224e-07
3.951557e-07 2.397034e-08 -1.841369e-07 1.205678e-07 8.032564e-08 1.161498e-07
4.100681e-07 -1.120694e-07 -2.426197e-07 1.570358e-07 1.101223e-07 3.100735e-07
7.716207e-07 -1.867635e-07 -3.128424e-07 9.008345e-08 3.318476e-08 1.706206e-07
1.476790e-06 -6.205803e-07 -4.302813e-07 2.199502e-07 8.467843e-08 9.926754e-07
2.912822e-07 -1.740225e-08 -2.592660e-07 2.257712e-07 2.875486e-07 4.322814e-07
7.223583e-07 -2.508543e-07 -3.340007e-07 -3.641460e-08 -1.214957e-08 3.360057e-07
6.640511e-07 -9.105519e-08 -3.016283e-07 -1.532282e-07 9.727772e-10 1.589514e-07
4.869379e-07 -6.517222e-08 -2.098742e-07 -9.167908e-08 -5.484628e-08 1.409030e-07
5.596098e-07 -6.971708e-08 -1.948764e-07 -1.305921e-07 -3.202896e-08 1.486269e-07
5.218063e-07 -8.810754e-08 -2.022621e-07 -6.505786e-08 -5.677867e-08 1.205332e-07
1.467155e-07 5.819778e-07 -5.705635e-07 -5.729248e-07 -7.075709e-07 5.199001e-07
1.486655e-07 7.062229e-07 -5.310787e-07 -6.977925e-07 -5.085668e-07 4.823876e-07
-1.870886e-07 7.165145e-07 -6.349351e-07 -3.987427e-07 -5.074119e-07 3.461836e-07
4.373287e-06 -4.321272e-06 5.663703e-06 9.421218e-07 4.629200e-07 -6.236481e-07
-2.945872e-07 3.062240e-07 -3.427387e-07 -9.866224e-08 -6.355170e-07 3.777202e-07
1.162453e-06 -2.134590e-07 -5.224158e-07 2.327807e-07 9.518693e-08 3.819848e-07
8.710302e-07 -2.177064e-07 -4.655995e-07 2.047691e-07 5.161267e-08 2.994088e-07
7.367128e-08 1.058931e-06 -6.967557e-07 -8.923688e-07 -6.432240e-07 2.623302e-07
-3.182052e-07 1.597690e-06 -7.075729e-07 -6.938293e-07 -6.173828e-07 2.487762e-07
4.451218e-07 4.763683e-08 -2.395759e-07 1.542447e-07 5.388833e-08 1.208800e-07
5.538697e-07 -1.212595e-08 -3.636513e-07 2.122183e-07 9.015720e-08 2.177230e-07
5.008399e-07 -2.436378e-08 -2.452493e-07 1.380846e-07 5.101710e-08 1.197978e-07
5.564512e-06 -4.550863e-06 7.453243e-06 9.331151e-07 -2.791376e-08 1.356251e-06
5.935651e-07 -2.852056e-08 -3.216464e-07 1.826676e-07 2.952497e-08 1.512095e-07
4.710128e-07 7.615440e-08 -3.581155e-07 2.249607e-07 6.869858e-08 1.647741e-07
-2.389021e-06 -2.566819e-06 1.076344e-05 2.312863e-06 2.648938e-06 4.763791e-06
1.966572e-07 3.847303e-07 -3.471734e-07 2.944268e-07 1.746878e-07 9.610021e-08
1.064238e-06 -1.945858e-06 9.579141e-07 1.109078e-07 4.995384e-07 -1.862091e-07
2.152291e-06 -9.970108e-07 1.011141e-07 1.511147e-06 -5.119926e-07 5.245437e-07
2.915132e-06 -3.505363e-06 9.936655e-06 5.106846e-06 8.213054e-06 9.928291e-06
2.265359e-07 -1.130474e-06 8.473980e-06 3.664350e-07 1.638136e-06 5.876051e-06
2.834847e-06 -7.119935e-07 4.492053e-08 8.063960e-07 5.280382e-08 -1.754719e-08
2.924817e-06 -1.856077e-06 2.299681e-06 1.978286e-06 3.918292e-07 4.618977e-07
2.100894e-06 -8.905419e-07 1.130535e-06 -1.286867e-06 4.789692e-07 2.733403e-07
3.142790e-06 -1.515625e-06 -5.666559e-07 1.243426e-06 -9.132744e-07 -3.986872e-08
1.452872e-06 -4.490856e-07 -6.371521e-07 -3.989562e-07 -6.331759e-08 3.976847e-07
9.668246e-08 1.892851e-07 -2.472408e-07 1.666708e-07 2.864037e-07 2.479406e-07
1.166688e-07 5.044742e-07 -4.057576e-07 3.483742e-07 2.503030e-07 1.313603e-07
1.203237e-06 -4.490856e-07 -5.810323e-07 -3.622045e-07 -1.300034e-07 6.087012e-07
1.518919e-06 -6.896666e-07 -1.304010e-07 -2.216827e-07 -3.933514e-08 1.374907e-06
1.362018e-06 -1.302692e-07 -5.970711e-07 -9.206787e-07 -4.343527e-07 7.441822e-07
-2.129789e-07 8.015523e-07 -3.753311e-07 -3.883338e-07 7.378825e-07 -8.074824e-08
4.385471e-07 -1.988066e-07 -2.502355e-07 -2.132923e-08 -3.893504e-08 4.884416e-07
-5.169340e-07 1.455057e-06 -6.524860e-07 2.749378e-07 6.015280e-07 -4.391462e-08
-3.134349e-07 1.155852e-06 -3.966603e-07 -1.133714e-07 7.836476e-07 -1.316600e-07
7.954321e-07 -2.264432e-07 -2.701302e-07 -4.765090e-08 -6.139061e-08 5.977288e-07
-4.665809e-07 1.671448e-06 -6.276027e-07 5.330457e-08 4.860286e-07 -6.205487e-09
-5.067340e-07 5.049772e-07 -2.806596e-07 -8.677849e-08 9.261130e-07 1.744832e-07
9.555739e-07 -5.328109e-07 -4.153233e-07 -2.053829e-07 -1.193904e-07 8.752647e-07
-5.525615e-07 1.491970e-06 -6.564822e-07 -1.419898e-07 5.865233e-07 4.427665e-08
-2.853138e-07 7.918795e-08 -2.555871e-07 4.137571e-08 7.737328e-07 7.897622e-08
-3.941418e-07 1.031541e-06 -3.581694e-07 -2.510694e-07 7.658466e-07 -9.708744e-08
1.281994e-06 -6.109634e-07 -6.370571e-07 -2.098186e-07 -5.932054e-08 7.036159e-07
-9.494614e-07 2.433283e-06 -3.743524e-07 -2.056355e-07 8.750285e-07 -2.002782e-07
-5.940482e-07 1.368797e-06 -6.265765e-07 -9.829858e-08 9.824784e-07 -1.941192e-07
5.516872e-07 -8.925404e-09 -2.845371e-07 -1.679678e-07 -3.910489e-08 1.358684e-07
2.173387e-06 -6.109634e-07 -7.123608e-07 -2.772354e-07 -8.476165e-08 7.720339e-07
3.223828e-07 -2.335642e-07 -2.637876e-07 -4.939080e-08 -1.284625e-07 6.987263e-07
4.304294e-07 1.240067e-08 -1.791698e-07 -8.477457e-08 -5.770304e-08 8.087386e-08
7.982671e-07 1.072858e-07 -5.078324e-07 5.656935e-07 1.355931e-07 3.288393e-07
7.260527e-07 -5.840760e-08 -3.663674e-07 -2.147077e-07 -7.264871e-08 1.726140e-07
6.268410e-07 -1.131966e-07 -2.957878e-07 -7.910147e-08 -7.234860e-08 1.354278e-07
6.091295e-07 -8.742450e-09 -3.340515e-07 -2.010130e-07 -6.278887e-08 1.222648e-07
3.536689e-06 -1.573904e-06 2.647440e-06 2.087546e-06 -2.876657e-07 -1.418332e-06
2.977239e-07 1.417088e-07 -1.711126e-07 1.764151e-07 1.116783e-07 1.131662e-07
4.114277e-07 6.430208e-08 -1.721078e-07 1.103240e-07 2.237719e-08 5.677789e-08
7.923010e-07 -4.524532e-09 -5.340263e-07 -5.581472e-07 -2.182276e-07 3.248094e-07
6.024265e-07 -1.321783e-08 -4.142313e-07 -2.152251e-07 -9.470615e-08 2.245727e-07
3.839302e-07 6.821741e-08 -1.741397e-07 9.241728e-08 3.633922e-08 4.341172e-08
4.386436e-07 3.238749e-08 -2.029507e-07 -1.437142e-07 -7.581222e-08 1.259765e-07
4.070052e-07 -6.433585e-09 -1.957210e-07 -1.041008e-07 -8.703033e-08 1.532444e-07
6.869204e-07 -1.504452e-08 -3.758246e-07 -3.166757e-07 -9.655589e-08 1.653127e-07
4.315038e-07 -8.860686e-08 -2.344108e-07 -1.121632e-07 -1.398173e-07 3.041898e-07
4.365040e-07 -3.170840e-08 -2.150322e-07 -1.923915e-07 -1.603146e-07 2.417487e-07
4.728552e-07 6.202927e-08 -2.152396e-07 1.429289e-07 2.198593e-08 6.460982e-08
9.273345e-08 1.854763e-08 -2.412676e-07 -1.895455e-07 -3.325318e-07 4.088345e-07
5.430063e-07 -5.515075e-08 -2.278414e-07 -1.654896e-07 -1.028736e-07 2.536682e-07
4.907529e-07 -1.390930e-07 -2.213998e-07 -6.554356e-08 -4.905243e-08 2.799549e-07
-3.265297e-07 -2.415876e-07 4.789163e-07 8.498586e-08 7.190759e-07 2.041015e-08
-2.365547e-07 -4.555215e-07 6.864957e-07 -6.028697e-08 9.434179e-07 4.617648e-07
-1.626982e-06 1.599252e-06 1.195289e-06 4.406116e-07 5.267474e-07 2.652055e-07
3.327071e-07 -7.996539e-10 -2.526634e-07 1.531201e-07 1.775941e-07 2.409597e-07
-9.136620e-07 -2.250898e-07 7.120106e-07 2.354042e-07 5.912353e-07 7.289224e-08
2.521975e-06 -6.620049e-07 -2.258705e-07 1.882165e-06 3.770546e-07 1.107067e-06
1.161947e-06 1.537691e-07 -6.876032e-07 -8.012731e-07 -3.075739e-07 5.033952e-07
2.563877e-06 -2.091023e-06 3.579315e-06 3.247968e-06 8.829551e-07 7.024143e-07
2.974784e-06 -5.854273e-07 -1.670551e-07 2.493964e-06 3.092415e-07 4.912413e-07
4.254792e-06 -3.456669e-06 3.324882e-06 5.989963e-07 2.330393e-07 -1.505994e-06
1.931352e-06 -1.435865e-06 1.433031e-05 5.974992e-06 -5.299851e-06 -1.009942e-05
3.115888e-07 1.377057e-07 -2.256265e-07 1.769507e-07 9.390738e-08 9.711318e-08
-6.422552e-08 -5.905523e-07 8.940905e-06 -3.979742e-06 1.642898e-06 -2.314715e-06
3.252390e-07 1.255912e-06 -8.000039e-07 -1.094889e-06 4.570765e-07 -2.642654e-07
2.946224e-08 9.260021e-07 -6.179460e-07 -5.678012e-07 4.316589e-07 -2.277945e-07
-2.206849e-07 2.324423e-07 -2.161016e-07 -1.034972e-08 7.186635e-07 -2.520157e-07
5.429999e-07 2.964892e-08 -3.649485e-07 2.045155e-07 8.723780e-08 1.662049e-07
1.245588e-06 -2.693210e-07 -6.589046e-07 3.458084e-07 1.658126e-07 5.437550e-07
3.229032e-07 1.860130e-07 -2.463306e-07 1.614057e-07 4.746447e-08 6.931408e-08
3.581938e-07 1.845582e-07 -2.313870e-07 1.537023e-07 5.260348e-08 4.634573e-08
3.195891e-07 1.467975e-07 -1.834769e-07 1.103485e-07 2.388059e-08 1.942453e-08
3.970726e-07 7.166361e-08 -1.827853e-07 -7.826396e-08 -4.068438e-08 6.119031e-08
1.944324e-06 -4.291606e-07 -7.630253e-07 5.824675e-07 2.035736e-07 6.554687e-07
1.307738e-06 -2.765079e-07 -6.217432e-07 3.651885e-07 1.506208e-07 4.956947e-07
3.435103e-07 1.045588e-07 -2.323246e-07 2.184177e-07 1.411341e-07 2.178732e-07
5.826357e-07 7.852506e-08 -4.243526e-07 3.424615e-07 1.211102e-07 2.182193e-07
6.989868e-07 -1.929555e-07 -4.844161e-07 4.100831e-07 3.925107e-07 8.118793e-07
2.861176e-07 -1.361745e-07 -2.448921e-07 1.543727e-07 2.868659e-07 5.714214e-07
1.247885e-06 -2.626895e-07 -6.130008e-07 5.313290e-07 1.230161e-07 4.349623e-07
1.961667e-08 -2.493462e-06 1.021509e-05 -1.844473e-06 -4.243580e-06 7.549200e-06
-4.242653e-07 3.981858e-06 2.980893e-06 -5.964724e-07 -3.188009e-06 4.350816e-08
1.179027e-06 -3.477169e-06 1.862240e-05 -3.168905e-06 -4.589147e-06 4.988300e-06
1.347129e-06 8.150394e-07 3.508923e-06 -1.613205e-06 -8.112213e-07 5.353593e-06
3.554320e-07 5.991262e-08 -2.022146e-07 -1.147139e-07 -7.253906e-08 1.069377e-07
3.929550e-07 2.043769e-07 -4.904547e-07 -3.746096e-07 -2.017250e-07 2.557240e-07
4.475829e-07 1.259938e-07 -2.692465e-07 -1.757266e-07 -6.629731e-08 6.714593e-08
3.479334e-07 2.492168e-07 -3.758468e-07 -3.107269e-07 -1.896268e-07 1.399246e-07
5.161018e-07 5.420973e-08 -2.999996e-07 -1.802309e-07 -8.249036e-08 1.143423e-07
4.230667e-07 7.568736e-08 -2.094923e-07 -1.373634e-07 -2.498304e-08 5.093735e-08
4.254834e-07 4.060286e-07 -5.723710e-07 -4.639481e-07 -2.825152e-07 2.184997e-07
1.245161e-06 -2.721099e-07 -5.456209e-07 1.409710e-07 4.733274e-08 3.993726e-07
5.034574e-07 -1.986838e-07 -2.291313e-07 -1.640511e-08 -1.957461e-08 2.959119e-07
3.155115e-07 1.972533e-07 -2.625674e-07 -2.630203e-07 -2.472892e-07 2.613728e-07
1.828596e-07 3.380402e-07 -5.312836e-07 -3.875580e-07 -3.246349e-07 2.771717e-07
-2.142030e-06 3.285145e-06 1.835340e-06 -7.968834e-07 1.368147e-07 3.026952e-07
7.907375e-07 -1.678678e-07 -3.521546e-07 -1.436887e-07 -8.329728e-08 2.042209e-07
-5.217503e-07 1.458943e-06 1.268215e-06 -1.566159e-06 7.109331e-07 2.519829e-07
-1.096591e-06 1.835627e-06 2.544893e-07 -4.304700e-07 1.045017e-06 -2.587872e-07
-1.396066e-05 -1.481854e-05 5.146180e-05 3.845096e-06 -6.315165e-06 -1.671509e-05
-7.894222e-06 3.148583e-06 2.043473e-05 6.254001e-06 -2.325792e-05 -1.327041e-05
-6.003655e-06 -5.744234e-06 2.374892e-05 7.936192e-06 -6.665253e-06 -8.615999e-06
-6.354439e-06 3.192897e-06 1.275303e-05 -2.650050e-06 4.414745e-06 -1.626534e-06
-1.284817e-05 -2.335451e-06 3.276449e-05 -5.978442e-06 -3.759349e-05 3.561089e-06
3.045373e-06 -6.816029e-06 1.676845e-05 -4.257916e-06 2.253689e-06 -1.766827e-05
-4.329515e-07 2.383233e-06 9.160130e-07 -3.240088e-07 4.345881e-07 3.314037e-07
-5.988786e-07 -5.465038e-07 5.726367e-06 3.422110e-07 3.206447e-06 3.392007e-06
3.979678e-06 -6.051603e-06 8.684043e-06 3.583151e-06 -7.304459e-08 4.176243e-06
-3.974473e-06 4.398689e-06 5.604325e-06 -1.348402e-06 -2.448343e-06 1.421300e-06
2.699550e-06 -2.199229e-06 9.544259e-06 1.665036e-06 2.856673e-06 1.043443e-05
4.007237e-07 -4.742505e-08 -2.284283e-07 1.563724e-07 1.280792e-07 2.645503e-07
-5.321382e-06 5.142323e-06 3.076614e-06 3.504639e-07 -5.131021e-07 8.530086e-07
6.161434e-07 -1.135569e-07 -3.062618e-07 1.143501e-07 7.765681e-08 2.804680e-07
-2.530470e-06 3.436847e-06 3.417501e-06 -1.511587e-06 -3.759056e-07 -5.830355e-08
4.181797e-07 -1.826193e-08 -2.043750e-07 1.275672e-07 7.872257e-08 1.653967e-07
-3.566238e-07 -2.739524e-07 2.656171e-07 -2.426245e-08 9.033236e-07 -7.269136e-07
4.121272e-07 6.687654e-08 -2.035673e-07 2.015036e-07 9.866854e-08 1.917137e-07
1.652667e-06 -4.885665e-06 1.366255e-05 4.127082e-06 -5.125976e-07 -3.630002e-06
8.778814e-07 -8.687383e-07 7.744375e-06 1.697967e-07 -5.625676e-07 -7.327150e-06
-1.463474e-06 1.903618e-06 8.515397e-07 -1.960015e-07 1.403876e-07 -1.929438e-08
-7.118287e-08 -2.187729e-07 4.954071e-06 -9.291459e-08 6.256637e-07 -2.164234e-06
3.453759e-06 -6.600906e-06 1.179616e-05 1.575890e-06 -1.857592e-06 -3.399481e-06
4.068357e-08 1.162662e-06 -6.316521e-07 -6.635339e-07 6.683036e-07 -2.737682e-07
-1.216531e-06 2.053914e-06 4.951835e-07 -9.279780e-07 7.702908e-07 -3.540359e-07
-1.112730e-06 3.619992e-06 -4.771425e-07 -1.229326e-06 1.018811e-06 -3.925442e-07
-4.362170e-07 2.307377e-06 -7.885720e-07 -9.812049e-07 8.237469e-07 -3.380404e-07
-3.115510e-06 3.368379e-06 2.084674e-06 4.752443e-08 1.116050e-06 2.270285e-07
-9.843739e-07 1.731723e-06 3.604853e-07 1.423745e-07 6.115686e-07 2.343354e-07
-1.232087e-06 1.388369e-07 2.035322e-06 3.223695e-07 -1.282667e-06 4.048883e-07
2.491986e-07 2.248293e-07 -1.774688e-07 1.646358e-07 1.015901e-07 9.212599e-08
-2.395773e-07 3.145212e-07 -3.730062e-07 4.437762e-08 -6.265310e-07 -2.832790e-07
-4.057400e-06 4.114143e-06 4.713326e-06 9.634620e-07 6.526433e-07 -3.026732e-07
-3.805699e-07 1.410190e-06 -7.277538e-07 -4.997150e-07 1.006280e-06 -3.299177e-07
-4.262606e-07 1.236884e-06 -6.880489e-07 3.802113e-07 -6.289887e-07 -3.349805e-07
-1.512243e-07 3.277596e-07 -3.394420e-07 9.890811e-08 -7.063486e-07 -3.890015e-07
3.624039e-07 7.325767e-08 -1.673549e-07 1.209872e-07 5.791076e-08 8.513520e-08
3.935994e-07 1.430555e-07 -2.374461e-07 1.689678e-07 5.199710e-08 5.861909e-08
-6.848760e-08 1.356565e-06 -7.299042e-07 -7.200052e-07 6.195979e-07 -2.579629e-07
3.432471e-07 5.697640e-08 -1.884540e-07 1.440896e-07 1.082720e-07 1.444923e-07
5.184348e-07 1.344823e-08 -2.539544e-07 1.766207e-07 -3.394593e-09 1.048888e-07
-3.019644e-07 1.165094e-06 -5.287997e-07 -4.676770e-07 6.852361e-07 -2.511046e-07
-2.741783e-07 8.905570e-07 -5.047596e-07 -3.027303e-07 6.999632e-07 -2.038220e-07
-1.252311e-07 5.735448e-07 -2.965728e-07 -2.129748e-07 5.199010e-07 -1.900530e-07
-6.342458e-07 1.504547e-06 -1.172031e-07 -7.503793e-07 1.271893e-06 -4.062801e-07
-2.208650e-07 3.797042e-07 -2.450542e-07 -3.152829e-08 7.340901e-07 -2.443038e-07
-6.083817e-07 1.707782e-06 -6.099817e-07 9.730920e-07 -1.082527e-06 -3.020011e-07
4.779160e-07 5.557256e-09 -2.393280e-07 1.130663e-07 5.055982e-08 7.631424e-08
5.837571e-07 3.694134e-07 -6.805927e-07 -8.712919e-07 -4.027668e-07 4.598242e-07
3.028874e-07 7.324460e-08 -2.352688e-07 -2.889184e-07 -3.276979e-07 3.850293e-07
5.837571e-07 4.963171e-07 -5.732197e-07 -7.402974e-07 -2.712540e-07 2.901924e-07
1.981187e-07 9.114092e-08 -2.254704e-07 -1.491313e-07 -2.208812e-07 2.582060e-07
-6.583112e-07 2.593512e-06 -7.010919e-07 9.762410e-07 -1.026308e-06 -3.750926e-07
1.075586e-06 1.123562e-06 5.524597e-07 3.404527e-06 -2.272657e-07 -2.434021e-07
8.692043e-07 -1.329645e-07 -3.567423e-07 -3.649631e-07 -2.753543e-07 6.478153e-07
-5.024660e-07 -1.880436e-07 8.922369e-07 -2.088252e-07 -1.610246e-06 -1.551468e-07
5.374420e-07 7.114063e-08 -3.802550e-07 2.906987e-07 9.003598e-08 1.374918e-07
-6.743527e-07 1.154520e-06 7.457673e-08 4.483908e-07 -1.208406e-06 -4.674595e-07
4.301279e-07 1.833057e-07 -3.377230e-07 2.369733e-07 9.290840e-08 1.014536e-07
-6.184991e-07 7.659989e-07 2.034923e-07 3.490608e-08 -1.325370e-06 -4.715341e-07
5.429633e-07 7.469636e-08 -2.856045e-07 2.430929e-07 5.538706e-08 9.007427e-08
2.609243e-07 1.889757e-07 -1.705921e-07 1.414668e-07 5.709856e-08 5.358692e-08
3.817197e-07 -1.844747e-08 -2.208984e-07 1.477210e-07 1.097261e-07 2.606287e-07
5.679356e-07 2.214744e-09 -3.656392e-07 2.471606e-07 7.986020e-08 1.668114e-07
1.097829e-06 -3.126051e-07 -5.202840e-07 2.595244e-07 2.140615e-08 5.916760e-07
9.155720e-07 -2.344901e-07 -3.956875e-07 8.660730e-08 5.676861e-08 2.632996e-07
5.636340e-07 1.139780e-07 -4.357899e-07 4.738829e-07 1.991447e-07 2.427002e-07
6.560524e-07 -1.550137e-07 -2.612744e-07 5.606970e-08 2.043329e-08 2.004033e-07
-2.189913e-07 -7.101416e-07 3.139438e-06 2.202297e-07 9.306379e-07 7.314293e-07
6.651957e-07 -1.172770e-07 -2.803653e-07 1.437257e-07 7.431967e-08 2.167168e-07
4.185254e-07 -1.394348e-07 -2.289315e-07 1.053360e-07 1.125157e-07 3.529779e-07
-3.826996e-07 -2.789761e-07 1.182696e-06 -3.511916e-08 1.587068e-06 -1.304967e-07
-1.129620e-07 -8.426394e-07 3.275873e-06 4.064723e-07 -5.399121e-07 3.381128e-07
1.068136e-06 -2.428458e-07 -5.245249e-07 3.319339e-07 1.121589e-07 2.817302e-07
-3.918209e-07 1.904246e-06 1.790486e-06 -2.413139e-07 -7.969733e-06 4.386252e-05
6.132690e-07 -1.188543e-07 -3.293546e-07 1.313873e-07 6.659585e-08 3.163894e-07
-1.107054e-06 3.823781e-07 9.601141e-07 7.265921e-08 8.362530e-07 -2.114080e-07
-4.196932e-06 3.755814e-06 6.173154e-06 -2.574173e-06 2.968259e-08 -2.767280e-07
1.044723e-06 1.599754e-07 -3.828479e-07 -1.301052e-06 5.950849e-07 -1.040647e-06
-3.703603e-07 -5.077347e-08 2.936438e-07 1.417267e-07 9.453975e-07 -4.925727e-07
3.130732e-07 -9.041234e-08 -2.717104e-07 -1.334841e-07 -2.070115e-07 4.058421e-07
7.953843e-07 -1.314972e-07 -3.805864e-07 -2.447837e-07 -9.576598e-08 3.171954e-07
6.596566e-07 -9.988457e-08 -2.259802e-07 -1.390644e-07 -8.949436e-08 2.819747e-07
-1.805303e-06 2.165482e-06 2.033496e-06 -6.157040e-07 -4.306855e-07 -4.826917e-07
9.160017e-07 -1.044150e-07 -4.168288e-07 -3.137640e-07 -1.245949e-07 2.634327e-07
1.049284e-06 -7.901581e-08 -5.330492e-07 -5.863409e-07 -1.933146e-07 4.242585e-07
9.170743e-07 -8.967661e-09 -4.750914e-07 -4.965085e-07 -1.502246e-07 3.103502e-07
4.464884e-07 1.844208e-07 -3.734843e-07 -6.940617e-07 -6.351160e-07 7.281837e-07
-5.976300e-07 1.900662e-06 7.658741e-06 -3.947635e-06 -2.526127e-06 1.374329e-06
-7.733659e-07 -4.138559e-08 2.664723e-06 -4.624941e-06 -7.978091e-07 1.025051e-06
1.532147e-06 -4.254472e-07 -5.862186e-07 -3.731474e-07 -2.038591e-07 8.505284e-07
1.815376e-06 -3.874958e-06 9.450224e-06 -2.781015e-06 -2.850710e-06 3.551410e-06
-1.918373e-06 -1.688165e-06 7.296010e-06 -1.267617e-06 -3.427648e-06 2.144733e-06
9.389981e-07 -2.558106e-07 -4.607100e-07 -4.665485e-08 -5.143547e-08 4.644039e-07
9.645435e-07 -6.325991e-07 3.760222e-06 -2.293095e-06 -1.738476e-06 8.773591e-07
-1.047384e-08 6.266203e-07 -3.207166e-07 -5.705875e-07 9.800537e-07 -5.378001e-07
8.166443e-07 -7.289969e-08 -4.540657e-07 3.501644e-07 2.276078e-07 4.318698e-07
-6.820333e-07 -1.579893e-07 4.288050e-07 -4.140900e-07 1.097642e-06 -5.402001e-07
-1.351160e-07 1.176702e-06 -1.516386e-08 -1.369619e-06 7.645683e-07 -4.269514e-07
3.223518e-07 -2.330869e-07 -2.579204e-07 -7.454902e-09 3.057513e-08 7.707053e-07
4.478642e-07 -2.702784e-07 -2.708099e-07 -1.045784e-08 -5.468476e-08 8.767282e-07
6.086231e-06 -4.415431e-06 9.124443e-06 4.448236e-07 3.848835e-08 -6.673384e-06
1.484076e-06 -3.150582e-06 1.050092e-05 4.844017e-06 -2.711624e-06 -2.875779e-06
-4.980931e-06 1.981682e-06 2.669765e-05 1.385860e-06 -1.176063e-05 -5.790653e-05
-3.387007e-06 3.117298e-06 7.548377e-06 4.121721e-06 -5.273306e-06 -2.488501e-06
7.025486e-07 1.203925e-06 1.844062e-06 -2.797281e-06 -9.710236e-07 5.966319e-07
2.332331e-07 1.021246e-06 -6.185110e-07 -9.373962e-07 8.899206e-07 -5.229422e-07
3.137385e-08 6.090937e-07 -3.257800e-07 -4.361309e-07 6.773095e-07 -3.767166e-07
-1.159104e-07 6.343952e-07 -5.787861e-07 -2.418611e-07 4.165162e-07 -2.171718e-07
8.194799e-08 7.248989e-07 -5.612526e-07 -5.184979e-07 9.958650e-07 -4.757909e-07
1.094470e-06 -8.369484e-07 2.868983e-07 -7.498780e-07 6.916476e-07 -7.399459e-07
4.722131e-06 -4.044147e-06 1.200803e-05 -3.408553e-06 -3.466362e-06 1.054679e-05
-1.725314e-07 2.307031e-08 -2.017239e-07 -3.819247e-08 9.046700e-07 -5.631850e-07
2.857108e-07 1.521181e-06 -4.721892e-07 -1.772201e-06 3.060673e-07 -2.941394e-07
8.586733e-07 9.520582e-07 -6.978446e-07 -1.526363e-06 8.668894e-07 -7.989686e-07
-1.234033e-07 7.362705e-07 -3.480670e-07 4.555994e-07 6.967068e-07 1.260632e-07
-4.524184e-07 9.996484e-07 -3.176980e-07 1.153824e-07 8.414410e-07 1.315286e-07
5.919461e-07 -1.293139e-06 1.905531e-06 -6.346780e-07 1.875337e-08 7.219373e-07
-2.272950e-07 7.688850e-07 -2.379616e-07 8.157576e-07 1.312924e-06 7.563369e-07
-6.696929e-07 1.587144e-06 -6.107542e-07 3.359819e-07 6.670297e-07 1.127553e-07
-4.681136e-07 1.624789e-06 -6.006815e-07 2.012916e-07 4.993611e-07 5.628710e-08
2.093279e-06 -1.213433e-06 2.228930e-06 -1.704278e-06 -5.626812e-07 1.077771e-07
2.599213e-06 -5.273302e-06 8.163749e-06 1.868281e-06 -1.124682e-07 3.859604e-06
1.370894e-07 6.478047e-07 -3.951502e-07 -6.122804e-07 -7.694997e-07 3.780318e-07
2.107821e-07 -4.133035e-07 6.487755e-07 -1.315332e-07 -5.582990e-07 -1.269267e-07
9.778276e-08 -6.801375e-07 6.284300e-06 -5.035349e-07 -7.406360e-06 8.147966e-06
5.068538e-07 -1.655549e-07 -2.541254e-07 4.773123e-08 5.145862e-09 3.340473e-07
1.281245e-06 -2.892832e-07 -5.471413e-07 2.496391e-08 1.061194e-08 4.141342e-07
1.237645e-06 -4.095954e-07 -5.392077e-07 9.827694e-08 1.635604e-08 4.136023e-07
1.019088e-06 -1.971398e-07 -4.370817e-07 -2.401663e-08 -1.618515e-08 2.635538e-07
7.620325e-07 -3.925054e-06 1.434847e-05 -2.708137e-06 -5.973993e-06 6.434292e-06
4.464808e-07 -1.811111e-07 -2.432816e-07 -5.892182e-08 -8.413853e-08 4.489075e-07
1.289539e-06 -2.844831e-07 -5.517780e-07 -9.363207e-08 -2.461129e-08 4.129968e-07
9.839653e-07 -3.120504e-07 -4.932933e-07 -3.971166e-08 -1.326228e-08 3.276274e-07
7.288531e-07 -1.756881e-07 -3.613946e-07 -6.453789e-08 -3.587275e-08 2.129208e-07
8.239273e-07 -3.367716e-07 3.507168e-07 -8.455513e-07 4.280752e-07 -8.157117e-07
1.615404e-06 -5.313169e-07 -3.812183e-07 7.679634e-07 4.904806e-07 8.774475e-07
-1.831421e-07 -2.041322e-07 3.453925e-06 -4.005295e-08 -1.561490e-06 1.193201e-07
1.825065e-07 2.716283e-07 -4.372202e-07 3.821954e-07 4.018951e-07 3.523535e-07
1.375355e-06 -4.022617e-07 -6.458382e-07 -5.527329e-08 -3.730492e-08 7.352184e-07
7.700924e-07 -1.745923e-07 -3.682698e-07 1.713158e-07 1.274353e-07 3.584859e-07
1.382173e-06 -4.133035e-07 5.359573e-07 -1.079279e-06 2.218813e-07 -5.405442e-07
4.667421e-07 -2.017610e-07 -2.624635e-07 2.274399e-08 -5.859288e-09 5.080839e-07
8.554905e-07 -3.636226e-07 -4.630875e-07 -3.648371e-08 -5.168658e-08 6.845791e-07
1.210434e-06 -2.839315e-07 -5.459252e-07 1.777367e-07 4.525305e-08 4.080554e-07
9.910635e-07 -2.461651e-07 -4.378187e-07 1.576219e-08 -2.929034e-08 2.776166e-07
1.805247e-06 -5.911290e-06 1.587336e-05 -4.760668e-06 -3.367347e-06 3.635762e-06
-1.724781e-06 8.318975e-08 1.216625e-05 -6.902322e-06 -8.756959e-06 5.351276e-06
4.479221e-07 9.470591e-07 -6.675611e-07 1.192743e-06 6.954085e-07 4.996686e-07
-5.317421e-07 1.064367e-06 -3.476265e-07 1.406740e-07 -7.873226e-07 -9.552694e-08
9.730579e-08 2.479910e-07 -2.266965e-07 1.511928e-07 1.782390e-07 1.515737e-07
-1.592260e-07 4.981476e-08 -2.136739e-07 1.462977e-07 8.668829e-07 8.134428e-07
-2.413488e-07 -4.664733e-08 -1.592428e-07 1.254120e-07 8.894564e-07 5.661954e-07
-1.379275e-06 2.879472e-06 2.183610e-07 1.607494e-06 1.215014e-06 2.765588e-07
-4.100465e-07 -1.310619e-07 1.578180e-07 -1.689051e-07 -9.465582e-07 -7.617416e-07
-2.149301e-06 3.686174e-06 -2.518417e-07 1.094993e-06 -1.139923e-06 -1.065432e-06
-1.943565e-06 4.199400e-06 1.461838e-06 2.056021e-06 -5.755484e-07 -3.677065e-07
-3.665934e-07 -1.003770e-07 1.736026e-07 -9.892521e-08 -1.597395e-06 1.827063e-08
-9.187917e-07 2.212888e-06 3.317363e-07 2.067723e-06 -9.824846e-07 -2.901254e-08
-2.643627e-07 -3.283956e-09 2.004171e-08 1.504514e-08 -1.280723e-06 -4.691388e-07
9.886238e-07 -2.844831e-07 -4.382961e-07 -7.605876e-08 -3.275760e-09 2.706313e-07
3.194048e-07 -2.683256e-07 -2.299785e-07 -2.258565e-08 -5.092352e-08 7.417267e-07
-2.365547e-07 -1.393884e-07 1.358354e-07 -2.337831e-08 1.964809e-06 4.521992e-07
7.515681e-07 -1.971398e-07 -3.708460e-07 -2.226201e-08 -1.485528e-08 2.058698e-07
8.072871e-07 -2.445367e-07 -2.812596e-07 -1.254212e-07 -1.053540e-07 5.744982e-07
1.920833e-07 -9.819328e-08 -2.158822e-07 -1.434447e-07 -3.698666e-07 6.584175e-07
-2.591742e-07 -8.620360e-08 -1.120134e-07 1.754958e-08 8.128987e-07 5.161228e-07
6.142261e-07 8.758387e-08 -4.367948e-07 -5.287782e-07 -3.546213e-07 4.028868e-07
-1.866294e-07 1.897107e-06 -6.369136e-07 1.616808e-06 6.913936e-07 3.873943e-07
8.835511e-07 1.254796e-07 -6.726111e-07 -8.963495e-07 -3.648912e-07 5.882169e-07
4.005367e-07 3.627109e-07 -4.518545e-07 4.215582e-07 1.809486e-07 1.734307e-07
-1.556317e-07 -1.175608e-06 1.375683e-05 -7.627289e-06 7.263995e-06 -1.137035e-05
-1.447054e-05 -2.433694e-05 9.568412e-05 9.635913e-07 -1.448735e-06 -1.507824e-05
1.091004e-06 -1.302035e-07 -5.811628e-07 -8.157800e-07 -4.148101e-07 7.929741e-07
-2.987775e-06 -3.192821e-06 1.599179e-05 -7.378337e-06 4.308718e-06 -1.611176e-06
5.348346e-06 -6.885900e-06 9.012262e-06 -2.734599e-06 5.267699e-07 -5.126349e-06
-1.033667e-05 -1.140305e-05 4.348028e-05 -9.811175e-06 1.325703e-05 -2.684969e-05
-7.224157e-06 -4.146539e-06 2.513240e-05 -6.850499e-06 2.564418e-05 -1.402020e-05
3.443869e-07 1.995515e-07 -3.311195e-07 2.435642e-07 8.181932e-08 8.514216e-08
-5.410551e-06 -6.259443e-06 3.327070e-05 -1.395886e-06 1.645037e-05 -2.478220e-05
-3.206291e-06 1.565184e-06 3.381955e-05 2.889649e-06 1.015953e-05 -2.742493e-05
3.888189e-07 2.362038e-08 -2.096392e-07 -2.181235e-07 -2.433448e-07 3.289716e-07
4.721732e-07 3.680726e-07 -5.409006e-07 -5.470302e-07 -2.498930e-07 3.257486e-07
-1.846718e-08 8.810737e-07 3.057443e-06 2.902064e-06 4.822327e-06 2.755042e-06
-2.160164e-08 2.891773e-07 -2.672005e-07 1.300958e-07 3.886305e-07 2.705566e-07
9.095515e-08 4.435283e-07 -5.284415e-07 4.843553e-07 5.854361e-07 4.162925e-07
-2.767343e-06 2.037690e-06 8.307948e-06 5.106275e-06 3.575940e-06 1.831460e-06
-3.203856e-06 -1.448014e-06 1.259530e-05 6.433972e-06 2.182139e-06 2.903375e-06
5.216570e-08 8.161524e-07 -6.151656e-07 4.775923e-07 3.740944e-07 2.635927e-07
2.082055e-07 3.382033e-07 -2.557203e-07 3.320344e-07 3.715628e-07 2.804503e-07
-6.471823e-09 2.049625e-07 -2.832251e-07 1.532046e-07 4.469561e-07 3.620426e-07
-2.638163e-07 3.932088e-08 7.310166e-06 6.358886e-07 3.481205e-06 5.042730e-06
2.943183e-07 4.539899e-07 -4.495640e-07 -4.517401e-07 -2.266331e-07 1.887975e-07
-7.098674e-06 3.486887e-06 7.483490e-06 3.477823e-06 5.873032e-06 -1.455685e-08
-2.560832e-07 -2.031483e-08 2.949632e-08 3.098750e-08 -9.550634e-07 -4.577020e-07
-2.153629e-07 6.608590e-07 -2.750875e-07 -1.606400e-07 4.644878e-07 -1.824943e-07
-4.027148e-07 6.236285e-07 -2.421218e-07 1.394072e-07 6.085661e-07 -1.958869e-07
-2.756685e-07 -1.265290e-07 -1.973970e-08 -1.376458e-07 -1.454486e-06 -7.596150e-07
-1.493621e-07 7.741667e-07 -2.881619e-07 -1.935080e-07 3.686884e-07 -1.445110e-07
-2.783769e-07 4.552231e-07 -2.878011e-07 -5.915687e-10 4.701263e-07 -2.149588e-07
-2.063774e-06 3.305279e-06 2.169680e-06 1.460585e-06 -1.009694e-06 -1.529995e-07
-2.297264e-07 1.353716e-06 -2.410384e-07 -9.628598e-07 1.353855e-06 -5.485947e-07
2.148093e-07 4.593877e-07 -5.244071e-07 -4.352298e-07 -3.552397e-07 2.147880e-07
-3.152705e-09 6.595999e-07 -3.352621e-07 -5.707030e-07 7.754043e-07 -5.536991e-07
3.661101e-07 5.922993e-07 -6.096347e-07 -7.037074e-07 -3.172182e-07 3.889943e-07
9.348350e-07 -1.446328e-06 9.784036e-07 -2.924039e-07 3.806349e-07 -2.190914e-07
-1.905573e-07 3.782519e-07 -3.281793e-07 -9.259993e-08 5.017443e-07 -2.857930e-07
-1.292411e-06 8.524565e-07 2.678541e-06 7.633778e-07 -6.498116e-08 -3.606171e-07
-2.762329e-07 1.125744e-06 -5.875362e-07 -2.864449e-07 4.700340e-07 -1.016784e-07
3.849498e-07 6.642907e-08 -1.622830e-07 -8.889919e-08 -2.840139e-08 3.103959e-08
3.866711e-07 9.493242e-08 -1.729981e-07 -1.146487e-07 -5.587722e-08 7.130666e-08
-1.002158e-06 2.876801e-06 7.600804e-07 -2.480267e-06 -7.610283e-07 5.903631e-07
-8.420740e-07 1.497486e-06 2.777237e-06 -3.582319e-06 -8.754716e-07 9.618308e-07
2.473746e-07 3.931151e-07 -2.644723e-07 -8.453539e-07 9.952956e-07 -6.210419e-07
-5.246949e-07 1.816633e-06 1.192191e-06 -3.521082e-06 -1.531375e-07 5.568576e-07
5.302986e-07 1.914607e-06 -4.306051e-07 -2.453908e-06 8.309791e-07 -6.410316e-07
7.927699e-07 8.491117e-07 -4.367510e-07 -1.688689e-06 -7.807051e-07 6.775664e-07
-9.908640e-07 7.052328e-07 2.190336e-06 -1.164956e-06 -8.310371e-07 1.060107e-06
-4.424885e-07 -1.377671e-07 1.765689e-06 -4.208775e-08 4.652561e-07 4.873046e-07
-2.575984e-06 -4.762377e-07 7.510631e-06 -5.928580e-06 -1.321001e-06 2.116105e-06
1.479539e-06 3.647161e-07 8.113399e-08 -2.702169e-06 -2.443961e-07 -1.077567e-07
-7.127677e-07 4.394722e-07 4.770358e-06 -2.447772e-07 2.454542e-06 -1.263317e-06
-2.094093e-06 2.769596e-06 1.007549e-06 -3.030862e-06 8.115758e-07 -2.636433e-07
5.452017e-07 -2.409755e-07 8.068969e-07 -8.889214e-07 3.977354e-07 -3.177755e-07
-2.126351e-07 -1.272351e-07 1.539674e-06 -5.263051e-08 3.775887e-07 7.694084e-09
-2.639594e-07 7.063817e-08 -1.210158e-07 -9.469704e-08 1.279248e-06 -4.781655e-07
-5.776552e-07 3.431245e-07 -1.638464e-07 4.104401e-08 9.163721e-07 -1.927485e-07
2.623534e-07 1.309847e-07 -1.775907e-07 1.355310e-07 9.860847e-08 1.050031e-07
-3.450505e-07 -9.567074e-08 3.365285e-07 3.794346e-08 1.017114e-06 -1.224557e-07
-1.875189e-06 3.930907e-06 1.042066e-06 -1.924257e-06 1.178939e-06 -2.374694e-07
-4.151132e-06 3.192346e-06 7.031225e-06 -3.232253e-06 1.224437e-08 -6.936094e-07
-6.631134e-07 1.250155e-06 6.040666e-06 -2.591500e-06 -2.550476e-06 2.209694e-06
-4.589773e-07 -1.271629e-07 1.788748e-06 -5.560564e-08 3.842470e-07 -6.336917e-07
-3.072095e-06 2.135752e-06 1.396212e-06 -1.271643e-06 -8.978900e-07 7.963381e-07
-2.274950e-07 -1.853684e-07 4.122289e-06 -2.168337e-07 2.408248e-06 -1.153065e-06
1.474283e-06 1.175188e-08 2.551033e-07 -2.014605e-06 6.229607e-08 -4.475306e-07
-2.841958e-07 8.142017e-07 -2.334307e-07 -1.968256e-07 6.975856e-07 -2.279919e-07
-1.865310e-06 2.991116e-06 2.978913e-06 -3.616675e-06 -8.292701e-08 4.892242e-07
-5.157163e-06 2.075352e-06 1.165578e-05 -6.506817e-06 -8.514539e-06 7.784757e-06
-9.388016e-07 2.366364e-06 -1.736497e-07 -1.103949e-06 8.922987e-07 -2.466742e-07
1.671913e-06 8.264500e-07 -5.895627e-07 2.080027e-06 -7.962474e-07 -7.088518e-07
5.191673e-07 9.436394e-08 -1.570098e-07 8.372324e-07 8.248135e-07 1.152424e-06
4.116719e-07 4.176400e-08 -1.750363e-07 -1.163672e-07 -4.321386e-08 8.381917e-08
1.774923e-07 4.836935e-07 -4.319105e-07 6.916484e-07 -9.164659e-07 -6.181456e-07
3.942594e-07 1.135866e-08 -1.816403e-07 -9.930334e-08 -5.609771e-08 1.039309e-07
-3.824650e-07 1.036158e-06 -1.049445e-07 -3.120258e-07 1.250325e-06 -1.560043e-07
4.406764e-07 -8.864972e-09 -1.723588e-07 -8.081768e-08 -3.534330e-08 8.376606e-08
5.653004e-07 -4.081805e-09 -2.456136e-07 -1.475680e-07 -2.411840e-08 9.406185e-08
4.098094e-07 3.727401e-07 -4.985815e-07 -5.000992e-07 -2.909458e-07 1.670270e-07
5.421892e-07 1.635823e-08 -2.735544e-07 -1.629214e-07 -5.577221e-08 1.323209e-07
6.370990e-07 4.176249e-07 -6.444286e-07 -8.101372e-07 -3.488444e-07 5.040348e-07
4.674039e-07 2.736558e-07 -4.346023e-07 -3.531228e-07 -1.436507e-07 1.477819e-07
-8.305809e-07 1.935939e-06 -7.585066e-07 2.191247e-07 -7.647576e-07 -2.075684e-07
2.932493e-07 2.546786e-07 -3.404939e-07 -2.496597e-07 -1.574760e-07 1.625022e-07
4.345532e-07 2.185434e-07 -3.080673e-07 -3.411126e-07 -2.063745e-07 2.507168e-07
5.837571e-07 2.283943e-07 -6.361904e-07 -6.537539e-07 -4.207661e-07 3.624049e-07
3.408741e-07 1.174826e-07 -1.814180e-07 1.006691e-07 5.047910e-08 6.517034e-08
3.512208e-07 1.229402e-07 -1.610984e-07 1.092073e-07 3.944961e-08 5.035077e-08
2.548148e-07 1.158990e-07 -2.314194e-07 -1.309762e-07 -1.279135e-07 1.433027e-07
3.004566e-07 8.199043e-08 -2.265375e-07 -1.430159e-07 -1.176224e-07 1.642798e-07
3.767256e-07 1.374036e-07 -1.954749e-07 -1.609830e-07 -9.551284e-08 1.066896e-07
3.557026e-07 1.322583e-07 -2.939696e-07 -1.718433e-07 -9.004240e-08 1.169312e-07
1.947372e-07 2.566679e-07 -3.477299e-07 4.682317e-07 5.560693e-07 4.910562e-07
1.304939e-07 5.377089e-08 -2.576413e-07 2.023861e-07 4.752426e-07 4.929727e-07
-2.080973e-07 -1.682897e-07 -2.453099e-07 -1.249541e-07 7.742687e-07 -6.092412e-07
6.513962e-08 6.676250e-07 -3.558390e-07 -4.296142e-07 7.607462e-07 -4.734415e-07
3.806728e-07 7.845389e-08 -1.581746e-07 9.077176e-08 1.770034e-08 3.845178e-08
4.184620e-07 1.014617e-07 -2.038486e-07 1.322300e-07 2.813507e-08 3.685121e-08
-3.638535e-08 1.083290e-06 -6.361399e-07 -5.779499e-07 4.121252e-07 -1.541909e-07
3.675820e-07 8.800909e-08 -1.762273e-07 1.512967e-07 8.860644e-08 7.283408e-08
4.541785e-07 2.225219e-08 -3.632384e-07 2.642224e-07 1.617993e-07 2.840444e-07
-6.668602e-08 5.833257e-07 -4.942571e-07 -2.504838e-07 3.539914e-07 -1.326121e-07
7.345473e-07 5.823112e-08 1.444272e-05 -2.443224e-07 4.166117e-05 -1.447440e-05
-5.775808e-07 1.733670e-06 -6.933592e-07 -3.415215e-07 6.914352e-07 -1.959138e-07
5.589228e-07 2.749254e-07 -4.142638e-07 4.606298e-07 1.326398e-07 1.616759e-07
2.456269e-07 2.720207e-07 -3.002839e-07 2.391253e-07 1.906109e-07 1.652619e-07
2.144354e-07 2.800433e-07 -2.720151e-07 1.968750e-07 1.407557e-07 1.605586e-07
1.087477e-07 6.035050e-07 -5.456154e-07 4.986155e-07 4.292152e-07 3.405065e-07
-1.627185e-05 6.862122e-07 4.131701e-05 7.304467e-06 2.408643e-05 1.203071e-05
2.335225e-07 5.425367e-07 -5.283970e-07 5.245938e-07 2.780757e-07 1.861905e-07
-8.439016e-08 7.268093e-07 -3.648652e-07 -2.986651e-07 6.229468e-07 -3.223147e-07
-3.293116e-07 1.837890e-06 -8.057688e-07 1.076791e-06 -8.127414e-07 -4.383791e-07
-1.116259e-05 5.426193e-06 2.272462e-05 -3.635551e-07 1.332043e-05 -1.460371e-06
-8.295121e-07 1.500908e-06 -5.436658e-07 3.345256e-07 -8.756007e-07 -4.179449e-08
-1.023619e-05 2.270561e-06 2.475953e-05 4.536518e-06 1.706623e-05 3.599444e-06
-5.941424e-07 1.377148e-06 -7.649426e-07 3.797152e-07 -1.013072e-06 -3.075645e-07
2.606827e-07 1.203462e-07 -2.174480e-07 -1.252199e-07 -1.378779e-07 1.267683e-07
4.508538e-07 1.826979e-07 -3.156199e-07 -2.451400e-07 -9.222828e-08 1.043904e-07
4.001256e-07 2.415386e-07 -4.477687e-07 -4.155559e-07 -2.264732e-07 2.220896e-07
-1.114020e-07 7.224405e-07 -3.222863e-07 -4.349155e-07 -7.181950e-07 6.092530e-07
1.660262e-09 -4.224460e-07 -5.112438e-08 -3.524160e-07 -1.042498e-06 7.608623e-07
1.773139e-07 -9.420054e-08 -2.348839e-07 1.552622e-07 3.253857e-07 5.594134e-07
-3.289739e-07 1.215832e-06 -2.623678e-07 -2.548516e-07 -1.545044e-06 4.294051e-07
8.190101e-08 -9.802574e-08 -1.988811e-07 1.858387e-07 4.713649e-07 5.914536e-07
2.890412e-08 1.525410e-06 -7.825236e-07 -1.382481e-06 -6.078795e-07 3.888744e-07
-1.206527e-07 8.451034e-07 -5.184005e-07 -3.100919e-07 4.296545e-07 -1.420530e-07
-4.452258e-07 2.123667e-06 -8.107777e-07 -1.342783e-06 -8.564599e-07 3.965586e-07
6.446233e-07 -3.078321e-09 -4.978644e-07 6.041062e-07 3.481950e-07 5.701676e-07
7.843971e-07 1.684684e-07 -5.576385e-07 9.615730e-07 4.355348e-07 5.365646e-07
3.587441e-07 1.806974e-07 -3.403978e-07 7.095572e-07 5.864379e-07 7.068861e-07
7.328599e-08 4.276215e-07 -2.893670e-07 4.632529e-07 4.943552e-07 3.840839e-07
-3.655896e-07 1.755575e-06 -2.336524e-07 1.244293e-07 -1.611829e-06 -8.613551e-08
-1.613446e-06 3.147863e-06 -6.649861e-07 4.372152e-07 -1.190429e-06 5.935551e-08
-1.032388e-06 -1.406698e-07 5.128160e-07 1.535492e-07 -1.323966e-06 -2.478808e-07
3.698913e-07 1.547132e-07 -4.755575e-07 4.712299e-07 3.849071e-07 5.465758e-07
7.201484e-07 -2.157339e-08 -5.634295e-07 4.463645e-07 2.272729e-07 4.313989e-07
1.245565e-06 -3.537183e-07 -5.249154e-07 4.497998e-07 2.784285e-07 7.893086e-07
-2.312424e-06 2.952805e-06 1.057261e-06 -3.747153e-07 -2.971105e-07 -2.301687e-07
6.178195e-07 -6.109649e-08 -2.572227e-07 2.802885e-07 2.202502e-07 4.445061e-07
-3.091498e-07 -1.739915e-07 1.492254e-07 2.376081e-09 -1.438228e-06 1.357820e-07
1.154174e-07 -2.409151e-07 -1.165059e-07 1.386432e-07 6.748034e-07 9.154340e-07
6.521948e-07 -3.162237e-07 4.008750e-06 -3.589100e-06 -4.626504e-06 1.594396e-05
-1.390276e-06 7.907338e-07 3.646699e-06 -2.919886e-06 -3.614943e-07 1.794638e-07
1.185849e-06 -2.041514e-07 -6.902356e-07 7.203546e-07 2.652964e-07 7.278705e-07
5.301791e-06 -6.929955e-06 7.585624e-06 6.409889e-08 -1.135876e-07 1.411042e-06
-1.560918e-06 -9.104213e-07 5.908991e-06 3.079079e-07 -2.139034e-06 1.595695e-06
-1.831611e-08 -4.797079e-07 5.464232e-06 9.203478e-08 -4.881174e-07 3.193837e-06
1.249115e-06 9.025024e-07 -5.456329e-07 -2.153199e-06 -8.288318e-07 8.020464e-07
4.287703e-07 8.701140e-07 2.647852e-07 -3.018529e-06 -6.642885e-07 9.125269e-07
-5.829757e-07 1.107245e-06 -5.434371e-07 2.646885e-08 8.849926e-07 -4.096227e-08
-2.812789e-07 6.625966e-08 -1.835966e-07 2.836248e-08 1.130393e-06 -4.345395e-07
2.621655e-07 1.814846e-07 -1.912922e-07 1.239690e-07 7.653537e-08 8.610033e-08
4.287703e-07 6.984534e-07 2.818373e-07 -2.301133e-06 -7.007687e-07 7.922800e-07
-3.279031e-08 6.595703e-07 -6.911028e-07 -4.389121e-07 5.716085e-07 -2.953091e-07
-2.436514e-07 2.653114e-07 -2.800470e-07 1.476390e-08 7.876325e-07 -3.346647e-07
-1.137872e-07 2.304061e-07 -3.410466e-07 -7.729908e-08 5.458827e-07 -2.952880e-07
4.092987e-06 -4.338785e-06 1.215494e-05 3.416629e-07 -5.603712e-07 -3.992532e-06
2.693538e-06 -1.334675e-06 -6.708067e-07 6.564607e-07 7.317884e-08 1.019948e-06
-1.906484e-07 3.670019e-07 -2.731601e-07 1.023074e-07 4.861366e-07 1.569553e-07
-3.576504e-07 4.929842e-07 -2.946388e-07 -3.133786e-08 6.295810e-07 1.823772e-07
3.735556e-06 -3.381414e-06 8.671648e-06 2.278773e-06 -7.307609e-07 -5.626358e-06
-2.974989e-07 9.963986e-07 -3.510103e-07 2.665230e-07 8.016307e-07 1.685470e-07
-6.451048e-07 1.893119e-06 -7.328145e-07 7.073926e-07 8.614865e-07 2.078890e-07
1.704174e-06 -2.777426e-06 3.167444e-06 4.517261e-06 3.924726e-07 -1.108143e-07
4.328645e-07 -2.252329e-07 -2.455407e-07 -3.402994e-08 -4.683320e-08 4.829213e-07
2.084655e-06 -6.163891e-07 -7.350953e-07 2.832193e-07 9.360867e-08 8.185062e-07
-1.051283e-06 -2.062522e-07 1.628503e-06 1.382835e-06 8.660042e-08 -2.019990e-07
-1.096542e-07 -4.431059e-07 2.159862e-06 4.698053e-10 -2.127852e-06 -1.129695e-06
-4.012978e-06 -7.399027e-06 4.376383e-05 3.032374e-06 -2.591438e-05 -4.634172e-05
-1.293726e-05 -1.742260e-05 1.088922e-04 1.132981e-06 -5.786736e-06 -4.409916e-05
-1.305013e-05 -1.817035e-05 1.044556e-04 1.937179e-06 6.935081e-06 -4.515455e-05
-2.059793e-05 -1.734472e-05 1.011782e-04 6.711070e-07 5.503657e-06 -3.556697e-05
-3.216061e-06 -1.483537e-05 3.021486e-05 2.785562e-06 -5.806296e-06 -1.086580e-05
4.372974e-07 -3.828036e-08 -2.142853e-07 1.132397e-07 5.997154e-08 1.848715e-07
4.545003e-07 -1.949946e-08 -1.883372e-07 9.363735e-08 4.938486e-08 8.456182e-08
-2.963870e-06 1.563141e-06 7.113363e-06 4.794882e-06 4.945173e-07 1.926650e-07
-2.606462e-06 4.835828e-06 8.179852e-06 2.646758e-06 3.767064e-06 5.581751e-07
-1.333670e-07 -1.802616e-07 -1.140876e-07 -9.777129e-08 8.110265e-07 -5.575372e-07
1.194795e-06 -1.453492e-06 5.378733e-06 5.491531e-06 2.390309e-06 1.683699e-06
-3.237264e-07 -1.919597e-07 1.733470e-07 1.727131e-07 1.261159e-06 -7.731240e-07
1.829999e-08 1.142000e-06 -7.811118e-07 -6.999712e-07 5.956183e-07 -3.352519e-07
-2.109286e-07 -1.896215e-07 2.530339e-07 -6.410686e-08 1.361695e-06 -8.911633e-07
-4.139575e-07 2.893995e-06 2.693975e-06 -2.758547e-06 -1.196945e-06 6.768516e-07
-1.710709e-07 -4.464151e-09 -1.109031e-07 -7.732783e-08 8.832324e-07 -7.353326e-07
-2.885017e-06 3.001663e-06 1.752224e-06 3.759421e-06 1.152499e-06 1.695123e-06
4.905981e-07 4.982912e-07 -4.284910e-07 -1.122412e-06 7.723108e-07 -8.559857e-07
1.926000e-08 1.943357e-06 -8.068235e-07 -1.202168e-06 7.704640e-07 -3.916230e-07
4.379088e-07 6.440189e-08 -2.404943e-07 -1.408446e-07 -5.554046e-08 7.020732e-08
-1.877655e-06 3.564807e-06 3.204947e-07 -1.556155e-06 6.343388e-07 1.296654e-07
1.730972e-07 1.554660e-06 2.922766e-06 4.509122e-06 9.498447e-07 5.734025e-07
2.042733e-07 6.543512e-07 -4.088816e-07 -7.079258e-07 9.805074e-07 -7.426244e-07
-5.851830e-08 5.648948e-07 -3.357102e-07 -6.880871e-07 1.214718e-06 -6.132282e-07
-2.712852e-07 -1.956560e-07 3.354798e-07 2.453830e-07 2.217419e-07 1.316786e-07
-3.181484e-06 1.260128e-06 6.925138e-06 -2.642674e-06 -2.676294e-06 1.457265e-06
-1.851965e-06 -1.032971e-06 4.191664e-06 -2.370520e-07 -8.870584e-07 -1.306775e-08
-2.380699e-06 4.000329e-06 1.720301e-06 -1.384719e-06 8.417407e-07 -7.346938e-07
4.095874e-07 8.175259e-08 -1.889852e-07 -1.546870e-07 -9.313169e-08 1.337838e-07
4.378976e-07 4.020499e-08 -1.649151e-07 -9.918610e-08 -3.734976e-08 7.035554e-08
2.611704e-07 1.636472e-07 -1.707314e-07 1.078591e-07 5.378344e-08 5.351126e-08
-3.819224e-07 1.323947e-06 -6.162451e-07 4.689082e-07 6.397723e-07 5.867373e-08
5.703197e-07 2.927717e-08 -4.703642e-07 2.972853e-07 1.688072e-07 2.596618e-07
8.872437e-07 -1.417985e-07 -6.820362e-07 7.311316e-07 3.724679e-07 6.120267e-07
-7.003376e-09 6.809416e-08 -2.991450e-07 2.063143e-07 7.280944e-07 7.346523e-07
-1.114020e-07 1.118823e-07 -2.771859e-07 -9.062714e-08 -6.606964e-07 4.777992e-07
1.190894e-06 1.413011e-07 -6.755206e-08 -1.679834e-06 -6.398286e-07 1.113121e-06
-1.275485e-07 -1.322374e-07 -1.833141e-07 -1.134536e-07 -7.449789e-07 6.343828e-07
1.021858e-07 9.763050e-07 -7.457518e-07 8.758018e-07 -6.264934e-07 -4.050226e-07
6.128574e-07 6.450330e-07 -5.600296e-07 -1.255413e-06 -6.675707e-07 5.650557e-07
1.705109e-06 4.484382e-07 5.092746e-07 1.687960e-06 -1.240289e-06 -1.110614e-06
2.164478e-06 -2.356398e-06 1.360892e-05 4.550341e-06 1.793424e-06 5.109094e-06
3.201843e-06 -7.848250e-07 7.638941e-07 2.523077e-06 -1.182825e-06 -3.281523e-07
2.054388e-06 3.704447e-07 -1.186576e-07 3.004423e-06 2.129881e-07 -1.598789e-07
3.271697e-07 1.288200e-07 -1.789293e-07 8.243995e-08 2.231594e-08 2.682900e-08
4.080588e-07 9.892469e-08 -2.521141e-07 1.601327e-07 3.805790e-08 5.929159e-08
1.800544e-06 -3.376355e-07 1.508626e-07 1.165098e-06 -3.195717e-07 -3.720825e-07
-1.910633e-05 -1.485797e-05 8.758584e-05 -1.758616e-06 1.862570e-05 3.560646e-05
-2.790852e-05 -3.338917e-05 2.036908e-04 -4.248711e-07 5.333704e-06 -1.065335e-05
3.039425e-07 1.958441e-07 -2.605832e-07 1.567822e-07 4.900509e-08 5.108718e-08
3.441597e-07 2.325450e-07 -2.562670e-07 2.026184e-07 6.331019e-08 6.432172e-08
-2.839899e-05 -2.433694e-05 9.436427e-05 1.167547e-06 -1.523696e-06 -1.072311e-05
3.621420e-07 1.002350e-07 -2.408037e-07 -1.246838e-07 -5.726303e-08 8.247291e-08
2.561320e-06 -5.984496e-06 1.313750e-05 -4.045322e-06 -7.822655e-07 4.565309e-06
4.629590e-06 -5.509549e-06 6.969869e-06 -2.904279e-06 -1.043754e-06 1.298969e-06
2.422576e-06 -1.933694e-06 1.584338e-06 -1.949801e-06 -2.188606e-06 7.951450e-07
4.026077e-07 1.561152e-07 -2.751090e-07 2.476328e-07 1.372835e-07 1.643746e-07
-4.601491e-07 1.065332e-06 -1.999857e-07 -2.592140e-07 1.213029e-06 -3.807799e-07
1.958402e-07 3.757497e-08 -2.740874e-07 -1.131626e-06 -9.204146e-07 8.063639e-07
-2.457224e-07 -9.603495e-07 8.418173e-07 -9.908227e-07 -9.490692e-07 9.320848e-07
-5.910216e-07 1.072504e-06 8.287987e-08 -9.333687e-07 -1.399781e-06 8.428133e-07
-2.157575e-07 -8.467655e-08 -9.462126e-08 -7.579753e-08 -1.140002e-06 1.164769e-06
-1.308332e-07 1.444927e-06 -7.282056e-07 7.881989e-07 -7.107084e-07 -1.713206e-07
5.794540e-07 5.734250e-07 -6.366753e-07 1.182304e-06 -6.441844e-07 -4.628832e-07
-4.274149e-07 1.401327e-06 -6.549778e-07 -3.321662e-07 6.109726e-07 -4.280834e-08
-2.411894e-07 1.265412e-06 -7.124934e-07 -4.748286e-07 5.132676e-07 -2.026951e-07
-8.208467e-08 1.377441e-06 -7.087014e-07 1.382408e-06 -8.550670e-07 -5.535395e-07
-2.602987e-06 1.372305e-06 5.777749e-06 3.764412e-06 -1.661178e-06 -4.586264e-08
4.155116e-06 -8.167714e-06 1.328898e-05 3.924471e-06 -2.450842e-06 -5.142223e-06
-8.767849e-07 5.169996e-07 3.765441e-06 -5.090781e-06 1.060877e-06 3.067507e-07
-3.678491e-07 1.666258e-07 -7.820825e-08 -6.809189e-08 -1.230275e-06 3.113912e-07
-4.959702e-07 2.027881e-06 -6.783105e-07 -5.438415e-07 -9.041919e-07 2.558416e-07
-1.573057e-07 8.448557e-07 -4.194017e-07 -6.903333e-07 -9.948252e-07 4.768827e-07
5.583303e-07 -5.503237e-08 -2.444839e-07 -1.031417e-07 -3.828703e-08 1.112631e-07
6.630205e-07 -7.494914e-08 -2.560332e-07 -1.238940e-07 -2.181184e-08 9.721531e-08
-5.141189e-07 8.880684e-07 -1.385416e-07 6.049887e-07 -1.510653e-06 -4.919818e-07
2.170638e-07 -8.230152e-08 -2.355713e-07 -1.218185e-07 -3.759613e-07 6.402237e-07
2.983733e-07 -4.986150e-08 -2.903803e-07 -1.742164e-07 -2.953447e-07 4.620507e-07
8.823035e-07 3.326628e-07 -6.205820e-07 -8.321379e-07 -3.096084e-07 4.115823e-07
9.413340e-07 -2.705444e-07 -3.585027e-07 -4.267485e-07 -2.583168e-07 6.495583e-07
3.511924e-08 6.583609e-08 -2.599849e-07 2.165789e-07 4.628646e-07 5.194707e-07
1.016433e-06 2.575919e-07 -4.764380e-07 -1.198207e-06 -7.660393e-07 1.110535e-06
3.322389e-07 7.177293e-07 -6.475200e-07 8.037663e-07 4.227701e-07 3.716827e-07
5.299979e-07 4.940400e-07 -6.487049e-07 9.458802e-07 3.935814e-07 3.565100e-07
3.030236e-07 2.056166e-07 -2.027848e-07 2.177876e-07 1.690078e-07 1.617659e-07
-4.734052e-07 -1.752827e-07 1.185362e-06 1.474736e-07 6.251211e-07 -6.263007e-07
9.668246e-08 1.386664e-07 -2.249624e-07 1.878902e-07 3.811168e-07 3.461645e-07
-3.724244e-07 1.613640e-07 9.335542e-07 -1.191958e-07 -1.003440e-06 6.496397e-08
-5.473259e-07 -2.136461e-07 1.914254e-06 -5.358177e-08 1.299783e-06 2.512176e-07
2.950171e-07 6.850722e-07 -6.570152e-07 8.215307e-07 4.140530e-07 4.322614e-07
4.840483e-07 4.335443e-07 -7.250842e-07 8.144082e-07 4.619454e-07 5.379959e-07
-2.690430e-06 1.610673e-06 2.005528e-06 -2.557527e-06 -7.478876e-07 1.304553e-06
2.950171e-07 5.752643e-07 -5.369288e-07 6.937283e-07 3.943591e-07 2.737389e-07
3.504204e-07 1.109395e-06 -4.566142e-07 -2.181676e-06 -8.338058e-07 7.873268e-07
3.804515e-07 3.977841e-07 -1.987027e-07 7.167323e-07 7.716671e-07 7.652004e-07
-2.123503e-07 -5.535749e-08 -2.547538e-07 -4.268114e-08 -7.576626e-07 5.519127e-07
-1.408774e-07 9.504582e-07 -6.230166e-08 1.067007e-06 8.276093e-07 6.260729e-07
-3.017071e-07 2.315844e-06 -5.670077e-07 1.754351e-06 1.009426e-06 4.723616e-07
4.486320e-07 1.087135e-07 -2.816509e-07 -1.884134e-07 -1.041573e-07 1.013777e-07
4.050729e-06 -1.521315e-06 -1.913756e-07 1.178067e-07 2.533657e-08 1.018279e-06
2.805900e-06 -1.517105e-06 3.605744e-06 1.164323e-06 -6.438154e-07 -2.969370e-08
4.200646e-06 -2.595195e-06 1.834521e-06 1.698123e-06 -1.234490e-06 4.123213e-07
-9.402906e-08 -6.780454e-07 2.570801e-06 3.325378e-08 -5.027443e-07 1.337102e-07
9.382118e-07 -3.718052e-07 -3.324690e-07 9.483093e-07 5.880712e-07 1.047032e-06
-1.464730e-07 4.103505e-08 -2.827697e-07 -1.180263e-07 7.235582e-07 -3.989506e-07
1.375424e-07 -4.600392e-07 1.042664e-06 4.250709e-07 -1.295309e-07 1.983435e-06
3.782666e-06 -2.489803e-06 3.061744e-06 3.367053e-06 9.396289e-08 6.236416e-07
-1.303577e-05 -5.811483e-06 3.065550e-05 5.788155e-06 -8.042386e-06 -6.107382e-06
-1.287239e-05 6.095781e-06 1.856473e-05 2.983980e-06 -1.475496e-05 -8.039478e-06
-3.652432e-06 9.050105e-07 1.412188e-05 5.150590e-06 -5.073006e-06 -9.680515e-07
3.140365e-07 1.509528e-07 -1.591628e-07 1.012213e-07 3.900145e-08 3.900043e-08
-2.767560e-06 -9.124473e-07 1.332985e-05 1.252508e-06 -5.631943e-06 -1.218067e-05
3.245356e-07 1.533102e-07 -2.098197e-07 1.173200e-07 3.565065e-08 4.296930e-08
2.464854e-06 -1.495056e-06 -1.180779e-07 -2.109852e-07 -6.285013e-08 8.492828e-07
1.772551e-07 3.371842e-07 -2.131284e-07 2.361971e-07 2.255301e-07 1.662398e-07
1.569316e-07 2.214063e-07 -1.969574e-07 1.338190e-07 1.271006e-07 1.095740e-07
3.065505e-07 1.840318e-07 -1.840726e-07 1.308937e-07 5.550240e-08 6.072456e-08
1.688400e-07 3.447530e-07 -3.148247e-07 2.434765e-07 2.106547e-07 1.966209e-07
2.950398e-06 -9.284702e-07 -6.839710e-07 2.992387e-07 7.530718e-08 9.906030e-07
4.552103e-08 2.045650e-07 -2.356326e-07 1.674704e-07 2.810481e-07 2.260216e-07
-1.466279e-06 -2.500178e-07 5.409434e-06 2.658851e-06 1.173783e-05 1.151360e-05
-5.190046e-07 -1.113012e-07 1.313634e-06 -8.632494e-07 6.155023e-07 -1.285759e-07
-1.027286e-06 2.574534e-06 3.023292e-06 2.620963e-06 5.854199e-07 4.796016e-07
8.773058e-07 7.347949e-08 5.388106e-07 -2.087637e-06 7.755537e-07 -5.870528e-07
-6.182725e-06 3.204602e-06 1.020217e-05 -3.345721e-06 -5.336704e-06 -4.692025e-07
1.138650e-06 1.405981e-06 -2.562257e-07 -3.240252e-06 5.911545e-07 -7.650955e-07
4.766926e-07 2.854422e-07 -5.182691e-08 -6.273539e-07 9.626951e-07 -8.338382e-07
-4.080592e-07 -4.464150e-09 2.060972e-07 1.573651e-07 1.419239e-06 -6.933049e-07
-3.921773e-07 -1.579893e-07 5.647898e-07 1.895716e-07 6.056136e-07 -7.417457e-07
5.986443e-08 -1.126839e-06 2.059760e-07 -9.267936e-08 5.154186e-07 -6.675477e-07
1.255493e-06 5.446196e-07 3.326869e-06 2.151137e-06 2.737143e-06 4.339490e-06
-5.607204e-07 1.910371e-07 4.126533e-07 -1.784956e-07 -3.720159e-07 -5.800343e-07
-1.031684e-06 1.813724e-06 -4.774246e-08 5.640271e-07 -7.858448e-07 3.059172e-08
-3.968526e-07 -2.061696e-07 5.278402e-06 -3.916056e-07 -3.167438e-06 -3.583599e-07
-7.359974e-07 1.268401e-06 -2.943813e-07 -8.132581e-08 -1.391503e-06 -3.173637e-09
-7.649273e-06 3.292585e-06 1.561921e-05 -4.099313e-06 -8.307792e-06 2.933580e-06
-4.792356e-07 2.178240e-06 -6.549421e-07 2.053230e-06 -1.147530e-06 -2.831859e-07
-6.711642e-06 5.793319e-06 8.190009e-06 3.208608e-07 -7.542396e-06 -2.297832e-06
-8.605556e-08 2.358770e-06 1.644229e-06 4.115644e-07 7.947130e-07 4.154198e-07
-5.388840e-07 2.112870e-06 -1.685061e-07 2.587647e-06 -8.333095e-07 -7.045264e-07
4.402917e-07 2.105168e-06 -1.840201e-07 2.671682e-06 -8.449212e-07 -6.392776e-07
4.845039e-07 4.364993e-09 -2.004774e-07 -1.152840e-07 -4.110510e-08 8.854314e-08
-9.723484e-06 3.985894e-06 1.706938e-05 -5.483635e-07 -7.624450e-06 -8.025261e-07
3.860499e-07 6.643681e-08 -2.034611e-07 -8.899167e-08 -2.970172e-08 4.776186e-08
4.143767e-07 3.137858e-08 -1.764899e-07 -7.865738e-08 -3.922609e-08 5.031680e-08
3.066069e-07 9.824753e-08 -1.915909e-07 -1.054210e-07 -7.886591e-08 9.284624e-08
4.057288e-07 6.395203e-08 -1.802493e-07 -8.015464e-08 -1.766747e-08 4.786027e-08
4.116712e-07 9.238166e-08 -2.462484e-07 -1.332423e-07 -5.477823e-08 7.447854e-08
3.556556e-07 4.248977e-08 -2.009369e-07 -1.101860e-07 -7.942606e-08 1.110943e-07
3.683626e-07 7.013729e-08 -1.800974e-07 -8.676687e-08 -4.035544e-08 5.584831e-08
4.215718e-07 9.380857e-08 -2.072853e-07 -1.223518e-07 -3.530687e-08 4.953968e-08
4.049981e-07 6.395203e-08 -2.147160e-07 -8.266186e-08 -1.969487e-08 2.625286e-08
3.988095e-07 9.250597e-08 -2.090840e-07 -1.301368e-07 -3.711192e-08 4.283800e-08
4.405295e-07 3.856949e-08 -2.295975e-07 -1.403559e-07 -5.120055e-08 7.565470e-08
4.808683e-07 -1.557732e-08 -1.987714e-07 -1.254175e-07 -3.714322e-08 7.898381e-08
3.560743e-07 8.933229e-08 -2.028618e-07 -1.007705e-07 -7.313836e-08 1.046703e-07
1.992871e-07 9.028155e-08 -2.487611e-07 5.393898e-07 -8.453907e-07 -8.402617e-07
1.450918e-08 6.673826e-08 -1.424665e-07 6.058679e-07 -8.439613e-07 -8.266330e-07
-2.195996e-07 2.161965e-07 1.624199e-07 5.269800e-07 -1.238437e-06 -1.069004e-06
-1.734085e-09 -2.901440e-07 -1.067826e-07 2.216486e-07 -8.494708e-07 -7.253754e-07
-2.294547e-08 -1.353697e-07 -2.374745e-08 6.543739e-08 -1.008823e-06 -6.849356e-07
-1.324686e-07 -2.184268e-07 1.405450e-07 -4.064227e-08 -1.071540e-06 -8.391618e-07
1.614670e-07 1.730108e-07 -3.555831e-07 5.186188e-07 -1.009387e-06 -9.354230e-07
1.968480e-08 1.274439e-07 -2.765167e-07 6.235989e-07 -9.972110e-07 -8.727080e-07
6.613687e-08 5.333034e-07 -4.683565e-07 8.480409e-07 -8.677502e-07 -6.665553e-07
1.354314e-07 1.271777e-07 -3.722691e-07 4.842442e-07 -9.606599e-07 -7.043242e-07
1.469970e-07 4.826472e-07 -3.675710e-07 4.056664e-07 -9.192549e-07 -7.143281e-07
1.571188e-07 8.167997e-07 -5.097335e-07 6.337199e-07 -9.174922e-07 -5.692885e-07
1.097799e-08 -2.779135e-07 -7.260421e-08 2.117358e-07 -8.681632e-07 -6.167468e-07
1.288280e-07 -1.013202e-07 -2.921295e-07 3.588716e-07 -9.460410e-07 -7.163304e-07
3.772673e-07 -2.989001e-07 -2.229595e-07 4.333228e-07 -8.616376e-07 -9.187055e-07
-1.175224e-07 -2.461411e-08 -2.917611e-07 3.379465e-08 -8.369557e-07 -5.914227e-07
-2.408365e-07 -1.342486e-07 -1.692267e-07 -2.046817e-08 -8.609022e-07 -6.672677e-07
4.036287e-08 4.854178e-08 -2.513809e-07 2.146067e-07 -9.053936e-07 -6.801754e-07
-9.864054e-08 -2.950314e-08 -2.633613e-07 2.859769e-08 -8.078803e-07 -6.306109e-07
-2.208940e-07 -2.950314e-08 -1.833878e-07 -6.626272e-08 -9.019235e-07 -6.508769e-07
-6.648137e-08 -1.869891e-07 -1.834569e-07 1.659044e-08 -8.857103e-07 -6.772064e-07
4.991129e-08 -1.110463e-07 -7.936462e-08 1.248987e-07 -9.842153e-07 -8.477182e-07
-1.275631e-07 2.850391e-08 -2.965511e-07 1.524617e-07 -8.615204e-07 -5.796405e-07
5.687005e-07 -1.211316e-07 -2.068385e-07 7.112356e-08 1.936092e-08 1.522348e-07
5.589334e-07 -1.126916e-07 -2.091224e-07 6.790296e-08 1.921459e-08 1.472765e-07
5.393531e-07 -1.192927e-07 -1.855470e-07 5.033809e-08 2.231598e-08 1.294554e-07
5.708648e-07 -1.022205e-07 -2.176891e-07 7.334860e-08 2.436316e-08 1.428478e-07
5.813447e-07 -1.135680e-07 -2.119564e-07 7.507014e-08 3.123217e-08 1.521129e-07
5.905207e-07 -9.693864e-08 -2.107875e-07 9.076321e-08 1.805657e-08 1.324524e-07
5.245784e-07 -1.118191e-07 -2.037347e-07 8.957525e-08 4.482631e-08 1.690738e-07
5.239482e-07 -1.097546e-07 -2.173542e-07 8.978675e-08 4.710879e-08 1.725516e-07
5.704225e-07 -1.179485e-07 -2.153910e-07 7.497913e-08 5.412642e-08 1.610690e-07
5.022222e-07 -1.051610e-07 -1.755594e-07 7.496177e-08 3.669230e-08 1.320760e-07
5.028720e-07 -8.291203e-08 -1.764120e-07 7.934974e-08 3.214085e-08 1.305582e-07
5.067504e-07 -8.350127e-08 -1.943104e-07 7.533320e-08 3.876039e-08 1.336689e-07
5.700774e-07 -1.186500e-07 -2.237046e-07 7.615742e-08 3.575578e-08 1.641316e-07
5.803351e-07 -1.176667e-07 -2.181485e-07 7.297656e-08 3.822988e-08 1.562739e-07
5.685817e-07 -1.089947e-07 -2.236767e-07 6.941259e-08 3.175130e-08 1.472297e-07
5.768057e-07 -1.165585e-07 -1.998720e-07 8.005594e-08 4.040380e-08 1.491401e-07
5.609673e-07 -9.868254e-08 -1.914600e-07 1.213251e-07 2.127719e-08 1.415790e-07
5.610295e-07 -8.094118e-08 -2.063629e-07 1.170338e-07 2.652412e-08 1.443169e-07
5.812856e-07 -1.374452e-07 -2.153034e-07 8.710486e-08 4.007603e-08 1.948896e-07
5.840867e-07 -1.300994e-07 -2.271581e-07 9.313116e-08 4.103541e-08 2.007432e-07
6.288245e-07 -1.302444e-07 -2.377543e-07 1.011808e-07 4.990015e-08 2.197190e-07
5.619325e-07 -1.460901e-07 -3.012602e-07 7.729584e-08 3.266151e-08 2.767747e-07
5.482995e-07 -1.305195e-07 -2.606470e-07 7.465385e-08 6.005071e-08 2.618059e-07
5.260508e-07 -1.478135e-07 -2.128194e-07 5.329747e-08 5.032953e-08 2.349754e-07
5.658086e-07 -1.392095e-07 -2.194372e-07 7.377030e-08 3.713883e-08 2.071139e-07
5.603120e-07 -1.491229e-07 -2.087334e-07 6.407061e-08 4.417146e-08 2.219119e-07
6.172181e-07 -1.366039e-07 -2.344487e-07 9.127114e-08 4.598222e-08 2.182974e-07
5.185264e-07 -1.333751e-07 -2.166361e-07 5.201647e-08 2.883713e-08 2.040529e-07
5.352507e-07 -1.387853e-07 -2.171419e-07 4.093032e-08 4.944250e-08 1.868443e-07
5.218323e-07 -1.476569e-07 -2.193747e-07 5.201253e-08 4.091958e-08 1.990825e-07
4.876246e-07 -1.331069e-07 -2.040524e-07 7.553149e-08 7.206250e-08 2.920327e-07
5.112231e-07 -1.338464e-07 -2.376401e-07 9.165519e-08 8.278331e-08 2.720734e-07
5.590770e-07 -1.495587e-07 -2.407581e-07 8.240717e-08 9.626028e-08 2.587946e-07
5.555262e-07 -1.121197e-07 -1.848625e-07 8.973410e-08 4.308571e-08 1.999664e-07
5.534921e-07 -1.097297e-07 -2.134506e-07 9.081138e-08 4.810765e-08 1.922992e-07
6.401187e-07 -1.330934e-07 -2.211222e-07 9.002115e-08 6.314877e-08 2.060107e-07
5.621039e-07 -1.253492e-07 -2.103674e-07 7.924583e-08 2.054388e-08 1.865132e-07
5.903879e-07 -1.271827e-07 -2.014801e-07 8.235503e-08 2.261764e-08 1.635816e-07
5.816683e-07 -1.129694e-07 -2.023338e-07 8.578579e-08 2.637351e-08 1.602897e-07
5.804962e-07 -1.346480e-07 -2.181737e-07 6.772722e-08 3.992175e-08 1.762423e-07
6.004731e-07 -1.307434e-07 -2.188284e-07 7.723562e-08 3.314172e-08 1.632208e-07
5.795266e-07 -1.312321e-07 -2.343108e-07 7.246419e-08 3.619726e-08 1.834168e-07
5.029805e-07 -1.129831e-07 -2.283167e-07 8.379358e-08 5.841990e-08 2.593466e-07
4.983392e-07 -1.327852e-07 -2.045896e-07 7.753019e-08 5.997721e-08 2.400049e-07
5.258317e-07 -1.141214e-07 -1.827059e-07 1.018209e-07 3.746356e-08 2.060412e-07
5.308992e-07 -1.328491e-07 -2.339219e-07 8.108458e-08 7.012525e-08 2.548977e-07
4.920203e-07 -1.215769e-07 -2.149911e-07 8.273471e-08 5.458980e-08 2.481562e-07
4.945441e-07 -1.123350e-07 -2.162908e-07 9.373764e-08 5.427235e-08 2.440552e-07
5.604011e-07 -1.310046e-07 -2.194914e-07 9.071203e-08 6.268218e-08 2.340420e-07
5.033949e-07 -1.199138e-07 -2.191450e-07 9.123340e-08 5.329778e-08 2.544119e-07
6.132394e-07 -1.799088e-07 -2.445751e-07 1.178637e-07 5.643980e-08 3.327907e-07
6.804455e-07 -1.877742e-07 -2.739397e-07 9.514564e-08 7.184803e-08 3.877303e-07
7.064420e-07 -1.777240e-07 -2.681787e-07 1.242926e-07 6.117504e-08 3.387154e-07
5.379955e-07 -1.387063e-07 -1.916185e-07 9.833911e-08 8.111740e-08 3.174343e-07
5.557898e-07 -1.421064e-07 -2.239832e-07 1.128046e-07 9.355337e-08 2.967894e-07
5.703367e-07 -1.511961e-07 -2.284975e-07 9.964244e-08 1.000535e-07 3.083243e-07
5.717380e-07 -1.775197e-07 -2.412060e-07 9.126520e-08 4.626670e-08 3.299124e-07
6.098205e-07 -1.715155e-07 -2.447741e-07 1.079353e-07 4.584420e-08 3.341710e-07
5.978565e-07 -1.678835e-07 -2.369652e-07 9.389750e-08 5.143401e-08 3.053140e-07
4.321481e-07 -1.600427e-07 -2.086357e-07 8.718431e-08 8.586820e-08 3.659925e-07
4.322651e-07 -1.353943e-07 -2.093425e-07 8.900656e-08 8.999333e-08 3.664547e-07
4.239486e-07 -1.454293e-07 -2.318439e-07 1.005800e-07 1.073841e-07 3.525964e-07
5.181550e-07 -1.751996e-07 -2.355853e-07 4.786656e-08 3.698276e-08 3.383926e-07
5.202239e-07 -1.645080e-07 -2.422743e-07 4.316320e-08 5.873787e-08 3.287229e-07
5.192189e-07 -1.840672e-07 -2.420727e-07 3.792316e-08 5.878372e-08 3.284514e-07
5.871378e-07 -1.839989e-07 -2.369419e-07 6.833596e-08 4.846717e-08 3.515457e-07
5.813940e-07 -1.881993e-07 -2.167313e-07 6.336193e-08 6.857444e-08 3.712286e-07
6.820981e-07 -1.778232e-07 -2.717629e-07 9.934535e-08 6.056171e-08 3.818389e-07
5.868702e-07 -1.758003e-07 -2.764816e-07 1.302149e-07 7.626058e-08 4.292563e-07
6.781011e-07 -1.642786e-07 -2.910340e-07 1.400654e-07 7.135236e-08 3.870076e-07
6.315532e-07 -1.624572e-07 -2.689332e-07 1.728351e-07 6.125646e-08 3.521298e-07
6.380973e-07 -1.760873e-07 -2.492659e-07 1.272417e-07 7.794663e-08 3.915421e-07
5.259760e-07 -1.707029e-07 -2.378989e-07 1.485135e-07 6.373803e-08 4.069990e-07
5.464608e-07 -1.600646e-07 -2.897253e-07 1.301595e-07 7.827697e-08 4.102282e-07
4.631288e-07 -1.836561e-07 -2.040498e-07 3.725014e-08 8.321202e-08 3.832878e-07
5.195101e-07 -1.654929e-07 -2.770042e-07 8.070158e-08 8.287327e-08 4.413883e-07
5.621347e-07 -2.115143e-07 -3.009990e-07 7.233390e-08 4.961572e-08 4.340317e-07
5.622889e-07 -1.791672e-07 -2.769789e-07 9.461138e-08 1.039444e-07 4.394936e-07
4.848897e-07 -1.725733e-07 -2.663195e-07 1.193045e-07 9.088842e-08 4.414006e-07
4.516698e-07 -1.806534e-07 -2.090545e-07 9.332380e-08 8.450350e-08 4.768648e-07
5.265418e-07 -1.875811e-07 -2.410452e-07 1.208552e-07 1.091321e-07 4.801808e-07
6.446041e-07 -1.752387e-07 -2.709601e-07 1.603132e-07 1.135133e-07 4.782391e-07
6.431164e-07 -2.102519e-07 -3.004137e-07 1.528172e-07 1.458772e-07 4.849355e-07
7.030152e-07 -1.991614e-07 -2.954146e-07 1.831719e-07 8.761707e-08 4.860381e-07
8.010518e-07 -2.070425e-07 -3.690440e-07 1.820820e-07 1.245164e-07 5.897998e-07
8.304682e-07 -1.999070e-07 -3.762724e-07 2.318514e-07 1.298785e-07 5.673933e-07
6.729903e-07 -2.596979e-07 -2.289665e-07 1.679015e-07 1.275421e-07 6.402643e-07
5.223932e-07 -2.328444e-07 -2.293457e-07 1.913578e-07 1.224479e-07 6.509873e-07
5.884096e-07 -2.916457e-07 -2.530147e-07 1.415892e-07 1.642399e-07 7.119040e-07
7.282985e-07 -2.666248e-07 -2.932573e-07 1.409461e-07 9.433197e-08 4.781528e-07
7.483052e-07 -2.641853e-07 -3.205656e-07 1.657554e-07 8.925385e-08 5.203138e-07
8.085574e-07 -2.756519e-07 -3.640735e-07 1.536417e-07 1.141337e-07 5.742612e-07
6.746633e-07 -2.069867e-07 -3.726652e-07 1.883722e-07 1.243961e-07 6.331847e-07
6.803587e-07 -2.417824e-07 -3.724319e-07 1.892323e-07 1.146928e-07 6.375236e-07
7.701000e-07 -2.181013e-07 -3.871203e-07 2.655109e-07 1.158035e-07 5.931547e-07
7.464931e-07 -2.540682e-07 -3.273777e-07 1.938716e-07 1.094336e-07 6.418939e-07
7.923658e-07 -2.837809e-07 -3.797557e-07 1.864534e-07 1.347946e-07 6.549093e-07
7.465334e-07 -2.786633e-07 -3.772504e-07 1.950024e-07 1.445333e-07 6.401382e-07
7.536308e-07 -2.699250e-07 -3.256998e-07 1.930587e-07 1.075183e-07 6.380933e-07
8.451918e-07 -3.084882e-07 -3.752310e-07 1.392929e-07 1.332903e-07 5.835213e-07
8.519084e-07 -2.783681e-07 -3.205545e-07 1.728470e-07 9.098391e-08 5.243270e-07
7.302305e-07 -2.264704e-07 -2.923044e-07 1.685821e-07 6.710849e-08 6.483828e-07
7.793029e-07 -2.555846e-07 -2.908705e-07 6.804189e-08 5.807133e-08 5.761891e-07
7.941658e-07 -2.441884e-07 -2.862798e-07 8.688612e-08 7.955060e-08 5.875205e-07
5.768469e-07 -1.887963e-07 -2.476986e-07 1.236490e-07 1.051696e-07 5.081472e-07
6.961531e-07 -2.203844e-07 -3.004446e-07 1.663127e-07 1.477623e-07 4.776594e-07
6.270745e-07 -2.421940e-07 -2.755756e-07 1.079762e-07 1.440370e-07 5.147901e-07
3.252558e-07 -1.768613e-07 -1.982655e-07 7.459128e-08 1.676457e-07 6.055439e-07
3.290481e-07 -1.791775e-07 -1.891383e-07 9.329920e-08 1.512275e-07 5.987247e-07
3.794958e-07 -2.485099e-07 -2.215411e-07 5.207987e-08 2.012302e-07 6.450132e-07
5.594927e-07 -2.337755e-07 -2.254864e-07 5.384165e-08 1.155824e-07 7.282984e-07
3.621277e-07 -2.111613e-07 -2.264089e-07 8.785344e-08 1.116604e-07 7.423570e-07
3.485833e-07 -2.211760e-07 -1.700203e-07 7.484163e-08 1.093950e-07 7.532438e-07
4.129238e-07 -2.360933e-07 -1.870674e-07 5.046731e-08 1.355861e-07 6.955195e-07
3.884500e-07 -2.371808e-07 -2.194018e-07 5.833866e-08 1.216215e-07 7.274803e-07
4.363729e-07 -2.002979e-07 -2.282454e-07 1.885572e-07 1.146246e-07 7.674969e-07
4.597026e-07 -2.520667e-07 -2.696395e-07 3.292784e-08 4.323798e-08 5.578624e-07
4.535345e-07 -1.933707e-07 -2.825721e-07 2.729270e-08 7.501167e-08 5.405936e-07
4.579651e-07 -2.347259e-07 -2.828430e-07 4.000840e-08 5.973331e-08 5.385967e-07
6.770795e-07 -2.252053e-07 -2.673880e-07 1.062109e-07 6.113619e-08 4.983034e-07
6.027133e-07 -2.165305e-07 -2.706869e-07 1.146995e-07 6.376307e-08 4.918820e-07
6.354019e-07 -2.313148e-07 -2.791899e-07 1.416423e-07 5.109975e-08 5.288045e-07
7.340024e-07 -3.296294e-07 -2.298580e-07 1.623983e-07 1.042274e-07 7.454604e-07
6.988625e-07 -3.459486e-07 -2.927456e-07 1.204776e-07 7.217441e-08 6.653511e-07
1.015367e-06 -3.432049e-07 -4.136259e-07 1.506687e-07 9.156554e-08 8.150786e-07
3.862293e-07 -2.743550e-07 -1.591896e-07 -7.631838e-09 1.356864e-07 7.761349e-07
5.174893e-07 -2.654225e-07 -2.720217e-07 8.133931e-08 1.125851e-07 9.069840e-07
5.133283e-07 -2.559106e-07 -3.232444e-07 8.061805e-08 7.610415e-08 9.381365e-07
4.353292e-07 -2.460501e-07 -2.273358e-07 2.644627e-07 1.187895e-07 7.657605e-07
8.471916e-07 -2.593653e-07 -3.601887e-07 2.471964e-07 1.613787e-07 8.592403e-07
6.984202e-07 -2.577112e-07 -3.054871e-07 3.560158e-07 1.154017e-07 8.243882e-07
5.041928e-07 -3.358352e-07 -2.002581e-07 7.167394e-08 8.908729e-08 7.339160e-07
5.633853e-07 -3.574830e-07 -2.783978e-07 3.914607e-08 5.916394e-08 6.863608e-07
4.998235e-07 -3.361662e-07 -2.257421e-07 6.942870e-08 9.302234e-08 7.453994e-07
3.211912e-07 -2.419414e-07 -2.345621e-07 1.141554e-07 1.281697e-07 7.000848e-07
2.836630e-07 -2.170303e-07 -2.380327e-07 1.039763e-07 1.433695e-07 7.157156e-07
2.920283e-07 -2.268761e-07 -2.122099e-07 1.039641e-07 1.263512e-07 6.941982e-07
2.919216e-07 -2.097320e-07 -2.410060e-07 1.090630e-07 1.128144e-07 6.821666e-07
3.089755e-07 -2.593049e-07 -2.190954e-07 8.496089e-08 1.553098e-07 6.935994e-07
3.153576e-07 -2.302529e-07 -2.200544e-07 1.181046e-07 1.134451e-07 6.897273e-07
2.573065e-07 -2.195702e-07 -2.266398e-07 9.029988e-08 1.246529e-07 6.989607e-07
3.224928e-07 -2.476817e-07 -2.611845e-07 9.853292e-08 1.577035e-07 7.063559e-07
5.128565e-07 -3.019235e-07 -3.189932e-07 7.573182e-08 1.514204e-07 9.436834e-07
4.020690e-07 -3.104039e-07 -2.726155e-07 1.312239e-07 1.125235e-07 9.600487e-07
2.644132e-07 -3.437947e-07 -9.964845e-08 2.359850e-08 1.023039e-07 1.119063e-06
3.656971e-07 -2.851842e-07 -2.217554e-07 8.592268e-10 8.386390e-08 8.135621e-07
3.555009e-07 -2.696046e-07 -2.392887e-07 -3.657107e-08 5.378065e-08 7.988231e-07
3.760951e-07 -3.051319e-07 -2.577942e-07 -5.180264e-08 2.459453e-08 7.741278e-07
5.867394e-07 -2.818517e-07 -2.670379e-07 3.204910e-08 1.047919e-07 8.502559e-07
9.026925e-07 -2.971715e-07 -3.766416e-07 1.012124e-07 4.493177e-08 8.239390e-07
5.590189e-07 -3.260976e-07 -2.842639e-07 -8.241531e-09 5.825110e-08 7.910068e-07
3.817070e-07 -5.234988e-07 7.221721e-08 1.429840e-07 1.513849e-07 1.211393e-06
3.905681e-07 -5.813957e-07 4.452040e-08 5.444909e-08 1.088924e-07 1.168851e-06
2.580474e-07 -5.838787e-07 3.511895e-08 7.416231e-08 1.149120e-07 1.109901e-06
1.382717e-07 -4.323648e-07 6.678078e-08 1.272375e-08 1.769383e-07 1.101290e-06
8.968904e-08 -3.370758e-07 1.423546e-07 4.607028e-08 2.776148e-07 1.093447e-06
8.805211e-08 -3.447373e-07 1.324972e-07 3.755872e-08 2.439615e-07 1.088904e-06
5.875038e-07 -4.311197e-07 -1.642007e-07 4.921612e-08 1.607335e-07 1.149899e-06
6.127334e-07 -3.635020e-07 -1.751313e-07 9.450694e-08 1.626199e-07 1.158652e-06
9.103298e-07 -3.257259e-07 -3.080053e-07 2.201298e-07 1.693922e-07 1.054241e-06
8.148935e-07 -3.256537e-07 -3.378095e-07 1.377472e-07 4.112311e-08 9.990119e-07
7.845978e-07 -3.851769e-07 -2.677165e-07 2.094810e-07 7.439061e-08 1.029489e-06
7.955806e-07 -3.004567e-07 -3.121047e-07 4.205791e-07 9.922979e-08 1.254511e-06
8.710635e-08 -2.735218e-07 -4.055951e-08 1.579265e-08 1.480150e-07 9.397037e-07
2.250642e-07 -2.668125e-07 1.047412e-07 1.082760e-07 1.902342e-07 1.151744e-06
4.470607e-07 -3.017792e-07 6.717003e-08 6.013294e-09 1.434594e-07 1.129080e-06
4.144212e-07 -3.939527e-07 7.816373e-08 1.410937e-07 2.312665e-08 1.138729e-06
3.307093e-07 -4.067717e-07 3.474857e-08 1.883788e-07 5.928700e-08 1.078245e-06
4.534566e-08 -4.152402e-07 1.431089e-07 -1.286326e-08 4.095735e-08 1.458564e-06
3.958950e-07 -3.798648e-07 -2.500555e-07 -4.180621e-08 5.942707e-08 1.189040e-06
4.131686e-07 -2.778129e-07 -2.309204e-07 3.018327e-08 1.130881e-07 1.244338e-06
3.335967e-07 -2.791296e-07 -3.125864e-07 1.198371e-07 9.294938e-08 1.447779e-06
7.242969e-07 -5.111514e-07 -1.217132e-07 2.145940e-07 1.493810e-07 1.318623e-06
9.314772e-07 -5.247030e-07 -3.377305e-07 1.735301e-07 9.075044e-08 1.029229e-06
1.077614e-06 -5.603012e-07 -3.250156e-07 2.144848e-07 4.125895e-08 1.211684e-06
2.637544e-07 -6.833001e-07 5.577337e-07 1.318589e-07 1.288679e-07 1.492267e-06
4.268970e-07 -7.627160e-07 4.590662e-07 -4.067008e-08 3.967642e-08 1.326935e-06
-1.663287e-08 -7.692817e-07 4.476980e-07 1.840707e-08 6.269955e-08 1.197921e-06
-1.298990e-07 -4.052015e-07 3.914406e-07 7.079281e-08 -2.732489e-08 1.574597e-06
1.891474e-07 -4.014240e-07 3.632885e-07 2.937401e-07 -2.428563e-08 1.127201e-06
4.774559e-07 -3.838385e-07 4.638805e-07 1.346856e-07 -1.098691e-07 1.298451e-06
9.598337e-07 -6.837819e-07 6.471254e-08 1.968253e-07 8.663692e-08 1.678423e-06
1.251888e-06 -6.868141e-07 -2.945936e-07 8.479473e-08 4.253362e-08 1.167151e-06
1.550267e-06 -7.734946e-07 -4.108952e-07 1.471010e-07 -1.206010e-07 1.540243e-06
8.937263e-07 -4.785412e-07 -2.403810e-07 -5.204400e-08 -2.604638e-08 1.240820e-06
7.885362e-07 -3.004692e-07 -1.925812e-07 -2.013229e-08 6.659524e-08 1.264057e-06
1.369603e-06 -4.012865e-07 -3.578665e-07 1.105058e-07 -6.820535e-08 1.544657e-06
1.099783e-06 -5.353411e-07 -2.339928e-07 1.361140e-07 -8.488256e-09 1.083664e-06
1.507061e-06 -6.443433e-07 -3.864125e-07 1.664147e-07 3.155863e-08 1.478531e-06
1.085437e-06 -6.151179e-07 -4.175371e-07 1.700327e-07 1.529190e-07 1.018326e-06
2.141071e-07 -4.708706e-07 1.188823e-08 -8.714790e-08 -7.576253e-08 1.225883e-06
9.742965e-08 -3.107532e-07 1.973159e-08 8.238541e-09 -1.180167e-07 1.176756e-06
5.007290e-08 -2.725755e-07 1.394439e-08 -1.680772e-07 -5.835505e-08 1.193320e-06
5.105097e-07 -3.529049e-07 3.840227e-07 2.779128e-09 1.605556e-07 1.282794e-06
2.800248e-07 -3.665380e-07 3.076980e-07 1.162746e-07 8.631994e-08 1.416817e-06
-1.294995e-07 -2.794738e-07 3.127203e-07 -1.172222e-07 1.707686e-07 9.081336e-07
-1.141782e-07 -5.363898e-07 4.828265e-07 -5.364139e-08 1.207739e-07 1.287712e-06
-2.426963e-07 -2.867079e-07 7.202709e-07 3.510402e-08 4.290246e-07 1.245924e-06
-2.462019e-07 -4.170012e-07 6.911892e-07 1.114058e-08 3.184540e-07 1.233230e-06
7.355160e-07 -5.363843e-07 -2.942079e-08 -1.033447e-08 9.433815e-08 1.446850e-06
8.686791e-07 -4.496896e-07 -9.506718e-08 9.934623e-08 1.559293e-07 1.500023e-06
1.375564e-06 -4.543341e-07 -2.045658e-07 2.564539e-07 1.917065e-07 1.273116e-06
5.471922e-07 -5.268637e-07 1.593700e-08 8.677523e-08 -6.310848e-08 1.108903e-06
6.943552e-07 -5.785738e-07 -1.744334e-08 -2.285736e-08 -1.946928e-08 1.165248e-06
3.003167e-07 -5.828968e-07 -1.643398e-08 3.606924e-08 -8.951808e-09 1.126208e-06
-6.940618e-08 -4.652092e-07 8.133876e-07 2.465452e-07 5.370074e-07 7.909481e-07
-6.303450e-08 -4.515739e-07 9.940105e-07 2.788607e-07 2.459182e-07 7.519572e-07
-6.290288e-08 -7.588125e-07 1.025024e-06 3.471086e-07 3.597059e-07 7.601278e-07
1.114691e-06 -4.537440e-07 -6.440830e-08 2.242835e-07 1.327071e-07 1.420852e-06
1.548086e-06 -4.667060e-07 -1.557705e-07 4.021767e-07 1.688905e-07 1.090766e-06
1.600995e-06 -7.234080e-07 3.996986e-07 3.209348e-08 6.023473e-08 1.528027e-06
1.466436e-06 -1.129712e-06 -1.324644e-07 1.695077e-07 2.136435e-07 1.106601e-06
1.723320e-06 -1.338518e-06 1.939471e-07 -3.341483e-11 -3.334142e-07 1.495639e-06
1.827552e-06 -1.720486e-06 7.081443e-07 4.361220e-09 3.458821e-08 1.792396e-06
8.591131e-07 -7.007385e-07 2.719930e-07 -5.999808e-08 -3.770316e-08 1.265736e-06
5.236327e-07 -7.812841e-07 1.894013e-07 1.159414e-07 -1.370204e-07 1.438554e-06
6.883177e-07 -9.640231e-07 4.712723e-07 -1.286472e-07 -1.162632e-07 1.092363e-06
1.256050e-06 -6.977307e-07 -4.293863e-08 7.111234e-09 -8.189746e-09 1.108628e-06
1.289616e-06 -9.636465e-07 1.082192e-07 -1.437801e-07 -1.127085e-07 8.979509e-07
1.936272e-06 -9.808344e-07 2.097610e-07 -2.805209e-07 -4.128743e-07 1.554363e-06
1.190986e-06 -1.140845e-06 1.201494e-06 -8.283472e-08 -5.912248e-07 9.505799e-07
2.444837e-06 -1.302366e-06 8.103363e-07 5.563797e-08 -3.255090e-07 9.739623e-07
1.576286e-06 -1.121410e-06 1.152813e-06 -1.648243e-07 -3.730097e-09 1.093030e-06
1.440119e-06 -1.340898e-06 9.764638e-07 -2.652575e-08 -3.778083e-07 8.640481e-07
2.604967e-06 -1.533574e-06 5.688371e-07 -6.281472e-08 -8.913417e-08 1.089143e-06
2.980475e-06 -1.715474e-06 1.059329e-06 -7.215847e-08 1.234198e-07 5.729895e-07
9.186230e-08 -2.197419e-07 4.777509e-07 -7.633063e-08 8.411920e-08 7.702614e-07
3.382294e-07 -7.727738e-07 6.373914e-07 -1.279122e-07 -2.525822e-07 1.041492e-06
1.549136e-06 -9.023414e-07 5.997859e-07 -5.015426e-07 -5.511530e-08 8.346380e-07
1.051493e-06 -2.030385e-07 -4.548068e-08 -2.201428e-07 4.286153e-08 1.542775e-06
1.917363e-06 -7.524939e-07 -5.271336e-08 -3.118399e-07 -3.529103e-07 1.626487e-06
1.124279e-06 -4.422364e-07 -9.708623e-08 -4.300288e-07 -1.617853e-07 1.185081e-06
4.394045e-08 -4.020584e-07 1.993059e-07 -5.121168e-08 -2.385364e-07 1.581060e-06
3.190227e-08 -2.180834e-07 4.564518e-07 -8.449504e-08 7.482761e-08 1.595046e-06
2.264543e-07 -4.722157e-07 3.736851e-07 -2.464071e-07 -1.272656e-07 1.313959e-06
7.031694e-07 -1.132978e-06 7.866249e-07 5.427557e-07 3.910242e-07 9.239418e-07
1.427237e-06 -1.595818e-06 1.056584e-06 7.361794e-07 1.655107e-07 1.208201e-06
1.530075e-06 -1.055846e-06 8.083444e-07 2.899751e-07 2.510829e-07 1.401321e-06
1.069481e-06 -9.822717e-07 1.092002e-06 2.149256e-07 -2.308457e-08 1.353258e-06
1.018049e-06 -1.028429e-06 1.089494e-06 3.282114e-08 2.190497e-08 1.364692e-06
1.897461e-07 -1.057993e-06 1.150487e-06 2.131587e-07 1.336334e-07 1.045533e-06
2.198747e-06 -2.135542e-07 9.723577e-08 -5.311679e-07 1.259014e-07 1.157562e-06
2.222519e-06 -1.477102e-07 3.047139e-07 -4.836091e-07 2.479852e-07 1.259876e-06
2.811767e-06 -4.144737e-07 -7.860748e-08 -8.556400e-07 -8.606708e-08 5.970904e-07
1.548826e-06 -1.155394e-06 1.141616e-06 -1.568211e-08 -1.801234e-07 7.554070e-07
3.314566e-06 -7.714283e-07 1.164874e-06 -8.395396e-07 3.980149e-08 2.692945e-07
3.259950e-06 -8.823522e-07 1.168171e-06 -7.568971e-07 1.745315e-07 1.348389e-07
-8.317061e-08 -2.114280e-07 3.895015e-06 1.288078e-07 -1.510200e-06 -1.975797e-07
-1.829574e-07 -5.572643e-08 3.451507e-06 9.785944e-08 -8.234563e-07 -9.406041e-07
-5.943543e-07 -3.098296e-07 3.732977e-06 -2.797094e-07 -6.515141e-07 -4.411404e-07
1.766529e-07 -2.937326e-07 7.381235e-07 -3.776285e-07 -1.117257e-07 8.751059e-07
2.500774e-07 -4.817025e-07 5.325091e-07 -4.263876e-07 -1.202791e-07 1.031723e-06
4.077839e-08 -4.507393e-07 1.064671e-06 -1.982338e-07 -4.265015e-07 9.476893e-07
3.052337e-08 -2.485617e-07 1.175772e-06 -2.235780e-07 8.766447e-08 1.010008e-06
1.712460e-06 -4.552931e-07 5.626133e-07 -2.251933e-07 -1.656070e-07 7.443368e-07
1.733649e-07 -3.889300e-07 6.240499e-07 -8.811457e-08 -2.761946e-07 9.890435e-07
5.847405e-07 -2.639873e-07 1.194205e-06 -1.475068e-07 2.613098e-07 1.507846e-06
5.968824e-07 -4.697875e-07 7.609041e-07 -4.943294e-07 -5.888958e-08 7.714734e-07
-5.451170e-07 -2.671883e-07 1.991690e-06 -8.268524e-08 9.532861e-08 2.615172e-08
-2.977317e-07 -2.690635e-07 2.937181e-06 7.782113e-08 3.035656e-07 5.498808e-07
-7.960577e-08 -6.161868e-07 5.085430e-06 1.689008e-07 1.386718e-06 -8.910092e-07
2.232857e-06 -1.322821e-06 1.154308e-06 -3.024436e-07 -2.190458e-07 5.289012e-07
3.065429e-06 -2.101677e-06 2.637574e-07 -3.315817e-07 -1.063811e-06 2.855363e-07
2.467583e-06 -1.859572e-06 5.459916e-07 1.241359e-07 -7.905740e-07 9.949115e-07
-1.518895e-07 -6.355744e-07 3.200534e-06 -7.236419e-08 -7.542558e-07 2.929786e-07
-2.160186e-07 -4.035755e-07 2.365286e-06 -5.011573e-08 2.749073e-07 -2.065432e-07
-1.593725e-07 -1.048512e-06 3.379735e-06 1.889870e-07 -1.247162e-07 -4.866009e-07
-1.061187e-08 -1.855861e-06 4.246233e-06 -2.491986e-07 3.663839e-07 -1.223854e-06
-2.490278e-07 -1.546916e-06 2.397752e-06 -3.806232e-07 -5.554955e-07 3.317941e-07
2.467048e-07 -1.940008e-06 3.359019e-06 -1.033741e-06 -5.094472e-07 -8.278913e-07
1.202376e-06 -6.878556e-07 1.567448e-06 -1.528056e-06 3.360960e-07 -1.307577e-06
2.546597e-06 -3.183977e-07 1.780362e-06 -7.185978e-07 6.966754e-07 -7.618375e-07
2.944686e-06 -7.713832e-07 1.805311e-06 -1.111423e-06 3.790682e-07 -6.095484e-07
1.091838e-07 -2.404774e-07 2.014634e-06 3.539812e-07 -3.364547e-07 6.067151e-07
-9.655065e-08 -3.474560e-07 2.767794e-06 -4.300577e-07 6.754346e-07 -7.910065e-08
-2.271175e-07 -9.003627e-07 2.804129e-06 -9.597458e-07 4.654660e-08 -1.493403e-07
4.264805e-07 -1.249579e-06 5.980890e-06 -5.814391e-07 2.735703e-07 -2.531515e-06
1.397489e-06 -1.435605e-06 5.468110e-06 -8.676845e-07 8.772736e-07 -3.031397e-06
8.299801e-07 -1.454695e-06 3.368947e-06 -1.268471e-06 1.437552e-06 -1.878014e-06
-3.264640e-07 -2.840676e-07 3.860249e-06 -8.233097e-07 9.689146e-07 -2.094366e-06
5.150993e-08 -7.974938e-07 4.624689e-06 -7.739278e-07 6.815971e-07 -1.471664e-06
4.954401e-07 -7.086692e-07 6.139208e-06 -1.050322e-06 1.808411e-06 -2.671863e-06
1.170684e-06 -1.534197e-06 4.859667e-06 -3.388981e-07 1.154141e-06 -2.047234e-06
1.503528e-06 -1.987090e-06 3.313622e-06 -9.927134e-07 2.629093e-06 -1.957267e-06
1.513097e-06 -2.363104e-06 3.943569e-06 -6.414752e-07 2.487185e-06 -2.305120e-06
2.546114e-06 -1.827456e-06 2.661270e-06 -1.648857e-06 -4.923541e-07 -1.445022e-06
1.883366e-06 -1.906443e-06 3.142514e-06 -4.611279e-07 -6.685078e-08 -9.832501e-07
2.191896e-06 -1.493120e-06 2.798502e-06 -8.247534e-07 -1.101091e-07 -1.008154e-06
2.014104e-06 -1.911486e-06 4.073230e-06 -1.203393e-06 -2.776281e-07 -6.893895e-07
1.259114e-06 -1.353819e-06 2.586215e-06 -1.535170e-06 -5.541263e-07 -1.671328e-06
2.365336e-06 -1.306095e-06 2.709858e-06 -1.878230e-06 -8.901394e-07 -1.002049e-06
5.271736e-07 -1.945161e-06 3.693450e-06 -7.588325e-07 -3.090272e-08 -1.445147e-06
2.266748e-06 -1.820625e-06 2.580592e-06 -1.618925e-06 -5.014478e-07 -1.680032e-06
1.436430e-06 6.224037e-07 -1.039774e-06 -9.940966e-08 1.019937e-06 -3.920009e-06
1.432053e-06 -3.526969e-07 1.138168e-06 -1.754268e-07 -1.745472e-07 -4.088226e-06
1.239011e-06 -8.305226e-08 -1.466040e-06 -1.562393e-09 1.782944e-07 -4.827960e-06
3.012568e-06 -1.314202e-06 -1.823219e-09 -2.218331e-06 1.254777e-06 -4.553539e-06
2.954292e-06 -1.355232e-06 2.980740e-06 -1.770130e-06 6.238857e-07 -5.495045e-06
3.438564e-06 -1.312413e-06 3.984476e-06 -2.100854e-06 2.051296e-07 -4.790501e-06
3.013441e-09 9.916302e-07 5.338945e-06 -1.734816e-06 5.623182e-06 -1.032353e-05
1.395646e-07 -1.484589e-06 1.981386e-05 -1.057139e-06 8.047733e-07 -1.177620e-05
-3.205183e-07 -1.914129e-06 1.751407e-05 -4.550316e-07 1.847442e-06 -1.293984e-05
5.881610e-07 -1.499921e-06 6.014381e-06 -1.513590e-06 1.454951e-06 -2.769105e-06
1.692814e-07 -1.856110e-06 4.283165e-06 -1.103260e-06 7.351628e-08 -1.619484e-06
6.832803e-07 -2.639170e-06 7.302347e-06 -1.683051e-06 7.750732e-07 -2.954990e-06
3.197170e-06 -1.218977e-06 3.048987e-06 -2.508857e-06 3.508932e-06 -5.985204e-06
2.252339e-06 -1.511787e-06 6.068748e-06 -3.035960e-06 3.189653e-06 -6.443382e-06
3.582258e-06 -2.073280e-06 5.824896e-06 -3.368056e-06 3.786602e-06 -5.317994e-06
5.229740e-07 -1.059440e-06 9.412656e-06 -1.917278e-06 4.442708e-06 -6.553501e-06
2.962375e-06 -8.404069e-07 5.056253e-06 -2.648249e-06 3.806087e-06 -4.412294e-06
1.137984e-06 -3.925554e-07 5.075906e-06 -2.796335e-06 3.247644e-06 -5.353554e-06
2.868083e-08 2.576566e-07 2.421231e-06 -3.840492e-07 -1.524542e-07 -8.438831e-07
2.172177e-08 7.666553e-08 3.645058e-06 -4.223115e-07 2.224830e-06 -5.327818e-07
6.102846e-07 -2.573915e-07 4.018034e-06 -1.008913e-06 2.112867e-06 -1.544527e-06
1.911521e-06 -1.444671e-06 1.675920e-07 -1.168597e-06 1.085504e-05 -8.022247e-06
-1.828604e-08 -1.570014e-06 1.027849e-05 -1.320338e-07 1.158981e-05 -4.312408e-06
-3.026624e-07 -1.151767e-06 8.289544e-06 -1.115358e-06 3.418749e-06 -5.586113e-06
1.010046e-06 1.387492e-06 4.106905e-06 -2.575230e-06 3.645572e-06 -5.709600e-06
-4.379681e-07 -2.467263e-07 5.017148e-06 -1.004308e-06 2.410264e-06 -4.183842e-06
4.647191e-07 5.470449e-08 4.494327e-06 -3.003808e-07 2.435914e-06 -3.500143e-06
-2.882102e-07 -5.885501e-08 9.552171e-06 -1.950585e-06 7.719442e-06 -4.991418e-06
4.390831e-07 7.908034e-07 5.596418e-06 -2.743389e-06 4.426165e-06 -2.374955e-06
3.300781e-06 8.064016e-07 5.583016e-06 -1.904278e-06 4.194031e-06 -2.753849e-06
-3.598741e-07 -6.131575e-07 7.232448e-06 -3.085618e-06 3.722537e-06 -9.684697e-06
9.415971e-07 5.882849e-07 6.936169e-06 -4.349402e-06 9.139239e-06 -1.455221e-05
5.845263e-07 -1.262759e-06 7.432924e-06 -2.540234e-06 1.193497e-05 -1.470404e-05
-4.121452e-08 6.854218e-07 4.954954e-06 -2.207371e-06 4.687977e-06 -3.848735e-06
-2.370722e-07 5.655021e-07 7.780443e-06 -2.025494e-06 1.530737e-06 -1.682279e-06
5.710249e-07 7.151619e-07 6.710236e-06 -1.217679e-06 4.117305e-06 -4.722544e-07
8.762118e-08 -8.261502e-07 9.036393e-06 -3.365594e-06 1.383742e-05 -7.014634e-06
1.682198e-06 -8.091412e-07 8.627182e-06 -3.589325e-06 1.403119e-05 -7.685090e-06
-4.596790e-07 -5.109846e-07 8.185116e-06 -3.366542e-06 1.385908e-05 -8.931632e-06
5.821386e-08 -6.709956e-07 6.816338e-06 -2.786529e-06 4.259741e-06 -4.863594e-06
3.584606e-07 -4.013596e-07 6.405749e-06 -4.043140e-06 4.411490e-06 -3.910755e-06
-3.264122e-08 -1.951504e-06 8.085017e-06 -3.112791e-06 2.497421e-06 -1.939671e-06
7.974678e-07 8.399026e-07 4.250304e-06 -1.167115e-06 2.224532e-06 -2.465343e-06
1.708485e-07 3.900437e-07 3.106404e-06 -3.632653e-07 2.941946e-06 -3.734627e-06
1.676593e-07 5.829283e-07 -9.945615e-07 -3.625407e-07 5.566936e-06 -3.368229e-06
1.555710e-06 6.067897e-07 4.856851e-06 -2.516545e-06 4.923236e-06 -4.555554e-06
-6.721603e-07 -1.041846e-06 5.189360e-06 -1.461944e-06 2.618798e-06 -3.982416e-06
1.314839e-06 -1.161533e-06 5.413460e-06 -1.830999e-06 2.513645e-06 -3.312167e-06
-5.110660e-08 -1.617464e-06 1.382399e-05 -3.473975e-06 7.245457e-06 -1.392421e-05
6.797261e-07 -3.300247e-06 9.606584e-06 -5.606201e-06 8.135322e-06 -1.552694e-05
8.050421e-07 -4.187226e-06 1.416779e-05 -4.235966e-06 8.356024e-06 -1.265078e-05
-1.568204e-06 -5.580212e-08 9.840004e-06 -2.558710e-06 7.849032e-06 -5.543428e-06
-1.725466e-06 8.601298e-07 6.859103e-06 -2.047290e-06 4.485570e-06 -4.815813e-06
-8.337359e-07 5.658159e-07 4.275595e-06 -2.144878e-07 2.346739e-06 -4.124791e-06
-4.461666e-09 -1.889395e-06 1.223222e-05 -3.178154e-06 3.454172e-06 -5.453631e-06
-1.281647e-06 -3.444206e-06 1.275672e-05 -4.588480e-06 4.688245e-06 -4.278265e-06
5.527182e-07 -3.183179e-06 7.540944e-06 -5.367337e-06 3.621635e-06 -3.260762e-06
-2.357032e-06 -8.039417e-08 1.866751e-05 -4.650790e-08 4.875797e-06 -1.792534e-05
-2.596334e-06 -1.338611e-06 3.060108e-05 5.529179e-07 2.531526e-05 -2.367346e-05
-2.300442e-06 -1.806284e-06 3.628023e-05 1.778273e-06 8.014688e-06 -2.592597e-05
-2.219840e-07 -1.311195e-06 1.065032e-05 -2.525250e-06 6.835268e-06 -6.150972e-06
4.666783e-07 -7.852749e-07 6.138567e-06 -3.868230e-06 4.776672e-06 -3.954385e-06
3.772221e-07 -2.708506e-08 7.550907e-06 -3.410307e-06 3.566632e-06 -4.249426e-06
-2.239415e-07 1.884671e-06 2.311048e-06 3.613479e-06 2.794667e-05 -2.111553e-05
-1.631279e-06 -5.443517e-06 2.990744e-05 3.284690e-07 2.208312e-05 -2.519530e-05
1.642204e-07 -4.243016e-06 1.791266e-05 -1.692682e-06 1.531345e-05 -4.818185e-06
-2.893120e-06 2.396509e-06 7.919252e-06 -4.072840e-06 6.229065e-06 -6.720429e-06
-2.139600e-06 1.604560e-06 1.687328e-05 -3.406252e-06 4.911942e-06 -9.439406e-06
-4.328766e-06 1.356509e-06 1.208620e-05 -4.143445e-06 6.002840e-06 -6.193041e-06
-2.266284e-06 3.532793e-06 5.852124e-06 -2.886018e-06 8.346634e-06 -2.589082e-06
-5.050176e-06 3.672884e-06 9.306394e-06 -2.322860e-06 9.208374e-06 -2.177947e-06
-4.972692e-06 3.876569e-06 1.124414e-05 -2.449482e-06 8.578481e-06 -1.782828e-06
-4.044318e-06 -2.291416e-06 1.560023e-05 -6.227472e-06 1.460372e-05 -2.331648e-06
-4.395693e-06 -2.806328e-06 2.319757e-05 -7.073426e-06 1.396926e-05 -7.837833e-06
-4.123089e-06 -2.712653e-06 1.967342e-05 -7.346966e-06 1.419173e-05 -7.027239e-06
-7.495718e-06 8.049980e-07 1.190400e-05 5.314325e-07 2.777906e-05 -1.776240e-05
-8.324664e-06 -6.229461e-06 4.094869e-05 -1.965536e-06 2.479317e-05 -1.750340e-05
-1.405199e-05 -5.703899e-06 4.427468e-05 -1.629786e-06 2.344124e-05 -1.741780e-05
-5.215039e-06 -4.096505e-06 2.664060e-05 -3.059226e-07 1.632542e-05 -8.931975e-06
-7.620779e-06 -3.991929e-06 2.798582e-05 -1.472100e-06 1.589831e-05 -1.688812e-06
-5.570947e-06 -1.946412e-06 2.649411e-05 -4.150417e-06 3.434009e-05 -1.020145e-05
-5.304649e-06 3.428591e-06 1.216238e-05 -8.693087e-08 8.610524e-06 -1.049936e-06
-4.284200e-06 4.318545e-06 7.327585e-06 -1.040532e-06 8.861407e-06 -1.237349e-06
-2.507938e-06 4.045001e-06 1.067902e-06 -1.178317e-06 1.082480e-05 -4.050565e-06
-5.281361e-06 3.663827e-06 1.346866e-05 -2.274092e-06 9.866485e-06 -4.443662e-06
-7.657485e-06 3.946922e-06 1.452313e-05 -2.372250e-06 8.533786e-06 8.243885e-07
-5.123097e-06 3.909042e-06 1.449710e-05 -2.475490e-06 9.359505e-06 -4.039149e-06
-2.819687e-06 1.914465e-06 7.721097e-06 -1.849674e-06 7.317633e-06 -2.457568e-06
-1.849483e-06 -4.057133e-07 7.473626e-06 -8.300633e-07 6.050645e-06 -2.694686e-06
-5.809432e-06 1.589945e-06 1.102842e-05 -1.039021e-06 8.777690e-06 -2.153417e-06
-4.412711e-07 1.683983e-06 6.945693e-06 -1.611170e-06 7.837957e-06 -4.019778e-06
-9.801176e-07 -1.719224e-07 7.235746e-06 -5.928846e-07 5.687126e-06 -3.074755e-06
-7.057085e-07 -6.089066e-07 7.320882e-06 4.144946e-07 6.359769e-06 -2.919618e-06
-6.990830e-07 -2.930897e-06 2.667596e-05 2.268913e-06 3.212124e-05 -1.183850e-05
4.810767e-07 -5.120300e-06 1.663061e-05 3.361300e-08 2.459534e-05 -9.785398e-06
1.232479e-07 1.056280e-06 2.753679e-06 1.981579e-06 3.155638e-05 -2.994634e-06
3.226574e-07 -4.315838e-06 2.958983e-05 2.888374e-06 2.803831e-05 -5.605650e-06
4.588850e-07 -4.978390e-06 2.216683e-05 3.826625e-08 2.867231e-05 -1.123078e-05
3.722632e-07 1.756530e-07 2.197295e-05 2.319286e-07 3.199190e-05 -1.063811e-05
-3.322074e-06 -2.329746e-06 2.793291e-05 2.124690e-06 3.064398e-05 -2.136654e-06
-9.523621e-07 -1.437370e-06 2.628730e-05 -1.030490e-07 3.252528e-05 -1.106527e-05
-1.964942e-06 3.556126e-07 9.263828e-06 -3.114895e-06 5.951891e-06 -5.210317e-06
-2.828213e-06 -3.846928e-07 1.237992e-05 -3.816524e-06 6.530039e-06 -5.450543e-06
-3.169454e-06 -1.751666e-07 7.913741e-06 -2.020961e-06 5.036286e-06 -2.832509e-06
-1.706885e-06 2.434031e-06 7.465350e-06 -1.742178e-06 7.442637e-06 -1.563303e-06
-2.899201e-06 1.038218e-06 7.456222e-06 -4.224234e-07 7.327759e-06 -1.458944e-06
-7.535348e-08 -6.678084e-07 3.888452e-06 7.634977e-07 4.849179e-06 -8.405465e-08
-2.035216e-06 2.626458e-06 1.121935e-05 1.876112e-07 3.040640e-05 -1.194423e-05
-1.567889e-06 -2.699384e-06 3.472593e-05 -9.963147e-07 3.066417e-05 -1.603192e-05
-5.426998e-06 -3.750939e-06 1.902714e-05 1.105230e-06 2.095028e-05 -1.642031e-06
-2.666542e-06 3.109533e-06 1.137446e-05 -2.379630e-07 9.127286e-06 -4.407494e-07
-2.636246e-06 4.217951e-06 7.395688e-06 -5.610585e-07 8.925751e-06 -8.884824e-07
-2.654474e-06 2.950069e-06 8.460816e-06 -7.588517e-07 7.692137e-06 -1.250068e-06
-2.760073e-06 8.832112e-07 8.602711e-06 -1.399771e-07 8.466270e-06 -1.296333e-06
-1.224721e-06 2.452410e-07 1.376813e-05 4.391285e-07 8.000077e-06 2.495551e-06
-4.808301e-07 -1.283908e-06 5.385718e-06 3.373529e-07 4.408564e-06 2.057101e-06
-9.798186e-07 -6.588378e-07 7.530400e-06 2.810144e-07 5.927719e-06 -2.458950e-06
-1.393624e-06 9.771131e-08 7.411754e-06 -4.967034e-09 6.446226e-06 -1.659464e-06
-4.229429e-07 -1.244276e-06 5.805803e-06 8.353764e-08 4.760434e-06 -2.255186e-06
-4.598380e-07 -7.211269e-08 7.756970e-06 -2.977177e-07 6.448428e-06 -3.082027e-06
-1.367946e-06 -3.122891e-07 6.858772e-06 5.746812e-08 6.948910e-06 -1.783221e-06
-1.189039e-06 -1.331241e-06 7.327940e-06 6.656595e-07 5.383471e-06 -2.096878e-06
-6.370606e-07 -3.164345e-07 7.943459e-06 -5.103335e-07 7.149619e-06 -2.340852e-06
-9.835488e-07 -8.811901e-07 7.996466e-06 8.975622e-08 7.164940e-06 -2.481846e-06
7.446155e-07 -4.139953e-06 2.286269e-05 -1.368777e-06 1.947821e-05 5.659658e-06
7.910994e-07 1.083597e-06 -3.219929e-06 -2.589695e-06 3.621057e-05 6.111606e-06
2.536586e-07 -2.555470e-06 1.541330e-05 -4.782186e-07 3.675748e-05 9.381812e-06
-5.746271e-07 4.652775e-07 1.494963e-05 -8.926135e-07 1.172361e-05 -4.991927e-07
1.348241e-07 3.157579e-07 1.299220e-05 -2.131413e-08 1.337228e-05 -4.178370e-07
3.542868e-07 1.774387e-06 8.834184e-06 -7.513712e-07 6.907539e-06 6.296200e-07
-4.035847e-06 3.850174e-06 5.859790e-06 8.715726e-07 7.251042e-06 5.128510e-06
-4.557824e-06 2.850623e-06 9.133493e-06 1.595286e-06 7.852039e-06 4.607687e-06
-5.752362e-06 3.636196e-06 9.363067e-06 1.563112e-06 6.773000e-06 5.875761e-06
-1.127328e-06 2.408787e-06 2.464695e-06 1.154842e-06 2.593768e-06 5.514351e-07
-2.187449e-06 3.581095e-06 1.545114e-06 9.984108e-07 3.238713e-06 1.639094e-06
-1.170222e-06 2.514696e-06 7.257183e-07 1.126531e-06 4.920840e-06 6.084428e-08
-2.757393e-06 6.363482e-07 7.203683e-06 4.994395e-07 5.144730e-06 1.020864e-06
-2.896331e-06 -8.356425e-07 6.304787e-06 3.923384e-08 1.645342e-06 1.182988e-07
-2.579324e-06 9.798257e-07 6.595370e-06 1.203841e-06 2.860299e-06 4.236420e-07
-6.636871e-07 2.033530e-06 2.455424e-06 3.937866e-07 2.451869e-06 1.134202e-06
-2.952310e-07 1.204735e-06 2.551373e-06 4.699067e-07 2.480967e-06 9.407221e-07
-1.512926e-09 -8.287233e-07 3.661354e-06 -1.187083e-07 1.494160e-06 1.513793e-06
-1.094234e-06 3.946377e-06 1.166746e-06 3.347851e-07 8.199069e-06 7.055077e-07
-2.679903e-06 4.380527e-06 2.324330e-07 -4.641911e-07 7.971779e-06 -2.594263e-06
-2.659175e-06 3.728060e-06 5.296105e-06 -3.325452e-07 7.791009e-06 -2.066029e-06
-2.378130e-07 6.591818e-07 6.575347e-06 1.932038e-07 5.098314e-06 5.722623e-07
-3.160236e-07 -8.404438e-07 6.330649e-06 6.148738e-07 6.242488e-06 9.130744e-08
-4.219718e-07 -8.782611e-07 5.546427e-06 2.122563e-07 1.825382e-06 -5.288162e-07
-1.031873e-06 1.808971e-06 5.684135e-06 4.996091e-07 4.103016e-06 1.661235e-06
-1.266101e-06 1.389806e-06 8.111755e-06 1.845057e-07 3.829383e-06 1.372470e-06
-1.163761e-06 3.063579e-07 8.294219e-06 7.223069e-07 4.726950e-06 3.421441e-07
-4.462360e-06 -1.318174e-06 1.386581e-05 1.934626e-06 7.675576e-06 3.858244e-06
-5.418503e-06 5.401786e-08 1.638437e-05 1.785926e-06 1.406167e-05 8.275727e-07
-5.156540e-06 1.211871e-06 1.421816e-05 1.234195e-06 6.731136e-06 4.106590e-06
-9.030136e-07 -9.668229e-07 7.852974e-06 -3.300614e-07 8.683901e-06 7.274129e-06
-9.901099e-07 -1.994713e-07 8.032100e-06 -3.099899e-07 1.033385e-05 6.774000e-06
-1.439864e-06 5.206637e-07 4.962291e-06 -1.190366e-06 1.518305e-05 8.229160e-06
-8.851237e-07 2.290719e-06 5.263797e-06 3.829140e-07 6.280927e-06 1.914640e-06
-2.759717e-06 2.529517e-06 6.846268e-06 5.224487e-08 7.234375e-06 -1.683390e-06
-2.025405e-06 -2.398755e-09 7.433210e-06 -1.776872e-07 4.782305e-06 -4.105304e-07
-3.314636e-06 2.191059e-06 9.341354e-06 5.954666e-07 3.222785e-06 1.268457e-06
-2.885735e-06 2.432141e-06 4.921709e-06 1.710075e-06 4.339809e-06 -2.999772e-07
-3.023514e-06 2.881640e-06 7.151844e-06 2.208698e-06 3.309294e-06 -1.140658e-06
-1.403692e-06 1.578820e-06 4.933629e-06 1.694547e-06 4.684685e-06 6.898125e-07
-1.349029e-06 8.852370e-07 7.857767e-06 1.605364e-06 4.692974e-06 1.130632e-06
-1.955201e-06 -2.716575e-07 1.039728e-05 2.565272e-06 4.098255e-06 2.359902e-06
-7.999220e-07 -7.195171e-07 4.122102e-06 6.007113e-07 6.948811e-07 1.062177e-06
-8.441396e-08 -7.152604e-07 4.125712e-06 2.819719e-07 6.874708e-07 1.153280e-06
-3.480487e-07 -9.572174e-07 2.130132e-06 1.734121e-08 -2.338030e-08 4.247532e-07
-7.198955e-07 4.168892e-07 3.173043e-06 2.892210e-07 6.625541e-07 1.180315e-06
-3.331095e-07 5.073905e-07 3.699119e-06 6.045104e-07 4.239342e-07 6.198490e-07
-1.046418e-06 -6.011509e-07 4.605161e-06 1.610497e-06 7.382845e-07 -1.111211e-07
-1.782544e-06 2.167627e-06 4.914955e-06 1.688252e-06 2.151490e-06 2.837733e-06
-1.182941e-06 2.474190e-06 1.744045e-06 2.120996e-06 2.636585e-06 3.311932e-06
-2.128945e-06 1.772254e-06 3.916191e-06 3.030746e-06 3.053288e-06 3.522831e-06
-1.016230e-06 5.041312e-07 5.940930e-06 1.194654e-06 6.022274e-06 3.435513e-06
-5.817382e-07 -8.172699e-08 5.386921e-06 1.448094e-07 4.075333e-06 2.709759e-06
-2.733888e-07 1.696694e-06 -5.584827e-07 1.036597e-06 4.767181e-06 3.985560e-06
-3.557786e-07 -3.157072e-07 5.439491e-06 1.453046e-06 5.276670e-06 4.032525e-06
-5.780492e-07 -2.163777e-07 2.538931e-06 1.783570e-07 2.932282e-06 3.281926e-06
-5.655374e-07 1.819484e-06 3.311246e-06 4.230551e-07 6.205208e-06 3.399871e-06
-1.990509e-06 9.115240e-08 6.198885e-06 1.454704e-06 4.661415e-06 3.501308e-06
-9.447933e-07 9.080526e-07 6.039674e-06 2.906966e-07 4.917461e-06 3.519566e-06
-1.118100e-06 4.778949e-07 3.979773e-06 1.862890e-06 1.208242e-06 3.282030e-07
-2.034263e-06 5.061024e-07 5.459779e-06 2.063279e-06 1.481783e-06 6.150567e-07
-1.168813e-06 1.223601e-06 3.623015e-06 1.226631e-06 1.074638e-06 6.125967e-07
-3.182247e-08 -8.893153e-07 2.081940e-06 -4.260709e-07 -7.106806e-08 2.771533e-07
-7.191839e-07 -4.382864e-07 4.220478e-06 -5.188769e-07 9.511145e-07 -2.878573e-07
-2.388109e-07 -9.418664e-07 4.434159e-06 -3.167616e-07 9.491685e-07 -6.334644e-07
-7.993277e-07 1.422659e-06 7.267016e-07 1.171753e-06 -8.476531e-07 -1.756138e-07
-4.017401e-07 9.915135e-07 8.987631e-07 7.298846e-07 -4.234129e-07 -4.488787e-07
-5.083806e-07 2.658382e-06 2.712251e-07 1.021160e-06 -1.710435e-07 -8.092499e-08
-5.236971e-07 2.308607e-07 1.440588e-06 6.610549e-08 -9.632431e-07 6.268762e-08
-1.924354e-07 5.497957e-07 1.614756e-06 4.135060e-07 -1.258073e-06 -3.265584e-07
-9.143182e-08 -3.000408e-07 1.957822e-06 8.465570e-07 -6.624775e-07 -1.124652e-06
2.264143e-07 2.777201e-07 1.666505e-06 1.069694e-06 1.173710e-06 -2.811760e-07
1.424906e-07 3.914714e-07 2.377291e-06 1.368954e-06 8.746174e-07 -8.113387e-07
1.038380e-06 -4.154526e-07 2.767862e-06 1.756632e-06 9.021319e-07 -1.736583e-07
-1.034089e-06 4.934400e-07 2.738770e-06 1.924632e-06 1.129480e-06 -4.988206e-07
-8.378701e-07 5.671539e-07 4.473482e-06 2.352879e-06 1.499608e-06 1.118928e-06
-9.285418e-07 6.276025e-07 4.714481e-06 2.653963e-06 2.327079e-06 1.041554e-06
-1.860045e-07 1.905776e-08 1.007282e-06 6.505914e-07 -4.045827e-07 -8.363646e-08
2.995877e-07 -7.061290e-08 1.012594e-06 4.059823e-07 -4.087107e-07 -1.525522e-08
-1.092257e-07 -5.953664e-07 1.023897e-06 -6.174512e-08 -8.159260e-07 -4.296596e-07
-5.060673e-07 2.428302e-07 1.420642e-06 2.592459e-07 1.901673e-06 1.220240e-06
-3.153607e-07 -4.719697e-07 2.375154e-06 5.851206e-08 1.088741e-06 5.089469e-07
-1.747130e-07 3.811577e-07 3.114020e-07 4.767925e-07 1.411978e-06 1.042742e-06
-1.683167e-07 -5.544847e-07 1.433381e-06 5.375788e-07 1.935855e-06 1.129711e-06
-4.042839e-07 2.128028e-08 5.747991e-07 7.696845e-08 3.301586e-07 9.962017e-07
-4.076238e-07 4.479602e-07 3.864361e-07 9.277425e-08 2.149511e-06 1.240209e-06
-4.148164e-07 -3.954771e-07 2.205706e-06 5.886921e-07 1.335854e-06 3.105636e-07
-5.275252e-07 2.126630e-07 1.897551e-06 5.697701e-08 9.459762e-07 1.219216e-06
-1.384432e-06 1.453824e-06 2.432105e-06 1.408225e-06 -1.381191e-06 -1.971370e-08
-9.850663e-07 1.578052e-06 6.262545e-07 1.747152e-06 -6.638628e-07 1.697106e-07
-1.302035e-06 1.482369e-06 1.689924e-06 2.146570e-06 -9.444533e-07 -2.550675e-07
-2.104742e-07 6.026592e-07 1.533224e-06 1.161984e-06 -5.434661e-07 -7.653544e-07
-1.026051e-06 6.574985e-07 1.653469e-06 1.342713e-06 -4.550633e-07 -2.967673e-07
-1.801930e-07 8.173026e-07 7.971991e-07 9.381790e-07 -3.294208e-07 -2.022905e-07
-8.611104e-09 -6.005562e-07 1.019289e-06 -3.277041e-08 -8.107183e-07 -4.714644e-07
-4.008964e-07 7.116039e-09 1.231459e-06 3.156117e-07 -2.278587e-07 -6.288312e-07
-1.242894e-07 -8.640459e-07 2.354962e-06 1.989100e-07 -4.112098e-07 -1.236154e-06
-3.218377e-07 6.888109e-07 1.491198e-06 1.051903e-06 -1.348303e-06 -4.425262e-07
3.025413e-07 1.319800e-06 -1.334474e-07 1.698449e-06 -9.471396e-07 -2.991116e-07
3.386411e-08 1.443794e-06 4.264401e-07 1.982579e-06 -1.229111e-06 -6.717286e-07
-1.669579e-07 6.409292e-07 2.133155e-07 1.035508e-06 -9.255501e-07 -9.254315e-07
1.225672e-07 7.578107e-07 2.222187e-07 6.083988e-07 -1.222174e-06 -8.139403e-07
5.755717e-08 2.545068e-06 -1.510729e-07 1.458714e-06 -1.231597e-06 -3.997270e-07
-3.970231e-07 -4.973284e-09 4.984826e-07 6.655511e-08 -2.729329e-07 -1.423709e-07
-4.195752e-07 2.349395e-07 -4.506996e-07 2.532256e-08 2.008682e-08 4.092788e-09
-3.183524e-07 -2.191276e-07 -3.897308e-07 -4.592906e-08 4.087582e-07 2.754373e-07
-1.039204e-08 5.083030e-07 -6.242063e-07 7.047619e-07 -7.484018e-07 -7.995075e-07
-5.447258e-07 7.910646e-07 1.308427e-07 6.570223e-07 -1.211391e-06 -6.807216e-07
-2.096105e-08 4.599130e-07 1.266123e-07 5.735938e-07 -1.397940e-06 -9.621265e-07
-4.078052e-07 -3.514891e-07 3.417500e-07 -2.721555e-07 -1.101088e-06 -9.763279e-07
1.267466e-07 4.810177e-07 -2.502627e-07 3.957642e-07 -7.385890e-07 -6.540375e-07
1.132045e-07 4.526957e-07 -2.311076e-07 4.167024e-07 -9.222266e-07 -4.698600e-07
6.776809e-07 1.372552e-07 3.492423e-07 9.056376e-07 -5.252744e-07 -9.734867e-07
5.377760e-07 4.013748e-07 3.464550e-07 1.094985e-06 -7.640494e-07 -1.390165e-06
1.573242e-06 -2.466712e-07 4.339931e-07 1.203141e-06 -4.965765e-07 -9.781572e-07
1.002408e-08 4.180878e-07 2.996214e-07 5.061967e-07 -1.245310e-06 -1.035394e-06
-1.689062e-07 2.399333e-08 3.423787e-07 1.453568e-07 -1.143853e-06 -1.044637e-06
-5.817557e-07 1.884882e-08 1.382941e-06 -5.121905e-08 -1.386243e-06 -9.015250e-07
-1.707902e-07 -4.226631e-07 3.986330e-07 2.262007e-07 -1.380065e-06 -1.093417e-06
2.652279e-07 2.753719e-07 -2.103535e-07 7.905362e-07 -1.089534e-06 -7.370278e-07
1.417447e-07 3.857769e-08 1.986971e-07 9.657627e-07 -9.572567e-07 -8.895589e-07
-2.265435e-07 -3.689551e-07 6.188499e-07 -1.541827e-07 -1.516234e-06 -7.153354e-07
-5.782567e-07 3.795894e-07 3.009218e-07 2.690782e-07 -1.145616e-06 -4.423492e-07
-9.828859e-08 -5.723916e-07 9.629796e-07 -4.580406e-08 -1.318833e-06 -1.136143e-06
-1.939524e-07 6.813718e-07 4.609325e-07 1.339920e-06 -5.489843e-07 -1.421062e-06
-2.746399e-07 7.448700e-07 7.304489e-07 1.637700e-06 -4.144878e-07 -6.396904e-07
3.746405e-08 6.720243e-07 9.078490e-07 1.876032e-06 1.827976e-07 -2.399354e-07
-3.158153e-08 4.142834e-07 -2.562974e-07 1.077544e-06 -1.102948e-06 -9.697639e-07
-6.090746e-07 5.878604e-07 8.950849e-07 1.211505e-06 -1.554388e-06 -1.139724e-06
-8.274975e-08 4.799777e-07 4.691905e-07 1.068686e-06 -1.340036e-06 -8.552412e-07
-1.553814e-08 9.738609e-08 -5.260746e-08 6.865076e-07 -1.038178e-06 -1.111524e-06
3.670428e-07 2.186194e-07 -2.689273e-07 9.563862e-07 -7.840090e-07 -9.500331e-07
6.333368e-07 4.234537e-07 -1.293856e-08 1.189986e-06 -1.098067e-06 -1.313219e-06
-3.821567e-07 -1.516684e-07 7.772171e-08 -1.953845e-07 -1.033311e-06 -7.403507e-07
-3.049234e-07 -1.437513e-07 2.542744e-07 -1.278410e-07 -1.048667e-06 -6.796506e-07
-4.597795e-07 -2.034154e-07 1.752130e-07 -2.329707e-07 -1.117881e-06 -7.954907e-07
-4.475335e-07 -1.524703e-07 5.355497e-08 -1.684247e-07 -1.090785e-06 -6.638921e-07
-3.213562e-07 -9.956700e-08 -8.696390e-08 -1.194231e-07 -9.075270e-07 -7.722874e-07
-3.483715e-07 -2.044632e-07 4.115808e-09 -2.212212e-07 -1.096299e-06 -7.796407e-07
-4.373373e-07 -1.514915e-07 3.986559e-08 -1.648606e-07 -1.007132e-06 -5.004467e-07
-3.813465e-07 -1.502809e-07 1.013264e-07 -1.780961e-07 -9.093107e-07 -7.357988e-07
-2.539675e-07 -5.699341e-07 1.563547e-07 -8.391298e-08 -6.727974e-07 -8.272770e-07
-2.100780e-07 2.614381e-08 3.147561e-08 2.261104e-07 -6.226689e-07 -9.242901e-07
-4.886421e-08 -2.027801e-07 1.109576e-08 1.330812e-07 -4.882568e-07 -7.617306e-07
8.391739e-07 3.479089e-08 -3.123822e-07 9.018750e-07 -9.026428e-07 -1.112355e-06
6.951440e-07 3.985647e-07 -2.455105e-07 9.492156e-07 -1.148036e-06 -1.022558e-06
6.457296e-07 6.973676e-07 -1.557236e-07 1.072269e-06 -1.315077e-06 -1.110315e-06
4.617906e-07 3.121731e-07 -4.257402e-08 1.107680e-06 -1.158940e-06 -1.101687e-06
6.995244e-07 6.764777e-07 -9.042998e-08 1.439425e-06 -8.026458e-07 -6.175241e-07
6.571077e-07 6.781899e-07 -8.953870e-08 1.445776e-06 -7.828134e-07 -6.668324e-07
4.786135e-07 3.687680e-07 1.154743e-07 1.052228e-06 -9.999179e-07 -1.153421e-06
1.183126e-06 -4.243679e-07 3.440011e-08 7.933353e-07 -6.037660e-07 -9.344648e-07
7.582180e-07 4.242371e-08 7.420579e-08 8.459352e-07 -8.523995e-07 -1.162250e-06
-2.561855e-07 -2.073344e-07 -5.645780e-08 1.151972e-07 -9.137682e-07 -7.709791e-07
-1.451393e-07 -4.222801e-07 -1.231273e-07 3.961016e-08 -8.018594e-07 -6.865653e-07
-1.025256e-07 -4.548069e-08 -1.631381e-07 2.800675e-07 -8.551568e-07 -7.540175e-07
1.702688e-08 -8.475104e-08 -1.640156e-07 2.873721e-07 -8.489671e-07 -7.517246e-07
7.646076e-09 -6.383160e-08 -1.482831e-07 2.815127e-07 -7.929036e-07 -7.289226e-07
-3.043656e-08 -1.230451e-07 -1.492094e-07 3.416910e-07 -8.386153e-07 -7.106256e-07
-1.035383e-07 -5.772642e-08 -1.403774e-07 2.836143e-07 -9.100720e-07 -7.400934e-07
-1.679378e-07 -7.824336e-08 -1.265330e-07 -1.264416e-08 -8.984865e-07 -7.336039e-07
-1.723064e-07 -8.072693e-08 -2.048441e-07 -5.915338e-09 -7.664235e-07 -7.445620e-07
-1.784688e-07 -7.961753e-08 -1.704452e-07 -2.046999e-08 -9.346989e-07 -7.638040e-07
-1.821224e-08 -9.030503e-08 -2.165421e-07 1.178356e-07 -7.822642e-07 -6.993282e-07
-2.774769e-08 -1.812187e-07 -2.053848e-07 1.479801e-07 -8.118944e-07 -6.864105e-07
-1.048230e-07 1.422390e-08 -2.105389e-07 7.150808e-08 -8.125394e-07 -7.096464e-07
-1.774059e-07 -9.498740e-08 -1.111630e-07 -1.824217e-08 -8.897766e-07 -7.865672e-07
-6.975505e-08 -2.903576e-09 -1.533794e-07 2.332742e-07 -7.883981e-07 -6.595873e-07
-1.692482e-08 -1.834405e-08 -2.048459e-07 2.437824e-07 -8.794856e-07 -7.683128e-07
-6.233556e-08 -1.141981e-07 -1.733502e-07 3.127326e-07 -9.164741e-07 -7.555489e-07
1.245237e-08 2.099979e-07 -2.843512e-07 4.993389e-07 -7.934508e-07 -6.130153e-07
-4.699757e-08 1.526245e-07 -2.768146e-07 1.651197e-07 -7.311576e-07 -7.167213e-07
3.398046e-08 -8.979438e-08 -2.966285e-07 2.277762e-07 -8.463272e-07 -7.451904e-07
6.588777e-09 3.681573e-07 -2.970241e-07 2.761628e-07 -8.024513e-07 -7.283277e-07
1.770377e-08 5.192064e-07 -3.697723e-07 4.113455e-07 -8.138949e-07 -6.486363e-07
-1.881451e-07 -1.890664e-07 -7.675458e-08 3.471991e-08 -9.314983e-07 -7.965288e-07
-1.507172e-07 -2.397614e-07 -1.119139e-07 5.242907e-09 -7.557161e-07 -6.929195e-07
1.348142e-07 -1.890665e-07 -1.488607e-07 2.129032e-07 -8.516820e-07 -8.046804e-07
-7.791198e-08 -1.890664e-07 -1.651046e-07 7.659583e-08 -7.328946e-07 -7.026685e-07
-6.256645e-08 -2.772575e-07 -6.640448e-08 7.899513e-08 -7.772073e-07 -6.582869e-07
-1.050323e-08 -1.694371e-07 -1.645178e-07 1.539709e-07 -8.357073e-07 -7.020493e-07
1.683198e-07 -3.088471e-07 -1.414311e-07 2.053721e-07 -8.186510e-07 -7.788979e-07
-2.105928e-07 -2.496170e-07 -5.539571e-08 -9.321411e-08 -7.971147e-07 -7.822728e-07
-2.163318e-07 -1.134368e-07 -1.357767e-07 -5.167314e-08 -8.204148e-07 -6.961972e-07
-2.647956e-07 -1.579322e-07 -1.048009e-07 -5.618505e-08 -8.281554e-07 -7.304389e-07
-8.678764e-08 -6.658447e-08 -1.337058e-07 8.109840e-08 -8.374582e-07 -7.153485e-07
-1.883857e-07 -1.271443e-07 -1.352748e-07 -5.557481e-08 -8.231008e-07 -7.024275e-07
-2.367045e-07 -1.271443e-07 -7.078351e-08 -9.356705e-08 -8.607658e-07 -6.938529e-07
-1.928881e-07 -1.831984e-07 -7.090043e-08 -6.069475e-08 -8.335243e-07 -7.386019e-07
-1.213635e-07 -1.489570e-07 -2.322317e-08 1.400135e-09 -8.781391e-07 -8.402313e-07
-2.228829e-07 -8.764701e-08 -1.373519e-07 2.593756e-08 -8.281234e-07 -6.888750e-07
5.294706e-07 -1.140819e-07 -1.759705e-07 6.501871e-08 2.652461e-08 1.365291e-07
5.305534e-07 -1.097297e-07 -1.735581e-07 6.248795e-08 2.427938e-08 1.218126e-07
5.462488e-07 -1.140819e-07 -1.735705e-07 6.540633e-08 2.644357e-08 1.290354e-07
5.316719e-07 -1.140819e-07 -1.735602e-07 6.199553e-08 2.325466e-08 1.222265e-07
5.368601e-07 -1.157286e-07 -1.743925e-07 5.653558e-08 2.198214e-08 1.198832e-07
5.471354e-07 -1.103553e-07 -1.886316e-07 6.635702e-08 2.113314e-08 1.288356e-07
5.457988e-07 -1.120092e-07 -1.863039e-07 6.805528e-08 1.941395e-08 1.318953e-07
5.443717e-07 -1.046340e-07 -1.726155e-07 6.682508e-08 2.203285e-08 1.192372e-07
5.493052e-07 -1.046485e-07 -1.938618e-07 6.730862e-08 2.446103e-08 1.283467e-07
5.567163e-07 -1.085520e-07 -1.901862e-07 6.652618e-08 2.627046e-08 1.345545e-07
5.599463e-07 -1.022000e-07 -1.888219e-07 7.248429e-08 2.093950e-08 1.268459e-07
5.209961e-07 -1.086691e-07 -1.807279e-07 7.333069e-08 3.163479e-08 1.438411e-07
5.175924e-07 -1.037029e-07 -1.745697e-07 7.570175e-08 2.512495e-08 1.293822e-07
5.259940e-07 -1.043077e-07 -1.799339e-07 7.854088e-08 2.913471e-08 1.417398e-07
5.394006e-07 -1.048783e-07 -1.743502e-07 8.096346e-08 2.672250e-08 1.326449e-07
5.469759e-07 -1.067180e-07 -1.873777e-07 7.095503e-08 3.498802e-08 1.389424e-07
5.087581e-07 -1.028535e-07 -1.880564e-07 8.323924e-08 2.914324e-08 1.474827e-07
5.170469e-07 -1.050389e-07 -1.790436e-07 8.875141e-08 2.886376e-08 1.340170e-07
5.055608e-07 -9.213897e-08 -1.681621e-07 7.048813e-08 2.970901e-08 1.241180e-07
5.000416e-07 -9.892609e-08 -1.643582e-07 7.798382e-08 2.746425e-08 1.230554e-07
4.990128e-07 -8.418723e-08 -1.700368e-07 7.350393e-08 2.969183e-08 1.261704e-07
5.031439e-07 -8.810103e-08 -1.783545e-07 6.999266e-08 3.539767e-08 1.312198e-07
5.301271e-07 -1.162477e-07 -1.787899e-07 6.476353e-08 3.005570e-08 1.355249e-07
5.358445e-07 -1.102962e-07 -1.742796e-07 5.667208e-08 2.510255e-08 1.247096e-07
5.388137e-07 -1.125266e-07 -1.741003e-07 7.045611e-08 2.573249e-08 1.289967e-07
5.460698e-07 -1.081547e-07 -1.742450e-07 6.450771e-08 2.572850e-08 1.286540e-07
5.477299e-07 -1.081137e-07 -1.953331e-07 6.484547e-08 2.676064e-08 1.298832e-07
5.562733e-07 -1.103548e-07 -1.917789e-07 6.560724e-08 2.843756e-08 1.358194e-07
5.470169e-07 -1.126585e-07 -1.893711e-07 7.052809e-08 2.774004e-08 1.391221e-07
5.217343e-07 -1.002168e-07 -1.729304e-07 7.997691e-08 2.273433e-08 1.264580e-07
5.496042e-07 -1.087528e-07 -1.821312e-07 7.164804e-08 3.160125e-08 1.345125e-07
5.343271e-07 -1.007563e-07 -1.740954e-07 1.031790e-07 1.666352e-08 1.282781e-07
5.352358e-07 -9.520882e-08 -1.875343e-07 9.178380e-08 2.395184e-08 1.360620e-07
5.275289e-07 -1.199709e-07 -1.824249e-07 6.772090e-08 3.025434e-08 1.555341e-07
5.230930e-07 -1.260342e-07 -1.843112e-07 6.736935e-08 3.430435e-08 1.748048e-07
5.267048e-07 -1.260342e-07 -1.808126e-07 6.515177e-08 2.989384e-08 1.560386e-07
5.484894e-07 -1.260342e-07 -1.852538e-07 6.955686e-08 3.440385e-08 1.650214e-07
5.484959e-07 -1.255145e-07 -2.006715e-07 6.992304e-08 2.761760e-08 1.653546e-07
5.458768e-07 -1.192657e-07 -2.007032e-07 6.732042e-08 2.731978e-08 1.650664e-07
5.338576e-07 -1.233624e-07 -1.831606e-07 5.652424e-08 2.885204e-08 1.518508e-07
5.199877e-07 -1.172294e-07 -1.812770e-07 7.557947e-08 3.477818e-08 1.624688e-07
5.169212e-07 -1.246995e-07 -1.878512e-07 7.400322e-08 4.348291e-08 1.846151e-07
5.401470e-07 -1.183322e-07 -1.810007e-07 8.052963e-08 3.827172e-08 1.687128e-07
5.198394e-07 -1.177746e-07 -1.897772e-07 7.849982e-08 4.028637e-08 1.824665e-07
5.185614e-07 -1.152644e-07 -1.972859e-07 7.937626e-08 4.539065e-08 1.789257e-07
5.164971e-07 -1.178134e-07 -1.998310e-07 7.697590e-08 4.828733e-08 1.820361e-07
5.522787e-07 -1.268436e-07 -1.952679e-07 7.155292e-08 5.360879e-08 1.678953e-07
5.298531e-07 -1.181481e-07 -1.847235e-07 6.470496e-08 3.196548e-08 1.559293e-07
5.266360e-07 -1.285186e-07 -1.875001e-07 6.394350e-08 4.155537e-08 1.726137e-07
5.482276e-07 -1.167510e-07 -1.855413e-07 6.981253e-08 3.407378e-08 1.647287e-07
5.420446e-07 -1.206546e-07 -1.855521e-07 7.511786e-08 3.466556e-08 1.642091e-07
5.503998e-07 -1.221090e-07 -2.096713e-07 7.453874e-08 4.117452e-08 1.733589e-07
5.609018e-07 -1.228721e-07 -2.098624e-07 7.230281e-08 4.016626e-08 1.659937e-07
5.483308e-07 -1.167370e-07 -2.060120e-07 6.977418e-08 3.446337e-08 1.639003e-07
5.489750e-07 -1.392874e-07 -1.766875e-07 7.994415e-08 4.013657e-08 2.025390e-07
5.516343e-07 -1.389405e-07 -1.995780e-07 8.090812e-08 3.915762e-08 1.991056e-07
5.513542e-07 -1.367472e-07 -1.977505e-07 8.258385e-08 4.176510e-08 2.025067e-07
5.755111e-07 -1.375927e-07 -2.061407e-07 8.583176e-08 4.800288e-08 2.156733e-07
5.089804e-07 -1.451888e-07 -1.974412e-07 6.407142e-08 5.214941e-08 2.420660e-07
5.119042e-07 -1.422007e-07 -1.821102e-07 6.056688e-08 4.755494e-08 2.167183e-07
5.344039e-07 -1.457095e-07 -1.860753e-07 6.802658e-08 5.001618e-08 2.248755e-07
5.164980e-07 -1.450459e-07 -1.833192e-07 6.258150e-08 4.539086e-08 2.198727e-07
5.196873e-07 -1.438559e-07 -1.898848e-07 5.873493e-08 4.413959e-08 2.153815e-07
5.334364e-07 -1.348932e-07 -2.130152e-07 7.128889e-08 5.106915e-08 2.355401e-07
5.326795e-07 -1.387393e-07 -2.152701e-07 7.398934e-08 4.811545e-08 2.374904e-07
5.417371e-07 -1.431242e-07 -1.774452e-07 6.800698e-08 4.468712e-08 2.049187e-07
5.418663e-07 -1.413630e-07 -1.943382e-07 6.996163e-08 3.974758e-08 2.073567e-07
5.355363e-07 -1.446465e-07 -1.885030e-07 6.537444e-08 4.149640e-08 2.105284e-07
5.694443e-07 -1.386427e-07 -2.032107e-07 7.967360e-08 4.446184e-08 2.160455e-07
5.116129e-07 -1.414035e-07 -1.811741e-07 5.343403e-08 3.801341e-08 1.940089e-07
5.086787e-07 -1.374786e-07 -1.950208e-07 5.554151e-08 3.391037e-08 2.003928e-07
5.260625e-07 -1.387923e-07 -1.910126e-07 4.548252e-08 4.240768e-08 1.901036e-07
5.118973e-07 -1.432566e-07 -1.943395e-07 5.358383e-08 3.718029e-08 1.983657e-07
4.978623e-07 -1.389599e-07 -1.935422e-07 7.517058e-08 5.821361e-08 2.450014e-07
4.957170e-07 -1.345546e-07 -1.808333e-07 7.704322e-08 5.141701e-08 2.191386e-07
5.009169e-07 -1.349848e-07 -1.928284e-07 7.872291e-08 5.630468e-08 2.434516e-07
5.260517e-07 -1.356673e-07 -1.836786e-07 8.046304e-08 5.534379e-08 2.282783e-07
5.323974e-07 -1.439232e-07 -2.067212e-07 7.525405e-08 7.096248e-08 2.302169e-07
4.924492e-07 -1.352662e-07 -2.014040e-07 8.340316e-08 6.098652e-08 2.379791e-07
4.944973e-07 -1.332590e-07 -1.988929e-07 8.554809e-08 5.844669e-08 2.348507e-07
5.390660e-07 -1.254106e-07 -1.744069e-07 7.676725e-08 4.581058e-08 2.018876e-07
5.334697e-07 -1.149605e-07 -1.768943e-07 7.705457e-08 4.289631e-08 1.975070e-07
5.331497e-07 -1.179435e-07 -1.942045e-07 7.804958e-08 5.009742e-08 1.951346e-07
5.833041e-07 -1.292767e-07 -1.971440e-07 7.777852e-08 5.786298e-08 2.062502e-07
5.402303e-07 -1.336915e-07 -1.818824e-07 7.849356e-08 3.110635e-08 1.906466e-07
5.430483e-07 -1.318173e-07 -1.913970e-07 7.490724e-08 2.766200e-08 1.892323e-07
5.735658e-07 -1.310691e-07 -1.898542e-07 6.914811e-08 2.883664e-08 1.822308e-07
5.633633e-07 -1.291303e-07 -1.883762e-07 7.802260e-08 3.544109e-08 1.797765e-07
5.586878e-07 -1.305100e-07 -1.879688e-07 6.382320e-08 3.611516e-08 1.937662e-07
5.541929e-07 -1.325280e-07 -2.003694e-07 6.685271e-08 4.239888e-08 1.837165e-07
5.787666e-07 -1.346039e-07 -2.034833e-07 6.764478e-08 3.910533e-08 1.768707e-07
5.528589e-07 -1.346994e-07 -2.076501e-07 6.921732e-08 3.842280e-08 1.880386e-07
4.941346e-07 -1.254748e-07 -1.783673e-07 7.921247e-08 4.520049e-08 2.157142e-07
4.936570e-07 -1.170161e-07 -1.998160e-07 7.982482e-08 5.013111e-08 2.359467e-07
4.991041e-07 -1.323110e-07 -1.869441e-07 7.470537e-08 5.292193e-08 2.197337e-07
5.129062e-07 -1.171016e-07 -1.786485e-07 8.945871e-08 3.823781e-08 2.037600e-07
5.147443e-07 -1.292978e-07 -2.048897e-07 7.635523e-08 5.827119e-08 2.355833e-07
4.900210e-07 -1.274317e-07 -1.931038e-07 8.453677e-08 4.715885e-08 2.274772e-07
4.897787e-07 -1.159206e-07 -1.965608e-07 8.422933e-08 4.824264e-08 2.283925e-07
5.374006e-07 -1.303732e-07 -1.960678e-07 8.363598e-08 5.444319e-08 2.213113e-07
4.938131e-07 -1.249672e-07 -1.930752e-07 8.805759e-08 4.832166e-08 2.299406e-07
4.985899e-07 -1.546101e-07 -1.916123e-07 6.598780e-08 5.747838e-08 2.721808e-07
4.827144e-07 -1.586390e-07 -1.918687e-07 7.261578e-08 6.420661e-08 3.013362e-07
5.086026e-07 -1.585636e-07 -1.935174e-07 7.121810e-08 5.435543e-08 2.793966e-07
5.223636e-07 -1.593811e-07 -1.913150e-07 7.815662e-08 5.906597e-08 2.855892e-07
5.165110e-07 -1.521990e-07 -2.304568e-07 8.627083e-08 5.382161e-08 3.050694e-07
5.301543e-07 -1.474405e-07 -2.143253e-07 7.762928e-08 6.390368e-08 2.900344e-07
5.149897e-07 -1.573477e-07 -1.921814e-07 6.377469e-08 5.575170e-08 2.676130e-07
4.852747e-07 -1.468040e-07 -1.870422e-07 7.920318e-08 6.549876e-08 2.743138e-07
4.750214e-07 -1.539181e-07 -1.863945e-07 8.020423e-08 7.225228e-08 3.014683e-07
5.165971e-07 -1.479429e-07 -1.858977e-07 8.268851e-08 6.862828e-08 2.849635e-07
4.742828e-07 -1.473007e-07 -1.867230e-07 8.207321e-08 7.085264e-08 3.019623e-07
4.764041e-07 -1.398981e-07 -1.949380e-07 7.804298e-08 7.186130e-08 3.021932e-07
4.842973e-07 -1.441891e-07 -2.039990e-07 8.198047e-08 7.842114e-08 2.928372e-07
5.261483e-07 -1.556252e-07 -2.042459e-07 7.524188e-08 8.253333e-08 2.877475e-07
5.380320e-07 -1.784529e-07 -1.936453e-07 1.116458e-07 6.033180e-08 3.344706e-07
5.403472e-07 -1.809508e-07 -2.084463e-07 1.118601e-07 5.422317e-08 3.344274e-07
5.773857e-07 -1.863239e-07 -2.225730e-07 1.044854e-07 6.661542e-08 3.775445e-07
6.072417e-07 -1.806612e-07 -2.223060e-07 1.211261e-07 5.849378e-08 3.389548e-07
5.033093e-07 -1.568126e-07 -1.786959e-07 9.187152e-08 7.701505e-08 3.164769e-07
4.999604e-07 -1.435542e-07 -1.833727e-07 9.344612e-08 7.764462e-08 3.206312e-07
5.092041e-07 -1.474820e-07 -1.927390e-07 9.734318e-08 8.389896e-08 3.116384e-07
5.312901e-07 -1.628741e-07 -1.972106e-07 8.555898e-08 9.297336e-08 3.238126e-07
5.265867e-07 -1.784396e-07 -1.971509e-07 9.460810e-08 5.181299e-08 3.281037e-07
5.295195e-07 -1.804566e-07 -2.107223e-07 9.503036e-08 4.657660e-08 3.294629e-07
5.495372e-07 -1.798552e-07 -2.155456e-07 9.863578e-08 4.769597e-08 3.328522e-07
5.695695e-07 -1.782214e-07 -2.094263e-07 9.253779e-08 5.117915e-08 3.179640e-07
4.341227e-07 -1.550644e-07 -1.819382e-07 8.767746e-08 8.173434e-08 3.407435e-07
4.298891e-07 -1.599595e-07 -1.845137e-07 9.352164e-08 7.252122e-08 3.453782e-07
4.284262e-07 -1.413279e-07 -1.897843e-07 8.719791e-08 8.345492e-08 3.481619e-07
4.391567e-07 -1.616307e-07 -2.005956e-07 7.966708e-08 9.897141e-08 3.576806e-07
4.962494e-07 -1.756088e-07 -1.957059e-07 7.534645e-08 4.977539e-08 3.400977e-07
5.006193e-07 -1.791349e-07 -2.074664e-07 7.121047e-08 4.240370e-08 3.372531e-07
5.126864e-07 -1.732105e-07 -2.091731e-07 5.631089e-08 4.974781e-08 3.353553e-07
5.126220e-07 -1.816432e-07 -2.080889e-07 5.552607e-08 5.172698e-08 3.356553e-07
5.300723e-07 -1.779948e-07 -1.910048e-07 9.011296e-08 5.867675e-08 3.539044e-07
5.355802e-07 -1.828462e-07 -2.028436e-07 8.566384e-08 5.047114e-08 3.508019e-07
5.194887e-07 -1.842921e-07 -1.932683e-07 7.306174e-08 6.004508e-08 3.515390e-07
5.740866e-07 -1.754377e-07 -2.202404e-07 9.888667e-08 6.138612e-08 3.791812e-07
5.269419e-07 -1.757936e-07 -1.936358e-07 1.143122e-07 6.013498e-08 3.345367e-07
5.199673e-07 -1.736820e-07 -2.230151e-07 1.195242e-07 6.711981e-08 3.840448e-07
5.855381e-07 -1.760812e-07 -2.331322e-07 1.289351e-07 6.898197e-08 3.637904e-07
5.492351e-07 -1.668862e-07 -2.224972e-07 1.385142e-07 5.813786e-08 3.425088e-07
4.691596e-07 -1.746881e-07 -1.939581e-07 1.049480e-07 6.624393e-08 3.511458e-07
5.648114e-07 -1.735242e-07 -2.099450e-07 1.161491e-07 6.865883e-08 3.584127e-07
4.841707e-07 -1.711319e-07 -1.961190e-07 1.272003e-07 6.023362e-08 3.651735e-07
5.124290e-07 -1.769938e-07 -2.306888e-07 1.156658e-07 7.520697e-08 3.809481e-07
4.686753e-07 -1.901537e-07 -1.940726e-07 6.979092e-08 7.361970e-08 4.124899e-07
4.813374e-07 -1.761944e-07 -1.944917e-07 7.983476e-08 6.504426e-08 3.704064e-07
5.228282e-07 -1.905623e-07 -1.905861e-07 7.051937e-08 7.203720e-08 3.922198e-07
4.635252e-07 -1.891603e-07 -1.925038e-07 6.331030e-08 6.458159e-08 3.672655e-07
4.690338e-07 -1.813818e-07 -1.872356e-07 5.539248e-08 7.113349e-08 3.597969e-07
4.971487e-07 -1.750093e-07 -2.190830e-07 7.602083e-08 7.043105e-08 3.926550e-07
5.178633e-07 -1.874315e-07 -2.246763e-07 7.608911e-08 5.765384e-08 4.052304e-07
4.445016e-07 -1.778851e-07 -1.934933e-07 9.420726e-08 7.095231e-08 4.069614e-07
4.626030e-07 -1.744404e-07 -1.977128e-07 1.004834e-07 6.760767e-08 3.578733e-07
4.532848e-07 -1.745528e-07 -1.962700e-07 1.015069e-07 7.059107e-08 4.016652e-07
5.074894e-07 -1.750869e-07 -1.908323e-07 1.009773e-07 6.952479e-08 3.802577e-07
5.089711e-07 -1.795744e-07 -2.336359e-07 9.205445e-08 8.574495e-08 3.950681e-07
4.641706e-07 -1.772344e-07 -2.183522e-07 1.111130e-07 7.613456e-08 3.863493e-07
4.528926e-07 -1.784974e-07 -1.936224e-07 1.028255e-07 7.249944e-08 4.014437e-07
4.502731e-07 -2.004910e-07 -1.959610e-07 6.314515e-08 8.505404e-08 4.435283e-07
4.423154e-07 -2.147022e-07 -1.768693e-07 6.838398e-08 8.870211e-08 4.619203e-07
4.543224e-07 -2.136216e-07 -1.949066e-07 6.067947e-08 8.001417e-08 4.462543e-07
4.802661e-07 -2.150582e-07 -1.898229e-07 6.936226e-08 8.638068e-08 4.588761e-07
4.828701e-07 -2.142146e-07 -2.235277e-07 7.672956e-08 7.994261e-08 4.741643e-07
4.787353e-07 -2.013537e-07 -2.135454e-07 6.851105e-08 9.127580e-08 4.667134e-07
4.588786e-07 -2.060319e-07 -1.810906e-07 5.387316e-08 9.060201e-08 4.355441e-07
4.271618e-07 -1.871756e-07 -1.959441e-07 8.613542e-08 8.370501e-08 4.439415e-07
4.181952e-07 -1.975040e-07 -1.832648e-07 9.164285e-08 9.027337e-08 4.831086e-07
4.838309e-07 -1.890644e-07 -1.913161e-07 9.165629e-08 8.917321e-08 4.665528e-07
4.132507e-07 -1.881967e-07 -1.834374e-07 9.155898e-08 9.251622e-08 4.849663e-07
4.144460e-07 -1.817959e-07 -1.709338e-07 8.879183e-08 8.313046e-08 4.890605e-07
4.323178e-07 -1.801968e-07 -2.123766e-07 1.017800e-07 9.189938e-08 4.717140e-07
4.838800e-07 -1.885853e-07 -2.157609e-07 8.411136e-08 9.761355e-08 4.770334e-07
4.742624e-07 -1.991038e-07 -2.073865e-07 9.587779e-08 9.841684e-08 4.956968e-07
4.661859e-07 -1.844060e-07 -2.080188e-07 9.787600e-08 9.628047e-08 4.926009e-07
5.335196e-07 -1.793484e-07 -2.260370e-07 1.195685e-07 1.012337e-07 4.895988e-07
5.331010e-07 -2.093483e-07 -2.408665e-07 1.077883e-07 1.226587e-07 4.994205e-07
4.718028e-07 -2.002733e-07 -2.183910e-07 1.249117e-07 9.288490e-08 5.286686e-07
5.572759e-07 -1.982671e-07 -2.349388e-07 1.380183e-07 8.778068e-08 4.974511e-07
6.011526e-07 -2.046086e-07 -2.809193e-07 1.373207e-07 1.156789e-07 5.586024e-07
6.111495e-07 -1.973650e-07 -2.769245e-07 1.701725e-07 1.096773e-07 5.430412e-07
3.876063e-07 -2.384821e-07 -1.633523e-07 1.137265e-07 1.161746e-07 5.760114e-07
5.418217e-07 -2.386836e-07 -1.844191e-07 1.363576e-07 1.074336e-07 5.751555e-07
4.003155e-07 -2.353583e-07 -1.745935e-07 1.546829e-07 9.814756e-08 5.864765e-07
4.602333e-07 -2.643451e-07 -2.134585e-07 1.281836e-07 1.329262e-07 6.337909e-07
5.067787e-07 -2.496497e-07 -2.148617e-07 1.309655e-07 1.003832e-07 5.148367e-07
6.023089e-07 -2.490339e-07 -2.365933e-07 1.180687e-07 9.734273e-08 4.984250e-07
5.912526e-07 -2.548523e-07 -2.426069e-07 1.420203e-07 9.103807e-08 5.328407e-07
6.129065e-07 -2.634406e-07 -2.751584e-07 1.396004e-07 1.093671e-07 5.501154e-07
4.701215e-07 -1.997874e-07 -2.141153e-07 1.463815e-07 9.483385e-08 5.567698e-07
5.036186e-07 -2.032452e-07 -2.868902e-07 1.469374e-07 1.132125e-07 5.827411e-07
5.169213e-07 -2.179227e-07 -2.825398e-07 1.409976e-07 1.075317e-07 5.905844e-07
5.780735e-07 -2.029922e-07 -2.830182e-07 1.935291e-07 1.036743e-07 5.635066e-07
4.857596e-07 -2.423675e-07 -2.110604e-07 1.342300e-07 9.365227e-08 5.641133e-07
5.889875e-07 -2.366958e-07 -2.306763e-07 1.671779e-07 9.485026e-08 6.129280e-07
6.315434e-07 -2.539723e-07 -2.783954e-07 1.724609e-07 1.193288e-07 6.140129e-07
5.870918e-07 -2.505164e-07 -2.851535e-07 1.764641e-07 1.224314e-07 5.959625e-07
5.101598e-07 -2.627127e-07 -2.039053e-07 1.135562e-07 1.103386e-07 5.503066e-07
5.868557e-07 -2.506307e-07 -2.269413e-07 1.729167e-07 1.070946e-07 6.060536e-07
6.506445e-07 -2.744320e-07 -2.820842e-07 1.320764e-07 1.200318e-07 5.695304e-07
6.500929e-07 -2.600010e-07 -2.412058e-07 1.412131e-07 9.497832e-08 5.495962e-07
4.967367e-07 -2.402052e-07 -1.934558e-07 7.566032e-08 9.161963e-08 5.619415e-07
5.645364e-07 -2.278442e-07 -2.206740e-07 1.242232e-07 9.005446e-08 6.138607e-07
6.023323e-07 -2.476068e-07 -2.269586e-07 8.233433e-08 7.785244e-08 5.754222e-07
5.888146e-07 -2.402990e-07 -2.163593e-07 7.323582e-08 9.585150e-08 5.819626e-07
4.787934e-07 -2.038801e-07 -2.108146e-07 1.174372e-07 9.400611e-08 5.237124e-07
4.837906e-07 -1.868644e-07 -2.119605e-07 1.081370e-07 9.205206e-08 5.244370e-07
5.742008e-07 -2.123898e-07 -2.420298e-07 1.315544e-07 1.197681e-07 5.030541e-07
5.249536e-07 -2.234878e-07 -2.359422e-07 9.601511e-08 1.219008e-07 5.303650e-07
3.390985e-07 -1.972630e-07 -1.663109e-07 9.487347e-08 1.227991e-07 5.578205e-07
3.184646e-07 -1.861087e-07 -1.683594e-07 1.155626e-07 1.163865e-07 5.643225e-07
3.130800e-07 -1.806496e-07 -1.708216e-07 8.910831e-08 1.190526e-07 5.738266e-07
3.429439e-07 -2.218633e-07 -2.015897e-07 6.474538e-08 1.554142e-07 6.029444e-07
3.441535e-07 -2.144344e-07 -1.702189e-07 1.044967e-07 9.125349e-08 6.122610e-07
3.693104e-07 -2.167940e-07 -1.547476e-07 1.088262e-07 1.020312e-07 5.826715e-07
3.444637e-07 -2.155102e-07 -1.857004e-07 1.043249e-07 1.080018e-07 6.240355e-07
4.365330e-07 -2.171767e-07 -1.815485e-07 1.068927e-07 1.052339e-07 5.993150e-07
4.410477e-07 -2.188786e-07 -1.956299e-07 9.694720e-08 1.110924e-07 6.140276e-07
3.374073e-07 -2.115214e-07 -1.822340e-07 1.195714e-07 9.758821e-08 6.169200e-07
3.340729e-07 -2.152111e-07 -1.399840e-07 1.159274e-07 9.162406e-08 6.147338e-07
3.905378e-07 -2.367838e-07 -1.684034e-07 5.738171e-08 1.075670e-07 6.019350e-07
4.168455e-07 -2.372443e-07 -1.518417e-07 5.999599e-08 1.091882e-07 5.699606e-07
4.188747e-07 -2.375600e-07 -1.844875e-07 6.119716e-08 1.039633e-07 6.141291e-07
4.594447e-07 -2.334704e-07 -1.822287e-07 8.920261e-08 1.006579e-07 5.993946e-07
4.292476e-07 -2.355096e-07 -1.409455e-07 4.909177e-08 1.189912e-07 5.891950e-07
4.309839e-07 -2.357199e-07 -1.789911e-07 5.035945e-08 1.157407e-07 5.980949e-07
4.465281e-07 -2.326072e-07 -1.988112e-07 9.543014e-08 9.850796e-08 6.195061e-07
4.394210e-07 -2.370489e-07 -1.995507e-07 5.786606e-08 8.562717e-08 5.432448e-07
4.341692e-07 -2.405941e-07 -2.249232e-07 6.468464e-08 6.934108e-08 5.548514e-07
4.484671e-07 -2.166819e-07 -2.248927e-07 4.302583e-08 8.287114e-08 5.489654e-07
4.485302e-07 -2.345105e-07 -2.232403e-07 4.198604e-08 8.600389e-08 5.496701e-07
4.993046e-07 -2.213214e-07 -1.970690e-07 1.026374e-07 7.704544e-08 5.310098e-07
5.766608e-07 -2.207517e-07 -2.221810e-07 9.374145e-08 7.591407e-08 5.076411e-07
5.539924e-07 -2.198949e-07 -2.209324e-07 1.099518e-07 7.707318e-08 5.226701e-07
5.429376e-07 -2.285045e-07 -2.269001e-07 1.244125e-07 6.968398e-08 5.373065e-07
3.084669e-07 -2.109583e-07 -1.986358e-07 8.685325e-08 1.022443e-07 6.728252e-07
2.928985e-07 -2.200547e-07 -1.994114e-07 1.001478e-07 1.447070e-07 7.182429e-07
3.452955e-07 -2.144090e-07 -1.945045e-07 1.005917e-07 1.155213e-07 6.910543e-07
2.744146e-07 -2.113373e-07 -1.839073e-07 9.044795e-08 1.281700e-07 7.150904e-07
2.759838e-07 -1.956658e-07 -1.695977e-07 8.519692e-08 1.126516e-07 7.198418e-07
2.739528e-07 -1.900511e-07 -2.071712e-07 8.580734e-08 1.133654e-07 7.288074e-07
3.567359e-07 -2.127578e-07 -2.084035e-07 7.049702e-08 1.188596e-07 7.355176e-07
3.432019e-07 -2.413072e-07 -1.975308e-07 5.460135e-08 1.044941e-07 6.845842e-07
3.268896e-07 -2.561210e-07 -2.067775e-07 7.000401e-08 1.284003e-07 7.052399e-07
3.647590e-07 -2.552973e-07 -1.845099e-07 6.328117e-08 1.074248e-07 7.019324e-07
3.465243e-07 -2.576530e-07 -1.933048e-07 7.896277e-08 1.207366e-07 6.889693e-07
3.549749e-07 -2.599401e-07 -2.088037e-07 1.067358e-07 1.144154e-07 7.396225e-07
4.023391e-07 -2.382602e-07 -2.133395e-07 6.910264e-08 1.211430e-07 7.170373e-07
3.785690e-07 -2.541505e-07 -1.873417e-07 4.751704e-08 1.069965e-07 6.831826e-07
5.443990e-07 -3.164636e-07 -1.929690e-07 1.506131e-07 1.376299e-07 8.315084e-07
5.510794e-07 -3.145755e-07 -1.997783e-07 1.569044e-07 1.301513e-07 7.837797e-07
5.444005e-07 -3.307684e-07 -2.442438e-07 1.431614e-07 1.028887e-07 7.579680e-07
7.253670e-07 -3.306308e-07 -2.913630e-07 1.584719e-07 1.240325e-07 8.703616e-07
2.653304e-07 -2.893245e-07 -1.478818e-07 7.018584e-08 1.080353e-07 9.027258e-07
3.065097e-07 -3.048133e-07 -1.428891e-07 6.844319e-08 1.486481e-07 8.608362e-07
4.205590e-07 -2.882176e-07 -1.762582e-07 5.704640e-08 1.105092e-07 8.783971e-07
2.945768e-07 -2.889640e-07 -1.697321e-07 6.674610e-08 1.141795e-07 8.294084e-07
3.068576e-07 -2.982028e-07 -1.189117e-07 5.501124e-08 1.450227e-07 8.039245e-07
3.775973e-07 -2.969315e-07 -1.734420e-07 1.016013e-07 1.316281e-07 8.789312e-07
4.054083e-07 -2.816281e-07 -1.796865e-07 8.048311e-08 1.113919e-07 9.002276e-07
3.706043e-07 -2.640673e-07 -1.980828e-07 1.818449e-07 1.407335e-07 8.014317e-07
3.262519e-07 -2.550557e-07 -2.064989e-07 2.035667e-07 1.327659e-07 7.435582e-07
5.910628e-07 -2.629966e-07 -2.843307e-07 1.893557e-07 1.592180e-07 8.455273e-07
4.780349e-07 -2.612056e-07 -2.387527e-07 2.476769e-07 1.359029e-07 8.067306e-07
4.077106e-07 -3.104858e-07 -1.856187e-07 1.018116e-07 9.774219e-08 7.850070e-07
4.538854e-07 -3.137761e-07 -1.925786e-07 8.618455e-08 1.075827e-07 7.797308e-07
4.811174e-07 -3.196352e-07 -1.881553e-07 8.921658e-08 1.069213e-07 7.686912e-07
4.911480e-07 -3.341750e-07 -2.310100e-07 8.662408e-08 8.194763e-08 7.648874e-07
2.629164e-07 -2.243393e-07 -2.192967e-07 1.213526e-07 1.601313e-07 6.935957e-07
2.775896e-07 -2.092782e-07 -2.102682e-07 1.090711e-07 1.266445e-07 7.135771e-07
2.758090e-07 -2.012166e-07 -2.103964e-07 1.017265e-07 1.421200e-07 7.132782e-07
2.728836e-07 -1.991115e-07 -1.969070e-07 1.010995e-07 1.259286e-07 6.995105e-07
2.718542e-07 -1.890886e-07 -2.220846e-07 1.010850e-07 1.175589e-07 7.052771e-07
2.744294e-07 -2.434160e-07 -1.998637e-07 1.126700e-07 1.433091e-07 7.090443e-07
2.737864e-07 -2.014206e-07 -2.060245e-07 1.115930e-07 1.180235e-07 7.059057e-07
2.824842e-07 -2.080565e-07 -2.113766e-07 9.454175e-08 1.237372e-07 7.202119e-07
2.763370e-07 -2.305728e-07 -2.312902e-07 1.186180e-07 1.522306e-07 7.075312e-07
2.290294e-07 -2.580931e-07 -1.288090e-07 1.039999e-07 7.311900e-08 9.030738e-07
2.649594e-07 -2.682505e-07 -9.001345e-08 1.069655e-07 9.528523e-08 8.499343e-07
2.483643e-07 -2.694479e-07 -1.893260e-07 1.133413e-07 1.071092e-07 9.084883e-07
3.962407e-07 -2.698590e-07 -1.770219e-07 1.071217e-07 1.071311e-07 8.542525e-07
4.045145e-07 -2.772245e-07 -1.826459e-07 8.181529e-08 1.151013e-07 8.985408e-07
3.116193e-07 -2.771683e-07 -1.272172e-07 1.263503e-07 8.785596e-08 8.815287e-07
2.667186e-07 -2.784001e-07 -9.875065e-08 9.472197e-08 8.346576e-08 9.527710e-07
3.178720e-07 -3.014630e-07 -1.836671e-07 4.673219e-08 9.314646e-08 8.259387e-07
3.464196e-07 -2.911629e-07 -1.840010e-07 1.236764e-08 9.381665e-08 8.294043e-07
3.488839e-07 -2.931882e-07 -1.891475e-07 2.152959e-08 8.577626e-08 8.314892e-07
3.586347e-07 -3.101930e-07 -2.173920e-07 1.435878e-08 6.386070e-08 8.222216e-07
4.979052e-07 -3.094265e-07 -1.904181e-07 9.018264e-08 1.328726e-07 8.917524e-07
4.838249e-07 -3.017371e-07 -1.967037e-07 7.047140e-08 1.284382e-07 8.792173e-07
6.773193e-07 -3.081033e-07 -2.662304e-07 1.179302e-07 9.897021e-08 8.972241e-07
4.745404e-07 -3.265677e-07 -2.326893e-07 5.104390e-08 9.488142e-08 8.455196e-07
2.254022e-07 -2.708630e-07 -1.352892e-07 4.659220e-08 1.011706e-07 9.536323e-07
1.907886e-07 -3.083247e-07 -6.522920e-08 6.972924e-08 1.071208e-07 9.979254e-07
2.943237e-07 -3.100317e-07 -1.460942e-07 7.648451e-08 7.924884e-08 9.819518e-07
3.486325e-07 -3.114534e-07 -1.609491e-07 8.336841e-08 8.574742e-08 9.865614e-07
3.489280e-07 -2.974513e-07 -1.635346e-07 8.026194e-08 9.852340e-08 9.813588e-07
3.413945e-07 -2.886607e-07 -1.481690e-07 7.696368e-08 1.109878e-07 9.721829e-07
3.128066e-07 -3.008047e-07 -6.477535e-08 5.367391e-08 1.118197e-07 9.371498e-07
1.943589e-07 -2.557095e-07 -1.346743e-07 7.808101e-08 8.360074e-08 9.607808e-07
1.774114e-07 -2.782407e-07 -1.089103e-07 7.805503e-08 7.923664e-08 1.023228e-06
3.496254e-07 -2.549467e-07 -1.651167e-07 6.609652e-08 8.423612e-08 9.827763e-07
1.397375e-07 -2.514316e-07 -1.289228e-07 6.153944e-08 1.003541e-07 1.052093e-06
1.578575e-07 -2.826942e-07 -2.541394e-08 4.814988e-08 5.691564e-08 1.096010e-06
2.493864e-07 -2.646310e-07 -1.475175e-07 1.182215e-07 6.759539e-08 9.852778e-07
3.495797e-07 -2.700896e-07 -1.672755e-07 6.917561e-08 9.519714e-08 9.787167e-07
1.540098e-07 -3.762530e-07 -1.945532e-08 1.716529e-07 7.621152e-08 1.028918e-06
2.018971e-07 -4.227447e-07 1.746460e-08 1.662015e-07 1.189136e-07 1.094710e-06
3.177556e-07 -4.376162e-07 -2.168784e-08 1.494910e-07 9.297716e-08 1.094181e-06
2.361324e-07 -4.383167e-07 -4.332459e-08 1.634373e-07 1.012369e-07 1.051601e-06
2.698263e-08 -2.848218e-07 -2.763659e-08 1.163398e-07 1.051288e-07 9.586904e-07
6.809072e-08 -3.427753e-07 6.549437e-09 8.307592e-08 1.321353e-07 1.027254e-06
5.815724e-08 -3.084228e-07 8.601777e-09 8.658404e-08 1.833761e-07 1.004819e-06
5.531136e-08 -2.870243e-07 3.837747e-08 7.353486e-08 1.186026e-07 1.001934e-06
2.794978e-07 -2.834596e-07 -1.380201e-07 9.629386e-08 9.472634e-08 1.021977e-06
3.648574e-07 -3.444503e-07 -1.088089e-07 7.415257e-08 1.146090e-07 1.086932e-06
3.612481e-07 -2.932269e-07 -9.654198e-08 8.510372e-08 8.947555e-08 1.080936e-06
4.906528e-07 -2.802882e-07 -2.157699e-07 1.481327e-07 1.073601e-07 1.008153e-06
3.536237e-07 -3.443336e-07 -8.053267e-08 1.620389e-07 7.726625e-08 1.135895e-06
5.304022e-07 -3.478611e-07 -2.004645e-07 1.302100e-07 5.428419e-08 1.046108e-06
5.023947e-07 -3.482250e-07 -1.826756e-07 1.590416e-07 6.333711e-08 1.069315e-06
4.765695e-07 -3.145866e-07 -1.799305e-07 2.551807e-07 8.971627e-08 1.218144e-06
-8.149825e-09 -3.293385e-07 -4.380716e-09 9.523819e-08 8.551675e-08 1.133148e-06
7.590445e-08 -3.392338e-07 -7.014102e-08 9.938803e-08 1.169654e-07 1.057654e-06
2.460906e-07 -3.305700e-07 -7.405846e-08 9.303960e-08 7.603560e-08 1.145479e-06
6.940984e-08 -3.303441e-07 -1.397651e-07 9.856549e-08 7.695814e-08 1.020852e-06
7.328442e-08 -3.285582e-07 -3.827129e-08 9.381669e-08 1.337103e-07 9.919982e-07
1.329477e-07 -3.191966e-07 -2.897196e-08 1.362915e-07 1.466070e-07 1.084077e-06
2.564631e-07 -3.086038e-07 -3.883929e-08 7.521332e-08 1.047401e-07 1.125247e-06
-1.050916e-08 -3.332997e-07 1.301427e-08 9.876959e-08 4.567620e-08 1.150504e-06
5.617405e-08 -3.314795e-07 -1.143759e-08 1.198194e-07 5.451487e-08 1.073885e-06
2.197084e-08 -3.315386e-07 -3.097962e-08 1.219619e-07 7.202329e-08 1.151652e-06
2.331113e-07 -3.329912e-07 -6.695318e-08 1.170333e-07 6.469982e-08 1.141506e-06
2.294024e-07 -3.526785e-07 -1.984070e-08 1.294321e-07 6.443080e-08 1.127777e-06
1.764073e-07 -3.498242e-07 -5.390534e-08 1.538097e-07 8.031868e-08 1.084594e-06
6.724574e-08 -3.546402e-07 2.824153e-08 7.626008e-08 6.591540e-08 1.230423e-06
2.151712e-07 -3.362415e-07 -1.265689e-07 7.491087e-08 1.058307e-07 1.225972e-06
2.739721e-07 -3.459655e-07 -1.891350e-07 1.104103e-08 6.693454e-08 1.181424e-06
2.883937e-07 -3.256442e-07 -1.195838e-07 6.684945e-08 1.162688e-07 1.233409e-06
2.547856e-07 -3.112114e-07 -2.094929e-07 1.013790e-07 1.133030e-07 1.328880e-06
3.096847e-07 -3.724967e-07 -8.127823e-08 1.993080e-07 8.204628e-08 1.130164e-06
3.785825e-07 -4.164168e-07 -5.211607e-08 2.058557e-07 1.230530e-07 1.192701e-06
5.149478e-07 -4.219556e-07 -2.062656e-07 1.960183e-07 8.869848e-08 1.036466e-06
6.538179e-07 -4.266644e-07 -1.806178e-07 2.299132e-07 8.085862e-08 1.214622e-06
-3.392799e-08 -3.423596e-07 9.012085e-08 8.281291e-08 5.175949e-08 1.205799e-06
-7.946985e-08 -3.742051e-07 1.600636e-07 1.284807e-07 5.544849e-08 1.218213e-06
3.453342e-08 -3.729012e-07 7.847538e-08 1.157147e-07 3.281224e-08 1.229575e-06
1.682463e-07 -3.747591e-07 -3.314674e-10 1.222393e-07 4.507806e-08 1.204943e-06
1.698912e-07 -3.747724e-07 1.360974e-07 1.005958e-07 8.347828e-08 1.165047e-06
7.455291e-08 -3.521889e-07 9.367293e-08 1.203309e-07 6.548393e-08 1.229263e-06
4.462664e-08 -3.539348e-07 1.823003e-07 1.001576e-07 8.204552e-08 1.197188e-06
-4.159452e-08 -3.218954e-07 9.511635e-08 8.686695e-08 1.688760e-08 1.220361e-06
-8.818608e-08 -3.097214e-07 1.033988e-07 1.239142e-07 4.711783e-09 1.251354e-06
1.767645e-07 -3.223372e-07 -6.388912e-09 7.692766e-08 2.737377e-08 1.201039e-06
-1.518947e-07 -3.183180e-07 5.840213e-08 7.657216e-08 4.730441e-08 1.305056e-06
-1.148308e-07 -3.417854e-07 3.563339e-07 4.017289e-08 -7.745510e-08 1.411367e-06
4.010153e-08 -3.161550e-07 1.430946e-07 1.570040e-07 -6.005899e-08 1.199147e-06
1.694719e-07 -3.236866e-07 1.002472e-07 1.002214e-07 -1.031997e-08 1.175105e-06
-1.206607e-07 -4.532634e-07 3.374739e-07 2.914777e-07 7.995877e-08 1.151217e-06
-5.683258e-08 -5.128207e-07 3.815888e-07 2.471440e-07 1.164732e-07 1.258643e-06
2.098756e-07 -5.221612e-07 2.784674e-07 1.985412e-07 7.709145e-08 1.234538e-06
-1.452649e-08 -5.080136e-07 2.343691e-07 2.423635e-07 9.839694e-08 1.134891e-06
-2.723766e-07 -3.340404e-07 2.971695e-07 1.643285e-07 3.592357e-09 1.286847e-06
-2.249513e-07 -3.868166e-07 3.466574e-07 2.429626e-07 4.589064e-08 1.210110e-06
-1.852144e-07 -3.797276e-07 2.499466e-07 2.084199e-07 5.182399e-08 1.262192e-06
1.100138e-07 -3.822671e-07 1.952545e-07 2.038498e-07 4.002936e-08 1.246131e-06
1.184554e-07 -4.038271e-07 2.818409e-07 1.944462e-07 2.847658e-08 1.275205e-06
-7.547938e-08 -3.790156e-07 2.268913e-07 2.464634e-07 5.241078e-08 1.171615e-06
-1.654390e-07 -3.754633e-07 2.948111e-07 1.852624e-07 3.332767e-08 1.301418e-06
2.209718e-07 -4.540997e-07 8.698704e-08 2.989185e-07 6.531061e-08 1.331416e-06
3.498773e-07 -5.169311e-07 1.663502e-07 2.566162e-07 8.423562e-08 1.459863e-06
5.476921e-07 -5.233502e-07 -4.644159e-08 2.071249e-07 4.727238e-08 1.180413e-06
8.415803e-07 -5.354344e-07 -7.647816e-08 2.443190e-07 8.371569e-09 1.497309e-06
3.143530e-07 -4.170526e-07 -1.852030e-09 2.047349e-07 1.145405e-07 1.385668e-06
4.101565e-07 -4.389886e-07 -6.237988e-08 1.112737e-07 7.559822e-08 1.284949e-06
4.302446e-07 -3.911693e-07 -3.699338e-08 1.431579e-07 1.106448e-07 1.308908e-06
7.074465e-07 -4.124546e-07 -1.190915e-07 2.367316e-07 6.874566e-08 1.509243e-06
3.577289e-07 -4.613402e-07 8.734904e-08 2.403934e-07 7.091312e-08 1.323182e-06
4.917383e-07 -4.731785e-07 -2.358869e-09 2.036693e-07 3.808576e-08 1.203244e-06
7.626715e-07 -5.055375e-07 -7.721470e-08 2.823622e-07 6.012858e-08 1.455923e-06
4.646571e-07 -4.942322e-07 -8.789349e-08 2.320396e-07 8.940847e-08 1.113082e-06
1.678468e-09 -4.093084e-07 1.561469e-07 1.679009e-07 7.401116e-08 1.415960e-06
8.897570e-08 -4.309115e-07 9.348891e-08 7.467364e-08 3.469535e-08 1.312282e-06
5.616628e-08 -3.758662e-07 1.153427e-07 9.926536e-08 -4.586082e-08 1.341147e-06
5.014673e-08 -3.782873e-07 1.566977e-07 7.637221e-08 4.783094e-08 1.348584e-06
-2.604894e-07 -4.009289e-07 2.850761e-07 1.658693e-07 4.827744e-08 1.271267e-06
-2.061218e-07 -4.175933e-07 2.954854e-07 2.286680e-07 1.387487e-07 1.176870e-06
1.608802e-07 -3.982493e-07 1.920306e-07 1.322652e-07 4.945657e-08 1.258891e-06
-2.886814e-07 -4.030499e-07 2.002638e-07 1.804412e-07 7.312711e-08 1.086438e-06
-2.656506e-07 -3.881260e-07 3.650919e-07 1.512550e-07 1.542693e-07 1.024751e-06
-9.643738e-08 -4.103259e-07 2.683254e-07 2.530186e-07 1.078069e-07 1.255120e-06
1.518582e-07 -3.782787e-07 2.546017e-07 1.412508e-07 8.736486e-08 1.264874e-06
-3.116207e-07 -3.248196e-07 2.666195e-07 2.050842e-07 7.017121e-08 1.024258e-06
-2.465201e-07 -3.809938e-07 3.195872e-07 1.444802e-07 9.503862e-08 1.142453e-06
-2.754637e-07 -2.606162e-07 3.109509e-07 1.501867e-07 2.361418e-07 1.077838e-06
-2.851682e-07 -3.522758e-07 4.330105e-07 9.739713e-08 4.539349e-08 1.071628e-06
1.424715e-07 -3.212869e-07 -4.467020e-08 1.640911e-07 4.839939e-08 1.178822e-06
2.908455e-07 -3.791554e-07 4.744449e-08 9.429040e-08 4.727604e-08 1.323850e-06
2.876448e-07 -3.594032e-07 1.053711e-07 9.857543e-08 -8.358941e-09 1.291582e-06
5.335714e-07 -3.393182e-07 -1.036544e-07 2.071551e-07 1.934100e-08 1.150951e-06
6.434332e-08 -4.558806e-07 2.207126e-07 1.908756e-07 3.206795e-08 1.349628e-06
2.173420e-07 -4.678058e-07 1.343834e-07 1.549492e-07 -1.567432e-10 1.238552e-06
3.822509e-07 -4.824370e-07 1.110787e-07 1.386356e-07 1.886453e-08 1.243614e-06
2.103721e-07 -4.792498e-07 9.078042e-08 1.601061e-07 4.533325e-09 1.310843e-06
-2.195130e-07 -3.260542e-07 3.209360e-07 1.384783e-07 -3.211608e-08 1.324294e-06
-1.878135e-07 -3.185894e-07 3.530211e-07 1.425160e-07 -6.825758e-08 1.325808e-06
1.661552e-07 -3.208972e-07 1.494340e-07 9.381508e-08 -3.229140e-08 1.311803e-06
-2.468057e-07 -3.177072e-07 2.950996e-07 1.018616e-07 -1.065589e-08 1.387956e-06
-2.403734e-07 -3.138112e-07 7.657190e-07 9.377078e-08 -2.269879e-07 1.491256e-06
-8.761811e-08 -3.166595e-07 4.001979e-07 1.988388e-07 -1.419816e-07 1.313199e-06
1.345070e-07 -3.555409e-07 3.953601e-07 1.356403e-07 -1.280863e-07 1.329337e-06
-1.587380e-07 -3.799572e-07 3.317883e-07 8.222642e-08 1.766126e-08 1.293847e-06
-1.247282e-07 -4.398339e-07 4.295419e-07 9.866086e-08 -5.125138e-09 1.255711e-06
-9.910695e-08 -4.399036e-07 2.987827e-07 9.809359e-08 -2.792973e-08 1.316231e-06
1.747195e-07 -4.400350e-07 1.637086e-07 8.814177e-08 -1.917492e-08 1.300644e-06
1.722572e-07 -4.056446e-07 4.640618e-07 6.429510e-08 9.702302e-08 1.261936e-06
3.752978e-08 -3.886195e-07 3.420502e-07 1.221948e-07 3.775078e-08 1.390356e-06
-6.641578e-08 -3.960217e-07 4.175153e-07 5.161207e-08 4.562458e-08 1.247004e-06
-1.951439e-07 -3.597158e-07 6.122198e-07 3.306943e-07 8.272804e-08 1.087458e-06
-1.390543e-07 -4.437641e-07 6.083194e-07 2.864150e-07 3.703716e-07 9.599457e-07
-1.372919e-07 -3.600791e-07 9.056377e-07 2.993786e-07 -5.498367e-08 9.154582e-07
-5.165220e-08 -5.866638e-07 8.168875e-07 2.536446e-07 9.933888e-08 9.859984e-07
5.630830e-07 -3.525687e-07 5.117905e-08 2.565453e-07 5.328722e-08 1.306098e-06
5.153573e-07 -3.481492e-07 2.168513e-07 2.091733e-07 -8.221182e-08 1.269974e-06
7.984404e-07 -3.293832e-07 7.000655e-09 3.500282e-07 -5.231940e-08 1.047892e-06
1.002055e-06 -5.665943e-07 1.407203e-07 1.010575e-07 3.439394e-09 1.367688e-06
5.623137e-07 -8.316464e-07 3.321501e-07 2.760409e-07 7.966590e-08 1.307633e-06
7.787184e-07 -8.273741e-07 1.815241e-07 2.398948e-07 1.491849e-07 1.058006e-06
9.807699e-07 -8.983682e-07 2.246738e-07 2.068231e-07 -6.689398e-08 1.347729e-06
1.078905e-06 -1.141590e-06 4.496325e-07 2.377467e-07 1.515498e-07 1.527284e-06
-4.415762e-08 -5.978418e-07 4.257942e-07 9.055823e-08 -1.065005e-07 1.320967e-06
5.235855e-07 -6.212425e-07 3.550948e-07 4.432709e-08 -5.911675e-08 1.285584e-06
2.232314e-07 -6.517105e-07 2.649859e-07 1.422981e-07 -1.213467e-07 1.462387e-06
3.663907e-07 -6.804108e-07 3.971152e-07 4.298080e-08 -1.071557e-07 1.251220e-06
5.427660e-07 -5.987589e-07 4.009350e-07 1.158253e-07 -8.603653e-08 1.501462e-06
6.127314e-07 -6.175995e-07 2.707620e-07 1.526302e-07 -1.285800e-08 1.210674e-06
6.255416e-07 -6.765710e-07 2.197826e-07 1.106721e-07 -8.276989e-08 1.124039e-06
1.089624e-06 -6.697835e-07 2.836975e-07 1.515557e-08 -2.325779e-07 1.542930e-06
2.835287e-07 -6.506357e-07 6.074692e-07 -2.012768e-07 -7.951907e-08 1.337814e-06
1.669975e-07 -6.400912e-07 5.634358e-07 -8.856423e-08 -8.420860e-10 1.340383e-06
7.239055e-07 -7.536199e-07 6.889072e-07 -2.493408e-08 -3.284195e-08 9.819184e-07
4.992995e-07 -7.811130e-07 5.012536e-07 5.690708e-08 -1.272218e-07 1.313788e-06
4.930727e-07 -7.585428e-07 6.746369e-07 7.470970e-08 -2.517322e-07 1.113559e-06
1.098839e-06 -8.197315e-07 5.000310e-07 4.548217e-08 -1.438310e-07 1.263642e-06
7.203941e-07 -7.682913e-07 9.178997e-07 -5.194169e-08 3.740201e-08 1.272843e-06
6.585195e-07 -8.567247e-07 6.176336e-07 1.877028e-07 8.045184e-08 9.693598e-07
6.924349e-07 -9.048219e-07 5.307925e-07 1.634635e-07 -1.057533e-07 1.046542e-06
1.304301e-06 -9.666401e-07 3.679527e-07 9.056349e-08 -2.591445e-09 1.248828e-06
1.473093e-06 -1.166408e-06 8.333991e-07 1.344195e-07 1.375751e-07 9.008938e-07
-5.852693e-08 -4.809163e-07 5.287295e-07 1.450760e-07 -7.646424e-08 1.056567e-06
-1.320901e-07 -4.749700e-07 4.006604e-07 2.105584e-07 8.547270e-08 1.078617e-06
3.896264e-07 -4.752798e-07 3.136150e-07 9.164990e-08 -7.665332e-08 1.170303e-06
-1.344218e-07 -4.896369e-07 3.511629e-07 2.034126e-07 -1.216918e-08 1.004767e-06
-7.780801e-08 -4.228503e-07 5.334472e-07 1.249666e-07 1.671901e-07 8.972300e-07
2.284771e-08 -5.977613e-07 4.162243e-07 1.234698e-07 -5.656189e-09 9.691955e-07
5.816081e-07 -6.534973e-07 4.207709e-07 -3.992344e-08 -1.279264e-08 1.023551e-06
5.296725e-07 -4.591406e-07 5.913063e-08 8.402598e-08 6.856202e-08 1.568389e-06
5.273102e-07 -4.103221e-07 1.069309e-07 2.161798e-08 1.326843e-07 1.541116e-06
1.068468e-06 -5.821945e-07 -4.687668e-08 -1.902113e-08 -3.739959e-08 1.629262e-06
5.544613e-07 -4.590777e-07 -1.231026e-07 -9.522286e-08 2.331216e-08 1.347603e-06
-7.954542e-08 -4.610243e-07 2.644424e-07 1.199787e-07 6.635551e-08 1.483996e-06
-3.687693e-08 -4.179156e-07 2.288994e-07 6.246457e-08 -1.235887e-07 1.565016e-06
-4.125933e-08 -4.106968e-07 4.824039e-07 4.639228e-08 1.143202e-07 1.587368e-06
5.438725e-08 -4.621387e-07 2.376542e-07 -4.956889e-08 -9.387173e-09 1.476958e-06
1.576220e-07 -7.845546e-07 6.962160e-07 4.227781e-07 1.565004e-07 1.261422e-06
2.568633e-07 -8.286130e-07 6.092678e-07 4.228636e-07 3.134925e-07 1.044582e-06
7.368719e-07 -1.196498e-06 9.162121e-07 5.781955e-07 1.672110e-07 1.270403e-06
8.056085e-07 -7.898544e-07 6.855964e-07 2.684741e-07 2.371852e-07 1.418511e-06
-8.950916e-08 -5.224668e-07 6.384717e-07 1.891193e-07 -1.648247e-08 1.530647e-06
-1.780445e-07 -5.417742e-07 6.133121e-07 2.770375e-07 7.176876e-08 1.530448e-06
2.836092e-07 -6.514746e-07 7.158599e-07 4.018244e-07 1.976089e-08 1.219125e-06
-6.752100e-08 -5.268436e-07 7.683506e-07 2.028153e-07 1.229805e-07 1.202869e-06
5.242212e-07 -7.924994e-07 8.363427e-07 1.529436e-07 -3.157669e-08 1.436118e-06
5.205025e-07 -7.254049e-07 8.060356e-07 1.526336e-07 1.394150e-07 1.476968e-06
-5.699478e-08 -7.371341e-07 7.726097e-07 2.378078e-07 1.870778e-07 1.211927e-06
2.366505e-07 -6.561307e-07 8.182282e-07 -2.095911e-07 -1.375172e-07 1.337783e-06
6.775147e-08 -6.279826e-07 1.064867e-06 -1.156834e-07 -2.301298e-07 1.144194e-06
7.445004e-07 -7.693506e-07 7.372888e-07 -1.288507e-07 -2.459090e-07 1.301463e-06
6.316046e-07 -6.802275e-07 7.522526e-07 -1.543860e-07 -9.394233e-08 1.086601e-06
6.657930e-07 -7.711455e-07 1.062530e-06 -1.394392e-07 -3.413564e-08 1.189959e-06
1.290976e-06 -9.284207e-07 8.023572e-07 -1.564649e-07 -2.504431e-07 1.013561e-06
9.305233e-07 -7.652553e-07 8.514562e-07 -9.576208e-08 -3.646100e-07 8.624999e-07
4.418306e-08 -4.715120e-07 6.542615e-07 -3.454540e-08 -1.809198e-07 1.046773e-06
-3.259195e-08 -4.205521e-07 9.037252e-07 -4.917297e-08 -1.554268e-07 1.016888e-06
8.869522e-08 -4.306501e-07 6.400998e-07 1.013869e-08 -1.365727e-07 1.078804e-06
7.404084e-07 -4.200134e-07 3.868386e-07 -8.304052e-08 -1.891225e-07 1.248639e-06
1.023086e-06 -4.973836e-07 5.638214e-07 -4.536188e-07 -7.223304e-08 9.555481e-07
6.669049e-08 -4.637454e-07 5.875719e-07 -2.590379e-08 -2.070163e-07 1.058817e-06
6.072493e-08 -3.339087e-07 6.928036e-07 2.001383e-08 -6.197335e-08 1.074599e-06
-1.318639e-09 -5.287439e-07 8.250754e-07 2.929449e-08 -1.077548e-07 1.385050e-06
-1.825955e-08 -4.206568e-07 9.641603e-07 -6.524520e-08 -2.249370e-07 1.245008e-06
6.333465e-07 -5.025940e-07 7.427024e-07 -1.248526e-07 -8.635299e-08 1.093456e-06
2.756485e-08 -5.084349e-07 8.883071e-07 -6.501492e-08 -1.037460e-07 1.309433e-06
1.789685e-07 -6.741422e-07 1.563004e-06 -1.981552e-07 -2.887234e-07 1.637966e-06
4.209856e-07 -7.007942e-07 9.920492e-07 -3.966041e-08 -1.421249e-07 1.294235e-06
6.664357e-07 -6.791081e-07 1.017650e-06 -1.303616e-07 -8.806663e-08 1.189035e-06
1.246999e-06 -3.422035e-07 4.939756e-07 -3.105770e-07 1.864901e-07 1.288141e-06
1.150766e-06 -2.693003e-07 5.723477e-07 -3.717360e-07 2.639137e-07 1.199350e-06
1.358141e-06 -3.133292e-07 4.531607e-07 -2.670116e-07 1.803926e-07 1.531858e-06
2.148155e-06 -3.652362e-07 -2.869965e-08 -6.556258e-07 -1.394734e-08 1.030374e-06
7.734997e-07 -3.624537e-07 6.021671e-07 -3.743438e-07 -4.150768e-07 1.340754e-06
8.982956e-07 -6.283131e-07 9.979092e-07 -4.467900e-07 -4.194567e-07 1.578746e-06
8.747937e-07 -7.557532e-07 9.151659e-07 -2.044576e-07 -2.199926e-07 8.826936e-07
2.322506e-06 -4.614293e-07 8.731001e-07 -8.587346e-07 -3.985129e-07 1.311361e-06
-4.967027e-07 -2.436804e-07 1.646874e-06 8.975528e-08 -1.748518e-07 -3.451412e-08
-5.499709e-07 -3.481917e-07 1.723452e-06 1.126505e-07 -2.579418e-07 4.110451e-07
-4.539133e-07 -3.432650e-07 1.710240e-06 8.375425e-08 -1.729864e-07 -8.670692e-08
-2.061658e-07 -3.472574e-07 1.160368e-06 9.043217e-08 -2.263885e-07 2.089534e-07
-1.026389e-07 -2.523390e-07 2.498816e-06 -6.634149e-08 -8.531191e-07 5.844737e-07
-2.382503e-07 -2.895502e-07 1.978969e-06 1.509361e-08 -3.464779e-07 -2.992786e-09
-3.212509e-07 -3.488783e-07 1.944029e-06 -6.397846e-08 -2.753565e-07 1.253595e-07
-5.670339e-08 -3.755439e-07 9.184153e-07 -4.762167e-08 2.675311e-07 1.340809e-06
9.273548e-08 -2.718024e-07 7.337953e-07 -2.964165e-07 1.140008e-07 1.057132e-06
1.901292e-07 -4.147748e-07 6.281097e-07 -3.160858e-07 3.738461e-08 1.252039e-06
-3.744251e-08 -3.909129e-07 1.028613e-06 -6.583062e-08 -2.211582e-07 1.157299e-06
-5.456928e-08 -3.007677e-07 1.198001e-06 -1.245424e-07 2.632424e-07 1.208872e-06
1.300922e-06 -4.105011e-07 5.869273e-07 -1.967466e-07 4.128145e-08 1.045597e-06
1.073835e-07 -3.958142e-07 6.278975e-07 2.667509e-08 -4.186839e-08 1.185577e-06
4.948975e-07 -3.082225e-07 1.296257e-06 -9.887289e-08 3.415982e-07 1.705877e-06
4.752969e-07 -3.661269e-07 7.430938e-07 -4.142237e-07 1.539640e-07 9.891719e-07
-5.415132e-07 -2.941730e-07 1.664091e-06 1.513187e-07 -2.813454e-09 -1.091690e-07
-6.480817e-07 -4.168963e-07 1.836984e-06 2.381253e-07 8.143119e-08 2.755577e-07
-2.277620e-07 -2.873901e-07 1.206782e-06 9.591038e-08 3.335812e-09 9.413139e-08
-7.788473e-07 -3.000141e-07 1.588530e-06 1.977391e-07 5.211066e-08 9.328105e-08
-7.826747e-07 -3.494388e-07 2.062884e-06 2.130400e-07 1.554180e-07 3.624376e-08
-5.536158e-07 -4.202380e-07 2.181440e-06 3.351634e-07 7.499874e-08 4.787654e-07
-3.867042e-07 -3.724913e-07 2.585721e-06 2.436215e-07 4.258353e-07 -5.717786e-08
1.115940e-06 -4.777024e-07 6.947520e-07 -5.285297e-07 -3.031936e-07 1.158168e-06
1.083969e-06 -7.448488e-07 1.041119e-06 -3.351777e-07 7.769853e-10 6.647748e-07
2.245060e-06 -1.072002e-06 2.292022e-07 -4.036554e-07 -5.644077e-07 8.685453e-07
1.481837e-06 -9.637253e-07 9.624622e-07 -1.557402e-07 -2.722036e-07 1.266291e-06
-3.959403e-07 -4.690553e-07 1.911806e-06 1.764144e-07 -4.842724e-07 1.914976e-07
-1.240490e-07 -6.861605e-07 2.346211e-06 -9.301520e-08 -3.472390e-07 1.628342e-07
-2.359595e-07 -4.756058e-07 1.807620e-06 -4.554160e-09 -4.375814e-07 3.953332e-07
5.822975e-09 -4.943911e-07 2.075222e-06 -1.590762e-08 -3.969438e-07 7.172090e-07
-1.311600e-07 -4.983621e-07 1.834317e-06 1.459656e-08 -1.568698e-07 5.174424e-08
-1.600757e-07 -6.995844e-07 2.544268e-06 -6.342578e-08 -3.861269e-07 1.473648e-07
-1.779330e-07 -5.600520e-07 2.701139e-06 -1.258763e-07 -6.242502e-07 3.608501e-07
-2.254208e-07 -4.302297e-07 2.208345e-06 -2.651952e-08 9.739985e-08 1.599401e-07
-2.135698e-07 -7.162628e-07 3.045001e-06 1.565393e-08 -5.057608e-07 5.368013e-08
-4.216730e-07 -1.409501e-07 1.772005e-06 2.049091e-07 2.171771e-07 -6.405201e-07
-8.829005e-08 4.292797e-08 1.278983e-06 4.810365e-07 6.945653e-07 -1.178142e-06
-8.082613e-08 -1.516511e-07 1.205130e-06 2.394239e-07 3.071284e-07 -1.223174e-06
-4.779885e-07 -1.286931e-07 1.695004e-06 1.481996e-07 4.594078e-07 -1.199645e-06
-5.922366e-07 1.035770e-07 2.293490e-06 2.247957e-07 -6.771751e-08 -1.084690e-06
-3.517300e-07 1.447458e-07 2.470444e-06 4.069477e-07 -1.531719e-07 -1.478273e-06
-8.453662e-08 -2.013466e-07 2.483341e-06 4.004748e-07 -1.825081e-07 -1.414695e-06
-3.333088e-07 -3.904884e-07 1.773796e-06 1.612253e-07 2.179815e-07 -6.534991e-07
6.504066e-08 -5.951227e-07 1.312537e-06 4.508825e-07 5.151363e-07 -1.300645e-06
-1.959804e-08 -5.703040e-07 2.194024e-06 2.966990e-07 4.881663e-07 -2.709562e-07
-1.055215e-07 -5.839528e-07 1.372019e-06 3.867088e-07 5.999678e-07 -1.226464e-06
-4.248961e-08 -5.598449e-07 3.485176e-06 2.166057e-07 1.217579e-06 -1.635842e-06
-8.183884e-10 -5.198775e-07 1.320010e-06 1.749150e-07 2.947168e-07 -4.666589e-07
8.930723e-08 -6.361412e-07 1.255354e-06 1.890527e-07 1.452549e-07 -3.402772e-07
2.391503e-07 -1.667380e-06 2.994214e-06 1.530341e-07 1.184847e-06 -3.801995e-07
3.856643e-07 -1.726290e-06 3.692351e-06 1.116951e-07 8.491690e-07 -1.292713e-06
4.640897e-07 -1.672405e-06 1.997155e-06 3.579374e-08 2.216664e-07 9.759545e-08
6.740322e-07 -1.852057e-06 3.143604e-06 -1.980950e-07 4.264788e-07 -4.783165e-07
1.024000e-06 -7.716021e-07 2.299044e-06 -9.699250e-08 1.004101e-06 -5.745850e-07
1.058777e-06 -1.123548e-06 1.648745e-06 -5.882170e-07 4.257363e-07 -9.168302e-07
1.679105e-06 -6.418714e-07 1.886424e-06 -1.412607e-08 8.483017e-07 -5.053952e-07
1.894746e-06 -9.583588e-07 2.230527e-06 -2.436719e-07 6.874345e-07 -2.186641e-07
1.868387e-07 -8.498419e-07 2.956299e-06 4.325500e-07 1.257361e-06 -2.744265e-07
2.627856e-07 -6.401403e-07 1.976717e-06 3.005777e-07 2.180983e-07 1.708794e-07
2.589849e-07 -6.799659e-07 2.839797e-06 2.835882e-07 9.136176e-07 -3.308958e-08
1.607492e-07 -1.231179e-06 2.861689e-06 -1.238892e-07 5.063007e-07 -7.818587e-08
1.671089e-07 -1.041913e-06 3.682914e-06 -2.637320e-07 1.149778e-06 -2.429061e-06
8.880858e-08 -1.125452e-06 3.167476e-06 1.695722e-07 1.399478e-06 -1.706234e-06
4.201136e-07 -1.083175e-06 3.788709e-06 -1.029814e-07 1.107614e-06 -2.626606e-06
1.836801e-07 -1.064742e-06 2.928410e-06 -2.062692e-07 1.112678e-06 -1.816848e-06
1.832273e-07 -1.087574e-06 4.511896e-06 -1.647545e-07 6.649137e-07 -1.884557e-06
1.025778e-06 -1.249967e-06 3.441155e-06 -4.043137e-07 1.392865e-06 -2.429956e-06
8.105232e-07 -1.165143e-06 3.377811e-06 -5.231714e-07 1.313131e-06 -2.088447e-06
1.976126e-08 -9.502932e-07 3.830994e-06 -1.186538e-07 6.793969e-07 -2.249354e-06
-7.652849e-08 -8.255069e-07 3.591143e-06 2.884766e-07 9.446370e-07 -1.648781e-06
1.916066e-07 -9.318079e-07 3.192258e-06 -2.427440e-07 7.043726e-07 -1.750216e-06
-3.739346e-07 -9.725699e-07 3.573432e-06 3.823797e-08 8.934213e-07 -1.739951e-06
-4.742817e-07 -6.429515e-07 3.451572e-06 7.755181e-08 9.728301e-07 -1.608787e-06
-3.494030e-07 -9.894008e-07 4.001610e-06 2.603925e-08 7.657023e-07 -1.340731e-06
2.299677e-07 -8.697859e-07 4.388774e-06 -3.168773e-07 1.316738e-06 -1.988517e-06
6.559141e-07 -1.777717e-06 3.353220e-06 3.282729e-07 1.718061e-06 -2.238458e-06
9.383382e-07 -1.483420e-06 4.031733e-06 -1.102004e-07 1.114399e-06 -1.794666e-06
1.373626e-06 -1.901177e-06 2.149775e-06 -3.974208e-07 2.430214e-06 -2.086502e-06
1.293374e-06 -2.195450e-06 3.191732e-06 -6.024759e-08 2.207751e-06 -2.440206e-06
9.374939e-07 -1.720392e-06 2.727210e-06 2.011215e-07 1.024605e-06 -6.364358e-07
1.869819e-06 -1.905519e-06 2.853639e-06 -4.702886e-07 2.229677e-07 -7.715058e-07
9.313612e-07 -1.700709e-06 3.036185e-06 1.486684e-07 6.405701e-07 -6.368597e-07
1.390869e-06 -1.495949e-06 2.885753e-06 -1.961159e-07 5.502278e-07 -6.365128e-07
1.380785e-06 -1.893066e-06 4.030747e-06 -2.628050e-07 5.290121e-07 -6.758184e-07
1.074679e-06 -1.337422e-06 2.734633e-06 -5.856202e-07 5.982465e-08 -7.472269e-07
1.735605e-06 -1.589910e-06 2.848334e-06 -6.046577e-07 -9.130967e-08 -3.908831e-07
8.355436e-07 -1.923897e-06 3.787937e-06 -1.234691e-07 6.388338e-07 -1.060190e-06
1.743129e-06 -1.901684e-06 2.692860e-06 -4.549641e-07 2.692000e-07 -9.541260e-07
4.362452e-07 -2.934404e-08 1.114916e-06 8.055215e-07 9.372242e-07 -3.403079e-06
9.411216e-07 3.682306e-07 -1.897042e-07 1.197618e-07 1.784212e-06 -3.412185e-06
1.036043e-06 2.922697e-08 2.085787e-06 5.026427e-07 2.364196e-07 -3.883684e-06
1.009884e-06 -9.618648e-08 -5.352107e-07 5.601328e-07 1.022723e-06 -4.222930e-06
1.837801e-07 -7.036177e-07 4.427831e-06 -7.274279e-07 6.229218e-07 -2.626900e-06
1.795274e-07 -9.524944e-08 4.028177e-06 -6.912897e-07 4.264104e-07 -3.169906e-06
4.986768e-07 -6.885907e-07 3.754105e-06 -8.323474e-07 6.129438e-07 -3.090294e-06
1.576277e-07 -6.729035e-07 3.906353e-06 -9.145475e-07 6.995354e-07 -3.042644e-06
2.664812e-07 -1.022122e-06 6.050950e-06 -9.590508e-07 -2.531065e-07 -2.427004e-06
6.960524e-07 -9.162601e-07 5.311966e-06 -6.227541e-07 -1.809054e-07 -2.907206e-06
4.909880e-07 -8.831662e-07 4.995147e-06 -5.491146e-07 2.893473e-07 -3.467701e-06
9.015069e-08 -9.967737e-07 4.420864e-06 -5.570196e-07 6.993342e-07 -2.662934e-06
8.066696e-08 -9.360457e-07 4.542621e-06 -3.930944e-07 6.292374e-07 -3.304175e-06
1.216498e-07 -9.184407e-07 4.668259e-06 -5.064424e-07 9.027491e-07 -2.513570e-06
4.974331e-07 -8.889961e-07 3.866436e-06 -7.081214e-07 8.421878e-07 -3.063941e-06
4.953060e-07 -7.020877e-07 5.502624e-06 -9.783882e-07 1.454331e-06 -3.568501e-06
2.752694e-08 -9.868871e-07 4.364703e-06 -6.133892e-07 6.983698e-07 -2.601457e-06
1.447972e-07 -9.542885e-07 4.051309e-06 -5.244571e-07 6.740897e-07 -2.463860e-06
2.189514e-06 4.006998e-08 2.043905e-06 -1.602409e-06 9.377526e-08 -4.329810e-06
2.220670e-06 -9.170748e-07 3.476846e-06 -1.682417e-06 -4.375816e-07 -4.118510e-06
2.302898e-06 -8.535323e-07 2.992390e-06 -1.337850e-06 -4.034668e-07 -4.881182e-06
2.917387e-06 -3.990847e-07 2.053718e-06 -1.894937e-06 -2.976095e-07 -4.754216e-06
-7.858705e-07 -2.164737e-07 8.153390e-06 9.084583e-08 -1.088208e-06 -6.262864e-06
-1.033350e-06 -3.587875e-07 5.639929e-06 3.944731e-07 1.747256e-06 -7.663798e-06
-1.101538e-06 -1.164204e-06 1.271728e-05 -3.269473e-08 -1.427975e-06 -7.586234e-06
-7.854078e-07 -1.076250e-07 1.393164e-05 -6.201495e-07 -2.665243e-06 -6.848713e-06
-6.881401e-09 -1.498505e-06 6.339034e-06 -6.659111e-07 9.101421e-07 -2.873433e-06
8.772647e-07 -1.288347e-06 5.898782e-06 -1.254063e-06 1.396454e-06 -3.142292e-06
3.700955e-07 -1.848923e-06 4.675976e-06 -7.208088e-07 4.696475e-07 -2.266090e-06
7.300814e-07 -1.811625e-06 6.789412e-06 -1.139618e-06 1.167771e-06 -3.208136e-06
2.444304e-06 -9.794392e-07 4.764155e-06 -1.800031e-06 1.879660e-06 -5.292909e-06
2.573961e-06 -1.101909e-06 3.565394e-06 -1.836429e-06 2.559814e-06 -5.692622e-06
2.099545e-06 -1.206503e-06 5.905385e-06 -2.067841e-06 2.603543e-06 -5.893558e-06
3.172536e-06 -1.092786e-06 3.838530e-06 -2.546354e-06 2.911482e-06 -5.537582e-06
1.118960e-06 1.136921e-07 4.781713e-06 -1.277269e-06 2.207660e-06 -5.444265e-06
9.819437e-07 3.299976e-07 4.573638e-06 -1.283552e-06 1.299450e-06 -4.658195e-06
9.015664e-07 -1.877246e-07 5.699246e-06 -1.540435e-06 1.991663e-06 -5.748049e-06
8.233547e-07 -8.943453e-08 5.461243e-06 -1.661551e-06 1.419025e-06 -4.140782e-06
8.147072e-07 -9.852190e-08 5.539638e-06 -1.651190e-06 1.979831e-06 -5.111561e-06
2.430814e-06 7.771923e-08 3.868979e-06 -2.188400e-06 2.029298e-06 -5.072501e-06
1.078963e-06 -1.735598e-07 5.960572e-06 -1.594551e-06 1.838727e-06 -4.961803e-06
8.748876e-08 -2.831187e-07 4.286879e-06 -1.381850e-07 1.391818e-06 -2.114471e-06
1.265973e-07 -1.235184e-07 3.444321e-06 -2.176340e-07 2.795850e-07 -1.622369e-06
9.565490e-08 -2.617360e-07 4.752475e-06 -3.436381e-07 1.990053e-06 -1.436476e-06
3.914541e-07 -2.690957e-07 3.644374e-06 -6.741876e-07 1.636801e-06 -1.811627e-06
1.647446e-07 -5.652911e-07 6.823285e-06 -5.451561e-08 3.166550e-06 -5.112645e-06
-2.407325e-07 -7.110631e-07 6.403126e-06 3.212913e-07 2.159999e-06 -4.201729e-06
5.458855e-08 -1.013792e-06 7.438184e-06 -2.882852e-07 2.843428e-06 -5.380613e-06
4.949099e-07 -6.913378e-07 5.890558e-06 1.442780e-07 2.226436e-06 -5.590382e-06
6.055231e-07 -8.751050e-07 7.364811e-06 -8.676420e-07 2.877017e-06 -5.130593e-06
5.065729e-07 -1.088452e-06 7.454549e-06 5.990266e-07 3.433890e-06 -5.033594e-06
-5.206643e-08 -1.118902e-06 4.563409e-06 8.537243e-07 3.807832e-06 -6.526273e-06
2.455951e-07 -3.035700e-08 4.709120e-06 -2.643962e-07 2.310774e-06 -6.082075e-06
4.560574e-08 -2.898131e-07 4.400424e-06 -9.404812e-08 1.666083e-06 -5.604274e-06
2.321348e-07 2.403417e-08 4.148938e-06 -6.090716e-07 2.339024e-06 -5.137117e-06
6.791610e-09 -6.529935e-08 5.313082e-06 -3.322033e-08 2.894313e-06 -4.704880e-06
1.301123e-07 -2.971719e-07 4.851398e-06 -1.200936e-07 2.225943e-06 -4.477453e-06
-2.877702e-07 -3.402983e-07 4.739294e-06 -4.089788e-07 2.156232e-06 -4.974073e-06
6.690747e-07 8.397438e-07 4.096639e-06 -1.518234e-06 2.521503e-06 -5.572175e-06
5.390070e-07 -4.408369e-08 6.073391e-06 -1.304698e-06 3.059517e-06 -6.032026e-06
1.459145e-07 2.273245e-07 6.240097e-06 -1.054440e-06 4.354966e-06 -6.497870e-06
3.729708e-07 -2.178365e-07 6.605663e-06 -1.492808e-06 3.326133e-06 -5.555192e-06
-1.287435e-07 -1.043727e-07 6.945196e-06 -1.381728e-06 4.268535e-06 -6.770582e-06
1.005284e-07 -4.405688e-07 7.444281e-06 -1.304183e-06 5.102749e-06 -6.166153e-06
1.357821e-06 -6.837505e-07 5.324460e-06 -1.567988e-06 4.353717e-06 -6.441041e-06
2.425255e-07 -2.904798e-07 6.203021e-06 -1.383478e-06 3.744363e-06 -6.446132e-06
2.675389e-09 1.004936e-06 6.443370e-06 -9.359143e-07 3.752292e-06 -6.029922e-06
-3.256577e-07 2.115896e-06 4.424551e-06 -9.452784e-07 4.099887e-06 -5.572358e-06
-2.133381e-07 1.008341e-06 6.282649e-06 -9.554342e-07 3.775945e-06 -6.492057e-06
-5.226135e-07 1.072669e-06 4.440879e-06 -1.445623e-06 4.308597e-06 -5.522244e-06
8.755455e-08 5.184366e-07 4.259809e-06 -2.007473e-06 4.625995e-06 -5.171798e-06
2.538762e-07 4.706845e-07 6.541562e-06 -1.901957e-06 4.105798e-06 -5.804271e-06
8.127771e-08 -5.532984e-07 6.694292e-06 -1.200957e-06 4.123983e-06 -6.033590e-06
-1.796953e-07 -6.147069e-08 5.827876e-06 -4.937111e-07 3.267175e-06 -6.611694e-06
-5.427516e-07 2.789100e-07 6.220739e-06 -2.925385e-07 4.382094e-06 -6.730866e-06
8.920591e-08 2.596630e-07 6.459716e-06 -1.952760e-07 4.596488e-06 -5.579092e-06
1.287539e-09 3.082815e-07 5.595854e-06 -5.003814e-07 4.419553e-06 -6.206399e-06
1.542588e-07 9.285129e-07 5.310308e-06 -1.248847e-06 4.471693e-06 -6.735707e-06
-5.953933e-07 -1.161415e-07 5.246980e-06 -3.458739e-07 3.440953e-06 -5.673220e-06
3.508995e-08 -3.072734e-07 5.338304e-06 -8.294586e-09 3.332632e-06 -5.049080e-06
6.773498e-07 9.540473e-07 5.065263e-06 -9.012706e-07 6.102526e-06 -7.222727e-06
-9.759935e-08 9.022840e-07 7.519807e-06 -1.297846e-06 7.217387e-06 -6.421041e-06
1.604766e-07 5.576957e-07 6.112225e-06 -1.332792e-06 6.004939e-06 -5.679226e-06
1.186983e-06 3.528156e-07 6.262796e-06 -8.473344e-07 6.375725e-06 -5.220458e-06
-5.573410e-07 2.270502e-06 2.689280e-06 -2.139840e-06 4.172503e-06 -1.022499e-05
-2.848294e-07 6.256383e-07 2.546341e-06 -2.828960e-06 4.763919e-06 -9.779424e-06
-3.070246e-07 4.472656e-07 6.328105e-06 -2.713820e-06 4.025448e-06 -9.899820e-06
-4.993935e-07 1.832756e-06 6.144748e-06 -3.312229e-06 3.655396e-06 -1.009667e-05
2.346908e-07 9.125492e-07 5.901480e-06 -6.204573e-07 5.960016e-06 -4.868346e-06
-3.240831e-07 5.583786e-07 6.337297e-06 -1.265160e-06 6.024000e-06 -5.276319e-06
5.833056e-08 8.287507e-07 7.168984e-06 -1.685158e-06 3.390767e-06 -3.774306e-06
1.330192e-06 3.647455e-07 7.959015e-06 -9.286913e-07 6.085129e-06 -1.750293e-06
-1.550186e-07 1.841238e-06 5.693651e-06 -1.246589e-07 1.052526e-05 -8.739474e-06
-8.611484e-07 3.480178e-06 6.389063e-06 -2.294978e-07 7.691707e-06 -8.781526e-06
-5.414594e-07 2.333658e-06 8.446217e-06 -3.377889e-07 7.865603e-06 -9.946047e-06
-1.079826e-06 2.383269e-06 8.254248e-06 -7.854193e-07 7.810835e-06 -8.376989e-06
-7.731840e-07 2.582729e-06 6.192767e-06 -1.144624e-06 9.208261e-06 -8.885472e-06
6.621008e-07 2.583811e-06 3.404115e-06 -1.228797e-06 9.161034e-06 -1.019096e-05
-4.546360e-07 2.391586e-06 3.787510e-06 -2.516288e-07 8.309801e-06 -9.862686e-06
-1.485401e-07 -1.469506e-07 7.560600e-06 -1.258248e-06 5.221142e-06 -5.352210e-06
-3.166095e-07 -2.968919e-07 8.239381e-06 -1.528493e-06 5.100383e-06 -6.067410e-06
1.275412e-07 -2.165086e-07 6.886648e-06 -2.274413e-06 5.379412e-06 -4.778965e-06
4.001823e-07 -7.012758e-07 6.882003e-06 -2.219747e-06 4.249210e-06 -3.795155e-06
-5.240099e-07 8.303374e-07 5.549938e-06 -6.879604e-08 6.500802e-06 -5.425554e-06
2.994105e-07 8.947660e-07 5.771667e-06 -1.007855e-06 4.072645e-06 -4.302878e-06
-3.320273e-07 4.970232e-08 5.306422e-06 -1.106155e-07 4.749042e-06 -5.177431e-06
-2.618661e-07 2.023883e-07 2.748521e-06 1.644560e-07 7.441819e-06 -4.940372e-06
-1.271799e-06 1.811204e-07 7.082538e-06 -8.051844e-07 5.439335e-06 -6.094869e-06
5.947776e-07 2.289483e-07 6.071906e-06 -1.379798e-06 5.630574e-06 -5.402120e-06
-1.178257e-06 -1.088736e-07 5.819984e-06 -7.229495e-07 4.502870e-06 -4.961848e-06
8.152998e-07 -2.288068e-07 5.892161e-06 -1.374726e-06 4.415843e-06 -4.569279e-06
-4.566206e-07 6.095820e-07 1.072619e-05 -2.176889e-06 7.834827e-06 -1.142242e-05
-3.319976e-07 4.238315e-07 8.795057e-06 -2.295676e-06 7.165050e-06 -1.216231e-05
-1.697924e-07 -1.330230e-06 8.081079e-06 -3.264459e-06 8.095693e-06 -1.180649e-05
-1.460016e-07 -1.553314e-06 9.950824e-06 -2.904757e-06 8.282051e-06 -1.100113e-05
-6.433610e-07 8.681269e-08 9.402119e-06 8.143189e-07 6.865284e-06 -7.182032e-06
-1.437726e-06 6.604014e-07 6.407881e-06 1.045732e-06 4.975660e-06 -7.572332e-06
-1.263178e-06 7.184683e-08 9.351010e-06 9.337179e-07 6.819824e-06 -6.649220e-06
-1.911887e-06 2.934573e-07 9.968280e-06 5.959520e-07 6.210013e-06 -6.830731e-06
-1.206928e-06 9.791497e-08 5.802744e-06 8.647457e-07 5.272366e-06 -6.025394e-06
-1.156109e-06 1.958426e-07 7.300286e-06 2.412247e-07 6.209528e-06 -6.581280e-06
-1.243866e-06 1.360314e-06 7.691423e-06 -3.407762e-07 6.923635e-06 -6.805091e-06
3.271658e-07 -2.865396e-07 6.144487e-06 -1.845011e-06 3.875378e-06 -6.534342e-06
-1.433164e-07 -2.591972e-07 1.057906e-05 -1.823726e-06 3.507354e-06 -6.318085e-06
-8.801782e-07 -1.511323e-06 8.003546e-06 -2.785810e-06 5.497603e-06 -4.751551e-06
6.423270e-07 -1.942207e-06 6.519200e-06 -2.855245e-06 4.676565e-06 -5.234390e-06
-2.902129e-06 1.810628e-06 1.422078e-05 1.510940e-06 -3.570151e-07 -1.293917e-05
-2.648669e-06 1.869562e-06 5.122263e-06 1.057327e-06 1.104088e-05 -1.600931e-05
-2.737514e-06 1.970101e-07 2.624063e-05 5.823637e-07 8.518915e-07 -1.694585e-05
-2.985137e-06 -2.142915e-07 2.299247e-05 1.075873e-06 2.128851e-06 -1.798124e-05
1.841011e-07 9.377143e-08 5.423436e-06 -1.561730e-06 6.174044e-06 -7.096918e-06
-2.425655e-07 5.199519e-08 8.578372e-06 -1.700206e-06 6.241799e-06 -7.197250e-06
1.660051e-07 -5.575828e-07 4.522685e-06 -1.978642e-06 6.434723e-06 -6.209684e-06
3.413909e-09 -1.419660e-07 7.360610e-06 -1.760462e-06 5.307791e-06 -6.555644e-06
-7.174225e-07 -5.785039e-07 8.773352e-06 1.045600e-06 1.170306e-05 -9.194924e-06
-1.995479e-06 -7.292895e-08 1.267080e-05 1.835349e-06 8.189348e-06 -8.425084e-06
-1.279673e-06 5.538820e-07 1.205840e-05 8.347394e-07 8.311263e-06 -1.059681e-05
4.957987e-08 -1.864410e-07 1.206995e-05 1.858729e-06 7.872107e-06 -9.125116e-06
-1.149764e-06 -1.656611e-07 7.741345e-06 1.267304e-06 1.011864e-05 -1.197809e-05
-1.661232e-06 -2.378641e-07 8.175266e-06 2.915846e-06 1.797881e-05 -1.315640e-05
-4.165040e-07 -5.391303e-07 4.119131e-06 2.460663e-06 1.662648e-05 -1.322673e-05
2.826390e-07 1.032694e-06 7.600075e-06 -1.152709e-06 1.054425e-05 -6.947708e-06
-3.459357e-07 -2.133799e-07 1.014725e-05 -2.358920e-07 1.201538e-05 -6.837620e-06
-6.637307e-07 5.057953e-07 1.032619e-05 -1.865513e-06 1.096153e-05 -6.149076e-06
-1.867684e-06 -3.321656e-07 1.059676e-05 -8.174641e-07 1.161457e-05 -7.254444e-06
-1.276924e-06 4.589773e-07 1.086821e-05 -1.540921e-06 1.069659e-05 -6.177953e-06
4.073905e-07 9.145004e-07 8.561939e-06 -2.843769e-06 1.241220e-05 -6.853547e-06
-5.156483e-07 -1.204271e-07 9.516880e-06 -1.858557e-06 1.253133e-05 -6.847041e-06
-5.756440e-07 -9.934810e-07 1.110098e-05 2.622144e-07 8.635494e-06 -6.444092e-06
-4.896195e-07 -1.562993e-06 1.069809e-05 2.259110e-07 8.354999e-06 -5.197589e-06
-9.276951e-07 -1.499273e-06 1.245649e-05 -1.612464e-07 9.384863e-06 -5.894900e-06
-6.833349e-07 -1.396383e-06 1.116953e-05 -8.238859e-07 8.665133e-06 -6.302766e-06
-5.181867e-07 1.140054e-06 1.068520e-05 -1.634238e-06 9.597091e-06 -6.878910e-06
-1.597369e-06 -1.409253e-07 1.003437e-05 -4.467409e-07 6.204548e-06 -4.158770e-06
-1.183986e-06 -1.384225e-07 8.137366e-06 -1.763716e-07 5.746902e-06 -3.956615e-06
-1.198586e-06 -3.071108e-06 1.259725e-05 1.424299e-06 1.257665e-05 -7.316963e-06
-9.179092e-07 -6.121627e-06 2.208360e-05 1.721705e-06 1.196145e-05 -7.776242e-06
-1.697277e-06 -3.432650e-06 1.506650e-05 6.316735e-07 1.252599e-05 -5.676384e-06
-2.911523e-07 -2.162576e-06 1.932394e-05 3.373364e-06 9.932093e-06 -9.109377e-06
3.543040e-08 -3.877522e-06 4.325120e-06 3.388377e-06 2.105797e-05 -1.352904e-05
-8.579323e-07 -3.985203e-06 1.941078e-05 2.535969e-06 1.486271e-05 -1.593406e-05
-1.079207e-06 -1.766466e-06 1.559169e-05 -6.092641e-07 1.154051e-05 -4.809536e-06
-2.193733e-06 -8.452736e-07 1.250054e-05 -2.824920e-06 6.906691e-06 -4.836802e-06
-2.366206e-06 8.264717e-07 9.416924e-06 -3.069781e-06 7.509500e-06 -5.754385e-06
-2.359727e-06 1.237614e-06 1.418294e-05 -3.017117e-06 6.019114e-06 -5.958326e-06
-2.750735e-06 1.251176e-06 1.431724e-05 -3.832483e-06 7.138568e-06 -5.739563e-06
-1.987746e-06 7.295917e-07 1.254152e-05 -1.479949e-06 7.849219e-06 -3.329643e-06
-1.498774e-06 1.553778e-06 8.421160e-06 -2.125612e-06 8.496839e-06 -3.557805e-06
-2.447217e-06 1.636548e-06 9.472023e-06 -1.942242e-06 8.946168e-06 -3.933785e-06
-2.612218e-06 2.441455e-06 1.254831e-05 -1.928258e-06 6.948881e-06 -3.411156e-06
-2.007596e-06 -2.589694e-07 1.525341e-05 -2.267553e-06 1.056395e-05 -3.985918e-06
-2.335099e-06 -1.922749e-07 1.440688e-05 -3.324773e-06 1.077912e-05 -2.265970e-06
-3.185353e-06 1.942027e-07 1.483003e-05 -4.701205e-06 1.239964e-05 -4.146700e-06
-2.633086e-06 -8.674216e-08 1.655032e-05 -3.887466e-06 1.125819e-05 -5.141309e-06
-3.056058e-06 -5.888216e-06 2.161451e-05 1.929225e-06 1.245373e-05 -9.209680e-06
-3.126702e-06 -4.507432e-06 1.034282e-05 1.723827e-06 2.024034e-05 -1.273109e-05
-3.633952e-06 -5.187143e-06 2.640529e-05 5.811247e-07 1.613353e-05 -1.203327e-05
-7.141795e-06 -5.112840e-06 2.918143e-05 1.139315e-06 1.549791e-05 -1.228121e-05
-2.056216e-06 -2.961865e-06 1.957515e-05 -1.277014e-06 1.229687e-05 -8.078184e-06
-2.662189e-06 -2.722324e-06 2.077476e-05 -9.682442e-07 1.161197e-05 -8.088274e-06
-5.044328e-06 -2.737576e-06 2.175117e-05 -7.774510e-07 1.143019e-05 -5.935073e-06
-2.953672e-06 -9.572956e-07 2.021111e-05 -2.983636e-06 1.830868e-05 -1.020613e-05
-3.965776e-07 1.074536e-06 8.852698e-06 5.219351e-08 9.898627e-06 -4.225735e-06
-4.651933e-07 8.596607e-07 1.041364e-05 -2.400940e-07 8.139980e-06 -4.929730e-06
-2.636673e-06 1.416283e-06 1.047406e-05 -1.390666e-07 9.146331e-06 -3.519386e-06
-1.605041e-06 1.442714e-06 1.052142e-05 -3.925008e-07 9.189002e-06 -3.755013e-06
-1.380099e-06 2.108184e-06 5.337712e-06 -8.303180e-07 1.023211e-05 -3.785335e-06
-2.528219e-06 2.494444e-06 8.148240e-06 -1.320173e-06 9.189118e-06 -2.361272e-06
-2.934462e-06 1.393542e-06 1.348666e-05 -2.256902e-07 9.066349e-06 -4.149555e-06
-3.785631e-06 6.686146e-07 1.325644e-05 -1.095849e-06 8.103915e-06 -3.882491e-06
-3.354932e-06 1.631914e-06 1.044086e-05 -1.800481e-06 9.441582e-06 -5.490184e-06
-5.185076e-06 2.670672e-06 1.431763e-05 -2.040539e-06 7.514062e-06 -2.905115e-06
-2.882518e-06 2.718747e-06 1.358230e-05 -2.538915e-06 7.505562e-06 -4.269673e-06
-2.514882e-06 -1.462897e-06 1.122647e-05 -4.008510e-07 9.564603e-06 -4.163551e-06
-1.636356e-06 5.098611e-07 8.705190e-06 -1.718857e-06 8.829991e-06 -3.597277e-06
-1.287073e-06 -5.596707e-07 8.193167e-06 -9.525515e-07 7.411549e-06 -3.690013e-06
-2.715720e-06 1.535276e-07 1.045939e-05 -1.303555e-06 8.712719e-06 -3.915199e-06
-7.753618e-07 -1.544239e-06 1.047571e-05 4.688159e-08 9.872455e-06 -4.538234e-06
-1.566601e-07 2.095780e-07 7.830530e-06 -1.038357e-06 9.345211e-06 -4.596840e-06
-1.202235e-06 5.240116e-07 8.018038e-06 6.584577e-08 7.208538e-06 -3.700303e-06
-1.246326e-06 -6.815738e-07 8.215623e-06 -1.804720e-07 7.688099e-06 -3.651530e-06
7.328476e-07 -7.156791e-06 2.067273e-05 -1.670570e-07 1.362518e-05 -6.266273e-06
4.867924e-07 -5.841251e-06 2.063610e-05 1.569807e-07 2.155148e-05 -8.592081e-06
6.791668e-07 -6.344594e-06 1.552022e-05 -2.411487e-07 1.712957e-05 -7.692883e-06
7.014553e-07 -5.566755e-06 7.504994e-06 5.546122e-08 2.295336e-05 -3.306981e-06
9.381103e-07 -6.655139e-06 2.282284e-05 5.858810e-07 1.946170e-05 -5.229035e-06
9.050690e-07 -4.728310e-06 1.787409e-05 -8.456169e-07 1.944487e-05 -8.546337e-06
1.031548e-06 -5.901413e-06 1.793286e-05 -5.803291e-07 2.262673e-05 -7.992993e-06
-1.468643e-06 -5.562686e-06 2.259924e-05 -1.229100e-07 2.005237e-05 -4.364676e-06
3.167146e-07 -5.035012e-06 2.100216e-05 -1.432873e-06 2.079262e-05 -8.168448e-06
-1.661543e-06 -2.268663e-06 1.147167e-05 -8.085489e-07 8.541177e-06 -5.457053e-06
-1.118595e-06 -4.102693e-07 9.307541e-06 -1.824596e-06 8.356912e-06 -5.521874e-06
-1.957742e-06 9.837117e-08 1.067024e-05 -2.858804e-06 9.191405e-06 -7.355818e-06
-2.784354e-06 -1.450200e-06 1.003056e-05 -1.722561e-06 5.793716e-06 -4.642980e-06
2.019011e-07 -1.124521e-06 9.609545e-06 -1.303676e-07 1.006828e-05 -3.524293e-06
-3.919025e-08 -1.511378e-06 1.039199e-05 -1.906760e-07 9.297804e-06 -4.471999e-06
-1.681812e-06 -1.144523e-06 1.085783e-05 7.078129e-08 1.005901e-05 -3.848419e-06
9.278443e-08 -1.149750e-06 1.004938e-05 3.405518e-08 1.012810e-05 -3.824569e-06
-9.464296e-08 -7.413628e-07 5.117809e-06 1.536267e-07 6.414515e-06 -1.977866e-06
-1.104715e-06 1.665578e-07 8.162571e-06 -1.563770e-07 8.096902e-06 -2.267440e-06
-1.301910e-06 1.313728e-06 8.025551e-06 -8.983600e-07 8.714027e-06 -3.230123e-06
-1.322571e-07 -3.197303e-06 1.884845e-05 7.063295e-07 1.477189e-05 -7.353064e-06
-1.658184e-07 -3.045524e-06 1.549668e-05 2.930527e-07 1.456174e-05 -8.219280e-06
-5.634778e-07 -2.962559e-06 1.908551e-05 4.120862e-07 1.450260e-05 -7.255282e-06
-2.578594e-06 -3.201958e-06 1.454433e-05 -3.216100e-07 1.555933e-05 -4.186350e-06
-3.022972e-06 -3.583134e-06 1.506415e-05 4.509434e-07 1.550130e-05 -4.838696e-06
4.357262e-08 -2.888816e-06 2.088887e-05 -1.027336e-06 1.874553e-05 -1.261485e-05
-2.236948e-07 -4.474859e-07 6.763882e-06 -5.293875e-07 2.021936e-05 -9.960962e-06
-7.127011e-07 1.859918e-06 9.312691e-06 -4.856290e-07 9.825831e-06 -2.403657e-06
-1.123461e-06 3.280162e-06 6.549271e-06 -1.643857e-08 8.742983e-06 -1.033924e-06
-1.621090e-06 2.347381e-06 9.446467e-06 -1.855549e-07 1.013001e-05 -1.968912e-06
-2.700109e-06 3.196096e-06 6.205450e-06 -4.211829e-07 9.007778e-06 6.680283e-07
-3.494093e-06 3.208886e-06 8.858028e-06 -3.251934e-07 9.662765e-06 -1.255803e-06
-3.694537e-06 3.203698e-06 6.727111e-06 -2.237518e-07 9.317828e-06 -6.016138e-07
-1.738346e-06 2.578050e-06 3.399328e-06 -1.743337e-07 1.127148e-05 -3.087171e-06
-5.939810e-07 -1.261417e-06 9.814417e-06 7.590001e-08 1.041806e-05 -2.142857e-06
-6.055870e-07 -6.399097e-07 5.903623e-06 2.746435e-07 1.040229e-05 -9.822171e-07
-5.909447e-07 -6.461832e-07 9.886778e-06 3.138830e-07 1.017449e-05 -2.283361e-06
-1.723454e-06 -6.757408e-07 1.052865e-05 5.460868e-07 1.018501e-05 -1.697761e-06
-1.354298e-06 1.821213e-06 8.090866e-06 -4.596573e-07 9.135925e-06 -1.596874e-06
-1.827581e-06 4.566205e-07 8.049602e-06 4.602211e-07 8.851102e-06 -1.456544e-06
-8.355034e-07 -8.032450e-07 7.087649e-06 6.234911e-07 7.712521e-06 -1.048405e-06
-4.589681e-07 -3.473656e-06 1.901429e-05 4.167543e-07 1.348819e-05 -5.251477e-06
-1.140929e-06 -3.936150e-06 2.383179e-05 1.609633e-06 1.105476e-05 -4.062625e-06
-2.394971e-06 -3.725692e-06 1.879367e-05 -3.327812e-07 1.438137e-05 -1.666213e-06
-2.306448e-06 -3.141492e-06 2.172135e-05 8.618074e-07 1.173576e-05 -2.459410e-06
-2.704972e-06 -3.698168e-06 1.281964e-05 1.433281e-06 1.912050e-05 -5.947005e-06
-2.059030e-06 -5.141978e-06 3.313517e-05 1.550397e-06 1.669012e-05 -9.749501e-06
-3.861515e-06 -4.227597e-06 2.035253e-05 1.331382e-06 1.314586e-05 -1.886693e-06
-7.845088e-07 2.042753e-06 6.391999e-06 -3.831672e-07 8.843201e-06 -7.251539e-07
-7.208319e-07 3.024638e-06 6.281785e-06 -3.761936e-07 9.032799e-06 -8.618139e-07
-1.953180e-06 2.035732e-06 7.225362e-06 -4.831508e-07 8.778947e-06 -1.037941e-06
-1.881389e-06 3.179473e-06 7.448274e-06 -1.956451e-07 9.492641e-06 -8.482012e-07
-2.012067e-06 2.540758e-06 6.977940e-06 -4.074700e-07 9.470735e-06 -6.445731e-07
-1.889502e-06 3.092173e-06 6.677622e-06 -1.474907e-07 9.392495e-06 -6.831694e-07
-1.857633e-06 3.099449e-06 8.679663e-06 -2.733505e-07 9.821816e-06 -1.035024e-06
-1.343581e-07 -1.809638e-07 7.775664e-06 -6.182671e-07 8.169830e-06 2.388457e-07
1.070246e-07 -3.762977e-07 8.031156e-06 -5.487945e-07 8.347955e-06 3.599834e-07
-1.412357e-06 -1.758326e-07 8.458154e-06 -6.004920e-07 8.243000e-06 -2.029829e-07
9.122418e-08 -2.022096e-07 8.060753e-06 -4.923116e-07 8.429178e-06 3.695080e-07
8.914808e-08 -9.625165e-07 4.589508e-06 -3.207248e-07 6.145944e-06 1.237022e-06
1.248538e-07 2.849057e-07 1.040105e-05 1.810577e-07 8.841468e-06 2.274570e-06
-1.678637e-06 1.276598e-06 8.759169e-06 -4.651023e-07 9.123312e-06 1.337433e-07
-9.802437e-07 -4.710274e-07 9.312133e-06 9.525604e-08 8.420026e-06 -2.226879e-06
-1.273199e-06 -6.360617e-07 9.247447e-06 2.314090e-08 7.653846e-06 -2.387283e-06
-1.028810e-06 1.451718e-07 8.307333e-06 1.262246e-08 8.132472e-06 -1.927668e-06
-1.160618e-06 -9.015593e-07 6.832942e-06 -6.583747e-07 6.611817e-06 -3.370658e-06
-1.187192e-06 2.375704e-07 1.014817e-05 -5.483577e-07 8.640008e-06 -3.279692e-06
-1.219098e-06 -6.977471e-07 7.948430e-06 4.139646e-07 8.702641e-06 -2.203787e-06
-1.289196e-06 -1.024601e-06 8.938369e-06 1.276008e-07 7.259904e-06 -2.314415e-06
-6.801002e-07 -9.215885e-08 9.475462e-06 -7.376923e-07 9.187250e-06 -2.584612e-06
-1.270548e-06 -9.820328e-07 9.401643e-06 2.713815e-07 8.724277e-06 -2.363781e-06
1.001931e-06 -5.050619e-06 1.646071e-05 -3.840268e-07 1.395425e-05 2.116437e-06
1.349910e-06 -4.155332e-06 1.660025e-05 -1.009786e-06 1.360033e-05 2.358096e-06
1.354985e-06 -5.209019e-06 2.652104e-06 -1.126954e-06 2.309082e-05 2.275419e-06
8.073993e-07 -5.866779e-06 2.282838e-05 -5.233982e-07 1.993612e-05 5.639253e-06
-2.031771e-07 -1.173150e-07 7.915002e-06 -5.551513e-07 9.289789e-06 -1.669987e-06
-1.372664e-07 -1.341430e-06 1.097815e-05 -5.959902e-08 8.145777e-06 -2.517305e-06
-3.577617e-07 1.358501e-06 7.963472e-06 -1.957884e-07 8.876265e-06 -1.898417e-06
4.447319e-08 -1.232112e-06 1.295910e-05 -7.256980e-07 7.654507e-06 -4.615766e-07
-5.437432e-07 1.064828e-06 8.289785e-06 5.371525e-08 8.434578e-06 -1.683636e-06
-5.437754e-07 -1.291163e-06 1.349515e-05 2.491071e-08 1.098253e-05 -1.602018e-06
1.986679e-07 -1.139513e-06 1.251995e-05 -9.194753e-07 9.330650e-06 -1.187931e-06
-2.995810e-07 1.157491e-06 4.982710e-06 4.023281e-08 6.963657e-06 3.022487e-07
-3.179457e-07 9.932462e-07 5.139453e-06 1.562832e-08 7.560142e-06 1.635457e-06
-1.086001e-06 1.678966e-06 5.178202e-06 4.536975e-07 7.483260e-06 1.150123e-07
-9.085158e-07 1.812748e-06 5.862836e-06 2.948762e-07 6.759790e-06 1.162847e-06
-9.242542e-07 1.685189e-06 3.122510e-06 3.998494e-07 6.166834e-06 1.617155e-06
-1.027461e-06 2.849892e-06 4.331665e-06 -1.940767e-07 7.392793e-06 8.103148e-07
-1.164019e-06 2.231185e-06 3.978556e-06 4.829876e-07 8.259881e-06 5.832512e-07
1.632376e-07 -7.149891e-07 6.095227e-06 -6.267990e-08 7.527289e-06 1.108253e-06
1.134376e-07 -5.395209e-07 6.212612e-06 -1.276072e-07 7.071505e-06 2.329112e-06
2.123752e-07 -5.645061e-07 5.957684e-06 2.706951e-08 7.156007e-06 8.188104e-07
-1.102695e-06 -5.766859e-07 6.339734e-06 1.561727e-07 7.229977e-06 2.454133e-07
-1.167290e-06 9.383646e-07 5.505489e-06 4.105301e-07 7.395341e-06 5.755826e-07
2.625548e-07 8.533446e-08 6.389130e-06 3.482933e-07 6.721823e-06 1.951316e-06
3.455335e-07 -1.019068e-06 4.239616e-06 -2.127769e-08 5.106170e-06 1.620985e-06
-7.000694e-08 2.478785e-07 5.456525e-06 -1.509019e-08 8.683629e-06 -5.247796e-07
1.606633e-07 -7.409735e-07 6.683142e-06 -1.357962e-07 8.938246e-06 6.165575e-07
-9.133985e-07 1.720250e-07 7.140166e-06 4.768689e-07 8.826417e-06 6.899172e-07
4.923469e-07 1.724276e-07 6.683592e-06 4.161066e-07 8.800502e-06 5.393629e-07
1.827123e-07 1.313582e-06 3.544036e-06 5.097947e-07 1.088590e-05 -7.745476e-07
-6.857943e-07 1.165640e-06 5.185918e-06 -2.077860e-07 1.044118e-05 -1.422578e-07
-7.428473e-07 6.955879e-07 5.516185e-06 6.111074e-08 9.637033e-06 7.240710e-07
-2.284254e-06 1.607205e-06 5.997780e-06 -2.557776e-07 6.697392e-06 3.742495e-06
-2.457731e-06 2.087917e-06 5.514245e-06 -2.478534e-07 7.169481e-06 4.155781e-06
-3.069230e-06 1.794814e-06 8.322459e-06 2.025343e-07 7.338941e-06 3.411477e-06
-4.005147e-06 2.572034e-06 7.521491e-06 7.146913e-07 5.891734e-06 4.567674e-06
-1.041713e-06 1.703903e-06 5.839867e-06 -4.137649e-07 3.141386e-06 1.584425e-06
-6.472421e-07 4.015401e-07 7.855569e-06 -7.294763e-07 3.585391e-06 2.679164e-06
-1.742790e-06 1.716492e-06 6.133157e-06 -7.185009e-08 2.941996e-06 1.517983e-06
-1.015545e-06 8.016118e-07 5.787741e-06 1.922924e-07 3.746903e-06 7.457195e-07
-1.292253e-06 1.342165e-06 3.753269e-06 7.828064e-08 4.482900e-06 1.546134e-06
-2.515536e-06 2.158275e-06 6.144927e-06 1.338387e-08 3.065184e-06 1.954506e-06
-1.782865e-06 1.726325e-06 7.086972e-06 -6.519804e-08 3.242141e-06 1.116166e-06
-1.080928e-06 -7.720797e-07 7.146612e-06 -4.774349e-07 5.274118e-06 1.476289e-06
-1.522080e-06 1.071146e-07 7.076486e-06 -6.310575e-07 5.641919e-06 1.735793e-06
-1.534560e-06 -9.362658e-07 5.799951e-06 -8.149563e-07 2.987052e-06 1.598331e-06
-1.642095e-06 5.698457e-07 5.584031e-06 -1.102018e-07 4.068714e-06 1.445580e-06
-3.299652e-07 -1.625464e-07 4.813813e-06 -7.975724e-07 4.531638e-06 1.783662e-06
-1.578353e-07 -6.897773e-07 4.807962e-06 -1.036146e-06 5.531428e-06 2.732843e-06
-9.544803e-07 -2.456454e-07 5.546150e-06 -2.455667e-07 4.344935e-06 1.151936e-06
-1.460859e-07 -1.593628e-07 5.636806e-06 -8.250214e-07 3.900161e-06 1.533322e-06
-1.957925e-07 -9.805891e-07 4.510808e-06 -5.863832e-07 2.711549e-06 1.986756e-06
-1.961368e-07 5.699914e-07 4.508443e-06 8.196762e-09 4.002506e-06 1.985838e-06
-1.268291e-06 1.364657e-06 4.461298e-06 -1.079522e-07 4.070996e-06 1.735460e-06
-6.417951e-07 1.549356e-06 3.730328e-06 4.275463e-08 7.080383e-06 8.421235e-07
-5.715310e-07 1.973697e-06 3.575015e-06 2.242599e-07 7.666417e-06 1.177120e-06
-9.962838e-07 2.496472e-06 3.302760e-06 6.821199e-07 6.655007e-06 1.648002e-06
-1.185883e-06 3.177661e-06 4.102943e-06 6.337282e-08 7.463064e-06 5.689981e-07
5.928243e-08 -8.122319e-07 6.308012e-06 -2.675134e-07 5.457636e-06 4.964549e-07
-1.266596e-07 -1.094734e-09 6.328062e-06 -2.392678e-07 5.926540e-06 7.293960e-07
2.309708e-07 -1.544191e-06 6.333182e-06 -2.973781e-07 5.883935e-06 6.801955e-07
2.959730e-07 -1.072773e-06 4.868211e-06 -2.068978e-08 3.376606e-06 4.091980e-07
-6.032789e-07 2.277251e-07 6.986793e-06 -5.775162e-07 3.799768e-06 8.464339e-07
-1.295479e-07 1.879176e-07 8.415533e-06 -1.263301e-06 5.664828e-06 1.669235e-06
-1.111311e-06 1.308253e-07 6.285168e-06 -9.233856e-07 5.776119e-06 2.536503e-06
-1.652968e-06 1.098880e-07 8.198002e-06 -7.898493e-07 5.870504e-06 1.083082e-06
-1.739354e-06 -1.336783e-07 9.444889e-06 -4.318683e-07 5.415503e-06 7.915547e-07
-1.547194e-06 8.399317e-07 9.649978e-06 -1.235405e-06 4.124020e-06 2.700236e-06
-1.440749e-06 1.560838e-06 8.602068e-06 -8.717622e-07 3.797188e-06 2.838822e-06
-1.815366e-06 -7.996213e-07 7.706740e-06 2.995151e-07 8.942633e-06 1.717606e-06
-3.143937e-06 -1.308010e-06 1.048074e-05 1.330035e-06 7.290016e-06 2.578790e-06
-3.156422e-06 1.220110e-06 6.493070e-06 1.211462e-06 1.073800e-05 2.813094e-06
-3.740990e-06 9.508075e-07 9.496532e-06 6.327954e-07 9.934828e-06 2.973283e-06
-1.022626e-07 -5.067975e-07 2.800710e-06 -1.535616e-06 9.794345e-06 4.880842e-06
-5.937429e-07 -9.842937e-07 6.817407e-06 -6.729446e-07 8.291161e-06 4.541160e-06
-6.494247e-07 5.378563e-07 7.345636e-06 -8.209132e-07 7.035915e-06 4.851643e-06
-7.640058e-07 1.561957e-06 1.049146e-06 -9.471869e-07 1.174440e-05 6.178173e-06
-9.340562e-08 2.585233e-07 5.085939e-06 4.371975e-08 6.795719e-06 1.724283e-06
-2.087810e-07 1.185130e-06 4.964042e-06 1.987013e-07 7.120265e-06 1.961009e-06
-1.198501e-06 1.095925e-06 5.909547e-06 5.329984e-07 7.686460e-06 9.319302e-07
-6.717430e-07 -4.759221e-07 5.929013e-06 -4.759047e-07 6.108249e-06 1.291424e-06
-2.033780e-06 3.115749e-07 9.375817e-06 -2.986127e-07 3.520441e-06 1.960225e-06
-2.246533e-06 6.559963e-07 9.200742e-06 -3.886221e-07 4.143815e-06 2.352243e-06
-2.404589e-06 1.310144e-06 4.844191e-06 3.110479e-07 4.490573e-06 6.944732e-07
-2.631887e-06 2.127220e-06 8.624224e-06 6.222856e-07 2.733132e-06 2.198049e-08
-6.733898e-07 2.206136e-06 3.688536e-06 -1.048899e-07 2.525746e-06 1.308819e-06
-3.434026e-07 1.856917e-06 2.243469e-06 1.205965e-08 3.151647e-06 1.180480e-06
-4.814372e-07 2.122680e-06 2.662497e-06 5.201579e-07 2.963076e-06 5.169599e-07
-1.971254e-07 1.563106e-06 2.519297e-06 7.062291e-07 2.493894e-06 9.672728e-07
-3.822119e-07 1.622947e-06 2.683328e-06 7.207590e-07 2.346887e-06 7.387660e-07
-8.573324e-07 2.480378e-06 1.739470e-06 5.914478e-07 3.185248e-06 1.546302e-06
-3.512188e-07 2.050790e-06 8.819664e-07 6.361971e-07 3.991632e-06 8.833781e-07
-1.653705e-07 -1.363438e-09 3.163890e-06 -1.839840e-07 3.631839e-06 1.471364e-06
4.682535e-08 6.415382e-08 2.320328e-06 -2.707870e-08 3.674363e-06 1.491328e-06
-1.329362e-07 8.164417e-08 3.020323e-06 -1.310041e-07 2.804596e-06 8.357763e-07
2.755317e-08 -1.334893e-08 3.261291e-06 4.655688e-07 3.155699e-06 1.082669e-06
-1.944208e-07 1.470082e-06 2.303668e-06 5.976615e-07 2.932454e-06 1.544125e-06
2.946770e-07 9.421943e-07 2.581729e-06 5.836718e-07 3.444954e-06 9.415557e-07
-2.830581e-08 -3.993333e-07 3.020050e-06 -1.414336e-07 2.666333e-06 7.684434e-07
-2.275820e-07 -1.623479e-08 5.056733e-06 -1.108088e-07 2.948173e-06 5.063445e-07
-4.366824e-08 -2.792239e-07 3.557103e-06 1.509881e-07 2.340754e-06 5.256474e-07
-1.919323e-07 -1.053469e-07 5.177699e-06 3.430772e-07 3.199757e-06 6.218222e-07
-1.279363e-07 -7.507060e-08 4.013375e-06 1.851456e-07 3.269041e-06 1.262988e-06
-2.849515e-07 5.539998e-07 3.236906e-06 2.214365e-07 3.621630e-06 8.896453e-07
-2.758774e-07 4.860302e-07 5.454325e-06 1.986463e-07 3.114226e-06 4.026812e-07
-3.917772e-07 1.830487e-07 5.372690e-06 4.884653e-07 2.956908e-06 5.503465e-07
-4.347799e-07 -4.328339e-07 5.180606e-06 9.555168e-07 2.841265e-06 1.431267e-06
-4.990661e-07 4.123022e-07 3.436356e-06 9.564029e-07 4.165894e-06 9.370714e-07
-5.067159e-07 6.049161e-07 5.780935e-06 9.692559e-07 3.425655e-06 8.224387e-07
-1.251828e-06 -1.894182e-07 6.943618e-06 1.835769e-06 3.228777e-06 1.529612e-06
-5.576386e-07 -3.861710e-07 3.610574e-06 -1.405160e-07 9.670516e-07 9.739472e-07
-6.293809e-07 -4.392450e-07 4.827077e-06 -3.828052e-07 1.686892e-06 1.436312e-06
-8.858092e-07 -3.672755e-07 3.603151e-06 -2.475140e-07 9.755702e-07 8.231403e-07
-5.725292e-07 -3.586144e-07 3.023471e-06 -3.148238e-07 9.120167e-07 8.485645e-07
-4.946868e-07 -9.962324e-07 2.806180e-06 -2.602993e-07 5.185054e-07 8.362859e-07
-2.420623e-07 -5.725323e-07 4.500384e-06 6.687262e-08 1.405446e-06 1.522468e-06
-1.198260e-06 -1.548276e-07 4.275016e-06 1.210415e-07 1.439476e-06 1.058106e-06
-5.646143e-07 -1.329901e-07 3.118543e-06 -1.890437e-07 7.194807e-07 1.326447e-07
-5.917645e-07 4.001015e-08 3.377914e-06 -5.317382e-07 1.384199e-06 2.166936e-07
-6.773255e-07 -1.049234e-08 3.574468e-06 -2.303280e-07 1.865075e-06 8.862354e-07
-5.928464e-07 -5.486001e-08 3.895501e-06 2.769937e-08 1.705779e-06 6.229335e-07
-1.156561e-06 -3.027023e-07 4.651935e-06 6.205632e-07 8.207931e-07 9.105481e-07
-4.692888e-07 3.310410e-07 4.741546e-06 -1.100953e-07 1.061518e-06 6.498501e-07
-7.641342e-07 5.410545e-07 4.118430e-06 -2.556224e-07 1.158992e-06 1.096563e-06
-1.148956e-06 1.478625e-06 3.293586e-06 6.812637e-07 2.750084e-06 2.638165e-06
-1.030675e-06 1.507567e-06 2.539158e-06 1.005450e-06 1.760466e-06 2.577007e-06
-7.371667e-07 2.066504e-06 2.441658e-06 1.434675e-06 2.974629e-06 3.195149e-06
-1.794607e-06 2.063048e-06 3.531255e-06 1.624860e-06 2.828539e-06 2.966928e-06
-2.562270e-07 -1.774830e-07 4.878286e-06 -3.588186e-07 3.417093e-06 1.714536e-06
-7.893617e-07 1.447616e-07 4.771504e-06 2.720699e-07 4.823444e-06 2.201925e-06
-4.111719e-07 -5.431018e-07 4.998638e-06 -1.172854e-07 3.346691e-06 1.736184e-06
-4.348460e-07 5.573147e-07 1.742389e-06 2.118164e-07 4.332963e-06 2.742144e-06
-5.598597e-07 -5.184740e-07 4.694663e-06 6.051975e-07 4.570403e-06 2.417438e-06
-3.945559e-07 -1.851846e-07 3.030409e-06 -2.305547e-07 2.601567e-06 2.232144e-06
-3.948772e-07 6.421790e-07 3.172955e-06 -2.240476e-07 5.146509e-06 2.305669e-06
-1.315960e-06 -2.788902e-07 5.518303e-06 3.870864e-07 3.810845e-06 1.879054e-06
-7.030786e-07 2.409464e-07 5.236088e-06 -3.126972e-07 3.663063e-06 2.404667e-06
-1.131708e-06 4.474499e-07 3.421310e-06 3.185984e-07 1.150093e-06 6.391625e-07
-1.218578e-06 9.033030e-07 3.834099e-06 -1.999651e-08 2.015908e-06 6.662549e-07
-1.134571e-06 8.126984e-07 3.101210e-06 5.874350e-07 1.623876e-06 1.421039e-06
-1.147837e-06 1.181223e-06 2.767604e-06 2.266781e-07 2.110463e-06 3.466659e-07
-1.283510e-06 1.177046e-06 3.148029e-06 2.571199e-07 2.085090e-06 7.462133e-07
-2.056364e-06 9.112371e-07 6.136096e-06 7.120887e-07 1.975074e-06 1.068189e-06
-1.356349e-06 7.821002e-07 5.257406e-06 6.811224e-07 1.638160e-06 1.002126e-06
-1.256527e-07 -4.496542e-07 4.357458e-06 -3.365831e-07 1.812349e-06 1.951078e-08
-1.881649e-07 -7.911178e-07 3.830299e-06 -2.723556e-07 1.268018e-06 -1.869143e-07
-1.916757e-07 -5.480658e-07 4.062319e-06 -2.405303e-07 1.591594e-06 1.604963e-07
-4.391930e-07 -9.465005e-07 2.264517e-06 -5.781195e-07 6.000787e-07 -8.402030e-07
-3.590223e-07 -4.956559e-07 4.010989e-06 -3.535106e-07 1.514989e-06 -3.252727e-07
-9.102283e-08 -7.364541e-07 2.753633e-06 -3.116273e-07 2.397579e-06 -5.759485e-08
-9.299679e-08 -9.868518e-07 3.209164e-06 -3.356580e-07 9.142487e-07 -2.553670e-07
-8.496531e-07 -6.402802e-07 3.706881e-06 -6.248159e-07 1.971463e-06 6.753432e-07
-1.855167e-07 -8.921735e-07 4.285273e-06 -4.329449e-07 2.161894e-06 -2.347716e-07
-3.671860e-07 -2.807854e-07 3.085914e-06 6.998002e-08 6.374472e-07 1.001059e-06
-2.326114e-07 1.052506e-08 2.616974e-06 -2.116608e-07 1.567023e-07 2.645742e-07
-5.630577e-07 -2.702412e-08 2.033887e-06 3.966984e-08 1.777482e-08 3.597120e-07
-7.259609e-07 -4.083330e-08 2.542428e-06 1.337297e-07 8.538451e-08 5.325357e-07
-7.118429e-07 -1.025683e-07 3.254303e-06 4.278853e-07 3.481378e-07 8.902333e-07
-2.763025e-07 -9.291145e-08 3.352544e-06 1.587148e-07 5.339451e-07 6.681168e-07
-4.780996e-07 -2.055314e-07 2.308430e-06 -1.600132e-08 1.602957e-07 2.048257e-07
-2.430756e-07 -1.830727e-07 1.995246e-06 -9.115048e-08 3.559659e-07 -7.158806e-08
-2.657713e-07 -2.411687e-07 1.308566e-06 -1.183910e-07 1.269918e-07 -3.326439e-07
-5.293193e-09 -2.463903e-07 2.100275e-06 2.721128e-07 5.943112e-07 8.645529e-08
-3.107378e-07 -1.761062e-07 2.137046e-06 -1.293589e-07 9.391690e-07 1.906322e-07
-4.655448e-07 1.555745e-08 2.355122e-06 1.825127e-09 6.329274e-07 2.385983e-07
-1.499074e-07 2.602050e-07 2.041404e-06 3.171605e-07 5.704608e-07 -1.494106e-08
-5.179090e-07 -1.089060e-07 2.161150e-06 7.570319e-07 4.857530e-07 -6.143972e-08
-9.191719e-07 2.716551e-07 2.685873e-06 5.668892e-07 9.305565e-07 5.197411e-07
-6.572005e-07 -2.124665e-07 2.602737e-06 3.148017e-07 6.242742e-07 4.987049e-08
-8.073988e-07 3.718356e-07 2.356984e-06 8.730949e-07 1.197318e-06 4.096442e-07
-2.423576e-07 1.947246e-07 2.271502e-06 8.194410e-07 9.259803e-07 7.655673e-07
-6.118889e-07 2.375108e-07 2.472670e-06 9.804322e-07 8.274817e-07 2.369774e-07
-1.287332e-06 2.644812e-07 3.188410e-06 1.105663e-06 9.674269e-07 7.723681e-07
-7.651692e-07 3.970639e-07 2.845189e-06 8.213792e-07 1.076551e-06 7.329260e-07
-9.808025e-08 9.667716e-07 5.507637e-07 2.428329e-07 -2.087844e-07 -3.331040e-07
-7.482946e-07 3.523146e-07 1.731782e-06 9.186309e-07 -1.503875e-07 -7.296079e-07
-4.087783e-07 8.789158e-07 1.313476e-06 4.451717e-07 -6.565095e-07 -5.537677e-07
-4.697803e-07 1.915675e-06 6.208408e-07 6.930505e-07 -5.865234e-07 -2.474323e-07
-1.773324e-07 -2.236499e-07 1.301247e-06 -1.174207e-07 -6.421441e-07 -7.647711e-07
-2.124588e-07 -1.446230e-07 1.869244e-06 -3.276284e-07 -4.756864e-07 -5.793060e-07
-2.831289e-07 -1.612904e-07 1.172971e-06 -1.705024e-07 -4.987404e-08 -3.369033e-07
-9.416965e-08 -1.853692e-07 1.583010e-06 4.867985e-08 -1.745181e-07 -7.204636e-07
-4.074107e-07 -2.539084e-07 2.125890e-06 3.753387e-07 -5.421443e-07 -7.367881e-07
-1.272330e-07 1.106577e-07 2.116814e-06 -5.609808e-09 -5.945700e-07 -6.377498e-07
-3.414201e-07 9.671582e-08 1.542774e-06 -1.624762e-07 -3.961179e-07 -2.731567e-07
3.026265e-08 -3.245814e-07 2.288051e-06 3.608916e-07 4.848259e-07 3.806219e-07
-1.362310e-07 -5.782969e-08 1.631239e-06 4.205820e-07 1.028814e-06 -6.125249e-08
-1.339146e-07 3.530305e-07 1.608774e-06 6.687595e-07 6.509106e-07 -5.232276e-07
2.837745e-07 -2.687445e-07 2.095027e-06 1.180442e-06 7.167871e-07 6.576300e-08
-1.010509e-06 -2.325492e-07 2.990847e-06 7.645050e-07 1.039003e-06 8.990581e-08
-9.594094e-07 2.722790e-07 1.921277e-06 1.042540e-06 7.700267e-07 -4.100138e-07
-1.038648e-06 3.111209e-07 2.753828e-06 1.249808e-06 9.513694e-07 4.284300e-07
-1.207495e-06 1.885009e-07 3.402898e-06 1.575136e-06 1.505308e-06 4.379654e-07
-2.434295e-07 -2.848353e-08 9.812478e-07 -8.663924e-08 -3.696609e-07 -1.249161e-07
-3.127741e-07 -7.883055e-08 1.620933e-06 -2.296188e-07 -3.074804e-07 5.376003e-08
-4.725153e-08 -5.983792e-08 9.954937e-07 1.046308e-07 -3.905173e-07 -1.934564e-07
-2.530769e-07 -1.583322e-08 1.113112e-06 -1.665471e-07 -7.529093e-07 -2.798855e-07
-2.429716e-07 -2.665151e-07 1.067110e-06 -1.220902e-07 -8.668300e-07 -2.494953e-07
4.332509e-08 2.445030e-07 1.317574e-06 2.605218e-07 -3.050583e-07 1.631143e-07
-3.224107e-07 3.330430e-07 1.094749e-06 3.607641e-07 -1.803833e-07 -1.326714e-07
-1.572490e-07 -2.092441e-07 2.373512e-06 -3.112321e-07 6.883193e-07 2.543974e-07
-3.164087e-07 -1.669141e-07 2.015977e-06 5.535776e-10 1.368410e-06 3.696513e-07
-2.592560e-07 -5.553302e-07 2.249998e-06 -1.127747e-07 8.950897e-07 1.353257e-07
-2.514746e-07 -2.985211e-09 1.338916e-06 1.020836e-07 1.075197e-06 4.765113e-07
-2.673740e-07 -5.694785e-07 2.015368e-06 2.184758e-07 1.408269e-06 3.244653e-07
-2.368574e-07 -2.325594e-07 1.555344e-06 -2.043280e-07 5.114578e-07 3.082366e-07
-2.280992e-07 4.015224e-08 1.417277e-06 -1.532628e-07 1.456354e-06 4.327994e-07
-5.644177e-07 -4.578419e-07 2.304445e-06 1.650466e-07 1.113009e-06 6.743796e-08
-3.360982e-07 -5.998830e-08 2.273024e-06 -2.139215e-07 8.991929e-07 4.104325e-07
-1.007382e-06 8.127836e-07 1.549578e-06 6.536865e-07 -5.877969e-07 7.728945e-08
-1.053045e-06 7.403517e-07 3.664382e-06 7.116705e-07 -1.230989e-06 5.152766e-07
-8.992236e-07 1.189587e-06 8.755981e-07 1.322132e-06 -5.110407e-07 -1.386042e-07
-1.368562e-06 1.406539e-06 2.101053e-06 1.421414e-06 -1.027445e-06 -3.311430e-07
-6.373187e-07 4.424288e-07 1.096573e-06 2.508737e-07 -6.125807e-07 -3.786979e-07
-6.022863e-07 4.310088e-07 1.637948e-06 -1.798879e-08 -5.633916e-07 -2.575325e-07
-5.538215e-07 6.358684e-07 8.323038e-07 5.083302e-07 -6.196677e-07 -1.262987e-07
-2.141256e-07 6.608771e-07 5.915412e-07 3.825578e-07 -3.551770e-07 -5.132621e-07
-3.353229e-07 6.671562e-07 8.500082e-07 3.561241e-07 -1.681194e-07 -1.892487e-07
-9.510024e-07 6.627934e-07 2.000383e-06 5.894517e-07 -4.133911e-07 -3.843792e-07
-6.644872e-07 5.911620e-07 1.589994e-06 5.877406e-07 -5.866110e-07 -3.391835e-07
-8.361948e-08 -9.217440e-08 1.353695e-06 -1.539556e-07 -2.316929e-07 -7.037230e-07
-1.115879e-07 -2.736231e-07 9.997901e-07 -8.215343e-08 -8.436502e-07 -4.339819e-07
-3.288068e-07 2.978368e-07 1.273844e-06 1.268201e-07 -1.845028e-07 -6.120466e-07
-1.396921e-07 -4.992346e-07 2.117336e-06 9.188036e-08 -5.443977e-07 -1.065759e-06
-1.918011e-07 -1.337047e-07 6.227950e-07 -9.439428e-08 -7.146943e-07 -8.747925e-07
-2.446612e-07 -1.214229e-07 2.343351e-07 -8.073970e-08 -7.126129e-07 -9.371750e-07
1.506722e-07 -1.612991e-07 5.214115e-07 1.534089e-07 -5.619290e-07 -8.641528e-07
-2.661142e-07 -1.328887e-07 5.038144e-07 -9.999982e-08 -3.458669e-07 -6.827841e-07
-3.326980e-07 1.413054e-08 6.926096e-07 -5.795362e-08 -6.226195e-07 -6.003425e-07
-4.363604e-08 2.443543e-07 5.412271e-07 2.282477e-07 -7.247509e-07 -8.418692e-07
-1.069017e-07 1.641668e-08 6.229613e-07 4.277572e-07 -7.230211e-07 -9.387956e-07
-2.618720e-07 -1.598225e-08 7.228234e-07 -4.191011e-08 -4.562155e-07 -3.615668e-07
-2.981159e-07 6.229861e-08 4.910907e-07 -6.160814e-08 -6.010575e-07 -7.013663e-07
-2.660297e-07 5.512497e-08 4.037741e-07 -1.734299e-08 -7.897051e-07 -6.310995e-07
-2.579452e-07 2.868893e-08 4.409488e-07 1.501208e-07 -6.614016e-07 -6.040085e-07
-2.860319e-07 -6.570239e-08 7.541384e-07 3.054088e-07 -5.828901e-07 -4.398055e-07
-1.348417e-07 9.764989e-08 7.492567e-07 1.325008e-07 -5.469175e-07 -4.980706e-07
-2.743018e-07 1.069977e-10 6.631845e-07 4.194518e-09 -6.630873e-07 -6.900253e-07
-5.709518e-07 2.729566e-07 6.985428e-07 2.408703e-07 -4.987015e-07 -5.368791e-07
-4.303135e-07 -1.051599e-08 4.971343e-07 1.030618e-07 -5.381997e-07 -7.231624e-07
-2.095804e-07 3.283840e-07 3.833168e-07 5.286794e-07 -3.178019e-07 -6.105468e-07
3.988994e-08 2.598080e-07 3.200036e-07 4.816108e-07 -4.439656e-07 -4.790515e-07
-1.544008e-07 3.187628e-07 5.955260e-07 5.547846e-07 -5.847057e-07 -7.850290e-07
-5.625721e-07 3.306224e-07 9.014910e-07 6.713641e-07 -5.150703e-07 -5.004364e-07
-2.485115e-07 3.254550e-07 6.486925e-07 5.424356e-07 -4.047358e-07 -4.725580e-07
-2.625946e-07 1.998322e-07 3.249045e-07 5.622360e-07 -5.455257e-07 -5.458566e-07
-2.782269e-07 1.523036e-07 9.061969e-07 6.088270e-07 -8.558338e-07 -5.215288e-07
-6.214342e-08 6.107868e-07 1.004730e-07 9.269113e-07 -7.906898e-07 -4.151355e-07
-2.988686e-07 5.806199e-07 5.659552e-07 1.046677e-06 -8.310343e-07 -6.071279e-07
-4.407472e-08 3.889677e-07 -1.082885e-08 2.292658e-07 -6.732130e-07 -7.149341e-07
-1.641456e-07 1.816221e-07 2.196500e-07 5.441187e-07 -7.659661e-07 -8.861371e-07
-9.625211e-08 6.272085e-07 1.614626e-07 3.607896e-07 -8.365714e-07 -8.342254e-07
-1.252242e-07 9.830215e-07 -1.084615e-07 6.329258e-07 -8.744445e-07 -6.083242e-07
-1.735578e-07 -1.027353e-07 6.350936e-08 -2.566928e-07 7.990524e-09 -3.144339e-07
-2.289013e-07 -1.505611e-07 5.179130e-07 -1.673090e-07 -2.743979e-07 -2.735156e-07
-2.369285e-07 2.629021e-08 -4.001951e-07 -1.737717e-07 6.205175e-08 -1.723389e-07
-2.155666e-07 -3.103519e-07 -1.884215e-07 -1.477946e-07 2.977080e-07 -9.669905e-08
-5.777789e-07 1.849389e-08 3.466278e-07 2.400317e-08 -1.022745e-06 -6.764925e-07
-5.214798e-07 -4.399749e-08 4.585471e-07 -1.128999e-07 -9.599977e-07 -6.873309e-07
-2.852104e-07 1.174453e-07 1.148765e-07 2.029435e-07 -1.101255e-06 -7.229608e-07
-5.012100e-08 2.076418e-08 9.422461e-08 1.835351e-07 -8.931379e-07 -1.000759e-06
-2.449676e-07 8.032428e-08 -5.707886e-08 2.275048e-07 -8.730786e-07 -7.964033e-07
-4.507824e-07 9.480672e-08 8.852335e-07 2.770187e-07 -1.021927e-06 -8.358534e-07
-2.984075e-07 1.194116e-07 8.062768e-07 2.020694e-07 -1.048635e-06 -8.450314e-07
-3.685623e-07 -1.113992e-07 8.780220e-08 -1.820349e-07 -7.840859e-07 -6.082709e-07
-3.753308e-07 -9.743967e-08 -8.264853e-08 -2.651310e-07 -6.773230e-07 -6.258307e-07
-1.589600e-09 -1.342899e-07 1.831975e-07 -3.196627e-08 -8.750023e-07 -7.974942e-07
-4.016305e-07 -9.715604e-08 2.139593e-07 -2.822689e-07 -1.034119e-06 -8.906671e-07
-3.929873e-07 -1.874751e-07 2.780496e-07 -2.718690e-07 -1.023763e-06 -9.172047e-07
-1.469634e-07 8.544819e-08 8.511399e-08 -6.488684e-09 -8.759467e-07 -7.161852e-07
-2.589612e-07 4.304818e-09 1.193824e-07 1.111392e-07 -8.897169e-07 -6.499405e-07
3.067099e-07 -1.791167e-07 3.264164e-07 4.417820e-07 -3.658684e-07 -6.867514e-07
2.237170e-07 -4.238481e-08 1.685363e-07 4.534579e-07 -2.576817e-07 -8.205163e-07
1.410571e-07 3.222442e-07 1.973054e-07 6.492476e-07 -6.048521e-07 -1.244988e-06
8.920700e-07 -2.297637e-07 3.693441e-07 8.830452e-07 -4.530488e-07 -8.829914e-07
-3.072399e-07 -1.984022e-07 4.440924e-07 -2.315330e-07 -9.472687e-07 -8.535088e-07
-2.597334e-07 -2.355733e-07 5.936714e-07 -3.641984e-07 -7.653167e-07 -8.757027e-07
-1.126973e-07 3.310819e-08 2.444518e-07 -1.380499e-08 -9.190376e-07 -8.725240e-07
-3.704552e-07 -2.335218e-07 6.712900e-07 -2.876363e-07 -7.340988e-07 -7.967310e-07
-2.204521e-07 -4.637459e-08 7.259615e-07 1.276834e-07 -1.195762e-06 -8.362472e-07
-2.942905e-07 -1.434795e-07 6.990194e-07 -1.515749e-07 -7.920559e-07 -7.726732e-07
-3.948295e-07 -1.468585e-07 9.730086e-07 -2.795560e-07 -9.578285e-07 -7.343339e-07
-2.342545e-07 -1.466262e-07 5.905530e-07 8.006815e-08 -9.945007e-07 -1.039817e-06
-2.304223e-07 -2.342477e-07 3.377579e-07 5.539085e-08 -1.346280e-06 -1.027078e-06
-1.138614e-07 1.672518e-07 9.083005e-08 2.938042e-07 -1.033165e-06 -7.303185e-07
-1.827962e-07 -8.538970e-08 5.578060e-07 4.883973e-07 -8.822888e-07 -1.058882e-06
-2.891333e-07 -1.175834e-07 5.881393e-07 -1.247570e-07 -1.092705e-06 -1.055411e-06
-2.633582e-07 -2.076418e-07 4.616888e-07 -1.328567e-07 -1.445554e-06 -9.046927e-07
-4.931865e-07 1.059842e-07 6.571041e-07 3.295038e-08 -1.047240e-06 -9.108282e-07
-3.016163e-07 -2.313192e-07 8.287945e-07 -1.023822e-07 -1.224709e-06 -1.237318e-06
-2.393639e-07 4.835495e-08 4.784765e-07 5.365651e-07 -1.777798e-07 -6.534163e-07
-2.265704e-07 4.048221e-07 2.289773e-07 7.549177e-07 -5.532893e-07 -1.162764e-06
-3.973158e-07 4.391841e-07 5.028484e-07 9.007077e-07 -4.562763e-07 -7.469467e-07
-2.981805e-07 3.694185e-07 6.558749e-07 1.069912e-06 -2.500604e-08 -5.944533e-07
-3.655028e-07 -3.146537e-07 8.975645e-07 2.614345e-07 -1.052786e-06 -1.122203e-06
-2.452415e-07 8.157808e-09 -2.293087e-08 4.683284e-07 -8.928787e-07 -9.086483e-07
-5.997528e-07 6.331587e-08 1.436444e-06 6.309284e-07 -1.262633e-06 -1.156263e-06
-2.979343e-07 7.808907e-08 1.065556e-06 5.402350e-07 -1.237692e-06 -9.848854e-07
-3.331655e-07 -1.773501e-07 7.527385e-08 7.151974e-08 -1.046532e-06 -7.774445e-07
-4.430236e-07 -2.265839e-07 2.115179e-07 8.337652e-08 -9.019452e-07 -8.725800e-07
-9.294513e-08 -6.317124e-08 1.494084e-08 2.374731e-07 -1.062831e-06 -8.089892e-07
-3.748221e-07 3.500417e-08 -3.666510e-09 2.239043e-07 -1.035596e-06 -8.989151e-07
-3.811037e-07 -1.960899e-09 2.247246e-07 2.402327e-07 -1.132492e-06 -8.773061e-07
-3.455989e-07 -7.834270e-08 1.480325e-07 3.345992e-07 -9.533774e-07 -8.700836e-07
-1.142799e-07 -6.313111e-08 -2.752521e-08 2.476908e-07 -1.009116e-06 -8.690098e-07
-2.490822e-07 -1.347335e-07 4.488144e-08 -3.239445e-08 -1.028357e-06 -7.414032e-07
-2.847975e-07 -1.920798e-07 3.565782e-07 -1.019955e-07 -1.016565e-06 -7.011294e-07
-2.001537e-07 -1.366788e-07 4.395132e-08 -7.593266e-09 -1.033048e-06 -7.431652e-07
-2.692867e-07 -1.318923e-07 5.048523e-08 -6.958502e-08 -1.129330e-06 -7.935493e-07
-2.254886e-07 -2.821127e-07 1.366777e-07 -8.532993e-08 -1.147796e-06 -8.588921e-07
-1.365532e-07 -2.307791e-07 2.311909e-07 -4.975433e-09 -1.060446e-06 -6.775009e-07
-2.343043e-07 -2.777265e-07 2.001017e-07 6.350662e-08 -1.021007e-06 -7.329381e-07
-2.917557e-07 -5.871408e-08 -1.015537e-08 -1.394269e-09 -1.077919e-06 -7.760153e-07
-3.762433e-07 -6.455418e-08 1.011973e-07 -2.768916e-08 -1.106082e-06 -7.912745e-07
-2.323809e-07 -6.455418e-08 -8.393493e-08 4.100577e-08 -9.566042e-07 -7.090034e-07
-7.022666e-08 -6.455418e-08 2.770726e-08 1.471323e-07 -1.045220e-06 -8.435544e-07
-9.394216e-08 -1.525563e-07 -1.683743e-08 1.943578e-07 -9.769480e-07 -8.838941e-07
-2.613727e-07 -3.213670e-08 -3.837125e-08 1.296502e-07 -1.067241e-06 -7.010467e-07
-2.842093e-07 -6.909724e-08 2.054133e-07 1.002214e-07 -1.092284e-06 -7.085279e-07
-4.968179e-07 9.716390e-08 1.612997e-07 3.280112e-08 -1.065299e-06 -7.700493e-07
-4.917548e-07 2.176997e-07 1.663690e-07 1.512334e-07 -9.873077e-07 -6.760178e-07
-1.176445e-07 2.285940e-07 2.436927e-08 2.808845e-07 -1.098225e-06 -9.459342e-07
-1.040560e-07 1.515112e-07 -3.148202e-08 3.188121e-07 -1.228513e-06 -8.090207e-07
-1.131353e-07 1.553536e-07 1.251660e-07 3.248392e-07 -1.256836e-06 -8.845283e-07
-6.586557e-07 4.534630e-07 1.782204e-07 3.778339e-07 -1.044803e-06 -6.139207e-07
-1.452027e-07 2.226474e-07 -1.341659e-08 2.675262e-07 -8.344087e-07 -5.223445e-07
-3.171212e-07 -1.376463e-07 -6.420706e-08 -1.167295e-07 -8.308111e-07 -5.719329e-07
-2.245401e-07 -1.328868e-07 3.293737e-08 -7.080808e-08 -7.689558e-07 -5.054011e-07
-3.155877e-07 -1.267137e-07 1.032127e-07 -1.115560e-07 -1.028398e-06 -7.212342e-07
-3.814727e-09 -1.491714e-07 4.993258e-08 3.736901e-08 -9.146292e-07 -6.512719e-07
-1.280789e-07 1.385190e-07 2.608468e-08 2.369496e-07 -8.379089e-07 -4.901576e-07
3.366298e-08 6.662210e-08 5.252372e-08 1.845779e-07 -7.538717e-07 -5.868023e-07
-2.656399e-07 -2.629220e-07 2.531658e-07 -1.373264e-07 -9.198687e-07 -8.145507e-07
-3.194751e-07 -5.222039e-08 1.600784e-07 -1.331030e-07 -1.091990e-06 -8.355071e-07
-2.733032e-07 -7.726554e-08 1.969736e-07 -2.842827e-08 -1.146302e-06 -9.681426e-07
-2.461890e-07 -4.792601e-08 1.480959e-07 2.918858e-08 -1.067674e-06 -8.689190e-07
-3.464901e-07 -5.050803e-08 1.867920e-07 -6.876323e-08 -9.698915e-07 -8.375814e-07
-3.389676e-07 -6.231679e-08 3.473722e-07 -7.458237e-08 -1.060412e-06 -7.879652e-07
-2.646672e-07 4.723690e-08 2.403690e-07 1.629056e-08 -1.143589e-06 -8.704974e-07
-2.381077e-07 -3.440878e-08 2.448825e-07 6.203019e-08 -1.111576e-06 -9.182735e-07
-2.178694e-07 -6.453307e-08 2.903965e-07 3.279403e-07 -1.015701e-06 -1.032408e-06
-2.335612e-07 -5.618492e-08 1.356392e-07 3.636748e-07 -1.018673e-06 -8.830206e-07
-1.943453e-07 -3.998716e-08 6.430938e-08 4.904535e-07 -8.706928e-07 -8.894632e-07
-4.072339e-08 5.569348e-08 2.513962e-07 6.407967e-07 -1.017876e-06 -1.177728e-06
-2.687206e-07 -1.906064e-07 3.584074e-07 -1.217847e-07 -1.018994e-06 -6.918149e-07
-2.888034e-07 -2.660752e-07 2.649365e-07 -1.183911e-07 -1.079981e-06 -6.949721e-07
-2.835520e-07 -2.281048e-07 3.373391e-07 -9.683938e-08 -1.047516e-06 -6.717901e-07
-3.957047e-07 -2.751708e-07 1.465514e-07 -1.739148e-07 -1.159463e-06 -8.225307e-07
-3.548751e-07 -2.354208e-07 2.525152e-07 -1.104553e-07 -1.086735e-06 -6.659374e-07
-2.540700e-07 -2.499872e-07 1.144885e-07 -1.248082e-07 -9.100329e-07 -7.005376e-07
-2.601133e-07 -2.773349e-07 1.609675e-07 -1.478585e-07 -1.122488e-06 -7.288967e-07
-4.512056e-07 -2.416115e-07 2.333836e-07 -1.444265e-07 -1.007527e-06 -5.305728e-07
-2.909746e-07 -2.615643e-07 3.158143e-07 -1.534221e-07 -9.544875e-07 -6.982464e-07
-4.031871e-07 -7.787557e-08 1.854878e-07 -5.227497e-08 -8.318508e-07 -8.715113e-07
-3.969737e-07 -1.970493e-07 2.080939e-07 -2.683697e-08 -9.212169e-07 -8.201332e-07
-4.049530e-07 -6.228740e-08 6.711091e-08 -7.391316e-08 -7.719266e-07 -7.857812e-07
-4.616998e-07 -1.515411e-07 1.728262e-07 3.501109e-09 -7.578301e-07 -8.315106e-07
-5.517306e-08 -1.123892e-08 -1.545433e-08 2.300008e-07 -1.043235e-06 -9.074203e-07
2.072339e-07 -5.888855e-08 -1.170032e-07 4.258631e-07 -9.347367e-07 -9.592894e-07
6.618391e-08 1.612318e-07 -4.400658e-08 4.390560e-07 -1.125412e-06 -8.563770e-07
1.643212e-08 1.752748e-07 -5.091640e-08 5.298864e-07 -1.127787e-06 -9.400019e-07
-4.726409e-07 6.072728e-08 1.676089e-07 4.367338e-07 -9.113568e-07 -6.711453e-07
-1.639691e-07 2.960069e-08 1.113782e-07 5.740240e-07 -1.215098e-06 -9.618690e-07
8.929622e-08 3.178600e-07 1.462091e-07 8.532670e-07 -8.540592e-07 -5.272885e-07
-1.266200e-07 3.146499e-07 1.710931e-07 8.872404e-07 -8.418853e-07 -7.571454e-07
-1.798920e-07 -7.031054e-08 1.967810e-07 2.342445e-07 -9.671324e-07 -9.363497e-07
-1.968766e-07 -5.566252e-08 1.282753e-07 1.770819e-07 -8.911136e-07 -8.996130e-07
-7.658245e-08 1.675351e-07 1.565130e-07 3.436921e-07 -1.110258e-06 -1.035597e-06
-2.600317e-08 -2.232679e-07 2.212002e-07 4.662665e-07 -9.164588e-07 -9.767388e-07
-1.579201e-07 -3.938691e-08 -1.063204e-07 2.509632e-07 -9.344768e-07 -7.576031e-07
-1.234547e-07 1.012567e-08 -5.432166e-08 3.019084e-07 -1.082504e-06 -9.936506e-07
-3.153119e-07 5.000339e-08 1.465554e-08 3.972108e-07 -1.028993e-06 -9.002086e-07
-2.594589e-07 2.136056e-07 -2.149387e-07 5.044377e-07 -9.496810e-07 -7.860453e-07
-1.424799e-07 -6.223689e-08 -9.927494e-08 2.730413e-07 -9.342256e-07 -7.417467e-07
1.169511e-08 -3.978616e-08 -5.498486e-08 3.398584e-07 -1.088328e-06 -9.875768e-07
2.502187e-07 1.008319e-07 -2.186596e-07 5.250943e-07 -9.710661e-07 -7.952302e-07
2.020893e-07 7.836333e-08 -2.678733e-07 5.602619e-07 -9.358149e-07 -8.439146e-07
-2.416874e-07 -7.855900e-08 -4.345956e-08 -7.075829e-09 -1.060133e-06 -7.763897e-07
-2.573878e-07 -2.565705e-07 8.794679e-08 5.018393e-08 -1.079928e-06 -7.890785e-07
-2.058318e-07 -1.624316e-07 8.934670e-08 -2.867112e-08 -1.104365e-06 -7.770744e-07
-1.982257e-07 -9.680050e-08 3.987264e-08 6.128456e-09 -1.109896e-06 -7.567337e-07
-8.996577e-09 -8.892849e-08 -1.276207e-07 1.256550e-07 -9.019539e-07 -6.801708e-07
-7.871663e-08 -1.856035e-07 -6.429857e-08 2.082093e-07 -8.774275e-07 -6.937682e-07
-7.828411e-08 -1.082330e-07 -1.123952e-07 1.550480e-07 -8.938560e-07 -7.256303e-07
-4.129613e-08 -3.632579e-08 -2.440223e-07 2.162385e-07 -8.615323e-07 -6.511720e-07
-4.043352e-08 -5.871407e-08 -1.220117e-07 1.840330e-07 -9.545446e-07 -7.764650e-07
-6.159527e-08 -6.909724e-08 -9.307077e-08 2.871274e-07 -9.679258e-07 -8.587761e-07
-2.669562e-08 6.912735e-08 -6.665249e-08 3.596573e-07 -1.124341e-06 -9.626602e-07
3.866947e-07 -1.825849e-07 -2.499010e-07 3.985818e-07 -8.971405e-07 -9.021139e-07
-1.593972e-07 -5.871407e-08 -8.530428e-08 9.981915e-08 -9.092553e-07 -7.786044e-07
2.710863e-08 -1.490193e-07 -2.781293e-07 1.649271e-07 -7.575850e-07 -6.730534e-07
-9.359918e-08 -3.393466e-07 -1.465053e-07 8.839954e-08 -7.718767e-07 -7.529914e-07
-1.000169e-07 -2.220493e-07 -2.083487e-07 6.949474e-08 -7.986625e-07 -7.233126e-07
-6.209053e-08 -6.909724e-08 -2.014207e-07 2.473076e-07 -8.407951e-07 -8.003930e-07
1.752905e-07 -2.351391e-07 -1.800149e-07 2.593142e-07 -7.861856e-07 -7.965998e-07
2.625162e-08 -1.434229e-07 -2.267031e-07 1.901337e-07 -7.979083e-07 -6.892884e-07
8.570409e-08 -6.909724e-08 4.540021e-09 3.335052e-07 -9.928673e-07 -9.891360e-07
1.331973e-07 -2.867230e-07 -2.745167e-07 2.092878e-07 -7.137520e-07 -7.331575e-07
5.308480e-07 -1.199709e-07 -1.760891e-07 6.424493e-08 2.449221e-08 1.371906e-07
5.347632e-07 -1.178061e-07 -1.787835e-07 5.936616e-08 2.392808e-08 1.339768e-07
5.369456e-07 -1.160076e-07 -1.791883e-07 5.651490e-08 2.985446e-08 1.314079e-07
5.366016e-07 -1.233624e-07 -1.838104e-07 5.433403e-08 2.320803e-08 1.300844e-07
5.472558e-07 -1.199709e-07 -1.813918e-07 6.968137e-08 3.016914e-08 1.432184e-07
5.548196e-07 -1.190736e-07 -1.829886e-07 6.384507e-08 2.919854e-08 1.405619e-07
5.533766e-07 -1.233624e-07 -1.820682e-07 6.019991e-08 2.869230e-08 1.388579e-07
5.689103e-07 -1.197947e-07 -1.964974e-07 7.051894e-08 2.755611e-08 1.501217e-07
5.393042e-07 -1.092298e-07 -1.782799e-07 7.547093e-08 3.322563e-08 1.513454e-07
5.341259e-07 -1.052281e-07 -1.746220e-07 8.896399e-08 2.911811e-08 1.428138e-07
5.330284e-07 -1.027236e-07 -1.875801e-07 8.538992e-08 2.954578e-08 1.511905e-07
5.657723e-07 -1.163228e-07 -1.935389e-07 8.329779e-08 3.926340e-08 1.583929e-07
5.199958e-07 -1.095590e-07 -1.822376e-07 7.813353e-08 3.193434e-08 1.602191e-07
5.301463e-07 -1.073986e-07 -1.985100e-07 8.233834e-08 3.912990e-08 1.747544e-07
5.229489e-07 -1.196466e-07 -1.846146e-07 7.706282e-08 3.683202e-08 1.607928e-07
5.186546e-07 -1.126266e-07 -1.871324e-07 8.032262e-08 3.768290e-08 1.650895e-07
5.206146e-07 -1.058068e-07 -1.852756e-07 9.268830e-08 3.336709e-08 1.614937e-07
5.586974e-07 -1.169279e-07 -1.917024e-07 8.696157e-08 3.695979e-08 1.626979e-07
5.301858e-07 -1.107413e-07 -1.942414e-07 8.962721e-08 3.510162e-08 1.714817e-07
5.388996e-07 -1.066514e-07 -1.742823e-07 9.634667e-08 2.505125e-08 1.412130e-07
5.482482e-07 -1.167455e-07 -1.979612e-07 8.015941e-08 4.072851e-08 1.712154e-07
5.464112e-07 -1.150290e-07 -1.838224e-07 6.929208e-08 3.120379e-08 1.416147e-07
5.463419e-07 -1.140820e-07 -1.881542e-07 6.899483e-08 2.967551e-08 1.431455e-07
5.534809e-07 -1.117482e-07 -1.880639e-07 6.344954e-08 3.107037e-08 1.377126e-07
5.684811e-07 -1.099091e-07 -1.997429e-07 6.977069e-08 3.155306e-08 1.482821e-07
5.459118e-07 -1.161019e-07 -1.813090e-07 7.057590e-08 2.864940e-08 1.476563e-07
5.453917e-07 -1.153208e-07 -1.880231e-07 7.069659e-08 2.697077e-08 1.497549e-07
5.594185e-07 -1.134981e-07 -2.000447e-07 7.586652e-08 2.930767e-08 1.532890e-07
5.672745e-07 -1.182556e-07 -1.985089e-07 7.795262e-08 3.208669e-08 1.573343e-07
-1.495963e-06 2.201509e-06 6.219389e-06 -4.964128e-07 8.874395e-06 -1.123708e-06
-2.010892e-06 2.593373e-06 7.773416e-06 -3.720422e-07 9.785145e-06 -2.761243e-07
-2.377596e-06 2.600059e-06 7.604855e-06 -2.816018e-07 9.772395e-06 -1.002395e-06
-2.406476e-06 3.086704e-06 7.720228e-06 -2.299488e-07 9.442111e-06 -9.763103e-07
-1.480201e-06 1.105186e-06 6.528556e-06 -3.932496e-07 7.013389e-06 -1.245801e-06
-1.991631e-06 1.498427e-06 8.530617e-06 -3.138964e-07 8.030240e-06 -4.653845e-07
-2.695404e-06 1.980134e-06 4.965097e-06 -4.932245e-07 8.000256e-06 -2.112169e-06
-2.564977e-06 2.641008e-06 6.839189e-06 -7.895875e-07 6.826595e-06 -1.608657e-06
1.006834e-07 -6.243957e-07 6.732576e-06 -6.351871e-07 7.125487e-06 -3.787985e-07
-7.482475e-07 7.320551e-07 8.322449e-06 1.621243e-08 8.594901e-06 2.797190e-07
1.864523e-07 -1.620578e-06 8.535856e-06 -5.097428e-07 6.772738e-06 1.179894e-06
1.818964e-07 -9.454201e-07 7.020630e-06 -4.822536e-07 5.799970e-06 1.011628e-06
-6.641422e-07 -7.179935e-07 6.975553e-06 -1.102138e-08 7.665294e-06 -6.017699e-07
-2.172364e-06 7.920130e-07 7.779001e-06 1.057391e-07 8.814340e-06 -8.409610e-07
-2.007245e-06 -8.995974e-07 5.592670e-06 -6.868458e-07 5.509739e-06 -8.758985e-07
-2.176541e-06 8.448231e-08 6.913898e-06 -5.514955e-07 6.798558e-06 -9.611363e-07
-4.895675e-07 -1.309060e-07 8.871120e-06 -4.613911e-07 9.143423e-06 2.951363e-07
-5.579622e-07 1.343520e-07 8.422702e-06 -4.436329e-07 9.828205e-06 -5.171949e-08
-5.640110e-07 -1.198210e-06 1.539779e-05 -5.342193e-07 1.052855e-05 9.705596e-08
-5.634053e-07 1.470523e-06 9.209084e-06 -4.275021e-07 7.663685e-06 -2.016858e-07
-5.106247e-07 8.792272e-07 5.783116e-06 -1.500815e-07 8.087162e-06 -7.307582e-07
-6.749864e-07 6.352765e-07 6.192490e-06 7.431261e-08 8.104144e-06 -6.149967e-07
-6.479655e-07 1.405498e-06 5.751153e-06 -1.008443e-07 9.111346e-06 -9.941407e-07
-6.523296e-07 1.638003e-06 6.669728e-06 -8.825403e-08 8.206701e-06 -9.285596e-07
-8.820051e-07 -9.694828e-08 7.949405e-06 -1.322019e-06 1.049747e-05 -8.587301e-06
-9.749777e-07 -3.351925e-07 8.965436e-06 -1.550537e-06 1.087170e-05 -7.778414e-06
-9.798334e-08 5.495617e-07 9.192854e-06 -2.473970e-06 1.197237e-05 -8.612365e-06
-3.896852e-07 4.660029e-08 1.203740e-05 -2.963187e-06 1.180184e-05 -9.509304e-06
3.029338e-07 9.376396e-09 8.241213e-06 -1.742353e-06 1.029704e-05 -7.592492e-06
1.264165e-07 -2.569638e-07 8.833912e-06 -1.976873e-06 1.080429e-05 -6.929658e-06
-1.728059e-06 -1.335956e-07 1.106575e-05 -2.389983e-06 1.135913e-05 -7.863867e-06
-5.105309e-07 5.217472e-07 1.014726e-05 -3.448518e-06 1.125637e-05 -8.376168e-06
-1.504453e-06 -1.541646e-06 1.290081e-05 -3.715493e-07 7.374627e-06 -6.715966e-06
-1.795594e-06 -1.635175e-06 9.913109e-06 -1.837136e-07 5.977541e-06 -5.150917e-06
-1.573764e-06 -2.511200e-06 1.164628e-05 -1.220344e-06 6.707416e-06 -6.221898e-06
-1.821749e-06 -1.080142e-06 1.105023e-05 -7.001546e-07 7.367721e-06 -5.354438e-06
-9.448081e-07 -9.825904e-07 1.122507e-05 2.076360e-07 8.582219e-06 -5.880899e-06
-1.129918e-06 -1.122696e-06 9.052070e-06 4.467072e-07 6.529546e-06 -4.871712e-06
-1.173464e-06 -2.201638e-07 7.894443e-06 3.420030e-07 5.892015e-06 -5.097003e-06
-8.283856e-07 -4.997584e-07 1.127230e-05 1.671595e-08 6.609984e-06 -6.205384e-06
-8.556434e-07 -1.199012e-06 1.063680e-05 -2.260282e-07 1.148458e-05 -7.454417e-06
-7.491857e-07 -1.971935e-06 1.102443e-05 -6.402467e-07 1.169462e-05 -6.959683e-06
-4.426263e-07 -5.283042e-07 1.128765e-05 -1.855688e-06 1.107519e-05 -6.395316e-06
-1.018334e-06 -1.731545e-06 1.164529e-05 -2.456517e-08 1.837985e-05 -7.570126e-06
-1.781263e-06 -2.074032e-07 1.305736e-05 1.664341e-06 9.629175e-06 -8.809558e-06
-1.243624e-06 1.608110e-06 1.456180e-05 6.564031e-07 7.975684e-06 -7.897274e-06
-1.100561e-06 -5.142276e-06 2.092356e-05 1.998473e-06 1.944548e-05 -1.343274e-05
-6.398544e-07 4.353311e-07 2.338369e-05 4.403200e-06 1.291259e-05 -1.451995e-05
5.125843e-07 -1.543284e-07 -1.938806e-07 6.307350e-08 4.718759e-08 2.463431e-07
5.148915e-07 -1.500840e-07 -2.011536e-07 5.953759e-08 4.943332e-08 2.421479e-07
5.186991e-07 -1.509007e-07 -1.892617e-07 5.544344e-08 5.583973e-08 2.353777e-07
5.204385e-07 -1.571302e-07 -2.021632e-07 6.167422e-08 4.678091e-08 2.429668e-07
5.338259e-07 -1.554209e-07 -1.869416e-07 7.226681e-08 5.443106e-08 2.590080e-07
5.405983e-07 -1.547250e-07 -1.968254e-07 6.718136e-08 5.214262e-08 2.527297e-07
5.431863e-07 -1.582702e-07 -1.906835e-07 7.125155e-08 5.205199e-08 2.595130e-07
5.587627e-07 -1.507188e-07 -2.104944e-07 8.297372e-08 5.733142e-08 2.755553e-07
5.246960e-07 -1.398111e-07 -1.846915e-07 7.758796e-08 6.036236e-08 2.608319e-07
5.189481e-07 -1.336770e-07 -1.872488e-07 8.611765e-08 5.895043e-08 2.517444e-07
5.189304e-07 -1.351965e-07 -1.946910e-07 8.628190e-08 6.231384e-08 2.513805e-07
5.618413e-07 -1.451959e-07 -2.010223e-07 7.717346e-08 7.141853e-08 2.696893e-07
4.791591e-07 -1.392815e-07 -1.857770e-07 7.766343e-08 6.136234e-08 2.726128e-07
4.855950e-07 -1.323875e-07 -2.019894e-07 7.765064e-08 7.042340e-08 2.909229e-07
4.843414e-07 -1.460715e-07 -1.924385e-07 7.335515e-08 6.818922e-08 2.756784e-07
4.767490e-07 -1.360792e-07 -1.935173e-07 7.965713e-08 7.025100e-08 2.811500e-07
4.780585e-07 -1.332268e-07 -1.923047e-07 8.630107e-08 6.812757e-08 2.784875e-07
5.303933e-07 -1.444615e-07 -1.976150e-07 8.229983e-08 7.011219e-08 2.811442e-07
4.857399e-07 -1.362466e-07 -1.978201e-07 8.584135e-08 6.806037e-08 2.860161e-07
5.043428e-07 -1.346066e-07 -1.855099e-07 9.116184e-08 5.717542e-08 2.532850e-07
5.099758e-07 -1.453596e-07 -2.024544e-07 7.421229e-08 7.290652e-08 2.920935e-07
5.001507e-07 -2.012524e-07 -1.932963e-07 6.640249e-08 8.090278e-08 4.211090e-07
4.999078e-07 -2.077743e-07 -1.809853e-07 6.404858e-08 8.083513e-08 4.183516e-07
5.128444e-07 -1.996202e-07 -2.150206e-07 8.136696e-08 8.736812e-08 4.628275e-07
5.584388e-07 -2.036910e-07 -2.263698e-07 6.034498e-08 8.044390e-08 4.189435e-07
4.537199e-07 -1.995214e-07 -1.916880e-07 5.650448e-08 7.508716e-08 4.113825e-07
4.609195e-07 -1.932473e-07 -2.080555e-07 4.186634e-08 7.633282e-08 3.867064e-07
4.642019e-07 -2.020392e-07 -1.951673e-07 4.529354e-08 7.211861e-08 3.992809e-07
4.572394e-07 -1.801670e-07 -2.016125e-07 4.824345e-08 7.498874e-08 3.925821e-07
4.576847e-07 -2.051738e-07 -2.032706e-07 4.815416e-08 6.555267e-08 3.934691e-07
4.943879e-07 -2.014568e-07 -2.043290e-07 4.965913e-08 7.337955e-08 4.032416e-07
4.614717e-07 -1.913098e-07 -2.027696e-07 4.666529e-08 8.030262e-08 3.908577e-07
4.773195e-07 -2.059356e-07 -1.747275e-07 5.253941e-08 7.431170e-08 4.192103e-07
4.806928e-07 -2.059497e-07 -2.138086e-07 4.155951e-08 6.678750e-08 3.917753e-07
4.427438e-07 -1.791029e-07 -1.894409e-07 9.986346e-08 7.640603e-08 4.306653e-07
4.660666e-07 -1.916792e-07 -2.120227e-07 7.647125e-08 9.357277e-08 4.701365e-07
4.382042e-07 -1.813353e-07 -2.027130e-07 1.054585e-07 8.046700e-08 4.616211e-07
4.386327e-07 -1.793904e-07 -2.094852e-07 1.076835e-07 8.398809e-08 4.603737e-07
4.793514e-07 -1.795613e-07 -1.918967e-07 9.995201e-08 7.452339e-08 4.171280e-07
5.155647e-07 -1.935786e-07 -2.125263e-07 7.284838e-08 9.187187e-08 4.593089e-07
5.530763e-07 -1.813461e-07 -2.003541e-07 1.103465e-07 7.962422e-08 4.191161e-07
5.567069e-07 -1.830947e-07 -2.256600e-07 1.109115e-07 8.712258e-08 4.218032e-07
3.293894e-07 -2.133844e-07 -1.960848e-07 1.005113e-07 1.018312e-07 6.591384e-07
3.661135e-07 -2.375575e-07 -2.026563e-07 6.465070e-08 1.242515e-07 7.281617e-07
3.169206e-07 -2.009170e-07 -1.986481e-07 1.117386e-07 1.112427e-07 7.032604e-07
3.165246e-07 -2.135138e-07 -2.069434e-07 1.091384e-07 1.215593e-07 7.055369e-07
4.429895e-07 -2.153450e-07 -2.024978e-07 1.032427e-07 9.701235e-08 6.405997e-07
4.783664e-07 -2.350520e-07 -2.133241e-07 8.163199e-08 1.159121e-07 6.820904e-07
4.876609e-07 -2.178295e-07 -2.118340e-07 1.194730e-07 1.069438e-07 6.470611e-07
5.050147e-07 -2.110265e-07 -2.326056e-07 1.341869e-07 1.044970e-07 6.240687e-07
3.869146e-07 -2.413673e-07 -2.008339e-07 5.326231e-08 1.040376e-07 6.779148e-07
4.083209e-07 -2.479409e-07 -2.076030e-07 3.068608e-08 9.723071e-08 6.492781e-07
4.143851e-07 -2.552498e-07 -1.865795e-07 5.309068e-08 1.037998e-07 6.740039e-07
3.989365e-07 -2.365225e-07 -2.256269e-07 6.627084e-08 1.225965e-07 7.250735e-07
4.519237e-07 -2.279373e-07 -2.028703e-07 1.007764e-07 9.917975e-08 6.409521e-07
4.800390e-07 -2.333154e-07 -2.105249e-07 8.303058e-08 9.233461e-08 6.087909e-07
4.404126e-07 -2.201432e-07 -2.223923e-07 1.039483e-07 1.152543e-07 7.065843e-07
5.288566e-07 -2.232974e-07 -2.368129e-07 1.090252e-07 9.256797e-08 6.232179e-07
3.833569e-07 -2.735790e-07 -1.668069e-07 5.760815e-08 8.555643e-08 9.083212e-07
3.874744e-07 -3.060200e-07 -1.255950e-07 8.383282e-08 8.182286e-08 9.438085e-07
4.049754e-07 -2.861540e-07 -1.902458e-07 1.104516e-07 9.775121e-08 1.002654e-06
5.038821e-07 -2.802638e-07 -2.404544e-07 5.168079e-08 9.018181e-08 9.072452e-07
2.609548e-07 -2.752052e-07 -1.585523e-07 7.275037e-08 8.996544e-08 8.866523e-07
3.239464e-07 -2.865776e-07 -2.059001e-07 6.503396e-08 1.036619e-07 8.492545e-07
2.761972e-07 -2.844975e-07 -1.582256e-07 5.770152e-08 8.575687e-08 8.704318e-07
2.846246e-07 -2.804422e-07 -1.695889e-07 4.733461e-08 9.507316e-08 8.709514e-07
2.985802e-07 -3.077369e-07 -1.629006e-07 9.823104e-08 9.416925e-08 8.996808e-07
3.667838e-07 -2.885082e-07 -1.888071e-07 4.534592e-08 9.779591e-08 8.807837e-07
3.241816e-07 -2.986116e-07 -1.877113e-07 6.614483e-08 1.132249e-07 8.513228e-07
3.365633e-07 -3.068884e-07 -1.075814e-07 9.134946e-08 8.308644e-08 9.496334e-07
3.569382e-07 -2.801530e-07 -2.118711e-07 4.797061e-08 9.198795e-08 8.619541e-07
2.067093e-07 -2.541503e-07 -1.544334e-07 8.721999e-08 9.262953e-08 9.592103e-07
2.462554e-07 -2.630711e-07 -1.853406e-07 4.479498e-08 1.095277e-07 1.023265e-06
2.023116e-07 -2.492419e-07 -1.651091e-07 9.106602e-08 8.188738e-08 1.014206e-06
2.003554e-07 -2.743992e-07 -1.891420e-07 8.008824e-08 1.069890e-07 1.023465e-06
3.653793e-07 -2.581715e-07 -1.639792e-07 9.689210e-08 7.719030e-08 9.012245e-07
4.201979e-07 -2.727810e-07 -1.917263e-07 4.345538e-08 9.740325e-08 9.825504e-07
4.732522e-07 -2.792951e-07 -1.755303e-07 8.749985e-08 9.398814e-08 9.262018e-07
5.108373e-07 -2.791298e-07 -2.430316e-07 1.039549e-07 1.082866e-07 9.047435e-07
2.516814e-07 -3.416275e-07 -3.768056e-08 6.691616e-08 4.847428e-08 1.184986e-06
2.440050e-07 -3.558310e-07 2.520270e-08 1.043387e-07 6.477279e-08 1.228171e-06
2.521876e-07 -3.517882e-07 -1.975100e-08 1.335093e-07 6.194212e-08 1.305188e-06
4.458885e-07 -3.473000e-07 -1.656026e-07 3.236807e-08 2.572927e-08 1.165459e-06
-3.388585e-08 -3.409718e-07 -4.148916e-08 7.400298e-08 4.624675e-08 1.096727e-06
-6.745551e-08 -3.555702e-07 1.080876e-08 1.149522e-07 6.473849e-08 1.123316e-06
2.059567e-07 -3.482692e-07 -1.253943e-07 1.582410e-08 2.225523e-08 1.058879e-06
5.322545e-08 -3.527253e-07 -1.242593e-07 7.147335e-08 6.629008e-08 9.953407e-07
-2.489465e-08 -3.322447e-07 2.960478e-08 9.474026e-08 5.536389e-08 1.233033e-06
1.892961e-08 -3.314941e-07 2.046283e-08 4.535771e-08 5.782041e-08 1.306083e-06
-3.330200e-08 -3.254636e-07 4.682978e-08 1.026723e-07 2.912003e-08 1.289824e-06
-3.987937e-08 -3.517000e-07 -6.745864e-09 6.870106e-08 7.155356e-08 1.321036e-06
2.401001e-07 -3.327069e-07 -3.798199e-08 8.234118e-08 4.876751e-08 1.182044e-06
3.153229e-07 -3.324880e-07 -2.972868e-08 1.435429e-08 4.568486e-08 1.279386e-06
3.392274e-07 -3.521017e-07 -5.151015e-08 4.977725e-08 6.637784e-08 1.244114e-06
4.268024e-07 -3.439992e-07 -1.716931e-07 1.075271e-07 8.683627e-08 1.153960e-06
1.849967e-07 -3.266690e-07 1.892039e-07 1.056289e-07 -1.243310e-08 1.376550e-06
1.752930e-07 -3.724456e-07 1.423329e-07 1.528276e-07 3.500075e-08 1.318217e-06
1.778614e-07 -3.778483e-07 9.669912e-08 2.280251e-07 5.082925e-08 1.125759e-06
5.043893e-07 -3.468310e-07 -6.185179e-09 6.701159e-08 5.389479e-08 1.339092e-06
-2.189775e-07 -3.288780e-07 2.971411e-07 1.378339e-07 -3.564556e-09 1.344258e-06
-1.809685e-07 -2.994418e-07 1.964919e-07 1.046011e-07 8.650101e-09 1.472871e-06
-1.783812e-07 -3.419355e-07 2.642290e-07 9.515038e-08 1.886932e-08 1.385743e-06
-2.237966e-07 -2.544057e-07 2.474213e-07 1.266672e-07 1.526069e-08 1.415468e-06
-2.160185e-07 -3.692132e-07 2.147847e-07 1.594951e-07 7.867734e-08 1.390926e-06
8.773096e-08 -3.437850e-07 2.371549e-07 8.911648e-08 9.959858e-09 1.423970e-06
-1.787022e-07 -3.143507e-07 2.459782e-07 1.364092e-07 -1.336647e-08 1.444012e-06
-8.227162e-08 -3.727750e-07 2.528279e-07 1.684345e-07 4.798792e-08 1.250601e-06
1.916409e-09 -3.438689e-07 1.864869e-07 5.341712e-08 2.979584e-08 1.493433e-06
-3.388992e-07 -3.849331e-07 2.697033e-07 1.209041e-07 4.388952e-08 1.225335e-06
-3.442391e-07 -4.069317e-07 3.303614e-07 1.317982e-07 5.444695e-08 1.222007e-06
-1.161913e-07 -3.699509e-07 2.042677e-07 2.660869e-08 4.757499e-08 1.146352e-06
-3.132116e-07 -3.996421e-07 2.135062e-07 1.158411e-07 6.091715e-08 1.139178e-06
2.132112e-07 -3.772362e-07 1.895007e-07 5.030587e-08 1.280336e-08 1.370337e-06
2.089493e-07 -3.990790e-07 2.533268e-07 6.016882e-08 2.247154e-08 1.369584e-06
5.091110e-07 -3.850657e-07 -8.943016e-09 4.856675e-08 -8.392410e-09 1.345711e-06
2.892905e-07 -3.615018e-07 9.896724e-08 -3.214992e-08 4.205467e-08 1.166220e-06
8.077683e-07 -7.426517e-07 8.725876e-07 -1.759277e-07 -1.156493e-08 9.161170e-07
8.328868e-07 -8.404458e-07 7.267577e-07 -1.911414e-07 -2.664788e-07 9.958543e-07
1.220510e-06 -9.956263e-07 6.801986e-07 -2.372648e-07 -1.578369e-07 1.136956e-06
1.395627e-06 -1.105301e-06 8.969752e-07 -1.721706e-07 -6.198662e-08 8.266066e-07
8.053565e-07 -7.999801e-07 6.016450e-07 -5.053920e-08 -1.418792e-07 1.284033e-06
8.565122e-07 -8.787358e-07 5.403613e-07 -9.930053e-08 -3.651872e-07 1.361461e-06
9.065862e-07 -1.078605e-06 8.000809e-07 -1.569512e-07 -1.587318e-07 1.243391e-06
1.251173e-06 -1.150673e-06 3.527290e-07 -6.967690e-08 -3.697966e-07 1.221676e-06
6.946719e-07 -4.582133e-07 3.547650e-07 -1.445717e-07 -1.501643e-07 1.102627e-06
6.492048e-07 -3.175253e-07 4.542360e-07 -1.071474e-07 -1.549602e-08 1.098060e-06
6.667566e-07 -4.685347e-07 4.279703e-07 -8.799941e-08 -1.736158e-07 1.170865e-06
1.316377e-06 -4.943370e-07 1.622875e-07 -2.981794e-07 -3.260915e-07 1.153787e-06
-1.445723e-07 -4.892996e-07 5.266694e-07 8.578272e-08 -6.658216e-08 1.069927e-06
-2.009314e-07 -3.476514e-07 6.176364e-07 1.175420e-07 6.575950e-08 1.054053e-06
5.540398e-07 -4.472671e-07 3.942107e-07 -6.890518e-08 -1.011508e-07 9.908213e-07
-5.211509e-08 -4.412228e-07 3.800667e-07 1.346635e-07 -6.625259e-08 8.976568e-07
2.953972e-07 -7.293033e-07 8.777102e-07 1.631803e-07 -3.276783e-09 1.111993e-06
8.992704e-07 -6.920850e-07 7.612092e-07 -8.691821e-08 2.134160e-08 1.324682e-06
8.350981e-07 -7.764967e-07 7.511106e-07 2.207039e-07 5.079210e-08 1.203700e-06
8.447380e-07 -9.055854e-07 9.099416e-07 2.665734e-07 1.425334e-08 1.150440e-06
5.523947e-08 -5.000626e-07 8.920348e-07 7.889982e-08 5.948883e-08 1.116767e-06
2.185504e-07 -4.940511e-07 7.760567e-07 -1.058396e-07 1.506334e-07 1.189688e-06
2.543543e-07 -7.022326e-07 9.719833e-07 6.140516e-08 2.111261e-07 1.007556e-06
2.613748e-07 -7.298921e-07 9.826872e-07 9.486196e-08 1.290559e-07 9.969518e-07
-5.455688e-07 -2.416733e-07 2.314111e-06 8.250748e-08 -1.815632e-09 -7.475765e-07
-5.970502e-07 -3.019431e-07 2.056745e-06 1.537389e-07 1.337351e-07 -8.683676e-07
-6.829537e-07 1.005992e-07 1.935111e-06 1.605985e-07 3.396875e-07 -1.004597e-06
-7.350801e-07 -3.337337e-07 2.603804e-06 -1.163504e-07 2.409766e-08 -8.715066e-07
1.376466e-08 -2.528428e-07 1.300122e-06 1.080683e-07 -1.086256e-07 -4.355374e-07
-2.906805e-08 -3.257452e-07 1.195664e-06 1.649558e-07 -2.130578e-08 -5.032251e-07
-1.210910e-07 -3.684209e-07 1.521268e-06 2.076508e-08 -1.802417e-07 -4.380917e-07
-4.825691e-08 -3.398786e-07 1.180538e-06 7.405311e-08 -1.289162e-07 -4.497004e-07
1.196672e-08 -3.891108e-07 1.337716e-06 1.388813e-07 2.069903e-07 -5.699389e-07
-2.486412e-08 -6.470555e-07 1.532875e-06 2.628202e-07 9.443135e-08 -4.413577e-07
-3.280098e-08 -5.201720e-07 1.547803e-06 2.036552e-07 2.755747e-07 -6.188652e-07
-1.130323e-07 -5.056774e-07 1.414383e-06 2.314854e-07 2.597545e-07 -5.073192e-07
-6.176632e-07 -3.744888e-07 1.810316e-06 7.088107e-08 1.217795e-07 -2.307928e-08
-6.757515e-07 -6.178512e-07 2.227731e-06 1.420823e-07 -5.442212e-08 1.856284e-07
-6.777350e-07 -4.929484e-07 1.884351e-06 1.647137e-07 7.447795e-08 5.078194e-08
-7.139121e-07 -4.887624e-07 2.078927e-06 2.044093e-07 -2.880078e-07 2.009995e-07
-7.153540e-07 -6.312228e-07 2.750057e-06 1.895333e-07 3.564691e-08 2.473186e-07
-4.363283e-07 -4.990546e-07 2.103423e-06 1.461086e-07 7.107986e-08 -2.162194e-07
-6.710761e-07 -5.171657e-07 1.866482e-06 2.214308e-07 -1.534703e-07 2.704768e-07
-6.395105e-07 -6.266047e-07 2.021825e-06 1.572359e-07 -5.829532e-09 1.310061e-07
-5.707635e-07 -5.474352e-07 2.600818e-06 5.608976e-08 2.086683e-07 -1.316148e-07
3.864329e-07 -9.747149e-07 3.949041e-06 -6.844081e-07 9.979558e-07 -2.594841e-06
3.215820e-07 -9.108662e-07 4.374245e-06 -6.257929e-07 8.126093e-07 -2.649281e-06
4.847103e-07 -9.820479e-07 4.690048e-06 -7.931430e-07 4.334805e-07 -2.400594e-06
4.562789e-07 -1.096628e-06 3.760904e-06 -9.285082e-07 1.062923e-06 -2.233593e-06
4.903098e-07 -9.798717e-07 3.606885e-06 -6.570503e-07 9.554103e-07 -2.416088e-06
4.092081e-07 -9.213129e-07 4.078580e-06 -6.051687e-07 7.494443e-07 -2.419362e-06
1.680802e-07 -1.093936e-06 3.617805e-06 -9.332410e-07 1.064705e-06 -2.029889e-06
4.828159e-07 -1.131413e-06 3.726591e-06 -7.903926e-07 1.079178e-06 -2.398541e-06
5.255650e-07 -9.759729e-07 3.651534e-06 -7.061875e-07 7.637037e-07 -2.340744e-06
5.263882e-07 -9.270215e-07 3.631323e-06 -7.125443e-07 7.881372e-07 -2.344190e-06
5.110956e-07 -9.888901e-07 4.116647e-06 -7.764156e-07 7.882399e-07 -2.500863e-06
4.891300e-07 -8.476792e-07 3.741095e-06 -8.409213e-07 8.259964e-07 -2.377275e-06
-2.799964e-07 -1.028065e-06 4.070495e-06 -3.438447e-07 9.066317e-07 -2.155545e-06
-2.769383e-07 -9.778253e-07 4.052995e-06 -3.584629e-07 9.265551e-07 -2.155831e-06
-6.028991e-08 -8.636014e-07 4.097766e-06 -5.160242e-07 1.033193e-06 -2.296767e-06
-7.349139e-07 -9.603523e-07 3.819142e-06 -2.140624e-07 5.957270e-07 -1.606045e-06
1.109375e-06 -5.437832e-07 5.991969e-06 -1.748129e-06 2.717093e-06 -4.354282e-06
1.064850e-06 -5.916609e-07 7.345712e-06 -1.891911e-06 2.762487e-06 -3.482482e-06
1.745846e-06 -8.868558e-08 4.843745e-06 -2.547035e-06 2.748813e-06 -4.121294e-06
1.181850e-06 -2.915631e-07 5.811670e-06 -2.885814e-06 2.566866e-06 -4.380988e-06
4.192550e-07 -5.550126e-07 6.656264e-06 -1.654733e-06 3.071477e-06 -6.288428e-06
3.856132e-07 -6.041887e-07 7.614816e-06 -1.793274e-06 3.150485e-06 -5.443627e-06
-1.038371e-06 -5.676295e-07 7.796732e-06 -2.099668e-06 3.239268e-06 -6.554416e-06
4.857121e-07 -8.222118e-07 7.288503e-06 -2.050485e-06 3.609202e-06 -6.837940e-06
4.792793e-07 -4.349086e-07 6.920324e-06 -1.078315e-06 3.282872e-06 -5.797871e-06
8.729914e-07 -1.437745e-08 7.103230e-06 -1.614077e-06 2.999004e-06 -5.486386e-06
1.123098e-06 -9.637605e-07 7.464450e-06 -3.902400e-07 3.471249e-06 -5.233323e-06
8.359505e-07 -6.199314e-07 7.381370e-06 -1.832048e-06 2.942278e-06 -5.398452e-06
-3.442282e-07 1.521900e-08 7.095635e-06 -1.527818e-06 3.572673e-06 -6.207011e-06
-1.009064e-07 4.907584e-07 7.278192e-06 -1.796140e-06 3.556658e-06 -5.930071e-06
2.370284e-07 -1.684536e-07 7.155893e-06 -1.876579e-06 3.613397e-06 -5.836156e-06
2.452296e-07 9.582726e-07 7.139183e-06 -1.741858e-06 3.411470e-06 -5.839848e-06
1.872244e-07 4.931319e-07 7.406887e-06 -2.032381e-06 3.305513e-06 -5.716216e-06
-2.242417e-07 4.912914e-08 7.146741e-06 -1.226078e-06 3.580585e-06 -6.118442e-06
-1.009455e-07 1.570842e-06 7.127949e-06 -1.786309e-06 3.298230e-06 -5.937646e-06
1.783213e-07 -1.657629e-07 7.930467e-06 -1.879471e-06 3.560067e-06 -5.646711e-06
-2.310119e-07 -5.633882e-08 7.279687e-06 -1.525533e-06 3.963024e-06 -6.164765e-06
1.293589e-07 -8.432251e-08 5.530063e-06 -3.608508e-07 3.705857e-06 -5.027871e-06
-9.625731e-08 -2.983371e-07 5.888057e-06 -5.983694e-08 3.936488e-06 -5.005919e-06
1.494008e-06 5.541912e-07 4.625620e-06 -1.226652e-06 3.578406e-06 -4.418545e-06
3.603452e-07 -5.195149e-07 5.184402e-06 -5.533746e-08 3.400202e-06 -3.932934e-06
3.372909e-07 9.829558e-09 5.119257e-06 -9.665982e-07 3.261433e-06 -5.210770e-06
5.895145e-08 -2.059392e-07 5.429387e-06 -6.523741e-07 3.503154e-06 -5.240081e-06
7.103685e-07 3.318068e-07 4.600451e-06 -1.554742e-06 3.765106e-06 -5.235015e-06
7.482311e-07 5.735071e-07 3.104866e-06 -1.432331e-06 3.426511e-06 -5.624535e-06
-2.114725e-06 1.214751e-06 9.622265e-06 -1.949702e-07 1.061423e-05 -2.995446e-06
-2.186155e-06 1.266483e-06 1.227058e-05 -1.833943e-07 9.955741e-06 -2.491337e-06
-2.079496e-06 3.066919e-06 8.200965e-06 -7.985079e-07 9.726613e-06 -1.761754e-06
-2.628820e-06 3.754092e-06 8.606186e-06 -8.564860e-07 1.040755e-05 -2.205700e-06
-1.751042e-06 1.702929e-06 8.436470e-06 -8.897347e-07 1.020179e-05 -1.429166e-06
-1.915612e-06 1.715923e-06 1.102458e-05 -8.143733e-07 9.594397e-06 -1.011706e-06
-2.944473e-06 2.776019e-06 9.257035e-06 -5.211706e-08 1.006329e-05 -2.439315e-06
-4.944450e-06 3.392687e-06 1.229342e-05 -1.106239e-07 8.158674e-06 1.305400e-07
5.614977e-07 -1.264550e-06 9.565205e-06 5.027280e-08 1.031622e-05 -3.360516e-06
3.149920e-07 -7.454794e-07 6.052785e-06 2.115507e-07 7.873192e-06 -2.009507e-06
2.115030e-07 1.944999e-07 7.920197e-06 -4.378552e-07 9.201797e-06 -3.003517e-06
3.445931e-07 -9.584818e-07 8.051918e-06 3.565980e-07 8.607797e-06 -2.048438e-06
-2.171515e-06 -1.302185e-06 1.108526e-05 3.967853e-07 1.032155e-05 -2.575547e-06
-2.461250e-06 -7.799193e-07 7.782115e-06 5.394884e-07 7.852039e-06 -1.031218e-06
-2.948058e-06 1.071634e-06 1.113926e-05 9.689179e-08 1.025067e-05 -1.926696e-06
-2.434278e-06 1.459565e-07 1.064380e-05 2.296370e-07 9.483912e-06 -1.543960e-06
-1.731639e-06 -3.402931e-06 1.950554e-05 9.235693e-08 1.550078e-05 -4.306169e-06
-1.490858e-06 -5.321709e-07 7.829929e-06 -8.573231e-07 2.145483e-05 -4.948050e-06
-1.488258e-06 -2.425017e-06 1.591688e-05 -8.449559e-07 2.178690e-05 -5.097984e-06
-4.938473e-06 -2.339535e-06 2.152363e-05 -5.708608e-08 1.893227e-05 -4.070551e-07
-1.719301e-07 -3.174541e-06 1.738692e-05 7.475533e-07 1.518004e-05 -4.319730e-06
-3.642507e-06 -2.697047e-06 2.873517e-05 3.177718e-06 1.771227e-05 -6.671536e-06
-3.640199e-07 -5.613332e-07 1.487368e-05 3.815362e-07 1.667658e-05 -5.434977e-06
-1.247063e-06 -4.838467e-06 2.003117e-05 2.325361e-06 1.721475e-05 -5.635872e-06
-1.854826e-06 1.750758e-07 1.743299e-05 5.307431e-07 1.777115e-05 -4.011492e-06
-4.927392e-06 1.289535e-07 1.281461e-05 -9.549954e-08 1.970183e-05 1.131679e-06
-4.061246e-06 -1.256721e-06 2.279830e-05 1.012511e-06 2.127385e-05 -4.665991e-06
-1.268501e-06 -4.593022e-07 -2.201424e-07 -6.822451e-07 2.212738e-05 -1.650726e-06
-2.897773e-06 -1.464226e-06 2.006140e-05 1.345156e-06 1.790085e-05 -2.801516e-06
-1.066683e-06 1.772477e-06 3.229070e-06 4.989866e-07 3.702328e-06 -3.111101e-07
-1.046387e-06 1.764952e-06 5.712924e-06 5.374615e-07 3.407874e-06 -5.489985e-07
-1.474080e-06 2.228842e-06 4.521293e-06 7.286385e-07 3.244488e-06 1.790814e-07
-1.178305e-06 2.382041e-06 2.719830e-06 1.198453e-06 4.077449e-06 4.125498e-08
-1.267058e-06 2.180898e-06 3.543057e-06 2.734189e-07 2.347215e-06 1.603078e-06
-1.256244e-06 2.196471e-06 5.868295e-06 2.967024e-07 2.019157e-06 1.444314e-06
-4.584465e-07 2.052971e-06 1.974522e-06 1.052113e-06 3.276557e-06 6.572012e-07
-9.323561e-07 2.429758e-06 2.995966e-06 1.057562e-06 2.481688e-06 1.203071e-06
9.543914e-08 3.789785e-08 4.221054e-06 -4.434378e-07 2.917921e-06 5.820025e-07
1.793825e-07 -3.518555e-07 2.937004e-06 -4.509430e-07 1.867620e-06 9.223657e-07
-9.319308e-07 4.845889e-07 4.764749e-06 -6.791223e-07 3.146563e-06 1.862183e-07
6.869625e-08 -5.677591e-07 4.929280e-06 -2.556488e-07 2.762477e-06 9.381321e-07
-6.755339e-07 -8.672346e-08 4.255142e-06 3.778678e-07 3.496356e-06 3.224253e-07
-5.707421e-07 -4.798720e-07 3.119273e-06 3.910896e-07 2.453908e-06 7.714263e-07
-9.046658e-07 8.753391e-07 4.403407e-06 9.369480e-07 3.768919e-06 7.342047e-07
-1.077877e-06 1.401440e-07 5.689506e-06 5.362240e-07 3.722589e-06 9.503500e-07
-8.522424e-07 9.398596e-08 6.478907e-06 1.184627e-07 4.238396e-06 3.355770e-07
-8.652566e-07 1.391274e-06 5.230788e-06 -3.292653e-08 4.583748e-06 9.250965e-08
-8.542651e-07 8.520051e-07 7.763924e-06 -2.370961e-08 4.555810e-06 2.610884e-07
-1.003209e-06 4.361736e-07 8.642551e-06 3.202820e-07 4.455031e-06 6.944159e-07
-3.333781e-07 1.340925e-07 5.144073e-06 -1.119715e-07 4.208929e-06 1.549923e-06
-6.214455e-07 8.235233e-07 5.059384e-06 2.580664e-07 4.943422e-06 1.659411e-06
-3.831507e-07 3.417115e-07 4.955267e-06 -1.022949e-07 4.287414e-06 1.448831e-06
-4.528109e-07 2.534960e-07 4.522359e-06 -4.427302e-09 4.012692e-06 1.625365e-06
-4.846082e-07 1.385233e-06 4.134486e-06 -2.064905e-08 4.769121e-06 1.783689e-06
-7.335302e-07 4.567926e-07 5.276976e-06 3.451841e-07 4.555334e-06 1.696024e-06
-6.576836e-07 7.553462e-07 5.276819e-06 8.090726e-08 4.632025e-06 1.684166e-06
-4.246560e-07 1.334195e-06 3.276470e-06 2.373773e-07 4.246421e-06 1.949687e-06
-4.771291e-07 4.684234e-07 4.943983e-06 4.505703e-07 4.727926e-06 1.838065e-06
-4.064890e-07 -2.699224e-07 1.844981e-06 2.584100e-09 1.715892e-07 4.193045e-07
-8.546604e-07 1.013751e-07 2.896370e-06 4.232326e-07 9.181770e-07 6.201770e-07
-3.344450e-07 -6.016018e-07 2.871912e-06 -4.486030e-09 5.009066e-07 7.836863e-07
-3.735872e-07 -1.890071e-07 1.743702e-06 -1.249933e-07 -5.502988e-08 5.724883e-07
-9.239904e-08 -3.417900e-07 3.084390e-06 4.463355e-07 6.230453e-07 1.159702e-06
-7.678961e-07 1.943824e-07 3.980362e-06 7.938155e-07 1.473992e-06 1.071332e-06
-8.666217e-07 -2.153464e-07 2.305759e-06 6.159578e-08 1.379994e-07 4.849886e-07
-6.726705e-07 -1.249428e-07 3.137597e-06 2.763404e-07 4.386563e-07 9.686620e-07
-3.454848e-07 -2.308356e-07 3.170377e-06 3.786004e-07 1.071391e-06 2.422156e-07
-3.496619e-07 4.485703e-07 2.633856e-06 2.721277e-07 1.597149e-06 1.953084e-08
-4.794575e-07 4.014619e-07 4.023004e-06 5.128402e-07 1.247885e-06 -2.879942e-07
-4.784786e-07 2.306186e-08 4.127541e-06 8.121509e-07 1.332831e-06 -1.837651e-07
-1.960067e-07 -1.594753e-07 2.737931e-06 -4.850557e-08 1.284698e-06 5.703500e-07
-5.788754e-07 2.235702e-07 2.291252e-06 1.738884e-07 2.069399e-06 6.184872e-07
-3.610599e-07 -2.199484e-07 2.645716e-06 1.503143e-07 1.433346e-06 4.469788e-07
-3.791368e-07 1.094283e-07 1.602887e-06 9.729112e-08 1.159986e-06 6.748051e-07
-4.136471e-07 5.078950e-07 1.727026e-06 -7.496075e-08 2.119578e-06 7.481427e-07
-8.149394e-07 -5.912276e-08 2.720659e-06 4.234295e-07 1.658846e-06 3.594129e-07
-5.833780e-07 3.517463e-07 2.398704e-06 2.939417e-08 1.606769e-06 6.286218e-07
-5.682751e-07 4.618760e-07 1.659256e-06 2.029411e-07 1.571778e-06 9.206481e-07
-6.345332e-07 -1.812168e-07 2.342824e-06 4.566185e-07 1.986073e-06 5.779639e-07
-8.199765e-07 7.196031e-07 2.142324e-06 7.481347e-07 1.386814e-06 2.753710e-07
-8.993860e-07 8.352532e-07 2.943525e-06 8.435253e-07 1.001645e-06 -3.182485e-07
-1.338373e-06 1.060006e-06 3.247442e-06 1.062470e-06 1.324915e-06 3.207838e-07
-1.164720e-06 1.188023e-06 2.766637e-06 1.219213e-06 1.606201e-06 5.235334e-07
-9.027973e-07 5.591760e-07 2.425903e-06 9.474505e-07 1.058002e-06 1.081139e-06
-9.250403e-07 6.778198e-07 2.838940e-06 1.043132e-06 6.684958e-07 4.736648e-07
-2.855129e-08 7.199175e-07 2.074449e-06 1.332340e-06 1.020643e-06 8.815675e-07
-7.070902e-07 6.513898e-07 2.295748e-06 1.592953e-06 9.303356e-07 8.988580e-07
7.093011e-08 -2.655701e-07 1.145918e-06 2.663329e-07 -4.113442e-07 -8.293617e-07
7.584256e-08 5.396990e-08 7.037515e-07 2.244310e-07 -1.288589e-07 -8.864755e-07
4.023344e-08 9.269165e-08 1.522339e-06 3.835239e-07 -3.797955e-07 -1.171386e-06
1.347057e-07 -1.029954e-07 1.555630e-06 4.897803e-07 -2.951385e-07 -1.114209e-06
-1.779039e-07 -2.237714e-07 8.598609e-07 -1.162736e-07 -2.048782e-07 -5.060044e-07
-3.743572e-07 -4.634197e-09 5.392635e-07 -4.918148e-08 2.225967e-07 -3.782023e-07
-2.191044e-07 -2.680143e-07 7.880248e-07 -6.015562e-08 -1.107769e-07 -5.633410e-07
-2.743467e-07 -6.303463e-08 2.382345e-07 -4.374889e-08 -2.678815e-07 -3.812273e-07
-3.010379e-07 9.567323e-08 1.904163e-07 -1.538502e-07 2.730557e-07 -3.149456e-07
-3.736333e-07 -2.053757e-07 7.979688e-07 1.117394e-07 -9.734457e-09 -5.956470e-07
-3.782993e-07 2.805137e-08 6.457937e-07 -8.539960e-08 -6.015616e-08 -3.860004e-07
-2.927786e-07 7.970379e-08 1.821541e-07 -5.342841e-09 -1.815176e-08 -3.209176e-07
-3.266530e-07 -2.568429e-07 5.564273e-07 1.034721e-07 1.835793e-07 -4.115978e-07
-2.522670e-07 -9.249299e-09 7.861923e-07 -8.502058e-08 -7.889847e-07 -4.496617e-07
-2.578874e-07 1.387874e-08 6.197279e-07 -8.385743e-08 -1.018846e-06 -3.432439e-07
-5.831954e-07 -5.893625e-09 7.878600e-07 4.216336e-08 -8.404589e-07 -5.585355e-07
-2.365353e-07 -5.880935e-08 9.447937e-07 -3.821943e-08 -9.097714e-07 -3.230552e-07
-1.523805e-07 -5.726851e-08 7.591016e-07 2.158093e-07 -5.551513e-07 -4.293320e-07
-1.524561e-07 -3.494079e-08 4.358754e-07 2.218335e-07 -7.730426e-07 -4.235718e-07
-9.733676e-08 1.182479e-07 6.784943e-07 3.403026e-07 -5.576963e-07 -2.101943e-07
-1.988010e-07 1.084102e-07 9.018740e-07 3.982491e-07 -4.401462e-07 -2.777105e-07
-4.159782e-07 5.074247e-07 4.457500e-07 5.981137e-07 -4.202111e-07 -7.628849e-07
-2.172704e-07 3.995775e-07 4.962243e-07 5.972056e-07 -1.363748e-07 -3.624090e-07
2.821357e-07 6.630355e-07 5.442552e-07 9.604331e-07 -4.730931e-07 -8.495478e-07
-1.888356e-07 8.154418e-07 5.601105e-07 9.587481e-07 -3.060770e-07 -5.707950e-07
-1.363577e-07 3.255675e-07 4.577924e-07 6.340818e-07 -6.672398e-07 -3.983243e-07
-1.774680e-07 3.385518e-07 5.278995e-07 6.278301e-07 -3.781121e-07 -7.478980e-09
-3.319751e-08 6.258427e-07 4.330571e-07 1.071690e-06 -5.171727e-07 -4.238336e-07
-2.874100e-07 8.693557e-07 5.114846e-07 9.714178e-07 -6.929294e-07 -4.710859e-07
-2.214590e-07 1.896484e-07 1.727410e-07 2.092137e-07 -1.255015e-06 -9.799554e-07
1.109571e-07 2.841581e-07 -3.937194e-07 3.982713e-07 -9.040421e-07 -5.704297e-07
-2.609364e-07 4.387519e-07 -8.464465e-08 4.946671e-07 -1.143331e-06 -5.568915e-07
2.142209e-08 4.525123e-07 -1.944588e-07 5.785238e-07 -1.345661e-06 -9.500189e-07
-4.025310e-07 1.835528e-07 2.381925e-07 2.557411e-07 -1.189400e-06 -1.114270e-06
-7.110679e-08 2.857092e-07 -2.298790e-07 4.458692e-07 -8.321476e-07 -6.456507e-07
2.289631e-07 3.392832e-07 -3.225208e-07 5.726696e-07 -1.088471e-06 -1.244622e-06
9.673784e-08 3.133546e-07 -2.327148e-07 6.498769e-07 -1.061113e-06 -1.218422e-06
1.326540e-07 -1.705827e-07 1.746234e-07 1.019459e-07 -1.007443e-06 -9.010416e-07
1.746390e-07 -2.943463e-07 1.103776e-07 7.091827e-08 -1.104700e-06 -9.008026e-07
2.294549e-07 2.944374e-08 -1.994378e-07 2.901276e-07 -8.899628e-07 -5.496930e-07
2.157756e-07 -1.419318e-08 -3.247668e-08 3.200987e-07 -8.493266e-07 -6.152104e-07
-3.946636e-07 -1.249597e-07 2.678458e-07 -2.043207e-07 -1.137519e-06 -8.747302e-07
-3.456896e-07 -2.492781e-07 2.068441e-07 -2.316443e-07 -1.233606e-06 -8.688433e-07
-5.412071e-07 -2.454365e-07 2.919144e-07 -1.681047e-07 -1.190773e-06 -8.598501e-07
-4.407303e-07 -1.353356e-07 2.522911e-07 -2.832988e-07 -1.169422e-06 -9.118090e-07
-1.129636e-07 1.965211e-07 1.694436e-07 9.911142e-08 -1.257632e-06 -1.022347e-06
2.839888e-08 1.130413e-08 1.988741e-07 1.724489e-07 -1.112515e-06 -9.236356e-07
3.251275e-08 3.523506e-07 2.329334e-07 3.311641e-07 -1.220539e-06 -9.772093e-07
7.852652e-08 3.658920e-07 3.011990e-08 4.741254e-07 -1.093807e-06 -1.064850e-06
-3.958060e-07 -1.985797e-07 4.410838e-07 -2.388061e-07 -9.464925e-07 -8.126904e-07
-3.984159e-07 -3.190927e-07 5.136785e-07 -2.090471e-07 -9.458079e-07 -7.943118e-07
-4.038039e-07 -1.451318e-07 5.831794e-07 -2.145578e-07 -8.145461e-07 -9.696616e-07
-3.164114e-07 1.000616e-08 6.019231e-07 9.382454e-08 -1.132445e-06 -1.024917e-06
SCALARS stress double 6
LOOKUP_TABLE default
-4.238779e+09 -4.039228e+09 -4.199253e+09 1.646533e+05 -2.287677e+04 -7.734211e+04
-3.825503e+09 -3.625974e+09 -3.785919e+09 1.213044e+05 -3.817614e+04 -6.687616e+04
-3.332481e+09 -3.132830e+09 -3.292873e+09 1.211407e+05 -1.656794e+04 -2.840380e+04
-3.482770e+09 -3.283261e+09 -3.443217e+09 1.090080e+05 -2.893104e+04 -9.693721e+04
-3.424366e+09 -3.224746e+09 -3.384804e+09 6.028046e+04 -5.132292e+04 -4.767604e+04
-3.704111e+09 -3.504515e+09 -3.664598e+09 6.774840e+04 -4.205720e+04 -1.175131e+04
-3.371671e+09 -3.172007e+09 -3.332051e+09 8.870129e+04 -4.407239e+04 -6.284563e+04
-4.226465e+09 -4.026436e+09 -4.186543e+09 -3.140599e+04 -1.428617e+04 1.016956e+04
-3.444784e+09 -3.244751e+09 -3.404845e+09 -1.198262e+04 -7.510583e+03 1.254914e+04
-3.378015e+09 -3.177990e+09 -3.338071e+09 -1.635202e+04 -8.771658e+03 1.012069e+04
-3.074141e+09 -2.874111e+09 -3.034205e+09 -1.740677e+04 -1.204645e+04 1.380284e+04
-3.844169e+09 -3.644146e+09 -3.804233e+09 -1.656401e+04 -6.327153e+03 8.376770e+03
-3.901369e+09 -3.701336e+09 -3.861435e+09 -1.253453e+04 -5.628137e+03 1.001622e+04
-4.053590e+09 -3.853537e+09 -4.013662e+09 -2.657886e+04 -7.471426e+03 1.306982e+04
-3.331811e+09 -3.131769e+09 -3.291873e+09 -2.629803e+04 -1.584591e+04 1.243467e+04
-2.130460e+09 -1.930463e+09 -2.090553e+09 -2.956264e+04 7.527577e+04 -3.464706e+04
-2.017257e+09 -1.817290e+09 -1.977366e+09 -3.214603e+04 6.626751e+04 -2.469907e+04
-1.978622e+09 -1.778620e+09 -1.938688e+09 -1.541479e+04 5.288737e+04 -1.587117e+04
-1.754425e+09 -1.554386e+09 -1.714454e+09 -1.013673e+04 5.796429e+04 -2.835207e+04
-4.723889e+09 -4.523825e+09 -4.683959e+09 -1.365649e+04 -4.986000e+03 1.687527e+03
-4.982685e+09 -4.782626e+09 -4.942760e+09 -1.316828e+04 -4.144876e+03 -1.559424e+02
-4.778811e+09 -4.578769e+09 -4.738877e+09 -5.709688e+03 -1.114226e+03 1.153279e+03
-4.014758e+09 -3.814678e+09 -3.974815e+09 -5.087674e+03 -7.469597e+03 1.192220e+04
-3.422961e+09 -3.222875e+09 -3.383018e+09 -1.868016e+04 -1.542552e+04 9.779960e+03
-3.394065e+09 -3.194011e+09 -3.354120e+09 -9.349844e+03 -8.881454e+03 1.050002e+04
-3.730896e+09 -3.530836e+09 -3.690953e+09 -7.835258e+03 1.371086e+03 1.071490e+04
-3.425959e+09 -3.225898e+09 -3.386019e+09 -1.903625e+04 -1.364875e+04 1.348546e+04
-2.273956e+09 -2.073934e+09 -2.233999e+09 -1.301222e+04 -1.214410e+04 1.765647e+04
-2.301945e+09 -2.101937e+09 -2.261994e+09 -1.562868e+04 -1.395558e+04 1.305380e+04
-2.458354e+09 -2.258343e+09 -2.418403e+09 -8.665058e+03 -6.797687e+03 9.240905e+03
-1.800767e+09 -1.600748e+09 -1.760808e+09 -1.176326e+04 -1.513338e+04 1.707066e+04
-2.295347e+09 -2.095307e+09 -2.255392e+09 -1.646095e+04 -3.220617e+04 2.516323e+04
-1.918189e+09 -1.718149e+09 -1.878222e+09 -1.913955e+04 -2.515453e+04 2.179260e+04
-2.336032e+09 -2.135979e+09 -2.296073e+09 -1.801236e+04 -3.271617e+04 2.282194e+04
-1.980855e+09 -1.781199e+09 -1.941178e+09 -4.279055e+04 3.829007e+04 -9.869558e+04
-2.076182e+09 -1.876135e+09 -2.036214e+09 -8.963385e+03 -1.906640e+04 1.096727e+04
-2.254107e+09 -2.054073e+09 -2.214151e+09 -1.086888e+04 -2.088745e+04 2.037527e+04
-1.773136e+09 -1.573095e+09 -1.733160e+09 -1.285905e+04 -2.861186e+04 1.946564e+04
-3.127196e+09 -2.927121e+09 -3.087220e+09 -5.632771e+03 9.111621e+03 -5.243688e+03
-2.994814e+09 -2.794741e+09 -2.954845e+09 -5.290864e+03 1.380704e+04 -6.743949e+03
-3.390242e+09 -3.190159e+09 -3.350278e+09 -1.257375e+04 1.589875e+04 -6.786730e+03
-3.792257e+09 -3.592179e+09 -3.752300e+09 -1.417278e+04 1.202358e+04 -4.090055e+03
-2.872716e+09 -2.672650e+09 -2.832748e+09 -5.712131e+03 1.393456e+04 -3.552761e+03
-3.288597e+09 -3.088621e+09 -3.248656e+09 -2.246752e+03 -4.237551e+02 2.430750e+03
-4.597535e+09 -4.397560e+09 -4.557596e+09 -2.941649e+03 -3.060598e+02 7.151107e+02
-3.573832e+09 -3.373858e+09 -3.533891e+09 -1.884592e+03 -3.729933e+02 1.554020e+03
-4.334068e+09 -4.134095e+09 -4.294129e+09 -2.547190e+03 -6.440105e+02 1.286364e+03
-3.407481e+09 -3.207508e+09 -3.367540e+09 -3.145777e+03 -9.293081e+02 1.190102e+03
-3.369176e+09 -3.169249e+09 -3.329261e+09 -7.460179e+02 -7.870249e+02 1.200745e+03
-3.371615e+09 -3.171639e+09 -3.331672e+09 -3.878499e+03 -5.140844e+02 2.351505e+03
-4.779638e+09 -4.579694e+09 -4.739715e+09 -5.245456e+03 -1.374964e+03 -1.596631e+01
-4.720316e+09 -4.520376e+09 -4.680395e+09 -4.044633e+03 5.661879e+02 9.902868e+02
-4.311388e+09 -4.111089e+09 -4.265625e+09 4.325954e+05 -6.211949e+05 -6.997213e+05
-4.809239e+09 -4.609307e+09 -4.769328e+09 -7.489585e+03 5.644762e+02 1.618579e+03
-4.085654e+09 -3.885716e+09 -4.045732e+09 -4.119557e+03 -3.511754e+02 1.542160e+03
-3.807904e+09 -3.607963e+09 -3.767981e+09 -3.603235e+03 -1.719330e+03 1.313585e+03
-4.537715e+09 -4.337778e+09 -4.497795e+09 -4.169637e+03 -5.535074e+02 7.606636e+02
-4.614644e+09 -4.414707e+09 -4.574728e+09 -8.655651e+03 -5.823774e+02 1.106967e+03
-2.309550e+09 -2.109488e+09 -2.269582e+09 2.635050e+03 -1.158670e+04 -3.666863e+03
-3.640369e+09 -3.440311e+09 -3.600435e+09 -3.646201e+02 -1.297191e+04 -2.505323e+03
-3.243947e+09 -3.043881e+09 -3.203996e+09 6.655855e+03 -1.335629e+04 -5.170286e+03
-3.650079e+09 -3.450004e+09 -3.610139e+09 8.643499e+03 -1.451838e+04 -6.154045e+03
-3.693404e+09 -3.493330e+09 -3.653464e+09 6.945215e+03 -1.059662e+04 -4.369758e+03
-2.841617e+09 -2.641561e+09 -2.801671e+09 2.577153e+02 -2.105367e+04 -3.952875e+03
-2.785582e+09 -2.585729e+09 -2.745771e+09 1.171415e+05 -6.559179e+04 -4.133755e+04
-2.775780e+09 -2.575840e+09 -2.735938e+09 1.160805e+05 -7.164206e+04 -4.195218e+04
-3.494031e+09 -3.294185e+09 -3.454292e+09 1.305200e+05 -7.422023e+04 -6.299824e+04
-3.704271e+09 -3.504465e+09 -3.664583e+09 2.096400e+05 -4.399202e+04 -5.491925e+04
-3.197781e+09 -2.997985e+09 -3.158035e+09 1.386516e+05 -9.100905e+04 -9.648903e+04
-3.571960e+09 -3.372190e+09 -3.532318e+09 1.833578e+05 -5.841031e+04 -3.316866e+04
-3.460092e+09 -3.260228e+09 -3.420359e+09 1.182799e+05 -6.336572e+04 -6.967210e+04
-2.017759e+09 -1.817837e+09 -1.977843e+09 6.699635e+02 6.295706e+02 4.607168e+03
-2.490402e+09 -2.290479e+09 -2.450487e+09 2.070992e+02 -9.977283e+01 1.300472e+03
-2.840464e+09 -2.640543e+09 -2.800552e+09 -3.027957e+02 -3.660823e+02 1.370201e+03
-2.517454e+09 -2.317532e+09 -2.477542e+09 7.352922e+02 1.539738e+02 5.072045e+03
-2.617657e+09 -2.417735e+09 -2.577745e+09 -2.675243e+02 1.056306e+02 4.530658e+03
-2.015468e+09 -1.815395e+09 -1.975483e+09 -5.160425e+03 1.438482e+04 -6.239779e+03
-2.696799e+09 -2.496721e+09 -2.656821e+09 -4.274194e+03 1.052004e+04 -5.727420e+03
-2.617708e+09 -2.417630e+09 -2.577729e+09 -2.988316e+03 9.348194e+03 -1.118818e+04
-4.890088e+09 -4.690063e+09 -4.850135e+09 3.261440e+03 -2.086445e-05 -3.582497e+02
-2.851318e+09 -2.651225e+09 -2.811343e+09 -1.141733e+04 1.349232e+04 -9.273676e+03
-2.353134e+09 -2.153060e+09 -2.313154e+09 -4.235703e+03 1.556516e+04 -8.394420e+03
-2.698688e+09 -2.498609e+09 -2.658716e+09 -1.130991e+04 1.685433e+04 -9.046747e+03
-3.135685e+09 -2.935597e+09 -3.095713e+09 -9.267609e+03 1.321338e+04 -7.306940e+03
-3.049461e+09 -2.849498e+09 -3.009523e+09 -3.726749e+03 -1.199848e+03 1.100769e+03
-4.978286e+09 -4.778244e+09 -4.938345e+09 2.026760e+04 3.029850e+03 5.297119e+02
-2.976727e+09 -2.776766e+09 -2.936790e+09 -2.325656e+03 -3.417104e+02 5.247892e+02
-2.674314e+09 -2.474354e+09 -2.634376e+09 -2.356820e+03 -5.174783e+02 6.474957e+02
-2.245048e+09 -2.045088e+09 -2.205111e+09 -3.961600e+03 -1.273952e+03 1.164515e+03
-2.013427e+09 -1.813465e+09 -1.973488e+09 -4.442397e+03 -1.431165e+03 1.662951e+03
-2.751764e+09 -2.551801e+09 -2.711826e+09 -3.937256e+03 -9.388663e+02 1.454231e+03
-2.685445e+09 -2.485482e+09 -2.645508e+09 -4.490738e+03 -1.919140e+03 1.960042e+03
-2.274682e+09 -2.074718e+09 -2.234742e+09 -3.279639e+03 -5.637497e+02 9.580962e+02
-2.549141e+09 -2.349331e+09 -2.509354e+09 -3.888334e+04 5.748584e+04 -5.469434e+04
-2.470446e+09 -2.270634e+09 -2.430671e+09 -4.067265e+04 3.764763e+04 -3.810143e+04
-2.146995e+09 -1.947105e+09 -2.107132e+09 -8.934028e+04 1.429875e+05 -1.211897e+05
-2.452102e+09 -2.252286e+09 -2.412324e+09 -7.760915e+04 5.896355e+04 -3.436010e+04
-2.783931e+09 -2.584177e+09 -2.744223e+09 -6.666377e+04 6.293031e+04 -7.861578e+04
-2.628493e+09 -2.428746e+09 -2.588762e+09 -7.784986e+04 7.470566e+04 -1.158167e+04
-1.765483e+09 -1.565556e+09 -1.725564e+09 8.582951e+02 8.532720e+01 1.719037e+03
-2.053116e+09 -1.853192e+09 -2.013199e+09 5.593607e+02 1.714673e+02 1.176177e+03
-1.996982e+09 -1.797059e+09 -1.957065e+09 1.064652e+03 -1.898414e+02 3.742465e+03
-2.424101e+09 -2.224174e+09 -2.384185e+09 1.507267e+03 5.941358e+02 3.770379e+03
-2.475946e+09 -2.276023e+09 -2.436031e+09 4.696790e+02 3.287645e+02 1.636606e+03
-2.928979e+09 -2.729056e+09 -2.889065e+09 1.026560e+03 1.489148e+02 1.449903e+03
-2.698064e+09 -2.498098e+09 -2.658127e+09 -6.266529e+03 -1.875974e+03 2.746072e+03
-1.920355e+09 -1.720389e+09 -1.880416e+09 -7.138029e+03 -2.538766e+03 3.749475e+03
-2.650839e+09 -2.450872e+09 -2.610902e+09 -7.683673e+03 -3.482748e+03 4.201438e+03
-2.904059e+09 -2.704090e+09 -2.864121e+09 -6.088838e+03 -1.258085e+03 2.808094e+03
-5.002430e+09 -4.802733e+09 -4.962435e+09 4.926928e+05 -3.441297e+04 -3.058053e+04
-3.414347e+09 -3.214380e+09 -3.374410e+09 -6.037408e+03 -2.392796e+02 3.105073e+03
-3.147983e+09 -2.948016e+09 -3.108044e+09 -5.794784e+03 -1.322766e+03 1.776728e+03
-2.587256e+09 -2.387207e+09 -2.547297e+09 -1.452983e+04 -1.183773e+04 1.234506e+04
-1.903122e+09 -1.703089e+09 -1.863155e+09 -1.130720e+04 -2.114009e+04 1.649285e+04
-2.427167e+09 -2.227116e+09 -2.387205e+09 -8.099661e+03 -1.598703e+04 1.761589e+04
-1.539936e+09 -1.339897e+09 -1.499959e+09 -1.584656e+03 -6.007380e+03 1.378690e+04
-1.888186e+09 -1.688149e+09 -1.848222e+09 -6.468743e+03 -8.443768e+03 1.347581e+04
-2.093748e+09 -1.893797e+09 -2.053816e+09 -1.381819e+03 -4.737666e+02 1.139794e+02
-2.517342e+09 -2.317397e+09 -2.477414e+09 -1.450131e+03 -1.367358e+03 1.487922e+03
-2.057806e+09 -1.857859e+09 -2.017876e+09 -2.818216e+03 -5.102797e+02 1.694441e+03
-2.557262e+09 -2.357312e+09 -2.517331e+09 -3.549241e+03 -1.096388e+03 2.036252e+03
-2.933702e+09 -2.733754e+09 -2.893773e+09 -2.060648e+03 -7.805257e+02 3.845582e+02
-2.541347e+09 -2.341399e+09 -2.501417e+09 -2.708498e+03 -1.259651e+03 2.125696e+03
-2.300616e+09 -2.100575e+09 -2.260667e+09 -1.857471e+04 -3.271677e+04 2.700288e+04
-1.780099e+09 -1.580095e+09 -1.740139e+09 -1.265790e+04 -2.466147e+04 1.919122e+04
-1.955290e+09 -1.755262e+09 -1.915327e+09 -1.596508e+04 -1.759413e+04 1.867474e+04
-1.912505e+09 -1.712495e+09 -1.872562e+09 3.231319e+04 -8.054427e+04 -5.136493e+04
-2.132496e+09 -1.932481e+09 -2.092538e+09 1.860937e+04 1.449746e+04 1.212490e+04
-3.250862e+09 -3.050730e+09 -3.210882e+09 -7.649721e+03 2.366114e+04 -8.448199e+03
-2.124032e+09 -1.924097e+09 -2.084129e+09 4.923915e+04 -9.019714e+04 -8.058145e+04
-2.869484e+09 -2.669563e+09 -2.829673e+09 6.867632e+04 -6.832139e+04 -6.031585e+04
-2.558555e+09 -2.358614e+09 -2.518702e+09 4.962612e+04 -9.059014e+04 -7.369640e+04
-2.184466e+09 -1.984602e+09 -2.144646e+09 4.628012e+04 -7.295414e+04 -3.210970e+04
-2.552611e+09 -2.352747e+09 -2.512826e+09 6.609187e+04 -9.222451e+04 -8.052343e+04
-3.094116e+09 -2.894248e+09 -3.054338e+09 1.216378e+05 -6.048997e+04 -4.216201e+04
-2.611571e+09 -2.411612e+09 -2.571636e+09 -4.393952e+03 -6.105293e+02 8.768037e+02
-2.217503e+09 -2.017537e+09 -2.177564e+09 -4.518379e+03 -1.437401e+03 1.984059e+03
-2.552586e+09 -2.352449e+09 -2.512612e+09 3.930810e+03 -2.976659e+04 -9.083279e+03
-2.100226e+09 -1.900265e+09 -2.060289e+09 -2.814713e+03 -6.601890e+02 8.665616e+02
-4.481181e+09 -4.280986e+09 -4.441168e+09 4.171739e+05 -8.437985e+03 -3.142892e+04
-2.093031e+09 -1.893064e+09 -2.053090e+09 -2.558803e+03 -1.157953e+03 5.226316e+02
-1.917585e+09 -1.717618e+09 -1.877645e+09 -3.289005e+03 -1.068927e+03 1.207353e+03
-1.917585e+09 -1.717620e+09 -1.877645e+09 -4.333937e+03 -1.283344e+03 1.518108e+03
-2.459268e+09 -2.259302e+09 -2.419327e+09 -2.892442e+03 -6.845774e+02 7.035689e+02
-3.626679e+09 -3.427012e+09 -3.587079e+09 3.215932e+04 -4.193066e+04 -1.582056e+04
-4.452507e+09 -4.252915e+09 -4.413007e+09 3.696308e+04 -2.322996e+04 6.420968e+03
-4.651164e+09 -4.451598e+09 -4.611675e+09 1.658002e+04 -7.125088e+03 -1.712472e+03
-3.080356e+09 -2.880383e+09 -3.040415e+09 -3.077650e+03 -8.610833e+02 1.646950e+03
-2.807030e+09 -2.607054e+09 -2.767088e+09 -2.988456e+03 -1.378493e+03 1.956146e+03
-2.995642e+09 -2.795672e+09 -2.955701e+09 -3.912704e+03 -1.275696e+03 1.731349e+03
-3.631139e+09 -3.431177e+09 -3.591202e+09 -4.153881e+03 -6.664675e+02 9.304419e+02
-3.227426e+09 -3.027465e+09 -3.187490e+09 -3.116859e+03 -6.290403e+02 1.026980e+03
-3.208338e+09 -3.008376e+09 -3.168399e+09 -4.084733e+03 -4.762803e+02 1.315491e+03
-4.079714e+09 -3.879753e+09 -4.039776e+09 -2.054910e+03 -5.449100e+01 3.029220e+02
-3.910113e+09 -3.710150e+09 -3.870175e+09 -2.378540e+03 -1.441965e+02 3.637883e+02
-4.787534e+09 -4.587552e+09 -4.747589e+09 6.901223e+03 3.245205e+02 6.700368e+02
-4.194806e+09 -3.994823e+09 -4.154858e+09 6.829872e+03 5.075708e+02 4.755436e+02
-4.129212e+09 -3.929754e+09 -4.089359e+09 3.770730e+05 -3.466689e+04 -8.014605e+04
-3.913746e+09 -3.713762e+09 -3.873797e+09 3.871007e+03 7.149533e+02 1.122339e+02
-4.793935e+09 -4.593950e+09 -4.753988e+09 4.940072e+03 5.626882e+02 6.191887e+02
-4.619959e+09 -4.419974e+09 -4.580010e+09 4.203689e+03 2.638751e+02 1.169428e+03
-4.993791e+09 -4.793716e+09 -4.953923e+09 -1.146048e+05 -8.563885e+03 1.066925e+04
-4.052886e+09 -3.852791e+09 -4.012927e+09 -1.976624e+04 1.079318e+04 -1.012899e+04
-4.759300e+09 -4.559201e+09 -4.719342e+09 -8.010314e+03 1.265951e+03 -2.334903e+03
-4.724264e+09 -4.524175e+09 -4.684306e+09 -1.161276e+04 1.938954e+03 -2.809917e+03
-2.174018e+09 -1.974002e+09 -2.134080e+09 -9.102467e+03 5.059617e+04 -1.479891e+04
-2.354293e+09 -2.154237e+09 -2.314356e+09 -3.947771e+04 5.086950e+04 -2.673593e+04
-3.008009e+09 -2.807962e+09 -2.968099e+09 -3.122747e+04 4.982079e+04 -2.640669e+04
-2.833868e+09 -2.633837e+09 -2.793946e+09 -2.133375e+04 4.638196e+04 -1.487088e+04
-2.946465e+09 -2.746506e+09 -2.906530e+09 -4.439421e+03 -1.588138e+03 1.646411e+03
-3.254580e+09 -3.054622e+09 -3.214647e+09 -4.891742e+03 -7.538930e+02 2.104452e+03
-3.416094e+09 -3.216136e+09 -3.376158e+09 -3.098937e+03 -4.507742e+02 5.990301e+02
-2.465270e+09 -2.265316e+09 -2.425337e+09 -3.098197e+03 -7.809762e+02 1.036129e+03
-2.756105e+09 -2.556052e+09 -2.716139e+09 7.571654e+03 9.263792e+03 7.774125e+03
-2.045126e+09 -1.845073e+09 -2.005148e+09 1.235129e+04 1.279832e+04 9.224616e+03
-2.463490e+09 -2.263443e+09 -2.423528e+09 1.299387e+04 1.223571e+04 9.473861e+03
-3.096015e+09 -2.895961e+09 -3.056058e+09 1.927172e+04 1.377524e+04 9.160313e+03
-3.122190e+09 -2.922189e+09 -3.082336e+09 4.049849e+04 -6.318687e+04 -2.706206e+04
-3.566295e+09 -3.366274e+09 -3.526462e+09 4.745939e+04 -3.778331e+04 -1.295759e+04
-3.021294e+09 -2.821264e+09 -2.981410e+09 4.558820e+04 -6.348636e+04 -3.834468e+04
-4.824398e+09 -4.625252e+09 -4.784266e+09 4.141606e+05 2.396352e+04 -1.168606e+05
-4.675262e+09 -4.476158e+09 -4.635508e+09 3.532805e+05 6.989879e+04 6.165107e+04
-4.301197e+09 -4.101995e+09 -4.260574e+09 4.628482e+05 -4.213757e+04 1.079707e+05
-4.137950e+09 -3.938759e+09 -4.097666e+09 4.053500e+05 7.511268e+03 2.732668e+05
-3.048411e+09 -2.848342e+09 -3.008442e+09 -6.911416e+03 1.504515e+04 -3.467057e+03
-2.374019e+09 -2.173951e+09 -2.334038e+09 -1.992887e+03 1.278145e+04 -7.291771e+03
-2.947805e+09 -2.747729e+09 -2.907830e+09 -5.479515e+03 8.725653e+03 -5.738536e+03
-2.126762e+09 -1.926689e+09 -2.086773e+09 -1.452305e+03 5.910662e+03 -5.894447e+03
-3.961260e+09 -3.761545e+09 -3.921529e+09 2.981655e+05 2.253533e+04 -1.268103e+04
-1.887723e+09 -1.687655e+09 -1.847738e+09 -3.024563e+03 7.514796e+03 -2.522562e+03
-2.098071e+09 -1.898061e+09 -2.058112e+09 8.652824e+03 5.509013e+03 5.384571e+03
-1.780806e+09 -1.580799e+09 -1.740845e+09 7.072491e+03 4.730035e+03 3.778727e+03
-1.798612e+09 -1.598612e+09 -1.758656e+09 5.794572e+03 3.437448e+03 2.563262e+03
-2.065442e+09 -1.865430e+09 -2.025481e+09 6.341321e+03 2.910033e+03 3.993832e+03
-2.099661e+09 -1.899659e+09 -2.059704e+09 5.169457e+03 1.894602e+03 2.894447e+03
-2.961756e+09 -2.761705e+09 -2.921805e+09 2.053504e+04 1.995851e+04 1.245098e+04
-2.038438e+09 -1.838395e+09 -1.998465e+09 1.837278e+04 1.753644e+04 1.178666e+04
-2.444828e+09 -2.244765e+09 -2.404862e+09 2.025426e+04 2.173775e+04 1.501666e+04
-2.369459e+09 -2.169419e+09 -2.329497e+09 1.389226e+04 1.273043e+04 1.331488e+04
-1.830162e+09 -1.630125e+09 -1.790192e+09 1.413161e+04 1.528930e+04 1.175593e+04
-1.571225e+09 -1.371211e+09 -1.531262e+09 6.328545e+03 5.507070e+03 5.347833e+03
-1.641573e+09 -1.441637e+09 -1.601650e+09 6.943287e+03 1.953246e+03 8.433714e+03
-2.849904e+09 -2.649972e+09 -2.809988e+09 4.669016e+03 1.351950e+03 5.242367e+03
-2.816411e+09 -2.616484e+09 -2.776499e+09 5.014286e+03 2.722167e+03 7.124747e+03
-3.041615e+09 -2.841687e+09 -3.001704e+09 6.672432e+03 1.253180e+03 6.045399e+03
-4.263988e+09 -4.063907e+09 -4.224064e+09 -3.628683e+04 1.268987e+04 -5.549092e+03
-4.262030e+09 -4.061957e+09 -4.222100e+09 -2.707376e+04 1.398855e+04 -3.581171e+03
-4.835287e+09 -4.635205e+09 -4.795368e+09 -3.438562e+04 9.682441e+03 5.861831e+01
-4.649362e+09 -4.449281e+09 -4.609461e+09 -3.601661e+04 1.100076e+04 -2.303436e+03
-3.964565e+09 -3.765031e+09 -3.924405e+09 4.170522e+05 -1.032044e+04 8.669918e+04
-4.328118e+09 -4.128024e+09 -4.288188e+09 -3.376950e+04 1.676258e+04 -8.614045e+03
-3.994269e+09 -3.794204e+09 -3.954356e+09 -3.585354e+04 2.277588e+04 -8.225428e+03
-4.087601e+09 -3.887512e+09 -4.047664e+09 -2.751613e+04 1.389466e+04 -8.161549e+03
-4.984471e+09 -4.784169e+09 -4.944522e+09 -9.766004e+04 -2.107065e+04 6.663359e+03
-3.339878e+09 -3.139803e+09 -3.299945e+09 2.593066e+04 -2.571564e+04 -1.411963e+04
-3.905200e+09 -3.705125e+09 -3.865300e+09 3.925596e+04 -2.272017e+04 -9.586434e+03
-3.669911e+09 -3.469820e+09 -3.629984e+09 2.334344e+04 -2.420186e+04 -1.545425e+04
-4.008162e+09 -3.808083e+09 -3.968245e+09 2.440861e+04 -2.184158e+04 -9.915685e+03
-4.133242e+09 -3.933404e+09 -4.093439e+09 -2.791022e+04 -2.914425e+03 2.126744e+04
-4.309672e+09 -4.109807e+09 -4.269849e+09 -2.449730e+04 -6.465173e+03 1.879835e+04
-4.310145e+09 -4.110296e+09 -4.270324e+09 -2.466322e+04 -5.189662e+03 1.974440e+04
-4.158752e+09 -3.958740e+09 -4.118804e+09 1.188806e+04 4.103151e+03 3.239743e+03
-4.819696e+09 -4.619867e+09 -4.779904e+09 -2.912726e+04 -4.344155e+03 1.133078e+04
-4.991541e+09 -4.790946e+09 -4.951412e+09 -6.757882e+03 -4.085187e+04 -6.283258e+03
-1.643049e+09 -1.442977e+09 -1.603059e+09 -1.471579e+03 1.684735e+04 -8.946928e+03
-2.889169e+09 -2.689076e+09 -2.849187e+09 -4.155128e+03 9.589095e+03 -9.199755e+03
-3.005394e+09 -2.805300e+09 -2.965417e+09 -9.600815e+03 1.307154e+04 -9.864045e+03
-4.201830e+09 -4.001842e+09 -4.161895e+09 -9.549247e+03 -2.405868e+03 3.040100e+03
-4.791567e+09 -4.591582e+09 -4.751633e+09 -1.008208e+04 -1.632547e+02 1.869600e+03
-4.802325e+09 -4.602340e+09 -4.762400e+09 -1.815363e+04 -3.523494e+02 2.112138e+03
-4.252704e+09 -4.052714e+09 -4.212770e+09 -1.834847e+04 -3.813849e+03 4.158090e+03
-4.598756e+09 -4.398767e+09 -4.558819e+09 -9.594926e+03 -8.783286e+02 3.085003e+03
-4.649633e+09 -4.449644e+09 -4.609706e+09 -1.822228e+04 -1.344551e+03 2.974410e+03
-2.374639e+09 -2.174677e+09 -2.334700e+09 -2.216030e+03 -1.322548e+03 7.876592e+02
-3.070809e+09 -2.870843e+09 -3.030870e+09 -4.322943e+03 -9.230204e+02 1.335913e+03
-2.760905e+09 -2.560940e+09 -2.720965e+09 -4.470009e+03 -3.023308e+02 1.108763e+03
-3.107337e+09 -2.907375e+09 -3.067403e+09 -5.880361e+03 -1.334342e+03 2.121979e+03
-3.739162e+09 -3.539199e+09 -3.699226e+09 -5.945066e+03 -8.580161e+02 1.113072e+03
-3.313949e+09 -3.113986e+09 -3.274011e+09 -3.521918e+03 -7.810135e+02 1.194847e+03
-4.954159e+09 -4.754091e+09 -4.914248e+09 1.666556e+04 -4.921288e+03 -5.871422e+02
-3.695668e+09 -3.495705e+09 -3.655731e+09 -3.426994e+03 -2.888484e+01 1.190496e+03
-3.301524e+09 -3.101489e+09 -3.261633e+09 2.196209e+04 -3.535939e+04 -1.388293e+04
-3.535663e+09 -3.335645e+09 -3.495786e+09 2.092267e+04 -3.671911e+04 -7.938896e+03
-3.487646e+09 -3.287631e+09 -3.447772e+09 1.725309e+04 -4.118770e+04 -7.181678e+03
-3.310824e+09 -3.110843e+09 -3.270875e+09 1.136291e+03 9.616452e+01 2.053868e+01
-4.366517e+09 -4.166534e+09 -4.326567e+09 7.587145e+02 4.547201e+01 5.270614e+02
-4.638153e+09 -4.438171e+09 -4.598205e+09 1.598524e+03 6.466816e+00 -8.847204e+00
-4.556103e+09 -4.356121e+09 -4.516154e+09 9.982723e+02 2.975791e+01 1.522612e+02
-4.481241e+09 -4.281260e+09 -4.441293e+09 1.821740e+03 1.903252e+02 2.776651e+02
-3.137242e+09 -2.937258e+09 -3.097292e+09 1.741972e+03 1.501427e+02 5.882976e+02
-3.550164e+09 -3.350180e+09 -3.510215e+09 1.240453e+03 -6.262287e+00 2.509760e+02
-3.659906e+09 -3.459925e+09 -3.619956e+09 1.203463e+03 -4.755355e+01 2.791590e+02
-4.057659e+09 -3.857678e+09 -4.017711e+09 2.074676e+03 -2.211392e+02 -2.549080e+01
-4.105762e+09 -3.905587e+09 -4.065788e+09 -1.049565e+03 1.599209e+04 2.844469e+03
-4.263646e+09 -4.063473e+09 -4.223676e+09 4.645342e+03 1.253199e+04 -7.691577e+02
-3.923547e+09 -3.723385e+09 -3.883581e+09 1.419911e+04 2.378581e+04 -2.901933e+02
-3.656329e+09 -3.456190e+09 -3.616357e+09 4.735680e+03 1.672300e+04 3.101474e+03
-4.160069e+09 -3.959919e+09 -4.120099e+09 3.946934e+03 1.422727e+04 1.075151e+03
-3.332154e+09 -3.132015e+09 -3.292183e+09 2.395398e+03 1.980355e+04 1.005077e+03
-4.334889e+09 -4.135013e+09 -4.295035e+09 -1.094479e+04 -2.832585e+03 1.229475e+04
-4.848925e+09 -4.649061e+09 -4.809092e+09 -1.483417e+04 -2.176433e+02 7.519435e+03
-4.162464e+09 -3.962597e+09 -4.122625e+09 -1.418417e+04 -3.164957e+03 1.463946e+04
-4.652905e+09 -4.453040e+09 -4.613082e+09 -2.473218e+04 -5.269152e+02 7.575566e+03
-2.757689e+09 -2.557712e+09 -2.717742e+09 3.748249e+02 1.605673e+02 2.175679e+02
-3.590974e+09 -3.390997e+09 -3.551027e+09 3.426170e+02 1.319988e+02 1.221882e+01
-3.835633e+09 -3.635655e+09 -3.795685e+09 8.995155e+02 2.786084e+02 3.725479e+02
-4.984453e+09 -4.784132e+09 -4.944509e+09 -7.324259e+04 -3.422291e+04 5.193423e+03
-4.044159e+09 -3.844183e+09 -4.004212e+09 1.187411e+03 -1.523778e+02 4.476623e+02
-3.768504e+09 -3.568528e+09 -3.728557e+09 4.346226e+02 1.502352e+01 2.756448e+02
-4.013531e+09 -3.813555e+09 -3.973584e+09 4.560699e+02 -2.798255e+02 2.350896e+00
-2.594121e+09 -2.394071e+09 -2.554160e+09 2.026326e+04 1.919194e+04 1.370050e+04
-2.852453e+09 -2.652380e+09 -2.812488e+09 1.314004e+04 1.713872e+04 1.105986e+04
-3.290646e+09 -3.090595e+09 -3.250694e+09 2.381916e+04 1.796072e+04 1.418076e+04
-3.529744e+09 -3.329689e+09 -3.489804e+09 3.530365e+04 2.423514e+04 1.517492e+04
-3.475986e+09 -3.275904e+09 -3.436034e+09 3.552454e+04 1.767184e+04 1.373463e+04
-3.161023e+09 -2.960940e+09 -3.121072e+09 2.487660e+04 3.231411e+04 1.925761e+04
-3.976385e+09 -3.776426e+09 -3.936456e+09 -7.754670e+03 -5.756754e+02 9.527657e+02
-4.010203e+09 -3.810253e+09 -3.970278e+09 -9.264711e+03 -4.336136e+02 3.312573e+03
-4.763187e+09 -4.563239e+09 -4.723265e+09 -9.368861e+03 -1.539863e+03 1.359596e+02
-3.727481e+09 -3.527399e+09 -3.687545e+09 9.946434e+03 -9.398972e+03 -9.605366e+03
-4.241339e+09 -4.041389e+09 -4.201417e+09 -1.015902e+04 -1.395288e+03 1.655885e+03
-4.794850e+09 -4.594897e+09 -4.754926e+09 -1.021244e+04 6.628323e+02 1.822916e+03
-4.803960e+09 -4.604821e+09 -4.764363e+09 -2.271378e+05 5.291530e+04 -3.330944e+04
-4.303655e+09 -4.104582e+09 -4.264139e+09 -2.034421e+05 -8.799900e+03 -7.466630e+04
-4.035063e+09 -3.835705e+09 -3.995512e+09 -1.585004e+05 2.033445e+04 3.629621e+03
-3.861837e+09 -3.662656e+09 -3.822333e+09 8.550824e+04 1.039931e+04 1.021379e+04
-4.795261e+09 -4.595976e+09 -4.755769e+09 -1.493250e+05 5.353602e+03 -3.663662e+04
-4.036028e+09 -3.836894e+09 -3.996657e+09 -8.798445e+04 -2.288995e+04 2.046691e+04
-4.579999e+09 -4.379901e+09 -4.540083e+09 2.142743e+04 -1.635506e+04 -5.255342e+03
-4.296221e+09 -4.096222e+09 -4.256341e+09 7.186401e+04 1.409614e+04 1.401079e+04
-4.300898e+09 -4.100913e+09 -4.261036e+09 8.093427e+04 1.670006e+04 1.953757e+04
-4.299110e+09 -4.099150e+09 -4.259259e+09 7.755003e+04 1.198751e+04 1.501491e+04
-4.130820e+09 -3.930833e+09 -4.090948e+09 7.354779e+04 2.371470e+04 1.279072e+04
-2.146304e+09 -1.946378e+09 -2.106447e+09 -5.511898e+04 8.718346e+04 -6.233471e+04
-2.626690e+09 -2.426824e+09 -2.586917e+09 -5.945359e+04 6.396143e+04 -4.096294e+04
-1.964976e+09 -1.765083e+09 -1.925078e+09 -3.179109e+04 1.003548e+05 -1.102092e+05
-1.796921e+09 -1.597034e+09 -1.757037e+09 -1.912292e+04 9.469439e+04 -1.154146e+05
-2.241731e+09 -2.041895e+09 -2.201938e+09 -4.457473e+04 8.056078e+04 -5.825563e+04
-2.554140e+09 -2.354285e+09 -2.514378e+09 -5.678872e+04 7.096630e+04 -3.903126e+04
-4.588197e+09 -4.388110e+09 -4.548304e+09 3.771672e+04 -1.738239e+04 -5.144864e+03
-4.075358e+09 -3.875298e+09 -4.035448e+09 2.527611e+04 -1.735736e+04 -6.719872e+03
-4.779319e+09 -4.579248e+09 -4.739432e+09 4.131576e+04 -1.166376e+04 -2.849874e+03
-4.754999e+09 -4.554941e+09 -4.715117e+09 3.179361e+04 -1.247790e+04 -3.777593e+03
-4.756704e+09 -4.556636e+09 -4.716802e+09 2.364255e+04 -9.992238e+03 -2.708502e+03
-3.340102e+09 -3.140135e+09 -3.300161e+09 2.519827e+03 2.858418e+02 6.573556e+02
-2.505492e+09 -2.305523e+09 -2.465551e+09 3.764927e+03 6.576689e+02 1.082684e+03
-3.285507e+09 -3.085539e+09 -3.245566e+09 5.215344e+03 7.083087e+02 8.942092e+02
-3.649171e+09 -3.449203e+09 -3.609229e+09 4.940563e+03 9.213939e+02 5.407280e+02
-2.543487e+09 -2.343342e+09 -2.503504e+09 -3.349376e+04 -5.879884e+04 1.498999e+04
-4.989426e+09 -4.789489e+09 -4.949509e+09 3.073132e+03 -7.690480e+02 2.229535e+01
-1.635375e+09 -1.435390e+09 -1.595425e+09 8.319409e+02 3.238672e+02 6.410747e+02
-2.355927e+09 -2.155812e+09 -2.315953e+09 -1.050615e+04 -5.772738e+04 1.732540e+04
-2.318668e+09 -2.118540e+09 -2.278686e+09 -1.276800e+04 -5.333008e+04 1.776107e+04
-2.016223e+09 -1.816077e+09 -1.976224e+09 -1.888240e+04 -6.074633e+04 1.866154e+04
-2.765122e+09 -2.565109e+09 -2.725176e+09 -5.038442e+03 -4.532884e+03 1.128003e+04
-2.824601e+09 -2.624589e+09 -2.784651e+09 -8.439553e+03 -5.951777e+03 1.042709e+04
-2.166748e+09 -1.966739e+09 -2.126791e+09 -2.812171e+03 -7.715249e+02 6.680796e+03
-1.906123e+09 -1.706122e+09 -1.866170e+09 -4.262626e+03 -2.855969e+03 6.839537e+03
-2.240093e+09 -2.040113e+09 -2.200144e+09 6.175714e+02 8.798191e+01 -2.473780e+02
-4.793435e+09 -4.593530e+09 -4.753547e+09 -3.661143e+03 -8.887913e+02 1.779654e+03
-4.806220e+09 -4.606310e+09 -4.766330e+09 -6.972344e+03 -1.469806e+03 1.983901e+03
-4.268543e+09 -4.068586e+09 -4.228719e+09 1.207583e+05 2.576489e+04 3.033059e+04
-4.274041e+09 -4.074094e+09 -4.234258e+09 1.560669e+05 2.766051e+04 3.131686e+04
-4.441943e+09 -4.242092e+09 -4.402216e+09 1.521523e+05 2.276688e+04 3.606526e+04
-4.111390e+09 -3.911473e+09 -4.071606e+09 1.525541e+05 3.952539e+04 3.257581e+04
-4.600613e+09 -4.400353e+09 -4.560651e+09 -4.050502e+03 -1.098261e+04 8.788080e+02
-3.740477e+09 -3.540469e+09 -3.700545e+09 -1.741212e+04 -5.779259e+03 7.303486e+03
-4.796963e+09 -4.596719e+09 -4.757011e+09 -1.108256e+04 -7.699657e+03 6.716780e+03
-3.864933e+09 -3.664666e+09 -3.824978e+09 -1.400601e+04 -3.304486e+04 1.741519e+03
-4.027734e+09 -3.827489e+09 -3.987777e+09 -1.177697e+04 -3.156876e+04 2.333297e+03
-2.919774e+09 -2.719695e+09 -2.879824e+09 1.720263e+04 -2.630095e+04 -1.275089e+04
-3.310780e+09 -3.110700e+09 -3.270831e+09 1.034619e+04 -1.135140e+04 -1.009219e+04
-3.679412e+09 -3.479263e+09 -3.639480e+09 5.185002e+04 -3.769059e+04 -1.938603e+04
-3.723356e+09 -3.523274e+09 -3.683438e+09 2.408770e+04 -2.426638e+04 -8.958673e+03
-3.706308e+09 -3.506220e+09 -3.666368e+09 1.522765e+04 -1.251261e+04 -9.339527e+03
-3.959574e+09 -3.759164e+09 -3.919551e+09 -8.438247e+04 -3.280041e+04 1.876813e+04
-3.289531e+09 -3.089363e+09 -3.249555e+09 -8.128892e+03 3.875504e+04 -5.013138e+03
-3.217853e+09 -3.017685e+09 -3.177885e+09 -8.580241e+03 5.793429e+04 -1.115285e+04
-3.820735e+09 -3.620531e+09 -3.780758e+09 1.269938e+03 3.651010e+04 -5.236074e+01
-2.978304e+09 -2.778140e+09 -2.938330e+09 -1.589335e+03 5.911790e+04 -2.910113e+03
-3.144711e+09 -2.944540e+09 -3.104734e+09 -1.008901e+04 5.414408e+04 -1.432782e+03
-3.520688e+09 -3.320497e+09 -3.480712e+09 -6.669650e+03 4.201470e+04 -1.018440e+04
-2.853481e+09 -2.653321e+09 -2.813498e+09 -7.607508e+03 4.313257e+04 -7.742027e+03
-2.993093e+09 -2.792972e+09 -2.953107e+09 8.978194e+02 4.947205e+03 3.484776e+02
-3.448760e+09 -3.248626e+09 -3.408784e+09 6.241863e+03 8.189555e+03 2.707499e+03
-3.471515e+09 -3.271383e+09 -3.431540e+09 6.451170e+03 7.265097e+03 4.917109e+03
-2.763011e+09 -2.562902e+09 -2.723026e+09 3.337709e+03 1.382651e+04 7.170503e+03
-2.682647e+09 -2.482538e+09 -2.642658e+09 1.956718e+03 1.480718e+04 -1.325080e+01
-2.583406e+09 -2.383302e+09 -2.543426e+09 6.145184e+03 2.354812e+04 2.897585e+03
-4.306916e+09 -4.106990e+09 -4.267056e+09 4.549442e+04 8.973243e+03 1.374415e+04
-3.958270e+09 -3.758177e+09 -3.918390e+09 -9.653983e+04 4.296147e+04 -2.429342e+04
-4.819576e+09 -4.619646e+09 -4.779705e+09 4.026417e+04 7.106280e+03 4.941024e+03
-4.829067e+09 -4.629143e+09 -4.789193e+09 3.341705e+04 -4.710230e+02 4.810707e+03
-4.656465e+09 -4.456546e+09 -4.616596e+09 3.160716e+04 1.947723e+03 6.240362e+03
-2.545318e+09 -2.345202e+09 -2.505334e+09 -2.066680e+04 -5.276112e+04 1.950857e+04
-3.036511e+09 -2.836391e+09 -2.996547e+09 -1.388313e+04 -1.932418e+04 1.304362e+04
-2.621734e+09 -2.421650e+09 -2.581780e+09 -4.962410e+03 -1.513120e+04 1.595589e+04
-1.602656e+09 -1.402588e+09 -1.562665e+09 -1.370890e+03 -2.330976e+04 1.735963e+04
-1.782758e+09 -1.582669e+09 -1.742755e+09 9.489953e+03 -5.104048e+04 1.934350e+04
-2.051126e+09 -1.851032e+09 -2.011142e+09 -1.332662e+04 -2.430905e+04 1.514418e+04
-1.996951e+09 -1.796850e+09 -1.956957e+09 -1.336887e+04 -2.890291e+04 1.363751e+04
-4.226765e+09 -4.026717e+09 -4.186827e+09 2.501077e+04 1.018305e+04 8.139265e+03
-4.453962e+09 -4.253916e+09 -4.414025e+09 3.071424e+04 7.337892e+03 5.107400e+03
-4.774773e+09 -4.574735e+09 -4.734835e+09 2.780361e+04 3.592879e+03 4.646772e+03
-4.595852e+09 -4.395821e+09 -4.555909e+09 2.042777e+04 3.662758e+03 2.807423e+03
-2.537228e+09 -2.337268e+09 -2.497290e+09 -8.066574e+02 -2.823339e+02 -6.272014e+01
-2.651014e+09 -2.451056e+09 -2.611077e+09 -2.545265e+03 -7.634023e+02 9.104916e+02
-2.778130e+09 -2.578173e+09 -2.738194e+09 -1.156303e+03 -8.029804e+02 1.991559e+02
-4.627177e+09 -4.426812e+09 -4.587182e+09 7.013060e+03 -1.197024e+04 4.633207e+03
-4.640899e+09 -4.440558e+09 -4.600913e+09 3.806470e+04 -1.218565e+04 2.958252e+03
-4.823781e+09 -4.623388e+09 -4.783798e+09 4.447652e+04 -3.347650e+04 -4.186885e+03
-4.616171e+09 -4.415839e+09 -4.576211e+09 1.680014e+04 -1.269207e+04 1.980579e+03
-3.204701e+09 -3.004601e+09 -3.164748e+09 1.857126e+04 -1.633344e+04 -1.189063e+04
-2.637162e+09 -2.437094e+09 -2.597204e+09 8.805059e+03 -2.573539e+04 -1.178486e+04
-2.940560e+09 -2.740473e+09 -2.900609e+09 1.768118e+04 -2.900008e+04 -1.714520e+04
-3.354508e+09 -3.154406e+09 -3.314577e+09 2.914636e+04 -4.416799e+04 -2.501138e+04
-2.208580e+09 -2.008513e+09 -2.168607e+09 1.624503e+04 -3.676285e+04 -1.932750e+04
-3.971049e+09 -3.770722e+09 -3.931073e+09 -3.799143e+04 -4.156086e+04 8.510118e+03
-4.006297e+09 -3.806203e+09 -3.966387e+09 4.549956e+04 -1.792956e+04 -1.636035e+04
-1.929803e+09 -1.729902e+09 -1.889925e+09 -1.386896e+05 1.330628e+05 -1.555683e+05
-1.789121e+09 -1.589155e+09 -1.749156e+09 -6.603479e+04 8.709979e+04 -9.645008e+04
-4.617977e+09 -4.417919e+09 -4.578072e+09 7.846844e+03 -8.099001e+03 -7.125658e+02
-2.499050e+09 -2.299016e+09 -2.459094e+09 2.159230e+04 1.468737e+04 1.128016e+04
-2.399985e+09 -2.199942e+09 -2.360022e+09 1.804381e+04 1.780603e+04 1.228432e+04
-2.024565e+09 -1.824537e+09 -1.984600e+09 1.732921e+04 1.234571e+04 9.307395e+03
-2.282319e+09 -2.082292e+09 -2.242358e+09 1.143524e+04 9.991693e+03 8.862415e+03
-2.016796e+09 -1.816766e+09 -1.976829e+09 1.068814e+04 9.387983e+03 6.996192e+03
-1.821309e+09 -1.621273e+09 -1.781336e+09 7.478742e+03 1.108824e+04 1.006978e+04
-4.985412e+09 -4.785826e+09 -4.944034e+09 6.353363e+05 1.800809e+05 6.143716e+04
-2.103150e+09 -1.903149e+09 -2.063195e+09 -5.003704e+03 -2.789530e+03 6.383901e+03
-3.109274e+09 -2.909274e+09 -3.069335e+09 -1.374484e+04 -7.340039e+03 1.192052e+04
-2.418840e+09 -2.218827e+09 -2.378889e+09 -1.299157e+04 -1.140157e+04 1.276482e+04
-2.357387e+09 -2.157382e+09 -2.317440e+09 -8.315273e+03 -7.052806e+03 1.307185e+04
-2.268598e+09 -2.068596e+09 -2.228651e+09 -1.218058e+04 -8.990191e+03 1.255551e+04
-4.457477e+09 -4.258246e+09 -4.415415e+09 4.512631e+05 -2.837445e+05 -3.430394e+05
-2.790485e+09 -2.590486e+09 -2.750536e+09 -1.025161e+04 -5.893725e+03 9.626885e+03
-2.765867e+09 -2.565854e+09 -2.725929e+09 -1.417904e+04 -1.312310e+04 1.432844e+04
-2.934407e+09 -2.734405e+09 -2.894471e+09 -1.796553e+04 -1.162673e+04 1.105274e+04
-4.299385e+09 -4.099222e+09 -4.259424e+09 -9.120002e+03 1.653425e+04 -4.377045e+03
-4.039503e+09 -3.839349e+09 -3.999530e+09 -7.305069e+03 1.200659e+04 -2.476060e+03
-4.253527e+09 -4.053369e+09 -4.213560e+09 -1.506129e+04 1.653737e+04 -4.532613e+03
-4.246802e+09 -4.046623e+09 -4.206832e+09 -1.952650e+04 1.937323e+04 -6.024076e+03
-4.618344e+09 -4.418155e+09 -4.578381e+09 -1.776136e+04 1.651431e+04 -3.331770e+03
-5.005042e+09 -4.804845e+09 -4.965078e+09 -1.658129e+04 4.064927e+03 -6.486731e+02
-4.647895e+09 -4.447736e+09 -4.607935e+09 -1.575795e+04 7.733040e+03 -3.148773e+03
-3.955678e+09 -3.755729e+09 -3.915901e+09 6.411848e+04 -3.093639e+04 -1.336659e+04
-4.226810e+09 -4.026880e+09 -4.187052e+09 7.308240e+04 -4.172818e+04 -2.703620e+04
-4.824505e+09 -4.624561e+09 -4.784764e+09 1.382530e+05 -9.709110e+03 2.536035e+02
-4.837071e+09 -4.637123e+09 -4.797324e+09 7.965325e+04 -8.715417e+03 7.849828e+03
-4.244118e+09 -4.044146e+09 -4.204314e+09 9.766142e+04 -3.342282e+04 -8.990067e+03
-4.004225e+09 -3.804216e+09 -3.964399e+09 8.578950e+04 -4.029853e+04 -3.107891e+04
-4.642941e+09 -4.442965e+09 -4.603194e+09 1.329740e+05 -2.417925e+04 -1.484307e+03
-4.600894e+09 -4.400926e+09 -4.560953e+09 1.110710e+03 4.103072e+02 9.060676e+01
-4.661607e+09 -4.461641e+09 -4.621667e+09 2.242015e+03 7.378763e+01 1.984648e+02
-4.211119e+09 -4.011157e+09 -4.171183e+09 5.049062e+03 8.003446e+02 1.456222e+03
-4.594087e+09 -4.394125e+09 -4.554151e+09 5.354975e+03 -5.500739e+02 -5.258975e+02
-4.026535e+09 -3.826572e+09 -3.986598e+09 2.552511e+03 1.003875e+03 8.750461e+02
-3.917423e+09 -3.717461e+09 -3.877487e+09 4.741791e+03 4.412723e+02 1.219829e+03
-3.968246e+09 -3.768278e+09 -3.928306e+09 4.481332e+03 1.793453e+02 -1.024207e+03
-2.169325e+09 -1.969354e+09 -2.129382e+09 -3.509795e+03 -7.614998e+02 1.207170e+03
-1.566544e+09 -1.366573e+09 -1.526601e+09 -2.834130e+03 -1.064808e+03 1.698840e+03
-2.099080e+09 -1.899106e+09 -2.059136e+09 -5.069096e+03 -1.952645e+03 3.472455e+03
-1.620437e+09 -1.420471e+09 -1.580499e+09 -5.981472e+03 -2.120529e+03 2.557007e+03
-4.156839e+09 -3.956624e+09 -4.116902e+09 -7.316924e+04 -3.389746e+04 2.259835e+04
-1.586750e+09 -1.386694e+09 -1.546765e+09 4.728169e+03 1.752940e+04 1.102091e+04
-3.098640e+09 -2.898669e+09 -3.058702e+09 -7.377806e+03 -1.925101e+03 3.047812e+03
-4.428943e+09 -4.228880e+09 -4.389073e+09 4.856282e+04 -1.755401e+04 -1.117919e+04
-3.953948e+09 -3.753870e+09 -3.914076e+09 6.686374e+04 -2.854330e+04 -1.856246e+04
-4.633518e+09 -4.433444e+09 -4.593655e+09 6.369882e+04 -1.924525e+04 -9.906266e+03
-5.007584e+09 -4.807371e+09 -4.967646e+09 -6.318377e+04 -9.129309e+03 7.083099e+03
-1.849177e+09 -1.649114e+09 -1.809193e+09 1.093702e+04 -2.726244e+04 -1.672493e+04
-2.874134e+09 -2.674049e+09 -2.834179e+09 1.414649e+04 -2.837067e+04 -1.900735e+04
-2.559423e+09 -2.359326e+09 -2.519458e+09 7.917094e+03 -2.666858e+04 -2.170206e+04
-2.966355e+09 -2.766265e+09 -2.926394e+09 5.899607e+03 -1.624042e+04 -1.260058e+04
-1.572647e+09 -1.372672e+09 -1.532701e+09 3.348726e+03 6.620789e+02 3.942430e+02
-2.106865e+09 -1.906777e+09 -2.066883e+09 1.167998e+04 -3.625207e+04 -2.206662e+04
-4.765999e+09 -4.565885e+09 -4.726037e+09 -8.573193e+03 3.318528e+03 -1.767890e+03
-4.766001e+09 -4.565878e+09 -4.726036e+09 -1.348507e+04 3.034252e+03 -2.973602e+03
-4.089925e+09 -3.889806e+09 -4.049955e+09 -8.202290e+03 9.624334e+03 -5.622009e+03
-4.615105e+09 -4.414867e+09 -4.575129e+09 -1.886899e+04 1.213838e+04 2.408795e+03
-4.242151e+09 -4.042013e+09 -4.202189e+09 -1.737491e+04 1.779725e+04 -7.720315e+03
-4.627814e+09 -4.427676e+09 -4.587853e+09 -1.754142e+04 1.298688e+03 -1.152139e+03
-3.691859e+09 -3.491735e+09 -3.651890e+09 -1.162546e+04 1.020061e+04 -5.725740e+03
-4.021998e+09 -3.821887e+09 -3.982032e+09 -1.365223e+04 1.012392e+04 -2.360459e+03
-2.470410e+09 -2.270440e+09 -2.430467e+09 2.619941e+03 6.215224e+02 6.438757e+02
-2.722315e+09 -2.522350e+09 -2.682375e+09 2.925009e+03 5.690866e+01 4.003036e+02
-2.712996e+09 -2.513028e+09 -2.673055e+09 3.608242e+03 5.532779e+02 1.037440e+03
-1.745398e+09 -1.545434e+09 -1.705459e+09 3.799731e+03 1.138285e+02 1.734166e+03
-2.091587e+09 -1.891618e+09 -2.051645e+09 3.841376e+03 5.410821e+02 9.749809e+02
-1.802761e+09 -1.602792e+09 -1.762819e+09 2.976428e+03 9.490525e+01 8.448223e+02
-3.043772e+09 -2.843648e+09 -3.003796e+09 -1.621639e+04 2.536300e+04 -8.581423e+03
-2.112025e+09 -1.911922e+09 -2.072027e+09 -4.641915e+03 2.212500e+04 -8.340203e+03
-2.188455e+09 -1.988344e+09 -2.148461e+09 -6.262857e+03 2.954676e+04 -1.391531e+04
-2.607592e+09 -2.407587e+09 -2.567636e+09 1.282328e+03 7.396111e+02 3.162518e+03
-3.947088e+09 -3.748030e+09 -3.906585e+09 3.473866e+05 -1.117254e+05 -1.033880e+05
-2.715022e+09 -2.514916e+09 -2.675040e+09 -4.631386e+03 1.787846e+04 -8.013690e+03
-4.154218e+09 -3.954264e+09 -4.114323e+09 3.562432e+04 2.149512e+03 1.061839e+04
-5.011067e+09 -4.811103e+09 -4.971149e+09 2.352331e+04 1.065939e+03 1.036155e+03
-4.669810e+09 -4.469846e+09 -4.629869e+09 -3.582413e+02 -8.154136e+01 9.484605e+01
-4.609645e+09 -4.409682e+09 -4.569705e+09 -5.624820e+02 -2.526732e+02 -4.441028e+00
-3.971975e+09 -3.772016e+09 -3.932050e+09 1.373796e+04 1.787335e+03 4.029585e+03
-3.647217e+09 -3.447252e+09 -3.607276e+09 -5.630731e+02 -4.990743e+01 2.186359e+02
-3.595363e+09 -3.395399e+09 -3.555423e+09 -6.635659e+02 -1.561857e+02 -2.029969e+00
-3.573691e+09 -3.373727e+09 -3.533751e+09 -1.825884e+03 -4.048941e+02 -7.907355e+01
-3.730480e+09 -3.530511e+09 -3.690539e+09 -1.944444e+03 -4.228910e+02 6.107420e+02
-3.566711e+09 -3.366745e+09 -3.526771e+09 -1.311288e+03 -1.775673e+02 2.375378e+02
-2.756197e+09 -2.556127e+09 -2.716237e+09 -1.267582e+04 2.320781e+04 -7.394804e+03
-3.387696e+09 -3.187732e+09 -3.347755e+09 -1.950408e+03 -8.707362e+01 5.039420e+02
-3.231809e+09 -3.031845e+09 -3.191869e+09 -1.108066e+03 -6.592487e+01 9.849700e+01
-3.065236e+09 -2.865270e+09 -3.025297e+09 -2.899040e+03 -3.639327e+02 1.348312e+03
-4.108583e+09 -3.908618e+09 -4.068642e+09 -1.047922e+03 -3.483851e+02 4.497517e+02
-3.863417e+09 -3.663451e+09 -3.823477e+09 -1.687514e+03 -1.447147e+02 3.477613e+02
-2.974057e+09 -2.774091e+09 -2.934115e+09 -1.240601e+03 -4.963208e+02 8.052440e+02
-3.964479e+09 -3.764512e+09 -3.924547e+09 1.131052e+04 1.517779e+03 2.720972e+03
-3.362731e+09 -3.162767e+09 -3.322791e+09 -1.238679e+03 -4.796298e+02 2.056379e+02
-3.633144e+09 -3.433178e+09 -3.593203e+09 -3.966476e+02 -1.487461e+02 3.794707e+02
-4.451146e+09 -4.251024e+09 -4.411212e+09 1.402464e+04 -7.550088e+03 -6.171663e+03
-3.878714e+09 -3.678747e+09 -3.838772e+09 -4.864701e+02 -1.160021e+02 9.546603e+01
-2.616807e+09 -2.416876e+09 -2.576889e+09 -2.663434e+03 -1.660130e+03 3.848653e+03
-2.126111e+09 -1.926180e+09 -2.086190e+09 -2.736942e+03 -8.746682e+02 3.534113e+03
-2.752493e+09 -2.552559e+09 -2.712572e+09 -1.550844e+03 -7.217960e+02 1.465357e+03
-1.838972e+09 -1.639038e+09 -1.799049e+09 -1.086785e+03 -9.305532e+02 9.804112e+02
-1.838973e+09 -1.639037e+09 -1.799048e+09 -1.260082e+03 -6.922971e+02 1.505405e+03
-2.595899e+09 -2.395962e+09 -2.555977e+09 2.221759e+03 3.460272e+02 2.159245e+03
-3.569850e+09 -3.369909e+09 -3.529927e+09 3.145556e+03 6.685714e+02 1.499375e+03
-3.318065e+09 -3.118128e+09 -3.278144e+09 2.584540e+03 1.189874e+03 1.516680e+03
-1.953605e+09 -1.753552e+09 -1.913626e+09 -1.802554e+04 -3.283216e+04 2.253702e+04
-4.983522e+09 -4.783280e+09 -4.943571e+09 9.034108e+03 -7.414379e+03 -1.717893e+03
-2.051101e+09 -1.851043e+09 -2.011136e+09 -2.134846e+04 -5.260827e+04 3.604714e+04
-1.854374e+09 -1.654309e+09 -1.814404e+09 -2.139414e+04 -4.919380e+04 3.756641e+04
-2.421714e+09 -2.221668e+09 -2.381761e+09 -2.520086e+04 -3.408300e+04 2.777513e+04
-2.545871e+09 -2.345813e+09 -2.505919e+09 -3.506536e+04 -3.613556e+04 2.610159e+04
-3.619625e+09 -3.419669e+09 -3.579690e+09 -1.451052e+03 -7.221567e+02 7.979006e+02
-1.877975e+09 -1.677944e+09 -1.838011e+09 -1.454464e+04 -3.726831e+04 3.442749e+04
-1.756874e+09 -1.556822e+09 -1.716894e+09 -1.398315e+04 -2.974065e+04 2.432422e+04
-2.845782e+09 -2.646256e+09 -2.806124e+09 5.497416e+04 -1.224058e+04 -1.148855e+05
-1.915894e+09 -1.716184e+09 -1.876066e+09 -3.535843e+03 -5.263032e+04 -1.227491e+05
-2.137696e+09 -1.938027e+09 -2.097988e+09 1.248474e+03 -9.704357e+03 -5.127704e+04
-2.667473e+09 -2.467896e+09 -2.627909e+09 4.037606e+03 7.421712e+03 -2.102804e+04
-2.119614e+09 -1.919924e+09 -2.079837e+09 -2.589977e+03 -6.475810e+03 -1.504298e+05
-2.784027e+09 -2.584324e+09 -2.744361e+09 -1.063477e+05 8.236502e+04 -1.124601e+05
-3.414702e+09 -3.214441e+09 -3.374709e+09 1.294335e+04 -8.707665e+04 -7.283950e+03
-2.061916e+09 -1.862144e+09 -2.022165e+09 -5.853476e+04 5.009894e+04 -3.856031e+04
-1.838117e+09 -1.638241e+09 -1.798122e+09 5.020911e+03 6.153337e+04 -1.084055e+05
-2.128668e+09 -1.928829e+09 -2.088708e+09 -4.103993e+04 8.924419e+04 -1.172546e+05
-2.628698e+09 -2.428905e+09 -2.588936e+09 -1.046378e+05 5.023802e+04 -4.732912e+04
-1.754435e+09 -1.554585e+09 -1.714555e+09 -1.703038e+04 9.023360e+04 -1.371899e+05
-1.714085e+09 -1.514104e+09 -1.674109e+09 -9.460654e+03 7.429588e+04 -5.590605e+04
-1.833118e+09 -1.633293e+09 -1.793320e+09 -1.898736e+04 6.974543e+04 -3.687628e+04
-2.636066e+09 -2.435991e+09 -2.596089e+09 -4.346916e+03 1.567800e+04 -8.473035e+03
-2.725084e+09 -2.525001e+09 -2.685104e+09 -7.843326e+03 1.207545e+04 -8.017154e+03
-1.760843e+09 -1.560773e+09 -1.720855e+09 -6.529924e+03 1.507041e+04 -8.544568e+03
-2.742421e+09 -2.542339e+09 -2.702445e+09 -1.515004e+04 2.264748e+04 -9.209565e+03
-2.716891e+09 -2.516820e+09 -2.676934e+09 -1.315478e+04 2.858422e+04 -1.282033e+04
-2.197667e+09 -1.997596e+09 -2.157687e+09 -1.047007e+04 2.427578e+04 -1.265160e+04
-1.921045e+09 -1.720984e+09 -1.881062e+09 -4.095253e+03 2.158599e+04 -1.084749e+04
-1.881728e+09 -1.681668e+09 -1.841756e+09 -1.535140e+04 3.508894e+04 -1.373532e+04
-1.583387e+09 -1.383324e+09 -1.543397e+09 -1.893453e+03 2.410852e+04 -1.177026e+04
-2.232901e+09 -2.032905e+09 -2.192950e+09 -1.594719e+04 -8.955767e+03 1.195104e+04
-2.525064e+09 -2.325080e+09 -2.485127e+09 -1.636919e+04 -6.249259e+03 8.130183e+03
-2.379159e+09 -2.179169e+09 -2.339213e+09 -7.567418e+03 -7.270321e+03 7.298774e+03
-2.553872e+09 -2.353891e+09 -2.513931e+09 -1.217295e+04 -6.712698e+03 6.838006e+03
-2.025628e+09 -1.825638e+09 -1.985676e+09 -6.635425e+03 -4.286155e+03 4.659522e+03
-1.773104e+09 -1.573112e+09 -1.733154e+09 -5.623015e+03 -5.573517e+03 7.261021e+03
-3.431759e+09 -3.231780e+09 -3.391810e+09 1.361688e+03 -2.801126e+01 4.461364e+02
-3.026766e+09 -2.826788e+09 -2.986818e+09 9.050697e+02 3.925849e+01 2.135316e+01
-3.605621e+09 -3.405641e+09 -3.565673e+09 8.774905e+02 6.769121e+01 -7.224814e+01
-2.755723e+09 -2.555745e+09 -2.715775e+09 4.673628e+02 2.237926e+02 1.626696e+00
-3.005028e+09 -2.805048e+09 -2.965079e+09 7.437625e+02 -7.449278e+01 5.049936e+01
-2.741182e+09 -2.541555e+09 -2.701497e+09 -8.536810e+04 4.057827e+04 -2.261209e+04
-2.110936e+09 -1.911213e+09 -2.071195e+09 -3.996223e+04 7.264964e+04 -4.492301e+04
-1.878224e+09 -1.678466e+09 -1.838485e+09 -6.183080e+03 4.553780e+04 -5.804693e+04
-2.908493e+09 -2.708814e+09 -2.868774e+09 -1.343171e+04 3.022746e+04 -4.045510e+04
-1.889830e+09 -1.690099e+09 -1.850069e+09 -2.953714e+03 3.516909e+04 -1.462669e+05
-1.822231e+09 -1.622323e+09 -1.782225e+09 -1.946461e+03 1.594830e+04 -7.083205e+04
-2.631501e+09 -2.431925e+09 -2.591967e+09 -2.885688e+04 2.406432e+04 -2.946886e+04
-2.105290e+09 -1.905599e+09 -2.065568e+09 -1.429437e+04 7.603447e+03 -6.637709e+04
-2.345267e+09 -2.145224e+09 -2.305319e+09 -1.552528e+04 4.842834e+04 -1.749623e+04
-2.442796e+09 -2.242799e+09 -2.402908e+09 -1.820628e+04 6.270032e+04 -2.654923e+04
-2.902902e+09 -2.702909e+09 -2.863035e+09 -4.002238e+04 5.895033e+04 -2.558285e+04
-2.594602e+09 -2.394627e+09 -2.554737e+09 -3.233342e+04 7.013653e+04 -3.219441e+04
-2.571756e+09 -2.371747e+09 -2.531856e+09 -1.459501e+04 5.430491e+04 -1.911454e+04
-1.746961e+09 -1.546931e+09 -1.706996e+09 -2.179902e+04 7.579034e+04 -4.435810e+04
-1.922927e+09 -1.722905e+09 -1.882978e+09 -7.990102e+03 6.620355e+04 -2.643624e+04
-1.940890e+09 -1.740899e+09 -1.900967e+09 -1.157982e+04 7.923822e+04 -3.807106e+04
-2.721609e+09 -2.521674e+09 -2.681691e+09 7.658374e+03 1.939921e+03 7.709110e+03
-2.062880e+09 -1.862933e+09 -2.022952e+09 6.166808e+03 1.234953e+03 2.760976e+03
-2.779877e+09 -2.579942e+09 -2.739960e+09 5.397668e+03 2.891415e+03 5.435889e+03
-3.694866e+09 -3.494744e+09 -3.654935e+09 -3.880939e+04 -2.031152e+04 1.203585e+04
-2.730826e+09 -2.530905e+09 -2.690914e+09 -2.421330e+03 -1.011210e+03 5.907028e+03
-4.083962e+09 -3.883827e+09 -4.044021e+09 -1.787484e+04 -1.507096e+04 9.787293e+03
-4.610615e+09 -4.410447e+09 -4.570685e+09 -3.527683e+04 2.185683e+03 3.895789e+03
-4.260306e+09 -4.060145e+09 -4.220378e+09 -3.398727e+04 -2.886559e+04 9.582803e+03
-3.957144e+09 -3.757032e+09 -3.917200e+09 -2.513589e+04 -2.116260e+04 1.586215e+04
-4.691159e+09 -4.491046e+09 -4.651227e+09 -1.151830e+04 5.008201e+02 5.076627e+03
-4.962996e+09 -4.762879e+09 -4.923075e+09 -4.049004e+04 -1.195061e+04 5.991924e+03
-2.478086e+09 -2.278142e+09 -2.438157e+09 5.517946e+03 1.485674e+03 2.189211e+03
-2.349614e+09 -2.149672e+09 -2.309687e+09 4.439624e+03 1.590822e+03 4.262791e+03
-2.309731e+09 -2.109787e+09 -2.269805e+09 6.185156e+03 1.052517e+03 3.441132e+03
-4.709669e+09 -4.509456e+09 -4.669718e+09 4.168370e+03 -3.882480e+02 -3.789023e+03
-2.626638e+09 -2.426700e+09 -2.586713e+09 3.410258e+03 7.271225e+02 2.637271e+03
-3.189376e+09 -2.989435e+09 -3.149455e+09 3.970197e+03 5.369547e+02 2.617321e+03
-1.688994e+09 -1.489051e+09 -1.649066e+09 5.464229e+03 1.482888e+03 4.051389e+03
-1.947776e+09 -1.747838e+09 -1.907852e+09 5.494844e+03 1.456091e+03 4.972031e+03
-2.154816e+09 -1.954822e+09 -2.114863e+09 4.207530e+03 1.213774e+03 1.971893e+03
-1.833695e+09 -1.633704e+09 -1.793742e+09 4.783802e+03 1.875455e+03 1.855530e+03
-2.580530e+09 -2.380526e+09 -2.540577e+09 5.311481e+03 2.111272e+03 3.203910e+03
-2.157782e+09 -1.957780e+09 -2.117828e+09 7.268731e+03 2.918931e+03 3.913327e+03
-2.159626e+09 -1.959634e+09 -2.119674e+09 6.124336e+03 2.009504e+03 3.010228e+03
-1.948196e+09 -1.748197e+09 -1.908242e+09 7.929788e+03 2.098766e+03 4.847648e+03
-2.708925e+09 -2.508951e+09 -2.669065e+09 2.825192e+04 -6.355687e+04 -2.307203e+04
-1.906762e+09 -1.706844e+09 -1.866883e+09 1.265027e+04 -7.806035e+04 -3.626621e+04
-1.839600e+09 -1.639668e+09 -1.799693e+09 2.978616e+04 -8.906141e+04 -6.945838e+04
-2.115899e+09 -1.915913e+09 -2.075984e+09 4.475777e+04 -9.172798e+04 -5.965840e+04
-2.519366e+09 -2.319303e+09 -2.479407e+09 1.022254e+04 -2.417293e+04 -1.092614e+04
-3.109577e+09 -2.909506e+09 -3.069630e+09 8.871616e+03 -1.835769e+04 -1.087818e+04
-3.967925e+09 -3.767859e+09 -3.928002e+09 1.129825e+04 -1.461199e+04 -6.776558e+03
-4.051609e+09 -3.851534e+09 -4.011676e+09 1.337853e+04 -1.029017e+04 -4.558683e+03
-4.014806e+09 -3.814734e+09 -3.974870e+09 6.760160e+03 -1.038313e+04 -5.465103e+03
-2.881208e+09 -2.681137e+09 -2.841253e+09 1.230289e+04 -1.503863e+04 -1.143443e+04
-3.347572e+09 -3.147483e+09 -3.307617e+09 1.034353e+04 -1.120106e+04 -9.460964e+03
-4.712402e+09 -4.512208e+09 -4.672454e+09 8.790633e+03 6.773411e+02 -4.590080e+03
-2.106576e+09 -1.906881e+09 -2.066811e+09 -2.468116e+04 3.551385e+04 -1.412620e+05
-2.726326e+09 -2.526641e+09 -2.686619e+09 -1.352923e+04 2.407404e+04 -2.710730e+04
-1.888562e+09 -1.688812e+09 -1.848818e+09 -1.499500e+04 3.258958e+04 -5.635290e+04
-2.056143e+09 -1.856463e+09 -2.016341e+09 -1.147150e+04 2.560035e+04 -1.375447e+05
-2.412846e+09 -2.213210e+09 -2.373182e+09 1.718457e+04 -2.750114e+04 -8.044816e+04
-1.743201e+09 -1.543325e+09 -1.703259e+09 3.247756e+04 -1.630922e+04 -7.427040e+04
-2.685662e+09 -2.486007e+09 -2.645985e+09 -3.639902e+03 4.964673e+03 -6.415638e+04
-2.042743e+09 -1.843022e+09 -2.003024e+09 2.382877e+04 -1.246632e+03 -6.629912e+04
-2.244849e+09 -2.044759e+09 -2.204857e+09 -3.541137e+03 1.149869e+04 -7.460126e+03
-2.661549e+09 -2.461444e+09 -2.621567e+09 -9.352808e+03 1.805133e+04 -9.838665e+03
-2.962794e+09 -2.762688e+09 -2.922814e+09 -7.544719e+03 1.607986e+04 -7.167346e+03
-2.643225e+09 -2.443129e+09 -2.603244e+09 -5.178160e+03 1.297709e+04 -7.725256e+03
-1.935113e+09 -1.735038e+09 -1.895123e+09 -4.080851e+03 1.972989e+04 -1.045776e+04
-1.958692e+09 -1.758604e+09 -1.918707e+09 -5.802929e+03 2.244162e+04 -1.305437e+04
-2.180526e+09 -1.980422e+09 -2.140538e+09 -5.017284e+03 2.645118e+04 -1.184793e+04
-1.950985e+09 -1.750898e+09 -1.910995e+09 -1.092162e+04 2.254752e+04 -5.934745e+03
-1.905490e+09 -1.705391e+09 -1.865501e+09 -6.987625e+03 2.636454e+04 -1.284753e+04
-2.745075e+09 -2.545105e+09 -2.705132e+09 6.962617e+02 1.028472e+02 4.835419e+02
-2.985757e+09 -2.785790e+09 -2.945815e+09 2.416138e+03 -2.193495e+02 1.167030e+03
-3.330476e+09 -3.130507e+09 -3.290535e+09 2.376953e+03 3.621412e+02 6.450927e+02
-2.789412e+09 -2.589443e+09 -2.749470e+09 1.919025e+03 7.651918e+02 5.732966e+02
-2.622537e+09 -2.422569e+09 -2.582595e+09 9.718128e+02 4.003015e+02 2.969492e+02
-2.727933e+09 -2.527894e+09 -2.688008e+09 -1.492049e+04 4.170381e+04 -1.101123e+04
-2.294856e+09 -2.094831e+09 -2.254915e+09 -1.261637e+04 4.427550e+04 -1.109602e+04
-2.718827e+09 -2.518802e+09 -2.678925e+09 -2.687625e+04 5.760492e+04 -2.218322e+04
-4.607670e+09 -4.407580e+09 -4.567788e+09 -6.382220e+04 1.358299e+04 -6.293656e+03
-2.909721e+09 -2.709669e+09 -2.869784e+09 -1.771505e+04 3.441766e+04 -1.051869e+04
-2.460896e+09 -2.260852e+09 -2.420962e+09 -3.145820e+04 5.173977e+04 -2.076249e+04
-2.342605e+09 -2.142554e+09 -2.302654e+09 -1.352825e+04 4.450930e+04 -2.281886e+04
-2.202235e+09 -2.002183e+09 -2.162268e+09 -7.209539e+03 2.851049e+04 -6.307245e+03
-1.894303e+09 -1.694242e+09 -1.854321e+09 -1.294940e+03 3.192909e+04 -9.713982e+03
-2.202832e+09 -2.002775e+09 -2.162869e+09 -1.803078e+04 3.775809e+04 -1.346591e+04
-3.223466e+09 -3.023353e+09 -3.183509e+09 1.389018e+04 -2.075551e+04 -1.554820e+04
-2.851816e+09 -2.651697e+09 -2.811854e+09 2.216249e+04 -3.040015e+04 -1.930304e+04
-2.551534e+09 -2.351431e+09 -2.511566e+09 1.026666e+04 -2.465993e+04 -1.618097e+04
-2.445411e+09 -2.245464e+09 -2.405486e+09 9.996449e+03 2.350086e+03 3.688875e+03
-2.163174e+09 -1.963228e+09 -2.123247e+09 8.195135e+03 1.513917e+03 5.761845e+03
-1.746737e+09 -1.546789e+09 -1.706807e+09 5.117639e+03 1.737597e+03 2.185029e+03
-2.492462e+09 -2.292511e+09 -2.452530e+09 7.749348e+03 8.495399e+02 4.641403e+03
-1.564619e+09 -1.364669e+09 -1.524687e+09 7.378686e+03 2.238366e+03 5.004628e+03
-4.796508e+09 -4.596554e+09 -4.756582e+09 9.051070e+03 1.307226e+03 1.710551e+01
-2.213408e+09 -2.013276e+09 -2.173422e+09 1.296445e+04 -4.634133e+04 -1.578268e+04
-4.210143e+09 -4.010187e+09 -4.170212e+09 5.852546e+03 5.388737e+02 1.087494e+03
-3.953469e+09 -3.753517e+09 -3.913542e+09 7.843740e+03 2.032430e+03 1.486626e+03
-4.182435e+09 -3.982481e+09 -4.142507e+09 7.856086e+03 9.354433e+02 1.493534e+03
-4.605222e+09 -4.405265e+09 -4.565296e+09 9.053722e+03 2.079795e+03 9.604142e+02
-4.036349e+09 -3.836388e+09 -3.996416e+09 6.027355e+03 1.111656e+03 4.251442e+02
-4.249961e+09 -4.050000e+09 -4.210025e+09 7.046209e+03 1.163734e+03 2.120017e+02
-2.520837e+09 -2.320853e+09 -2.480896e+09 -8.934187e+03 -5.377990e+03 6.423711e+03
-2.167305e+09 -1.967321e+09 -2.127359e+09 -8.084056e+03 -4.017576e+03 7.301984e+03
-1.828595e+09 -1.628611e+09 -1.788648e+09 -7.919870e+03 -4.416167e+03 6.264421e+03
-1.766491e+09 -1.566488e+09 -1.726535e+09 -1.178482e+04 -1.050941e+04 1.332925e+04
-1.636241e+09 -1.436247e+09 -1.596288e+09 -2.209307e+03 -9.147118e+02 5.800364e+03
-2.891634e+09 -2.691620e+09 -2.851685e+09 -4.175557e+03 -2.156047e+03 8.651765e+03
-2.085788e+09 -1.885795e+09 -2.045838e+09 -4.073572e+03 -2.602179e+03 5.554476e+03
-3.300788e+09 -3.100863e+09 -3.260876e+09 4.143754e+03 1.018800e+03 5.440703e+03
-2.955948e+09 -2.756018e+09 -2.916034e+09 7.808690e+03 6.800782e+02 1.012274e+04
-2.758316e+09 -2.558388e+09 -2.718399e+09 2.911930e+03 4.587383e+02 3.542244e+03
-2.494371e+09 -2.294441e+09 -2.454452e+09 3.405405e+03 1.710327e+03 4.097354e+03
-3.958873e+09 -3.758970e+09 -3.919137e+09 -9.645403e+04 4.239652e+04 -2.723745e+04
-3.958723e+09 -3.758832e+09 -3.918996e+09 -1.206297e+05 4.798571e+04 -2.659291e+04
-4.609562e+09 -4.409553e+09 -4.569765e+09 -9.251301e+04 1.772908e+04 -5.551700e+03
-4.601266e+09 -4.401291e+09 -4.561508e+09 -1.236202e+05 2.988357e+04 -4.640565e+03
-4.781639e+09 -4.581636e+09 -4.741872e+09 -1.182920e+05 2.201707e+04 -1.491049e+04
-4.808163e+09 -4.608254e+09 -4.768448e+09 -9.624544e+04 2.548913e+04 -1.600175e+04
-4.808140e+09 -4.608181e+09 -4.768382e+09 -7.350240e+04 9.017929e+03 2.362488e+03
-4.627779e+09 -4.427853e+09 -4.588067e+09 -1.091574e+05 1.237776e+04 -1.148226e+04
-4.003670e+09 -3.803677e+09 -3.963864e+09 -8.717831e+04 4.754568e+04 -2.497924e+04
-4.030127e+09 -3.830161e+09 -3.990350e+09 -7.864964e+04 4.564881e+04 -2.190678e+04
-4.583587e+09 -4.383554e+09 -4.543750e+09 -5.630513e+04 1.539939e+04 -4.044351e+03
-4.590240e+09 -4.390196e+09 -4.550424e+09 -9.118234e+04 2.011589e+04 -5.935763e+03
-4.784994e+09 -4.584970e+09 -4.745184e+09 -9.305256e+04 1.231685e+04 -3.117920e+03
-4.811466e+09 -4.611474e+09 -4.771675e+09 -6.944872e+04 2.079292e+04 -1.058217e+04
-4.590675e+09 -4.390671e+09 -4.550856e+09 -5.233210e+04 2.017365e+04 -1.512773e+03
-4.583243e+09 -4.383270e+09 -4.543315e+09 -1.216614e+04 -2.358092e+02 2.591196e+03
-4.807696e+09 -4.607717e+09 -4.767761e+09 -8.624147e+03 -1.077384e+03 1.206883e+03
-3.871279e+09 -3.671306e+09 -3.831343e+09 -7.636034e+03 -6.222738e+02 3.420946e+03
-4.524650e+09 -4.324464e+09 -4.484702e+09 1.575726e+04 -3.806722e+03 -3.879104e+03
-1.636035e+09 -1.436001e+09 -1.596066e+09 -1.077077e+03 4.338439e+04 -3.104379e+03
-3.843643e+09 -3.643665e+09 -3.803704e+09 -6.837494e+03 -2.311512e+03 1.852963e+03
-1.909521e+09 -1.709434e+09 -1.869532e+09 -1.518766e+04 -1.375463e+04 1.012661e+04
-3.979625e+09 -3.779643e+09 -3.939695e+09 -1.022730e+04 -1.194822e+03 4.055243e+03
-3.393574e+09 -3.193504e+09 -3.353631e+09 -1.974641e+03 -4.319862e+03 1.332966e+04
-3.855186e+09 -3.655098e+09 -3.815264e+09 -3.326131e+04 -2.033766e+04 1.814673e+04
-1.617674e+09 -1.417630e+09 -1.577693e+09 -1.617554e+02 3.938424e+04 -1.326312e+04
-3.938591e+09 -3.738500e+09 -3.898669e+09 -3.106689e+04 -2.083109e+04 1.458152e+04
-4.636757e+09 -4.436662e+09 -4.596829e+09 -2.438095e+04 -6.820949e+03 7.690567e+03
-3.700079e+09 -3.500009e+09 -3.660146e+09 -2.335321e+04 -1.198932e+04 1.056049e+04
-4.152233e+09 -3.952162e+09 -4.112294e+09 -1.506432e+04 -1.723612e+03 9.331045e+03
-4.182782e+09 -3.982714e+09 -4.142860e+09 -3.117321e+04 -1.262764e+04 1.187422e+04
-4.511226e+09 -4.311144e+09 -4.471310e+09 -3.949055e+04 -7.513305e+03 7.020732e+03
-4.821209e+09 -4.620864e+09 -4.781244e+09 -7.089423e+04 -3.073474e+04 1.604571e+04
-4.828830e+09 -4.628433e+09 -4.788838e+09 -3.084624e+04 -3.045096e+04 1.167873e+04
-4.481087e+09 -4.280777e+09 -4.441125e+09 -6.674716e+04 -2.810828e+04 9.125695e+03
-3.825732e+09 -3.625778e+09 -3.785800e+09 -3.635255e+03 1.324672e+02 9.119646e+02
-3.881253e+09 -3.681304e+09 -3.841326e+09 -5.306655e+03 -4.811780e+02 2.265215e+03
-4.019277e+09 -3.819326e+09 -3.979348e+09 -3.246933e+03 -1.543760e+03 1.384044e+03
-4.635834e+09 -4.435881e+09 -4.595902e+09 -3.906321e+03 -3.277797e+02 -6.337161e+01
-4.635833e+09 -4.435880e+09 -4.595901e+09 -2.149911e+03 -2.610214e+02 1.850053e+02
-4.364101e+09 -4.164149e+09 -4.324170e+09 -1.947778e+03 -4.719588e+02 7.007272e+02
-4.316582e+09 -4.116628e+09 -4.276649e+09 -7.811535e+02 -6.591481e+02 2.897774e+02
-2.506359e+09 -2.306433e+09 -2.466442e+09 3.070011e+03 1.407484e+03 5.886991e+03
-2.044782e+09 -1.844855e+09 -2.004863e+09 3.142173e+03 1.222198e+03 6.334714e+03
-1.777732e+09 -1.577808e+09 -1.737814e+09 1.866677e+03 -1.789026e+02 6.303795e+03
-1.776916e+09 -1.576989e+09 -1.736997e+09 2.532614e+03 6.190596e+02 5.871844e+03
-4.590102e+09 -4.390108e+09 -4.550157e+09 7.605584e+03 6.870827e+02 1.898878e+03
-4.756385e+09 -4.556384e+09 -4.716438e+09 9.376612e+03 1.161358e+03 1.287275e+03
-4.538851e+09 -4.338851e+09 -4.498901e+09 7.478392e+03 5.383510e+02 1.928627e+03
-3.993604e+09 -3.793601e+09 -3.953659e+09 1.231690e+04 1.586133e+03 4.551455e+03
-4.212774e+09 -4.012773e+09 -4.172827e+09 1.145702e+04 2.283289e+03 2.012558e+03
-4.962670e+09 -4.762459e+09 -4.922697e+09 -1.296324e+04 9.938572e+03 -1.565907e+03
-4.172857e+09 -3.972857e+09 -4.132907e+09 7.704023e+03 1.350725e+03 1.181930e+03
-2.756106e+09 -2.556044e+09 -2.716158e+09 7.209961e+03 -2.985765e+04 -1.395598e+04
-2.492134e+09 -2.292084e+09 -2.452193e+09 7.843977e+03 -3.855790e+04 -1.441397e+04
-2.021208e+09 -1.821158e+09 -1.981240e+09 9.023303e+03 -3.150619e+04 -9.277444e+03
-1.811152e+09 -1.611095e+09 -1.771179e+09 1.193527e+04 -3.178785e+04 -1.327819e+04
-2.761670e+09 -2.561594e+09 -2.721725e+09 2.633066e+04 -4.095191e+04 -1.606484e+04
-1.950906e+09 -1.750829e+09 -1.910923e+09 7.069380e+03 -3.128213e+04 -1.481605e+04
-1.625873e+09 -1.425823e+09 -1.585889e+09 1.453645e+03 -4.233441e+04 -2.154126e+04
-4.098112e+09 -3.897880e+09 -4.058139e+09 -1.228224e+04 3.801388e+04 -2.122545e+03
-4.028444e+09 -3.828401e+09 -3.988505e+09 -9.219806e+03 -3.696492e+03 1.022984e+04
-4.663722e+09 -4.463683e+09 -4.623796e+09 -1.340758e+04 -2.677107e+03 4.324813e+03
-3.957600e+09 -3.757558e+09 -3.917662e+09 -3.630470e+03 -1.966979e+03 8.077880e+03
-4.167850e+09 -3.967801e+09 -4.127912e+09 -4.483784e+03 -4.012014e+02 5.797041e+03
-4.314077e+09 -4.114036e+09 -4.274148e+09 -1.316124e+04 -6.670619e+03 3.342262e+03
-3.924739e+09 -3.724697e+09 -3.884797e+09 -1.327046e+04 -5.856533e+03 8.577820e+03
-3.323919e+09 -3.123878e+09 -3.283975e+09 -4.778813e+03 -5.677627e+03 1.172458e+04
-2.105197e+09 -1.905083e+09 -2.065205e+09 -9.171917e+03 -2.748763e+04 1.410499e+04
-3.371424e+09 -3.171394e+09 -3.331483e+09 -7.392329e+03 -4.374217e+03 1.057944e+04
-2.992708e+09 -2.792715e+09 -2.952757e+09 3.506545e+03 7.032794e+02 9.127604e+02
-2.954191e+09 -2.754189e+09 -2.914235e+09 6.668014e+03 3.572860e+03 2.825260e+03
-2.204248e+09 -2.004261e+09 -2.164298e+09 5.393862e+03 8.489585e+02 1.335033e+03
-2.201779e+09 -2.001786e+09 -2.161824e+09 2.410525e+03 6.151869e+02 9.077808e+02
-2.679945e+09 -2.479950e+09 -2.639995e+09 4.575640e+03 1.448603e+03 2.271959e+03
-4.807590e+09 -4.607667e+09 -4.767688e+09 -9.666050e+03 -7.864320e+02 2.321154e+03
-4.464358e+09 -4.264436e+09 -4.424462e+09 -1.001639e+04 -1.103242e+03 4.020587e+03
-4.087650e+09 -3.887732e+09 -4.047751e+09 -8.439071e+03 3.624856e+02 5.484856e+03
-4.244075e+09 -4.044153e+09 -4.204171e+09 -7.201031e+03 -1.615927e+03 4.622190e+03
-1.962734e+09 -1.762605e+09 -1.922731e+09 -2.220599e+03 -3.013913e+04 3.538178e+03
-1.947718e+09 -1.747584e+09 -1.907717e+09 -6.160801e+03 -6.898650e+04 1.013915e+04
-1.770767e+09 -1.570668e+09 -1.730772e+09 -2.413527e+04 -5.598590e+04 7.066650e+03
-2.287227e+09 -2.087090e+09 -2.247242e+09 -3.467316e+02 -5.991744e+04 1.309235e+03
-4.992356e+09 -4.792501e+09 -4.952549e+09 -3.370251e+04 -3.885255e+03 6.220513e+03
-2.514810e+09 -2.314613e+09 -2.474809e+09 -1.132868e+04 -6.283399e+04 2.636360e+03
-2.037422e+09 -1.837243e+09 -1.997415e+09 -2.577826e+03 -6.223632e+04 -2.306481e+02
-3.451287e+09 -3.251310e+09 -3.411340e+09 1.105814e+03 4.005205e+01 4.232940e+01
-3.719703e+09 -3.519651e+09 -3.679796e+09 1.780290e+04 -2.398582e+04 -2.542584e+03
-2.103195e+09 -1.903115e+09 -2.063213e+09 1.032325e+04 -1.611239e+04 -1.231142e+04
-4.069395e+09 -3.869186e+09 -4.029433e+09 -3.940318e+03 -1.627050e+04 4.777636e+02
-3.715152e+09 -3.515084e+09 -3.675230e+09 1.732351e+04 -1.842127e+04 -8.365004e+03
-3.438491e+09 -3.238425e+09 -3.398557e+09 9.181003e+03 -1.798007e+04 -6.194797e+03
-3.571627e+09 -3.371573e+09 -3.531726e+09 2.115780e+04 -2.654508e+04 -1.044942e+04
-3.076666e+09 -2.876611e+09 -3.036741e+09 1.941230e+04 -3.649108e+04 -1.729510e+04
-4.607186e+09 -4.407240e+09 -4.567269e+09 -1.362149e+04 -1.211107e+03 2.927287e+03
-4.668940e+09 -4.468995e+09 -4.629032e+09 -1.705597e+04 -1.224253e+03 3.173856e+03
-4.817466e+09 -4.617520e+09 -4.777552e+09 -1.523733e+04 -2.549632e+03 7.642516e+02
-4.604435e+09 -4.404495e+09 -4.564522e+09 -1.162003e+04 -7.349380e+02 2.458788e+03
-2.551818e+09 -2.351772e+09 -2.511880e+09 9.297459e+03 -3.587667e+04 -5.951436e+03
-1.842545e+09 -1.642496e+09 -1.802576e+09 7.936253e+03 -3.533075e+04 -5.867043e+03
-2.550465e+09 -2.350448e+09 -2.510546e+09 1.021513e+04 -5.446482e+04 -1.922240e+04
-2.886608e+09 -2.686573e+09 -2.846693e+09 2.185139e+04 -3.901782e+04 -9.196833e+03
-1.804552e+09 -1.604501e+09 -1.764582e+09 1.372502e+04 -4.550401e+04 -1.692573e+04
-1.845506e+09 -1.645474e+09 -1.805541e+09 -6.182162e+03 -4.108103e+04 -5.760487e+03
-2.112357e+09 -1.912331e+09 -2.072409e+09 9.062179e+03 -4.371002e+04 -1.601763e+04
-4.573203e+09 -4.373213e+09 -4.533255e+09 5.100307e+03 4.356042e+02 1.232225e+03
-4.590073e+09 -4.390086e+09 -4.550131e+09 9.291882e+03 3.099460e+02 1.980340e+03
-4.178459e+09 -3.978468e+09 -4.138510e+09 5.160366e+03 4.415910e+02 5.956247e+02
-3.926342e+09 -3.726351e+09 -3.886392e+09 4.808284e+03 1.034800e+03 1.872264e+02
-4.007723e+09 -3.807729e+09 -3.967778e+09 7.819582e+03 4.767268e+02 1.960869e+03
-4.030998e+09 -3.831006e+09 -3.991052e+09 1.019309e+04 1.458197e+03 2.584416e+03
-4.201206e+09 -4.001220e+09 -4.161258e+09 5.744820e+03 3.854757e+02 4.550231e+02
-3.975222e+09 -3.775239e+09 -3.935277e+09 6.883690e+03 1.222923e+03 1.543321e+03
-4.966371e+09 -4.766395e+09 -4.926425e+09 1.857994e+03 -2.866642e+00 6.329390e+01
-4.606326e+09 -4.406313e+09 -4.566491e+09 4.673812e+04 -1.784161e+04 -1.443870e+03
-4.056477e+09 -3.856491e+09 -4.016527e+09 2.484852e+03 -4.370505e+01 1.914677e+02
-4.566022e+09 -4.366024e+09 -4.526212e+09 6.805747e+04 -8.747882e+03 -8.181215e+02
-4.053456e+09 -3.853473e+09 -4.013661e+09 3.120546e+04 -4.259495e+04 -1.859419e+04
-3.764249e+09 -3.564229e+09 -3.724378e+09 3.866428e+04 -3.125831e+04 -1.229244e+04
-3.915903e+09 -3.715910e+09 -3.876096e+09 5.456122e+04 -3.664675e+04 -1.491456e+04
-4.209646e+09 -4.009713e+09 -4.169729e+09 2.852744e+03 7.738744e+02 7.361044e+02
-4.026647e+09 -3.826713e+09 -3.986730e+09 2.585380e+03 4.955812e+02 1.212553e+03
-3.872586e+09 -3.672653e+09 -3.832670e+09 2.387630e+03 1.064552e+03 1.480610e+03
-2.925999e+09 -2.726064e+09 -2.886078e+09 1.536570e+03 8.922146e+02 1.682909e+03
-3.196041e+09 -2.996109e+09 -3.156123e+09 2.412812e+03 7.636510e+02 1.811704e+03
-3.724600e+09 -3.524669e+09 -3.684684e+09 1.657118e+03 3.524488e+02 7.387874e+01
-2.138256e+09 -1.938243e+09 -2.098297e+09 -8.958414e+03 -9.518468e+03 8.260156e+03
-3.960393e+09 -3.760464e+09 -3.920480e+09 1.783834e+03 9.335706e+02 1.063431e+03
-2.994639e+09 -2.794702e+09 -2.954718e+09 1.856095e+03 6.944485e+02 1.656895e+03
-3.498301e+09 -3.298365e+09 -3.458379e+09 1.642470e+03 1.289077e+03 1.219408e+03
-4.766641e+09 -4.566880e+09 -4.727035e+09 1.185209e+05 -3.437344e+04 -2.523690e+04
-4.536575e+09 -4.336726e+09 -4.496872e+09 1.630164e+05 -3.135856e+04 -1.874024e+04
-4.726784e+09 -4.526991e+09 -4.687095e+09 1.587041e+05 -1.454904e+04 -1.184123e+04
-3.787799e+09 -3.588044e+09 -3.748164e+09 1.263892e+05 -6.027796e+04 -3.286265e+04
-4.085793e+09 -3.885995e+09 -4.046164e+09 1.352298e+05 -4.484606e+04 -2.725272e+04
-4.738616e+09 -4.538639e+09 -4.698668e+09 1.031261e+03 1.219841e+02 -6.613492e+01
-3.875245e+09 -3.675388e+09 -3.835519e+09 7.631405e+04 -3.351592e+04 -1.822534e+04
-4.226950e+09 -4.027059e+09 -4.187232e+09 1.014249e+05 -3.674033e+04 -2.835653e+04
-3.957219e+09 -3.757302e+09 -3.917494e+09 1.326721e+05 -5.388358e+04 -4.264600e+04
-4.205467e+09 -4.005466e+09 -4.165534e+09 -1.408977e+04 -3.772680e+03 4.751045e+03
-3.939261e+09 -3.739252e+09 -3.899331e+09 -2.185604e+04 -5.282148e+03 1.171301e+04
-4.896914e+09 -4.696938e+09 -4.856967e+09 2.732039e+02 -8.533240e+01 -4.163060e-07
-4.255120e+09 -4.055128e+09 -4.215187e+09 -1.476761e+04 -3.175076e+03 3.233118e+03
-3.991003e+09 -3.791013e+09 -3.951074e+09 -1.772807e+04 -5.495652e+03 7.205166e+03
-1.859059e+09 -1.658947e+09 -1.819055e+09 3.263004e+04 -9.466863e+04 5.534139e+02
-4.633539e+09 -4.433537e+09 -4.593605e+09 -1.410951e+04 -1.176055e+03 4.649039e+03
-4.619145e+09 -4.419150e+09 -4.579228e+09 -2.407289e+04 -1.409390e+03 6.427237e+03
-4.815995e+09 -4.616004e+09 -4.776074e+09 -2.253882e+04 -1.993030e+03 2.686495e+03
-4.818418e+09 -4.618422e+09 -4.778489e+09 -1.452194e+04 8.724074e+00 2.478936e+03
-1.819392e+09 -1.619458e+09 -1.779469e+09 -3.828017e+03 -1.959329e+02 4.861699e+03
-2.814148e+09 -2.614211e+09 -2.774226e+09 -1.692733e+03 -1.478393e+03 9.556548e+02
-2.164572e+09 -1.964629e+09 -2.124645e+09 -2.755020e+03 -1.381259e+03 1.902387e+03
-2.215114e+09 -2.015172e+09 -2.175187e+09 -4.576579e+03 -1.875018e+03 3.511701e+03
-2.359880e+09 -2.159935e+09 -2.319953e+09 -5.797536e+03 -1.618237e+03 2.907977e+03
-1.856382e+09 -1.656438e+09 -1.816453e+09 -4.065486e+03 -8.280538e+02 2.856733e+03
-2.656401e+09 -2.456459e+09 -2.616478e+09 -2.843447e+03 -1.522910e+03 1.891756e+03
-1.927862e+09 -1.727926e+09 -1.887939e+09 -5.171223e+03 -2.354077e+03 4.012111e+03
-3.106477e+09 -2.906660e+09 -3.066773e+09 -1.117649e+05 8.285256e+04 -9.621341e+04
-2.298701e+09 -2.098813e+09 -2.258881e+09 -9.043991e+04 8.935713e+04 -4.996335e+04
-2.358223e+09 -2.158267e+09 -2.318365e+09 -1.026242e+05 5.999378e+04 -8.489083e+04
-1.639445e+09 -1.439474e+09 -1.599476e+09 -2.315482e+03 9.468495e+04 -8.761690e+04
-1.949470e+09 -1.749595e+09 -1.909522e+09 2.931484e+03 1.369729e+05 -1.239649e+05
-2.936171e+09 -2.736290e+09 -2.896393e+09 -1.211981e+05 8.258188e+04 -7.883903e+04
-4.615972e+09 -4.416136e+09 -4.576318e+09 -9.826362e+04 3.016278e+04 1.620197e+03
-4.616658e+09 -4.416778e+09 -4.576947e+09 -1.249051e+05 1.159367e+04 -1.108682e+04
-4.796813e+09 -4.596924e+09 -4.757134e+09 -1.648767e+05 3.510253e+04 -2.906764e+04
-4.796157e+09 -4.596359e+09 -4.756528e+09 -1.229632e+05 2.816433e+04 -2.502219e+04
-3.936218e+09 -3.736214e+09 -3.896380e+09 -5.026427e+04 2.921412e+04 -1.472054e+04
-4.515131e+09 -4.315091e+09 -4.475259e+09 -3.571923e+04 1.727811e+04 -2.337151e+03
-3.965208e+09 -3.765137e+09 -3.925305e+09 -3.824549e+04 3.028492e+04 -1.751489e+04
-4.192270e+09 -3.992192e+09 -4.152351e+09 -4.159617e+04 2.029919e+04 -1.078816e+04
-4.781805e+09 -4.581739e+09 -4.741946e+09 -6.451483e+04 1.124189e+04 -3.646025e+03
-4.735950e+09 -4.535898e+09 -4.696073e+09 -3.560899e+04 1.104026e+04 -1.840228e+03
-4.595872e+09 -4.395804e+09 -4.556013e+09 -6.171521e+04 1.452918e+04 -1.822907e+03
-4.620946e+09 -4.420868e+09 -4.581044e+09 -4.075103e+04 1.239504e+04 -2.818290e+03
-2.604466e+09 -2.404493e+09 -2.564521e+09 1.586674e+03 2.832687e+02 2.055948e+02
-3.368867e+09 -3.168900e+09 -3.328926e+09 1.367360e+03 6.626780e+02 7.495002e+02
-2.672635e+09 -2.472660e+09 -2.632689e+09 4.832023e+03 1.157956e+03 9.408445e+02
-3.000623e+09 -2.800651e+09 -2.960679e+09 3.154950e+03 4.389937e+02 2.759804e+02
-3.239895e+09 -3.039924e+09 -3.199954e+09 4.781670e+03 6.286961e+02 9.032741e+02
-2.112066e+09 -1.912098e+09 -2.072124e+09 2.003740e+03 1.189204e+02 6.900429e+02
-2.493634e+09 -2.293669e+09 -2.453694e+09 2.992573e+03 7.748630e+02 3.893190e+02
-3.603559e+09 -3.403588e+09 -3.563617e+09 4.750861e+03 4.744517e+02 5.351660e+02
-3.905445e+09 -3.705469e+09 -3.865499e+09 1.357316e+03 2.671965e+02 -1.102580e+02
-3.914811e+09 -3.714835e+09 -3.874865e+09 3.130504e+03 4.877480e+01 1.048330e+03
-4.091975e+09 -3.891999e+09 -4.052029e+09 2.638157e+03 4.468508e+02 2.574399e+02
-4.289404e+09 -4.090581e+09 -4.249648e+09 1.585404e+04 2.296220e+04 -7.494899e+04
-3.224364e+09 -3.024390e+09 -3.184419e+09 2.879911e+03 4.908507e+02 7.162933e+02
-2.008034e+09 -1.808061e+09 -1.968089e+09 2.716535e+03 -1.426191e+01 9.683682e+02
-3.817497e+09 -3.617523e+09 -3.777552e+09 1.906766e+03 -2.704141e+01 2.842223e+02
-2.796105e+09 -2.596178e+09 -2.756189e+09 1.388399e+03 8.963964e+02 1.596624e+03
-3.106212e+09 -2.906279e+09 -3.066293e+09 7.513893e+02 1.198699e+03 9.141027e+02
-3.214268e+09 -3.014338e+09 -3.174350e+09 1.150635e+03 7.392949e+02 1.607830e+03
-4.389295e+09 -4.189320e+09 -4.349349e+09 5.191824e+02 3.189919e+02 7.670130e+01
-4.711489e+09 -4.511348e+09 -4.671522e+09 -4.560313e+03 3.554877e+02 -3.325185e+03
-2.984242e+09 -2.784309e+09 -2.944326e+09 3.213726e+03 1.246724e+03 3.405794e+03
-2.637975e+09 -2.438043e+09 -2.598057e+09 3.098684e+03 1.723956e+03 4.066214e+03
-2.554462e+09 -2.354530e+09 -2.514542e+09 4.837442e+03 7.781882e+02 5.549364e+03
-4.753616e+09 -4.553558e+09 -4.713720e+09 -3.103793e+04 1.149610e+04 -2.427588e+03
-4.137566e+09 -3.937504e+09 -4.097664e+09 -3.606811e+04 2.087195e+04 -7.464060e+03
-4.565731e+09 -4.365673e+09 -4.525823e+09 -2.336963e+04 1.303585e+04 -2.826098e+02
-4.465184e+09 -4.265588e+09 -4.425038e+09 4.259323e+05 -1.704874e+04 -3.131722e+03
-4.853472e+09 -4.653680e+09 -4.813689e+09 3.043672e+05 -7.546390e+02 3.196486e+04
-4.530418e+09 -4.330660e+09 -4.490733e+09 3.000164e+05 2.852441e+04 3.459775e+04
-4.187189e+09 -3.987523e+09 -4.147427e+09 2.978698e+05 -1.017222e+04 2.085285e+04
-4.669537e+09 -4.469939e+09 -4.629734e+09 3.249495e+05 2.612271e+04 5.700867e+04
-4.820316e+09 -4.620830e+09 -4.780528e+09 3.859164e+05 5.044081e+04 5.431874e+04
-2.597062e+09 -2.396935e+09 -2.557069e+09 2.874054e+03 2.805649e+04 -2.589520e+03
-2.108312e+09 -1.908202e+09 -2.068310e+09 -1.588525e+03 1.479451e+04 -4.805197e+03
-2.889156e+09 -2.689034e+09 -2.849170e+09 1.131450e+03 1.738821e+04 -3.580383e+03
-2.308519e+09 -2.108405e+09 -2.268531e+09 7.914675e+02 4.160580e+04 -3.432485e+03
-1.806162e+09 -1.606071e+09 -1.766164e+09 3.395486e+02 2.998598e+04 -1.381079e+03
-1.939011e+09 -1.738897e+09 -1.899005e+09 7.422183e+02 4.110330e+04 -4.235401e+03
-1.809881e+09 -1.609790e+09 -1.769882e+09 -3.004813e+03 2.698688e+04 -5.320371e+02
-1.580460e+09 -1.380536e+09 -1.540542e+09 8.561418e+02 2.873483e+02 1.916944e+03
-2.742421e+09 -2.542500e+09 -2.702508e+09 4.022691e+02 -3.974194e+02 1.752890e+03
-2.492485e+09 -2.292564e+09 -2.452573e+09 3.023201e+02 -9.472090e+01 4.897550e+03
-1.594920e+09 -1.394997e+09 -1.555004e+09 5.680963e+01 2.653180e+02 2.027764e+03
-2.492335e+09 -2.292414e+09 -2.452422e+09 1.515401e+03 4.005657e+02 6.426785e+03
-2.692387e+09 -2.492465e+09 -2.652474e+09 3.644462e+02 6.237076e+02 1.715453e+03
-4.490008e+09 -4.288872e+09 -4.447883e+09 8.416377e+04 1.742792e+05 -8.664004e+03
-2.923089e+09 -2.723167e+09 -2.883176e+09 2.928737e+02 1.930053e+02 1.863419e+03
-2.076036e+09 -1.876111e+09 -2.036118e+09 4.226771e+02 -2.352883e+01 1.387526e+03
-2.999951e+09 -2.800031e+09 -2.960039e+09 4.492277e+02 -9.787248e+01 1.731675e+03
-4.415039e+09 -4.214896e+09 -4.375103e+09 1.465233e+04 -5.281454e+03 -3.956352e+03
-4.686769e+09 -4.486627e+09 -4.646835e+09 1.425624e+04 -4.690512e+03 -3.399977e+03
-1.641149e+09 -1.441079e+09 -1.601162e+09 1.008638e+03 -1.311847e+04 -1.541744e+04
-4.174429e+09 -3.974246e+09 -4.134481e+09 2.617905e+04 -2.728957e+04 -1.426330e+04
-4.040235e+09 -3.840086e+09 -4.000290e+09 1.524895e+04 -1.593015e+04 -1.221548e+04
-3.955036e+09 -3.754897e+09 -3.915090e+09 2.194358e+04 -1.548787e+04 -7.101700e+03
-3.934001e+09 -3.733842e+09 -3.894056e+09 2.350646e+04 -1.802893e+04 -8.066451e+03
-1.981023e+09 -1.781094e+09 -1.941105e+09 -4.934333e+03 -2.156800e+03 5.267055e+03
-2.154796e+09 -1.954863e+09 -2.114876e+09 -3.901310e+03 -1.308864e+03 4.195554e+03
-2.645491e+09 -2.445558e+09 -2.605570e+09 -3.721231e+03 -1.630597e+03 3.729293e+03
-2.591049e+09 -2.391121e+09 -2.551134e+09 -2.658762e+03 -1.280190e+03 3.476995e+03
-3.119745e+09 -2.919817e+09 -3.079830e+09 -3.810073e+03 -1.100837e+03 3.854452e+03
-2.990020e+09 -2.790089e+09 -2.950105e+09 -5.836000e+03 -1.301340e+03 4.503510e+03
-2.655224e+09 -2.455148e+09 -2.615245e+09 -4.990254e+03 7.358345e+03 -5.186026e+03
-4.034484e+09 -3.834409e+09 -3.994524e+09 -5.770759e+03 7.125469e+03 -2.797390e+03
-3.957679e+09 -3.757601e+09 -3.917712e+09 -4.739034e+03 4.995074e+03 -2.745021e+03
-2.948103e+09 -2.748020e+09 -2.908132e+09 -1.020636e+04 1.582877e+04 -6.378174e+03
-3.832803e+09 -3.632729e+09 -3.792843e+09 -5.243281e+03 6.585906e+03 -4.358713e+03
-3.138544e+09 -2.938472e+09 -3.098572e+09 -5.515764e+03 9.205342e+03 -3.901117e+03
-2.749231e+09 -2.549326e+09 -2.709426e+09 9.801155e+04 -7.308953e+04 -5.378492e+04
-2.529657e+09 -2.329720e+09 -2.489803e+09 8.813390e+04 -7.542768e+04 -7.358860e+04
-3.237616e+09 -3.037631e+09 -3.197789e+09 1.151164e+05 -9.770934e+04 -7.036271e+04
-3.403769e+09 -3.203734e+09 -3.363928e+09 1.257567e+05 -8.558089e+04 -6.618086e+04
-3.625339e+09 -3.425399e+09 -3.585552e+09 1.031047e+05 -6.790699e+04 -4.598454e+04
-3.777699e+09 -3.577802e+09 -3.737982e+09 1.840056e+05 -3.899492e+04 -4.614469e+04
-3.164765e+09 -2.964873e+09 -3.124978e+09 1.307681e+05 -9.219643e+04 -7.647885e+04
-3.783339e+09 -3.583467e+09 -3.743617e+09 1.538831e+05 -5.455204e+04 -3.884930e+04
-2.522495e+09 -2.322521e+09 -2.482551e+09 -2.549475e+03 -9.015511e+02 2.745357e+03
-2.745753e+09 -2.545777e+09 -2.705810e+09 -9.632643e+02 -6.130257e+02 1.810150e+03
-3.398907e+09 -3.198935e+09 -3.358966e+09 -1.120375e+03 -1.755078e+02 1.565163e+03
-2.653267e+09 -2.453294e+09 -2.613324e+09 -8.837805e+02 -4.502084e+02 1.358757e+03
-2.721136e+09 -2.521068e+09 -2.681167e+09 -5.781832e+03 1.344712e+04 -8.932025e+03
-3.537892e+09 -3.337821e+09 -3.497923e+09 -2.289275e+03 6.772503e+03 -2.468608e+03
-3.697983e+09 -3.497905e+09 -3.658013e+09 -3.116202e+03 2.803478e+03 -3.557854e+03
-2.738654e+09 -2.538582e+09 -2.698677e+09 -2.007033e+03 6.281971e+03 -4.127953e+03
-2.917615e+09 -2.717539e+09 -2.877636e+09 -5.081363e+02 3.116589e+03 -5.027113e+03
-3.725330e+09 -3.525257e+09 -3.685360e+09 4.800244e+02 1.978245e+03 -2.945897e+03
-3.521867e+09 -3.321795e+09 -3.481899e+09 -8.967204e+02 3.499735e+03 -2.007171e+03
-4.290600e+09 -4.090479e+09 -4.250739e+09 1.692718e+05 3.157432e+04 2.294711e+04
-4.806018e+09 -4.605900e+09 -4.766152e+09 1.849193e+05 2.024988e+04 2.215397e+04
-4.300106e+09 -4.099982e+09 -4.260218e+09 2.097344e+05 5.203029e+04 4.616386e+04
-4.119557e+09 -3.919476e+09 -4.079682e+09 1.795897e+05 3.884620e+04 1.895882e+04
-3.483333e+09 -3.283233e+09 -3.443384e+09 -1.400580e+04 -8.156290e+03 1.589771e+04
-2.659778e+09 -2.459698e+09 -2.619810e+09 -6.426550e+02 -5.932415e+03 1.564464e+04
-3.074983e+09 -2.874896e+09 -3.035034e+09 -2.067308e+04 -2.143965e+04 1.757968e+04
-2.791417e+09 -2.591340e+09 -2.751459e+09 -2.624296e+04 -2.910561e+04 2.496146e+04
-2.645249e+09 -2.445197e+09 -2.605294e+09 -1.711292e+04 -3.492240e+04 2.350509e+04
-2.971852e+09 -2.772150e+09 -2.932184e+09 -1.518438e+04 6.443619e+04 -3.117425e+04
-3.135030e+09 -2.934953e+09 -3.095084e+09 -1.923676e+04 -1.583379e+04 1.883252e+04
-2.292862e+09 -2.092685e+09 -2.252858e+09 1.835909e+04 -6.002577e+04 -1.617241e+04
-1.883693e+09 -1.683569e+09 -1.843697e+09 5.782547e+03 -2.987601e+04 -1.181436e+04
-3.291561e+09 -3.091468e+09 -3.251620e+09 -1.678327e+04 -9.295389e+03 1.581314e+04
-1.587522e+09 -1.387445e+09 -1.547527e+09 -2.798096e+03 2.146719e+04 -9.709671e+03
-1.869688e+09 -1.669571e+09 -1.829710e+09 6.000481e+03 -4.976429e+04 -2.013349e+04
-2.742211e+09 -2.542105e+09 -2.702241e+09 7.946779e+03 -2.662237e+04 -1.694662e+04
-2.122937e+09 -1.922826e+09 -2.082938e+09 4.432996e+03 -2.204369e+04 -1.323807e+04
-2.558442e+09 -2.358332e+09 -2.518469e+09 4.249292e+03 -2.227331e+04 -1.368337e+04
-2.937859e+09 -2.737720e+09 -2.897889e+09 7.794166e+03 -3.597890e+04 -2.261330e+04
-2.633504e+09 -2.433387e+09 -2.593541e+09 1.359285e+04 -2.708003e+04 -1.616216e+04
-3.019060e+09 -2.818923e+09 -2.979094e+09 2.427633e+04 -3.649612e+04 -8.356651e+03
-2.726706e+09 -2.526722e+09 -2.686758e+09 3.917154e+03 1.283400e+03 1.215317e+03
-3.045520e+09 -2.845537e+09 -3.005573e+09 4.157192e+03 5.955911e+02 1.574513e+03
-2.621207e+09 -2.421221e+09 -2.581258e+09 2.442905e+03 8.246095e+02 8.222476e+02
-2.319471e+09 -2.119481e+09 -2.279520e+09 6.753589e+03 1.666860e+03 2.023005e+03
-2.715193e+09 -2.515200e+09 -2.675239e+09 2.296340e+03 8.778334e+02 9.385490e+02
-2.218329e+09 -2.018344e+09 -2.178380e+09 5.556659e+03 1.263182e+03 1.214525e+03
-1.858402e+09 -1.658419e+09 -1.818453e+09 2.149376e+03 9.643462e+02 6.305026e+02
-2.508577e+09 -2.308595e+09 -2.468629e+09 4.995130e+03 2.036549e+03 3.506638e+02
-1.889324e+09 -1.689341e+09 -1.849374e+09 3.736028e+03 3.537234e+02 3.675202e+02
-3.855395e+09 -3.655426e+09 -3.815458e+09 -5.874397e+03 -7.814346e+02 2.273419e+03
-3.564865e+09 -3.364896e+09 -3.524928e+09 -6.369538e+03 -1.304390e+03 1.924683e+03
-3.888767e+09 -3.688794e+09 -3.848826e+09 -2.132309e+03 -3.007456e+01 1.648975e+03
-3.678392e+09 -3.478416e+09 -3.638452e+09 -4.255249e+03 -5.803438e+02 1.921559e+03
-3.631642e+09 -3.431673e+09 -3.591702e+09 -4.227462e+03 -6.465132e+02 1.250162e+03
-2.667915e+09 -2.467944e+09 -2.627971e+09 -3.135334e+03 -9.863724e+02 1.798679e+03
-1.628089e+09 -1.428090e+09 -1.588108e+09 -1.424210e+03 -6.629164e+04 -4.891731e+04
-2.857562e+09 -2.657588e+09 -2.817621e+09 -4.754493e+03 -2.037653e+03 2.297936e+03
-3.231993e+09 -3.032023e+09 -3.192052e+09 -4.223114e+03 -7.575971e+02 1.404462e+03
-2.376968e+09 -2.176899e+09 -2.336986e+09 -1.390306e+03 6.570664e+03 -4.185964e+03
-2.912352e+09 -2.712288e+09 -2.872384e+09 4.100144e+02 1.299856e+04 -3.489640e+03
-4.011096e+09 -3.811024e+09 -3.971137e+09 -3.742820e+03 7.435428e+03 -2.439273e+03
-3.773032e+09 -3.572969e+09 -3.733084e+09 -2.989804e+03 1.347794e+04 -2.082809e+03
-3.504627e+09 -3.304562e+09 -3.464672e+09 -4.012635e+03 1.417645e+04 -1.922874e+03
-2.181184e+09 -1.981073e+09 -2.141183e+09 -3.417323e+03 1.798114e+04 -9.131185e+03
-2.618698e+09 -2.418577e+09 -2.578714e+09 -4.420478e+03 3.975154e+04 -8.127306e+03
-1.824508e+09 -1.624416e+09 -1.784506e+09 8.943252e+02 3.129363e+04 -7.846324e+03
-2.145668e+09 -1.945557e+09 -2.105666e+09 -1.517629e+03 1.900234e+04 -5.348915e+03
-2.020854e+09 -1.820740e+09 -1.980849e+09 -2.221402e+03 3.951188e+04 -6.354457e+03
-1.844162e+09 -1.644068e+09 -1.804162e+09 3.491405e+03 2.754928e+04 -5.146662e+03
-1.889202e+09 -1.689173e+09 -1.849253e+09 2.250052e+04 -7.428337e+04 -3.954328e+04
-2.755665e+09 -2.555664e+09 -2.715776e+09 1.667794e+04 -5.587737e+04 -1.163418e+04
-2.639548e+09 -2.439554e+09 -2.599665e+09 4.039751e+04 -6.950219e+04 -1.934180e+04
-3.760654e+09 -3.560739e+09 -3.720759e+09 7.713967e+03 8.484577e+02 8.271345e+03
-2.256817e+09 -2.056799e+09 -2.216888e+09 2.072198e+04 -6.793611e+04 -2.708915e+04
-1.876248e+09 -1.676292e+09 -1.836341e+09 2.781687e+04 -8.474721e+04 -4.874111e+04
-1.945680e+09 -1.745705e+09 -1.905757e+09 5.125715e+03 -6.798048e+04 -2.365814e+04
-4.813256e+09 -4.613276e+09 -4.773311e+09 6.008226e+03 -7.718040e+01 7.297089e+02
-4.282813e+09 -4.082833e+09 -4.242866e+09 3.158162e+03 1.136200e+02 9.330754e+01
-4.541100e+09 -4.341121e+09 -4.501153e+09 2.818491e+03 -1.432680e+01 3.978543e+02
-4.091773e+09 -3.891796e+09 -4.051829e+09 4.882286e+03 6.880285e+02 5.692474e+02
-4.519321e+09 -4.319344e+09 -4.479374e+09 3.543396e+03 1.499078e+02 3.248628e+02
-2.193511e+09 -1.993695e+09 -2.153715e+09 3.803871e+04 -7.544210e+04 -4.776149e+04
-2.997624e+09 -2.797911e+09 -2.957960e+09 4.551890e+04 -5.550930e+04 -1.064098e+04
-2.874342e+09 -2.674604e+09 -2.834676e+09 5.818171e+04 -4.379607e+04 -8.433573e+03
-2.052652e+09 -1.852868e+09 -2.012845e+09 2.943417e+04 -6.548986e+04 -3.816996e+04
-1.886258e+09 -1.686434e+09 -1.846462e+09 2.279050e+04 -6.286518e+04 -4.062163e+04
-2.450256e+09 -2.250485e+09 -2.410500e+09 4.107301e+04 -6.370678e+04 -6.812361e+04
-3.434081e+09 -3.234012e+09 -3.394174e+09 3.955152e+04 -4.318096e+04 -2.361703e+04
-3.124864e+09 -2.924789e+09 -3.084945e+09 4.106403e+04 -5.056758e+04 -2.422641e+04
-2.413653e+09 -2.213621e+09 -2.373735e+09 3.926244e+04 -5.863440e+04 -4.049676e+04
-3.166837e+09 -2.966798e+09 -3.126950e+09 3.844133e+04 -4.805013e+04 -1.878602e+04
-2.601565e+09 -2.401532e+09 -2.561649e+09 2.895300e+04 -5.529809e+04 -2.545903e+04
-3.014323e+09 -2.814288e+09 -2.974423e+09 4.006227e+04 -6.203283e+04 -3.206589e+04
-2.935391e+09 -2.735294e+09 -2.895413e+09 -6.512044e+03 1.125242e+04 -5.883357e+03
-2.684044e+09 -2.483958e+09 -2.644061e+09 -3.491286e+03 3.982505e+03 -7.147875e+03
-3.361711e+09 -3.161614e+09 -3.321740e+09 -6.626120e+03 1.032124e+04 -7.441708e+03
-3.730593e+09 -3.530491e+09 -3.690622e+09 -6.665325e+03 5.028762e+03 -6.277534e+03
-3.383321e+09 -3.183222e+09 -3.343347e+09 -5.342697e+03 4.443416e+03 -6.606531e+03
-2.495742e+09 -2.295575e+09 -2.455758e+09 -2.420505e+04 -5.995775e+04 8.438047e+03
-2.586636e+09 -2.386462e+09 -2.546652e+09 -1.833586e+04 -5.386790e+04 1.003085e+04
-2.375056e+09 -2.174925e+09 -2.335080e+09 -9.855168e+03 -5.598245e+04 6.811860e+03
-2.375198e+09 -2.175045e+09 -2.335217e+09 -2.003826e+04 -5.605465e+04 1.793444e+04
-1.998466e+09 -1.798347e+09 -1.958466e+09 -7.030454e+03 -3.063220e+04 9.983772e+03
-1.794532e+09 -1.594443e+09 -1.754540e+09 -2.766575e+04 -4.660130e+04 1.406442e+04
-2.372499e+09 -2.172472e+09 -2.332539e+09 1.694719e+04 1.330929e+04 1.051786e+04
-1.756641e+09 -1.556616e+09 -1.716673e+09 7.289808e+03 7.882755e+03 7.924778e+03
-1.939470e+09 -1.739451e+09 -1.899508e+09 9.785592e+03 6.517537e+03 4.259679e+03
-2.480428e+09 -2.280410e+09 -2.440474e+09 1.977740e+04 1.171476e+04 9.744514e+03
-2.061236e+09 -1.861224e+09 -2.021276e+09 1.106404e+04 5.619038e+03 9.105268e+03
-2.512016e+09 -2.312001e+09 -2.472059e+09 1.537316e+04 1.025478e+04 7.145270e+03
-2.658042e+09 -2.457990e+09 -2.618091e+09 -1.856940e+04 -2.341996e+04 2.324056e+04
-2.288527e+09 -2.088481e+09 -2.248559e+09 -1.070394e+04 -1.832877e+04 1.615623e+04
-3.232121e+09 -3.032063e+09 -3.192178e+09 -2.248343e+04 -1.496933e+04 1.453728e+04
-3.478104e+09 -3.278055e+09 -3.438168e+09 -2.183838e+04 -1.445794e+04 1.312827e+04
-2.496834e+09 -2.296791e+09 -2.456877e+09 -5.867352e+03 -8.999103e+03 1.322260e+04
-2.063225e+09 -1.863196e+09 -2.023259e+09 -7.518706e+03 -1.390414e+04 1.721121e+04
-2.253803e+09 -2.053751e+09 -2.213837e+09 -3.113102e+03 3.003091e+04 -5.781811e+03
-2.796762e+09 -2.596701e+09 -2.756804e+09 -2.548804e+04 -2.498381e+04 1.737133e+04
-2.484990e+09 -2.284935e+09 -2.445035e+09 -1.940070e+04 -2.256685e+04 2.260789e+04
-4.987538e+09 -4.787635e+09 -4.947654e+09 4.810097e+03 2.409182e+02 2.392290e+03
-2.708099e+09 -2.508063e+09 -2.668147e+09 -1.820250e+04 -1.755090e+04 1.834648e+04
-2.849777e+09 -2.649813e+09 -2.809838e+09 -1.735538e+03 -1.847061e+02 1.360061e+03
-3.165008e+09 -2.965044e+09 -3.125068e+09 -2.347583e+03 -4.185007e+02 6.538485e+02
-3.778459e+09 -3.578495e+09 -3.738518e+09 -7.771828e+02 -7.886223e+01 2.244743e+00
-4.963110e+09 -4.763202e+09 -4.923223e+09 5.568886e+03 4.234086e+02 2.469782e+03
-2.706252e+09 -2.506289e+09 -2.666313e+09 -9.853686e+02 -2.049141e+02 3.892231e+02
-3.237102e+09 -3.037140e+09 -3.197163e+09 -9.110951e+02 -2.850169e+02 -2.915877e+01
-3.639687e+09 -3.439724e+09 -3.599747e+09 -3.784532e+02 -2.347050e+02 1.931801e+02
-2.742166e+09 -2.542202e+09 -2.702226e+09 -5.006923e+02 -1.673112e+02 5.340638e+02
-3.143888e+09 -2.943922e+09 -3.103947e+09 -2.047907e+03 -3.000815e+02 7.089074e+02
-2.026822e+09 -1.826857e+09 -1.986881e+09 -4.998082e+02 -2.158409e+02 1.208082e+02
-2.295558e+09 -2.095593e+09 -2.255617e+09 -4.996284e+02 -3.909955e+01 8.217024e+01
-2.899361e+09 -2.699395e+09 -2.859419e+09 -2.133583e+02 -2.074768e+02 1.844277e+02
-2.380923e+09 -2.180739e+09 -2.340939e+09 -2.482812e+03 -6.196827e+04 1.255559e+03
-2.488243e+09 -2.288044e+09 -2.448234e+09 7.377806e+03 -5.770644e+04 -2.763617e+03
-1.765340e+09 -1.565235e+09 -1.725336e+09 -2.218875e+04 -5.598951e+04 -2.705221e+03
-1.948275e+09 -1.748143e+09 -1.908271e+09 1.620974e+03 -2.905690e+04 -3.729060e+03
-2.281324e+09 -2.081191e+09 -2.241345e+09 7.844951e+02 -5.983184e+04 -7.634101e+03
-2.535587e+09 -2.335410e+09 -2.495598e+09 6.792720e+03 -6.540249e+04 -3.979968e+03
-2.721833e+09 -2.521884e+09 -2.681903e+09 -2.693928e+03 -5.450352e+02 2.003684e+03
-2.293243e+09 -2.093290e+09 -2.253309e+09 -2.534609e+03 -9.713528e+02 1.223864e+03
-1.686794e+09 -1.486733e+09 -1.646820e+09 8.002896e+03 -5.376254e+04 -2.639892e+04
-1.793885e+09 -1.593937e+09 -1.753952e+09 -2.807495e+03 -1.270742e+03 1.540816e+03
-1.863308e+09 -1.663362e+09 -1.823379e+09 -3.566659e+03 -1.133808e+03 2.848268e+03
-2.046496e+09 -1.846544e+09 -2.006563e+09 -4.427138e+03 -1.388503e+03 1.895694e+03
-1.948270e+09 -1.748321e+09 -1.908340e+09 -5.260079e+03 -2.264935e+03 2.339208e+03
-3.945318e+09 -3.745380e+09 -3.905401e+09 -8.072389e+03 -1.833651e+03 2.088178e+03
-4.642291e+09 -4.442349e+09 -4.602368e+09 -1.673122e+03 -5.763304e+02 -1.218295e+02
-4.007625e+09 -3.807688e+09 -3.967706e+09 -2.609234e+03 -4.927711e+02 1.189206e+03
-1.902304e+09 -1.702301e+09 -1.862363e+09 6.888130e+03 -5.550352e+04 -1.743963e+04
-3.878541e+09 -3.678597e+09 -3.838618e+09 -5.287666e+03 -1.108883e+02 2.487708e+03
-4.569361e+09 -4.369417e+09 -4.529439e+09 -6.158553e+03 -3.722064e+02 1.018318e+03
-3.993506e+09 -3.793563e+09 -3.953581e+09 -2.442173e+03 -5.865821e+02 2.496662e+02
-2.072706e+09 -1.872796e+09 -2.032832e+09 6.720363e+04 -8.936888e+04 -8.464274e+04
-2.759974e+09 -2.560095e+09 -2.720141e+09 8.912481e+04 -8.972308e+04 -8.125091e+04
-1.799922e+09 -1.599945e+09 -1.759897e+09 6.844493e+03 -1.082590e+05 -9.578648e+04
-2.099281e+09 -1.899301e+09 -2.059308e+09 5.549625e+04 -1.374575e+05 -1.066072e+05
-1.576821e+09 -1.376850e+09 -1.536828e+09 -7.544381e+03 -9.538998e+04 -6.493569e+04
-2.574389e+09 -2.374768e+09 -2.534674e+09 2.380284e+04 -1.735683e+04 -8.559957e+04
-3.138510e+09 -2.938881e+09 -3.098893e+09 3.140986e+04 -3.331386e+04 -3.179350e+04
-3.148805e+09 -2.949226e+09 -3.109234e+09 6.164957e+04 -4.570365e+04 -2.841771e+04
-3.273286e+09 -3.073813e+09 -3.233718e+09 6.361353e+04 -2.998890e+04 -7.218057e+04
-2.232575e+09 -2.032842e+09 -2.192834e+09 2.943567e+04 -3.189322e+04 -4.234679e+04
-3.351462e+09 -3.151959e+09 -3.311933e+09 1.058631e+05 -4.387645e+04 -8.701633e+04
-2.523580e+09 -2.323596e+09 -2.483694e+09 -1.386524e+04 6.559951e+04 -2.747925e+04
-2.481421e+09 -2.281463e+09 -2.441567e+09 -3.137648e+04 6.631405e+04 -3.295057e+04
-2.123022e+09 -1.923015e+09 -2.083095e+09 -2.946987e+04 8.385642e+04 -4.484179e+04
-2.663634e+09 -2.463695e+09 -2.623796e+09 -2.314751e+04 6.711642e+04 -2.456933e+04
-2.127542e+09 -1.927607e+09 -2.087666e+09 -2.538900e+04 7.338036e+04 -3.695631e+04
-1.919885e+09 -1.719937e+09 -1.879987e+09 -1.440941e+04 8.952864e+04 -5.881446e+04
-2.077517e+09 -1.877530e+09 -2.037591e+09 -2.540066e+04 9.060233e+04 -6.095051e+04
-2.294105e+09 -2.093995e+09 -2.254111e+09 3.529597e+03 1.231451e+04 -3.483504e+03
-1.859399e+09 -1.659307e+09 -1.819402e+09 8.843314e+03 8.736124e+03 3.588790e+03
-2.897389e+09 -2.697262e+09 -2.857402e+09 1.151005e+03 1.646647e+04 2.459230e+03
-1.809317e+09 -1.609224e+09 -1.769321e+09 1.308208e+04 2.929242e+04 6.997197e+02
-2.506846e+09 -2.306735e+09 -2.466860e+09 5.436431e+03 2.767727e+04 2.583929e+03
-2.018244e+09 -1.818132e+09 -1.978246e+09 5.388403e+03 3.909431e+04 4.010592e+03
-2.108397e+09 -1.908441e+09 -2.068462e+09 -9.443411e+02 2.312872e+01 -9.649854e+01
-1.706706e+09 -1.506750e+09 -1.666771e+09 -3.018741e+03 -3.284945e+02 1.547908e+03
-2.356047e+09 -2.156092e+09 -2.316113e+09 -2.191971e+03 -7.848090e+02 5.655296e+02
-2.846791e+09 -2.646828e+09 -2.806852e+09 -2.806762e+03 -4.471331e+02 8.750345e+02
-3.227517e+09 -3.027942e+09 -3.187912e+09 2.222274e+04 -2.515984e+04 -1.929281e+04
-3.576604e+09 -3.377094e+09 -3.537120e+09 -9.696094e+03 -3.483643e+04 -1.776213e+04
-2.986557e+09 -2.786867e+09 -2.946890e+09 2.456609e+04 -5.013049e+04 -1.034645e+04
-2.649532e+09 -2.449955e+09 -2.609891e+09 5.583578e+04 -3.654348e+04 -9.876067e+04
-3.412767e+09 -3.213193e+09 -3.373251e+09 3.673147e+04 -3.795926e+04 -4.887305e+04
-2.631784e+09 -2.432053e+09 -2.592046e+09 7.568083e+03 -5.580001e+04 -6.036753e+04
-4.528650e+09 -4.329137e+09 -4.489189e+09 7.451970e+04 -7.179754e+03 -2.156710e+03
-4.271289e+09 -4.071806e+09 -4.231844e+09 2.382438e+04 -1.169773e+04 -1.649268e+04
-3.948469e+09 -3.748848e+09 -3.908917e+09 1.472627e+05 -5.503176e+04 -4.946977e+04
-3.762031e+09 -3.562489e+09 -3.722517e+09 6.472514e+04 -4.833036e+04 -1.105416e+04
-2.448358e+09 -2.248381e+09 -2.408411e+09 1.653191e+03 3.924331e+02 2.698144e+02
-4.987515e+09 -4.787628e+09 -4.947647e+09 6.165650e+03 -2.314477e+01 8.107209e+02
-3.790529e+09 -3.590843e+09 -3.750940e+09 3.737518e+04 -3.282346e+04 -1.427365e+04
-3.969335e+09 -3.769791e+09 -3.929830e+09 1.888084e+04 -3.171462e+04 -2.650349e+03
-3.109711e+09 -2.910092e+09 -3.070135e+09 1.353523e+04 -4.893183e+04 2.185062e+03
-4.481073e+09 -4.281087e+09 -4.441044e+09 -4.591785e+05 3.280012e+04 -1.884836e+04
-3.119520e+09 -2.919836e+09 -3.079874e+09 4.666650e+04 -5.007679e+04 -2.441594e+04
-2.655552e+09 -2.455570e+09 -2.615611e+09 -6.093637e+03 -3.479726e+03 5.060300e+03
-2.189754e+09 -1.989772e+09 -2.149810e+09 -6.129424e+03 -2.987561e+03 4.752048e+03
-1.937227e+09 -1.737248e+09 -1.897283e+09 -7.126923e+03 -1.742614e+03 5.745441e+03
-2.585300e+09 -2.385319e+09 -2.545358e+09 -4.153601e+03 -1.781906e+03 4.443247e+03
-1.830593e+09 -1.630620e+09 -1.790651e+09 -5.510567e+03 -2.163295e+03 3.818939e+03
-1.866999e+09 -1.667026e+09 -1.827055e+09 -3.880091e+03 -1.684079e+03 2.422691e+03
-2.729131e+09 -2.529161e+09 -2.689193e+09 -5.222473e+03 -2.096673e+03 2.291817e+03
-2.103485e+09 -1.903512e+09 -2.063541e+09 -2.946413e+03 -4.837502e+02 1.477354e+03
-2.138857e+09 -1.938873e+09 -2.098906e+09 7.520779e+02 1.572521e+02 -5.747143e+01
-2.144321e+09 -1.944336e+09 -2.104371e+09 2.357458e+03 7.305133e+02 4.570467e+02
-2.651194e+09 -2.451212e+09 -2.611245e+09 1.052851e+03 -2.524630e+02 7.483804e+01
-2.935139e+09 -2.735157e+09 -2.895190e+09 2.517477e+03 6.965023e+02 -6.667855e+01
-3.236983e+09 -3.037001e+09 -3.197034e+09 1.516079e+03 5.028628e+02 1.821282e+02
-2.512092e+09 -2.311954e+09 -2.472107e+09 -5.352938e+03 4.499677e+04 -1.015528e+04
-2.554537e+09 -2.354415e+09 -2.514553e+09 -6.918550e+03 3.471154e+04 -1.078878e+04
-1.893657e+09 -1.693549e+09 -1.853657e+09 -2.034853e+03 1.921597e+04 -6.112860e+03
-2.620957e+09 -2.420828e+09 -2.580972e+09 -1.810095e+04 3.796905e+04 -1.020766e+04
-2.860576e+09 -2.660452e+09 -2.820594e+09 -1.608455e+04 4.032125e+04 -1.009969e+04
-1.582975e+09 -1.382898e+09 -1.542976e+09 -4.455099e+02 3.685911e+04 -9.275489e+03
-1.851045e+09 -1.651065e+09 -1.811099e+09 -4.587229e+03 -3.020689e+03 3.271726e+03
-1.640896e+09 -1.440912e+09 -1.600949e+09 -2.221187e+03 -1.621861e+03 4.600000e+03
-2.843026e+09 -2.643030e+09 -2.803081e+09 -3.437687e+03 -1.825783e+03 6.518042e+03
-1.883921e+09 -1.683930e+09 -1.843969e+09 -8.726129e+02 -1.331430e+03 4.110458e+03
-2.126629e+09 -1.926638e+09 -2.086684e+09 -9.449694e+03 -6.779420e+03 7.639447e+03
-4.990065e+09 -4.790140e+09 -4.950164e+09 -3.019766e+05 -1.016368e+04 2.075711e+04
-2.734197e+09 -2.534210e+09 -2.694251e+09 -1.642655e+03 -8.105703e+02 4.467845e+03
-1.948499e+09 -1.748496e+09 -1.908544e+09 -1.224231e+04 -1.129572e+04 1.229919e+04
-1.830510e+09 -1.630564e+09 -1.790581e+09 -1.289008e+03 -6.095550e+02 4.666316e+02
-2.538156e+09 -2.338205e+09 -2.498225e+09 -1.696703e+03 -7.669995e+02 5.162495e+02
-2.240989e+09 -2.041039e+09 -2.201058e+09 -3.123955e+03 -1.693892e+03 1.234620e+03
-2.212190e+09 -2.012242e+09 -2.172261e+09 -4.151988e+03 -1.603428e+03 2.129021e+03
-2.631040e+09 -2.431097e+09 -2.591112e+09 -1.437888e+03 -2.388939e+02 1.470050e+03
-2.753215e+09 -2.553269e+09 -2.713287e+09 -1.791612e+03 -1.730153e+03 5.892864e+02
-1.922020e+09 -1.722070e+09 -1.882088e+09 -3.048050e+03 -9.866518e+02 1.498811e+03
-2.208128e+09 -2.008185e+09 -2.168200e+09 -1.740283e+03 -3.448951e+02 5.383977e+02
-2.094430e+09 -1.894485e+09 -2.054502e+09 -1.698331e+03 -8.645133e+02 5.449667e+02
-4.452851e+09 -4.252781e+09 -4.412923e+09 7.347140e+03 -4.805192e+03 -3.330917e+03
-3.962070e+09 -3.761808e+09 -3.921754e+09 -3.943611e+05 8.040899e+04 -8.805786e+03
-3.660779e+09 -3.460703e+09 -3.620839e+09 -1.029309e+02 -1.056275e+04 -5.381865e+03
-3.301123e+09 -3.101057e+09 -3.261174e+09 5.096729e+03 -5.480134e+03 -1.006667e+04
-4.650347e+09 -4.450278e+09 -4.610418e+09 4.161420e+03 -3.175464e+03 -6.375277e+02
-4.817898e+09 -4.617903e+09 -4.777868e+09 -4.096200e+05 8.396063e+03 1.389718e+04
-1.915028e+09 -1.715072e+09 -1.875108e+09 -3.028847e+04 -7.302547e+04 -1.874729e+04
-4.607021e+09 -4.406957e+09 -4.567102e+09 2.905044e+03 -7.135846e+03 -1.442065e+03
-3.226836e+09 -3.026783e+09 -3.186905e+09 5.489288e+03 -1.832299e+04 -2.518124e+03
-3.606587e+09 -3.406526e+09 -3.566656e+09 7.144446e+03 -1.705367e+04 -3.280955e+03
-4.620607e+09 -4.420444e+09 -4.580656e+09 -2.581186e+04 1.481389e+04 -7.421398e+03
-4.235867e+09 -4.035722e+09 -4.195906e+09 -1.452811e+04 1.623868e+04 -6.262441e+03
-3.970817e+09 -3.770683e+09 -3.930848e+09 -1.153620e+04 1.356973e+04 -3.410143e+03
-4.094167e+09 -3.893989e+09 -4.054203e+09 -2.035623e+04 1.963902e+04 -6.917926e+03
-4.826396e+09 -4.626233e+09 -4.786434e+09 -1.126330e+04 4.046447e+03 -5.750090e+03
-4.808878e+09 -4.608736e+09 -4.768918e+09 -1.481227e+04 3.886499e+03 -6.667474e+03
-4.800130e+09 -4.599952e+09 -4.760168e+09 -2.138214e+04 5.920232e+03 -5.883595e+03
-4.630231e+09 -4.430086e+09 -4.590265e+09 -1.445013e+04 6.372920e+03 -5.221084e+03
-2.327730e+09 -2.127751e+09 -2.287782e+09 9.561623e+02 -2.610724e+00 -3.997438e+01
-2.897352e+09 -2.697374e+09 -2.857404e+09 1.925015e+02 1.356830e+02 3.703046e+01
-1.913915e+09 -1.713937e+09 -1.873968e+09 9.119961e+02 2.163968e+02 1.761632e+02
-2.242050e+09 -2.042074e+09 -2.202104e+09 1.561217e+03 1.281066e+02 -1.390497e+01
-3.127677e+09 -2.927701e+09 -3.087730e+09 1.237901e+03 2.483995e+02 3.391346e+02
-4.301199e+09 -4.099766e+09 -4.258499e+09 -1.652985e+05 -2.774341e+05 3.275429e+04
-3.168395e+09 -2.968417e+09 -3.128446e+09 6.328891e+02 -6.954192e+01 5.425990e+01
-2.857821e+09 -2.657845e+09 -2.817874e+09 8.961442e+02 9.602009e+01 1.839822e+02
-2.945621e+09 -2.745463e+09 -2.905646e+09 1.231647e+04 -3.585045e+04 -1.250756e+04
-1.847540e+09 -1.647459e+09 -1.807547e+09 -8.875635e+03 -5.308374e+04 -2.245632e+04
-2.647516e+09 -2.447389e+09 -2.607543e+09 5.446519e+03 -2.534705e+04 -1.623235e+04
-1.875326e+09 -1.675219e+09 -1.835335e+09 2.776231e+03 -2.566183e+04 -1.699487e+04
-1.957465e+09 -1.757347e+09 -1.917483e+09 3.163446e+03 -5.398882e+04 -1.766130e+04
-2.140418e+09 -1.940294e+09 -2.100431e+09 6.587796e+03 -5.470128e+04 -1.413153e+04
-1.932244e+09 -1.732261e+09 -1.892314e+09 -1.956193e+04 -6.689722e+04 -1.289173e+04
-1.975970e+09 -1.775951e+09 -1.936008e+09 -1.333630e+04 -1.532445e+04 1.696726e+04
-1.745597e+09 -1.545582e+09 -1.705633e+09 -9.788623e+03 -1.504245e+04 1.439991e+04
-2.891191e+09 -2.691181e+09 -2.851255e+09 -2.165703e+04 -1.627291e+04 1.592470e+04
-3.323862e+09 -3.123840e+09 -3.283924e+09 -7.476223e+03 -5.711178e+03 9.808359e+03
-1.680926e+09 -1.480902e+09 -1.640957e+09 3.745923e+03 -8.000867e+04 -4.546417e+04
-2.209672e+09 -2.009651e+09 -2.169714e+09 -8.953835e+03 -1.418559e+04 1.288483e+04
-3.255067e+09 -3.055042e+09 -3.215132e+09 -2.078357e+04 -1.028550e+04 1.076704e+04
-2.204536e+09 -2.004559e+09 -2.164589e+09 3.158971e+03 2.730375e+02 3.105556e+02
-2.773708e+09 -2.573731e+09 -2.733762e+09 3.662925e+03 5.558264e+02 5.192028e+02
-1.914284e+09 -1.714308e+09 -1.874338e+09 3.193046e+03 2.718071e+02 5.304910e+02
-1.868495e+09 -1.668520e+09 -1.828550e+09 4.371699e+03 4.794432e+02 8.182960e+02
-1.868495e+09 -1.668519e+09 -1.828550e+09 4.612322e+03 1.004443e+03 6.069274e+02
-2.619367e+09 -2.419395e+09 -2.579423e+09 3.750683e+03 9.182211e+02 6.082340e+02
-1.815229e+09 -1.615256e+09 -1.775285e+09 3.561080e+03 3.003173e+02 3.570152e+02
-3.961014e+09 -3.759812e+09 -3.919009e+09 -1.088358e+05 -2.987396e+05 -2.511845e+04
-1.849003e+09 -1.649035e+09 -1.809062e+09 4.381168e+03 1.192641e+03 8.637239e+02
-4.648296e+09 -4.448241e+09 -4.608462e+09 -1.609229e+05 -1.499632e+04 7.042725e+03
-2.865742e+09 -2.665761e+09 -2.825798e+09 -6.052295e+03 -3.844333e+03 3.500786e+03
-3.722416e+09 -3.522443e+09 -3.682475e+09 -3.305692e+03 -4.386939e+02 1.078418e+03
-2.752628e+09 -2.552655e+09 -2.712684e+09 -2.485327e+03 -1.113813e+03 1.614355e+03
-2.965251e+09 -2.765272e+09 -2.925307e+09 -1.498530e+03 -1.020445e+03 2.676789e+03
-1.656817e+09 -1.456841e+09 -1.616873e+09 -1.882104e+03 -5.915330e+02 2.450682e+03
-2.151506e+09 -1.951529e+09 -2.111560e+09 -1.027285e+03 -4.498828e+02 1.212394e+03
-2.171546e+09 -1.971468e+09 -2.131555e+09 -4.041979e+03 1.026666e+04 -8.786028e+03
-3.614211e+09 -3.414111e+09 -3.574250e+09 -1.864356e+04 1.180266e+04 -6.740219e+03
-3.605735e+09 -3.405629e+09 -3.565767e+09 -1.522606e+04 1.182660e+04 -8.594728e+03
-2.665176e+09 -2.465099e+09 -2.625205e+09 -7.774260e+03 1.771523e+04 -6.825605e+03
-2.776699e+09 -2.576606e+09 -2.736715e+09 -2.857145e+02 2.891375e+03 -7.519941e+03
-1.613322e+09 -1.413398e+09 -1.573405e+09 2.409881e+02 1.691950e+02 1.984134e+03
-4.005911e+09 -3.805828e+09 -3.965946e+09 -7.506552e+03 7.528846e+03 -2.676280e+03
-4.471908e+09 -4.271826e+09 -4.431948e+09 -8.693414e+03 2.907308e+03 -1.950304e+03
-4.890037e+09 -4.690113e+09 -4.850127e+09 -9.056768e+02 1.934937e+02 -5.286736e-05
-3.921319e+09 -3.721234e+09 -3.881354e+09 -1.115969e+04 1.084182e+04 -3.617085e+03
-3.259439e+09 -3.059355e+09 -3.219482e+09 -1.391582e+04 2.180686e+04 -1.048656e+04
-2.361807e+09 -2.161712e+09 -2.321824e+09 -8.395614e+03 2.159961e+04 -1.123192e+04
-4.223279e+09 -4.023275e+09 -4.183449e+09 -4.949282e+04 2.840988e+04 -1.191852e+04
-3.631880e+09 -3.431853e+09 -3.592007e+09 -3.110265e+04 3.621207e+04 -1.305865e+04
-4.006778e+09 -3.806747e+09 -3.966939e+09 -5.448584e+04 3.303790e+04 -9.653527e+03
-3.756917e+09 -3.556899e+09 -3.717054e+09 -1.915553e+04 3.842950e+04 -5.923588e+03
-4.671355e+09 -4.471337e+09 -4.631506e+09 -1.511195e+04 1.087176e+04 8.289182e+02
-4.029741e+09 -3.829754e+09 -3.989916e+09 -2.941057e+04 2.971631e+04 -9.254575e+03
-4.129405e+09 -3.928735e+09 -4.089153e+09 -7.974019e+04 -2.432676e+04 -1.667615e+03
-4.640773e+09 -4.440173e+09 -4.600652e+09 -2.899279e+04 2.440848e+03 8.253694e+03
-4.815860e+09 -4.615148e+09 -4.775622e+09 -8.926887e+04 -5.075076e+04 2.115851e+04
-4.295199e+09 -4.094560e+09 -4.255026e+09 -7.520166e+04 -9.111274e+04 -8.187397e+01
-4.745328e+09 -4.545361e+09 -4.705394e+09 -7.627572e+03 7.578826e+02 1.986417e+03
-4.263430e+09 -4.063465e+09 -4.223502e+09 -1.311555e+04 -1.148751e+03 1.880267e+03
-3.975231e+09 -3.775259e+09 -3.935301e+09 -1.292798e+04 -3.680548e+03 1.663394e+03
-4.574035e+09 -4.374061e+09 -4.534098e+09 -8.852007e+03 -1.147930e+03 1.366392e+03
-4.219779e+09 -4.019809e+09 -4.179852e+09 -1.328748e+04 -9.614342e+02 2.090037e+03
-4.820056e+09 -4.620098e+09 -4.780132e+09 -1.310148e+04 -2.380836e+03 1.284560e+03
-4.451617e+09 -4.251661e+09 -4.411691e+09 -1.042699e+04 -9.726166e+02 2.088163e+03
-4.476821e+09 -4.276865e+09 -4.436902e+09 -1.453687e+04 -2.316274e+03 3.068266e+03
-4.108385e+09 -3.908433e+09 -4.068461e+09 -1.052587e+04 -2.758603e+03 2.103055e+03
-2.616768e+09 -2.416613e+09 -2.576783e+09 -2.427078e+04 -5.314120e+04 1.954305e+04
-3.033622e+09 -2.833485e+09 -2.993658e+09 -1.965114e+04 -3.606286e+04 1.752813e+04
-3.052260e+09 -2.852097e+09 -3.012306e+09 -3.640094e+04 -7.791348e+04 2.831726e+04
-3.585113e+09 -3.384915e+09 -3.545168e+09 -4.543715e+04 -5.406782e+04 1.710483e+04
-3.286850e+09 -3.086695e+09 -3.246909e+09 -5.410316e+04 -7.218984e+04 2.339296e+04
-2.657084e+09 -2.456982e+09 -2.617127e+09 -2.898122e+04 -4.260814e+04 1.492501e+04
-2.851683e+09 -2.651571e+09 -2.811721e+09 -2.684212e+04 -3.605553e+04 1.696522e+04
-4.276868e+09 -4.076650e+09 -4.236931e+09 7.936029e+04 -4.486334e+04 -2.084176e+04
-4.317823e+09 -4.117568e+09 -4.277885e+09 1.086072e+05 -4.971273e+04 -2.827214e+04
-4.986552e+09 -4.786384e+09 -4.946655e+09 7.882811e+04 -7.772735e+03 -1.314441e+04
-4.643301e+09 -4.443108e+09 -4.603387e+09 7.584402e+04 -2.916018e+04 -1.021016e+04
-4.483028e+09 -4.282834e+09 -4.443148e+09 1.276349e+05 -4.155572e+04 -1.965238e+04
-4.826282e+09 -4.626452e+09 -4.786485e+09 7.402063e+02 -6.739597e+01 9.201332e+03
-4.640695e+09 -4.440933e+09 -4.600966e+09 8.736441e+03 -1.183535e+03 1.597711e+04
-4.120615e+09 -3.920806e+09 -4.080840e+09 1.478039e+03 3.974544e+03 2.943572e+04
-4.638426e+09 -4.438447e+09 -4.598494e+09 -1.275357e+04 -1.390599e+03 2.321284e+03
-3.724816e+09 -3.524834e+09 -3.684877e+09 -4.018711e+03 -2.418360e+02 3.941729e+03
-4.223409e+09 -4.023431e+09 -4.183474e+09 -1.290877e+04 -2.180137e+03 2.973937e+03
-4.684079e+09 -4.484092e+09 -4.644142e+09 -3.932483e+03 -7.030258e+02 1.081764e+03
-4.013171e+09 -3.813181e+09 -3.973231e+09 -5.522616e+03 -1.052410e+03 2.385117e+03
-4.804744e+09 -4.604754e+09 -4.764812e+09 -1.248170e+04 -1.713900e+03 1.978113e+03
-4.988415e+09 -4.788437e+09 -4.948471e+09 6.202856e+03 -3.610060e+02 -5.083953e+01
-4.264563e+09 -4.064582e+09 -4.224616e+09 4.667431e+03 2.065429e+00 4.007321e+02
-4.612025e+09 -4.412045e+09 -4.572082e+09 6.247173e+03 2.304636e+02 7.696358e+02
-4.106043e+09 -3.906061e+09 -4.066102e+09 1.111731e+04 3.899732e+02 3.019363e+03
-4.792507e+09 -4.592525e+09 -4.752566e+09 1.067372e+04 1.923295e+03 -9.289589e+02
-4.195326e+09 -3.995340e+09 -4.155382e+09 9.198381e+03 1.009112e+03 1.111028e+03
-4.030455e+09 -3.830469e+09 -3.990512e+09 1.008387e+04 2.466939e+03 3.748939e+02
-3.861856e+09 -3.661878e+09 -3.821915e+09 7.611266e+03 1.014244e+03 8.048215e+02
-4.135215e+09 -3.934802e+09 -4.095103e+09 -2.372496e+05 5.533533e+04 -2.382087e+04
-4.356153e+09 -4.155469e+09 -4.315863e+09 -1.818076e+05 7.806372e+04 -9.992062e+03
-4.124162e+09 -3.923525e+09 -4.083774e+09 -2.969051e+05 6.740471e+04 3.006679e+04
-2.815486e+09 -2.615534e+09 -2.775676e+09 8.466494e+04 -7.159564e+04 -4.200114e+04
-3.941005e+09 -3.741406e+09 -3.901479e+09 6.489838e+04 -3.424618e+04 -1.684486e+04
-3.858024e+09 -3.658310e+09 -3.818401e+09 9.528412e+04 -2.940246e+04 -2.790885e+04
-4.968053e+09 -4.766952e+09 -4.926681e+09 -2.302074e+05 3.085781e+04 -1.708756e+04
-3.010215e+09 -2.810508e+09 -2.970572e+09 2.991655e+04 -6.489408e+04 -2.714960e+04
-2.751932e+09 -2.552119e+09 -2.712170e+09 1.552915e+04 -5.746642e+04 6.009049e+03
-3.809854e+09 -3.610136e+09 -3.770242e+09 3.717082e+04 -5.003944e+04 -1.508240e+04
-4.027701e+09 -3.828072e+09 -3.988152e+09 3.956963e+04 -4.858460e+04 -4.434701e+04
-4.754778e+09 -4.554641e+09 -4.714860e+09 -6.049950e+04 -7.552860e+03 1.327450e+04
-4.252398e+09 -4.052269e+09 -4.212469e+09 -6.485814e+04 -2.462263e+04 1.433293e+04
-4.127205e+09 -3.927066e+09 -4.087295e+09 9.439526e+04 4.140140e+04 1.687627e+04
-4.268030e+09 -4.067871e+09 -4.228106e+09 8.491676e+04 3.229588e+04 1.560613e+04
-4.805451e+09 -4.605340e+09 -4.765554e+09 8.938436e+04 1.961648e+04 8.510660e+03
-3.731455e+09 -3.531376e+09 -3.691533e+09 -4.197112e+04 -2.737761e+04 1.336766e+04
-4.719042e+09 -4.518920e+09 -4.679119e+09 -4.393650e+04 -9.059138e+03 2.614425e+03
-3.737480e+09 -3.537382e+09 -3.697546e+09 -2.726707e+04 -1.551162e+04 9.883743e+03
-1.649567e+09 -1.449554e+09 -1.609601e+09 1.063964e+03 -6.949621e+04 -2.389819e+04
-4.392807e+09 -4.192707e+09 -4.352883e+09 -2.530279e+04 -7.099519e+03 5.037563e+03
-4.800522e+09 -4.601575e+09 -4.759072e+09 4.665582e+05 8.701422e+04 -9.611150e+04
-4.618398e+09 -4.419862e+09 -4.576375e+09 4.478531e+05 3.023185e+05 5.374848e+05
-4.279298e+09 -4.080228e+09 -4.236997e+09 5.879974e+05 6.513964e+04 3.926708e+05
-4.113820e+09 -3.915003e+09 -4.072358e+09 5.145728e+05 1.203612e+05 6.114901e+05
-4.124043e+09 -3.924181e+09 -4.084243e+09 -5.938903e+04 -5.431136e+03 2.376049e+04
-4.343354e+09 -4.143479e+09 -4.303564e+09 -8.157164e+04 -1.434332e+04 2.849811e+04
-4.135765e+09 -3.935869e+09 -4.095931e+09 -5.127218e+04 -1.361754e+04 2.114608e+04
-4.286027e+09 -4.086231e+09 -4.246290e+09 6.737686e+04 1.851163e+04 3.733356e+04
-4.281538e+09 -4.080263e+09 -4.238949e+09 -3.128635e+05 -1.674369e+05 -5.159080e+04
-4.631373e+09 -4.431525e+09 -4.591600e+09 7.318321e+04 4.264333e+03 1.717192e+04
-4.285232e+09 -4.085415e+09 -4.245478e+09 8.431553e+04 1.499831e+04 3.252520e+04
-4.138424e+09 -3.938523e+09 -4.098549e+09 1.331597e+04 2.412201e+02 9.624453e+03
-4.453161e+09 -4.253250e+09 -4.413273e+09 8.771434e+03 8.977048e+02 5.111115e+03
-4.824885e+09 -4.624988e+09 -4.785015e+09 1.310335e+04 2.295154e+03 4.355740e+03
-4.819076e+09 -4.618942e+09 -4.779157e+09 -5.363856e+04 1.621023e+04 -1.521945e+04
-4.119284e+09 -3.919108e+09 -4.079339e+09 -4.907558e+04 2.736992e+04 -8.278733e+03
-4.132618e+09 -3.932495e+09 -4.092690e+09 -4.813922e+04 2.490529e+04 -5.994761e+03
-4.626230e+09 -4.426063e+09 -4.586283e+09 -4.600068e+04 1.587418e+04 -1.221771e+03
-4.441163e+09 -4.241017e+09 -4.401231e+09 -4.549447e+04 1.599620e+04 -7.223842e+03
-4.125238e+09 -3.925369e+09 -4.085398e+09 -1.957082e+02 1.645648e+02 1.680072e+04
-4.319896e+09 -4.120027e+09 -4.280051e+09 -4.769600e+03 -1.581215e+03 1.292611e+04
-4.813842e+09 -4.613958e+09 -4.773983e+09 -6.251746e+03 -1.369747e+03 5.345899e+03
-4.279378e+09 -4.079477e+09 -4.239497e+09 -4.332426e+03 -6.120652e+02 8.232904e+03
-4.127386e+09 -3.927494e+09 -4.087518e+09 -5.727542e+03 -4.976574e+02 1.161693e+04
-4.322023e+09 -4.122144e+09 -4.282174e+09 -7.431820e+03 -2.128193e+03 1.238673e+04
-4.662848e+09 -4.462893e+09 -4.622917e+09 -6.149291e+03 2.379962e+02 1.450503e+03
-4.139491e+09 -3.939557e+09 -4.099588e+09 -1.585064e+04 -1.024130e+03 6.731616e+03
-4.836760e+09 -4.636811e+09 -4.796848e+09 -1.764289e+04 7.367745e+02 2.642809e+03
-2.633771e+09 -2.433817e+09 -2.593915e+09 8.607108e+03 -6.192667e+04 3.272091e+03
-4.576422e+09 -4.376481e+09 -4.536504e+09 -8.806241e+03 -2.119031e+02 2.515080e+03
-3.988274e+09 -3.788334e+09 -3.948358e+09 -1.040641e+04 -4.697627e+02 4.607416e+03
-3.877249e+09 -3.677297e+09 -3.837322e+09 -9.466684e+03 -1.640595e+03 3.471129e+03
-3.525981e+09 -3.325906e+09 -3.486015e+09 -5.649270e+03 8.585055e+03 -4.463170e+03
-4.465741e+09 -4.265669e+09 -4.425788e+09 -4.473652e+03 3.471395e+03 -8.341583e+02
-4.669839e+09 -4.469763e+09 -4.629875e+09 -2.489856e+03 9.174038e+02 -7.434171e+02
-4.669951e+09 -4.469879e+09 -4.629991e+09 -2.650885e+03 2.215448e+03 -8.229896e+01
-4.431524e+09 -4.231446e+09 -4.391563e+09 -4.623637e+03 3.504025e+03 -1.936730e+03
-2.939876e+09 -2.739702e+09 -2.899895e+09 -7.900124e+03 -3.867789e+04 5.200433e+03
-1.865944e+09 -1.665817e+09 -1.825948e+09 -4.428412e+03 -3.026212e+04 7.538051e+03
-2.863633e+09 -2.663468e+09 -2.823658e+09 -3.144039e+02 -2.136519e+04 2.745524e+03
-2.139359e+09 -1.939231e+09 -2.099362e+09 -6.069495e+03 -2.932170e+04 9.520276e+03
-2.605968e+09 -2.405844e+09 -2.565988e+09 -1.974743e+03 -5.917305e+03 7.236963e+03
-2.996382e+09 -2.796223e+09 -2.956408e+09 -2.792825e+03 -1.978590e+04 7.640539e+03
-2.643082e+09 -2.443094e+09 -2.603132e+09 3.397772e+03 6.970190e+02 1.269327e+03
-1.884994e+09 -1.685007e+09 -1.845042e+09 2.764169e+03 6.394692e+02 1.396896e+03
-3.428189e+09 -3.228206e+09 -3.388241e+09 7.323420e+03 1.788729e+03 1.386679e+03
-2.294499e+09 -2.094516e+09 -2.254552e+09 6.969591e+03 2.188313e+03 1.834244e+03
-4.492909e+09 -4.292749e+09 -4.453006e+09 1.665558e+05 3.416629e+04 2.135708e+04
-4.820348e+09 -4.620187e+09 -4.780460e+09 1.396601e+05 3.107954e+04 1.742871e+04
-4.149670e+09 -3.949481e+09 -4.109763e+09 1.476818e+05 5.239819e+04 2.266631e+04
-4.446934e+09 -4.246749e+09 -4.407003e+09 9.318834e+04 3.133656e+04 1.094984e+04
-4.117927e+09 -3.918110e+09 -4.078175e+09 8.997132e+04 1.069348e+04 3.334223e+04
-4.120835e+09 -3.920978e+09 -4.081052e+09 7.832637e+04 2.159975e+04 3.506828e+04
-4.504647e+09 -4.304774e+09 -4.464880e+09 1.048705e+05 1.652127e+04 2.553357e+04
-4.804360e+09 -4.604568e+09 -4.764642e+09 9.669164e+04 1.247126e+04 2.318812e+04
-4.820246e+09 -4.620439e+09 -4.780524e+09 1.212193e+05 -1.755725e+03 1.084016e+04
-4.825161e+09 -4.623877e+09 -4.781449e+09 3.317582e+05 1.169645e+05 2.951868e+05
-4.848811e+09 -4.647696e+09 -4.806736e+09 3.337914e+05 2.302942e+05 6.244200e+04
-4.634017e+09 -4.433389e+09 -4.591473e+09 6.325874e+05 1.987265e+05 1.337397e+05
-4.806225e+09 -4.605475e+09 -4.764176e+09 5.469631e+05 -2.679479e+04 2.274165e+05
-4.505694e+09 -4.304353e+09 -4.462914e+09 2.890491e+05 1.804520e+05 1.835567e+05
-4.515383e+09 -4.315426e+09 -4.475475e+09 2.519180e+04 3.191837e+03 4.166562e+03
-4.498844e+09 -4.299930e+09 -4.453567e+09 -3.370863e+05 -3.692491e+05 7.511919e+05
-4.671714e+09 -4.471768e+09 -4.631807e+09 2.344403e+04 1.456666e+03 4.652550e+03
-4.145083e+09 -3.945140e+09 -4.105184e+09 2.608514e+04 1.731952e+03 8.675191e+03
-4.478822e+09 -4.278869e+09 -4.438922e+09 3.199825e+04 4.143897e+03 6.730350e+03
-4.127001e+09 -3.927286e+09 -4.084122e+09 7.472948e+05 3.378206e+05 9.304303e+05
-4.114954e+09 -3.916050e+09 -4.071714e+09 4.606678e+05 2.859333e+05 1.282746e+06
-4.813747e+09 -4.613927e+09 -4.770939e+09 6.575198e+05 2.583020e+05 -6.079645e+04
-4.801779e+09 -4.602629e+09 -4.758275e+09 4.107541e+05 2.528583e+05 1.115309e+04
-4.640646e+09 -4.440683e+09 -4.600715e+09 1.270474e+04 1.033513e+03 2.741495e+03
-4.334517e+09 -4.134557e+09 -4.294597e+09 2.000267e+04 2.374271e+03 3.598477e+03
-4.335860e+09 -4.135897e+09 -4.295937e+09 1.594773e+04 2.149499e+03 1.805526e+03
-4.831935e+09 -4.631971e+09 -4.792006e+09 1.392697e+04 2.185231e+03 7.753294e+02
-3.910506e+09 -3.710451e+09 -3.870621e+09 -3.644630e+04 3.317174e+04 -5.254725e+03
-3.341559e+09 -3.141526e+09 -3.301684e+09 -4.961177e+04 5.196422e+04 -3.192020e+04
-2.789860e+09 -2.589920e+09 -2.749934e+09 -4.523527e+02 -4.224852e+02 7.197728e+02
-4.032862e+09 -3.832818e+09 -3.993007e+09 -6.543546e+04 3.550189e+04 -1.757706e+04
-3.642594e+09 -3.442542e+09 -3.602699e+09 -3.607848e+04 3.146927e+04 -1.222747e+04
-4.826289e+09 -4.626055e+09 -4.786387e+09 1.174024e+05 -1.812101e+04 -1.482854e+03
-4.139101e+09 -3.938772e+09 -4.099112e+09 1.341039e+05 -3.408007e+04 -1.015061e+04
-4.139847e+09 -3.939593e+09 -4.099918e+09 1.111133e+05 -5.442901e+04 -2.299691e+04
-4.317096e+09 -4.116783e+09 -4.277133e+09 1.217729e+05 -5.559114e+04 -1.773975e+04
-4.306946e+09 -4.107275e+09 -4.267278e+09 2.328437e+03 -4.150238e+03 4.845788e+04
-4.806236e+09 -4.606666e+09 -4.766642e+09 3.767631e+04 8.023611e+02 1.671484e+04
-4.285339e+09 -4.085636e+09 -4.245655e+09 4.183893e+04 7.784089e+03 3.886071e+04
-4.288925e+09 -4.089247e+09 -4.249256e+09 7.596452e+04 1.051893e+04 4.384484e+04
-4.119770e+09 -3.920187e+09 -4.080183e+09 4.274924e+04 9.257414e+03 6.141960e+04
-4.130416e+09 -3.930716e+09 -4.090750e+09 2.983053e+04 5.141508e+03 4.579896e+04
-4.629148e+09 -4.429391e+09 -4.589441e+09 4.992569e+04 2.363881e+03 2.667614e+04
-3.945698e+09 -3.746013e+09 -3.906013e+09 6.412908e+04 -5.029390e+03 4.313227e+04
-4.808514e+09 -4.608326e+09 -4.768509e+09 3.482382e+05 2.586828e+04 3.333551e+03
-4.319292e+09 -4.119128e+09 -4.279410e+09 2.662718e+05 2.678740e+04 3.142809e+04
-4.294953e+09 -4.094517e+09 -4.254848e+09 3.489306e+05 3.767114e+04 2.741169e+04
-4.147993e+09 -3.947594e+09 -4.107854e+09 2.996290e+05 3.135084e+04 -9.726907e+02
-4.323181e+09 -4.122785e+09 -4.283106e+09 2.818886e+05 8.390613e+04 2.026854e+04
-4.666404e+09 -4.466005e+09 -4.626307e+09 2.815928e+05 -9.965392e+03 -4.183861e+03
-4.834441e+09 -4.634020e+09 -4.794323e+09 3.214039e+05 2.600728e+04 3.288857e+04
-4.640342e+09 -4.440360e+09 -4.600410e+09 1.758270e+04 2.509780e+03 2.162691e+03
-4.810521e+09 -4.610539e+09 -4.770593e+09 2.276711e+04 2.844474e+03 9.362093e+02
-4.340724e+09 -4.140757e+09 -4.300808e+09 2.520040e+04 3.731758e+03 5.184227e+03
-4.150337e+09 -3.950369e+09 -4.110422e+09 2.787503e+04 1.926385e+03 9.004863e+03
-3.945903e+09 -3.745947e+09 -3.905971e+09 -4.714749e+03 -1.100710e+03 1.601487e+03
-4.302795e+09 -4.102818e+09 -4.262875e+09 2.629950e+04 6.640878e+03 3.267706e+03
-2.991164e+09 -2.791362e+09 -2.951441e+09 -1.457039e+04 7.362906e+04 -2.663133e+04
-2.855010e+09 -2.655197e+09 -2.815280e+09 -2.339543e+04 7.443839e+04 -3.606215e+04
-1.832600e+09 -1.632716e+09 -1.792748e+09 -2.026587e+04 7.359984e+04 -3.821765e+04
-2.589859e+09 -2.389988e+09 -2.550060e+09 -3.217437e+04 7.293703e+04 -4.091035e+04
-4.286116e+09 -4.086864e+09 -4.246261e+09 -3.317785e+05 -2.308870e+04 1.941759e+04
-4.121385e+09 -3.922072e+09 -4.081180e+09 -3.912386e+05 -1.323806e+04 2.054321e+05
-4.629371e+09 -4.430120e+09 -4.589573e+09 -3.321648e+05 -3.921025e+04 5.868708e+04
-4.830130e+09 -4.631224e+09 -4.790023e+09 -2.960756e+05 9.641991e+04 -1.767866e+04
-4.807778e+09 -4.608541e+09 -4.767639e+09 -4.236800e+05 -1.596611e+04 -1.409096e+05
-4.635779e+09 -4.435913e+09 -4.595944e+09 3.873744e+03 -6.015073e+02 7.410681e+03
-4.999207e+09 -4.799394e+09 -4.959436e+09 3.171811e+03 2.812869e+03 1.459980e+04
-4.814981e+09 -4.615125e+09 -4.775156e+09 5.167351e+02 5.305748e+03 7.947099e+03
-4.842309e+09 -4.642461e+09 -4.802492e+09 -5.363151e+03 -3.531634e+03 1.037743e+04
-4.128521e+09 -3.928661e+09 -4.088689e+09 5.177885e+03 -3.788836e+03 1.668626e+04
-4.155860e+09 -3.956000e+09 -4.116026e+09 -6.720499e+03 1.212395e+03 1.592600e+04
-4.623838e+09 -4.423496e+09 -4.583857e+09 -1.173201e+05 -4.234428e+03 7.528445e+03
-4.280607e+09 -4.080263e+09 -4.240629e+09 -1.154640e+05 -6.491237e+04 1.668258e+04
-4.813812e+09 -4.613515e+09 -4.773855e+09 -1.348704e+05 -9.283857e+03 1.246543e+04
-4.803355e+09 -4.602970e+09 -4.763367e+09 -1.329672e+05 -2.929294e+04 2.057430e+04
-3.015632e+09 -2.815612e+09 -2.975735e+09 1.660168e+04 -4.766943e+04 -1.633142e+04
-4.473712e+09 -4.273723e+09 -4.433917e+09 3.978413e+04 -1.903314e+04 -7.226682e+02
-3.608402e+09 -3.408402e+09 -3.568554e+09 9.670940e+03 -4.141174e+04 -2.884222e+03
-4.332447e+09 -4.132448e+09 -4.292637e+09 2.597454e+04 -2.172710e+04 -7.637050e+03
-4.297189e+09 -4.097145e+09 -4.257336e+09 4.309112e+04 -2.136851e+04 -1.168910e+04
-3.951793e+09 -3.751752e+09 -3.911901e+09 5.762309e+03 -2.484318e+04 -5.950748e+03
-1.616433e+09 -1.416502e+09 -1.576511e+09 -4.107251e+03 -1.540330e+03 5.078876e+03
-4.573372e+09 -4.373354e+09 -4.533526e+09 4.667032e+03 -1.649134e+04 -3.237512e+03
-2.768371e+09 -2.568448e+09 -2.728456e+09 -4.130219e+00 -1.538217e+02 9.682540e+02
-1.920972e+09 -1.721030e+09 -1.881077e+09 1.164746e+05 -1.457175e+05 -1.412475e+05
-3.139664e+09 -2.939685e+09 -3.099715e+09 5.122848e+02 2.772032e+01 -1.440006e+02
-2.905917e+09 -2.705843e+09 -2.865979e+09 -2.405645e+04 4.664982e+04 -2.021391e+04
-2.578264e+09 -2.378396e+09 -2.538485e+09 9.382886e+04 -7.815628e+04 -5.695947e+04
-1.899999e+09 -1.700168e+09 -1.860204e+09 3.239982e+04 -7.807408e+04 -4.694313e+04
-2.996299e+09 -2.796617e+09 -2.956667e+09 1.037897e+05 -7.732438e+04 -8.279251e+04
-2.699476e+09 -2.499682e+09 -2.659738e+09 1.250802e+05 -2.227624e+04 -4.033312e+04
-2.109367e+09 -1.909578e+09 -2.069559e+09 3.423662e+04 -6.699869e+04 -4.602451e+04
-3.092019e+09 -2.892302e+09 -3.052368e+09 6.047209e+04 -8.011520e+04 -7.625218e+04
-4.131991e+09 -3.931883e+09 -4.092106e+09 -1.334475e+05 -3.898872e+04 1.935526e+04
-4.481103e+09 -4.280888e+09 -4.441188e+09 -1.548744e+05 -4.062872e+04 2.041344e+04
-4.818454e+09 -4.618325e+09 -4.778577e+09 -1.375540e+05 -1.705980e+04 2.193621e+04
-4.824322e+09 -4.624117e+09 -4.784431e+09 -1.608579e+05 -4.146691e+04 1.866322e+04
-2.191171e+09 -1.991240e+09 -2.151327e+09 4.706680e+04 -7.054624e+04 -4.920005e+04
-3.083573e+09 -2.883751e+09 -3.043856e+09 3.644691e+04 -7.073070e+04 -4.317699e+04
-3.113729e+09 -2.913946e+09 -3.074019e+09 2.478365e+04 -6.060686e+04 -3.886634e+04
-3.141239e+09 -2.941515e+09 -3.101577e+09 -3.703493e+03 -6.768493e+04 -5.106158e+04
-1.677094e+09 -1.477124e+09 -1.637153e+09 4.344546e+03 -6.953269e+04 -3.857901e+04
-1.924912e+09 -1.724955e+09 -1.885001e+09 3.936860e+04 -6.529409e+04 -2.097727e+04
-4.300714e+09 -4.100237e+09 -4.259883e+09 -5.513797e+05 2.442773e+04 -3.748518e+04
-4.803660e+09 -4.602877e+09 -4.762792e+09 -4.123109e+05 -2.060569e+03 -1.301069e+03
-4.117276e+09 -3.916935e+09 -4.076886e+09 -4.369988e+05 9.858213e+03 -7.151400e+03
-4.117217e+09 -3.916524e+09 -4.076350e+09 -3.919593e+05 6.682393e+04 -3.303777e+04
-4.638903e+09 -4.438182e+09 -4.597740e+09 -4.803722e+05 1.589740e+05 -5.297552e+04
-3.715507e+09 -3.515385e+09 -3.675558e+09 1.162915e+04 -7.087004e+03 -1.244939e+04
-2.944956e+09 -2.745022e+09 -2.905043e+09 -9.181241e+03 -4.288147e+03 1.009019e+04
-3.608294e+09 -3.408167e+09 -3.568339e+09 -1.075323e+03 -7.289446e+03 -1.363891e+04
-3.906646e+09 -3.706504e+09 -3.866703e+09 1.249829e+04 -1.239745e+04 -8.836144e+03
-3.960831e+09 -3.760623e+09 -3.920610e+09 -4.653449e+05 -1.301439e+05 5.854245e+04
-4.499428e+09 -4.299300e+09 -4.459509e+09 2.764724e+04 -1.442343e+04 -3.689363e+03
-4.049877e+09 -3.849757e+09 -4.009931e+09 1.301507e+04 -4.991128e+03 -1.207826e+04
-2.310794e+09 -2.110732e+09 -2.270851e+09 3.887041e+04 -7.155959e+04 -4.322987e+04
-4.637749e+09 -4.437617e+09 -4.597810e+09 3.495068e+03 -3.639440e+03 -7.807783e+03
-4.066275e+09 -3.866551e+09 -4.026673e+09 -6.195924e+04 3.746984e+04 -2.502855e+04
-2.199488e+09 -1.999608e+09 -2.159642e+09 -1.352849e+04 6.766999e+04 -4.737422e+04
-3.066221e+09 -2.866469e+09 -3.026541e+09 -8.514215e+04 9.488050e+04 -9.269096e+04
-3.877931e+09 -3.678167e+09 -3.838272e+09 -1.025861e+05 3.483264e+04 -1.329370e+04
-3.193046e+09 -2.992909e+09 -3.153064e+09 -8.427504e+03 2.455225e+04 -1.149397e+04
-3.849096e+09 -3.648961e+09 -3.809123e+09 -4.866996e+03 8.727632e+03 -5.879033e+03
-3.763803e+09 -3.563669e+09 -3.723831e+09 -1.450813e+04 1.411439e+04 -5.552623e+03
-3.728588e+09 -3.528454e+09 -3.688622e+09 -9.296917e+03 1.519657e+04 -4.897319e+03
-4.978642e+09 -4.778450e+09 -4.938677e+09 -2.659135e+04 7.940295e+03 -1.452457e+03
-4.482104e+09 -4.281761e+09 -4.442093e+09 2.353668e+05 3.822058e+04 3.015800e+04
-4.830162e+09 -4.629483e+09 -4.789811e+09 2.503837e+05 2.588614e+04 1.866448e+04
-4.646063e+09 -4.445486e+09 -4.605584e+09 3.742751e+05 -4.928492e+04 -4.126165e+04
-4.143712e+09 -3.943079e+09 -4.103360e+09 2.431430e+05 1.309231e+04 -1.148080e+03
-4.331635e+09 -4.130936e+09 -4.291238e+09 2.845419e+05 6.115614e+04 3.808646e+04
-4.413562e+09 -4.214169e+09 -4.374173e+09 8.380262e+04 -2.316303e+04 -7.663819e+03
-4.432474e+09 -4.233080e+09 -4.393113e+09 1.294530e+04 -5.298164e+03 6.629705e+03
-4.704319e+09 -4.504929e+09 -4.664947e+09 1.817684e+04 4.435061e+02 6.947502e+03
-2.195471e+09 -1.995435e+09 -2.155545e+09 5.739377e+04 -9.177614e+04 -5.798347e+04
-2.230722e+09 -2.030613e+09 -2.190728e+09 4.023996e+03 2.256375e+04 -1.345097e+03
-1.807779e+09 -1.607688e+09 -1.767780e+09 -7.401516e+03 2.908880e+04 6.360172e+03
-1.972771e+09 -1.772661e+09 -1.932768e+09 3.694187e+03 4.031663e+04 1.862833e+02
-2.227565e+09 -2.027455e+09 -2.187568e+09 2.083765e+03 2.280084e+04 -7.815428e+02
-4.305136e+09 -4.105223e+09 -4.265288e+09 5.642960e+04 8.811835e+03 1.602535e+04
-4.823697e+09 -4.623761e+09 -4.783831e+09 4.710440e+04 -1.137142e+02 7.525527e+03
-4.137229e+09 -3.937296e+09 -4.097361e+09 4.621557e+04 1.264982e+04 1.428427e+04
-4.838304e+09 -4.638060e+09 -4.798346e+09 4.170176e+04 1.615822e+04 1.046064e+04
-4.828448e+09 -4.628180e+09 -4.788485e+09 2.011233e+04 1.816328e+04 5.855537e+03
-1.794605e+09 -1.594534e+09 -1.754610e+09 6.514658e+03 3.325585e+04 9.324956e+03
-4.470863e+09 -4.270636e+09 -4.430902e+09 3.857263e+04 2.101717e+04 4.593405e+03
-4.125664e+09 -3.926219e+09 -4.079961e+09 2.789844e+05 -5.655695e+05 -8.469392e+05
-4.114368e+09 -3.915140e+09 -4.072046e+09 5.648868e+05 -3.050426e+05 -3.765954e+05
-4.477428e+09 -4.277086e+09 -4.432256e+09 6.464463e+05 -8.470572e+05 5.149304e+05
-4.405962e+09 -4.205902e+09 -4.366045e+09 1.365133e+04 -7.158131e+03 -4.615340e+02
-4.401167e+09 -4.201080e+09 -4.361236e+09 8.456552e+03 -4.766575e+03 -2.704509e+03
-4.917361e+09 -4.717283e+09 -4.877426e+09 5.062553e+03 -9.669011e+02 -1.672645e+03
-4.917353e+09 -4.717281e+09 -4.877423e+09 3.444519e+03 -1.407648e+03 -9.784589e+02
-3.760624e+09 -3.560518e+09 -3.720662e+09 9.370877e+03 9.057210e+03 6.173586e+03
-2.712767e+09 -2.512677e+09 -2.672795e+09 1.842293e+04 2.455664e+04 1.210890e+04
-3.289129e+09 -3.089031e+09 -3.249167e+09 1.369912e+04 2.206862e+04 1.143953e+04
-4.991277e+09 -4.791368e+09 -4.951408e+09 3.058879e+04 1.876531e+03 2.720555e+03
-2.725094e+09 -2.525012e+09 -2.685122e+09 1.048317e+04 1.798510e+04 7.989610e+03
-3.662449e+09 -3.462347e+09 -3.622488e+09 1.437294e+04 1.132546e+04 4.236907e+03
-3.654652e+09 -3.454550e+09 -3.614692e+09 1.613847e+04 1.743384e+04 6.697991e+03
-4.816161e+09 -4.616016e+09 -4.776283e+09 1.704425e+05 1.417511e+04 3.593012e+03
-4.145499e+09 -3.945291e+09 -4.105557e+09 1.929270e+05 2.737397e+04 1.319923e+04
-4.472986e+09 -4.272757e+09 -4.433052e+09 1.608559e+05 3.607663e+04 2.113927e+04
-4.831945e+09 -4.631721e+09 -4.792040e+09 2.121115e+05 4.667147e+04 2.884352e+04
-3.409728e+09 -3.209745e+09 -3.369786e+09 -3.724888e+03 -2.114663e+03 3.530732e+03
-3.060953e+09 -2.860959e+09 -3.021008e+09 -4.757533e+03 -5.165079e+02 4.086200e+03
-2.797959e+09 -2.597974e+09 -2.758017e+09 -2.760502e+03 -1.240629e+03 4.626417e+03
-2.781085e+09 -2.581165e+09 -2.741174e+09 2.686077e+02 6.191460e+01 4.555096e+03
-2.830660e+09 -2.630739e+09 -2.790748e+09 -4.851361e+02 4.376505e+02 4.728945e+03
-2.469262e+09 -2.269346e+09 -2.429357e+09 -1.982571e+03 -4.303435e+02 9.996823e+03
-1.588353e+09 -1.388431e+09 -1.548435e+09 8.744231e+01 -2.639194e+02 1.079623e+04
-2.445947e+09 -2.246027e+09 -2.406034e+09 -1.105294e+03 -4.128974e+02 6.329223e+03
-1.786210e+09 -1.586288e+09 -1.746295e+09 2.680705e+02 -2.658481e+02 7.070499e+03
-4.654196e+09 -4.454268e+09 -4.614304e+09 2.486793e+04 1.518607e+03 5.513483e+03
-2.841105e+09 -2.641143e+09 -2.801262e+09 -2.406092e+04 5.672000e+04 -2.450964e+04
-4.493393e+09 -4.293434e+09 -4.453478e+09 -2.020195e+04 -3.753714e+03 3.747636e+03
-4.836632e+09 -4.636669e+09 -4.796717e+09 -2.078261e+04 -3.776575e+03 -2.225291e+02
-4.328182e+09 -4.128217e+09 -4.288270e+09 -2.178316e+04 -2.415212e+03 4.917295e+03
-3.956731e+09 -3.756828e+09 -3.916866e+09 2.234192e+04 3.999580e+03 1.596617e+04
-4.492912e+09 -4.292670e+09 -4.452993e+09 1.289715e+05 3.051001e+04 1.279559e+04
-4.988309e+09 -4.788134e+09 -4.948429e+09 2.259527e+05 3.335204e+04 1.903792e+04
-4.488712e+09 -4.288493e+09 -4.448765e+09 2.029697e+05 4.319966e+04 2.159107e+04
-4.161970e+09 -3.961714e+09 -4.122014e+09 1.211184e+05 3.721320e+04 2.042347e+04
-4.146866e+09 -3.946568e+09 -4.106901e+09 1.291255e+05 5.242842e+04 1.388871e+04
-4.505173e+09 -4.304925e+09 -4.465247e+09 1.376388e+05 3.009867e+04 1.655064e+04
-4.839496e+09 -4.639173e+09 -4.799517e+09 2.045568e+05 6.719927e+03 1.015284e+04
-4.153012e+09 -3.952728e+09 -4.113057e+09 2.100309e+05 5.895237e+04 2.871157e+04
-4.648182e+09 -4.448370e+09 -4.608401e+09 1.793379e+04 -1.260623e+03 1.145842e+04
-4.462064e+09 -4.262326e+09 -4.422357e+09 1.010937e+04 2.247142e+03 3.255471e+04
-4.807071e+09 -4.607269e+09 -4.767307e+09 3.872324e+03 -4.137695e+03 1.415219e+04
-4.808513e+09 -4.608774e+09 -4.768804e+09 2.729174e+04 -6.748117e+03 2.599843e+04
-4.328801e+09 -4.128951e+09 -4.288983e+09 -1.088792e+04 -1.023491e+03 1.521938e+04
-4.122064e+09 -3.922309e+09 -4.082337e+09 2.109709e+04 1.110064e+04 2.952514e+04
-2.349672e+09 -2.149698e+09 -2.309727e+09 2.873468e+03 -3.650869e+02 8.119443e+01
-2.157323e+09 -1.957348e+09 -2.117378e+09 5.071308e+03 2.169880e+02 1.137384e+03
-2.164004e+09 -1.964031e+09 -2.124058e+09 1.306334e+03 2.278777e+01 1.444878e+02
-2.056505e+09 -1.856535e+09 -2.016561e+09 2.586165e+03 2.374447e+02 6.556881e+02
-4.482331e+09 -4.281997e+09 -4.442340e+09 1.492253e+05 -3.746106e+04 -2.328716e+04
-2.133201e+09 -1.933231e+09 -2.093258e+09 6.566907e+02 -1.681246e+02 2.865834e+02
-1.889130e+09 -1.689161e+09 -1.849187e+09 1.391292e+03 1.194626e+02 -1.175745e+02
-1.636051e+09 -1.435973e+09 -1.596059e+09 9.663031e+02 -6.006188e+03 -1.444136e+04
-2.648974e+09 -2.448964e+09 -2.609034e+09 -1.689797e+04 -1.182808e+04 1.576791e+04
-1.879243e+09 -1.679236e+09 -1.839289e+09 -1.616715e+04 -1.601447e+04 2.052748e+04
-2.748718e+09 -2.548725e+09 -2.708781e+09 -1.683044e+04 -1.003714e+04 1.227449e+04
-2.758906e+09 -2.558908e+09 -2.718970e+09 -1.466738e+04 -9.906152e+03 1.235221e+04
-2.109615e+09 -1.909613e+09 -2.069666e+09 -1.663806e+04 -1.823449e+04 1.905558e+04
-1.698681e+09 -1.498717e+09 -1.658741e+09 -6.868526e+02 -4.688792e+01 3.005173e+02
-2.690781e+09 -2.490816e+09 -2.650841e+09 -1.868794e+03 -2.384066e+02 2.133870e+02
-4.304160e+09 -4.104283e+09 -4.264306e+09 1.460278e+04 2.642095e+03 1.133071e+04
-2.259704e+09 -2.059741e+09 -2.219764e+09 -9.598419e+02 -1.441596e+02 4.713925e+01
-4.741620e+09 -4.541691e+09 -4.701714e+09 1.060206e+04 1.439263e+03 1.402790e+03
-2.757234e+09 -2.557269e+09 -2.717293e+09 -2.221372e+02 -1.437822e+02 2.274624e+02
-4.133900e+09 -3.933750e+09 -4.093989e+09 1.249747e+05 2.537364e+04 1.498538e+04
-4.496255e+09 -4.295992e+09 -4.456268e+09 2.263622e+05 4.396388e+04 2.731905e+04
-4.146347e+09 -3.946041e+09 -4.106319e+09 2.493366e+05 3.891599e+04 3.062475e+04
-4.141426e+09 -3.940983e+09 -4.101332e+09 1.865576e+05 3.990742e+04 3.274577e+03
-4.313172e+09 -4.112733e+09 -4.273121e+09 1.693677e+05 7.512222e+04 2.069074e+04
-4.824396e+09 -4.624016e+09 -4.784394e+09 1.694887e+05 1.835529e+04 -8.751874e+03
-4.827875e+09 -4.627394e+09 -4.787807e+09 2.034748e+05 3.862038e+04 3.178491e+04
-3.772132e+09 -3.572584e+09 -3.732535e+09 -1.813733e+05 -4.288582e+03 -1.468432e+04
-3.964473e+09 -3.765142e+09 -3.925044e+09 -8.234187e+04 1.530835e+04 -7.432573e+04
-4.189903e+09 -3.990466e+09 -4.150417e+09 -1.018669e+05 4.085985e+04 -5.247479e+04
-4.795548e+09 -4.596102e+09 -4.756038e+09 -2.094392e+05 3.015741e+04 -2.647406e+04
-4.298992e+09 -4.099120e+09 -4.259173e+09 5.742960e+04 9.705986e+03 2.065615e+04
-4.134087e+09 -3.934210e+09 -4.094256e+09 3.810892e+04 4.311766e+03 2.030938e+04
-4.131637e+09 -3.931739e+09 -4.091783e+09 3.330954e+04 8.343544e+03 1.662151e+04
-4.131321e+09 -3.931424e+09 -4.091483e+09 5.122672e+04 1.346737e+04 2.122990e+04
-3.960630e+09 -3.760720e+09 -3.920772e+09 4.386163e+04 6.721611e+03 1.922273e+04
-3.649729e+09 -3.449598e+09 -3.609785e+09 2.777445e+04 -1.966060e+04 -1.524038e+04
-4.178307e+09 -3.978197e+09 -4.138381e+09 3.231067e+04 -1.473687e+04 -1.070709e+04
-4.722769e+09 -4.522631e+09 -4.682841e+09 2.519220e+04 -4.641495e+03 -6.122455e+03
-4.754028e+09 -4.553912e+09 -4.714109e+09 3.268541e+04 -1.191267e+04 -1.653663e+03
-4.366019e+09 -4.165887e+09 -4.326078e+09 5.232845e+03 -3.080409e+03 -6.943796e+03
-4.705740e+09 -4.505622e+09 -4.665803e+09 1.369937e+04 -5.552581e+03 -9.592136e+02
-4.838086e+09 -4.637912e+09 -4.798151e+09 2.879280e+05 1.086547e+04 1.089741e+04
-4.674130e+09 -4.474171e+09 -4.634303e+09 2.434569e+05 1.788578e+04 1.885378e+04
-4.307995e+09 -4.107987e+09 -4.268199e+09 2.121627e+05 3.926688e+04 3.503387e+04
-4.147078e+09 -3.947113e+09 -4.107264e+09 2.225888e+05 4.428734e+04 2.933354e+04
-5.001190e+09 -4.801024e+09 -4.961282e+09 2.693063e+05 3.903404e+04 3.106809e+04
-4.833539e+09 -4.633547e+09 -4.793730e+09 2.339292e+05 1.563585e+04 2.414660e+04
-3.957824e+09 -3.757932e+09 -3.917948e+09 6.020678e+03 1.111225e+03 1.157552e+04
-3.323178e+09 -3.123053e+09 -3.283213e+09 1.271544e+04 3.016985e+04 1.104947e+04
-2.965148e+09 -2.765053e+09 -2.925176e+09 1.268686e+04 1.974708e+04 8.010082e+03
-2.809927e+09 -2.609827e+09 -2.769947e+09 6.480184e+03 1.217141e+04 7.734723e+03
-3.788656e+09 -3.588532e+09 -3.748686e+09 8.324219e+03 9.654221e+03 5.344354e+03
-2.584339e+09 -2.384247e+09 -2.544365e+09 7.147175e+03 1.953889e+04 1.006850e+04
-3.792183e+09 -3.592058e+09 -3.752220e+09 2.336205e+04 1.632547e+04 4.596805e+03
-4.987889e+09 -4.788043e+09 -4.948111e+09 5.959315e+04 7.029792e+03 7.998638e+03
-4.642226e+09 -4.442354e+09 -4.602410e+09 5.730289e+04 1.690933e+03 1.182962e+04
-4.288138e+09 -4.088290e+09 -4.248363e+09 7.379697e+04 1.692908e+04 2.960218e+04
-3.961622e+09 -3.761744e+09 -3.921805e+09 6.525567e+04 1.034574e+04 2.913882e+04
-4.478681e+09 -4.278775e+09 -4.438861e+09 6.548216e+04 1.136227e+04 1.847606e+04
-4.176026e+09 -3.976115e+09 -4.136197e+09 7.248277e+04 2.101448e+04 2.127353e+04
-4.991322e+09 -4.791433e+09 -4.951510e+09 6.047180e+04 6.897819e+03 6.522144e+03
-4.821903e+09 -4.622002e+09 -4.782079e+09 6.501269e+04 1.183411e+04 1.115052e+04
-3.964745e+09 -3.764824e+09 -3.924897e+09 6.287364e+04 1.142769e+04 2.401012e+04
-3.618349e+09 -3.418544e+09 -3.578688e+09 -1.078266e+05 2.922548e+04 -1.926210e+04
-4.120842e+09 -3.921011e+09 -4.081167e+09 -4.824390e+04 4.124808e+04 -8.017795e+03
-4.982694e+09 -4.782934e+09 -4.943103e+09 -5.125804e+04 6.517928e+03 -6.798048e+03
-4.124810e+09 -3.925542e+09 -4.085260e+09 1.396017e+05 7.190842e+03 2.039601e+04
-4.811518e+09 -4.612313e+09 -4.772075e+09 1.287582e+05 -2.952861e+04 -6.001148e+04
-4.436953e+09 -4.237562e+09 -4.397478e+09 7.412262e+04 -1.731051e+03 -2.901216e+04
-4.270183e+09 -4.070795e+09 -4.230754e+09 1.487856e+05 -2.420106e+04 -4.761296e+04
-4.796389e+09 -4.597008e+09 -4.756906e+09 1.841993e+05 2.215783e+03 6.802730e+03
-4.811075e+09 -4.610250e+09 -4.770553e+09 -2.239166e+05 -3.705854e+04 2.526184e+04
-4.146646e+09 -3.946117e+09 -4.106343e+09 -2.983415e+05 -1.031974e+04 6.978996e+02
-4.295430e+09 -4.094593e+09 -4.254807e+09 -2.622918e+05 -2.683166e+04 4.100840e+04
-4.124619e+09 -3.923829e+09 -4.084076e+09 -2.202380e+05 3.642197e+04 3.871727e+03
-4.821956e+09 -4.621486e+09 -4.780206e+09 -6.527038e+05 -1.962492e+05 -1.115944e+05
-4.150023e+09 -3.950404e+09 -4.107079e+09 -7.288199e+05 -3.194163e+05 9.186035e+05
-4.130697e+09 -3.930650e+09 -4.089447e+09 -6.502795e+05 -2.415448e+05 3.059628e+04
-4.836830e+09 -4.637012e+09 -4.793815e+09 -6.974073e+05 -2.947205e+05 -1.584877e+05
-4.321019e+09 -4.121104e+09 -4.281209e+09 -2.059286e+05 -3.684723e+04 5.356078e+04
-4.807189e+09 -4.607135e+09 -4.767361e+09 -2.471746e+05 -2.627748e+04 2.494387e+04
-4.632291e+09 -4.432222e+09 -4.592471e+09 -2.285640e+05 -1.834351e+04 9.679829e+03
-4.825215e+09 -4.625261e+09 -4.785437e+09 -2.028728e+05 -1.600729e+04 2.508943e+04
-4.317182e+09 -4.117487e+09 -4.277520e+09 -9.600498e+03 -2.067832e+03 4.773621e+04
-4.125181e+09 -3.925401e+09 -4.085433e+09 -3.634115e+04 -5.985304e+03 3.157860e+04
-4.279846e+09 -4.080116e+09 -4.240160e+09 -4.534595e+04 -1.333821e+04 4.730746e+04
-4.137508e+09 -3.937751e+09 -4.097775e+09 -1.719909e+04 -3.020920e+03 3.186093e+04
-4.476556e+09 -4.276329e+09 -4.436587e+09 -2.183931e+05 3.577520e+04 -3.014271e+04
-4.645294e+09 -4.445142e+09 -4.605474e+09 -2.079470e+05 1.696299e+04 -1.917536e+04
-4.311227e+09 -4.111163e+09 -4.271342e+09 -2.214236e+05 7.187922e+04 -3.797156e+04
-4.815456e+09 -4.615272e+09 -4.775573e+09 -2.302267e+05 3.876263e+04 -2.107161e+04
-4.137932e+09 -3.937568e+09 -4.097934e+09 1.599157e+05 5.434406e+04 3.519730e+04
-4.828775e+09 -4.628343e+09 -4.788758e+09 1.088107e+05 2.879959e+04 1.669394e+04
-4.660704e+09 -4.460233e+09 -4.620664e+09 1.219195e+05 -1.073140e+03 7.536930e+03
-4.142317e+09 -3.941925e+09 -4.102285e+09 1.000494e+05 4.996226e+04 5.245935e+03
-4.125728e+09 -3.925286e+09 -4.085680e+09 -1.547996e+05 -5.644926e+04 3.536914e+04
-4.141070e+09 -3.940634e+09 -4.100959e+09 -2.620648e+05 -5.212803e+04 3.132038e+04
-4.986858e+09 -4.786497e+09 -4.946834e+09 -2.040041e+05 -7.870104e+03 2.683873e+04
-4.811870e+09 -4.611285e+09 -4.771730e+09 -1.921048e+05 -4.709631e+04 2.909674e+04
-4.827539e+09 -4.627082e+09 -4.787429e+09 -2.772038e+05 -3.825110e+03 -5.138058e+03
-4.125411e+09 -3.924865e+09 -4.085231e+09 -1.765024e+05 -2.957523e+04 -4.083585e+03
-2.783483e+09 -2.583458e+09 -2.743564e+09 -1.255081e+04 4.257419e+04 -1.038498e+04
-4.313445e+09 -4.113505e+09 -4.273558e+09 -2.831934e+05 8.378437e+04 -3.782906e+04
-1.946465e+09 -1.746430e+09 -1.906504e+09 7.310290e+03 4.188345e+04 -6.131576e+03
-2.193454e+09 -1.993419e+09 -2.153497e+09 -2.732404e+03 3.447578e+04 1.158095e+03
-3.668201e+09 -3.468657e+09 -3.628666e+09 -1.091981e+05 1.203049e+04 -2.229155e+04
-3.733821e+09 -3.534129e+09 -3.694171e+09 -1.876081e+05 2.875370e+04 -4.579919e+04
-2.005446e+09 -1.805590e+09 -1.965584e+09 -5.224720e+04 8.823776e+04 -9.485319e+04
-4.166321e+09 -3.966850e+09 -4.126833e+09 -1.673775e+05 3.893539e+04 -4.457037e+04
-3.897875e+09 -3.698252e+09 -3.858311e+09 -1.463881e+05 3.760442e+04 -6.404455e+04
-4.293059e+09 -4.093615e+09 -4.253081e+09 -3.647836e+05 3.605895e+04 -3.276672e+04
-4.643550e+09 -4.443406e+09 -4.603664e+09 -1.586933e+05 -1.356474e+04 9.169334e+03
-3.963615e+09 -3.763607e+09 -3.923805e+09 -1.666390e+05 -3.992591e+04 3.170983e+04
-4.112662e+09 -3.912541e+09 -4.072766e+09 -2.217473e+05 -5.362361e+04 4.617412e+04
-4.813672e+09 -4.613484e+09 -4.773786e+09 -1.894279e+05 -2.967368e+04 6.727772e+03
-4.289047e+09 -4.088980e+09 -4.249224e+09 -2.319779e+05 -3.909018e+04 3.773415e+04
-4.634927e+09 -4.435016e+09 -4.595049e+09 2.367465e+04 8.348944e+02 5.266579e+03
-4.121057e+09 -3.921151e+09 -4.081182e+09 1.989299e+04 5.782116e+03 1.230676e+04
-3.955282e+09 -3.755366e+09 -3.915390e+09 1.676913e+04 2.258900e+03 9.828944e+03
-4.293323e+09 -4.093403e+09 -4.253440e+09 2.055461e+04 4.312363e+03 7.976316e+03
-4.809161e+09 -4.609237e+09 -4.769268e+09 1.787349e+04 1.983253e+03 2.881275e+03
-4.562709e+09 -4.362784e+09 -4.522811e+09 1.212099e+04 -1.779405e+02 3.352396e+03
-3.645830e+09 -3.446252e+09 -3.606295e+09 -1.316381e+04 2.851639e+04 3.260652e+03
-4.990697e+09 -4.790788e+09 -4.950820e+09 1.455187e+04 1.414828e+03 2.572297e+03
-2.778559e+09 -2.578922e+09 -2.738915e+09 -1.199695e+04 -2.843416e+04 -1.015084e+04
-3.684445e+09 -3.484879e+09 -3.644928e+09 4.098006e+04 -4.006404e+04 -2.388435e+04
-4.347421e+09 -4.148009e+09 -4.308019e+09 4.499756e+04 -1.695805e+04 -1.521067e+04
-4.052217e+09 -3.852864e+09 -4.012823e+09 1.463261e+04 -1.415372e+04 -3.562799e+04
-4.337423e+09 -4.137971e+09 -4.297998e+09 5.804201e+04 -1.867400e+04 -1.034131e+04
-3.389896e+09 -3.190352e+09 -3.350371e+09 1.771325e+04 -2.045716e+04 -4.100486e+03
-4.480802e+09 -4.280975e+09 -4.441074e+09 1.609689e+05 2.829172e+04 3.444738e+04
-4.656508e+09 -4.456625e+09 -4.616795e+09 2.187467e+05 1.525663e+04 1.542867e+04
-4.983601e+09 -4.783747e+09 -4.943847e+09 1.633932e+05 9.085408e+03 1.701057e+04
-4.274427e+09 -4.074522e+09 -4.234642e+09 1.663747e+05 3.264181e+04 4.498477e+04
-2.757325e+09 -2.557604e+09 -2.717589e+09 -1.303440e+03 2.662683e+04 -5.525793e+04
-3.196909e+09 -2.997400e+09 -3.157381e+09 -2.736994e+04 -1.688283e+04 -6.984980e+04
-3.838080e+09 -3.638624e+09 -3.798663e+09 -2.660103e+04 3.577808e+04 -4.333957e+04
-2.630363e+09 -2.430656e+09 -2.590637e+09 -1.665000e+04 1.558209e+04 -3.808315e+04
-3.726544e+09 -3.527111e+09 -3.687056e+09 -7.391031e+04 -2.142598e+03 -9.484730e+03
-3.250956e+09 -3.051522e+09 -3.211414e+09 -7.401011e+04 2.057624e+04 -1.119738e+05
-1.821786e+09 -1.621717e+09 -1.781801e+09 7.795606e+03 -3.795242e+04 -1.598732e+04
-2.997981e+09 -2.797834e+09 -2.958005e+09 3.588790e+03 -1.825202e+04 -1.534739e+04
-3.010648e+09 -2.810511e+09 -2.970677e+09 1.007223e+04 -1.983401e+04 -1.280780e+04
-2.591112e+09 -2.391011e+09 -2.551146e+09 8.911244e+03 -2.405583e+04 -1.677972e+04
-1.650026e+09 -1.449945e+09 -1.610036e+09 -1.202983e+03 -1.799709e+04 -1.562785e+04
-1.897626e+09 -1.697539e+09 -1.857637e+09 9.948455e+03 -1.020292e+04 -1.211485e+04
-2.580937e+09 -2.380771e+09 -2.540957e+09 3.424906e+03 -4.015131e+04 -5.966637e+03
-1.756313e+09 -1.556219e+09 -1.716315e+09 1.761988e+04 -5.370920e+04 -7.714931e+03
-2.544422e+09 -2.344280e+09 -2.504446e+09 1.350712e+03 -2.967663e+04 -5.063631e+03
-2.540184e+09 -2.340046e+09 -2.500208e+09 -3.154377e+03 -3.040531e+04 1.169015e+03
-2.843738e+09 -2.643591e+09 -2.803757e+09 -6.524175e+02 -2.851804e+04 -1.602461e+03
-2.306234e+09 -2.106100e+09 -2.266253e+09 -3.088347e+03 -5.843254e+04 -5.916954e+02
-2.103610e+09 -1.903672e+09 -2.063683e+09 -2.827552e+03 -6.549511e+02 2.530868e+03
-2.996649e+09 -2.796714e+09 -2.956728e+09 -2.173332e+03 -7.897596e+02 1.303623e+03
-2.843420e+09 -2.643475e+09 -2.803492e+09 -5.740999e+03 -1.795227e+03 3.406829e+03
-2.935826e+09 -2.735884e+09 -2.895901e+09 -2.622049e+03 -8.787832e+02 1.137094e+03
-3.034015e+09 -2.834076e+09 -2.994091e+09 -1.001383e+03 -1.189553e+03 1.628559e+03
-3.094728e+09 -2.894787e+09 -3.054804e+09 -2.489559e+03 -9.624888e+02 1.050854e+03
-1.696537e+09 -1.496596e+09 -1.656610e+09 -1.685655e+03 -9.652666e+02 1.002951e+03
-1.944206e+09 -1.744264e+09 -1.904279e+09 -1.082646e+03 -4.243909e+02 1.006440e+03
-3.985574e+09 -3.785716e+09 -3.945737e+09 -8.518582e+03 1.704468e+03 1.604443e+04
-4.483338e+09 -4.283518e+09 -4.443545e+09 -1.176769e+04 -3.377654e+03 1.591434e+04
-4.463831e+09 -4.264029e+09 -4.424051e+09 5.233471e+03 -1.224075e+02 1.876797e+04
-4.844461e+09 -4.644583e+09 -4.804612e+09 -1.054410e+04 -4.056306e+02 5.879756e+03
-4.964490e+09 -4.764395e+09 -4.924537e+09 1.042302e+04 1.804126e+03 -8.179955e+02
-4.811704e+09 -4.611836e+09 -4.771865e+09 -6.839511e+02 -8.928362e+02 5.314415e+03
-4.755723e+09 -4.555686e+09 -4.715871e+09 -4.842831e+04 1.431085e+04 -6.604600e+03
-4.665255e+09 -4.465377e+09 -4.625407e+09 -7.531505e+03 -2.404987e+02 8.078943e+03
-4.131024e+09 -3.930366e+09 -4.089985e+09 4.860530e+05 4.025428e+03 1.489144e+05
-4.343597e+09 -4.142698e+09 -4.302887e+09 2.834503e+05 -5.982115e+04 -2.224500e+04
-4.138643e+09 -3.938174e+09 -4.098237e+09 3.678037e+05 -2.435182e+04 -4.363513e+04
-4.134847e+09 -3.935408e+09 -4.089685e+09 6.025338e+05 7.362136e+05 4.962887e+05
-4.293526e+09 -4.094054e+09 -4.247735e+09 4.479045e+05 1.942980e+05 9.115292e+05
-4.979275e+09 -4.780389e+09 -4.935767e+09 2.199380e+05 6.634325e+04 2.273388e+05
-4.289220e+09 -4.090764e+09 -4.246572e+09 1.431726e+05 -9.985792e+04 4.290267e+05
-4.632565e+09 -4.433791e+09 -4.591835e+09 1.999667e+05 4.250170e+04 2.646057e+05
-4.816223e+09 -4.617303e+09 -4.773008e+09 -1.418730e+05 -1.119407e+05 2.579501e+05
-4.336576e+09 -4.136507e+09 -4.296642e+09 7.777120e+02 -3.779057e+03 -7.829765e+02
-4.129414e+09 -3.930833e+09 -4.086369e+09 -1.996634e+05 1.193951e+05 1.005092e+06
-4.279178e+09 -4.079435e+09 -4.238714e+09 -4.908214e+05 4.903721e+04 3.911933e+04
-4.630581e+09 -4.430976e+09 -4.590745e+09 -4.125886e+05 -4.322867e+04 1.501041e+04
-4.113073e+09 -3.913382e+09 -4.072931e+09 -4.516781e+05 -3.188236e+04 1.336465e+05
-4.799520e+09 -4.599880e+09 -4.759512e+09 -4.404909e+05 4.207074e+03 -6.855848e+04
-4.305357e+09 -4.104907e+09 -4.265323e+09 -7.566943e+04 -7.389467e+04 1.056422e+04
-4.125375e+09 -3.924909e+09 -4.085308e+09 -8.731774e+04 -4.522365e+04 2.412367e+03
-4.303222e+09 -4.102846e+09 -4.263255e+09 -8.595495e+04 -6.080329e+04 1.844269e+04
-4.811832e+09 -4.611327e+09 -4.771785e+09 -9.233904e+04 -4.140446e+04 1.752951e+04
-2.114580e+09 -1.914592e+09 -2.074671e+09 5.883234e+04 -8.071421e+04 -4.916751e+04
-3.055795e+09 -2.855627e+09 -3.015815e+09 -3.834784e+03 -1.995464e+04 4.930242e+03
-2.892097e+09 -2.691928e+09 -2.852123e+09 2.584879e+03 -2.155170e+04 -3.894871e+03
-3.012883e+09 -2.812715e+09 -2.972907e+09 -8.782719e+02 -2.131151e+04 1.110566e+03
-1.684965e+09 -1.484880e+09 -1.644972e+09 -6.491378e+02 -1.845228e+04 -9.715593e+02
-1.932636e+09 -1.732532e+09 -1.892638e+09 1.277100e+04 -1.309622e+04 7.814264e+02
-4.804790e+09 -4.604816e+09 -4.764862e+09 -1.278114e+04 -5.978986e+02 1.652057e+03
-4.096327e+09 -3.896359e+09 -4.056389e+09 -6.160089e+03 -3.729902e+02 1.409941e+03
-4.563011e+09 -4.363042e+09 -4.523084e+09 -1.327959e+04 -1.369347e+03 2.106555e+03
-4.276092e+09 -4.076121e+09 -4.236170e+09 -1.876323e+04 -2.229283e+03 3.093073e+03
-4.019634e+09 -3.819655e+09 -3.979710e+09 -1.891082e+04 -6.249285e+03 3.271896e+03
-3.976721e+09 -3.776742e+09 -3.936790e+09 -1.282364e+04 -2.978111e+03 4.955905e+03
-4.251340e+09 -4.051363e+09 -4.211419e+09 -1.989366e+04 -3.188781e+03 4.138290e+03
-3.786899e+09 -3.586701e+09 -3.746942e+09 -2.808843e+04 -1.950641e+04 7.875596e+03
-4.111190e+09 -3.910943e+09 -4.071234e+09 -3.894455e+04 -2.767972e+04 2.344343e+03
-3.759129e+09 -3.558911e+09 -3.719164e+09 -1.082763e+04 -2.194663e+04 3.965060e+03
-3.291763e+09 -3.091588e+09 -3.251808e+09 -1.334650e+04 -6.083269e+04 9.184944e+03
-2.634381e+09 -2.434314e+09 -2.594408e+09 3.772683e+03 3.620892e+02 7.193144e+03
-2.987964e+09 -2.787922e+09 -2.948004e+09 1.224320e+04 1.068188e+04 7.665715e+03
-3.010234e+09 -2.810164e+09 -2.970263e+09 3.292838e+03 6.590515e+03 8.436749e+03
-2.907177e+09 -2.707118e+09 -2.867208e+09 4.316566e+03 4.517104e+03 8.744836e+03
-1.918765e+09 -1.718707e+09 -1.878785e+09 -1.713053e+03 4.525387e+03 8.643543e+03
-2.166438e+09 -1.966380e+09 -2.126459e+09 2.044889e+03 1.846502e+03 6.115773e+03
-4.611265e+09 -4.411102e+09 -4.571340e+09 8.370238e+04 1.604275e+04 7.800012e+03
-4.790140e+09 -4.589965e+09 -4.750219e+09 1.036702e+05 2.420070e+04 1.622017e+03
-1.873075e+09 -1.673011e+09 -1.833095e+09 -1.131834e+04 -9.655844e+03 1.569977e+04
-4.790809e+09 -4.590666e+09 -4.750877e+09 5.762435e+04 1.209318e+04 1.105039e+04
-4.275094e+09 -4.074916e+09 -4.235172e+09 8.204804e+04 3.137821e+04 1.163417e+04
-4.618329e+09 -4.418128e+09 -4.578395e+09 7.706286e+04 2.053190e+04 1.000040e+04
-4.104336e+09 -3.904198e+09 -4.064405e+09 6.283955e+04 3.239918e+04 6.677015e+03
-4.318379e+09 -4.118156e+09 -4.278433e+09 9.621323e+04 3.438210e+04 1.486763e+04
-3.854271e+09 -3.654153e+09 -3.814304e+09 -1.765490e+04 1.234377e+04 -5.730201e+03
-4.694004e+09 -4.493895e+09 -4.654060e+09 -2.699940e+04 7.447186e+03 -4.766529e+03
-4.492143e+09 -4.292028e+09 -4.452179e+09 -9.006715e+03 3.219669e+03 -2.434802e+03
-4.523271e+09 -4.323151e+09 -4.483317e+09 -2.447637e+04 8.870824e+03 -4.009121e+03
-4.703317e+09 -4.503177e+09 -4.663365e+09 -2.912034e+04 7.418863e+03 -8.935905e+03
-4.360094e+09 -4.159967e+09 -4.320153e+09 -2.898836e+04 1.996505e+04 -9.077783e+03
-4.394775e+09 -4.194651e+09 -4.354826e+09 -2.842123e+04 1.418474e+04 -7.968297e+03
-4.051524e+09 -3.851415e+09 -4.011589e+09 -3.132325e+04 1.842732e+04 -1.452962e+04
-3.896399e+09 -3.696301e+09 -3.856448e+09 -2.263301e+04 1.582842e+04 -7.655305e+03
-3.581218e+09 -3.381095e+09 -3.541253e+09 -2.780174e+04 2.276632e+04 -1.043192e+04
-3.974425e+09 -3.774299e+09 -3.934473e+09 -2.781246e+04 2.305506e+04 -4.650516e+03
-4.808393e+09 -4.607097e+09 -4.762425e+09 -2.838404e+04 -6.997623e+05 -2.652401e+05
-4.135035e+09 -3.934347e+09 -4.084891e+09 -9.257104e+04 -8.727361e+05 5.634223e+05
-4.655499e+09 -4.455035e+09 -4.607163e+09 9.731957e+03 -5.116257e+05 3.027961e+05
-4.122227e+09 -3.920802e+09 -4.076493e+09 1.147750e+05 -8.065402e+05 2.591868e+05
-3.959343e+09 -3.758745e+09 -3.919096e+09 -1.669761e+05 -2.183920e+04 9.644087e+03
-4.292862e+09 -4.092083e+09 -4.252510e+09 -1.966340e+05 -7.833782e+04 1.264185e+04
-4.647339e+09 -4.446508e+09 -4.606946e+09 3.324390e+04 3.268869e+04 2.009931e+04
-4.122988e+09 -3.922187e+09 -4.082628e+09 -8.708260e+04 -7.646023e+04 2.691074e+04
-4.811529e+09 -4.610938e+09 -4.771399e+09 -8.916943e+04 1.747117e+03 -6.290009e+03
-4.986887e+09 -4.786360e+09 -4.946810e+09 -1.891600e+05 -6.821481e+04 1.331162e+04
-4.636735e+09 -4.436184e+09 -4.596653e+09 -1.035147e+05 -5.969718e+02 9.768684e+03
-4.805545e+09 -4.606351e+09 -4.763483e+09 6.355870e+05 5.369679e+04 4.874701e+05
-4.119178e+09 -3.919861e+09 -4.077399e+09 6.313197e+05 2.722575e+05 2.089641e+05
-4.808968e+09 -4.609382e+09 -4.767912e+09 6.199708e+05 8.804843e+04 -1.144907e+05
-4.639783e+09 -4.440375e+09 -4.599427e+09 5.527968e+05 1.533901e+05 8.983136e+04
-4.644425e+09 -4.445219e+09 -4.603775e+09 4.595659e+05 4.994914e+04 1.544065e+05
-4.179780e+09 -3.980071e+09 -4.140081e+09 2.157586e+05 -5.747447e+04 -3.866265e+04
-4.115250e+09 -3.915405e+09 -4.075577e+09 1.698121e+05 -3.377610e+04 -3.542265e+04
-4.580142e+09 -4.380312e+09 -4.540470e+09 2.656963e+05 1.136629e+03 -2.504416e+04
-4.796082e+09 -4.596196e+09 -4.756402e+09 1.695259e+05 -2.450505e+04 -2.717929e+04
-4.219437e+09 -4.019535e+09 -4.179674e+09 1.995377e+05 -6.551643e+04 -3.630821e+04
-4.128272e+09 -3.928415e+09 -4.088466e+09 4.815911e+04 1.284747e+04 2.808279e+04
-4.134846e+09 -3.934998e+09 -4.095038e+09 3.156884e+04 2.879067e+03 2.198274e+04
-4.993698e+09 -4.793835e+09 -4.953886e+09 3.599823e+04 3.932239e+03 6.474316e+03
-4.645817e+09 -4.445943e+09 -4.605988e+09 2.735444e+04 5.627701e+02 7.976607e+03
-4.821299e+09 -4.621460e+09 -4.781503e+09 3.291734e+04 4.686407e+03 1.202084e+04
-4.650879e+09 -4.451020e+09 -4.611053e+09 2.841996e+04 7.449300e+02 7.822324e+03
-4.646309e+09 -4.445804e+09 -4.605430e+09 4.874232e+05 -1.039387e+05 -8.782081e+04
-4.128383e+09 -3.928858e+09 -4.088553e+09 -3.674157e+05 5.945794e+02 -8.719566e+04
-4.654478e+09 -4.454166e+09 -4.612658e+09 5.677759e+05 -2.395668e+05 5.260942e+04
-4.484636e+09 -4.283756e+09 -4.443366e+09 4.682309e+05 -2.270158e+05 -6.921520e+04
-4.141428e+09 -3.940653e+09 -4.099927e+09 5.571996e+05 -2.719379e+05 -1.096098e+05
-4.499499e+09 -4.298778e+09 -4.458197e+09 4.202463e+05 -5.054836e+04 3.560723e+03
-4.073964e+09 -3.873762e+09 -4.034002e+09 8.719490e+03 -1.419851e+04 -6.260435e+03
-3.650159e+09 -3.449963e+09 -3.610207e+09 1.226032e+04 -2.218850e+04 -3.675325e+03
-4.622875e+09 -4.422638e+09 -4.582929e+09 1.766383e+04 -2.613932e+03 -4.651402e+03
-4.983532e+09 -4.783312e+09 -4.943581e+09 5.678326e+03 -2.122350e+03 -1.388911e+02
-4.071646e+09 -3.871432e+09 -4.031680e+09 2.610405e+03 -1.472475e+04 -3.320724e+03
-4.805779e+09 -4.605554e+09 -4.765829e+09 1.638509e+04 -6.942911e+03 -6.047209e+03
-4.617569e+09 -4.417472e+09 -4.577714e+09 -9.352176e+04 1.739010e+04 -1.140717e+04
-4.125890e+09 -3.925769e+09 -4.086007e+09 -9.187175e+04 3.329735e+04 -2.386515e+04
-4.264437e+09 -4.064345e+09 -4.224550e+09 -6.296022e+04 3.060669e+04 -1.293925e+04
-4.831627e+09 -4.631485e+09 -4.791737e+09 -9.186856e+04 1.244907e+04 -1.692485e+04
-4.660415e+09 -4.460721e+09 -4.620758e+09 -1.032980e+04 -1.122491e+03 1.139991e+04
-4.470374e+09 -4.270701e+09 -4.430736e+09 3.169660e+04 5.928867e+02 3.121997e+04
-4.997413e+09 -4.797665e+09 -4.957712e+09 -8.568812e+03 -5.166718e+03 1.658511e+04
-4.489616e+09 -4.289841e+09 -4.449873e+09 -1.540750e+04 -1.716846e+03 2.170249e+04
-4.140110e+09 -3.940290e+09 -4.100323e+09 -1.512845e+04 -4.994986e+02 2.132026e+04
-4.272939e+09 -4.072616e+09 -4.232978e+09 1.810047e+04 -5.930078e+04 -1.077093e+04
-4.118826e+09 -3.919080e+09 -4.079103e+09 9.564098e+03 -6.846460e+03 3.332136e+04
-2.107758e+09 -1.907689e+09 -2.067777e+09 -5.814157e+03 1.412770e+04 -4.508559e+03
-4.805275e+09 -4.605545e+09 -4.765569e+09 3.180579e+03 7.950648e+03 2.051130e+04
-3.860881e+09 -3.660961e+09 -3.820980e+09 -8.047605e+03 -1.366004e+03 5.324083e+03
-3.667949e+09 -3.468027e+09 -3.628042e+09 -3.087850e+03 -6.233592e+02 4.491369e+03
-2.816215e+09 -2.616124e+09 -2.776239e+09 5.439870e+03 1.047825e+04 1.121797e+04
-4.249262e+09 -4.049343e+09 -4.209360e+09 -4.351303e+03 -7.888043e+02 3.481351e+03
-3.722790e+09 -3.522867e+09 -3.682881e+09 -5.218113e+03 -8.983623e+02 4.159208e+03
-3.159447e+09 -2.959524e+09 -3.119538e+09 -4.190506e+03 -2.132825e+03 6.523696e+03
-4.430310e+09 -4.230808e+09 -4.390888e+09 -2.514349e+04 1.411664e+04 4.339359e+03
-3.354292e+09 -3.154373e+09 -3.314387e+09 -3.356884e+03 -7.317565e+02 6.746068e+03
-4.850978e+09 -4.650016e+09 -4.809917e+09 3.025473e+05 3.028035e+04 4.239097e+04
-4.126055e+09 -3.925515e+09 -4.085517e+09 3.933926e+05 -2.199085e+04 -4.466743e+03
-4.154840e+09 -3.954094e+09 -4.114290e+09 2.760065e+05 3.145736e+04 -1.797470e+03
-4.812499e+09 -4.611913e+09 -4.771913e+09 4.221506e+05 -6.075430e+03 -2.307643e+04
-1.649567e+09 -1.449556e+09 -1.609603e+09 1.182014e+03 -6.368974e+04 -2.861782e+04
-4.513683e+09 -4.313743e+09 -4.473849e+09 8.402079e+04 1.307367e+04 1.710424e+04
-4.161423e+09 -3.961546e+09 -4.121637e+09 9.598521e+04 1.124816e+04 2.808222e+04
-4.345427e+09 -4.145539e+09 -4.305644e+09 1.099519e+05 1.677732e+04 2.745364e+04
-4.856892e+09 -4.656967e+09 -4.817065e+09 8.195759e+04 1.433873e+04 6.451891e+03
-4.490292e+09 -4.290412e+09 -4.450508e+09 1.129246e+05 1.674509e+04 2.868371e+04
-5.031924e+09 -4.832006e+09 -4.992108e+09 8.005134e+04 5.691308e+03 3.954149e+03
-5.031861e+09 -4.831969e+09 -4.992085e+09 1.073105e+05 9.515895e+03 1.491710e+04
-4.298815e+09 -4.098619e+09 -4.257643e+09 6.091801e+05 -1.408254e+04 3.247307e+04
-4.131497e+09 -3.931137e+09 -4.089577e+09 6.550612e+05 1.718915e+05 4.207212e+05
-4.290581e+09 -4.089955e+09 -4.247568e+09 6.337971e+05 1.668955e+05 9.110387e+04
-4.990261e+09 -4.789739e+09 -4.948902e+09 5.655918e+05 -1.875330e+04 1.179884e+04
-4.822185e+09 -4.622257e+09 -4.782465e+09 2.117463e+05 -3.309962e+03 -9.605462e+02
-4.173470e+09 -3.972628e+09 -4.132370e+09 3.669842e+05 2.450388e+05 -5.714134e+04
-4.779068e+09 -4.579610e+09 -4.739464e+09 -7.888100e+04 -4.253090e+03 -4.217838e+03
-4.275825e+09 -4.076382e+09 -4.236313e+09 -5.703363e+04 -2.365677e+04 7.185948e+04
-4.486575e+09 -4.286983e+09 -4.446930e+09 -9.642189e+04 -1.121322e+04 4.160065e+04
-4.152531e+09 -3.952991e+09 -4.112916e+09 -4.404282e+04 -1.004797e+04 3.427980e+04
-4.277992e+09 -4.078369e+09 -4.238317e+09 1.244589e+05 8.239433e+03 5.074593e+04
-4.789105e+09 -4.589394e+09 -4.749432e+09 1.050611e+05 1.031558e+03 6.854258e+03
-4.804937e+09 -4.605249e+09 -4.765298e+09 1.434034e+05 2.064652e+04 4.316233e+04
-4.461715e+09 -4.262011e+09 -4.422031e+09 1.458760e+05 2.032251e+04 3.199322e+04
-4.600752e+09 -4.401047e+09 -4.561094e+09 9.156446e+04 -2.065757e+03 1.512247e+04
-3.331438e+09 -3.131437e+09 -3.291487e+09 6.638776e+03 2.001970e+03 2.644360e+03
-3.766891e+09 -3.566896e+09 -3.726943e+09 8.123434e+03 2.588635e+03 2.519310e+03
-4.697267e+09 -4.497145e+09 -4.657305e+09 9.281142e+03 3.242538e+03 -5.149893e+02
-4.024160e+09 -3.824161e+09 -3.984209e+09 4.225996e+03 7.505356e+02 1.389765e+03
-5.014720e+09 -4.814766e+09 -4.974971e+09 1.304822e+05 -9.449221e+03 -9.423954e+03
-3.932026e+09 -3.732026e+09 -3.892074e+09 7.222235e+03 2.081572e+03 2.047809e+02
-4.644947e+09 -4.445800e+09 -4.605394e+09 2.285293e+05 -2.827646e+04 4.719112e+04
-4.458331e+09 -4.259179e+09 -4.418611e+09 2.754095e+05 5.264243e+02 -3.261365e+04
-4.458468e+09 -4.259534e+09 -4.418490e+09 1.173188e+05 4.763290e+04 -1.035076e+04
-4.803558e+09 -4.603748e+09 -4.763652e+09 -3.824663e+05 1.261753e+04 2.573416e+04
-4.106135e+09 -3.906543e+09 -4.065993e+09 -4.722908e+05 -1.986896e+03 -6.836183e+04
-4.088575e+09 -3.888917e+09 -4.048716e+09 -3.495090e+05 -5.229494e+03 4.399840e+04
-4.775070e+09 -4.575369e+09 -4.735231e+09 -3.956670e+05 -5.328327e+04 -7.383550e+03
-4.792518e+09 -4.592950e+09 -4.752293e+09 -4.631344e+05 1.360014e+05 4.805343e+04
-2.856041e+09 -2.655913e+09 -2.816068e+09 -9.638961e+03 -3.021184e+04 8.974154e+03
-2.941589e+09 -2.741435e+09 -2.901616e+09 -1.399584e+04 -3.732821e+04 1.044264e+04
-3.941829e+09 -3.741847e+09 -3.901897e+09 2.848369e+05 7.644089e+04 7.253294e+04
-2.530110e+09 -2.329974e+09 -2.490125e+09 -1.486937e+04 -5.504195e+04 1.014466e+04
-3.032201e+09 -2.832058e+09 -2.992228e+09 -2.019014e+04 -2.919838e+04 1.314446e+04
-3.387063e+09 -3.186893e+09 -3.347098e+09 -2.758319e+04 -5.090174e+04 1.186708e+04
-2.989007e+09 -2.788830e+09 -2.949043e+09 -1.819931e+04 -5.576742e+04 1.060613e+04
-3.511327e+09 -3.311094e+09 -3.471362e+09 -3.546731e+04 -5.414721e+04 1.328496e+04
-4.318811e+09 -4.118683e+09 -4.278914e+09 1.637385e+05 -5.298850e+04 -2.830201e+04
-4.976091e+09 -4.775981e+09 -4.936232e+09 1.027227e+05 -8.321402e+03 5.815398e+02
-4.632852e+09 -4.432715e+09 -4.592972e+09 1.128336e+05 -2.769042e+04 -1.435828e+04
-4.131989e+09 -3.931882e+09 -4.092126e+09 1.458663e+05 -3.422748e+04 -2.654095e+04
-4.108026e+09 -3.907969e+09 -4.068193e+09 1.069347e+05 -4.468455e+04 -1.458337e+04
-4.636866e+09 -4.436786e+09 -4.597059e+09 1.468274e+05 -1.771007e+04 -2.272919e+04
-4.125681e+09 -3.925568e+09 -4.085793e+09 1.068494e+05 3.452587e+04 2.913242e+04
-4.815707e+09 -4.615642e+09 -4.775812e+09 8.010614e+04 6.616973e+03 1.466753e+04
-4.646289e+09 -4.446198e+09 -4.606412e+09 1.134102e+05 1.790433e+04 9.715116e+03
-4.129245e+09 -3.929195e+09 -4.089346e+09 7.644638e+04 2.816114e+04 9.140145e+03
-4.649877e+09 -4.449813e+09 -4.609988e+09 8.787892e+04 1.379747e+04 9.266326e+03
-4.299012e+09 -4.099146e+09 -4.259201e+09 -5.531626e+04 -8.327388e+03 1.944885e+04
-4.606688e+09 -4.406904e+09 -4.566964e+09 -6.292339e+04 -2.283514e+03 1.733873e+04
-4.121367e+09 -3.921545e+09 -4.081592e+09 -5.096564e+04 -6.169610e+03 3.241335e+04
-3.958134e+09 -3.758260e+09 -3.918322e+09 -6.567018e+04 -9.651585e+03 3.040976e+04
-4.303532e+09 -4.103684e+09 -4.263735e+09 -4.420514e+04 -1.079229e+04 2.452490e+04
-4.810488e+09 -4.610642e+09 -4.770709e+09 -6.413611e+04 -1.028813e+04 1.614643e+04
-4.293124e+09 -4.093299e+09 -4.253336e+09 -4.792547e+04 -8.891286e+03 2.694416e+04
-2.553499e+09 -2.353519e+09 -2.513615e+09 -9.871147e+03 5.721374e+04 -7.325386e+03
-3.056693e+09 -2.856810e+09 -3.016918e+09 -5.365130e+03 6.565447e+04 -1.296294e+04
-5.015263e+09 -4.815411e+09 -4.975435e+09 -1.286204e+04 -3.160648e+03 4.983953e+03
-2.904265e+09 -2.704368e+09 -2.864469e+09 -1.551371e+04 6.809310e+04 -2.019910e+04
-1.728184e+09 -1.528172e+09 -1.688210e+09 -1.050646e+04 8.005024e+04 -5.640149e+04
-1.586560e+09 -1.386596e+09 -1.546549e+09 4.200422e+03 9.390787e+04 -8.963308e+04
-2.974291e+09 -2.774437e+09 -2.934536e+09 -7.650561e+04 8.439103e+04 -5.720134e+04
-3.040848e+09 -2.840959e+09 -3.001074e+09 -5.876473e+04 6.212788e+04 -3.713625e+04
-2.364091e+09 -2.164186e+09 -2.324271e+09 -3.869836e+04 8.178523e+04 -4.182127e+04
-2.622313e+09 -2.422448e+09 -2.582520e+09 -1.246345e+04 5.888077e+04 -7.890606e+03
-2.170337e+09 -1.970446e+09 -2.130482e+09 -5.690089e+03 6.593588e+04 1.956856e+03
-1.922752e+09 -1.722814e+09 -1.882839e+09 2.580226e+04 6.922417e+04 -1.317749e+04
-4.662051e+09 -4.461915e+09 -4.622193e+09 1.685246e+05 -2.097843e+04 -1.640350e+04
-4.673658e+09 -4.473507e+09 -4.633841e+09 2.162940e+05 -9.433316e+03 -1.374732e+04
-4.363883e+09 -4.163917e+09 -4.323943e+09 -5.029726e+02 -1.725918e+02 4.110459e+02
-3.973979e+09 -3.773795e+09 -3.934085e+09 1.280888e+05 -4.402470e+04 -8.175385e+03
-4.694843e+09 -4.494571e+09 -4.654956e+09 1.937403e+05 -2.026045e+04 -6.477178e+03
-4.144841e+09 -3.944630e+09 -4.104906e+09 2.306626e+05 -5.578434e+04 -3.230143e+04
-4.351612e+09 -4.151342e+09 -4.311724e+09 1.931300e+05 -7.216084e+04 -2.836994e+04
-4.644211e+09 -4.444185e+09 -4.604325e+09 7.002643e+04 1.134226e+04 7.822513e+03
-4.636858e+09 -4.436878e+09 -4.597026e+09 1.087604e+05 1.386928e+04 1.123699e+04
-4.138331e+09 -3.938312e+09 -4.098463e+09 9.449930e+04 2.712437e+04 1.586618e+04
-4.644132e+09 -4.444147e+09 -4.604272e+09 8.094060e+04 1.084064e+04 9.917807e+03
-4.656223e+09 -4.456225e+09 -4.616328e+09 5.346528e+04 6.805562e+03 6.077181e+03
-4.831886e+09 -4.631577e+09 -4.790633e+09 -6.143461e+05 7.716876e+04 -8.763239e+04
-4.132517e+09 -3.931470e+09 -4.090391e+09 -4.926374e+05 3.685072e+05 -1.743806e+05
-4.818894e+09 -4.617935e+09 -4.776542e+09 -4.861803e+05 6.685994e+04 -3.644579e+04
-4.295784e+09 -4.095067e+09 -4.254832e+09 -4.686679e+05 3.241071e+04 4.440753e+04
-4.127495e+09 -3.927924e+09 -4.087863e+09 -2.524850e+05 2.453767e+04 -4.678119e+04
-4.644449e+09 -4.444719e+09 -4.604574e+09 -3.539714e+05 -1.053576e+04 7.804245e+03
-4.129525e+09 -3.930066e+09 -4.089706e+09 -3.081689e+05 -3.222970e+03 6.767226e+04
-3.852748e+09 -3.653175e+09 -3.813182e+09 -2.228514e+05 -3.138058e+03 -9.885082e+03
-2.859382e+09 -2.659800e+09 -2.819815e+09 -9.400564e+04 5.596327e+04 -9.456324e+04
-2.861541e+09 -2.661715e+09 -2.821777e+09 -5.878485e+04 6.315136e+04 -4.322727e+04
-2.803934e+09 -2.604052e+09 -2.764134e+09 -8.698795e+04 8.486480e+04 -3.542785e+04
-3.733031e+09 -3.533213e+09 -3.693343e+09 -1.539933e+05 4.939569e+04 -2.482204e+04
-3.368136e+09 -3.168214e+09 -3.328224e+09 2.932594e+02 1.904977e+02 1.140551e+03
-3.285804e+09 -3.085916e+09 -3.245993e+09 -1.380332e+05 1.053529e+05 -8.599130e+04
-4.753624e+09 -4.553459e+09 -4.713681e+09 2.480613e+04 -5.281045e+03 -7.827508e+03
-4.010136e+09 -3.810036e+09 -3.970196e+09 7.888833e+03 -8.056250e+03 -1.093630e+04
-3.978930e+09 -3.778845e+09 -3.938992e+09 1.193793e+04 -1.083671e+04 -6.127062e+03
-3.709271e+09 -3.509175e+09 -3.669344e+09 2.115955e+04 -1.350879e+04 -1.249332e+04
-3.783919e+09 -3.583825e+09 -3.743979e+09 1.198856e+04 -1.209587e+04 -8.337209e+03
-2.628097e+09 -2.428014e+09 -2.588131e+09 7.880073e+03 -1.788594e+04 -1.456406e+04
-3.357209e+09 -3.157124e+09 -3.317253e+09 5.838846e+03 -4.665809e+03 -9.659337e+03
-3.724125e+09 -3.524032e+09 -3.684177e+09 4.322969e+03 -1.692254e+03 -8.723094e+03
-4.411393e+09 -4.211296e+09 -4.371462e+09 9.952536e+03 -2.929497e+03 -5.952767e+03
-3.207838e+09 -3.007704e+09 -3.167857e+09 -4.913689e+02 1.248062e+04 3.824766e+03
-2.796497e+09 -2.596385e+09 -2.756514e+09 1.831900e+02 1.395309e+04 -1.871150e+03
-4.983323e+09 -4.783116e+09 -4.943362e+09 -3.106267e+03 1.018420e+04 -1.459253e+03
-2.573096e+09 -2.372974e+09 -2.533107e+09 4.386240e+03 4.221471e+04 2.025924e+03
-2.551572e+09 -2.351461e+09 -2.511587e+09 5.815291e+02 1.457787e+04 1.106357e+03
-3.576512e+09 -3.376367e+09 -3.536535e+09 2.375521e+03 1.431641e+04 1.799018e+03
-4.132589e+09 -3.932695e+09 -4.092813e+09 -1.391718e+05 -3.234501e+04 2.994801e+04
-4.646908e+09 -4.446970e+09 -4.607094e+09 -1.050983e+05 -1.284321e+04 1.438562e+04
-4.821061e+09 -4.621161e+09 -4.781270e+09 -1.041049e+05 -2.736754e+03 2.110266e+04
-4.462254e+09 -4.262416e+09 -4.422527e+09 -1.303801e+05 -1.605215e+04 2.953953e+04
-4.648284e+09 -4.448365e+09 -4.608513e+09 -1.399148e+05 -1.463601e+04 1.456123e+04
-4.842702e+09 -4.642701e+09 -4.793106e+09 5.661387e+04 1.275372e+05 2.099728e+05
-4.320147e+09 -4.120199e+09 -4.270464e+09 -6.291605e+04 1.293637e+06 -7.765363e+05
-4.851824e+09 -4.650694e+09 -4.805663e+09 -3.128140e+04 6.174270e+05 -2.128605e+05
-4.337429e+09 -4.136811e+09 -4.288062e+09 6.026926e+05 5.477255e+05 6.029286e+05
-4.508556e+09 -4.307161e+09 -4.461312e+09 1.316582e+05 8.698099e+05 -4.174976e+04
-4.293848e+09 -4.093801e+09 -4.253961e+09 -7.482812e+04 -2.073212e+04 2.304570e+04
-4.321626e+09 -4.121622e+09 -4.281745e+09 -6.190774e+04 -1.504930e+04 1.812405e+04
-4.121871e+09 -3.921834e+09 -4.081976e+09 -6.282829e+04 -2.143597e+04 1.012094e+04
-4.619040e+09 -4.418992e+09 -4.579142e+09 -6.296831e+04 -1.134977e+04 9.245838e+03
-4.652207e+09 -4.452200e+09 -4.612339e+09 -8.108025e+04 -1.102862e+04 7.661369e+03
-4.713524e+09 -4.513397e+09 -4.673557e+09 -5.467598e+03 -1.771423e+02 -2.995385e+03
-4.283632e+09 -4.083816e+09 -4.243779e+09 -3.044461e+05 -4.945390e+04 6.549345e+04
-4.829038e+09 -4.629170e+09 -4.789244e+09 -2.882105e+05 -2.338093e+04 2.464962e+04
-4.142576e+09 -3.942734e+09 -4.102779e+09 -2.703978e+05 -2.585679e+04 3.891249e+04
-4.890134e+09 -4.689996e+09 -4.850165e+09 -3.044485e+03 3.048168e-05 -5.606773e+02
-4.644404e+09 -4.444485e+09 -4.604675e+09 7.414305e+04 -2.368262e+04 1.806337e+03
-4.973551e+09 -4.773628e+09 -4.933850e+09 1.801351e+05 -1.490254e+04 -1.793204e+04
-4.225322e+09 -4.025359e+09 -4.185579e+09 1.361813e+05 -4.247249e+04 -3.232479e+04
-4.291289e+09 -4.091269e+09 -4.251483e+09 1.488899e+05 -4.672113e+04 -3.328805e+04
-4.833161e+09 -4.633172e+09 -4.793404e+09 1.281074e+05 -2.344960e+04 -1.359259e+04
-3.954740e+09 -3.754866e+09 -3.915033e+09 1.007659e+05 -4.835068e+04 -3.382946e+04
-2.874903e+09 -2.674733e+09 -2.834919e+09 4.768965e+03 -3.988024e+04 -7.415681e+03
-3.081518e+09 -2.881348e+09 -3.041541e+09 3.774360e+03 -2.163278e+04 -6.756878e+03
-3.451782e+09 -3.251602e+09 -3.411815e+09 4.390586e+03 -4.470434e+03 -5.214462e+03
-3.980582e+09 -3.780393e+09 -3.940627e+09 4.132940e+03 -1.369831e+04 -8.585168e+03
-3.715094e+09 -3.514897e+09 -3.675137e+09 1.844298e+04 -2.111856e+04 -5.911609e+03
-3.101147e+09 -2.900962e+09 -3.061177e+09 1.499705e+04 -5.850836e+04 -1.541071e+04
-4.287345e+09 -4.087746e+09 -4.247518e+09 -4.167030e+05 4.919992e+04 -2.757855e+04
-4.298017e+09 -4.098117e+09 -4.258207e+09 -3.642503e+05 4.529419e+04 -5.343194e+04
-4.828935e+09 -4.629043e+09 -4.789204e+09 -2.598727e+05 3.924783e+04 -4.362573e+04
-4.133091e+09 -3.933288e+09 -4.093396e+09 -2.296882e+05 4.501905e+04 -3.315519e+04
-4.656696e+09 -4.456754e+09 -4.616853e+09 -2.820547e+05 1.030547e+04 -2.236806e+04
-4.478825e+09 -4.278885e+09 -4.438933e+09 2.964101e+04 3.942715e+03 6.441272e+03
-4.488315e+09 -4.288374e+09 -4.448424e+09 2.837776e+04 3.870785e+03 6.575565e+03
-3.024204e+09 -2.824190e+09 -2.984248e+09 4.622601e+03 2.173042e+03 4.121767e+03
-4.994455e+09 -4.794524e+09 -4.954606e+09 5.495921e+04 5.793772e+03 4.744084e+03
-4.133115e+09 -3.933182e+09 -4.093240e+09 3.923416e+04 3.676315e+03 1.452996e+04
-4.475844e+09 -4.275715e+09 -4.435909e+09 -4.605442e+04 1.752461e+04 -7.982106e+03
-4.476342e+09 -4.276411e+09 -4.436461e+09 3.741447e+04 4.747295e+03 8.683469e+03
-2.048029e+09 -1.848072e+09 -2.008094e+09 -3.683958e+03 -1.089718e+03 1.447308e+03
-3.101319e+09 -2.901360e+09 -3.061383e+09 -3.399104e+03 -1.083980e+03 9.051055e+02
-2.766425e+09 -2.566466e+09 -2.726488e+09 -2.956407e+03 -7.043926e+02 7.865414e+02
-2.831835e+09 -2.631873e+09 -2.791898e+09 -5.005076e+03 -1.044230e+03 2.187061e+03
-3.057028e+09 -2.857067e+09 -3.017091e+09 -4.614127e+03 -1.549893e+03 1.619677e+03
-4.982581e+09 -4.783383e+09 -4.943072e+09 -1.340289e+05 2.080084e+03 -5.141496e+04
-4.156761e+09 -3.957675e+09 -4.116911e+09 1.817160e+05 1.100981e+04 1.309666e+05
-4.180693e+09 -3.981482e+09 -4.141254e+09 2.888239e+03 -2.568602e+04 -7.103551e+04
-4.992265e+09 -4.793250e+09 -4.952561e+09 -3.018822e+04 4.467961e+04 -5.807755e+04
-3.878656e+09 -3.679485e+09 -3.839242e+09 -1.240314e+05 -7.280162e+03 -5.243602e+03
-4.491960e+09 -4.293080e+09 -4.452549e+09 -7.212731e+04 -9.638734e+03 1.447463e+03
-4.807520e+09 -4.608397e+09 -4.768123e+09 2.738068e+04 -2.435377e+04 -7.226587e+04
-2.735845e+09 -2.535879e+09 -2.695905e+09 -2.641175e+03 -6.850686e+02 1.083519e+03
-3.539624e+09 -3.339646e+09 -3.499683e+09 -1.919200e+03 -3.306201e+02 1.582442e+03
-2.729690e+09 -2.529725e+09 -2.689750e+09 -1.730290e+03 -7.082324e+02 2.884875e+02
-3.044490e+09 -2.844515e+09 -3.004546e+09 -3.969308e+03 -8.286433e+02 2.034387e+03
-3.949611e+09 -3.749638e+09 -3.909673e+09 -4.045577e+03 -7.246307e+02 2.465620e+02
-2.696937e+09 -2.496970e+09 -2.656996e+09 -2.313275e+03 -4.352875e+02 1.182138e+03
-3.854075e+09 -3.654107e+09 -3.814134e+09 -3.116417e+03 -1.341294e+03 3.911294e+02
-4.675550e+09 -4.475999e+09 -4.635955e+09 -3.682688e+04 1.012822e+04 1.457544e+04
-4.148101e+09 -3.948686e+09 -4.108580e+09 1.744715e+04 1.054917e+04 8.222314e+04
-4.829957e+09 -4.630470e+09 -4.790395e+09 2.600516e+04 1.221070e+04 4.626124e+04
-4.496938e+09 -4.297388e+09 -4.457362e+09 3.071252e+04 1.981432e+03 3.919703e+04
-4.143532e+09 -3.944013e+09 -4.103928e+09 2.077635e+04 -3.963177e+03 3.775370e+04
-4.489105e+09 -4.288817e+09 -4.449185e+09 -2.867583e+05 3.762715e+04 -2.832105e+04
-4.652752e+09 -4.452550e+09 -4.612780e+09 -3.949285e+05 -2.634624e+04 -2.539090e+03
-4.145978e+09 -3.945598e+09 -4.105895e+09 -2.545845e+05 5.849068e+04 -1.445776e+04
-4.484845e+09 -4.284522e+09 -4.444909e+09 -2.747482e+05 4.555336e+04 -1.516256e+04
-4.312590e+09 -4.112394e+09 -4.272501e+09 -3.209948e+05 7.075673e+04 -3.590032e+04
-4.131020e+09 -3.930999e+09 -4.091120e+09 6.053632e+04 2.049612e+04 1.045192e+04
-4.300979e+09 -4.100953e+09 -4.261092e+09 6.979643e+04 1.759321e+04 1.855225e+04
-4.817286e+09 -4.617293e+09 -4.777418e+09 7.616783e+04 2.049714e+03 1.334089e+04
-4.990646e+09 -4.790640e+09 -4.950775e+09 7.614586e+04 1.582938e+03 4.306334e+03
-4.143095e+09 -3.943098e+09 -4.103192e+09 4.830219e+04 1.593549e+04 6.704040e+03
-2.636707e+09 -2.436757e+09 -2.596776e+09 2.805690e+03 7.107081e+02 1.402707e+03
-3.586425e+09 -3.386469e+09 -3.546493e+09 4.458496e+03 7.605843e+02 2.124449e+03
-3.042262e+09 -2.842313e+09 -3.002335e+09 6.263199e+03 2.698010e+03 3.213192e+03
-4.015045e+09 -3.815096e+09 -3.975117e+09 3.650233e+03 2.912196e+02 5.338120e+02
-3.885822e+09 -3.685873e+09 -3.845895e+09 5.918652e+03 -5.399687e+01 2.080561e+03
-4.989277e+09 -4.788810e+09 -4.949265e+09 -9.421219e+04 -4.837751e+04 6.628218e+03
-4.813987e+09 -4.613434e+09 -4.773909e+09 -2.521152e+04 -4.450623e+04 1.102794e+04
-1.605183e+09 -1.405206e+09 -1.565166e+09 1.172479e+04 -7.935276e+03 -8.045037e+04
-4.988966e+09 -4.788304e+09 -4.948793e+09 -1.060334e+05 -5.284694e+04 7.657381e+03
-4.991045e+09 -4.790238e+09 -4.950703e+09 -6.927057e+04 -5.825469e+04 -6.591958e+03
-4.125044e+09 -3.924471e+09 -4.084935e+09 -9.191080e+04 -9.287723e+04 2.864767e+04
-4.651327e+09 -4.450890e+09 -4.611319e+09 -3.645014e+04 -6.269228e+03 5.664541e+03
-4.127532e+09 -3.927029e+09 -4.087434e+09 -2.367280e+04 -4.838683e+04 -4.723855e+03
-4.306615e+09 -4.106564e+09 -4.266743e+09 -1.015268e+05 -2.604282e+04 2.362497e+04
-3.404415e+09 -3.204295e+09 -3.364438e+09 -2.173287e+03 2.796937e+03 -5.612365e+03
-4.835138e+09 -4.635133e+09 -4.795283e+09 -9.043045e+04 -6.017877e+03 1.666224e+04
-4.226235e+09 -4.026072e+09 -4.186270e+09 -2.582416e+04 1.778279e+04 -6.056395e+03
-4.308972e+09 -4.108968e+09 -4.269104e+09 -8.065070e+04 -1.889604e+04 1.996745e+04
-4.637081e+09 -4.437036e+09 -4.597201e+09 -7.539592e+04 -1.290523e+04 7.871720e+03
-4.827216e+09 -4.627180e+09 -4.787309e+09 5.625695e+04 8.717352e+03 -3.557442e+02
-4.649382e+09 -4.449355e+09 -4.609474e+09 5.813123e+04 1.002005e+04 6.157251e+03
-4.306996e+09 -4.106950e+09 -4.267087e+09 5.199972e+04 1.195991e+04 1.308651e+04
-3.956395e+09 -3.756382e+09 -3.916495e+09 6.056086e+04 1.981025e+04 1.689177e+04
-4.829560e+09 -4.629559e+09 -4.789658e+09 4.984293e+04 9.715984e+01 9.239411e+03
-4.106285e+09 -3.906306e+09 -4.066336e+09 6.612441e+02 1.029083e+02 -1.005712e+02
-4.487038e+09 -4.287062e+09 -4.447091e+09 9.768992e+02 1.579969e+02 1.374061e+02
-4.669159e+09 -4.469182e+09 -4.629211e+09 3.291854e+02 7.357537e+01 6.234994e+01
-4.448211e+09 -4.248234e+09 -4.408263e+09 1.296551e+03 -8.117072e+01 3.880154e+01
-4.654066e+09 -4.453733e+09 -4.614068e+09 1.231951e+04 1.022709e+04 4.263020e+03
-4.806431e+09 -4.606082e+09 -4.766447e+09 5.207422e+04 2.540581e+04 9.916700e+03
-4.824833e+09 -4.624454e+09 -4.784838e+09 1.540226e+04 2.927619e+04 7.219673e+03
-4.656441e+09 -4.456145e+09 -4.616480e+09 2.293800e+04 8.709574e+03 3.219659e+03
-4.644532e+09 -4.443097e+09 -4.602045e+09 -1.613624e+05 -3.568180e+05 1.572521e+05
-3.958967e+09 -3.757662e+09 -3.914791e+09 2.742979e+05 -1.350706e+06 1.634272e+05
-4.814124e+09 -4.613389e+09 -4.767762e+09 -3.342496e+05 -5.304925e+04 5.662318e+05
-3.958474e+09 -3.759297e+09 -3.918625e+09 1.975117e+05 -2.877299e+04 -5.913089e+04
-4.814185e+09 -4.612783e+09 -4.771130e+09 2.561761e+04 -4.448251e+05 -1.257527e+05
-4.646719e+09 -4.445671e+09 -4.602245e+09 -4.584302e+05 -4.557072e+05 1.670324e+05
-4.471070e+09 -4.269503e+09 -4.427446e+09 1.045134e+05 -4.189501e+05 -3.912740e+04
-4.477231e+09 -4.276929e+09 -4.437291e+09 -1.205979e+05 4.513405e+04 -1.593745e+04
-4.159430e+09 -3.959101e+09 -4.119437e+09 -1.218715e+05 3.849794e+04 -1.498734e+04
-4.138548e+09 -3.938104e+09 -4.098482e+09 -7.541085e+04 3.740855e+04 -1.018678e+04
-4.148677e+09 -3.948169e+09 -4.108620e+09 -1.136300e+05 1.024621e+05 -2.238947e+04
-4.825005e+09 -4.624520e+09 -4.784964e+09 -8.428507e+04 5.762591e+04 -5.633426e+03
-2.400720e+09 -2.200694e+09 -2.360774e+09 -1.672999e+04 -2.177245e+04 2.087923e+04
-2.039294e+09 -1.839257e+09 -1.999334e+09 -2.085083e+04 -3.644437e+04 3.446793e+04
-1.724924e+09 -1.524885e+09 -1.684953e+09 -1.439095e+04 -2.137233e+04 2.213659e+04
-2.686650e+09 -2.486612e+09 -2.646704e+09 -3.327067e+04 -2.771459e+04 2.092526e+04
-1.840267e+09 -1.640256e+09 -1.800308e+09 -7.206660e+03 -7.888335e+03 1.097123e+04
-2.537373e+09 -2.337351e+09 -2.497427e+09 -1.720125e+04 -1.986315e+04 1.858588e+04
-1.928558e+09 -1.728529e+09 -1.888597e+09 -1.794054e+04 -2.483853e+04 2.813796e+04
-1.799849e+09 -1.599851e+09 -1.759895e+09 -1.196981e+04 -1.738125e+04 1.513103e+04
-4.471469e+09 -4.271508e+09 -4.431595e+09 -5.081668e+04 -9.007527e+03 1.121109e+04
-4.816908e+09 -4.616931e+09 -4.777018e+09 -4.410005e+04 -7.526514e+03 4.745910e+01
-4.334550e+09 -4.134569e+09 -4.294675e+09 -6.221455e+04 -1.171924e+04 1.342148e+04
-4.814697e+09 -4.614733e+09 -4.774815e+09 -4.937143e+04 -2.120371e+03 1.184713e+04
-4.315059e+09 -4.115075e+09 -4.275167e+09 -4.519798e+04 -9.404973e+03 1.149626e+04
-3.967900e+09 -3.767605e+09 -3.926946e+09 5.868946e+05 -2.424948e+05 -2.764216e+05
-4.423958e+09 -4.223753e+09 -4.383647e+09 4.363710e+05 -1.273149e+04 5.260998e+04
-4.326244e+09 -4.126648e+09 -4.286174e+09 3.543124e+05 9.794346e+04 -9.821607e+04
-3.929581e+09 -3.729476e+09 -3.888994e+09 5.206331e+05 -1.544204e+05 -8.463071e+04
-4.959043e+09 -4.759325e+09 -4.918896e+09 5.107655e+05 9.479930e+03 5.097030e+04
-4.818414e+09 -4.617848e+09 -4.769849e+09 8.135837e+04 -1.690609e+05 2.906800e+05
-4.654400e+09 -4.454048e+09 -4.605104e+09 -2.079728e+05 -5.800194e+05 -1.116801e+05
-3.967806e+09 -3.768911e+09 -3.919333e+09 1.079222e+05 -2.693055e+05 -1.267891e+06
-4.811988e+09 -4.612584e+09 -4.765699e+09 4.446922e+05 -1.774167e+05 -7.813219e+05
-2.089351e+09 -1.889229e+09 -2.049361e+09 4.334336e+03 -5.651906e+04 -1.699321e+04
-1.943725e+09 -1.743588e+09 -1.903720e+09 -8.244987e+01 -7.262037e+04 4.557915e+02
-2.270345e+09 -2.070207e+09 -2.230348e+09 7.456027e+02 -5.589292e+04 -1.430074e+04
-2.167672e+09 -1.967539e+09 -2.127671e+09 1.350777e+03 -2.780098e+04 -3.370814e+03
-2.240039e+09 -2.040029e+09 -2.200111e+09 5.848540e+03 -5.514448e+04 -1.519318e+04
-1.904435e+09 -1.704311e+09 -1.864446e+09 -1.360887e+02 -5.796809e+04 -8.383251e+03
-2.163295e+09 -1.963164e+09 -2.123292e+09 2.963741e+03 -2.739079e+04 -9.837491e+03
-4.642282e+09 -4.441868e+09 -4.602277e+09 9.289268e+04 -2.088768e+04 6.038739e+03
-4.825328e+09 -4.624995e+09 -4.785368e+09 7.729315e+04 -3.079215e+04 -1.095474e+04
-4.137326e+09 -3.936979e+09 -4.097324e+09 3.869486e+04 -4.505812e+04 -8.638310e+03
-4.647137e+09 -4.446778e+09 -4.607167e+09 8.788360e+04 -1.583999e+04 -3.303851e+03
-4.996284e+09 -4.796324e+09 -4.956349e+09 4.463611e+03 1.894315e+02 -7.508648e+01
-4.135675e+09 -3.935735e+09 -4.095757e+09 -8.860955e+03 -7.279839e+02 1.884671e+03
-4.071527e+09 -3.871585e+09 -4.031605e+09 -4.694428e+03 -6.424736e+02 6.745336e+02
-3.482670e+09 -3.282729e+09 -3.442747e+09 -2.421623e+03 -1.267238e+03 1.055607e+03
-4.975472e+09 -4.775525e+09 -4.935545e+09 -2.571582e+03 7.448563e+02 -1.858022e+02
-3.664620e+09 -3.464674e+09 -3.624696e+09 -6.648801e+03 -1.261246e+03 2.912413e+03
-4.785032e+09 -4.585082e+09 -4.745105e+09 -6.782350e+03 2.096839e+02 1.178687e+03
-4.138252e+09 -3.938224e+09 -4.098453e+09 1.430234e+05 -5.077728e+04 -3.217250e+04
-4.154610e+09 -3.954627e+09 -4.114793e+09 5.956426e+04 -4.274273e+04 -2.394521e+04
-3.995936e+09 -3.795920e+09 -3.956112e+09 6.640630e+04 -4.411770e+04 -2.231021e+04
-3.891406e+09 -3.691356e+09 -3.851551e+09 6.991974e+04 -4.251614e+04 -3.415052e+04
-4.008064e+09 -3.808104e+09 -3.968296e+09 7.922434e+04 -4.287509e+04 -2.381049e+04
-4.824711e+09 -4.624673e+09 -4.784919e+09 1.445426e+05 -5.307047e+03 -1.151298e+04
-3.884443e+09 -3.684396e+09 -3.844615e+09 9.672965e+04 -3.298070e+04 -2.263761e+04
-2.638649e+09 -2.438647e+09 -2.598696e+09 7.228247e+03 3.046772e+03 4.033656e+03
-1.899013e+09 -1.699007e+09 -1.859054e+09 4.660014e+03 2.718350e+03 3.852783e+03
-2.274122e+09 -2.074127e+09 -2.234170e+09 7.920830e+03 2.407717e+03 2.544720e+03
-2.897283e+09 -2.697279e+09 -2.857334e+09 1.340736e+04 7.852959e+03 6.915995e+03
-3.353088e+09 -3.153084e+09 -3.313139e+09 1.139580e+04 4.516089e+03 4.247255e+03
-2.655235e+09 -2.455097e+09 -2.615252e+09 7.902329e+02 -5.128317e+03 -2.202225e+03
-3.018414e+09 -2.818245e+09 -2.978440e+09 8.789630e+02 -2.243640e+04 -4.990185e+03
-2.841647e+09 -2.641502e+09 -2.801669e+09 3.092371e+03 -2.758167e+04 -6.581146e+03
-2.889102e+09 -2.688939e+09 -2.849127e+09 3.772483e+03 -2.098640e+04 -1.152131e+04
-1.688224e+09 -1.488137e+09 -1.648228e+09 -8.553424e+02 -1.736240e+04 -7.032295e+03
-1.935892e+09 -1.735790e+09 -1.895894e+09 1.143994e+04 -1.186970e+04 -5.672949e+03
-4.615575e+09 -4.415589e+09 -4.575629e+09 5.689214e+03 4.380693e+02 1.185786e+03
-4.814788e+09 -4.614805e+09 -4.774841e+09 4.153960e+03 -1.762269e+02 4.844484e+02
-4.969098e+09 -4.769110e+09 -4.929149e+09 2.490561e+03 8.523680e+01 -2.678490e+02
-4.049356e+09 -3.849364e+09 -4.009405e+09 2.855826e+03 4.815260e+01 7.594764e+02
-4.768033e+09 -4.568042e+09 -4.728086e+09 6.742442e+03 9.221281e+02 5.632033e+02
-3.981622e+09 -3.781636e+09 -3.941677e+09 5.739207e+03 1.558223e+01 1.527327e+03
-4.781186e+09 -4.582604e+09 -4.740363e+09 8.134179e+04 1.818591e+04 -3.882878e+05
-4.104160e+09 -3.905546e+09 -4.062735e+09 3.234459e+05 -2.233272e+05 -6.460213e+05
-4.625271e+09 -4.426592e+09 -4.582518e+09 1.163893e+04 7.192456e+04 -4.900655e+05
-4.625172e+09 -4.426285e+09 -4.582361e+09 -9.506875e+04 -3.786053e+05 -9.249917e+03
-3.938861e+09 -3.740541e+09 -3.897742e+09 2.228945e+05 9.233278e+04 -5.750857e+05
-4.447537e+09 -4.249029e+09 -4.406916e+09 3.262847e+05 -1.854768e+05 -3.077826e+05
-4.282402e+09 -4.081496e+09 -4.241047e+09 -4.360261e+05 -1.430107e+05 4.697922e+04
-4.814406e+09 -4.613735e+09 -4.773497e+09 -4.681654e+05 -8.615359e+04 -4.387779e+04
-4.641070e+09 -4.440820e+09 -4.600109e+09 -5.889294e+05 -4.327222e+04 3.295147e+04
-4.127936e+09 -3.927266e+09 -4.087005e+09 -4.553016e+05 -3.582433e+03 8.729233e+04
-4.671703e+09 -4.471472e+09 -4.631754e+09 -6.668151e+04 1.886520e+04 -8.042744e+01
-4.640916e+09 -4.440730e+09 -4.600965e+09 -3.532071e+04 1.091912e+04 -1.402535e+03
-4.650968e+09 -4.450757e+09 -4.611004e+09 -3.640122e+04 1.346196e+04 1.042723e+03
-4.149870e+09 -3.949658e+09 -4.109907e+09 -3.939098e+04 3.242466e+04 -5.473767e+03
-4.097639e+09 -3.896384e+09 -4.055788e+09 -2.555614e+05 2.064172e+05 -7.049658e+04
-4.804471e+09 -4.603811e+09 -4.763923e+09 -3.472232e+05 2.096443e+04 -6.596679e+03
-4.140619e+09 -3.939790e+09 -4.099292e+09 -4.408619e+05 1.210346e+05 -6.455612e+04
-4.991698e+09 -4.790698e+09 -4.950625e+09 -2.588257e+05 -6.860289e+04 -5.606828e+03
-4.638631e+09 -4.437788e+09 -4.597926e+09 -2.583105e+05 9.073952e+04 1.182667e+04
-4.303532e+09 -4.102420e+09 -4.261886e+09 -4.031886e+05 7.881872e+04 -1.256013e+05
-2.670730e+09 -2.470619e+09 -2.630746e+09 -1.573148e+03 1.839571e+04 -5.835464e+03
-2.853686e+09 -2.653565e+09 -2.813699e+09 -9.714610e+02 9.776411e+03 -6.002371e+03
-4.301645e+09 -4.102617e+09 -4.261679e+09 8.191904e+04 1.371728e+04 -3.564639e+03
-4.020840e+09 -3.820701e+09 -3.980867e+09 -2.287619e+03 8.446557e+03 -4.341824e+03
-3.532746e+09 -3.332612e+09 -3.492767e+09 -2.684179e+03 4.541861e+03 -3.197138e+03
-2.706245e+09 -2.506134e+09 -2.666260e+09 -3.479636e+03 1.827482e+04 -6.876853e+03
-4.098829e+09 -3.898683e+09 -4.058852e+09 -3.911018e+03 7.958687e+03 -4.107069e+03
-2.177068e+09 -1.977116e+09 -2.137135e+09 9.798932e+02 9.095593e+01 6.568251e+02
-4.623083e+09 -4.423351e+09 -4.583397e+09 -4.524893e+04 1.066873e+03 1.528593e+04
-4.811693e+09 -4.612051e+09 -4.772068e+09 -4.392520e+04 -5.346798e+03 3.220904e+04
-4.646988e+09 -4.447374e+09 -4.607383e+09 -5.724850e+04 5.204417e+03 1.475269e+04
-4.125269e+09 -3.925592e+09 -4.085591e+09 -4.095443e+04 -4.715433e+03 3.481025e+04
-4.632557e+09 -4.434081e+09 -4.590164e+09 1.590690e+05 2.792185e+04 6.786346e+05
-4.145629e+09 -3.946868e+09 -4.103891e+09 -4.506876e+05 -8.270728e+04 4.504694e+05
-4.332148e+09 -4.132986e+09 -4.289709e+09 -7.010080e+05 -4.932031e+04 3.439524e+05
-4.842818e+09 -4.643767e+09 -4.799491e+09 -4.136383e+05 6.260173e+04 2.361067e+05
-4.832175e+09 -4.633334e+09 -4.790393e+09 -4.163244e+05 -1.932224e+05 1.710779e+05
-4.722427e+09 -4.522466e+09 -4.682491e+09 2.147237e+03 1.363827e+02 -4.326345e+02
-4.029280e+09 -3.829166e+09 -3.989313e+09 -7.806539e+03 5.329612e+03 -4.900346e+03
-4.807336e+09 -4.607206e+09 -4.767369e+09 -1.400008e+04 3.338415e+03 -4.896810e+03
-4.713529e+09 -4.513395e+09 -4.673561e+09 -6.352824e+03 2.337822e+03 2.251969e+02
-4.304572e+09 -4.104664e+09 -4.264771e+09 -9.693246e+04 -1.636549e+04 2.319328e+04
-4.481473e+09 -4.281528e+09 -4.441623e+09 -6.679484e+04 -9.632160e+03 1.425950e+04
-4.662349e+09 -4.462387e+09 -4.622517e+09 -9.546317e+04 -1.249326e+04 1.261851e+04
-4.477411e+09 -4.277465e+09 -4.437562e+09 -6.639789e+04 -1.101084e+04 1.345448e+04
-4.663178e+09 -4.463210e+09 -4.623321e+09 -7.157462e+04 -8.972342e+03 9.860909e+03
-4.136010e+09 -3.936032e+09 -4.096182e+09 -2.816060e+05 6.305200e+04 -6.175268e+04
-4.485689e+09 -4.285815e+09 -4.445996e+09 -2.550878e+05 3.230722e+04 -3.866993e+04
-4.824685e+09 -4.624662e+09 -4.784903e+09 -2.113424e+05 2.675967e+04 -1.800405e+04
-4.471185e+09 -4.271320e+09 -4.431447e+09 -1.970903e+05 2.643487e+04 -2.971215e+04
-4.822501e+09 -4.622482e+09 -4.782653e+09 -2.961375e+05 7.372024e+03 6.961060e+03
-4.138253e+09 -3.938197e+09 -4.098414e+09 -1.888088e+05 4.357005e+04 -2.229526e+04
-4.634480e+09 -4.434237e+09 -4.594503e+09 -1.188448e+03 9.958684e+03 1.752865e+03
-4.646381e+09 -4.446092e+09 -4.606421e+09 -3.145709e+04 1.376241e+04 2.322874e+03
-4.816445e+09 -4.616180e+09 -4.776480e+09 -2.506835e+04 1.956789e+04 -1.786923e+03
-4.260655e+09 -4.060429e+09 -4.220690e+09 -7.305217e+03 3.543906e+04 -6.311916e+03
-4.161317e+09 -3.961315e+09 -4.121431e+09 -6.188498e+04 -1.310476e+04 2.297932e+04
-4.664862e+09 -4.464855e+09 -4.624981e+09 -6.193457e+04 -9.075958e+03 6.464724e+03
-4.141798e+09 -3.941815e+09 -4.101899e+09 -4.068928e+04 -1.395347e+04 7.213389e+03
-4.677782e+09 -4.477801e+09 -4.637908e+09 -6.224270e+04 -9.161694e+03 8.712679e+03
-3.776637e+09 -3.576662e+09 -3.736692e+09 3.655459e+03 6.834341e+02 6.428933e+02
-3.519016e+09 -3.319044e+09 -3.479075e+09 7.168150e+03 7.154439e+02 1.015691e+03
-3.838700e+09 -3.638724e+09 -3.798756e+09 5.060190e+03 9.167719e+02 9.828045e+02
-3.947421e+09 -3.747451e+09 -3.907479e+09 4.408509e+03 9.178286e+02 1.118902e+03
-3.410531e+09 -3.210559e+09 -3.370587e+09 3.177521e+03 4.146632e+02 4.326062e+02
-3.207186e+09 -3.007214e+09 -3.167244e+09 6.911604e+03 7.653604e+02 1.271045e+03
-2.043545e+09 -1.843580e+09 -2.003605e+09 2.974614e+03 7.522501e+02 1.315619e+03
-2.672177e+09 -2.472203e+09 -2.632233e+09 3.709519e+03 3.429156e+02 4.264971e+02
-4.830014e+09 -4.630090e+09 -4.790134e+09 2.828309e+04 4.575693e+03 3.521980e+03
-4.636556e+09 -4.436636e+09 -4.596674e+09 2.058447e+04 6.541365e+02 4.668972e+03
-3.961584e+09 -3.761673e+09 -3.921709e+09 2.840601e+04 3.873040e+03 1.436344e+04
-4.127369e+09 -3.927460e+09 -4.087498e+09 2.614627e+04 2.296441e+03 1.291545e+04
-4.818104e+09 -4.618204e+09 -4.778251e+09 3.431213e+04 -7.544354e+02 4.698532e+03
-4.990696e+09 -4.790804e+09 -4.950860e+09 3.917185e+04 3.616787e+03 3.744338e+03
-4.313232e+09 -4.113313e+09 -4.273363e+09 3.188509e+04 5.976314e+03 1.108865e+04
-4.498098e+09 -4.298129e+09 -4.458169e+09 1.578118e+04 1.106241e+03 2.618740e+03
-4.679093e+09 -4.479130e+09 -4.639169e+09 1.596713e+04 1.235138e+03 2.633756e+03
-4.810386e+09 -4.610427e+09 -4.770459e+09 1.142215e+04 -8.322347e+02 1.609924e+03
-4.459656e+09 -4.259689e+09 -4.419722e+09 9.841253e+03 1.401490e+03 1.783229e+03
-4.297414e+09 -4.097451e+09 -4.257483e+09 1.269111e+04 1.847383e+03 1.484211e+03
-3.964474e+09 -3.764509e+09 -3.924545e+09 1.480977e+04 2.449228e+03 3.716232e+03
-4.827534e+09 -4.627639e+09 -4.787677e+09 -2.629118e+04 -4.227704e+03 5.426519e+03
-4.132785e+09 -3.932918e+09 -4.092958e+09 -2.716900e+04 -6.704354e+03 2.056486e+04
-3.961050e+09 -3.761165e+09 -3.921195e+09 -2.298772e+04 -2.867132e+03 1.704058e+04
-3.321330e+09 -3.121229e+09 -3.281380e+09 -3.469969e+04 2.577199e+04 -1.089062e+04
-4.307761e+09 -4.107889e+09 -4.267926e+09 -3.309777e+04 -6.026291e+03 1.652528e+04
-4.316026e+09 -4.116140e+09 -4.276186e+09 -2.998300e+04 -7.123239e+03 1.581667e+04
-4.160583e+09 -3.960773e+09 -4.120849e+09 -1.212285e+05 -2.649864e+04 3.469993e+04
-4.119071e+09 -3.919197e+09 -4.079305e+09 -1.383250e+05 -1.691007e+04 4.283507e+04
-4.482809e+09 -4.283081e+09 -4.443161e+09 -1.568000e+05 -2.050324e+04 4.938413e+04
-4.139627e+09 -3.939867e+09 -4.099928e+09 -1.719323e+05 -2.357531e+04 4.256036e+04
-3.973138e+09 -3.773273e+09 -3.933350e+09 -1.966162e+05 -4.186666e+04 5.077271e+04
-4.817451e+09 -4.617650e+09 -4.777744e+09 -2.009682e+05 -6.207757e+03 2.294618e+04
-4.302408e+09 -4.102566e+09 -4.262702e+09 -1.914320e+05 -2.813501e+04 4.072982e+04
-4.797513e+09 -4.597272e+09 -4.757580e+09 6.834891e+04 -8.255027e+03 -1.354632e+03
-4.552392e+09 -4.352214e+09 -4.512453e+09 3.032210e+04 -1.567124e+03 -2.164101e+03
-3.898325e+09 -3.698159e+09 -3.858394e+09 4.944701e+04 -2.874019e+04 -1.186545e+04
-4.272731e+09 -4.072481e+09 -4.232794e+09 5.520915e+04 -3.928500e+04 -1.917289e+04
-4.040829e+09 -3.840612e+09 -4.000885e+09 4.575133e+04 -2.849381e+04 -6.368027e+03
-3.085105e+09 -2.884926e+09 -3.045134e+09 -1.240742e+04 5.397157e+04 -9.725815e+03
-4.196312e+09 -3.996115e+09 -4.156362e+09 4.208748e+04 -3.195444e+04 -9.226622e+03
-4.479675e+09 -4.279599e+09 -4.439714e+09 -5.343075e+03 3.222369e+03 -2.021522e+03
-3.840235e+09 -3.640149e+09 -3.800270e+09 -7.827940e+03 7.558005e+03 -3.988729e+03
-4.788407e+09 -4.588315e+09 -4.748459e+09 -1.796450e+04 5.395805e+03 7.473141e+01
-3.886278e+09 -3.686189e+09 -3.846315e+09 -9.002166e+03 9.684116e+03 -5.015549e+03
-4.759297e+09 -4.559197e+09 -4.719340e+09 -1.304895e+04 3.080001e+03 -3.428034e+03
-4.369848e+09 -4.169771e+09 -4.329900e+09 -1.006278e+04 7.130666e+03 -3.067369e+03
-4.658649e+09 -4.458569e+09 -4.618689e+09 -6.489244e+03 4.303969e+03 -3.086812e+02
-3.761286e+09 -3.561210e+09 -3.721369e+09 2.618079e+04 -2.368766e+04 -1.028727e+04
-4.310152e+09 -4.109737e+09 -4.270153e+09 -3.023479e+04 7.026199e+04 -8.903692e+03
-4.307344e+09 -4.106883e+09 -4.267290e+09 -7.729204e+03 6.839358e+04 -2.406599e+03
-4.651868e+09 -4.451450e+09 -4.611865e+09 1.855535e+04 8.696717e+03 5.100992e+03
-4.137425e+09 -3.936992e+09 -4.097408e+09 1.014996e+04 7.419453e+04 1.118781e+04
-4.654475e+09 -4.454410e+09 -4.614626e+09 -2.213873e+05 2.022789e+04 -1.539206e+04
-4.137005e+09 -3.936916e+09 -4.097156e+09 -2.151242e+05 6.610012e+04 -4.674547e+04
-4.639648e+09 -4.439524e+09 -4.599784e+09 -1.544463e+05 2.318955e+04 -1.504805e+04
-4.823472e+09 -4.623361e+09 -4.783633e+09 -2.133586e+05 1.081443e+04 -9.358575e+03
-4.308998e+09 -4.108923e+09 -4.269176e+09 -2.839093e+05 5.610010e+04 -3.515814e+04
-4.309499e+09 -4.109295e+09 -4.269482e+09 -3.948704e+05 2.734173e+04 -2.241984e+04
-4.142525e+09 -3.942586e+09 -4.102693e+09 -2.369314e+05 3.127809e+04 -1.858287e+03
-3.965082e+09 -3.765093e+09 -3.925300e+09 -2.327429e+05 2.000814e+04 -2.454621e+04
-4.821291e+09 -4.621166e+09 -4.781373e+09 -3.082595e+05 2.534589e+04 -3.062983e+04
-4.652246e+09 -4.452171e+09 -4.612458e+09 -2.832918e+05 2.521609e+03 -1.010082e+04
-4.641261e+09 -4.441364e+09 -4.601461e+09 -3.600491e+05 -3.020868e+04 -7.169899e+03
-4.992660e+09 -4.792636e+09 -4.952797e+09 -8.903112e+04 -3.115752e+03 7.107818e+03
-4.809726e+09 -4.609702e+09 -4.769853e+09 -7.967351e+04 -8.833238e+03 -1.312737e+03
-4.134206e+09 -3.934239e+09 -4.094344e+09 -6.899846e+04 -1.080768e+04 2.443574e+04
-4.686775e+09 -4.486619e+09 -4.646834e+09 2.411278e+04 -3.944977e+03 -3.160681e+03
-4.836418e+09 -4.636443e+09 -4.796553e+09 -6.695988e+04 -9.624929e+02 1.322788e+04
-5.006411e+09 -4.806423e+09 -4.966545e+09 -6.678179e+04 -4.109593e+02 3.880422e+03
-4.491245e+09 -4.291074e+09 -4.451325e+09 -1.048422e+05 -2.849995e+04 1.883718e+04
-3.975585e+09 -3.775587e+09 -3.935690e+09 -5.196219e+04 -1.692742e+04 1.517879e+04
-4.135898e+09 -3.935894e+09 -4.096003e+09 -5.260764e+04 -1.792118e+04 9.825856e+03
-4.838995e+09 -4.638772e+09 -4.799058e+09 -5.422899e+04 -1.689584e+04 7.458536e+03
-4.818989e+09 -4.618713e+09 -4.779042e+09 -3.860837e+04 -1.912559e+04 1.019872e+04
-2.600233e+09 -2.400131e+09 -2.560258e+09 2.392640e+03 -5.083614e+03 -1.538278e+04
-3.425329e+09 -3.225238e+09 -3.385354e+09 -1.100843e+03 2.935612e+03 -6.417757e+03
-2.446072e+09 -2.245999e+09 -2.406089e+09 -1.841113e+03 6.687407e+03 -4.762776e+03
-1.834619e+09 -1.634548e+09 -1.794630e+09 -2.933943e+03 5.034995e+03 -6.045077e+03
-3.870048e+09 -3.669971e+09 -3.830104e+09 2.765368e+03 -1.792964e+03 -4.541747e+03
-3.340411e+09 -3.140333e+09 -3.300440e+09 -2.436510e+03 3.021653e+03 -3.717014e+03
-1.885196e+09 -1.685124e+09 -1.845209e+09 -9.681615e+01 6.827072e+03 -3.960082e+03
-2.862856e+09 -2.662769e+09 -2.822877e+09 -3.349629e+03 4.326683e+03 -5.865956e+03
-4.449711e+09 -4.249598e+09 -4.409771e+09 5.383367e+03 -1.989408e+03 -5.360104e+03
-2.581682e+09 -2.381602e+09 -2.541698e+09 -6.176045e+02 3.151552e+03 -6.035582e+03
-4.463420e+09 -4.264349e+09 -4.423879e+09 -4.713057e+04 -2.447766e+04 -7.942256e+03
-4.843087e+09 -4.644121e+09 -4.803407e+09 1.505155e+05 -2.457872e+04 -5.659681e+04
-4.500854e+09 -4.301669e+09 -4.461384e+09 2.121054e+05 -1.362535e+04 -1.311293e+04
-4.468328e+09 -4.269063e+09 -4.428753e+09 1.574709e+05 -7.409994e+03 -5.035601e+02
-4.977476e+09 -4.778411e+09 -4.938073e+09 -5.283250e+03 1.108950e+04 -5.847544e+04
-4.166134e+09 -3.966838e+09 -4.126699e+09 3.325092e+04 -1.378143e+04 -7.073579e+04
-3.861532e+09 -3.662256e+09 -3.822029e+09 1.101910e+05 5.210009e+03 -1.328852e+04
-3.180792e+09 -2.980780e+09 -3.140841e+09 8.755873e+03 3.560779e+03 5.191466e+03
-3.673910e+09 -3.473892e+09 -3.633960e+09 1.462615e+04 5.257085e+03 4.614076e+03
-4.029700e+09 -3.829676e+09 -3.989747e+09 8.324843e+03 1.685779e+03 2.977365e+03
-3.033498e+09 -2.833477e+09 -2.993544e+09 1.221646e+04 7.887601e+03 9.146236e+03
-3.892090e+09 -3.692068e+09 -3.852139e+09 1.272802e+04 5.115368e+03 1.835277e+03
-1.699497e+09 -1.499480e+09 -1.659522e+09 -4.129198e+03 7.570311e+04 -3.812998e+04
-4.828208e+09 -4.628245e+09 -4.788281e+09 -1.424536e+04 -1.659317e+02 3.337885e+03
-4.858573e+09 -4.658620e+09 -4.818665e+09 -2.221521e+04 -1.507499e+03 3.570026e+03
-5.007103e+09 -4.807144e+09 -4.967193e+09 -2.250737e+04 -5.012412e+01 1.081695e+03
-4.484976e+09 -4.285014e+09 -4.445054e+09 -1.570985e+04 -2.635486e+03 2.701611e+03
-4.085438e+09 -3.885471e+09 -4.045510e+09 -1.316387e+04 -7.126938e+02 4.088996e+03
-4.136802e+09 -3.936852e+09 -4.097003e+09 -2.647386e+05 -5.718147e+04 4.942873e+04
-4.654683e+09 -4.454714e+09 -4.614911e+09 -1.865134e+05 -1.757481e+04 1.050745e+04
-4.799116e+09 -4.599018e+09 -4.759257e+09 -2.327784e+05 -2.100850e+04 4.170021e+03
-3.959281e+09 -3.759169e+09 -3.919404e+09 -1.966728e+05 -3.937133e+04 2.296264e+04
-4.818855e+09 -4.618760e+09 -4.778994e+09 -1.607066e+05 -4.783139e+03 -3.066301e+03
-4.809623e+09 -4.609437e+09 -4.769747e+09 -3.082369e+05 -3.619135e+04 3.220010e+04
-4.123196e+09 -3.923035e+09 -4.083273e+09 -2.752186e+05 -1.428663e+04 9.041438e+03
-4.964486e+09 -4.764380e+09 -4.924532e+09 1.741078e+04 4.572123e+03 2.957790e+03
-4.476005e+09 -4.276815e+09 -4.436393e+09 1.678074e+04 8.838241e+03 3.073534e+04
-4.774578e+09 -4.575300e+09 -4.735077e+09 -2.305947e+04 2.395957e+03 6.974538e+04
-4.798318e+09 -4.597167e+09 -4.756413e+09 -3.714302e+05 -2.393377e+05 -8.366176e+04
-4.994402e+09 -4.793381e+09 -4.951839e+09 -4.688454e+05 -3.667539e+04 1.496449e+04
-4.823609e+09 -4.622641e+09 -4.779806e+09 -4.977057e+05 -4.764837e+05 -1.341458e+05
-4.303142e+09 -4.102102e+09 -4.257880e+09 -4.545419e+05 -6.318335e+05 2.725660e+04
-4.136963e+09 -3.936148e+09 -4.093451e+09 -6.157023e+05 -5.134918e+05 6.829130e+05
-2.096161e+09 -1.896050e+09 -2.056156e+09 2.713967e+02 1.845093e+04 -4.006282e+03
-2.618856e+09 -2.418744e+09 -2.578873e+09 -6.642566e+02 2.143851e+04 -1.241674e+03
-3.112676e+09 -2.912548e+09 -3.072687e+09 -3.127855e+03 1.221735e+04 -5.104870e+03
-3.024483e+09 -2.824361e+09 -2.984495e+09 -5.593045e+02 8.678291e+03 -5.313140e+03
-3.100322e+09 -2.900200e+09 -3.060334e+09 -2.767971e+03 8.824394e+03 -5.435584e+03
-2.597655e+09 -2.397550e+09 -2.557664e+09 -1.106158e+03 2.750194e+03 -6.260762e+03
-4.166195e+09 -3.966192e+09 -4.126251e+09 1.463954e+04 3.324173e+03 3.083636e+03
-4.127094e+09 -3.927093e+09 -4.087157e+09 2.128013e+04 2.763554e+03 7.021296e+03
-4.613316e+09 -4.413324e+09 -4.573377e+09 1.629877e+04 1.881103e+03 1.713319e+03
-4.791735e+09 -4.591742e+09 -4.751793e+09 1.250974e+04 1.178234e+03 7.673542e+02
-4.634809e+09 -4.434815e+09 -4.594874e+09 2.136785e+04 3.302297e+03 2.643271e+03
-4.516788e+09 -4.316634e+09 -4.476862e+09 3.876577e+04 -1.236556e+04 -6.006304e+03
-4.040279e+09 -3.840021e+09 -4.000315e+09 3.077287e+04 -3.253264e+04 -6.780035e+03
-4.205774e+09 -4.005534e+09 -4.165807e+09 3.131630e+04 -3.381951e+04 -5.844470e+03
-4.615960e+09 -4.415708e+09 -4.576027e+09 5.811041e+04 -1.430842e+04 -3.322165e+03
-4.282876e+09 -4.082574e+09 -4.242923e+09 4.207301e+04 -5.660336e+04 -1.711941e+04
-4.809026e+09 -4.608724e+09 -4.769069e+09 5.302119e+04 -7.258078e+03 -2.103450e+03
-2.084265e+09 -1.884337e+09 -2.044368e+09 5.111618e+04 -7.732236e+04 -3.760453e+04
-2.857419e+09 -2.657666e+09 -2.817751e+09 7.398706e+04 -8.213145e+04 -8.320604e+04
-3.246768e+09 -3.047048e+09 -3.206946e+09 1.486858e+05 -1.018830e+05 -6.895473e+04
-3.593246e+09 -3.393498e+09 -3.553594e+09 6.358558e+04 -4.003465e+04 -1.039088e+03
-4.476149e+09 -4.276411e+09 -4.436525e+09 1.646516e+05 -1.571099e+04 -1.299411e+04
-4.000676e+09 -3.800959e+09 -3.961058e+09 1.587660e+05 -5.283788e+04 -6.066938e+04
-2.503128e+09 -2.303227e+09 -2.463309e+09 7.043144e+04 -8.627776e+04 -8.285609e+04
-3.670330e+09 -3.470694e+09 -3.630721e+09 1.308486e+05 -4.057704e+04 -3.236016e+04
-1.681937e+09 -1.481989e+09 -1.642005e+09 1.416947e+03 -5.852807e+04 -3.469361e+04
-2.519595e+09 -2.319814e+09 -2.479852e+09 2.519033e+04 -6.273763e+04 -7.534595e+04
-1.759319e+09 -1.559414e+09 -1.719333e+09 -7.320987e+03 -6.114237e+04 -5.081686e+04
-2.712588e+09 -2.512768e+09 -2.672827e+09 3.477427e+04 -6.070672e+04 -3.494350e+04
-3.342187e+09 -3.142023e+09 -3.302215e+09 -2.143296e+04 5.205551e+04 -1.086059e+04
-3.481072e+09 -3.280922e+09 -3.441096e+09 -5.474513e+03 3.420186e+04 -2.227937e+03
-3.909894e+09 -3.709726e+09 -3.869937e+09 -2.058962e+04 2.761859e+04 -6.684985e+03
-2.420454e+09 -2.220405e+09 -2.380525e+09 -4.985768e+04 6.215983e+04 -4.867693e+04
-4.100895e+09 -3.900735e+09 -4.060931e+09 -1.393733e+04 1.725972e+04 -6.421699e+03
-3.796944e+09 -3.596791e+09 -3.756974e+09 -4.287702e+03 1.600501e+04 -1.984195e+03
-4.019615e+09 -3.819579e+09 -3.979676e+09 2.662941e+04 8.403722e+03 4.282810e+03
-4.053589e+09 -3.853521e+09 -4.013647e+09 3.180661e+04 1.339556e+04 6.567786e+03
-4.797191e+09 -4.597140e+09 -4.757251e+09 2.970904e+04 2.779979e+03 5.793257e+03
-4.462616e+09 -4.262565e+09 -4.422686e+09 4.037521e+04 8.818144e+03 6.290220e+03
-4.119394e+09 -3.919337e+09 -4.079464e+09 3.922565e+04 1.009709e+04 1.218049e+04
-4.126734e+09 -3.926860e+09 -4.086890e+09 1.688447e+04 1.303973e+02 1.550067e+04
-4.297550e+09 -4.097702e+09 -4.257739e+09 1.895275e+04 3.502199e+03 2.120609e+04
-4.807710e+09 -4.607850e+09 -4.767883e+09 1.201586e+04 -3.635012e+03 1.029282e+04
-4.813188e+09 -4.613324e+09 -4.773357e+09 1.710015e+04 3.410122e+03 7.157837e+03
-2.014743e+09 -1.814822e+09 -1.974879e+09 -2.803903e+04 6.788657e+04 -3.044086e+04
-3.251635e+09 -3.051527e+09 -3.211704e+09 4.349797e+04 -4.204136e+04 -2.362989e+04
-3.111206e+09 -2.911245e+09 -3.071378e+09 -6.500006e+04 7.836455e+04 -4.725326e+04
-2.059408e+09 -1.859421e+09 -2.019491e+09 -1.563456e+04 6.448885e+04 -2.291189e+04
-2.295936e+09 -2.095949e+09 -2.256050e+09 -5.384923e+04 7.494911e+04 -3.526336e+04
-2.863462e+09 -2.663499e+09 -2.823595e+09 -1.018102e+05 5.403067e+04 -6.199869e+04
-1.840867e+09 -1.640938e+09 -1.800980e+09 -1.613217e+04 7.234843e+04 -3.129758e+04
-4.845899e+09 -4.645356e+09 -4.798952e+09 4.175381e+05 2.293398e+05 6.450275e+05
-4.819496e+09 -4.618611e+09 -4.775646e+09 5.279625e+05 4.347782e+05 -1.447155e+05
-4.303753e+09 -4.103278e+09 -4.260841e+09 5.263136e+05 4.337306e+05 2.534835e+05
-4.831090e+09 -4.630880e+09 -4.787466e+09 6.610004e+05 1.007422e+05 4.935987e+05
-4.681315e+09 -4.480694e+09 -4.633464e+09 6.056901e+05 6.313110e+05 4.543785e+05
-4.144664e+09 -3.944241e+09 -4.100985e+09 6.893594e+05 8.345539e+05 1.172442e+05
-4.152412e+09 -3.952304e+09 -4.105783e+09 5.999148e+05 6.236338e+05 1.473047e+06
-4.464078e+09 -4.264188e+09 -4.424281e+09 8.861043e+04 1.277358e+04 2.278058e+04
-4.447525e+09 -4.247950e+09 -4.407931e+09 9.547844e+04 1.288874e+04 2.704226e+04
-4.792258e+09 -4.592493e+09 -4.752538e+09 6.313995e+04 1.908620e+03 1.492389e+04
-4.113536e+09 -3.913795e+09 -4.073828e+09 7.741975e+04 9.940183e+03 3.052499e+04
-4.133782e+09 -3.933991e+09 -4.094063e+09 1.109999e+05 2.348890e+04 4.706267e+04
-4.102623e+09 -3.902918e+09 -4.062962e+09 1.042637e+05 2.023311e+04 6.482672e+04
-4.286367e+09 -4.086631e+09 -4.246678e+09 1.221333e+05 1.839256e+04 5.003187e+04
-4.661080e+09 -4.460949e+09 -4.619360e+09 -6.992186e+05 1.820933e+05 -1.551216e+05
-4.465102e+09 -4.265247e+09 -4.424352e+09 -6.161774e+05 -4.389723e+04 -1.164592e+05
-4.810030e+09 -4.610215e+09 -4.769784e+09 -5.369610e+05 -4.646719e+04 3.135132e+04
-4.466751e+09 -4.267085e+09 -4.426263e+09 -5.304470e+05 4.238644e+04 -4.740828e+03
-4.292666e+09 -4.092909e+09 -4.252135e+09 -5.887846e+05 1.029031e+05 -2.205500e+05
-4.311196e+09 -4.111307e+09 -4.271338e+09 1.576937e+04 2.673618e+03 1.076753e+04
-4.797298e+09 -4.597396e+09 -4.757419e+09 9.104681e+03 1.481528e+02 3.341435e+03
-4.133775e+09 -3.933882e+09 -4.093912e+09 1.842942e+04 3.776543e+03 1.314362e+04
-4.135254e+09 -3.935361e+09 -4.095383e+09 7.428795e+03 4.343965e+03 8.573111e+03
-4.592908e+09 -4.392998e+09 -4.553015e+09 5.138806e+03 1.919443e+02 1.674037e+03
-4.474591e+09 -4.274722e+09 -4.434751e+09 5.237353e+03 4.622132e+02 1.114562e+04
-4.502514e+09 -4.302587e+09 -4.462637e+09 -3.743692e+04 -5.078384e+03 9.399338e+03
-5.011385e+09 -4.811442e+09 -4.971502e+09 -3.113115e+04 -1.962362e+03 4.187254e+02
-4.159287e+09 -3.959358e+09 -4.119417e+09 -3.960949e+04 -3.584036e+03 1.486342e+04
-4.502218e+09 -4.302275e+09 -4.462342e+09 -4.513887e+04 -7.065316e+03 9.913982e+03
-4.168106e+09 -3.968159e+09 -4.128213e+09 -3.244923e+04 -2.326126e+03 1.183688e+04
-4.511347e+09 -4.311397e+09 -4.471457e+09 -3.412453e+04 -4.740109e+03 6.940859e+03
-4.158990e+09 -3.959055e+09 -4.119119e+09 -4.513364e+04 -1.303877e+04 9.874935e+03
-4.103336e+09 -3.903361e+09 -4.063412e+09 -1.921947e+04 -1.766052e+03 6.898271e+03
-4.251583e+09 -4.051594e+09 -4.211669e+09 -2.836744e+04 -5.214843e+03 7.097230e+03
-4.226313e+09 -4.026332e+09 -4.186378e+09 -1.029174e+04 -1.682333e+03 2.244961e+03
-4.000532e+09 -3.800540e+09 -3.960611e+09 -2.614592e+04 -9.862551e+03 5.125030e+03
-4.191068e+09 -3.991072e+09 -4.151142e+09 -2.405607e+04 -5.449096e+03 6.175742e+03
-3.810350e+09 -3.610366e+09 -3.770404e+09 7.448311e+03 9.740822e+02 1.079857e+03
-4.614125e+09 -4.414130e+09 -4.574186e+09 1.348492e+04 7.589874e+02 3.174718e+03
-3.441999e+09 -3.242009e+09 -3.402051e+09 1.004726e+04 2.470156e+03 2.349235e+03
-3.960906e+09 -3.760967e+09 -3.921081e+09 -9.319945e+04 -2.368813e+04 2.838194e+04
-4.305050e+09 -4.105131e+09 -4.265275e+09 -1.399692e+05 -2.307157e+04 2.980262e+04
-3.963398e+09 -3.763427e+09 -3.923579e+09 -1.241940e+05 -3.174065e+04 3.021810e+04
-3.976689e+09 -3.776698e+09 -3.936828e+09 -8.291330e+04 -2.397449e+04 2.310331e+04
-4.148675e+09 -3.948680e+09 -4.108815e+09 -8.597149e+04 -2.716599e+04 1.629695e+04
-4.993129e+09 -4.793160e+09 -4.953301e+09 -1.030914e+05 -3.503636e+03 6.625654e+03
-4.819859e+09 -4.619906e+09 -4.780038e+09 -1.009411e+05 -2.773203e+03 1.750722e+04
-4.993359e+09 -4.793344e+09 -4.953527e+09 -1.386607e+05 -8.109629e+03 1.137652e+04
-4.983343e+09 -4.783125e+09 -4.943369e+09 2.563183e+03 1.018489e+04 -1.461646e+03
-4.308413e+09 -4.108379e+09 -4.268565e+09 -1.904335e+05 -3.925626e+04 4.078711e+04
-4.815692e+09 -4.615736e+09 -4.775851e+09 8.447344e+04 2.984189e+03 1.670930e+04
-4.642342e+09 -4.442383e+09 -4.602491e+09 7.754674e+04 1.058014e+04 1.022664e+04
-4.129228e+09 -3.929279e+09 -4.089383e+09 7.897575e+04 2.011286e+04 1.394373e+04
-4.293624e+09 -4.093644e+09 -4.253789e+09 1.090154e+05 1.982408e+04 2.096363e+04
-3.944558e+09 -3.744637e+09 -3.904649e+09 4.575958e+02 2.797099e+02 1.616206e+03
-3.444998e+09 -3.245078e+09 -3.405088e+09 5.801979e+02 -1.782521e+02 1.365446e+03
-3.560241e+09 -3.360321e+09 -3.520336e+09 2.695946e+03 1.950612e+02 4.945842e+03
-2.782492e+09 -2.582575e+09 -2.742584e+09 3.015066e+03 -1.249488e+03 7.129962e+03
-3.736104e+09 -3.536183e+09 -3.696195e+09 1.336025e+03 2.653016e+02 2.041578e+03
-4.181007e+09 -3.981066e+09 -4.141088e+09 9.011855e+03 8.548933e+02 2.502563e+03
-4.027208e+09 -3.827271e+09 -3.987296e+09 1.105138e+04 7.986071e+02 4.337287e+03
-4.777232e+09 -4.577284e+09 -4.737312e+09 1.077278e+04 1.244295e+03 9.083278e+02
-4.274162e+09 -4.074216e+09 -4.234246e+09 1.251762e+04 1.901167e+03 2.665348e+03
-4.293671e+09 -4.093730e+09 -4.253758e+09 1.587754e+04 2.088849e+03 4.010711e+03
-1.789030e+09 -1.589056e+09 -1.749105e+09 -1.135044e+04 6.556650e+04 -2.026643e+04
-2.298973e+09 -2.098932e+09 -2.259046e+09 -4.102747e+04 6.218545e+04 -3.093286e+04
-3.170550e+09 -2.970533e+09 -3.130679e+09 -5.081101e+04 6.018744e+04 -3.126009e+04
-2.957910e+09 -2.757906e+09 -2.918042e+09 -7.075203e+04 7.870118e+04 -4.359506e+04
-2.783662e+09 -2.583638e+09 -2.743776e+09 -4.970509e+04 5.516280e+04 -2.558180e+04
-4.816125e+09 -4.615795e+09 -4.776160e+09 -6.068981e+04 3.593761e+04 -6.709370e+03
-4.472902e+09 -4.272597e+09 -4.432930e+09 -5.272943e+04 4.154069e+04 -1.158149e+04
-4.132258e+09 -3.931948e+09 -4.092281e+09 -7.030053e+03 5.860493e+04 -2.354742e+03
-4.996801e+09 -4.796437e+09 -4.956825e+09 -1.604525e+04 2.665268e+04 -6.035347e+03
-4.138011e+09 -3.937719e+09 -4.098039e+09 -3.600109e+04 5.482392e+04 -1.063331e+04
-4.481655e+09 -4.281753e+09 -4.441773e+09 1.239974e+04 1.136497e+03 6.081153e+03
-4.654429e+09 -4.454541e+09 -4.614573e+09 1.585502e+04 3.464975e+02 6.346577e+03
-4.129510e+09 -3.929621e+09 -4.089655e+09 2.288424e+04 2.869078e+03 1.504602e+04
-4.121252e+09 -3.921386e+09 -4.081415e+09 7.806128e+03 6.173760e+03 1.395207e+04
-4.983633e+09 -4.783765e+09 -4.943805e+09 1.519078e+04 3.895358e+03 7.011681e+03
-4.129800e+09 -3.929925e+09 -4.089964e+09 2.962482e+04 7.472604e+03 1.999399e+04
-4.134542e+09 -3.934687e+09 -4.094723e+09 2.320998e+04 4.693835e+03 2.332646e+04
-4.821010e+09 -4.621155e+09 -4.781193e+09 2.351682e+04 3.324062e+02 4.580033e+03
-3.977679e+09 -3.777684e+09 -3.937771e+09 4.721452e+04 1.359392e+04 1.148596e+04
-4.990576e+09 -4.790592e+09 -4.950692e+09 5.482237e+04 2.568660e+02 2.266996e+03
-4.298252e+09 -4.098286e+09 -4.258381e+09 5.953374e+04 9.977883e+03 1.355172e+04
-4.820908e+09 -4.620895e+09 -4.780998e+09 4.516001e+04 5.789985e+03 -1.515151e+03
-4.321127e+09 -4.121124e+09 -4.281219e+09 4.575733e+04 9.197394e+03 8.698243e+03
-4.320916e+09 -4.120930e+09 -4.280997e+09 3.462106e+04 6.689728e+03 4.776420e+03
-4.669441e+09 -4.469441e+09 -4.629523e+09 3.450226e+04 5.139764e+03 4.395803e+03
-4.491386e+09 -4.291394e+09 -4.451467e+09 3.274111e+04 5.554530e+03 5.461423e+03
-4.664151e+09 -4.464165e+09 -4.624240e+09 3.742461e+04 2.979418e+03 7.095354e+03
-2.648917e+09 -2.448990e+09 -2.609001e+09 -3.657136e+03 -1.813293e+03 5.187987e+03
-2.200187e+09 -2.000261e+09 -2.160268e+09 -1.750079e+03 -5.396614e+02 3.913641e+03
-2.667943e+09 -2.468017e+09 -2.628026e+09 -5.887625e+02 -6.459153e+02 6.190212e+02
-3.005866e+09 -2.805939e+09 -2.965949e+09 -7.330761e+02 -8.754015e+02 1.937715e+03
-3.073713e+09 -2.873784e+09 -3.033795e+09 -1.782846e+03 -1.179605e+03 1.725722e+03
-1.695063e+09 -1.495133e+09 -1.655143e+09 -1.512549e+03 -7.821188e+02 1.583431e+03
-1.942735e+09 -1.742804e+09 -1.902814e+09 -1.177197e+03 -8.228513e+00 1.561718e+03
-3.238994e+09 -3.038930e+09 -3.199049e+09 -1.979519e+04 2.601155e+04 -7.696038e+03
-3.718365e+09 -3.518302e+09 -3.678436e+09 -2.010920e+04 1.999528e+04 -7.008485e+03
-3.355700e+09 -3.155646e+09 -3.315795e+09 -3.363574e+04 4.148843e+04 -2.231604e+04
-3.121706e+09 -2.921653e+09 -3.081770e+09 -1.682688e+04 3.345168e+04 -1.085435e+04
-3.719711e+09 -3.519685e+09 -3.679863e+09 -5.692828e+04 3.700656e+04 -1.699033e+04
-3.467772e+09 -3.267697e+09 -3.427845e+09 -3.813149e+04 4.127454e+04 -2.322222e+04
-3.618715e+09 -3.418763e+09 -3.578785e+09 9.693955e+02 5.647194e+01 6.947221e+02
-4.665987e+09 -4.465854e+09 -4.621921e+09 -7.151344e+05 -2.631076e+05 3.643310e+05
-4.304073e+09 -4.103429e+09 -4.255376e+09 -5.901578e+05 -1.070990e+06 3.823222e+05
-4.827088e+09 -4.626856e+09 -4.780649e+09 -4.857734e+05 -5.778257e+05 -1.460292e+05
-4.326275e+09 -4.126543e+09 -4.281745e+09 -3.287370e+05 -6.048499e+05 5.950736e+05
-4.131307e+09 -3.929821e+09 -4.087580e+09 -3.537203e+05 -1.050734e+06 -1.209611e+05
-4.140362e+09 -3.940402e+09 -4.094095e+09 -7.125576e+05 -7.159787e+05 1.403953e+06
-4.540472e+09 -4.340454e+09 -4.500544e+09 -1.151095e+04 -1.519744e+03 4.171586e+03
-4.397499e+09 -4.197494e+09 -4.357661e+09 -1.033831e+04 1.970943e+04 -4.555537e+02
-4.118346e+09 -3.918305e+09 -4.078470e+09 -3.374675e+04 2.492153e+04 -9.518160e+03
-3.151707e+09 -2.951667e+09 -3.111801e+09 -3.512513e+04 4.738968e+04 -2.129094e+04
-3.805122e+09 -3.605554e+09 -3.765631e+09 2.004952e+04 -3.384830e+04 -1.859994e+03
-4.186798e+09 -3.986763e+09 -4.146942e+09 -5.410919e+04 2.326583e+04 -1.144014e+04
-3.725835e+09 -3.525863e+09 -3.686046e+09 -7.308484e+04 3.925336e+04 -1.898692e+04
-3.338315e+09 -3.138324e+09 -3.298487e+09 -7.166555e+04 6.278590e+04 -4.145602e+04
-4.957720e+09 -4.757629e+09 -4.917793e+09 1.558890e+04 -4.077456e+03 -2.495187e+03
-2.882937e+09 -2.683108e+09 -2.843163e+09 6.966500e+03 -5.476328e+04 1.617430e+03
-2.726544e+09 -2.526597e+09 -2.686700e+09 2.526005e+04 -6.283143e+04 -2.082861e+04
-4.600424e+09 -4.401105e+09 -4.560765e+09 -9.253033e+04 8.899984e+03 1.952696e+04
-4.257159e+09 -4.057899e+09 -4.217501e+09 -6.213097e+04 1.272232e+04 5.231380e+04
-4.994351e+09 -4.795058e+09 -4.954875e+09 1.389222e+03 -1.745653e+04 4.689427e+04
-2.693586e+09 -2.493509e+09 -2.653619e+09 1.492923e+03 -4.144044e+03 -1.036463e+04
-2.289799e+09 -2.090250e+09 -2.250090e+09 -8.540426e+04 4.511956e+04 -6.080024e+04
-4.821769e+09 -4.622390e+09 -4.782203e+09 -1.281210e+05 -3.984972e+03 6.958181e+04
-4.135306e+09 -3.935920e+09 -4.095733e+09 -1.313142e+05 -1.193677e+04 -7.275430e+03
-3.913878e+09 -3.714490e+09 -3.874332e+09 -9.477595e+04 9.737634e+03 2.258529e+04
-4.471759e+09 -4.271899e+09 -4.431936e+09 5.421822e+03 1.015362e+03 1.466961e+04
-4.663129e+09 -4.463260e+09 -4.623285e+09 -4.512317e+03 8.181991e+01 8.443206e+03
-4.621658e+09 -4.421767e+09 -4.581785e+09 1.181015e+03 -1.633782e+03 3.856781e+03
-4.786765e+09 -4.586860e+09 -4.746880e+09 5.313261e+03 2.236962e+03 2.807848e+03
-2.305247e+09 -2.105174e+09 -2.265281e+09 -2.398578e+04 5.022563e+04 -2.590235e+04
-4.468378e+09 -4.268491e+09 -4.428519e+09 5.062221e+03 1.681217e+03 9.013213e+03
-4.987951e+09 -4.788070e+09 -4.948098e+09 4.404819e+03 1.432243e+02 5.186922e+03
-4.464485e+09 -4.264624e+09 -4.424663e+09 9.596952e+03 9.277432e+02 1.469225e+04
-4.990898e+09 -4.791053e+09 -4.951082e+09 2.676208e+03 -9.363610e+02 8.304605e+03
-4.114394e+09 -3.914499e+09 -4.074517e+09 1.636667e+03 6.565205e+02 9.793617e+03
-3.958258e+09 -3.758366e+09 -3.918395e+09 7.907826e+02 1.670331e+03 1.313284e+04
-3.426476e+09 -3.226739e+09 -3.386843e+09 -4.392197e+04 4.696327e+04 -1.233695e+04
-3.152302e+09 -2.952140e+09 -3.112325e+09 6.726779e+03 5.109287e+04 1.325386e+04
-4.168354e+09 -3.968107e+09 -4.128430e+09 -1.291439e+05 4.514339e+04 -1.204968e+04
-2.570234e+09 -2.370134e+09 -2.530257e+09 6.575757e+03 2.126487e+04 6.504483e+03
-3.354189e+09 -3.154225e+09 -3.314250e+09 7.836987e+02 8.738175e+02 3.239117e+02
-3.393967e+09 -3.194447e+09 -3.354463e+09 4.273068e+03 -7.749267e+03 4.785452e+03
-3.476479e+09 -3.276306e+09 -3.436507e+09 2.400063e+04 3.836747e+04 7.689418e+03
-2.760568e+09 -2.560444e+09 -2.720590e+09 1.218665e+04 4.397212e+04 4.675490e+03
-2.866913e+09 -2.666968e+09 -2.826985e+09 -1.731454e+03 -8.878345e+02 7.143584e+02
-1.673929e+09 -1.473952e+09 -1.633984e+09 -8.220769e+03 -6.676197e+03 7.191179e+03
-2.796170e+09 -2.596059e+09 -2.756189e+09 1.568380e+04 2.669717e+04 8.286905e+03
-3.985681e+09 -3.785726e+09 -3.945773e+09 -2.149907e+04 -2.566739e+03 5.822458e+03
-3.037553e+09 -2.837433e+09 -2.997587e+09 2.014480e+04 4.034430e+04 1.094911e+04
-2.140545e+09 -1.940436e+09 -2.100553e+09 6.074353e+03 3.434290e+04 1.114810e+04
-2.241678e+09 -2.041559e+09 -2.201680e+09 9.249000e+03 4.281744e+04 4.837888e+03
-1.589023e+09 -1.389028e+09 -1.549068e+09 4.754091e+03 2.734785e+03 2.107362e+03
-4.607803e+09 -4.407582e+09 -4.567844e+09 -2.345804e+04 1.191205e+04 -6.323928e+02
-3.976125e+09 -3.775914e+09 -3.936159e+09 -4.307911e+04 3.504652e+04 -4.247937e+03
-4.303426e+09 -4.103140e+09 -4.263448e+09 -4.966671e+04 4.647524e+04 -1.245401e+04
-3.964851e+09 -3.764610e+09 -3.924871e+09 -2.500699e+04 3.731646e+04 -1.212135e+03
-4.303145e+09 -4.102857e+09 -4.263178e+09 -3.237768e+04 5.257130e+04 -1.439955e+04
-3.723269e+09 -3.523892e+09 -3.683782e+09 -9.563913e+02 2.410578e+03 -1.090905e+03
-4.781221e+09 -4.581945e+09 -4.741902e+09 3.638508e+04 -9.906840e+03 -2.016782e+04
-1.886060e+09 -1.686084e+09 -1.846114e+09 6.565513e+02 -1.012463e+02 1.707822e+00
-4.811668e+09 -4.612427e+09 -4.772261e+09 2.682927e+04 1.051915e+04 9.887027e+03
-4.128225e+09 -3.928859e+09 -4.088813e+09 -2.312325e+04 5.764627e+02 -4.333107e+04
-4.797887e+09 -4.598603e+09 -4.758566e+09 -4.291115e+04 1.264958e+04 -2.324475e+04
-3.856624e+09 -3.657228e+09 -3.817232e+09 -5.917971e+03 5.402257e+03 -4.614358e+04
-4.981625e+09 -4.782310e+09 -4.942262e+09 -2.468829e+03 -5.200049e+02 -1.433569e+03
-4.839663e+09 -4.639799e+09 -4.799906e+09 2.912529e+05 -3.054137e+04 -3.741311e+04
-4.321371e+09 -4.121384e+09 -4.281635e+09 2.000299e+05 -4.081069e+04 -3.337774e+04
-4.854850e+09 -4.654831e+09 -4.815063e+09 2.239358e+05 -2.873477e+04 -1.415007e+04
-1.657091e+09 -1.457126e+09 -1.617151e+09 -3.430689e+02 -6.512140e+01 3.802493e+02
-3.268706e+09 -3.068724e+09 -3.228768e+09 -1.020483e+04 -4.734290e+03 4.983694e+03
-4.640854e+09 -4.440210e+09 -4.600654e+09 3.311371e+04 -4.827172e+03 1.336444e+04
-4.650533e+09 -4.449914e+09 -4.610369e+09 -6.821545e+04 1.280544e+04 1.512454e+04
-1.579877e+09 -1.379951e+09 -1.539958e+09 2.550269e+03 1.142954e+03 5.710966e+03
-2.795489e+09 -2.595510e+09 -2.755546e+09 -4.221756e+03 -1.562767e+03 2.740867e+03
-1.539932e+09 -1.339903e+09 -1.499956e+09 -7.094490e+03 -1.266940e+04 1.626204e+04
-4.823845e+09 -4.623152e+09 -4.783625e+09 -7.883531e+04 7.887248e+04 4.782602e+03
-3.964032e+09 -3.763954e+09 -3.924230e+09 -1.828472e+05 3.621792e+04 -3.182745e+04
-3.953637e+09 -3.753641e+09 -3.913787e+09 1.059386e+05 3.837367e+04 3.472548e+04
-4.297455e+09 -4.096870e+09 -4.257370e+09 -1.872593e+04 8.524488e+04 -1.424816e+04
-2.569183e+09 -2.369229e+09 -2.529249e+09 -5.851441e+02 -1.115614e+03 4.001151e+02
-1.670492e+09 -1.470529e+09 -1.630554e+09 6.695123e+03 1.709414e+03 3.962926e+03
-2.207736e+09 -2.007772e+09 -2.167798e+09 5.716792e+03 5.923403e+02 1.188354e+03
-3.434259e+09 -3.234298e+09 -3.394323e+09 7.358869e+03 1.174851e+03 2.084713e+03
-3.178645e+09 -2.978681e+09 -3.138709e+09 8.123078e+03 9.404846e+02 2.621957e+03
-2.866818e+09 -2.666851e+09 -2.826878e+09 6.630532e+03 1.802694e+03 2.349085e+03
-4.480690e+09 -4.280725e+09 -4.440749e+09 -1.765696e+03 -2.135468e+02 1.778256e+02
-4.814534e+09 -4.614569e+09 -4.774594e+09 -2.208068e+03 -3.660696e+02 2.230342e+02
-4.129410e+09 -3.929442e+09 -4.089471e+09 -3.852092e+03 -4.235977e+02 7.683525e+02
-3.983853e+09 -3.783722e+09 -3.943886e+09 2.748129e+03 9.547795e+03 3.961844e+03
-4.765507e+09 -4.565539e+09 -4.725568e+09 -3.262069e+03 1.611372e+02 1.010042e+03
-2.077490e+09 -1.877517e+09 -2.037546e+09 2.237426e+03 1.444416e+02 4.265625e+02
-3.987316e+09 -3.787348e+09 -3.947375e+09 -2.095498e+03 -2.678129e+02 1.879659e+02
-3.311367e+09 -3.111430e+09 -3.271447e+09 6.717011e+03 1.940731e+03 3.950010e+03
-4.697256e+09 -4.497263e+09 -4.657320e+09 -4.239469e+03 2.002826e+02 1.704798e+03
-3.814983e+09 -3.615018e+09 -3.775043e+09 -1.891055e+03 -3.304192e+02 3.458719e+02
-4.640275e+09 -4.439659e+09 -4.600072e+09 -2.214076e+05 2.166122e+04 5.432548e+03
-4.126149e+09 -3.925194e+09 -4.085361e+09 -4.584529e+04 7.083479e+04 -2.547633e+04
-4.992478e+09 -4.791742e+09 -4.952075e+09 -2.321032e+05 -6.015293e+04 1.674350e+04
-4.123839e+09 -3.922924e+09 -4.083001e+09 -2.158623e+05 -1.366997e+04 1.944647e+04
-2.742137e+09 -2.542182e+09 -2.702202e+09 -2.320794e+02 -3.258567e+02 5.496792e+02
-4.981470e+09 -4.781567e+09 -4.941583e+09 -3.127862e+03 1.457401e+02 1.803874e+03
-1.632504e+09 -1.432544e+09 -1.592567e+09 -5.313870e+02 -3.789843e+02 4.153359e+02
-4.982760e+09 -4.781807e+09 -4.942088e+09 -2.049513e+05 -5.800812e+04 8.819420e+03
-3.258046e+09 -3.058100e+09 -3.218120e+09 -6.630475e+03 -1.481578e+03 2.833144e+03
-4.469195e+09 -4.269203e+09 -4.429268e+09 2.445866e+04 3.893181e+03 3.956683e+03
-4.270084e+09 -4.070092e+09 -4.230145e+09 1.628615e+04 1.536817e+03 2.463168e+03
-4.707234e+09 -4.507227e+09 -4.667300e+09 -6.018624e+03 2.664885e+02 2.071653e+03
-4.989265e+09 -4.789284e+09 -4.949338e+09 2.716840e+04 1.386172e+03 4.553917e+03
-4.291577e+09 -4.091583e+09 -4.251642e+09 2.137314e+04 2.655169e+03 3.225234e+03
-3.415395e+09 -3.215407e+09 -3.375470e+09 -2.483428e+04 -1.117541e+04 1.187610e+04
-4.749263e+09 -4.549254e+09 -4.709313e+09 9.570908e+03 5.950380e+02 2.745008e+03
-3.889134e+09 -3.689125e+09 -3.849184e+09 1.058339e+04 3.320674e+03 7.596726e+02
-4.012381e+09 -3.812371e+09 -3.972429e+09 6.758080e+03 8.425226e+02 1.937229e+03
-4.705023e+09 -4.505009e+09 -4.665073e+09 5.023412e+03 -5.819751e+02 1.050389e+03
-4.957935e+09 -4.757950e+09 -4.917997e+09 -4.626077e+03 -3.323257e+02 -8.445517e+01
-2.913136e+09 -2.713154e+09 -2.873198e+09 -1.249654e+04 -6.848756e+03 8.555320e+03
-2.171533e+09 -1.971552e+09 -2.131593e+09 -1.516999e+04 -9.079943e+03 1.020423e+04
-2.704947e+09 -2.504952e+09 -2.665009e+09 -2.125167e+04 -1.491073e+04 1.617298e+04
-4.978930e+09 -4.778735e+09 -4.938986e+09 -1.122994e+04 -3.631791e+03 -1.213315e+03
-2.239506e+09 -2.039515e+09 -2.199562e+09 -1.299270e+04 -9.345866e+03 8.167881e+03
-3.058059e+09 -2.858056e+09 -3.018118e+09 -7.639673e+03 -6.193690e+03 6.763610e+03
-2.722913e+09 -2.522919e+09 -2.682967e+09 -6.638935e+03 -5.464183e+03 6.541670e+03
-3.093368e+09 -2.893383e+09 -3.053430e+09 -1.021977e+04 -4.722710e+03 8.514183e+03
-4.989421e+09 -4.789491e+09 -4.949508e+09 6.068227e+03 8.533916e+02 -2.762014e+02
-2.684755e+09 -2.484762e+09 -2.644804e+09 5.918926e+03 1.710768e+03 2.908649e+03
-3.137799e+09 -2.937816e+09 -3.097851e+09 6.522603e+03 1.243509e+03 1.810191e+03
-3.033249e+09 -2.833257e+09 -2.993298e+09 5.608938e+03 1.952545e+03 2.588222e+03
-2.896072e+09 -2.696069e+09 -2.856118e+09 4.747111e+03 1.859924e+03 1.965196e+03
-3.833235e+09 -3.633268e+09 -3.793293e+09 7.870172e+02 2.917955e+02 -8.445420e+02
-1.959741e+09 -1.759750e+09 -1.919789e+09 1.176757e+04 5.300469e+03 6.001735e+03
-3.865697e+09 -3.665708e+09 -3.825753e+09 1.005016e+04 2.451031e+03 2.665560e+03
-4.141990e+09 -3.941747e+09 -4.102017e+09 1.961676e+04 3.544249e+04 -7.111937e+02
-4.808390e+09 -4.608391e+09 -4.768448e+09 1.370974e+04 9.554627e+01 1.784142e+03
-3.708192e+09 -3.508188e+09 -3.668245e+09 1.141937e+04 3.387486e+03 3.164248e+03
-4.132785e+09 -3.932514e+09 -4.092820e+09 8.135067e+04 4.313997e+04 3.120918e+03
-2.893531e+09 -2.693343e+09 -2.853564e+09 1.814461e+04 -9.133221e+04 -1.482871e+04
-4.978940e+09 -4.778709e+09 -4.938982e+09 -2.280649e+04 -5.095391e+03 5.753548e+03
-4.333708e+09 -4.133410e+09 -4.293726e+09 1.334964e+05 5.016637e+04 1.585409e+04
-3.931850e+09 -3.731675e+09 -3.891923e+09 8.413512e+04 3.453626e+04 1.833132e+04
-3.718262e+09 -3.518250e+09 -3.678321e+09 -2.300956e+03 -1.809570e+03 4.181554e+03
-4.331274e+09 -4.131128e+09 -4.291329e+09 4.014307e+04 1.810300e+04 7.531552e+03
-4.892293e+09 -4.692324e+09 -4.852351e+09 8.803957e+02 -2.319768e+02 -3.646988e-06
-4.819244e+09 -4.618960e+09 -4.779290e+09 8.331700e+04 1.941386e+04 1.391436e+04
-3.975125e+09 -3.774872e+09 -3.935187e+09 1.161908e+05 3.945925e+04 2.057545e+04
-4.134843e+09 -3.934700e+09 -4.094890e+09 -2.963416e+05 4.793916e+04 -1.445395e+04
-1.587526e+09 -1.387446e+09 -1.547528e+09 -3.538313e+03 2.200408e+04 -9.562200e+03
-3.956004e+09 -3.755827e+09 -3.916148e+09 -2.045293e+05 3.661024e+04 -2.294257e+04
-4.819779e+09 -4.619503e+09 -4.779850e+09 -2.060981e+05 4.008524e+04 -2.870157e+04
-3.971125e+09 -3.770971e+09 -3.931152e+09 2.485775e+05 7.063629e+04 3.855065e+04
-4.829036e+09 -4.628849e+09 -4.789148e+09 -1.493189e+05 3.089914e+04 -5.864465e+03
-4.448412e+09 -4.248400e+09 -4.408476e+09 -3.879031e+03 -8.648847e+02 4.169549e+03
-4.859656e+09 -4.658643e+09 -4.818845e+09 2.631592e+05 1.131750e+05 5.313948e+03
-2.186493e+09 -1.986376e+09 -2.146501e+09 -1.298342e+04 3.526794e+04 -1.443084e+04
-4.485856e+09 -4.285626e+09 -4.445916e+09 -1.435809e+05 3.796722e+04 -1.376085e+04
-4.296408e+09 -4.096286e+09 -4.256528e+09 -1.549711e+05 6.990815e+04 -3.374718e+04
-4.315259e+09 -4.115003e+09 -4.275305e+09 -4.931857e+04 4.592617e+04 -1.531223e+04
-3.978332e+09 -3.778169e+09 -3.938370e+09 3.277546e+04 1.912890e+04 6.644041e+03
-3.960911e+09 -3.760701e+09 -3.920567e+09 -3.940487e+05 9.409760e+03 -3.981441e+03
-4.306224e+09 -4.106028e+09 -4.266287e+09 -5.958838e+04 3.477762e+04 -1.751880e+04
-4.355290e+09 -4.155064e+09 -4.315383e+09 -1.119319e+05 5.263875e+04 -1.657798e+04
-4.143419e+09 -3.943173e+09 -4.103463e+09 -7.390480e+04 3.623616e+04 -7.466453e+03
-4.383432e+09 -4.183342e+09 -4.343508e+09 -2.249302e+04 -5.333907e+03 9.390190e+03
-5.000171e+09 -4.800929e+09 -4.957419e+09 -2.682042e+05 -6.327995e+04 1.731317e+05
-4.819253e+09 -4.619384e+09 -4.779424e+09 -2.893625e+04 1.300168e+02 4.925536e+03
-4.989928e+09 -4.790035e+09 -4.950108e+09 -3.710648e+05 -2.552372e+04 3.384841e+04
-4.164518e+09 -3.964331e+09 -4.124585e+09 -8.011229e+04 3.455905e+04 -1.780582e+04
-4.490213e+09 -4.291030e+09 -4.443821e+09 -2.470473e+05 3.010458e+04 7.908422e+05
-4.829882e+09 -4.629611e+09 -4.789939e+09 -8.188300e+04 3.285311e+04 -1.515869e+04
-3.977878e+09 -3.777622e+09 -3.937916e+09 7.842751e+02 -3.518112e+04 -1.809615e+03
-1.571222e+09 -1.371213e+09 -1.531263e+09 7.623148e+03 4.486793e+03 5.271723e+03
-3.960959e+09 -3.761008e+09 -3.921102e+09 -6.760061e+04 -2.049297e+04 2.535375e+04
-4.134855e+09 -3.934046e+09 -4.089204e+09 6.482734e+05 -8.686906e+05 -8.281057e+05
-4.031407e+09 -3.831124e+09 -3.991435e+09 -1.068764e+04 -3.269120e+04 1.069733e+02
-4.782998e+09 -4.582694e+09 -4.743035e+09 1.473178e+04 -2.191503e+04 -4.054690e+02
-4.990277e+09 -4.789752e+09 -4.948909e+09 5.551754e+05 -1.821263e+04 1.329244e+04
-1.899968e+09 -1.700096e+09 -1.860018e+09 1.039337e+05 -1.213948e+05 -1.555866e+05
-3.087252e+09 -2.887652e+09 -3.047529e+09 1.511734e+05 -5.734317e+04 -1.096602e+05
-3.966181e+09 -3.765869e+09 -3.926156e+09 2.100090e+05 3.850012e+04 5.874600e+03
-3.929389e+09 -3.729515e+09 -3.889186e+09 5.035011e+05 -6.462562e+04 -1.560327e+05
-4.450713e+09 -4.250342e+09 -4.410743e+09 -2.760261e+04 -3.220577e+04 8.234192e+02
-4.793972e+09 -4.593621e+09 -4.753990e+09 1.947604e+03 -1.172020e+04 -2.044165e+03
-3.686378e+09 -3.486272e+09 -3.646403e+09 -5.532411e+03 5.027750e+03 -8.262217e+03
-2.866940e+09 -2.666833e+09 -2.826957e+09 -2.282842e+03 7.967970e+03 -9.067730e+03
-2.306276e+09 -2.106184e+09 -2.266294e+09 -1.183145e+04 2.011874e+04 -1.159411e+04
-2.845348e+09 -2.645386e+09 -2.805409e+09 1.443655e+03 9.296153e+02 -2.882287e+02
-4.936168e+09 -4.736191e+09 -4.896220e+09 0.000000e+00 -1.366377e+02 -1.347400e+02
-2.276726e+09 -2.076744e+09 -2.236776e+09 2.033001e+03 5.173043e+02 1.428747e+02
-3.014801e+09 -2.814696e+09 -2.974818e+09 -1.779393e+03 7.695596e+03 -8.181729e+03
-1.688066e+09 -1.487985e+09 -1.648073e+09 -1.528846e+03 7.616746e+03 -7.739760e+03
-1.935091e+09 -1.735010e+09 -1.895098e+09 -4.664089e+03 5.617316e+03 -5.645776e+03
-3.958261e+09 -3.758374e+09 -3.918396e+09 3.549328e+03 1.957024e+03 1.296552e+04
-4.131836e+09 -3.931213e+09 -4.091711e+09 -2.135831e+04 -9.215156e+04 1.075829e+04
-4.297549e+09 -4.096951e+09 -4.257450e+09 -2.748372e+04 -9.275620e+04 -4.256264e+02
-4.821326e+09 -4.620766e+09 -4.781248e+09 4.726611e+04 -5.337054e+04 4.624697e+03
-4.646498e+09 -4.446545e+09 -4.606576e+09 1.452423e+04 9.121752e+02 2.610711e+03
-4.654546e+09 -4.454051e+09 -4.614488e+09 3.617412e+04 -1.300245e+04 1.463462e+04
-4.309423e+09 -4.108967e+09 -4.269411e+09 7.026952e+03 -7.592419e+04 -6.021647e+03
-4.657531e+09 -4.457551e+09 -4.617584e+09 3.211736e+03 8.076748e+02 2.498026e+02
-2.675620e+09 -2.475644e+09 -2.635673e+09 2.833544e+02 1.503602e+02 8.020116e+01
-2.233219e+09 -2.033240e+09 -2.193271e+09 5.367231e+03 1.479536e+02 1.403320e+03
-4.528670e+09 -4.328696e+09 -4.488724e+09 1.763335e+03 2.036040e+02 2.412304e+02
-4.714794e+09 -4.514818e+09 -4.674848e+09 1.490894e+03 -2.102138e+02 4.363332e+02
-3.388826e+09 -3.188852e+09 -3.348880e+09 1.773919e+03 2.228578e+02 2.332382e+02
-4.982856e+09 -4.782782e+09 -4.942915e+09 3.153324e+04 6.255947e+03 3.723372e+03
-3.974374e+09 -3.774426e+09 -3.934459e+09 1.488281e+04 2.174423e+03 5.943032e+03
-4.082987e+09 -3.883011e+09 -4.043040e+09 1.048750e+03 -9.145018e+01 1.890081e+02
-3.253867e+09 -3.053890e+09 -3.213920e+09 2.273071e+03 2.523924e+02 3.207394e+02
-2.228750e+09 -2.028647e+09 -2.188762e+09 2.333987e+04 5.413366e+04 1.309499e+04
-4.118998e+09 -3.918892e+09 -4.079082e+09 7.820630e+04 1.909083e+04 1.451836e+04
-4.123373e+09 -3.923398e+09 -4.083427e+09 1.882478e+03 -2.011373e+02 1.704054e+02
-4.959756e+09 -4.759680e+09 -4.919809e+09 -9.261569e+03 4.011065e+03 -5.811418e+02
-4.417582e+09 -4.217606e+09 -4.377635e+09 3.882335e+02 2.763324e+02 1.994656e+01
-3.420716e+09 -3.220741e+09 -3.380770e+09 1.007517e+03 5.267694e+01 3.120245e+00
-4.474681e+09 -4.274626e+09 -4.434750e+09 -3.835326e+05 2.664012e+04 -1.190407e+04
-4.808548e+09 -4.608179e+09 -4.767851e+09 -5.534337e+05 -8.792741e+03 -1.434359e+04
-3.961977e+09 -3.761843e+09 -3.921814e+09 -4.046677e+05 3.061019e+04 -5.682950e+04
-4.122052e+09 -3.921770e+09 -4.081413e+09 -5.236052e+05 1.134871e+05 -2.423375e+04
-4.832475e+09 -4.632179e+09 -4.792286e+09 -3.758820e+05 -3.627118e+04 1.606710e+04
-3.861213e+09 -3.661070e+09 -3.821256e+09 -2.284895e+04 2.385322e+04 -9.058650e+03
-4.293222e+09 -4.093002e+09 -4.252783e+09 -5.196199e+05 1.243323e+04 7.652671e+04
-4.892186e+09 -4.692163e+09 -4.852324e+09 -8.094730e+03 6.490254e+03 -9.381569e-04
-4.146000e+09 -3.945730e+09 -4.105821e+09 -3.719247e+05 4.300793e+03 1.057932e+04
-4.845594e+09 -4.645205e+09 -4.805513e+09 2.891770e+05 -2.509703e+04 -5.460774e+03
-3.958664e+09 -3.758564e+09 -3.918762e+09 -6.359374e+04 3.396740e+04 -1.645733e+04
-4.855117e+09 -4.654829e+09 -4.815177e+09 2.224568e+05 -3.385840e+04 -1.953534e+04
-1.906700e+09 -1.706774e+09 -1.866782e+09 3.967756e+03 1.154565e+03 1.146210e+04
-4.851320e+09 -4.650992e+09 -4.811361e+09 1.904408e+05 -4.214172e+03 -9.794017e+01
-2.501037e+09 -2.301088e+09 -2.461106e+09 -8.086075e+02 -1.248721e+03 4.958446e+02
-4.502439e+09 -4.301972e+09 -4.462225e+09 2.586667e+05 -5.907979e+04 -1.020233e+04
-4.998672e+09 -4.798711e+09 -4.958748e+09 -1.231145e+04 -9.247187e+02 1.631584e+03
-4.449060e+09 -4.249137e+09 -4.409264e+09 1.097934e+05 1.481301e+04 2.138693e+04
-4.824794e+09 -4.624764e+09 -4.784931e+09 9.936552e+04 8.177295e+03 1.572741e+04
-2.968374e+09 -2.768434e+09 -2.928457e+09 -9.418786e+03 -4.285921e+03 7.965158e+03
-4.164881e+09 -3.964542e+09 -4.124931e+09 1.886572e+05 -7.946148e+04 -3.255133e+04
-1.942968e+09 -1.742990e+09 -1.903021e+09 5.474574e+03 7.048330e+02 1.127815e+03
-3.433673e+09 -3.233700e+09 -3.393730e+09 5.457058e+03 5.764682e+02 9.036085e+02
-3.413229e+09 -3.213324e+09 -3.373339e+09 -3.153763e+03 -4.119616e+02 1.319364e+04
-3.958228e+09 -3.758364e+09 -3.918386e+09 5.203248e+03 2.700016e+03 1.845895e+04
-2.387811e+09 -2.187868e+09 -2.347884e+09 1.061387e+04 1.274067e+03 8.044533e+03
-4.988335e+09 -4.788198e+09 -4.948450e+09 1.832252e+05 1.312821e+04 1.764483e+04
-3.971156e+09 -3.770831e+09 -3.931039e+09 2.623982e+05 -1.476005e+04 1.736663e+04
-2.827393e+09 -2.627410e+09 -2.787445e+09 5.729013e+03 9.089425e+02 1.524632e+03
-3.408462e+09 -3.208490e+09 -3.368517e+09 6.382995e+02 2.465194e+02 2.724711e+02
-3.961638e+09 -3.761740e+09 -3.921808e+09 5.479993e+04 1.075148e+04 2.694184e+04
-4.502654e+09 -4.302179e+09 -4.462622e+09 2.153166e+05 -5.244851e+04 -1.774189e+04
-4.996258e+09 -4.796307e+09 -4.956460e+09 1.690438e+05 6.759281e+03 1.095714e+04
-4.502614e+09 -4.302198e+09 -4.462449e+09 2.286199e+05 -3.747563e+04 -2.646786e+04
-2.337325e+09 -2.137221e+09 -2.297355e+09 2.936293e+04 -6.186750e+04 -2.898309e+04
-4.797018e+09 -4.596967e+09 -4.757188e+09 -8.562446e+04 1.487968e+04 -1.027090e+04
-4.022864e+09 -3.822868e+09 -3.983077e+09 -1.309624e+05 3.530903e+04 -3.350016e+04
-3.835894e+09 -3.635875e+09 -3.796055e+09 -8.563441e+04 5.140140e+04 -3.199285e+04
-4.212882e+09 -4.012832e+09 -4.173013e+09 -6.657248e+04 2.534657e+04 -1.431525e+04
-4.190638e+09 -3.990669e+09 -4.150875e+09 -1.231576e+05 4.168910e+04 -2.459230e+04
-4.646660e+09 -4.446376e+09 -4.606689e+09 -5.026250e+04 1.707425e+04 2.498945e+03
-4.134136e+09 -3.933728e+09 -4.094139e+09 -3.852947e+04 7.907240e+04 -5.989669e+03
-3.014995e+09 -2.814994e+09 -2.975047e+09 -2.238329e+03 5.653396e+01 5.746851e+03
-4.160553e+09 -3.960615e+09 -4.120657e+09 -2.420879e+04 -1.062440e+03 9.608489e+03
-1.632579e+09 -1.432511e+09 -1.592593e+09 7.590549e+02 -3.933390e+03 -1.282881e+04
-2.470990e+09 -2.271068e+09 -2.431075e+09 -2.626464e+03 -1.676095e+03 6.117245e+03
-4.622611e+09 -4.422710e+09 -4.582733e+09 -4.448886e+03 -2.214923e+02 3.502747e+03
-4.995580e+09 -4.795712e+09 -4.955761e+09 -4.338561e+04 -2.764569e+03 5.773128e+03
-4.486653e+09 -4.286394e+09 -4.446707e+09 -8.259732e+04 3.508836e+04 -1.559958e+04
-1.565407e+09 -1.365339e+09 -1.525412e+09 -3.478092e+03 -6.906136e+04 1.592196e+04
-4.986199e+09 -4.785873e+09 -4.946224e+09 -7.703247e+04 2.743850e+04 -9.935819e+03
-3.978027e+09 -3.777790e+09 -3.938074e+09 -8.480563e+04 4.807227e+04 -3.629229e+03
-4.328465e+09 -4.128234e+09 -4.288510e+09 -6.831351e+04 4.036715e+04 -1.167083e+04
-4.986160e+09 -4.785880e+09 -4.946217e+09 -7.223633e+04 2.248329e+04 -1.578522e+04
-3.963418e+09 -3.762591e+09 -3.919241e+09 -7.229618e+05 -8.838933e+05 5.431589e+05
-3.840890e+09 -3.640920e+09 -3.800958e+09 -1.305850e+04 -3.467166e+03 3.936703e+03
-2.520819e+09 -2.320727e+09 -2.480850e+09 -3.449724e+03 -4.791320e+03 1.251475e+04
-3.956468e+09 -3.756204e+09 -3.916511e+09 -5.968021e+04 4.652719e+04 -9.683441e+03
-3.210280e+09 -3.010182e+09 -3.170355e+09 4.452103e+04 -4.423886e+04 -2.589291e+04
-3.964103e+09 -3.764029e+09 -3.924220e+09 -1.045975e+05 -3.781897e+04 2.895520e+04
-2.996960e+09 -2.796906e+09 -2.957047e+09 -5.046207e+04 6.043255e+04 -3.570030e+04
-1.618777e+09 -1.418762e+09 -1.578809e+09 -9.959651e+03 -2.172669e+04 2.011513e+04
-1.598515e+09 -1.398539e+09 -1.558571e+09 -3.915627e+03 -2.405068e+03 2.822249e+03
-3.938598e+09 -3.738385e+09 -3.898640e+09 -5.017532e+03 -2.128523e+04 1.141780e+02
-3.344891e+09 -3.144874e+09 -3.304975e+09 -4.132613e+04 -2.349157e+04 2.114532e+04
-5.011232e+09 -4.811233e+09 -4.971308e+09 -1.839012e+04 -1.741415e+03 6.006757e+02
-3.726493e+09 -3.526583e+09 -3.686763e+09 -8.556588e+04 2.968427e+04 -1.786244e+04
-1.578035e+09 -1.378002e+09 -1.538060e+09 -6.858463e+02 6.085008e+04 -2.772040e+04
-3.154085e+09 -2.954137e+09 -3.114243e+09 -9.112654e+04 7.894057e+04 -6.434741e+04
-1.636113e+09 -1.436183e+09 -1.596155e+09 7.176873e+02 1.571928e+04 1.734853e+04
-3.252654e+09 -3.052603e+09 -3.212793e+09 -8.449596e+04 6.769875e+04 -4.355521e+04
-4.217296e+09 -4.017366e+09 -4.177529e+09 -7.528718e+04 4.361743e+04 -2.502426e+04
-4.980207e+09 -4.781331e+09 -4.938473e+09 -2.020234e+04 1.284117e+05 6.105700e+04
-4.703230e+09 -4.503302e+09 -4.663318e+09 -1.824678e+03 -8.013810e+02 -6.374361e+01
-4.267740e+09 -4.067668e+09 -4.227918e+09 -1.362978e+05 4.257940e+04 -2.430588e+04
-4.268618e+09 -4.068632e+09 -4.228826e+09 -7.890823e+04 2.905756e+04 -1.641020e+04
-2.239389e+09 -2.039635e+09 -2.199509e+09 -1.166699e+05 7.746453e+04 -1.760615e+05
-4.655662e+09 -4.455524e+09 -4.615772e+09 -1.002431e+05 1.955162e+04 -1.061859e+04
-4.822573e+09 -4.622579e+09 -4.782756e+09 -1.372925e+05 -1.019798e+04 2.110664e+04
-4.812450e+09 -4.612647e+09 -4.772707e+09 7.588127e+04 -1.315436e+03 8.937941e+03
-3.542341e+09 -3.342869e+09 -3.502883e+09 2.234933e+04 -3.101415e+04 -1.921943e+04
-3.191621e+09 -2.991555e+09 -3.151669e+09 -1.095713e+04 2.355170e+04 -7.448420e+03
-4.784575e+09 -4.584342e+09 -4.744608e+09 -1.391299e+04 1.011880e+04 -1.076872e+03
-3.958630e+09 -3.758510e+09 -3.918749e+09 -8.787701e+04 3.498625e+04 -1.985031e+04
-4.131342e+09 -3.931227e+09 -4.091473e+09 -1.298867e+05 4.668923e+04 -3.604694e+04
-3.958232e+09 -3.758127e+09 -3.918375e+09 -1.226276e+05 4.359051e+04 -2.852790e+04
-4.786957e+09 -4.586917e+09 -4.747164e+09 -1.426430e+05 7.306854e+03 -1.377386e+04
-4.814410e+09 -4.614447e+09 -4.774673e+09 -1.990637e+05 1.070419e+04 -1.271541e+04
-4.982280e+09 -4.782262e+09 -4.942510e+09 1.338193e+05 -1.455193e+04 -5.289052e+03
-4.309792e+09 -4.109621e+09 -4.269918e+09 -1.376473e+05 4.826943e+04 -2.321339e+04
-4.809152e+09 -4.608938e+09 -4.769193e+09 -2.987354e+04 8.071075e+03 1.625323e+02
-3.067637e+09 -2.867527e+09 -3.027656e+09 -4.361943e+03 9.716843e+03 -7.288392e+03
-3.661515e+09 -3.461555e+09 -3.621579e+09 -3.172638e+03 -3.929595e+02 7.557620e+02
-2.945607e+09 -2.745510e+09 -2.905650e+09 -1.920392e+04 3.855649e+04 -1.815609e+04
-2.747300e+09 -2.547191e+09 -2.707308e+09 1.419872e+01 2.727884e+03 -4.628941e+03
-4.381774e+09 -4.181811e+09 -4.341835e+09 -1.408106e+03 -2.538925e+02 2.362406e+02
-4.618597e+09 -4.418633e+09 -4.578660e+09 -3.015354e+03 -3.495636e+02 2.157013e+02
-4.876538e+09 -4.676576e+09 -4.836599e+09 -1.121894e+03 5.421750e+01 3.719157e+01
-4.715619e+09 -4.515656e+09 -4.675680e+09 -1.659843e+03 1.993952e+02 4.785310e+02
-4.818348e+09 -4.618388e+09 -4.778412e+09 -2.756766e+03 -6.047928e+02 1.751215e+02
-4.171156e+09 -3.971194e+09 -4.131218e+09 -3.257738e+03 -3.308141e+02 3.989488e+02
-1.572644e+09 -1.372671e+09 -1.532700e+09 2.867772e+03 7.808499e+02 -1.401896e+02
-4.897031e+09 -4.697052e+09 -4.857082e+09 2.670757e+02 -4.621654e-07 -9.690615e+01
-2.681040e+09 -2.481039e+09 -2.641085e+09 1.735722e+03 -5.854926e+01 2.009506e+03
-2.211198e+09 -2.011199e+09 -2.171240e+09 3.555040e+03 1.675199e+03 2.164753e+03
-1.709494e+09 -1.509498e+09 -1.669540e+09 2.320981e+03 6.693623e+02 1.942787e+03
-2.893429e+09 -2.693435e+09 -2.853476e+09 1.309354e+03 1.678392e+02 1.553699e+03
-2.679985e+09 -2.479994e+09 -2.640034e+09 2.187530e+03 8.851337e+02 1.282153e+03
-2.166571e+09 -1.966581e+09 -2.126619e+09 2.133059e+03 6.028557e+02 1.123349e+03
-3.734409e+09 -3.534502e+09 -3.694523e+09 5.291667e+03 -2.051505e+02 9.122334e+03
-2.204773e+09 -2.004777e+09 -2.164818e+09 1.570066e+03 1.915953e+02 7.705032e+02
-4.429372e+09 -4.229446e+09 -4.389460e+09 -9.447420e+02 -6.593787e+02 5.471947e+02
-3.771711e+09 -3.572485e+09 -3.732293e+09 3.050736e+04 4.518642e+03 -2.603238e+03
-3.804977e+09 -3.605607e+09 -3.765426e+09 -1.166428e+05 1.350564e+04 -2.972124e+04
-2.841446e+09 -2.642072e+09 -2.801874e+09 -4.005745e+04 -2.019356e+04 -4.870892e+04
-4.706170e+09 -4.506200e+09 -4.666228e+09 1.620675e+03 -2.066410e+02 5.524549e+02
-3.108048e+09 -2.908574e+09 -3.068296e+09 -4.117937e+04 9.127267e+03 -4.804464e+04
-3.694932e+09 -3.495403e+09 -3.655404e+09 -5.232635e+04 1.317295e+04 -2.983919e+04
-1.694550e+09 -1.494610e+09 -1.654624e+09 4.303003e+03 1.355230e+03 3.544196e+03
-2.096929e+09 -1.896976e+09 -2.056997e+09 5.195068e+03 1.856504e+03 2.052351e+03
-2.568234e+09 -2.368282e+09 -2.528302e+09 4.209188e+03 1.395590e+03 2.217229e+03
-1.767465e+09 -1.567513e+09 -1.727533e+09 4.640187e+03 1.325813e+03 3.038049e+03
-1.857353e+09 -1.657406e+09 -1.817422e+09 3.603350e+03 1.511494e+03 2.242173e+03
-1.823119e+09 -1.623244e+09 -1.783241e+09 5.066881e+04 -2.084958e+04 -1.898412e+04
-1.823129e+09 -1.623256e+09 -1.783247e+09 -5.148444e+04 -2.750826e+04 -1.953605e+04
-2.764427e+09 -2.564827e+09 -2.724776e+09 -1.846319e+04 -1.361612e+04 -3.284214e+04
-4.674665e+09 -4.474671e+09 -4.634715e+09 2.250979e+03 -1.568824e+02 7.230565e+02
-1.689874e+09 -1.489951e+09 -1.649882e+09 -2.067312e+03 -4.105516e+04 -4.282085e+04
-2.359422e+09 -2.159749e+09 -2.319760e+09 2.411765e+04 -3.122979e+04 -8.104513e+04
-4.804998e+09 -4.605035e+09 -4.765064e+09 6.514313e+03 -3.676887e+02 9.410778e+02
-4.669274e+09 -4.469296e+09 -4.629326e+09 3.262311e+02 3.543319e+01 1.277685e+02
-4.488852e+09 -4.288874e+09 -4.448904e+09 1.491142e+03 1.607137e+02 1.012383e+02
-1.696075e+09 -1.496293e+09 -1.656259e+09 1.535975e+04 -4.287291e+04 -1.232084e+05
-3.866618e+09 -3.666641e+09 -3.826671e+09 1.750266e+03 2.195240e+02 -1.607626e+01
-4.675966e+09 -4.475989e+09 -4.636019e+09 1.864486e+03 -2.541537e+01 4.701915e+01
-3.547864e+09 -3.347885e+09 -3.507915e+09 3.834340e+02 7.143931e+01 2.495007e+02
-1.986191e+09 -1.786216e+09 -1.946246e+09 2.189163e+02 1.558354e+01 1.886097e+02
-4.497273e+09 -4.297297e+09 -4.457328e+09 2.659567e+03 3.536834e+02 -2.959690e+01
-4.780245e+09 -4.580272e+09 -4.740301e+09 2.514412e+03 5.280787e+02 1.178733e+02
-2.692362e+09 -2.492388e+09 -2.652416e+09 1.992477e+03 -8.857389e+01 -5.871669e+01
-4.645338e+09 -4.445362e+09 -4.605391e+09 4.994604e+02 1.123835e+02 -6.519953e+01
-4.912345e+09 -4.712370e+09 -4.872399e+09 1.101229e+03 -6.826271e+01 9.448463e+01
-4.268449e+09 -4.067334e+09 -4.226971e+09 -2.725034e+05 1.210877e+05 -3.902738e+04
-4.110834e+09 -3.910930e+09 -4.070953e+09 9.308294e+03 1.835122e+03 8.312434e+03
-4.768804e+09 -4.568890e+09 -4.728912e+09 8.360264e+03 2.072083e+03 1.710798e+03
-4.287200e+09 -4.087011e+09 -4.247227e+09 -1.765542e+04 1.892431e+04 -2.613273e+03
-4.079434e+09 -3.879254e+09 -4.039467e+09 -7.064196e+03 2.677600e+04 -4.175780e+03
-4.586116e+09 -4.385929e+09 -4.546144e+09 -5.635450e+03 6.376177e+03 2.813177e+01
-4.603888e+09 -4.403660e+09 -4.563930e+09 -9.905816e+03 1.087565e+04 -2.587007e+02
-4.630521e+09 -4.430355e+09 -4.590552e+09 -8.873076e+03 7.631136e+03 -2.993162e+03
-4.090668e+09 -3.890703e+09 -4.050738e+09 -1.027383e+04 -4.584179e+02 2.632291e+03
-4.985915e+09 -4.785654e+09 -4.945958e+09 -1.935318e+04 1.592499e+04 -5.489270e+03
-4.648704e+09 -4.448378e+09 -4.608709e+09 -2.257283e+04 1.353807e+04 6.383986e+03
-4.819681e+09 -4.619492e+09 -4.779718e+09 -2.463305e+04 9.446771e+03 1.406045e+03
-4.999549e+09 -4.799299e+09 -4.959607e+09 -2.410207e+05 -2.494250e+04 2.621635e+04
-1.635360e+09 -1.435405e+09 -1.595425e+09 -6.398945e+02 -5.293972e+02 5.215047e+02
-2.699600e+09 -2.499632e+09 -2.659658e+09 -3.674125e+02 -1.725385e+02 6.290552e+02
-2.047564e+09 -1.847617e+09 -2.007637e+09 -6.581995e+03 -2.208952e+03 4.801758e+03
-4.291578e+09 -4.091415e+09 -4.251616e+09 -2.371975e+05 -6.675713e+04 3.870781e+04
-4.138168e+09 -3.937974e+09 -4.098240e+09 -2.162522e+05 -6.236786e+04 3.149473e+04
-4.822480e+09 -4.622171e+09 -4.782493e+09 -2.282429e+05 -4.428595e+04 3.110088e+04
-4.840222e+09 -4.639890e+09 -4.800150e+09 -3.173217e+05 1.474478e+04 -6.603320e+03
-4.135999e+09 -3.935663e+09 -4.095994e+09 -2.293964e+05 -5.803079e+04 1.452038e+04
-2.771282e+09 -2.571315e+09 -2.731340e+09 -8.301740e+02 -3.878706e+02 3.999375e+02
-2.354750e+09 -2.154789e+09 -2.314812e+09 -5.035817e+03 -1.023643e+03 2.020451e+03
-4.153729e+09 -3.953464e+09 -4.113730e+09 -3.153125e+05 -6.915532e+04 6.167518e+04
-4.814318e+09 -4.613981e+09 -4.774343e+09 2.818650e+04 -7.153648e+03 -3.184253e+03
-4.134113e+09 -3.933759e+09 -4.094146e+09 9.723173e+04 -7.230302e+04 -2.559346e+04
-4.111050e+09 -3.910822e+09 -4.071117e+09 6.632631e+04 -5.271896e+04 -2.186135e+04
-4.620097e+09 -4.419878e+09 -4.580166e+09 8.222600e+04 -2.330246e+04 -2.104399e+03
-2.885398e+09 -2.685472e+09 -2.845482e+09 -9.747471e+02 -1.200809e+03 1.479051e+03
-2.200342e+09 -2.000359e+09 -2.160395e+09 -1.135591e+04 -5.598001e+03 7.223054e+03
-5.002997e+09 -4.803034e+09 -4.963058e+09 -2.026427e+03 -6.103070e+01 -4.363272e+01
-4.998737e+09 -4.798480e+09 -4.958811e+09 8.185107e+04 -1.251225e+04 -1.343082e+04
-4.661058e+09 -4.460803e+09 -4.621140e+09 1.110725e+05 -2.409440e+04 -6.401550e+03
-4.098864e+09 -3.898676e+09 -4.058942e+09 6.200446e+04 -3.987962e+04 -2.842900e+04
-4.820577e+09 -4.620244e+09 -4.780612e+09 1.040124e+05 -4.078362e+03 -5.707927e+02
-3.976100e+09 -3.775915e+09 -3.936154e+09 -4.172603e+04 3.202307e+04 -8.087903e+03
-1.597362e+09 -1.397289e+09 -1.557369e+09 3.900177e+03 3.592607e+04 9.775442e+03
-4.133632e+09 -3.934270e+09 -4.093791e+09 2.073994e+05 2.202301e+04 -6.195271e+04
-4.655573e+09 -4.455486e+09 -4.615609e+09 -4.472807e+03 1.546972e+03 -1.550909e+03
-4.610912e+09 -4.409781e+09 -4.569682e+09 -2.024384e+05 1.245968e+05 -3.055837e+04
-4.387321e+09 -4.187238e+09 -4.347366e+09 -1.089282e+04 6.748107e+03 -3.461655e+03
-3.395611e+09 -3.195531e+09 -3.355637e+09 -3.946280e+03 3.552678e+03 -6.502277e+03
-3.915782e+09 -3.715699e+09 -3.875811e+09 -1.646829e+03 8.352187e+02 -3.195269e+03
-3.924654e+09 -3.724575e+09 -3.884696e+09 -1.049662e+04 9.320837e+03 -4.895565e+03
-4.644606e+09 -4.444526e+09 -4.604642e+09 -1.338076e+03 6.385107e+02 -2.206657e+03
-4.987332e+09 -4.788520e+09 -4.946992e+09 -3.819327e+05 -1.537676e+04 -7.263098e+04
-4.655550e+09 -4.455570e+09 -4.615775e+09 9.844863e+04 -1.266186e+04 -9.576410e+03
-2.133254e+09 -1.933153e+09 -2.093256e+09 1.077975e+03 4.990607e+03 1.102206e+03
-3.736919e+09 -3.536945e+09 -3.697137e+09 7.563334e+04 -3.705254e+04 -1.707130e+04
-4.128688e+09 -3.928438e+09 -4.088709e+09 -1.267448e+02 3.494283e+04 -3.309442e+03
-3.367745e+09 -3.167681e+09 -3.327849e+09 4.760437e+04 -5.210159e+04 -2.678186e+04
-4.489156e+09 -4.289251e+09 -4.449298e+09 -3.833048e+04 -4.850559e+03 1.092608e+04
-4.977233e+09 -4.777135e+09 -4.937272e+09 -7.870356e+03 1.777130e+03 -2.497165e+02
-4.023767e+09 -3.823664e+09 -3.983806e+09 -1.585390e+04 1.444678e+04 -8.200303e+03
-3.034742e+09 -2.834791e+09 -2.994813e+09 -4.966555e+03 -2.697435e+03 1.788275e+03
-2.926198e+09 -2.726248e+09 -2.886267e+09 -7.356399e+02 -4.129518e+02 2.444318e+02
-1.589234e+09 -1.389310e+09 -1.549317e+09 -1.625386e+03 -9.625049e+02 6.891116e+03
-4.983940e+09 -4.783824e+09 -4.943976e+09 -6.753397e+03 1.654866e+03 5.260666e+02
-4.261203e+09 -4.061262e+09 -4.221291e+09 -1.148462e+04 -1.701853e+03 2.676294e+03
-3.124765e+09 -2.924680e+09 -3.084788e+09 -2.589580e+03 5.760812e+03 -6.585064e+03
-3.609619e+09 -3.409648e+09 -3.569675e+09 5.877968e+02 -1.564493e+02 2.402723e+02
-4.953626e+09 -4.753681e+09 -4.913707e+09 -1.094952e+04 -3.512699e+02 5.210647e+02
-4.946045e+09 -4.745937e+09 -4.906084e+09 -3.732442e+03 2.614027e+03 -1.185802e+03
-3.963887e+09 -3.763266e+09 -3.921628e+09 5.126907e+05 -4.992448e+05 -5.951946e+05
-3.964730e+09 -3.763582e+09 -3.922103e+09 6.245515e+05 -5.437647e+05 -1.673848e+05
-4.477178e+09 -4.276031e+09 -4.433972e+09 2.408321e+05 -4.733804e+05 -1.165118e+05
-1.583289e+09 -1.383325e+09 -1.543350e+09 -4.665560e+03 -1.656436e+03 2.324158e+03
-4.977797e+09 -4.777825e+09 -4.937853e+09 2.646471e+03 -6.284792e+00 9.106950e+01
-2.146264e+09 -1.946310e+09 -2.106329e+09 -6.764465e+02 -1.061456e+02 3.575112e+02
-3.968975e+09 -3.769017e+09 -3.929051e+09 -1.209460e+04 -2.462552e+03 3.132892e+03
-4.319774e+09 -4.118475e+09 -4.277901e+09 2.423946e+05 -1.344860e+05 -8.885442e+03
-2.626337e+09 -2.426181e+09 -2.586361e+09 7.058479e+03 -3.578410e+04 -1.025170e+04
-4.149803e+09 -3.948730e+09 -4.108393e+09 3.395761e+05 -1.982147e+05 -3.086752e+04
-4.827724e+09 -4.627112e+09 -4.785712e+09 5.580593e+05 -8.257935e+04 -6.677457e+04
-4.318967e+09 -4.119044e+09 -4.279078e+09 -2.421071e+04 -4.093746e+03 7.481052e+03
-4.144083e+09 -3.944167e+09 -4.104199e+09 -2.113401e+04 -6.131694e+03 9.511288e+03
-3.958902e+09 -3.758735e+09 -3.918998e+09 -1.548379e+05 -3.328512e+04 2.446383e+04
-4.307234e+09 -4.107310e+09 -4.267334e+09 -1.473953e+04 -1.872716e+03 5.333570e+03
-4.136057e+09 -3.936136e+09 -4.096166e+09 -1.565394e+04 -9.864485e+02 8.187148e+03
-4.276923e+09 -4.076921e+09 -4.236990e+09 2.014207e+04 2.803698e+03 4.449037e+03
-4.139509e+09 -3.939508e+09 -4.099586e+09 3.154538e+04 9.821223e+03 3.971945e+03
-3.958118e+09 -3.758088e+09 -3.918170e+09 1.794394e+04 4.300436e+03 6.954331e+03
-4.326209e+09 -4.126208e+09 -4.286292e+09 3.437423e+04 5.720488e+03 6.352162e+03
-4.632566e+09 -4.432562e+09 -4.592635e+09 2.891627e+04 4.790362e+03 3.436635e+03
-4.834629e+09 -4.634631e+09 -4.794709e+09 3.359132e+04 6.302545e+03 2.150563e+02
-4.822056e+09 -4.622109e+09 -4.782161e+09 3.084811e+04 1.406945e+02 5.402979e+03
-4.993140e+09 -4.793192e+09 -4.953250e+09 3.346362e+04 2.724262e+03 1.049348e+03
-3.419773e+09 -3.219782e+09 -3.379822e+09 7.116898e+02 4.396185e+02 1.631539e+03
-3.588836e+09 -3.388867e+09 -3.548894e+09 2.033101e+03 4.792939e+02 2.915622e+02
-4.496757e+09 -4.296801e+09 -4.456850e+09 2.446613e+04 2.960796e+03 4.492276e+03
-4.494161e+09 -4.294194e+09 -4.454259e+09 3.817070e+04 5.006914e+03 6.828302e+03
-2.015822e+09 -1.815861e+09 -1.975886e+09 6.827000e+03 1.577718e+03 3.116500e+03
-4.494169e+09 -4.294212e+09 -4.454278e+09 4.031024e+04 4.959808e+03 6.867004e+03
-1.647119e+09 -1.447141e+09 -1.607172e+09 4.939964e+03 1.338406e+03 8.743339e+02
-4.784173e+09 -4.582874e+09 -4.741898e+09 -1.420033e+05 2.717538e+05 -5.969365e+03
-1.961525e+09 -1.761552e+09 -1.921581e+09 9.356111e+02 4.644786e+01 -2.243008e+01
-3.981748e+09 -3.781795e+09 -3.941850e+09 3.070210e+04 3.633824e+03 6.915737e+03
-3.662047e+09 -3.461841e+09 -3.622094e+09 -5.160236e+03 -2.138996e+04 3.929622e+03
-1.990753e+09 -1.790885e+09 -1.950916e+09 -3.343904e+04 6.060181e+04 -3.347627e+04
-2.629066e+09 -2.428933e+09 -2.589084e+09 -1.192531e+03 -6.011273e+03 2.530561e+03
-4.983392e+09 -4.783449e+09 -4.943688e+09 -1.760138e+05 2.302992e+04 -1.925617e+04
-1.595692e+09 -1.395603e+09 -1.555696e+09 1.029401e+03 2.899623e+04 -1.688306e+03
-3.790481e+09 -3.590273e+09 -3.750523e+09 -7.643337e+02 -1.641992e+04 -7.572789e+02
-3.714376e+09 -3.514156e+09 -3.674409e+09 -2.051817e+03 -2.182206e+04 6.995095e+02
-3.130019e+09 -2.929822e+09 -3.090046e+09 -4.358931e+03 -6.033497e+04 4.028529e+02
-2.046591e+09 -1.846486e+09 -2.006607e+09 -1.131990e+04 3.105555e+04 -1.291825e+04
-2.232405e+09 -2.032279e+09 -2.192407e+09 7.027413e+02 -2.145543e+04 -3.071519e+03
-3.971550e+09 -3.771775e+09 -3.931905e+09 -1.740046e+04 4.524816e+04 -2.028421e+04
-3.292664e+09 -3.092458e+09 -3.252684e+09 -2.694024e+03 -5.941202e+04 -2.683942e+03
-4.337952e+09 -4.138357e+09 -4.298334e+09 1.959501e+05 -2.498217e+04 2.087778e+04
-3.385199e+09 -3.185092e+09 -3.345224e+09 -2.017112e+03 2.427887e+03 -7.123931e+03
-4.864961e+09 -4.665243e+09 -4.825288e+09 1.859313e+05 -8.621042e+02 6.769286e+03
-1.698359e+09 -1.498326e+09 -1.658390e+09 -4.529376e+03 6.113886e+04 -2.682840e+04
-1.852243e+09 -1.652163e+09 -1.812248e+09 -1.691493e+03 1.059244e+04 -8.854782e+03
-4.521713e+09 -4.322046e+09 -4.482039e+09 1.660087e+05 1.465108e+04 4.125807e+04
-5.024376e+09 -4.824738e+09 -4.984745e+09 2.377929e+05 2.109050e+04 3.695219e+04
-5.024483e+09 -4.824764e+09 -4.984776e+09 2.020500e+05 2.259386e+04 1.243682e+04
-4.656303e+09 -4.456329e+09 -4.616357e+09 8.674616e+02 1.247842e+02 2.237235e+02
-3.876428e+09 -3.676786e+09 -3.836834e+09 -1.033221e+05 2.882106e+04 -1.148792e+04
-4.889580e+09 -4.690233e+09 -4.850248e+09 -9.822819e+03 1.278074e+03 -1.247080e-04
-4.468031e+09 -4.268811e+09 -4.428639e+09 1.195148e+05 -1.952861e+04 -1.890416e+04
-4.480888e+09 -4.281089e+09 -4.441113e+09 2.221158e+05 1.536815e+04 4.642155e+04
-4.085831e+09 -3.885614e+09 -4.045881e+09 -3.053918e+04 -2.678176e+04 1.102137e+04
-3.936574e+09 -3.736306e+09 -3.896597e+09 -3.392368e+04 -2.921296e+04 7.764350e+03
-2.607758e+09 -2.407796e+09 -2.567821e+09 2.258836e+03 1.961950e+02 2.445257e+02
-3.190619e+09 -2.990373e+09 -3.150633e+09 9.203479e+03 -7.809310e+04 6.114673e+03
-3.157538e+09 -2.957324e+09 -3.117555e+09 -2.481552e+04 -7.345012e+04 -3.456418e+03
-3.813327e+09 -3.613060e+09 -3.773367e+09 2.020533e+03 -3.468333e+04 -1.135071e+03
-3.372267e+09 -3.172070e+09 -3.332292e+09 -1.517817e+04 -5.627726e+04 4.721270e+03
-3.237953e+09 -3.037760e+09 -3.197986e+09 2.037549e+03 -6.007280e+04 -8.798403e+03
-3.229218e+09 -3.029156e+09 -3.189290e+09 -3.359314e+04 3.945387e+04 -1.239253e+04
-1.636358e+09 -1.436419e+09 -1.596422e+09 7.949663e+00 -9.697568e+03 1.852233e+04
-1.919362e+09 -1.719523e+09 -1.879499e+09 -6.968280e+04 3.101200e+04 -3.358529e+04
-4.875710e+09 -4.674935e+09 -4.835391e+09 -1.601186e+05 -4.005064e+04 5.343365e+03
-4.009299e+09 -3.808348e+09 -3.968481e+09 -4.410722e+04 -1.546086e+05 -5.211126e+04
-4.869971e+09 -4.669021e+09 -4.829396e+09 -6.034845e+04 9.434091e+04 2.463958e+04
-4.480598e+09 -4.279971e+09 -4.440283e+09 -6.186344e+04 3.861612e+04 -1.103834e+04
-1.608245e+09 -1.408266e+09 -1.568215e+09 -9.391117e+03 9.671420e+03 -8.569231e+04
-5.038878e+09 -4.838107e+09 -4.998428e+09 -2.021818e+05 4.635758e+03 -4.313714e+04
-4.009298e+09 -3.808394e+09 -3.968754e+09 -1.519891e+05 -9.824222e+04 9.816820e+04
-4.096967e+09 -3.896928e+09 -4.057031e+09 -5.759598e+03 -2.621339e+02 5.235155e+03
-4.519327e+09 -4.318654e+09 -4.478740e+09 -2.483803e+05 1.131896e+04 -1.937065e+04
-4.259386e+09 -4.059376e+09 -4.219484e+09 -4.900879e+04 -1.159858e+04 1.202044e+04
-2.045891e+09 -1.846178e+09 -2.006132e+09 -2.083936e+04 1.128006e+04 -1.050378e+05
-3.999940e+09 -3.799915e+09 -3.960012e+09 -2.428521e+04 -7.746782e+03 1.218826e+04
-3.687648e+09 -3.487624e+09 -3.647720e+09 -3.016548e+04 -1.191173e+04 1.273626e+04
-3.681232e+09 -3.481205e+09 -3.641306e+09 -2.394103e+04 -1.019685e+04 1.451123e+04
-4.755858e+09 -4.555824e+09 -4.715944e+09 -4.080280e+04 -3.308990e+03 8.392554e+03
-4.747332e+09 -4.547323e+09 -4.707418e+09 -3.174627e+04 -2.611953e+03 7.265323e+03
-2.924078e+09 -2.724079e+09 -2.884138e+09 -2.146997e+04 -1.659643e+04 1.238204e+04
-4.587333e+09 -4.387379e+09 -4.547407e+09 7.832880e+03 3.155643e+02 1.345568e+03
-4.448569e+09 -4.248610e+09 -4.408633e+09 1.088639e+03 5.233811e+02 1.992856e+02
-1.698897e+09 -1.498924e+09 -1.658917e+09 -5.215397e+02 9.083496e+04 -7.103781e+04
-4.782669e+09 -4.582715e+09 -4.742740e+09 6.118806e+03 3.021150e+02 1.007153e+03
-1.636113e+09 -1.436153e+09 -1.596167e+09 -1.704065e+03 6.852973e+04 1.565751e+02
-4.028269e+09 -3.828313e+09 -3.988336e+09 3.178913e+03 4.139476e+02 5.900503e+02
-4.722426e+09 -4.522468e+09 -4.682492e+09 2.103266e+03 -2.078297e+02 6.440910e+02
-4.162212e+09 -3.961092e+09 -4.120081e+09 4.143592e+05 1.643533e+05 2.628713e+05
-3.792166e+09 -3.592078e+09 -3.752225e+09 -2.647845e+04 1.581621e+04 -6.356820e+03
-4.477571e+09 -4.276704e+09 -4.436725e+09 1.175335e+05 8.350934e+03 -5.410785e+03
-4.907879e+09 -4.707906e+09 -4.867934e+09 6.129631e+02 -1.223703e+02 -5.107742e-05
-4.979681e+09 -4.780383e+09 -4.940370e+09 -5.428283e+04 8.971843e+03 -2.075276e+04
-1.909057e+09 -1.709190e+09 -1.869166e+09 3.557959e+04 4.340808e+04 -1.510647e+04
-1.592636e+09 -1.392574e+09 -1.552649e+09 -1.075014e+03 2.021029e+04 -7.513220e+03
-1.578031e+09 -1.377998e+09 -1.538054e+09 8.677082e+02 5.823798e+04 -2.989807e+04
-4.146905e+09 -3.945666e+09 -4.105236e+09 1.169265e+05 3.925497e+05 2.422503e+04
-4.686815e+09 -4.485904e+09 -4.646133e+09 2.987755e+05 4.606634e+04 2.556307e+04
-5.032744e+09 -4.831817e+09 -4.991591e+09 3.458298e+05 4.415534e+04 -8.616016e+04
-4.516646e+09 -4.315884e+09 -4.475141e+09 4.331556e+05 1.211505e+05 -2.170948e+04
-4.474419e+09 -4.273544e+09 -4.432827e+09 4.557311e+05 4.139047e+04 9.556033e+04
-5.033136e+09 -4.831893e+09 -4.991698e+09 2.203972e+05 3.511875e+04 -5.117023e+03
-1.636106e+09 -1.436127e+09 -1.596157e+09 -1.371814e+03 7.005930e+04 -3.961463e+03
-4.002644e+09 -3.802850e+09 -3.962920e+09 -1.209545e+05 -3.034179e+04 4.151810e+04
-4.002685e+09 -3.802865e+09 -3.962930e+09 -9.194040e+04 -1.149463e+04 3.401435e+04
-4.862589e+09 -4.662731e+09 -4.822816e+09 -9.465951e+04 -1.914002e+04 1.276116e+04
-4.002716e+09 -3.802858e+09 -3.962935e+09 -8.417446e+04 -1.475073e+04 3.731854e+04
-4.847048e+09 -4.647229e+09 -4.807325e+09 -1.280887e+05 -2.492278e+03 2.701038e+04
-4.477838e+09 -4.277959e+09 -4.438052e+09 -9.937402e+04 -1.360638e+04 2.509128e+04
-4.856393e+09 -4.656541e+09 -4.816619e+09 -8.085397e+04 6.970426e+02 1.047790e+04
-4.997930e+09 -4.797534e+09 -4.956686e+09 5.871842e+05 -2.846356e+03 1.680552e+03
-2.570484e+09 -2.370377e+09 -2.530493e+09 -6.721159e+02 3.191334e+03 -6.396785e+03
-3.376201e+09 -3.176110e+09 -3.336234e+09 4.261070e+03 3.109456e+03 7.093763e+03
-3.996111e+09 -3.795985e+09 -3.956140e+09 -2.611011e+03 6.637351e+03 -5.347934e+03
-1.911152e+09 -1.711057e+09 -1.871154e+09 5.577864e+03 7.927132e+03 -7.763421e+03
-2.633574e+09 -2.433476e+09 -2.593588e+09 -1.537078e+03 2.552246e+03 -6.968818e+03
-1.868552e+09 -1.668447e+09 -1.828544e+09 9.426288e+03 4.625345e+04 -1.658889e+04
-1.911124e+09 -1.711034e+09 -1.871128e+09 -6.765580e+03 7.053129e+03 -6.875089e+03
-1.636115e+09 -1.436029e+09 -1.596117e+09 -4.252896e+02 4.869431e+03 -5.802035e+03
-3.405926e+09 -3.205833e+09 -3.365959e+09 -6.532614e+03 1.025003e+04 -6.403147e+03
-2.162192e+09 -1.962097e+09 -2.122194e+09 -4.936736e+03 1.519604e+04 -6.855894e+03
-4.466788e+09 -4.266870e+09 -4.426892e+09 -9.177329e+03 -9.577113e+02 3.871508e+03
-4.212770e+09 -4.012837e+09 -4.172857e+09 -6.783050e+03 -6.908041e+02 2.803134e+03
-4.228600e+09 -4.028672e+09 -4.188690e+09 -7.364181e+03 -6.217028e+02 2.859544e+03
-4.134119e+09 -3.934199e+09 -4.094222e+09 -1.305367e+04 -2.695267e+03 6.712590e+03
-4.792842e+09 -4.592918e+09 -4.752935e+09 -5.263293e+03 9.090197e+02 1.787793e+03
-4.274250e+09 -4.074336e+09 -4.234359e+09 1.428265e+04 2.021244e+03 5.353411e+03
-4.820585e+09 -4.620664e+09 -4.780690e+09 -1.311979e+04 6.279287e+02 2.235347e+03
-4.810470e+09 -4.610538e+09 -4.770561e+09 -9.977225e+03 -1.621024e+03 1.544463e+03
-1.849869e+09 -1.649932e+09 -1.809944e+09 1.895896e+03 6.967637e+02 8.899178e+02
-1.860993e+09 -1.661070e+09 -1.821076e+09 1.475978e+02 2.645563e+02 1.435643e+03
-4.763193e+09 -4.563110e+09 -4.723268e+09 -2.826228e+04 -3.338523e+03 7.192102e+03
-4.471931e+09 -4.272001e+09 -4.432017e+09 1.059659e+03 6.221814e+02 4.177345e+02
-4.845748e+09 -4.645822e+09 -4.805882e+09 -4.027951e+04 -7.745356e+03 7.004052e+03
-3.958152e+09 -3.758255e+09 -3.918324e+09 -5.560895e+04 -1.165132e+04 2.669025e+04
-2.859048e+09 -2.659097e+09 -2.819119e+09 7.985555e+03 2.145392e+03 5.705344e+03
-4.584674e+09 -4.384618e+09 -4.544746e+09 -1.035848e+04 -3.239856e+03 5.905565e+03
-1.674057e+09 -1.474064e+09 -1.634105e+09 9.915592e+03 4.376774e+03 5.993261e+03
-3.033525e+09 -2.833560e+09 -2.993587e+09 5.003874e+03 1.477352e+03 1.026942e+03
-4.310729e+09 -4.110843e+09 -4.270904e+09 -4.834622e+04 -9.490767e+03 1.751208e+04
-4.486748e+09 -4.286850e+09 -4.446894e+09 -3.928649e+04 -4.580721e+03 1.136142e+04
-4.479004e+09 -4.279092e+09 -4.439160e+09 -5.381898e+04 -7.201884e+03 1.440015e+04
-3.881481e+09 -3.681497e+09 -3.841537e+09 1.037560e+04 2.976165e+03 2.257343e+03
-1.582127e+09 -1.382149e+09 -1.542180e+09 1.570800e+03 2.680546e+02 2.084161e+02
-1.671736e+09 -1.471767e+09 -1.631795e+09 5.641871e+03 1.186233e+03 2.414015e+03
-4.104339e+09 -3.904723e+09 -4.064670e+09 1.082087e+05 3.435857e+03 2.880534e+04
-2.857071e+09 -2.657099e+09 -2.817131e+09 6.700756e+03 1.950522e+03 2.273580e+03
-1.572645e+09 -1.372670e+09 -1.532700e+09 4.819231e+03 1.177433e+03 1.224709e+03
-4.641379e+09 -4.441750e+09 -4.601748e+09 -9.318081e+04 3.478689e+03 1.850124e+04
-4.998919e+09 -4.799446e+09 -4.959356e+09 -6.821436e+04 -1.490839e+04 3.076276e+04
-4.989958e+09 -4.790459e+09 -4.950359e+09 7.109328e+04 4.583432e+03 3.843101e+04
-4.463031e+09 -4.263447e+09 -4.423419e+09 1.742165e+04 3.130498e+03 3.692968e+04
-3.973969e+09 -3.774461e+09 -3.934352e+09 7.807908e+03 2.304492e+03 4.386653e+04
-4.134400e+09 -3.934957e+09 -4.094873e+09 6.467970e+04 7.829430e+03 8.168963e+04
-3.927666e+09 -3.727428e+09 -3.887716e+09 -3.525190e+04 -2.305041e+04 8.689072e+03
-4.820177e+09 -4.619939e+09 -4.780251e+09 -9.663512e+04 -2.351696e+04 1.577647e+04
-2.258932e+09 -2.059030e+09 -2.219027e+09 -1.058714e+05 8.321422e+04 -1.561030e+05
-4.678033e+09 -4.477843e+09 -4.638125e+09 -7.649046e+04 -1.003159e+04 6.186591e+03
-4.291057e+09 -4.090906e+09 -4.251123e+09 -4.809815e+04 -2.512595e+04 1.040663e+04
-3.884027e+09 -3.683977e+09 -3.844089e+09 -5.119628e+03 -2.185093e+03 7.189800e+03
-2.185795e+09 -1.985978e+09 -2.145976e+09 -8.590697e+03 5.393766e+04 -6.368844e+04
-1.570582e+09 -1.370579e+09 -1.530596e+09 3.371848e+03 7.495098e+04 -5.588991e+04
-4.101348e+09 -3.901173e+09 -4.061410e+09 -3.814712e+04 -2.475916e+04 1.283343e+04
-4.984188e+09 -4.784156e+09 -4.944262e+09 -1.250608e+04 -2.123015e+03 -4.372785e+02
-4.828035e+09 -4.627800e+09 -4.788103e+09 -7.084093e+04 -2.912673e+03 2.917518e+02
-1.949417e+09 -1.749503e+09 -1.909463e+09 -2.611234e+04 8.637548e+04 -1.011649e+05
-3.845042e+09 -3.644910e+09 -3.805088e+09 5.005187e+03 -2.708339e+03 -1.077103e+04
-4.476949e+09 -4.276380e+09 -4.436837e+09 1.232176e+05 -3.914758e+04 -1.651017e+04
-3.957219e+09 -3.756675e+09 -3.916640e+09 -3.394565e+05 1.547541e+04 -4.465855e+03
-4.998278e+09 -4.797771e+09 -4.958177e+09 1.906466e+05 -2.895388e+04 -2.693420e+04
-4.138702e+09 -3.938021e+09 -4.098402e+09 2.087653e+05 -1.118793e+05 -2.724209e+04
-2.137195e+09 -1.937596e+09 -2.097524e+09 -6.690473e+03 1.701489e+04 -8.717539e+04
-3.651823e+09 -3.451837e+09 -3.611991e+09 4.508259e+04 -3.298336e+04 -1.188756e+04
-1.523484e+09 -1.323551e+09 -1.483554e+09 -3.581273e+03 -2.678964e+04 -9.205951e+04
-5.003389e+09 -4.802787e+09 -4.958405e+09 6.406484e+05 8.220396e+04 8.422956e+04
-1.556491e+09 -1.356516e+09 -1.516497e+09 7.475928e+03 8.710890e+04 -4.987641e+04
-3.158478e+09 -2.958974e+09 -3.118942e+09 1.387810e+04 2.320851e+03 -5.550183e+04
-1.896004e+09 -1.696143e+09 -1.856096e+09 -3.048570e+04 7.002648e+04 -1.209942e+05
-4.308467e+09 -4.107754e+09 -4.268144e+09 1.730564e+05 -6.709537e+04 -4.794474e+04
-4.824942e+09 -4.624263e+09 -4.784728e+09 1.510270e+05 -7.770747e+04 -5.763946e+03
-4.821733e+09 -4.621472e+09 -4.781727e+09 3.255044e+05 -4.534628e+04 -2.144174e+04
-4.502243e+09 -4.301950e+09 -4.462309e+09 3.107161e+05 -4.564455e+04 -3.568509e+04
-4.963016e+09 -4.763723e+09 -4.923706e+09 4.685027e+04 -5.942903e+03 -1.901570e+04
-4.674259e+09 -4.474166e+09 -4.634343e+09 -3.962095e+04 1.020432e+04 -5.018260e+03
-4.818249e+09 -4.618126e+09 -4.778122e+09 -4.194438e+05 1.522495e+04 4.058214e+04
-3.961555e+09 -3.760949e+09 -3.920932e+09 3.265299e+05 -4.080598e+04 -3.491857e+04
-4.990903e+09 -4.791178e+09 -4.951199e+09 3.407045e+05 -2.899695e+04 -2.773850e+04
-1.621106e+09 -1.421161e+09 -1.581155e+09 1.061109e+04 6.605469e+04 -3.035469e+04
-4.127426e+09 -3.926223e+09 -4.080555e+09 -2.775429e+05 -1.676138e+06 7.289602e+03
-2.950290e+09 -2.750708e+09 -2.910676e+09 2.070965e+04 -1.762068e+04 -1.850494e+04
-2.963230e+09 -2.763767e+09 -2.923743e+09 1.692962e+04 -7.236467e+03 -8.699249e+04
-2.620805e+09 -2.421118e+09 -2.581131e+09 1.491658e+03 -1.919036e+04 9.755745e+03
-2.943581e+09 -2.743722e+09 -2.903816e+09 5.894805e+04 -6.517276e+04 -4.601000e+04
-4.643858e+09 -4.443365e+09 -4.602833e+09 -5.575849e+05 1.294957e+05 -1.142213e+05
-4.651833e+09 -4.451384e+09 -4.611301e+09 4.320750e+05 -3.463925e+03 -1.005710e+03
-4.824535e+09 -4.624210e+09 -4.784245e+09 4.171188e+05 -1.938892e+04 -4.596870e+04
-4.530994e+09 -4.330774e+09 -4.491040e+09 3.167726e+03 -4.239740e+03 -1.340931e+03
-4.138106e+09 -3.937752e+09 -4.097761e+09 3.925310e+05 -1.815022e+04 3.273432e+04
-2.089876e+09 -1.889863e+09 -2.049928e+09 -2.140791e+04 -2.890772e+04 2.736073e+04
-5.014686e+09 -4.814756e+09 -4.974961e+09 1.008528e+05 -1.053111e+04 -8.991359e+03
-4.481924e+09 -4.281334e+09 -4.441744e+09 3.277204e+05 -3.040676e+04 1.829895e+04
-2.915672e+09 -2.716253e+09 -2.875966e+09 2.915310e+04 -6.704367e+03 -5.703851e+04
-2.147588e+09 -1.948021e+09 -2.107861e+09 -9.211644e+03 -1.455753e+04 -1.007188e+05
-2.662671e+09 -2.463181e+09 -2.623080e+09 4.592214e+04 -2.703175e+04 -2.202918e+04
-2.285992e+09 -2.086305e+09 -2.246247e+09 3.510236e+04 -4.526650e+04 -4.644568e+04
-4.441109e+09 -4.239761e+09 -4.398720e+09 -6.412836e+04 2.095414e+05 6.365752e+04
-1.674146e+09 -1.474064e+09 -1.634142e+09 -4.551038e+03 -9.145228e+04 -2.194346e+04
-3.041944e+09 -2.842519e+09 -3.002417e+09 -2.224185e+04 1.476449e+04 -1.180322e+05
-2.432105e+09 -2.232534e+09 -2.392357e+09 -4.015187e+04 9.070832e+03 -1.399777e+05
-2.955549e+09 -2.755954e+09 -2.915896e+09 2.792082e+04 -7.186508e+03 -4.805585e+04
-4.300096e+09 -4.099941e+09 -4.260188e+09 8.602595e+04 -3.237981e+04 -2.011081e+04
-3.766768e+09 -3.566980e+09 -3.727114e+09 4.151057e+04 -5.230475e+04 -2.139441e+04
-4.074340e+09 -3.874708e+09 -4.034777e+09 1.216283e+05 -5.460803e+04 -5.809813e+04
-4.353617e+09 -4.153655e+09 -4.313678e+09 -5.209407e+02 -4.562638e+02 1.635942e+02
-4.685264e+09 -4.485551e+09 -4.645690e+09 5.279157e+04 -1.781047e+04 -1.347331e+04
-1.696560e+09 -1.496620e+09 -1.656450e+09 -1.151174e+04 6.627305e+04 -1.432732e+05
-3.510749e+09 -3.310645e+09 -3.470798e+09 3.691354e+03 -2.588388e+03 -9.933449e+03
-3.427572e+09 -3.227648e+09 -3.387790e+09 1.390760e+04 -5.291754e+04 -3.457750e+03
-4.074637e+09 -3.874941e+09 -4.035054e+09 6.849499e+04 -3.984905e+04 -4.098986e+04
-4.641484e+09 -4.441519e+09 -4.601613e+09 5.951116e+04 8.036161e+03 8.327050e+03
-4.814817e+09 -4.614856e+09 -4.774945e+09 5.693328e+04 1.099649e+04 2.326678e+03
-4.320913e+09 -4.120930e+09 -4.281012e+09 4.091508e+04 7.225925e+03 1.044779e+04
-4.128354e+09 -3.928390e+09 -4.088479e+09 5.701051e+04 6.127225e+03 1.902334e+04
-4.478452e+09 -4.277971e+09 -4.438442e+09 -2.085200e+05 4.340708e+04 -2.724946e+03
-4.825246e+09 -4.626222e+09 -4.785637e+09 -1.680913e+05 -6.791029e+04 1.787455e+04
-3.975819e+09 -3.775803e+09 -3.935816e+09 3.177806e+05 -3.964644e+04 -2.344518e+04
-3.968258e+09 -3.767891e+09 -3.928280e+09 -2.234923e+05 3.498063e+04 3.042639e+03
-4.502411e+09 -4.302020e+09 -4.462365e+09 -1.439844e+05 5.311838e+04 -1.432281e+04
-3.968317e+09 -3.768036e+09 -3.928305e+09 -1.716091e+05 6.189645e+04 -2.648968e+04
-4.997937e+09 -4.797543e+09 -4.957965e+09 -2.426351e+05 3.607565e+04 -2.022500e+04
-4.318085e+09 -4.117950e+09 -4.276912e+09 -7.024497e+05 1.851488e+05 1.834736e+04
-4.275801e+09 -4.075838e+09 -4.235861e+09 -7.705933e+02 -1.830466e+02 1.347548e+02
-4.142291e+09 -3.940680e+09 -4.098664e+09 -9.618364e+04 6.125152e+05 3.517667e+04
-2.789941e+09 -2.589998e+09 -2.750015e+09 -4.101282e+02 -3.785620e+02 8.893822e+02
-3.439453e+09 -3.239544e+09 -3.399560e+09 -5.748301e+03 -1.833030e+03 1.172754e+04
-4.485684e+09 -4.284177e+09 -4.443112e+09 3.854506e+04 3.404451e+05 3.699656e+04
-3.935088e+09 -3.733833e+09 -3.893313e+09 -2.233030e+05 2.507200e+05 -1.010239e+05
-4.976230e+09 -4.776318e+09 -4.936331e+09 -6.544878e+02 4.463832e+02 1.199252e+03
-4.611502e+09 -4.410380e+09 -4.569613e+09 -2.599806e+05 2.673343e+05 -1.157719e+04
-1.636009e+09 -1.436086e+09 -1.596091e+09 -2.699361e+01 -2.503587e+01 1.954659e+03
-4.599010e+09 -4.399099e+09 -4.559116e+09 -1.022340e+03 -2.616465e+02 1.350009e+03
-4.983614e+09 -4.782503e+09 -4.940867e+09 -1.773111e+05 3.447071e+04 -2.346550e+04
-4.475512e+09 -4.275563e+09 -4.435633e+09 -4.574098e+04 -7.194582e+03 9.412817e+03
-4.828139e+09 -4.628219e+09 -4.788306e+09 -6.801441e+04 -1.286079e+04 4.236004e+03
-3.636145e+09 -3.436221e+09 -3.596232e+09 -5.241004e+02 -2.566593e+02 1.192625e+03
-4.453857e+09 -4.253914e+09 -4.413933e+09 -2.455730e+03 -5.832858e+02 5.841772e+02
-2.779875e+09 -2.579910e+09 -2.739934e+09 3.478432e+02 -4.452688e+01 1.330498e+02
-4.311673e+09 -4.111748e+09 -4.271838e+09 -7.218327e+04 -1.385929e+04 2.064752e+04
-4.132290e+09 -3.932337e+09 -4.092411e+09 -4.839246e+04 -4.816146e+03 1.655005e+04
-4.355383e+09 -4.155406e+09 -4.315435e+09 1.416397e+02 1.147808e+02 3.769791e+00
-4.141676e+09 -3.941749e+09 -4.101837e+09 -6.727991e+04 -7.358859e+03 2.598912e+04
-4.050186e+09 -3.850098e+09 -4.010222e+09 -5.279935e+03 5.718933e+03 -5.319784e+03
-2.896829e+09 -2.696759e+09 -2.856859e+09 -6.760804e+03 1.821297e+04 -8.438599e+03
-4.134224e+09 -3.934252e+09 -4.094288e+09 1.326728e+04 1.436737e+03 2.621947e+03
-1.636013e+09 -1.436051e+09 -1.596075e+09 7.866661e+02 4.966759e+02 4.239422e+02
-2.853319e+09 -2.653346e+09 -2.813373e+09 3.789498e+01 1.894265e+01 2.212671e+02
-2.206928e+09 -2.006857e+09 -2.166948e+09 -4.833520e+03 2.203581e+04 -8.253893e+03
-2.885129e+09 -2.685207e+09 -2.845215e+09 -7.508850e+02 -1.036922e+03 1.651561e+03
-2.528914e+09 -2.328972e+09 -2.488990e+09 2.111223e+03 8.092073e+02 1.007489e+03
-2.701370e+09 -2.501395e+09 -2.661424e+09 3.551552e+02 2.776595e+02 2.017979e+02
-3.021288e+09 -2.821365e+09 -2.981373e+09 -4.984422e+02 -8.841024e+02 1.900164e+03
-3.053386e+09 -2.853459e+09 -3.013480e+09 9.913367e+03 4.688529e+03 9.345899e+03
-3.063570e+09 -2.863646e+09 -3.023655e+09 -1.286734e+03 -8.231404e+02 1.722824e+03
-1.582125e+09 -1.382148e+09 -1.542179e+09 1.319832e+03 3.463729e+02 -2.892803e+02
-2.665318e+09 -2.465392e+09 -2.625404e+09 -1.749011e+03 -5.129703e+02 3.745213e+03
-2.305895e+09 -2.105928e+09 -2.265955e+09 6.535570e+03 6.099783e+02 2.216531e+03
-1.938377e+09 -1.738453e+09 -1.898460e+09 -2.453564e+02 -9.606664e+02 1.466221e+03
-2.186050e+09 -1.986125e+09 -2.146132e+09 -4.702564e+02 -2.086426e+02 8.813282e+02
-1.584852e+09 -1.384890e+09 -1.544914e+09 -2.538353e+03 -1.152799e+03 1.327487e+03
-1.698681e+09 -1.498716e+09 -1.658741e+09 -3.425637e+02 -1.867648e+02 2.323023e+02
-4.820724e+09 -4.620630e+09 -4.780789e+09 5.392879e+04 8.746697e+03 4.977049e+03
-4.641852e+09 -4.441752e+09 -4.601926e+09 5.849887e+04 8.933505e+03 1.175811e+04
-2.169303e+09 -1.969327e+09 -2.129360e+09 -6.470323e+03 -2.748123e+03 3.341678e+03
-2.049485e+09 -1.849523e+09 -2.009546e+09 -1.856622e+03 -4.914907e+02 8.822709e+02
-3.957250e+09 -3.757186e+09 -3.917329e+09 5.955612e+04 2.261700e+04 1.037764e+04
-2.062727e+09 -1.862768e+09 -2.022790e+09 -1.775005e+03 -4.592159e+02 7.588844e+02
-3.432961e+09 -3.233009e+09 -3.393035e+09 -9.324491e+03 -2.157202e+03 3.576701e+03
-4.807342e+09 -4.607272e+09 -4.767433e+09 6.806538e+04 6.523899e+03 -2.070635e+03
-4.984338e+09 -4.784260e+09 -4.944443e+09 7.706759e+04 3.254524e+03 7.128493e+03
-4.818849e+09 -4.618800e+09 -4.778928e+09 4.669909e+04 6.955437e+03 8.517772e+03
-1.582843e+09 -1.382894e+09 -1.542912e+09 -7.439935e+02 -6.252399e+02 5.789820e+02
-2.078125e+09 -1.878176e+09 -2.038193e+09 -5.435281e+02 -2.802730e+02 6.580145e+02
-2.147166e+09 -1.947229e+09 -2.107242e+09 -1.269886e+03 -5.326150e+02 1.171086e+03
-4.475619e+09 -4.275573e+09 -4.435689e+09 4.192523e+04 8.673518e+03 6.329859e+03
-4.650231e+09 -4.450184e+09 -4.610323e+09 5.214190e+04 1.209620e+04 4.456735e+03
-2.697776e+09 -2.497827e+09 -2.657845e+09 -7.697735e+02 -8.041067e+02 3.715752e+02
-3.641926e+09 -3.441993e+09 -3.602008e+09 -7.257216e+02 -1.873026e+02 9.483631e+02
-4.650994e+09 -4.451122e+09 -4.611159e+09 -3.307517e+04 -3.590465e+02 8.062162e+03
-3.851571e+09 -3.651643e+09 -3.811664e+09 -9.152930e+03 -1.572359e+03 5.065077e+03
-3.967818e+09 -3.767949e+09 -3.927976e+09 -1.823777e+04 -2.250732e+03 1.801389e+04
-4.676263e+09 -4.476412e+09 -4.636453e+09 -1.755370e+04 -6.282937e+02 4.601327e+03
-4.653379e+09 -4.453529e+09 -4.613559e+09 -2.452339e+04 -2.865349e+02 7.926491e+03
-4.641009e+09 -4.441197e+09 -4.601244e+09 -3.335655e+04 -8.578778e+02 1.076571e+04
-4.483333e+09 -4.283523e+09 -4.443564e+09 -1.569774e+04 -2.299964e+03 1.947453e+04
-4.991153e+09 -4.791337e+09 -4.951378e+09 -1.595797e+04 8.869223e+02 1.235471e+04
-2.775255e+09 -2.575129e+09 -2.735287e+09 -1.091820e+04 -2.313069e+04 1.220113e+04
-4.295775e+09 -4.095987e+09 -4.256011e+09 -3.277171e+04 -8.403449e+03 3.026014e+04
-4.131200e+09 -3.931409e+09 -4.091442e+09 -2.648804e+04 -5.970588e+03 3.422821e+04
-4.780565e+09 -4.580394e+09 -4.740605e+09 1.393978e+04 5.878608e+03 -1.038370e+03
-4.460951e+09 -4.260804e+09 -4.420982e+09 2.044110e+03 1.784286e+03 1.293098e+03
-2.192075e+09 -1.991907e+09 -2.152081e+09 8.409599e+03 -6.731288e+04 -1.569732e+04
-4.508298e+09 -4.308138e+09 -4.468330e+09 3.993274e+03 4.688189e+03 3.709607e+02
-4.503180e+09 -4.303037e+09 -4.463214e+09 6.988894e+03 3.596277e+03 1.399739e+03
-4.761976e+09 -4.561821e+09 -4.722012e+09 1.209127e+04 4.782149e+03 3.186884e+03
-2.903991e+09 -2.703778e+09 -2.864010e+09 6.509553e+03 -8.785904e+04 1.444287e+03
-3.795715e+09 -3.595579e+09 -3.755743e+09 -6.435115e+02 1.154279e+04 2.426502e+03
-4.719756e+09 -4.519606e+09 -4.679788e+09 3.954376e+03 2.464137e+03 -1.716712e+03
-4.147055e+09 -3.947159e+09 -4.107260e+09 1.080940e+05 2.663827e+04 2.418963e+04
-4.617656e+09 -4.417755e+09 -4.577883e+09 1.682172e+05 1.704454e+04 2.106665e+04
-4.132398e+09 -3.932326e+09 -4.092563e+09 2.011757e+05 6.153401e+04 5.302136e+04
-3.971480e+09 -3.771454e+09 -3.931625e+09 2.079109e+05 7.039841e+04 4.727322e+04
-4.905112e+09 -4.705092e+09 -4.865178e+09 -4.376149e+03 -2.749573e-05 3.518530e+02
-4.150305e+09 -3.950371e+09 -4.110525e+09 2.223549e+05 4.331126e+04 4.859676e+04
-5.001171e+09 -4.801126e+09 -4.961301e+09 2.293340e+05 -6.724813e+03 9.435447e+03
-3.060143e+09 -2.860176e+09 -3.020200e+09 -3.238804e+02 -3.173885e+01 9.106737e+01
-3.283994e+09 -3.084028e+09 -3.244053e+09 -1.281404e+03 -3.931537e+02 4.256238e+02
-3.320584e+09 -3.120618e+09 -3.280644e+09 -2.820275e+03 -6.887969e+02 8.312459e+02
-3.456592e+09 -3.256629e+09 -3.416652e+09 -4.544097e+02 -3.670100e+02 1.686278e+02
-4.836757e+09 -4.636844e+09 -4.796993e+09 2.318241e+05 1.618208e+04 5.552413e+03
-4.979267e+09 -4.779308e+09 -4.939332e+09 -1.777533e+03 3.487761e+02 2.866613e+02
-3.377087e+09 -3.177123e+09 -3.337147e+09 -6.085232e+02 -1.442603e+02 1.428162e+02
-1.916451e+09 -1.716493e+09 -1.876513e+09 -2.554314e+03 -8.159624e+02 1.139994e+03
-2.601522e+09 -2.401509e+09 -2.561608e+09 1.994775e+04 -5.522347e+04 -2.240539e+04
-2.283756e+09 -2.083791e+09 -2.243815e+09 -2.491891e+02 -2.780973e+00 -1.458026e+02
-3.826012e+09 -3.625784e+09 -3.786061e+09 3.165830e+04 -3.202507e+04 -8.193601e+03
-2.057645e+09 -1.857673e+09 -2.017701e+09 -5.281470e+02 -1.952190e+02 4.839676e+02
-3.168535e+09 -2.968343e+09 -3.128561e+09 1.198811e+04 -7.448208e+04 -2.599468e+04
-3.991498e+09 -3.791275e+09 -3.951543e+09 2.599313e+04 -2.947610e+04 -1.281659e+04
-3.979897e+09 -3.779652e+09 -3.939937e+09 1.727585e+04 -3.330578e+04 -8.644034e+03
-3.817146e+09 -3.616890e+09 -3.777189e+09 2.046749e+04 -3.387485e+04 -7.362120e+03
-2.795765e+09 -2.596163e+09 -2.756088e+09 1.083330e+05 -4.517960e+04 -2.677945e+04
-2.691428e+09 -2.491704e+09 -2.651620e+09 9.318596e+04 -5.931049e+04 -8.317254e+04
-2.513517e+09 -2.313864e+09 -2.473791e+09 2.439711e+04 -3.429444e+04 -7.868449e+04
-4.707629e+09 -4.507672e+09 -4.667694e+09 -1.727251e+03 6.558036e+01 5.825555e+02
-3.464231e+09 -3.264272e+09 -3.424294e+09 -5.614775e+02 -5.512965e+02 3.484513e+02
-2.738235e+09 -2.538650e+09 -2.698645e+09 6.384529e+04 -4.641665e+04 -5.089520e+04
-2.724901e+09 -2.524944e+09 -2.684966e+09 5.209483e+03 1.349241e+03 2.480402e+03
-1.568889e+09 -1.368862e+09 -1.528912e+09 -8.020289e+03 -3.939076e+04 2.801301e+04
-2.074332e+09 -1.874300e+09 -2.034368e+09 -1.475472e+03 -4.358755e+03 1.152215e+04
-4.435863e+09 -4.235919e+09 -4.396096e+09 -1.520284e+04 2.250374e+04 -5.169434e+02
-3.913014e+09 -3.713068e+09 -3.873231e+09 -6.646440e+04 3.236294e+04 -1.740043e+04
-2.100537e+09 -1.900494e+09 -2.060568e+09 -5.670361e+03 -8.985859e+03 1.421422e+04
-4.977372e+09 -4.777259e+09 -4.937443e+09 1.215333e+04 -4.786433e+03 -1.467607e+02
-4.049741e+09 -3.849816e+09 -4.009981e+09 -3.759753e+04 3.532925e+04 -1.275977e+04
-2.767333e+09 -2.567323e+09 -2.727395e+09 -2.560594e+04 -1.962431e+04 1.796710e+04
-1.585405e+09 -1.385408e+09 -1.545450e+09 -7.669285e+03 -7.794527e+03 9.172803e+03
-4.725359e+09 -4.525334e+09 -4.685428e+09 -7.929808e+03 4.831861e+02 3.533438e+03
-4.770950e+09 -4.570934e+09 -4.731123e+09 -5.287474e+04 1.131257e+04 -9.529148e+02
-4.488920e+09 -4.288933e+09 -4.449116e+09 -3.410089e+04 1.734289e+04 -1.838879e+03
-2.161877e+09 -1.961840e+09 -2.121912e+09 -5.407272e+03 -6.639068e+03 1.546240e+04
-4.709722e+09 -4.509756e+09 -4.669940e+09 -2.439415e+04 1.238564e+04 3.767571e+03
-2.645328e+09 -2.445290e+09 -2.605400e+09 1.245862e+04 -3.914611e+04 -7.984212e+03
-2.917307e+09 -2.717334e+09 -2.877447e+09 6.398860e+03 -5.638879e+04 -1.107982e+04
-4.996284e+09 -4.796324e+09 -4.956349e+09 2.436451e+03 -7.006342e+02 -9.858871e+01
-2.787179e+09 -2.587144e+09 -2.747255e+09 5.073132e+03 -3.516985e+04 -8.300752e+03
-4.105905e+09 -3.904786e+09 -4.064523e+09 -2.341959e+05 1.744071e+05 -7.542047e+04
-2.422433e+09 -2.222398e+09 -2.382478e+09 -2.224529e+03 -5.431337e+03 1.254105e+04
-2.591246e+09 -2.391237e+09 -2.551297e+09 -2.503122e+03 -1.108008e+03 1.026001e+04
-1.946999e+09 -1.746977e+09 -1.907035e+09 -5.300813e+03 -5.294203e+03 1.311103e+04
-3.044056e+09 -2.844061e+09 -3.004181e+09 6.306491e+03 -5.264540e+04 -1.292258e+04
-1.696261e+09 -1.496238e+09 -1.656301e+09 -4.510230e+02 -5.265699e+04 -1.098771e+04
-2.926380e+09 -2.726203e+09 -2.886415e+09 2.857051e+04 -8.290187e+04 -2.522250e+04
-1.943272e+09 -1.743237e+09 -1.903315e+09 1.148357e+04 -4.444428e+04 -5.811834e+03
-3.457543e+09 -3.257483e+09 -3.417640e+09 -5.503666e+04 5.347905e+04 -3.138883e+04
-3.617344e+09 -3.417507e+09 -3.577630e+09 6.952274e+04 -4.605755e+04 -2.581980e+04
-3.635888e+09 -3.435706e+09 -3.595922e+09 1.826994e+03 -3.298339e+03 -4.004116e+03
-2.628088e+09 -2.428197e+09 -2.588280e+09 1.561401e+04 -5.966112e+04 1.299371e+04
-2.007155e+09 -1.806990e+09 -1.967165e+09 7.840219e+03 -6.770981e+04 -8.884980e+03
-3.242782e+09 -3.043115e+09 -3.203146e+09 3.213809e+04 -5.514205e+04 -2.727643e+04
-3.510111e+09 -3.310352e+09 -3.470456e+09 3.650325e+04 -4.417582e+04 1.207168e+04
-3.466987e+09 -3.267185e+09 -3.427318e+09 4.086928e+04 -4.950287e+04 -1.483090e+04
-2.145288e+09 -1.945176e+09 -2.105296e+09 2.236081e+03 -3.528758e+03 -1.255319e+04
-3.469459e+09 -3.269293e+09 -3.429496e+09 7.354825e+03 -5.767180e+03 -9.117164e+03
-4.814106e+09 -4.613873e+09 -4.774142e+09 2.003836e+04 1.038413e+04 -4.002963e+01
-4.151845e+09 -3.951625e+09 -4.111879e+09 3.825500e+04 3.304272e+04 1.029877e+03
-4.035504e+09 -3.835311e+09 -3.995535e+09 1.425886e+04 2.418450e+04 5.576583e+03
-4.639534e+09 -4.438578e+09 -4.598966e+09 -5.600584e+04 3.101379e+04 1.936300e+04
-3.514280e+09 -3.314152e+09 -3.474337e+09 3.074652e+04 -3.226658e+04 -1.437104e+04
-4.058617e+09 -3.858430e+09 -4.018654e+09 2.349854e+04 2.500886e+04 1.695057e+03
-4.576850e+09 -4.376685e+09 -4.536892e+09 1.308965e+04 4.324564e+03 3.461539e+03
-4.790813e+09 -4.590610e+09 -4.750849e+09 1.556113e+04 1.186206e+04 -2.461610e+03
-4.114836e+09 -3.914713e+09 -4.074907e+09 2.849151e+04 -1.843629e+04 -1.274609e+04
-2.237407e+09 -2.037491e+09 -2.197498e+09 3.517768e+03 4.332991e+02 1.338730e+04
-2.580230e+09 -2.380103e+09 -2.540250e+09 -8.297713e+02 -5.522501e+03 4.777281e+03
-3.975971e+09 -3.775764e+09 -3.936013e+09 -2.462641e+02 -1.685116e+04 -3.440446e+02
-2.598745e+09 -2.398617e+09 -2.558763e+09 1.537415e+03 -5.495047e+03 -1.220031e+04
-3.955488e+09 -3.755308e+09 -3.915539e+09 -2.517953e+04 -2.117361e+04 3.587363e+03
-4.711472e+09 -4.511252e+09 -4.671521e+09 -2.378088e+02 -9.894724e+02 1.930628e+03
-2.002714e+09 -1.802792e+09 -1.962797e+09 1.170646e+03 3.503785e+02 4.618741e+03
-2.189826e+09 -1.989710e+09 -2.149834e+09 1.640150e+03 -2.148105e+04 -1.325072e+04
-3.959690e+09 -3.759510e+09 -3.919737e+09 2.238516e+04 -1.786613e+04 -5.847347e+03
-4.303900e+09 -4.103539e+09 -4.263930e+09 8.982360e+04 -6.425781e+04 -2.761787e+04
-3.840405e+09 -3.640488e+09 -3.800502e+09 1.357365e+03 4.828649e+01 4.920146e+03
-1.636124e+09 -1.436040e+09 -1.596126e+09 -8.602221e+01 -6.924105e+03 2.626052e+03
-2.577269e+09 -2.377353e+09 -2.537366e+09 4.947619e+02 -1.528304e+02 1.068530e+04
-3.388678e+09 -3.188499e+09 -3.348715e+09 1.522937e+03 -3.393021e+03 -2.310033e+03
-1.928039e+09 -1.728121e+09 -1.888128e+09 3.683785e+03 1.718508e+03 1.356534e+04
-2.781552e+09 -2.581413e+09 -2.741568e+09 -4.574503e+02 -5.591941e+03 -3.203535e+03
-1.898360e+09 -1.698442e+09 -1.858447e+09 1.623797e+03 -2.602992e+03 1.170319e+04
-4.099445e+09 -3.899388e+09 -4.059492e+09 1.062613e+04 4.297805e+03 3.924677e+03
-2.028222e+09 -1.828300e+09 -1.988307e+09 1.733103e+03 1.273220e+02 7.500694e+03
-3.580361e+09 -3.380445e+09 -3.540457e+09 2.197130e+03 3.911153e+02 5.098179e+03
-1.792774e+09 -1.592852e+09 -1.752857e+09 2.989529e+02 3.674665e+02 4.562104e+03
-1.673876e+09 -1.473800e+09 -1.633884e+09 4.958860e+03 6.465010e+04 6.219996e+03
-4.683584e+09 -4.482626e+09 -4.642690e+09 2.436511e+05 -6.827104e+04 -1.305354e+04
-2.862533e+09 -2.662419e+09 -2.822551e+09 -1.291151e+04 3.074152e+04 -1.305540e+04
-4.709226e+09 -4.507682e+09 -4.665262e+09 -3.343521e+05 4.545352e+05 -1.302233e+04
-1.895714e+09 -1.695629e+09 -1.855726e+09 2.512966e+04 5.045033e+04 1.139196e+04
-4.388566e+09 -4.188484e+09 -4.348600e+09 -1.673029e+03 9.575067e+02 -2.743123e+03
-4.482053e+09 -4.280618e+09 -4.439200e+09 1.986173e+05 1.995572e+05 2.304104e+05
-4.347666e+09 -4.146722e+09 -4.302000e+09 1.427002e+05 8.359858e+05 3.019256e+05
-3.069590e+09 -2.869511e+09 -3.029620e+09 8.655773e+03 9.270769e+03 1.033286e+04
-3.994676e+09 -3.795075e+09 -3.955110e+09 2.793239e+05 3.498854e+04 -1.837413e+04
-4.818732e+09 -4.618416e+09 -4.778752e+09 -1.192715e+04 6.881956e+03 -2.274544e+03
-5.006555e+09 -4.805829e+09 -4.958617e+09 1.977264e+05 3.406267e+05 -3.702716e+04
-3.980599e+09 -3.778722e+09 -3.936148e+09 -1.955063e+05 1.261303e+06 2.827248e+05
-4.365881e+09 -4.164349e+09 -4.321597e+09 -3.560013e+05 4.320805e+05 -1.089703e+05
-1.555061e+09 -1.354987e+09 -1.515057e+09 6.956900e+03 5.085860e+04 4.008926e+02
-4.975929e+09 -4.775722e+09 -4.935967e+09 8.491594e+03 7.988457e+03 -5.840207e+02
-4.963931e+09 -4.763759e+09 -4.924000e+09 -5.746697e+04 1.552199e+04 -6.206283e+03
-4.473244e+09 -4.273596e+09 -4.433598e+09 7.365498e+03 1.062090e+03 3.658539e+04
-4.975194e+09 -4.775547e+09 -4.935550e+09 -6.321945e+04 -9.299395e+03 1.976964e+04
-4.604942e+09 -4.405254e+09 -4.565296e+09 -9.600692e+04 -6.151169e+01 2.053678e+04
-4.129986e+09 -3.929746e+09 -4.090009e+09 -1.954804e+04 3.287089e+04 -4.335300e+03
-4.127183e+09 -3.927490e+09 -4.087518e+09 8.493632e+03 2.906963e+03 4.536797e+04
-4.153725e+09 -3.954150e+09 -4.114131e+09 -1.861859e+04 -1.669627e+03 7.210677e+04
-4.978004e+09 -4.777915e+09 -4.938116e+09 -5.692858e+04 5.980634e+03 -2.829869e+03
-5.000166e+09 -4.800529e+09 -4.960561e+09 9.071976e+02 8.204235e+03 2.684043e+04
-2.879624e+09 -2.679512e+09 -2.839661e+09 -1.835559e+04 4.747717e+04 -1.859840e+04
-3.506658e+09 -3.306531e+09 -3.466678e+09 -4.297920e+03 4.469176e+03 -4.481042e+03
-3.945531e+09 -3.745844e+09 -3.905844e+09 -5.538294e+04 -1.188014e+03 5.034799e+04
-4.843512e+09 -4.643397e+09 -4.803607e+09 -6.591708e+04 1.829115e+04 -1.478151e+03
-3.446717e+09 -3.246633e+09 -3.406806e+09 -5.670144e+04 4.834580e+04 -2.476627e+04
-1.696986e+09 -1.496944e+09 -1.657011e+09 -5.681203e+03 4.656749e+04 -1.799329e+04
-4.984465e+09 -4.784320e+09 -4.944518e+09 -2.616962e+04 5.975136e+03 -4.529758e+03
-4.137610e+09 -3.937485e+09 -4.097653e+09 -2.262120e+04 1.776958e+04 -7.428222e+03
-4.122684e+09 -3.922472e+09 -4.082721e+09 -2.683779e+04 3.575566e+04 -7.178239e+03
-3.396189e+09 -3.196914e+09 -3.356520e+09 7.481042e+04 -1.822627e+04 -1.018381e+05
-3.040707e+09 -2.840667e+09 -3.000844e+09 8.269007e+04 -7.684975e+04 -4.871415e+04
-5.000180e+09 -4.800530e+09 -4.960564e+09 -3.330668e+04 -1.433412e+04 2.273748e+04
-3.768387e+09 -3.568688e+09 -3.728799e+09 -4.700236e+04 4.914154e+04 -3.715335e+04
-4.708834e+09 -4.509097e+09 -4.669255e+09 -4.788728e+04 1.608334e+04 -1.268300e+04
-4.155487e+09 -3.955696e+09 -4.115844e+09 -1.441789e+05 5.568988e+04 -5.844326e+04
-4.453585e+09 -4.253692e+09 -4.413864e+09 -1.561999e+05 2.995573e+04 -2.354792e+04
-4.625582e+09 -4.425935e+09 -4.586028e+09 -1.723776e+05 4.938790e+02 -2.105089e+03
-4.300556e+09 -4.100264e+09 -4.260591e+09 6.468864e+04 -4.416377e+04 -1.320789e+04
-4.127034e+09 -3.927236e+09 -4.087219e+09 -3.762269e+05 5.499497e+04 -8.078863e+04
-4.847290e+09 -4.647070e+09 -4.807390e+09 1.535615e+05 -3.703284e+04 -1.996532e+04
-4.804660e+09 -4.605016e+09 -4.765075e+09 -2.089187e+05 2.992532e+04 -1.543163e+04
-4.288206e+09 -4.088312e+09 -4.248329e+09 -4.560258e+03 -1.785002e+03 8.076992e+03
-3.953916e+09 -3.752638e+09 -3.910935e+09 -5.050785e+05 5.491399e+05 -3.804270e+05
-1.850314e+09 -1.650239e+09 -1.810329e+09 -1.526772e+04 -1.244992e+04 1.490763e+04
-2.295971e+09 -2.095827e+09 -2.255981e+09 2.620645e+04 -5.743558e+04 -1.409813e+04
-4.805023e+09 -4.605122e+09 -4.765145e+09 -6.601421e+03 -1.182548e+02 3.006229e+03
-4.118558e+09 -3.918657e+09 -4.078676e+09 -6.349909e+03 -1.466424e+03 8.944426e+03
-3.977839e+09 -3.777676e+09 -3.937923e+09 1.548297e+05 -5.209728e+04 -3.463144e+04
-3.928658e+09 -3.728744e+09 -3.888762e+09 -8.923370e+03 -1.036788e+03 6.147481e+03
-4.810018e+09 -4.610100e+09 -4.770119e+09 -8.287873e+03 -2.316192e+03 1.660764e+03
-3.977774e+09 -3.777552e+09 -3.937918e+09 2.054326e+05 -3.934414e+04 -3.072847e+04
-4.486918e+09 -4.287007e+09 -4.447030e+09 -1.229152e+04 -1.322962e+03 5.063730e+03
-4.486922e+09 -4.287014e+09 -4.447035e+09 -7.887340e+03 -4.505302e+02 4.623891e+03
-4.476387e+09 -4.276202e+09 -4.436523e+09 1.503293e+05 -4.358629e+04 -2.230568e+04
-4.985873e+09 -4.785419e+09 -4.945842e+09 1.357943e+05 -3.795980e+04 -1.588738e+04
-3.989425e+09 -3.789299e+09 -3.949499e+09 -6.473039e+04 2.848548e+04 -1.953444e+04
-3.989431e+09 -3.789312e+09 -3.949505e+09 -4.759127e+04 2.504146e+04 -8.579297e+03
-2.124977e+09 -1.924866e+09 -2.084976e+09 -2.834185e+04 -8.988886e+04 2.595940e+04
-4.830306e+09 -4.630203e+09 -4.790373e+09 -3.462613e+04 9.171647e+03 3.653059e+02
-4.133662e+09 -3.933167e+09 -4.093610e+09 1.537798e+05 -8.222490e+04 -3.758446e+04
-5.003728e+09 -4.803420e+09 -4.963801e+09 1.642789e+05 -2.881811e+04 -1.825965e+04
-4.321147e+09 -4.121150e+09 -4.281298e+09 -9.864115e+04 -2.336374e+04 2.712434e+04
-3.961955e+09 -3.761800e+09 -3.922029e+09 -6.343114e+04 -2.670692e+04 1.290581e+04
-4.620686e+09 -4.420532e+09 -4.580745e+09 -4.393036e+04 2.011635e+04 -4.729675e+03
-4.963929e+09 -4.763781e+09 -4.924004e+09 -4.767813e+04 8.286486e+03 -8.275283e+03
-1.549734e+09 -1.349717e+09 -1.509767e+09 -9.937274e+03 -2.974303e+04 2.392598e+04
-1.868385e+09 -1.668368e+09 -1.828423e+09 -6.398614e+03 -1.101963e+04 1.295990e+04
-1.912922e+09 -1.712885e+09 -1.872954e+09 -1.641579e+04 -2.336907e+04 2.017449e+04
-3.271594e+09 -3.071518e+09 -3.231646e+09 -4.708631e+03 -3.013176e+03 1.673445e+04
-4.989318e+09 -4.788879e+09 -4.949291e+09 -1.397609e+05 -4.413413e+04 7.412278e+03
-2.157198e+09 -1.957082e+09 -2.117203e+09 -2.289916e+03 -3.982630e+03 9.559690e+03
-4.996998e+09 -4.796995e+09 -4.957211e+09 -2.583922e+05 -3.425044e+03 1.332803e+04
-1.800496e+09 -1.600454e+09 -1.760524e+09 4.141918e+02 -5.285985e+03 1.683301e+04
-3.962934e+09 -3.762908e+09 -3.923078e+09 -1.088733e+05 -3.422968e+04 2.555115e+04
-4.205928e+09 -4.005825e+09 -4.165992e+09 -3.109054e+04 1.814303e+04 -9.006235e+03
-3.439208e+09 -3.239207e+09 -3.399266e+09 -1.877534e+03 -1.352485e+03 6.554789e+03
-4.802416e+09 -4.602318e+09 -4.762524e+09 -6.087983e+04 3.904786e+03 -1.068746e+04
-4.157052e+09 -3.956931e+09 -4.117141e+09 -6.094120e+04 2.351931e+04 -1.850502e+04
-5.019135e+09 -4.819035e+09 -4.979216e+09 -3.645021e+04 6.183442e+02 -2.276717e+03
-1.561140e+09 -1.361123e+09 -1.521175e+09 1.109730e+04 1.235112e+04 9.961483e+03
-5.032335e+09 -4.832527e+09 -4.992624e+09 -1.174972e+05 -1.279700e+04 1.932145e+04
-4.457101e+09 -4.257018e+09 -4.417144e+09 -3.113394e+05 -3.583158e+04 5.731498e+04
-4.133591e+09 -3.933634e+09 -4.093668e+09 -1.251239e+04 -1.160378e+03 3.496272e+03
-4.985294e+09 -4.785339e+09 -4.945372e+09 -1.174735e+04 -5.498407e+02 -4.663180e+02
-4.150296e+09 -3.950347e+09 -4.110383e+09 -1.817199e+04 -4.708484e+03 4.236049e+03
-3.963443e+09 -3.763496e+09 -3.923551e+09 3.255826e+04 6.046660e+03 1.290747e+04
-4.287004e+09 -4.087046e+09 -4.247076e+09 -9.001238e+03 -1.891474e+03 2.048193e+03
-1.949585e+09 -1.749635e+09 -1.909653e+09 4.728527e+03 7.098941e+02 2.779904e+03
-1.846855e+09 -1.646904e+09 -1.806924e+09 7.193386e+03 2.980528e+03 4.662745e+03
-4.993450e+09 -4.793485e+09 -4.953525e+09 -1.369263e+04 6.743136e+02 1.440741e+02
-4.730733e+09 -4.530802e+09 -4.690819e+09 1.627691e+03 7.059108e+02 -7.351073e+01
-1.560177e+09 -1.360209e+09 -1.520236e+09 3.832264e+03 5.150618e+02 3.485561e+02
-1.671735e+09 -1.471768e+09 -1.631796e+09 7.093749e+03 2.182147e+03 2.136374e+03
-1.564618e+09 -1.364668e+09 -1.524687e+09 5.324133e+03 2.263346e+03 2.555856e+03
-2.808728e+09 -2.608775e+09 -2.768797e+09 3.697340e+03 3.071061e+02 1.224043e+03
-4.141757e+09 -3.941790e+09 -4.101839e+09 -1.954274e+04 -6.455331e+03 2.638847e+03
-3.881263e+09 -3.681303e+09 -3.841332e+09 1.049016e+04 1.498139e+03 3.331784e+03
-3.963122e+09 -3.763175e+09 -3.923218e+09 2.722640e+04 4.683410e+03 9.360733e+03
-3.972928e+09 -3.772991e+09 -3.933032e+09 2.429423e+04 3.986177e+03 1.004136e+04
-4.291934e+09 -4.091907e+09 -4.252091e+09 1.380427e+05 3.062345e+04 2.781569e+04
-3.755426e+09 -3.555460e+09 -3.715494e+09 -9.787863e+03 -2.200446e+03 1.929876e+03
-3.377953e+09 -3.177974e+09 -3.338009e+09 7.550571e+03 9.213763e+02 1.081768e+03
-4.458398e+09 -4.258436e+09 -4.418465e+09 -8.327246e+03 -1.086040e+03 1.247039e+03
-4.624747e+09 -4.424785e+09 -4.584813e+09 -6.984248e+03 3.821057e+02 1.039536e+03
-4.455833e+09 -4.257019e+09 -4.415043e+09 3.383804e+05 -2.085424e+04 -1.118664e+05
-1.922744e+09 -1.722790e+09 -1.882836e+09 -3.615369e+04 6.495428e+04 -2.033239e+04
-4.549168e+09 -4.349057e+09 -4.509231e+09 -3.038183e+04 1.299471e+04 -2.365010e+03
-3.968739e+09 -3.768450e+09 -3.928602e+09 -2.734868e+05 5.851078e+04 -3.427279e+04
-3.961813e+09 -3.761278e+09 -3.920681e+09 -5.030617e+05 -6.064178e+04 3.618502e+04
-1.636033e+09 -1.436077e+09 -1.596098e+09 8.800267e+02 6.707933e+02 6.999382e+02
-3.147043e+09 -2.947747e+09 -3.107456e+09 -6.993015e+04 7.693361e+03 -1.307959e+05
-3.955754e+09 -3.756215e+09 -3.914230e+09 5.197865e+05 -2.760885e+05 -3.909269e+05
-4.112626e+09 -3.913589e+09 -4.072183e+09 3.918562e+05 -6.801182e+04 -1.150663e+05
-4.791025e+09 -4.592140e+09 -4.749304e+09 2.616741e+05 -1.233258e+05 -2.150210e+03
-4.649452e+09 -4.449256e+09 -4.609527e+09 -6.413969e+04 1.864352e+04 -4.669897e+03
-3.955676e+09 -3.757056e+09 -3.914632e+09 4.395407e+05 -3.777606e+05 -5.018623e+05
-4.447494e+09 -4.248573e+09 -4.404920e+09 2.677255e+05 -1.766997e+05 -4.738435e+05
-4.648462e+09 -4.449754e+09 -4.608514e+09 -1.883587e+05 -2.167593e+05 9.708236e+04
-4.820825e+09 -4.619630e+09 -4.778465e+09 1.862022e+05 -9.216494e+03 7.452154e+04
-4.305080e+09 -4.106300e+09 -4.264330e+09 -1.351232e+05 6.977311e+04 -2.787184e+05
-2.072638e+09 -1.872950e+09 -2.032855e+09 6.679762e+04 -6.938253e+04 -1.033824e+05
-2.718063e+09 -2.518008e+09 -2.678127e+09 -1.848948e+04 3.567246e+04 -1.556871e+04
-4.446251e+09 -4.247359e+09 -4.405542e+09 2.274247e+05 1.649871e+04 -1.459877e+05
-3.946276e+09 -3.747250e+09 -3.905794e+09 1.055176e+05 -4.745795e+04 -1.594750e+05
-4.632650e+09 -4.433849e+09 -4.592934e+09 3.202553e+04 -2.926172e+03 -6.198281e+04
-4.438052e+09 -4.239420e+09 -4.397372e+09 -2.243492e+04 9.482206e+04 -2.763896e+05
-2.168366e+09 -1.968350e+09 -2.128403e+09 1.763379e+03 7.824227e+02 3.000492e+03
-4.283001e+09 -4.082831e+09 -4.243049e+09 -4.413441e+04 2.783982e+04 -1.022780e+04
-5.005797e+09 -4.805602e+09 -4.965858e+09 -4.647152e+04 9.320452e+03 -5.946139e+03
-4.807860e+09 -4.607722e+09 -4.767906e+09 -2.088025e+04 5.945480e+03 1.252496e+02
-4.485837e+09 -4.285901e+09 -4.445953e+09 3.674883e+04 4.730756e+03 8.721495e+03
-4.497454e+09 -4.297500e+09 -4.457565e+09 3.808684e+04 4.460643e+03 7.215731e+03
-3.960850e+09 -3.760866e+09 -3.920976e+09 7.077492e+04 2.069918e+04 1.854180e+04
-3.962802e+09 -3.762480e+09 -3.922796e+09 1.308879e+05 4.004117e+04 9.557589e+03
-4.153524e+09 -3.953566e+09 -4.113610e+09 2.199461e+04 7.037069e+02 6.935051e+03
-3.912339e+09 -3.712204e+09 -3.872387e+09 -2.955817e+04 2.225974e+04 -7.559408e+03
-4.297683e+09 -4.097500e+09 -4.257729e+09 -3.494354e+04 2.734618e+04 -9.426650e+03
-4.817837e+09 -4.617958e+09 -4.777988e+09 1.195998e+04 5.050684e+02 6.056223e+03
-3.963426e+09 -3.763489e+09 -3.923544e+09 4.018660e+04 7.469519e+03 1.536339e+04
-4.830590e+09 -4.630634e+09 -4.790675e+09 1.880633e+04 -1.041832e+03 2.480423e+03
-4.061511e+09 -3.861348e+09 -4.021552e+09 -2.879742e+04 2.318828e+04 -3.643986e+03
-4.025938e+09 -3.825793e+09 -3.985975e+09 -2.148405e+04 1.843439e+04 -9.556580e+03
-4.115112e+09 -3.916007e+09 -4.075289e+09 2.337834e+05 6.182687e+03 1.282035e+03
-3.946883e+09 -3.747740e+09 -3.906495e+09 2.125960e+05 2.000889e+04 -2.234330e+05
-4.801543e+09 -4.602457e+09 -4.761611e+09 2.342500e+05 -3.813989e+03 -5.326324e+04
-4.633714e+09 -4.434611e+09 -4.593913e+09 3.999535e+05 -1.763458e+05 1.458011e+05
-4.290312e+09 -4.091159e+09 -4.249918e+09 3.852005e+05 -1.216643e+05 -1.344865e+05
-4.984658e+09 -4.784775e+09 -4.944804e+09 7.418677e+02 1.334471e+03 4.453453e+03
-4.702652e+09 -4.502706e+09 -4.662727e+09 2.189910e+03 5.824138e+02 -2.093302e+02
-3.967745e+09 -3.768003e+09 -3.928021e+09 2.130141e+03 -9.990431e+02 3.841470e+04
-4.455760e+09 -4.256537e+09 -4.415402e+09 4.662901e+05 -1.391005e+05 -1.534284e+05
-1.893320e+09 -1.693259e+09 -1.853342e+09 -3.424864e+03 -1.180550e+04 -3.775046e+03
-4.820914e+09 -4.620544e+09 -4.777332e+09 4.458194e+05 -6.812201e+04 5.083172e+03
-2.245192e+09 -2.045126e+09 -2.205220e+09 3.349447e+03 -1.135098e+04 -8.982448e+03
-4.424333e+09 -4.224413e+09 -4.384426e+09 4.869986e+02 1.072257e+02 6.000119e+02
-2.194330e+09 -1.994272e+09 -2.154361e+09 3.507246e+03 -2.228971e+04 -1.079003e+04
-2.683137e+09 -2.483073e+09 -2.643175e+09 1.012475e+03 -2.646690e+03 -4.270227e+03
-4.177158e+09 -3.976079e+09 -4.133801e+09 -5.307372e+05 4.631135e+05 -3.330895e+05
-4.976033e+09 -4.777441e+09 -4.935786e+09 1.357472e+05 -1.904186e+04 7.429159e+04
-4.133856e+09 -3.934377e+09 -4.093881e+09 3.637724e+05 4.490243e+03 -6.326730e+04
-1.595583e+09 -1.395515e+09 -1.555595e+09 -1.053179e+03 6.544552e+03 -1.525743e+03
-4.489086e+09 -4.288897e+09 -4.449077e+09 -4.323426e+05 -1.599774e+04 2.544338e+04
-1.566846e+09 -1.366777e+09 -1.526854e+09 -3.093108e+02 -7.857490e+04 6.272268e+03
-4.644881e+09 -4.445844e+09 -4.605355e+09 -7.204740e+03 3.245106e+04 6.562204e+04
-1.617590e+09 -1.417527e+09 -1.577598e+09 -3.609662e+03 -4.212120e+04 1.540970e+04
-3.563169e+09 -3.363097e+09 -3.523203e+09 -5.600260e+03 8.139337e+03 -3.119605e+03
-4.141674e+09 -3.941628e+09 -4.101740e+09 -1.668732e+04 -6.142779e+03 6.935281e+03
-3.974890e+09 -3.774456e+09 -3.934656e+09 -2.777899e+05 2.249448e+04 1.846060e+04
-3.402396e+09 -3.202314e+09 -3.362422e+09 -5.897468e+03 8.215847e+03 -5.774703e+03
-2.029460e+09 -1.829292e+09 -1.989456e+09 -1.023313e+04 -6.171245e+04 1.052945e+04
-2.062246e+09 -1.862175e+09 -2.022262e+09 -2.263889e+03 1.186479e+04 -5.389141e+03
-4.978384e+09 -4.778593e+09 -4.938711e+09 -1.813381e+05 -1.391854e+04 1.961353e+04
-2.376500e+09 -2.176435e+09 -2.336521e+09 -2.320319e+03 1.545942e+04 -5.262111e+03
-2.654133e+09 -2.454063e+09 -2.614158e+09 -7.572646e+02 5.670000e+03 8.510636e+02
-4.829441e+09 -4.629301e+09 -4.789553e+09 -1.227425e+05 -1.219319e+04 7.341667e+02
-4.961252e+09 -4.761681e+09 -4.921616e+09 -3.484072e+05 -2.253090e+04 4.631948e+04
-3.970989e+09 -3.771232e+09 -3.931254e+09 3.304371e+04 7.170337e+03 3.705798e+04
-4.285214e+09 -4.085405e+09 -4.245438e+09 1.869081e+04 2.325888e+03 2.598176e+04
-4.131604e+09 -3.930889e+09 -4.091018e+09 2.823125e+05 7.817122e+02 -1.146340e+04
-4.818039e+09 -4.617328e+09 -4.777471e+09 2.979596e+05 -3.364160e+04 -3.794589e+04
-4.301905e+09 -4.102108e+09 -4.262141e+09 3.792072e+04 7.783355e+03 2.772682e+04
-4.612915e+09 -4.411841e+09 -4.571878e+09 -6.923961e+04 1.595707e+05 2.559349e+04
-1.591577e+09 -1.391502e+09 -1.551581e+09 2.715510e+03 -4.321326e+04 -1.345383e+04
-4.645138e+09 -4.445340e+09 -4.605376e+09 3.873736e+04 -1.099125e+03 1.457045e+04
-4.236914e+09 -4.037063e+09 -4.197195e+09 2.489783e+05 -5.085370e+04 -4.003180e+04
-4.996000e+09 -4.796903e+09 -4.954553e+09 -3.731668e+05 -5.321294e+04 -3.033710e+04
-4.131054e+09 -3.931262e+09 -4.091301e+09 4.194895e+04 4.042790e+03 3.040316e+04
-4.320809e+09 -4.119737e+09 -4.275383e+09 5.218895e+05 6.513525e+05 1.425879e+05
-4.971587e+09 -4.771848e+09 -4.931885e+09 1.444899e+04 4.196076e+02 1.535552e+04
-4.817483e+09 -4.617719e+09 -4.777764e+09 4.340383e+04 6.742134e+03 2.355392e+04
-4.690628e+09 -4.490541e+09 -4.650673e+09 7.273110e+03 4.714106e+02 3.878867e+03
-4.263449e+09 -4.063670e+09 -4.223729e+09 -6.424721e+04 -1.909077e+04 4.276067e+04
-3.884602e+09 -3.684526e+09 -3.844646e+09 1.658408e+04 1.100437e+04 3.020445e+03
-4.134111e+09 -3.933267e+09 -4.093741e+09 4.800699e+04 -1.061476e+05 -7.194687e+03
-4.054156e+09 -3.854076e+09 -4.014196e+09 1.241087e+04 5.588020e+03 5.300979e+03
-4.003351e+09 -3.802188e+09 -3.961835e+09 2.045140e+05 2.651536e+05 1.198692e+05
-4.820037e+09 -4.620649e+09 -4.780096e+09 4.360663e+05 2.739135e+04 7.578398e+04
-4.652309e+09 -4.451631e+09 -4.609948e+09 -6.408992e+05 -1.858150e+05 1.154857e+05
-4.690635e+09 -4.490536e+09 -4.650677e+09 1.005423e+04 3.418788e+03 -3.639285e+01
-2.689372e+09 -2.489740e+09 -2.649701e+09 1.232456e+05 -2.267704e+04 -5.553796e+04
-3.966273e+09 -3.765774e+09 -3.926146e+09 1.347728e+05 2.751934e+04 2.194461e+04
-3.804739e+09 -3.605166e+09 -3.765187e+09 2.317882e+05 -1.307562e+04 -4.699033e+04
-4.106726e+09 -3.907293e+09 -4.067230e+09 1.115950e+05 -1.772864e+04 -2.151653e+04
-3.314379e+09 -3.114916e+09 -3.274677e+09 1.633662e+05 -4.918720e+04 -9.157064e+04
-4.618334e+09 -4.417522e+09 -4.577078e+09 -4.317569e+05 -6.322281e+04 3.735871e+04
-2.377827e+09 -2.178060e+09 -2.338027e+09 6.862969e+04 -3.994468e+04 -8.883569e+04
-2.886223e+09 -2.686604e+09 -2.846584e+09 9.188576e+04 -6.325864e+04 -7.998741e+04
-2.123622e+09 -1.923859e+09 -2.083815e+09 7.901534e+04 -9.547228e+04 -1.050376e+05
-4.669647e+09 -4.469499e+09 -4.629706e+09 1.208294e+04 -3.941741e+03 -1.341337e+03
-3.022819e+09 -2.822768e+09 -2.982884e+09 -1.923127e+04 -2.199990e+04 1.761544e+04
-4.449630e+09 -4.250307e+09 -4.410188e+09 1.155249e+05 -4.417768e+03 -4.387070e+03
-3.802113e+09 -3.602049e+09 -3.762182e+09 -1.885478e+04 -1.322620e+04 6.511307e+03
-3.226764e+09 -3.026705e+09 -3.186820e+09 -6.862218e+03 -9.570397e+03 1.156337e+04
-3.605311e+09 -3.405221e+09 -3.565371e+09 -8.329652e+03 -8.825565e+03 1.377461e+04
-3.744624e+09 -3.544576e+09 -3.704682e+09 -8.593166e+03 -4.841615e+03 1.098134e+04
-3.967871e+09 -3.768347e+09 -3.919079e+09 -1.355050e+05 1.004638e+05 1.823297e+06
-4.232508e+09 -4.032452e+09 -4.192576e+09 -1.070140e+04 -4.409884e+03 6.942022e+03
-4.721341e+09 -4.521237e+09 -4.681408e+09 6.805168e+03 -3.499420e+02 -4.386777e+03
-3.197336e+09 -2.997285e+09 -3.157390e+09 -7.499688e+03 -7.511568e+03 1.608466e+04
-4.978376e+09 -4.778750e+09 -4.933711e+09 4.865836e+05 4.647343e+04 -2.672555e+05
-4.477978e+09 -4.276940e+09 -4.434495e+09 4.519103e+05 -2.525806e+04 1.829056e+05
-4.842563e+09 -4.641968e+09 -4.801540e+09 4.903268e+05 -3.312806e+04 -3.445555e+04
-4.977370e+09 -4.777254e+09 -4.937442e+09 2.115108e+04 -5.352331e+03 -3.167185e+03
-4.996716e+09 -4.795909e+09 -4.956204e+09 2.359234e+05 5.299596e+04 -4.796447e+02
-1.857810e+09 -1.657855e+09 -1.817876e+09 -4.234161e+03 -1.955079e+03 1.672982e+03
-2.029594e+09 -1.829635e+09 -1.989658e+09 -6.075939e+03 -2.178591e+03 2.609938e+03
-3.941870e+09 -3.741699e+09 -3.901692e+09 3.552031e+05 -3.926191e+04 -5.396652e+02
-1.688271e+09 -1.488312e+09 -1.648336e+09 -6.048447e+03 -2.137955e+03 2.769636e+03
-3.154271e+09 -2.954315e+09 -3.114337e+09 -2.564492e+03 -3.998916e+02 1.153684e+03
-4.310832e+09 -4.110500e+09 -4.270833e+09 1.163120e+04 5.428409e+04 -6.250004e+02
-4.449915e+09 -4.250012e+09 -4.409016e+09 5.977953e+05 -8.516957e+04 -5.020255e+04
-3.949884e+09 -3.749921e+09 -3.909947e+09 -4.348084e+03 -8.003583e+02 3.490801e+02
-4.458120e+09 -4.257874e+09 -4.417730e+09 5.104910e+05 -4.001984e+04 3.480623e+04
-3.961839e+09 -3.762849e+09 -3.921301e+09 -1.892799e+05 4.695193e+04 -2.272310e+05
-3.959257e+09 -3.759382e+09 -3.918527e+09 5.477056e+05 6.892224e+04 1.044340e+05
-3.488716e+09 -3.288756e+09 -3.448782e+09 -5.603201e+03 -9.332338e+02 1.548959e+03
-4.821312e+09 -4.620819e+09 -4.780967e+09 -3.714973e+05 3.894194e+04 2.630588e+04
-2.176779e+09 -1.976825e+09 -2.136845e+09 -4.650036e+03 -1.132216e+03 2.014993e+03
-2.891940e+09 -2.691985e+09 -2.852010e+09 -6.015696e+03 -1.483916e+03 3.334059e+03
-4.291104e+09 -4.090341e+09 -4.250827e+09 -1.074741e+05 -8.047165e+04 2.700296e+04
-4.307255e+09 -4.106796e+09 -4.264622e+09 6.841428e+05 -6.196593e+05 -5.822564e+05
-4.301755e+09 -4.101069e+09 -4.261553e+09 8.832454e+03 -8.532806e+04 -1.473231e+04
-4.138487e+09 -3.937868e+09 -4.098229e+09 1.289986e+05 1.706303e+04 -8.465740e+03
-3.948211e+09 -3.749026e+09 -3.904548e+09 7.244571e+05 -4.353513e+05 -1.055371e+06
-4.291863e+09 -4.092856e+09 -4.249425e+09 6.700103e+05 9.899398e+04 -1.191142e+06
-4.987816e+09 -4.787953e+09 -4.948024e+09 -7.279383e+04 -6.041059e+03 8.369607e+03
-4.997833e+09 -4.797398e+09 -4.956632e+09 5.190295e+05 2.493499e+04 -1.034802e+04
-4.477281e+09 -4.276747e+09 -4.437184e+09 1.310414e+05 -4.515299e+04 3.016395e+03
-3.978242e+09 -3.777795e+09 -3.929429e+09 -2.587073e+05 1.543498e+06 1.058919e+05
-4.820505e+09 -4.619894e+09 -4.780359e+09 8.201566e+04 1.685963e+04 -1.908305e+03
-3.971938e+09 -3.771794e+09 -3.921171e+09 -7.329408e+04 -1.913993e+05 -2.457159e+05
-4.304637e+09 -4.104024e+09 -4.264531e+09 5.486988e+04 -8.854355e+04 -2.314222e+04
-3.976538e+09 -3.776463e+09 -3.936758e+09 2.074810e+05 -3.580068e+04 -3.509842e+04
-5.006304e+09 -4.806238e+09 -4.966480e+09 1.560040e+05 -1.537581e+04 -1.474460e+03
-4.293634e+09 -4.093560e+09 -4.253821e+09 1.462027e+05 -4.222971e+04 -2.634816e+04
-3.976619e+09 -3.776555e+09 -3.936768e+09 1.480051e+05 -4.806737e+04 -2.787188e+04
-4.133168e+09 -3.933039e+09 -4.093289e+09 1.579066e+05 -5.009617e+04 -2.775144e+04
-3.946342e+09 -3.746228e+09 -3.906495e+09 1.375656e+05 -3.609736e+04 -2.315552e+04
-4.678728e+09 -4.478662e+09 -4.638861e+09 2.416428e+05 -1.684762e+04 -1.395080e+04
-4.648722e+09 -4.449496e+09 -4.607229e+09 -3.531278e+05 -8.628266e+04 -8.705227e+04
-4.614815e+09 -4.415415e+09 -4.575222e+09 -2.188848e+04 3.278310e+03 9.279747e+03
-4.299876e+09 -4.099995e+09 -4.260033e+09 3.484368e+04 6.377225e+03 1.640376e+04
-4.638290e+09 -4.438595e+09 -4.598605e+09 -3.587798e+04 2.274211e+03 1.534989e+04
-3.961482e+09 -3.761661e+09 -3.921686e+09 -2.159072e+04 -1.321065e+03 2.370574e+04
-4.330409e+09 -4.130254e+09 -4.290563e+09 2.188810e+05 -5.618814e+04 -3.936274e+04
-4.175301e+09 -3.975149e+09 -4.135347e+09 3.316135e+04 1.891833e+04 1.605247e+03
-4.838130e+09 -4.637933e+09 -4.798175e+09 3.716293e+04 7.849506e+03 -4.891685e+02
-1.991956e+09 -1.791841e+09 -1.951969e+09 -1.165429e+04 3.643107e+04 -1.231068e+04
-4.813926e+09 -4.613735e+09 -4.773969e+09 2.321618e+04 1.330126e+04 4.022143e+03
-4.494879e+09 -4.294698e+09 -4.454933e+09 5.253195e+04 1.772887e+04 6.562554e+03
-2.910825e+09 -2.710838e+09 -2.870876e+09 8.201872e+03 2.475734e+03 3.060852e+03
-3.036064e+09 -2.836084e+09 -2.996117e+09 5.017542e+03 1.354897e+03 5.107932e+02
-2.895158e+09 -2.695174e+09 -2.855213e+09 7.174084e+03 1.789730e+03 2.729065e+03
-1.857830e+09 -1.657846e+09 -1.817880e+09 5.040369e+03 9.474981e+02 1.969185e+03
-4.988359e+09 -4.788253e+09 -4.948468e+09 -6.622628e+04 8.313447e+03 -1.983168e+03
-4.797555e+09 -4.598256e+09 -4.757980e+09 -2.334065e+05 -3.119482e+02 6.037283e+04
-3.010693e+09 -2.810594e+09 -2.970713e+09 -4.476695e+03 7.387032e+03 -7.514898e+03
-1.686786e+09 -1.486718e+09 -1.646802e+09 -6.939183e+03 3.599337e+04 -1.618524e+04
-4.988320e+09 -4.788199e+09 -4.948447e+09 -9.029070e+04 1.421095e+04 -6.560187e+03
-1.934001e+09 -1.734018e+09 -1.894053e+09 7.293500e+03 2.139244e+03 1.856670e+03
-1.942967e+09 -1.742988e+09 -1.903021e+09 6.434814e+03 1.528731e+03 2.062532e+03
-3.645020e+09 -3.444832e+09 -3.605040e+09 -2.275888e+04 3.224607e+04 -8.974137e+03
-1.647118e+09 -1.447139e+09 -1.607172e+09 6.324225e+03 1.543021e+03 1.989238e+03
-2.922797e+09 -2.722694e+09 -2.882826e+09 -1.730203e+04 3.452702e+04 -1.309215e+04
-4.174643e+09 -3.975061e+09 -4.135079e+09 -1.263075e+05 5.318455e+04 -5.783966e+04
-3.375878e+09 -3.175685e+09 -3.335893e+09 -1.155550e+04 5.399476e+04 -5.979813e+03
-3.553856e+09 -3.354407e+09 -3.514423e+09 -1.694449e+04 -3.731085e+03 -1.134815e+02
-3.808639e+09 -3.608412e+09 -3.768658e+09 -1.390047e+04 3.969618e+04 -3.709189e+03
-2.649303e+09 -2.449652e+09 -2.609609e+09 -4.602675e+04 4.237908e+04 -7.260427e+04
-4.037919e+09 -3.837772e+09 -3.997947e+09 2.156393e+03 1.509310e+03 4.911551e+02
-3.108984e+09 -2.909472e+09 -3.069359e+09 -1.482283e+05 7.169486e+04 -1.080574e+05
-1.576411e+09 -1.376375e+09 -1.536433e+09 -6.905343e+03 -2.251395e+04 1.928062e+04
-3.053340e+09 -2.853312e+09 -3.013417e+09 -3.611911e+04 -2.601696e+04 2.795521e+04
-2.184829e+09 -1.984707e+09 -2.144825e+09 -6.434697e+03 6.325041e+04 -1.038752e+04
-1.674006e+09 -1.473929e+09 -1.634010e+09 -3.851281e+02 5.287066e+04 -2.005975e+04
-4.610081e+09 -4.410613e+09 -4.570593e+09 -1.658765e+05 -8.975252e+03 7.228908e+03
-2.941566e+09 -2.742043e+09 -2.901996e+09 -3.264158e+04 1.502581e+04 -5.400715e+04
-2.093257e+09 -1.893134e+09 -2.053259e+09 9.263634e+03 4.281155e+04 5.272018e+03
-3.964896e+09 -3.765268e+09 -3.925129e+09 -2.706491e+05 1.343704e+04 2.777097e+02
-5.007012e+09 -4.807033e+09 -4.967065e+09 3.054656e+03 -2.495021e+02 -4.484010e+00
-2.359158e+09 -2.159165e+09 -2.319206e+09 1.036566e+04 4.252747e+03 2.644470e+03
-2.356079e+09 -2.155965e+09 -2.316092e+09 -3.221281e+03 3.835163e+04 -5.069877e+01
-1.684208e+09 -1.484235e+09 -1.644265e+09 6.239857e+03 1.607384e+03 1.213486e+03
-2.041531e+09 -1.841412e+09 -2.001532e+09 -3.255341e+03 6.281228e+04 -7.175624e+03
-1.731774e+09 -1.531694e+09 -1.691767e+09 -7.119612e+02 5.045846e+04 -4.160394e+03
-4.149957e+09 -3.949985e+09 -4.110031e+09 1.983243e+04 3.716229e+03 2.710584e+03
-5.001668e+09 -4.801712e+09 -4.961747e+09 1.700868e+04 3.634457e+02 1.415243e+02
-4.425730e+09 -4.225741e+09 -4.385780e+09 1.029666e+03 1.384237e+02 9.758734e+02
-2.279048e+09 -2.079098e+09 -2.239118e+09 4.655362e+03 5.858262e+02 1.769288e+03
-3.261207e+09 -3.061148e+09 -3.221259e+09 3.278710e+04 2.983705e+04 1.595814e+04
-1.730199e+09 -1.530178e+09 -1.690235e+09 -1.606982e+04 -3.092178e+04 2.374308e+04
-1.847033e+09 -1.647084e+09 -1.807103e+09 9.164620e+03 2.032625e+03 6.604515e+03
-4.087680e+09 -3.887944e+09 -4.047972e+09 -7.365624e+04 -1.106994e+04 3.982904e+04
-1.555065e+09 -1.354992e+09 -1.515060e+09 3.923081e+03 5.226326e+04 1.371932e+03
-4.172914e+09 -3.972969e+09 -4.132992e+09 6.856269e+03 9.656461e+02 2.954944e+03
-4.123922e+09 -3.923962e+09 -4.083993e+09 1.185226e+04 2.975924e+03 1.993284e+03
-2.544257e+09 -2.344099e+09 -2.504261e+09 -8.791795e+02 5.177654e+04 2.660906e+02
-4.984975e+09 -4.785062e+09 -4.945089e+09 1.866816e+04 1.109551e+03 1.254212e+03
-3.269203e+09 -3.069027e+09 -3.229221e+09 3.892804e+02 5.704041e+04 -6.950145e+02
-2.390365e+09 -2.190251e+09 -2.350382e+09 -2.331864e+03 3.938667e+04 -2.558376e+03
-2.672535e+09 -2.472381e+09 -2.632545e+09 1.405263e+03 5.210464e+04 1.974850e+02
-3.916513e+09 -3.716538e+09 -3.876566e+09 5.482513e+02 -2.592677e+02 7.258448e+01
-2.767599e+09 -2.567642e+09 -2.727663e+09 4.019845e+02 7.067054e+01 3.906551e+02
-4.977795e+09 -4.777825e+09 -4.937853e+09 4.240030e+03 3.323485e+01 -6.387395e+02
-4.989423e+09 -4.789488e+09 -4.949508e+09 5.167805e+03 2.710514e+02 5.692500e+02
-2.702057e+09 -2.501927e+09 -2.662072e+09 -9.069710e+02 2.895082e+04 -7.958686e+02
-4.115405e+09 -3.915475e+09 -4.075496e+09 5.926420e+03 9.390141e+02 3.592160e+03
-2.000047e+09 -1.800093e+09 -1.960115e+09 7.495788e+03 1.743968e+03 4.196105e+03
-3.205098e+09 -3.004953e+09 -3.165122e+09 4.542276e+02 3.533164e+04 -1.103399e+03
-3.061047e+09 -2.861091e+09 -3.021115e+09 5.619599e+03 2.189910e+03 2.198277e+03
-2.129269e+09 -1.929320e+09 -2.089340e+09 9.802476e+03 2.849812e+03 5.889479e+03
-1.986572e+09 -1.786458e+09 -1.946570e+09 -3.437092e+03 3.896672e+04 -1.956065e+03
-2.946957e+09 -2.746818e+09 -2.906973e+09 6.504917e+03 3.288423e+04 5.709511e+03
-4.892120e+09 -4.692116e+09 -4.852184e+09 -3.251317e+03 -2.494227e-06 4.296006e+01
-4.136049e+09 -3.936007e+09 -4.096183e+09 -1.092620e+05 -3.239739e+04 1.858503e+04
-2.923803e+09 -2.723941e+09 -2.884054e+09 5.216238e+04 -7.176762e+04 -5.232533e+04
-2.498437e+09 -2.298687e+09 -2.458673e+09 5.558371e+04 -6.232183e+04 -7.949091e+04
-2.018488e+09 -1.818730e+09 -1.978696e+09 5.942782e+04 -8.174049e+04 -1.352557e+05
-1.788455e+09 -1.588436e+09 -1.748431e+09 8.944375e+03 -8.551276e+04 -5.080847e+04
-2.633198e+09 -2.433219e+09 -2.593357e+09 1.036655e+05 -5.757184e+04 -4.647981e+04
-2.066353e+09 -1.866377e+09 -2.026457e+09 5.351290e+04 -8.211658e+04 -4.814195e+04
-3.111307e+09 -2.911369e+09 -3.071506e+09 9.431883e+04 -5.697814e+04 -4.645839e+04
-4.407350e+09 -4.207313e+09 -4.367526e+09 7.258660e+04 -2.293728e+04 -9.477124e+03
-4.031264e+09 -3.831256e+09 -3.991473e+09 1.422435e+05 -4.284799e+04 -3.857127e+04
-4.800976e+09 -4.600676e+09 -4.761017e+09 -2.327896e+04 -2.188279e+04 -9.820971e+02
-4.979049e+09 -4.779039e+09 -4.939119e+09 -8.201600e+03 -9.865659e+02 -5.512974e+02
-2.863805e+09 -2.663769e+09 -2.823913e+09 8.039562e+04 -6.842509e+04 -4.241238e+04
-3.878231e+09 -3.678216e+09 -3.838445e+09 1.382832e+05 -4.534091e+04 -3.934217e+04
-2.500863e+09 -2.300891e+09 -2.461010e+09 5.560449e+04 -8.926945e+04 -7.245746e+04
-3.667897e+09 -3.467914e+09 -3.627961e+09 -1.046227e+04 -3.688269e+03 4.371775e+03
-3.703435e+09 -3.503511e+09 -3.663656e+09 1.214436e+05 -5.806318e+04 -5.591322e+04
-4.644543e+09 -4.444660e+09 -4.604842e+09 1.009757e+05 -2.603601e+04 -3.623227e+03
-3.207710e+09 -3.007726e+09 -3.167854e+09 4.175952e+04 -6.349404e+04 -2.693054e+04
-2.132301e+09 -1.932218e+09 -2.092316e+09 2.129352e+03 -4.386517e+03 -1.269741e+04
-3.029953e+09 -2.829945e+09 -2.990069e+09 7.248106e+04 -6.966075e+04 -4.881124e+04
-3.978132e+09 -3.778210e+09 -3.938223e+09 -7.142785e+02 -5.219774e+02 1.513962e+03
-3.502143e+09 -3.302222e+09 -3.462232e+09 -9.267032e+02 -4.870331e+01 1.279681e+03
-1.674089e+09 -1.474056e+09 -1.634117e+09 1.220400e+04 2.453636e+04 1.863146e+04
-3.318947e+09 -3.119029e+09 -3.279043e+09 -1.232997e+03 -1.802305e+03 6.150254e+03
-3.926823e+09 -3.726905e+09 -3.886919e+09 -2.118126e+03 -2.046095e+02 3.961431e+03
-4.957705e+09 -4.757625e+09 -4.917789e+09 1.525088e+04 -4.588535e+03 -4.557653e+03
-3.778518e+09 -3.578500e+09 -3.738657e+09 7.961519e+03 -3.429564e+04 -2.969051e+03
-2.911469e+09 -2.711405e+09 -2.871558e+09 3.816305e+04 -6.726700e+04 -3.405718e+04
-3.425026e+09 -3.225585e+09 -3.385370e+09 -1.598172e+05 5.445596e+04 -1.083538e+05
-4.146840e+09 -3.947351e+09 -4.098295e+09 3.009068e+03 -1.354120e+05 2.018361e+06
-2.121985e+09 -1.922198e+09 -2.082188e+09 1.252874e+04 -6.089404e+04 -4.658874e+04
-4.314363e+09 -4.114288e+09 -4.263764e+09 1.764301e+03 7.070106e+05 3.628532e+04
-4.274627e+09 -4.075209e+09 -4.235001e+09 2.158221e+05 -3.594768e+04 -4.660515e+04
-4.821205e+09 -4.621870e+09 -4.776164e+09 5.294162e+05 3.521482e+04 7.871241e+05
-1.592958e+09 -1.392977e+09 -1.552937e+09 -1.591347e+03 -8.284846e+04 -6.460959e+04
-4.660865e+09 -4.461387e+09 -4.616631e+09 5.269295e+05 4.675869e+05 4.158721e+05
-2.594159e+09 -2.394643e+09 -2.554559e+09 9.679105e+04 1.669250e+04 -5.637971e+04
-4.984801e+09 -4.785712e+09 -4.945077e+09 -2.932135e+05 6.891972e+03 -4.935664e+04
-4.498705e+09 -4.298454e+09 -4.449105e+09 2.471266e+05 5.782235e+05 6.214959e+05
-3.974453e+09 -3.774133e+09 -3.929913e+09 4.683528e+05 1.655144e+06 9.402717e+05
-4.334667e+09 -4.134611e+09 -4.294843e+09 3.153948e+05 -4.161290e+04 -2.854769e+04
-4.978924e+09 -4.778713e+09 -4.938979e+09 -2.019296e+04 -7.491857e+03 3.207118e+03
-4.444264e+09 -4.244178e+09 -4.404347e+09 3.001232e+04 -1.480189e+04 -5.776435e+03
-4.621833e+09 -4.421594e+09 -4.581875e+09 3.107771e+04 -9.293013e+03 2.781533e+02
-4.219785e+09 -4.019571e+09 -4.179838e+09 2.815235e+04 -2.866099e+04 -1.020632e+04
-3.219791e+09 -3.019604e+09 -3.179821e+09 1.018966e+04 -5.354334e+04 -1.647710e+04
-4.905153e+09 -4.705079e+09 -4.865221e+09 -6.448103e+03 -1.582335e-04 1.374215e+03
-3.931768e+09 -3.731567e+09 -3.891809e+09 1.517629e+04 -2.015516e+04 -4.417345e+03
-3.135661e+09 -2.935447e+09 -3.095695e+09 3.882010e+04 -7.967575e+04 -9.903646e+03
-2.842720e+09 -2.642571e+09 -2.802744e+09 2.790499e+04 -5.356388e+04 -2.374099e+04
-3.059251e+09 -2.859081e+09 -3.019284e+09 1.714892e+04 -4.749350e+04 -2.423909e+04
-2.755407e+09 -2.555278e+09 -2.715426e+09 -1.083205e+03 -5.136069e+03 5.694642e+03
-3.759462e+09 -3.559291e+09 -3.719512e+09 2.604916e+04 -1.933165e+04 -9.257177e+03
-3.961573e+09 -3.761508e+09 -3.921675e+09 -7.883284e+04 -2.753046e+04 1.581778e+04
-4.694165e+09 -4.493997e+09 -4.654224e+09 -1.524963e+04 -5.103628e+03 6.242963e+02
-1.929847e+09 -1.729790e+09 -1.889871e+09 1.718540e+04 2.924711e+04 1.030833e+04
-2.414193e+09 -2.214164e+09 -2.374244e+09 -1.775693e+04 -1.721266e+04 1.513332e+04
-3.052083e+09 -2.852050e+09 -3.012133e+09 -2.515566e+03 -2.590201e+03 8.685232e+03
-4.488884e+09 -4.289754e+09 -4.449412e+09 1.442837e+05 -5.394363e+03 -7.882204e+03
-4.297054e+09 -4.096440e+09 -4.256871e+09 -2.203714e+05 -6.765991e+04 2.891659e+04
-4.319846e+09 -4.119490e+09 -4.279851e+09 -2.717373e+05 -6.807678e+04 3.936823e+04
-5.013685e+09 -4.813708e+09 -4.973751e+09 -9.115264e+03 -3.913277e+02 3.312045e+02
-4.832216e+09 -4.632951e+09 -4.792679e+09 2.259035e+05 -5.787801e+03 4.990761e+04
-4.769916e+09 -4.570402e+09 -4.730406e+09 2.129658e+05 -2.825138e+04 -4.473526e+04
-4.248072e+09 -4.048552e+09 -4.208446e+09 2.216813e+05 -4.934876e+04 -4.030922e+04
-4.985011e+09 -4.784987e+09 -4.945069e+09 1.634913e+04 3.181073e+03 3.266885e+03
-4.614597e+09 -4.414550e+09 -4.574678e+09 -2.522872e+04 -8.976713e+03 5.044738e+03
-4.591298e+09 -4.391772e+09 -4.551687e+09 2.289221e+05 1.632481e+03 4.469554e+03
-3.193644e+09 -2.994038e+09 -3.153893e+09 1.339498e+05 -1.023155e+05 -7.280421e+04
-4.109616e+09 -3.910203e+09 -4.070065e+09 1.817749e+05 -2.376091e+04 -6.130071e+04
-2.779889e+09 -2.579778e+09 -2.739930e+09 2.653817e+04 -3.734541e+04 -1.600739e+04
-1.888158e+09 -1.688079e+09 -1.848170e+09 -5.449654e+03 -8.317900e+03 -1.413701e+04
-4.890071e+09 -4.690080e+09 -4.850133e+09 -2.309195e+03 -9.912925e-05 -8.409006e+00
-2.894013e+09 -2.693908e+09 -2.854052e+09 1.380095e+04 -1.800572e+04 -1.761674e+04
-3.122143e+09 -2.922175e+09 -3.082204e+09 6.410440e+03 1.863709e+03 1.780198e+03
-3.971078e+09 -3.770751e+09 -3.931079e+09 -5.833305e+04 -3.690709e+04 6.808348e+03
-2.899860e+09 -2.699896e+09 -2.859926e+09 8.675980e+03 2.761824e+03 3.279921e+03
-3.936036e+09 -3.736068e+09 -3.896098e+09 6.582783e+03 1.785437e+02 2.644955e+03
-4.977418e+09 -4.777164e+09 -4.937460e+09 -9.414284e+03 -7.512553e+03 1.962580e+02
-2.768517e+09 -2.568557e+09 -2.728581e+09 2.877732e+03 -8.861464e+01 9.884401e+02
-2.225666e+09 -2.025563e+09 -2.185687e+09 1.472077e+04 -4.263738e+04 -2.283646e+04
-3.964204e+09 -3.763346e+09 -3.923622e+09 5.071423e+04 4.523406e+04 -3.880124e+03
-3.640031e+09 -3.439857e+09 -3.600065e+09 -1.992327e+03 -3.301282e+03 3.036531e+03
-2.116031e+09 -1.915930e+09 -2.076044e+09 1.009644e+04 -2.510196e+04 -1.393511e+04
-2.778315e+09 -2.578176e+09 -2.738332e+09 -9.424081e+02 -5.106982e+03 1.194491e+03
-2.143429e+09 -1.943338e+09 -2.103442e+09 6.151442e+03 -2.092458e+04 -1.608003e+04
-2.522861e+09 -2.322773e+09 -2.482898e+09 1.096380e+04 -3.114887e+04 -2.043253e+04
-3.447815e+09 -3.247716e+09 -3.407883e+09 2.521954e+04 -3.259763e+04 -1.139877e+04
-2.363910e+09 -2.163819e+09 -2.323936e+09 1.869595e+04 -4.528462e+04 -1.984922e+04
-4.076347e+09 -3.876374e+09 -4.036407e+09 -5.730327e+03 -9.625857e+02 1.137629e+03
-4.568463e+09 -4.368496e+09 -4.528526e+09 -3.867956e+03 -5.739338e+02 4.390974e+02
-3.963042e+09 -3.763076e+09 -3.923105e+09 -7.283231e+03 -1.308958e+03 7.544994e+02
-2.978984e+09 -2.778812e+09 -2.939022e+09 -3.915407e+04 -7.844019e+04 2.544155e+04
-4.991805e+09 -4.791518e+09 -4.951543e+09 -4.180030e+05 -6.843340e+04 5.873848e+04
-4.770937e+09 -4.570974e+09 -4.731001e+09 -4.922905e+03 3.009302e+02 1.001772e+03
-3.659610e+09 -3.459643e+09 -3.619674e+09 -7.007730e+03 -1.632243e+03 1.763883e+03
-4.982447e+09 -4.782206e+09 -4.942510e+09 4.502217e+04 -1.351660e+04 -6.586509e+03
-3.633600e+09 -3.433417e+09 -3.593632e+09 -1.395174e+02 -3.593555e+03 -4.916712e+02
-4.801634e+09 -4.601670e+09 -4.761702e+09 -8.671429e+03 -1.611223e+03 -7.036492e+02
-4.257483e+09 -4.057245e+09 -4.217533e+09 -2.014391e+04 -3.131958e+04 6.302545e+03
-3.978696e+09 -3.778484e+09 -3.938740e+09 -1.705286e+04 -1.943326e+04 2.629703e+03
-4.213615e+09 -4.013373e+09 -4.173663e+09 -8.394723e+03 -3.097674e+04 3.161456e+03
-4.435851e+09 -4.235644e+09 -4.395904e+09 -2.556181e+03 -1.096821e+03 1.878890e+03
-3.616057e+09 -3.416352e+09 -3.576442e+09 -1.756867e+04 3.979092e+04 4.306349e+03
-2.591385e+09 -2.391372e+09 -2.551470e+09 -2.683783e+03 4.852521e+04 -3.652907e+03
-4.069418e+09 -3.869220e+09 -4.029457e+09 -1.095014e+04 -1.553908e+04 4.585046e+03
-4.798724e+09 -4.598473e+09 -4.758768e+09 -6.398191e+03 -9.957549e+03 -4.073451e+03
-4.531036e+09 -4.330819e+09 -4.491085e+09 -4.013628e+03 -3.455781e+03 5.817159e+02
-4.976567e+09 -4.776501e+09 -4.936692e+09 -5.707150e+04 8.518104e+03 -5.547389e+03
-4.943072e+09 -4.743064e+09 -4.903241e+09 -2.641151e+04 6.443253e+03 -4.426181e+03
-4.709716e+09 -4.509501e+09 -4.669766e+09 -5.336406e+03 -2.414874e+03 -1.553117e+03
-3.422613e+09 -3.222415e+09 -3.382630e+09 -1.202197e+04 3.605209e+04 -6.334220e+02
-4.476974e+09 -4.278125e+09 -4.436018e+09 -3.539661e+05 -5.825133e+04 1.747771e+05
-4.923330e+09 -4.723281e+09 -4.883441e+09 -2.759411e+04 7.634479e+03 -1.611066e+03
-2.661155e+09 -2.461005e+09 -2.621170e+09 -8.935226e+03 5.337060e+04 -7.222716e+03
-3.795660e+09 -3.595462e+09 -3.755689e+09 -1.153282e+04 3.739765e+04 -4.304007e+03
-2.793893e+09 -2.593742e+09 -2.753910e+09 -1.260363e+04 4.995278e+04 -4.599775e+03
-3.375657e+09 -3.175745e+09 -3.335762e+09 8.426727e+03 2.133209e+03 1.149485e+04
-2.443722e+09 -2.243607e+09 -2.403740e+09 -3.571976e+03 3.872519e+04 -1.261160e+04
-4.839989e+09 -4.640031e+09 -4.800075e+09 2.321191e+04 4.414726e+03 1.454309e+03
-4.992830e+09 -4.792876e+09 -4.952921e+09 2.195013e+04 1.926314e+03 3.130862e+02
-4.324610e+09 -4.124639e+09 -4.284679e+09 1.625198e+04 1.335456e+03 2.517593e+03
-5.011462e+09 -4.811496e+09 -4.971554e+09 2.651934e+04 1.091099e+03 -6.552275e+02
-4.963114e+09 -4.763204e+09 -4.923224e+09 8.458657e+03 5.027301e+02 1.902806e+03
-4.858614e+09 -4.658651e+09 -4.818702e+09 2.513416e+04 -5.427488e+02 3.935331e+03
-2.098234e+09 -1.898311e+09 -2.058318e+09 3.327542e+03 8.346545e+02 6.759986e+03
-3.981378e+09 -3.781413e+09 -3.941454e+09 1.793486e+04 2.699299e+03 4.823164e+03
-4.650942e+09 -4.450974e+09 -4.611006e+09 1.041266e+04 1.484746e+02 2.009201e+03
-3.440072e+09 -3.240151e+09 -3.400161e+09 -2.889384e+02 -2.014681e+02 9.682702e+02
-4.841332e+09 -4.641365e+09 -4.801405e+09 1.608032e+04 -7.611073e+02 2.629526e+03
-4.138056e+09 -3.938119e+09 -4.098137e+09 1.328458e+03 6.489608e+02 1.400680e+03
-4.698191e+09 -4.498271e+09 -4.658285e+09 9.144225e+02 6.988618e+02 1.515596e+02
-4.977584e+09 -4.777654e+09 -4.937676e+09 1.207696e+04 9.236285e+02 4.167155e+02
-3.981377e+09 -3.781405e+09 -3.941452e+09 1.772014e+04 1.784593e+03 4.144584e+03
-3.870289e+09 -3.670350e+09 -3.830374e+09 1.272269e+04 1.566860e+03 5.759246e+03
-2.571849e+09 -2.371759e+09 -2.531876e+09 2.381857e+04 2.804956e+04 1.110571e+04
-3.414752e+09 -3.214802e+09 -3.374829e+09 1.159076e+04 2.175537e+03 5.111871e+03
-4.920010e+09 -4.719884e+09 -4.880087e+09 -5.504013e+04 -1.024353e+04 6.447135e+03
-3.339465e+09 -3.139497e+09 -3.299524e+09 7.569196e+02 6.619972e+02 2.058379e+02
-3.245318e+09 -3.045354e+09 -3.205378e+09 -1.679942e+03 -7.246652e+02 -4.923321e+01
-3.210663e+09 -3.010709e+09 -3.170730e+09 -1.768709e+03 -6.421725e+02 2.981043e+02
-1.842247e+09 -1.642289e+09 -1.802311e+09 -4.738717e+02 -1.651723e+02 5.216794e+02
-1.598848e+09 -1.398771e+09 -1.558853e+09 2.647810e+03 2.255196e+04 3.389482e+03
-2.789250e+09 -2.589291e+09 -2.749313e+09 -1.295092e+03 -5.964809e+02 1.788661e+02
-2.598849e+09 -2.398754e+09 -2.558867e+09 1.285562e+03 2.835381e+03 6.378991e+03
-4.001555e+09 -3.801591e+09 -3.961617e+09 -3.109967e+03 -3.792916e+02 4.030217e+02
-3.472481e+09 -3.272526e+09 -3.432548e+09 -3.590484e+03 -7.746870e+02 8.966111e+02
-2.724086e+09 -2.524130e+09 -2.684151e+09 -2.144129e+03 -7.045454e+02 7.370325e+02
-3.961380e+09 -3.760926e+09 -3.921330e+09 1.052352e+04 4.442500e+04 1.091974e+04
-2.454678e+09 -2.254713e+09 -2.414738e+09 -1.514695e+03 -6.606990e+02 7.305817e+02
-2.813145e+09 -2.613175e+09 -2.773204e+09 -1.343159e+03 -8.045110e+01 9.247919e+02
-4.120421e+09 -3.920087e+09 -4.080445e+09 9.386464e+04 5.854691e+04 2.058056e+04
-1.891131e+09 -1.691164e+09 -1.851190e+09 -1.444991e+03 -3.222667e+02 3.899906e+02
-2.160678e+09 -1.960712e+09 -2.120737e+09 -9.602138e+02 -1.585906e+02 5.149902e+02
-1.832537e+09 -1.632571e+09 -1.792597e+09 -4.374977e+02 -3.531449e+02 5.319753e+02
-3.283590e+09 -3.083623e+09 -3.243649e+09 -9.205962e+02 -1.672749e+01 3.848648e+02
-3.668096e+09 -3.467974e+09 -3.628120e+09 2.297825e+03 4.326790e+03 2.429630e+03
-4.892181e+09 -4.692032e+09 -4.852211e+09 -2.238810e+03 2.255132e-06 -6.784630e+02
-2.225424e+09 -2.025458e+09 -2.185484e+09 -1.971622e+03 -7.657148e+02 8.156166e+02
-2.521795e+09 -2.321691e+09 -2.481808e+09 7.035878e+02 1.275417e+04 1.503879e+03
-2.531317e+09 -2.331193e+09 -2.491337e+09 9.841844e+03 4.176488e+04 3.702094e+03
-2.558627e+09 -2.358657e+09 -2.518685e+09 -7.865092e+02 -6.870578e+01 6.458040e+02
-2.223217e+09 -2.023247e+09 -2.183276e+09 -5.035384e+03 -1.780444e+03 2.324053e+03
-4.308635e+09 -4.108215e+09 -4.268632e+09 1.752931e+04 7.096095e+04 2.718096e+03
-2.124973e+09 -1.925007e+09 -2.085032e+09 -2.659521e+03 -4.427002e+02 1.242858e+03
-3.807752e+09 -3.607583e+09 -3.767789e+09 -8.509770e+03 3.389986e+04 -2.801649e+03
-2.126537e+09 -1.926573e+09 -2.086598e+09 -2.159115e+03 -3.951682e+02 4.314922e+02
-4.998009e+09 -4.797689e+09 -4.958015e+09 -1.930837e+05 2.656891e+04 -1.727549e+04
-2.488007e+09 -2.288041e+09 -2.448066e+09 -9.493948e+02 -1.178340e+02 -1.009237e+02
-3.984716e+09 -3.785329e+09 -3.945249e+09 -3.303836e+04 -2.036718e+03 6.841497e+03
-5.005948e+09 -4.806383e+09 -4.962170e+09 -7.033483e+05 2.058368e+04 1.060640e+05
-2.228492e+09 -2.028524e+09 -2.188550e+09 -6.122167e+02 -2.236253e+01 7.270480e+01
-1.523492e+09 -1.323539e+09 -1.483449e+09 -7.481233e+03 -1.664634e+04 -4.857635e+04
-1.959756e+09 -1.759788e+09 -1.919815e+09 -9.297399e+02 -1.203579e+02 5.107408e+02
-1.717454e+09 -1.517480e+09 -1.677510e+09 8.242618e+02 1.573887e+02 -1.330634e+01
-2.317982e+09 -2.118006e+09 -2.278035e+09 9.521791e+02 2.869333e+01 -1.598455e+02
-1.910261e+09 -1.710286e+09 -1.870315e+09 1.502661e+03 3.067981e+02 1.104044e+02
-4.664287e+09 -4.463256e+09 -4.619497e+09 5.195182e+05 4.803219e+05 2.356088e+05
-2.583688e+09 -2.383712e+09 -2.543741e+09 1.562570e+03 3.651695e+02 -1.361606e+02
-3.956211e+09 -3.757403e+09 -3.913741e+09 5.702248e+05 7.740531e+05 1.006688e+06
-2.517953e+09 -2.317981e+09 -2.478009e+09 2.223523e+03 4.755050e+02 5.325082e+02
-2.635952e+09 -2.435980e+09 -2.596008e+09 8.729958e+02 -1.270043e+02 -1.824774e+02
-4.986510e+09 -4.786712e+09 -4.945790e+09 -6.284050e+05 1.424304e+04 -1.948069e+04
-3.049709e+09 -2.849737e+09 -3.009765e+09 7.486452e+02 7.661039e+02 8.957526e+02
-4.168700e+09 -3.968788e+09 -4.128805e+09 -9.471707e+02 -4.164027e+02 4.843833e+03
-2.346159e+09 -2.146416e+09 -2.306352e+09 4.729624e+04 -4.985445e+04 -9.843272e+04
-3.700852e+09 -3.501430e+09 -3.661409e+09 -1.551643e+03 3.021392e+03 1.239268e+04
-2.216219e+09 -2.016430e+09 -2.176421e+09 9.543430e+03 -6.532768e+04 1.084253e+04
-4.334798e+09 -4.134607e+09 -4.294883e+09 -7.592741e+04 -3.323932e+04 1.646447e+04
-4.292547e+09 -4.092681e+09 -4.252711e+09 3.918489e+03 7.431592e+02 1.509779e+04
-4.631439e+09 -4.431545e+09 -4.591563e+09 -4.517630e+03 5.591265e+02 4.952719e+03
-4.020827e+09 -3.820926e+09 -3.980942e+09 -9.493699e+02 -1.677175e+00 7.368218e+03
-4.477487e+09 -4.277325e+09 -4.437582e+09 7.203782e+04 -1.744950e+04 -1.340718e+04
-1.758736e+09 -1.558770e+09 -1.718795e+09 -2.201762e+03 -8.164833e+02 9.665487e+02
-4.598636e+09 -4.398726e+09 -4.558741e+09 -2.858654e+03 -9.728044e+01 1.517794e+03
-2.958499e+09 -2.758497e+09 -2.918545e+09 2.433825e+03 6.872663e+02 2.789296e+03
-4.944195e+09 -4.744179e+09 -4.904278e+09 -3.172965e+04 -2.785108e+03 3.018503e+03
-4.123265e+09 -3.923235e+09 -4.083384e+09 -7.732705e+04 -2.397846e+04 2.987083e+04
-3.842510e+09 -3.642532e+09 -3.802571e+09 -2.435559e+03 -9.332182e+01 1.977456e+03
-3.879992e+09 -3.679993e+09 -3.840048e+09 1.399789e+04 4.376242e+03 3.455436e+03
-3.890103e+09 -3.690116e+09 -3.850164e+09 -9.084016e+03 -3.520104e+03 2.153650e+03
-3.681787e+09 -3.481822e+09 -3.641845e+09 3.458541e+00 -4.769266e+01 8.954056e+01
-3.981005e+09 -3.781034e+09 -3.941063e+09 -9.441907e+02 -3.637310e+02 9.075543e+02
-3.019417e+09 -2.819449e+09 -2.979483e+09 -8.475271e+03 -2.482998e+03 5.349328e+03
-4.563300e+09 -4.363296e+09 -4.523355e+09 1.479164e+04 2.302807e+03 1.717251e+03
-3.818729e+09 -3.618720e+09 -3.778785e+09 1.750548e+04 5.642105e+03 5.040282e+03
-3.138765e+09 -2.938761e+09 -3.098820e+09 1.683530e+04 8.130469e+03 6.601777e+03
-4.622928e+09 -4.422963e+09 -4.582987e+09 -1.763427e+02 -1.319358e+02 0.000000e+00
-3.885251e+09 -3.685286e+09 -3.845310e+09 -2.644872e+02 9.414784e+01 -1.602703e+02
-4.993069e+09 -4.793108e+09 -4.953275e+09 -1.367070e+05 -5.745694e+03 8.214993e+03
-4.442428e+09 -4.242462e+09 -4.402487e+09 -1.070199e+03 -3.182885e+01 2.769810e+02
-2.365360e+09 -2.165408e+09 -2.325427e+09 -6.396598e+03 -9.349176e+02 3.100984e+03
-4.936705e+09 -4.736739e+09 -4.896763e+09 -7.782406e+02 1.509447e+02 1.103742e+02
-4.844985e+09 -4.644949e+09 -4.805057e+09 -1.191487e+04 -3.138743e+03 1.805714e+03
-4.164949e+09 -3.964932e+09 -4.125016e+09 -1.087363e+04 -4.272442e+03 6.476512e+03
-5.005274e+09 -4.805279e+09 -4.965392e+09 -5.583554e+04 -2.933100e+03 3.667151e+03
-4.984179e+09 -4.784159e+09 -4.944260e+09 -2.400618e+04 -4.960208e+03 4.150354e+03
-4.764438e+09 -4.564417e+09 -4.724521e+09 -2.691605e+04 -5.151772e+03 6.402962e+02
-3.871586e+09 -3.671668e+09 -3.831687e+09 1.035854e+04 1.360325e+03 7.199568e+03
-4.799299e+09 -4.599282e+09 -4.759370e+09 -1.701218e+04 -1.542859e+03 6.145878e+03
-4.164694e+09 -3.964671e+09 -4.124766e+09 -2.134695e+04 -8.950862e+03 9.762559e+03
-4.624511e+09 -4.424617e+09 -4.584639e+09 4.750054e+03 2.546952e+02 5.385024e+03
-4.802925e+09 -4.602873e+09 -4.763001e+09 -2.284947e+04 -2.700697e+03 7.737879e+03
-4.981467e+09 -4.781563e+09 -4.941581e+09 -1.007028e+03 2.602952e+02 1.906766e+03
-3.967378e+09 -3.767352e+09 -3.927443e+09 -6.661311e+03 -3.133932e+03 5.861308e+03
-1.844652e+09 -1.644573e+09 -1.804659e+09 2.456822e+03 5.223924e+03 -8.205996e+03
-3.764850e+09 -3.564777e+09 -3.724884e+09 -5.925941e+03 8.455965e+03 -1.576425e+03
-3.347194e+09 -3.147114e+09 -3.307223e+09 -4.494854e+03 8.058188e+03 -4.400147e+03
-2.626509e+09 -2.426438e+09 -2.586533e+09 -1.489181e+03 6.306847e+03 -4.812480e+03
-3.850322e+09 -3.650404e+09 -3.810415e+09 -1.477658e+02 -1.262175e+02 1.870295e+03
-3.388960e+09 -3.189037e+09 -3.349048e+09 -5.768923e+02 -5.575414e+02 1.182992e+03
-4.278424e+09 -4.078533e+09 -4.238548e+09 1.218795e+03 -1.632231e+03 9.703509e+03
-3.012263e+09 -2.812191e+09 -2.972286e+09 -9.012573e+02 4.162295e+03 -1.882348e+03
-3.999731e+09 -3.799631e+09 -3.959761e+09 -3.419819e+03 8.602159e+03 -6.370843e+03
-3.941992e+09 -3.742177e+09 -3.902209e+09 1.100702e+04 2.795346e+03 3.554038e+04
-4.820722e+09 -4.620616e+09 -4.780826e+09 6.347566e+04 -1.429876e+04 -7.550858e+03
-2.139812e+09 -1.939737e+09 -2.099824e+09 -4.060436e+03 1.119575e+04 -7.338928e+03
-4.802184e+09 -4.602255e+09 -4.762273e+09 4.673869e+03 9.455011e+02 1.088067e+03
-1.688274e+09 -1.488312e+09 -1.648336e+09 -4.472108e+03 -1.467618e+03 2.439693e+03
-3.387655e+09 -3.187711e+09 -3.347728e+09 -9.284838e+02 -1.169763e+03 6.660977e+02
-4.290293e+09 -4.090202e+09 -4.250420e+09 6.227471e+04 -2.372025e+04 -5.972392e+03
-4.991835e+09 -4.791911e+09 -4.951932e+09 -1.131070e+04 -8.017313e+02 7.717180e+02
-3.955595e+09 -3.755642e+09 -3.915673e+09 -1.176066e+04 -1.950537e+03 4.388265e+03
-4.991956e+09 -4.792047e+09 -4.952223e+09 -2.001502e+05 -7.676659e+03 1.295035e+04
-4.355920e+09 -4.155955e+09 -4.315979e+09 -1.729657e+02 2.264113e+01 2.243964e+02
-4.743495e+09 -4.543560e+09 -4.703578e+09 2.623943e+03 -4.398750e+02 1.029211e+03
-4.194548e+09 -3.994607e+09 -4.154627e+09 3.594158e+03 6.288579e+02 1.542041e+03
-4.799987e+09 -4.600047e+09 -4.760067e+09 5.579421e+03 1.448206e+03 2.094363e+02
-4.771903e+09 -4.571935e+09 -4.731974e+09 -1.273878e+04 -2.565291e+03 -5.915165e+02
-4.872350e+09 -4.672193e+09 -4.832378e+09 9.876366e+02 2.120238e+03 -1.159959e+01
-4.954735e+09 -4.754786e+09 -4.914809e+09 7.090106e+03 6.570502e+02 -5.035336e+02
-3.220732e+09 -3.020740e+09 -3.180780e+09 4.596211e+03 1.061176e+03 1.407202e+03
-3.718811e+09 -3.518731e+09 -3.678844e+09 -3.665175e+03 6.145386e+03 -5.875236e+03
-4.062556e+09 -3.862631e+09 -4.022657e+09 1.314427e+04 3.472020e+03 6.415809e+03
-3.933260e+09 -3.733112e+09 -3.893291e+09 3.335710e+03 1.426258e+04 -6.776362e+02
-3.285804e+09 -3.085662e+09 -3.245836e+09 -5.519073e+03 3.313440e+04 1.919748e+03
-3.870511e+09 -3.670367e+09 -3.830538e+09 1.216439e+03 1.219441e+04 3.543335e+03
-4.144603e+09 -3.944626e+09 -4.104657e+09 3.522657e+03 3.969413e+02 3.492556e+02
-4.005072e+09 -3.804925e+09 -3.965100e+09 5.756485e+02 2.930927e+03 1.756752e+03
-3.471543e+09 -3.271407e+09 -3.431568e+09 -7.661093e+02 1.180865e+04 1.059198e+03
-4.613519e+09 -4.413367e+09 -4.573550e+09 1.701615e+03 1.578397e+03 -1.159531e+03
-3.868707e+09 -3.668554e+09 -3.828742e+09 2.484562e+03 1.756250e+04 1.363274e+03
-4.085622e+09 -3.885466e+09 -4.045646e+09 -1.680793e+02 8.847489e+03 -1.574584e+03
-4.166382e+09 -3.966404e+09 -4.126437e+09 2.792240e+03 -7.008941e+01 5.417486e+02
-4.319006e+09 -4.119037e+09 -4.279065e+09 7.516258e+03 6.672996e+02 8.092230e+02
-3.963132e+09 -3.763180e+09 -3.923222e+09 2.098095e+04 3.439445e+03 7.602641e+03
-4.853524e+09 -4.653554e+09 -4.813583e+09 5.924724e+03 -1.754949e+02 -7.916313e+01
-3.992530e+09 -3.792381e+09 -3.952557e+09 -1.419740e+03 9.104762e+03 -1.158436e+03
-4.706612e+09 -4.506449e+09 -4.666642e+09 1.660886e+03 3.632010e+03 -2.569198e+02
-4.988418e+09 -4.788439e+09 -4.948472e+09 4.330198e+03 1.074772e+02 1.237024e+02
-3.482287e+09 -3.282723e+09 -3.442727e+09 5.545026e+04 -6.141402e+04 -4.805687e+04
-4.650947e+09 -4.450975e+09 -4.611007e+09 1.149760e+04 1.756449e+03 2.480127e+01
-2.345285e+09 -2.145326e+09 -2.305349e+09 7.423347e+03 1.111773e+03 3.205572e+03
-4.511516e+09 -4.311554e+09 -4.471579e+09 2.803182e+03 4.225381e+02 5.740920e+01
-4.974464e+09 -4.774520e+09 -4.934542e+09 5.172955e+03 4.433300e+02 4.451823e+02
-3.678942e+09 -3.479516e+09 -3.639458e+09 4.380209e+04 -1.850041e+04 -4.088161e+04
-4.798905e+09 -4.599579e+09 -4.759474e+09 1.383533e+05 -1.158400e+03 7.028803e+03
-4.780446e+09 -4.581109e+09 -4.741083e+09 8.366802e+04 -1.882917e+04 -3.092753e+04
-5.019105e+09 -4.818989e+09 -4.979199e+09 -5.729894e+04 1.164632e+04 -6.985857e+03
-2.650856e+09 -2.450722e+09 -2.610874e+09 1.799474e+03 -4.567575e+03 -8.576443e+03
-3.221527e+09 -3.021479e+09 -3.181624e+09 -4.564963e+04 6.359874e+04 -3.759948e+04
-4.202039e+09 -4.001787e+09 -4.162082e+09 3.873323e+03 -3.390723e+04 -4.468041e+02
-1.774533e+09 -1.574450e+09 -1.734530e+09 1.382162e+03 -4.282755e+04 -1.043525e+04
-3.012157e+09 -2.811995e+09 -2.972180e+09 2.675246e+03 -2.084716e+04 -1.108943e+04
-5.005001e+09 -4.804913e+09 -4.965077e+09 -3.347358e+04 4.807099e+03 -1.215085e+03
-3.703462e+09 -3.503248e+09 -3.663498e+09 1.143228e+04 -2.160227e+04 -3.006439e+03
-4.629368e+09 -4.429222e+09 -4.589406e+09 -1.816409e+04 6.505410e+03 -2.242162e+03
-3.934239e+09 -3.734093e+09 -3.894300e+09 -4.011255e+04 3.254122e+04 -1.192470e+04
-4.943086e+09 -4.743068e+09 -4.903246e+09 -4.332711e+04 9.435972e+03 -3.524372e+03
-4.842814e+09 -4.641869e+09 -4.801864e+09 -1.972793e+05 -8.568634e+04 2.535882e+04
-3.970726e+09 -3.771413e+09 -3.923415e+09 1.374654e+05 8.963134e+05 1.487493e+06
-2.193082e+09 -1.993146e+09 -2.153209e+09 -9.011105e+03 6.739182e+04 -3.130923e+04
-4.777537e+09 -4.577579e+09 -4.737605e+09 -6.874771e+03 -1.331017e+03 -3.308596e+02
-4.472711e+09 -4.272752e+09 -4.432777e+09 -5.154998e+03 -3.216959e+02 5.579039e+02
-4.990695e+09 -4.790796e+09 -4.950821e+09 1.546800e+04 1.648402e+03 2.375604e+03
-1.573576e+09 -1.373617e+09 -1.533640e+09 3.761615e+03 5.791826e+02 1.483898e+03
-3.719936e+09 -3.519984e+09 -3.680007e+09 -5.412625e+03 -1.088050e+03 1.816803e+03
-2.282976e+09 -2.083018e+09 -2.243040e+09 -2.582335e+03 -1.047166e+03 8.805786e+02
-4.312211e+09 -4.112251e+09 -4.272281e+09 -9.468473e+03 -1.938093e+03 1.341378e+03
-4.028979e+09 -3.829025e+09 -3.989050e+09 -5.831656e+03 -1.748542e+03 7.360976e+02
-4.151166e+09 -3.951215e+09 -4.111238e+09 -5.641675e+03 -5.313579e+02 6.771231e+02
-4.164997e+09 -3.965048e+09 -4.125073e+09 -8.139864e+03 -9.608230e+02 1.564498e+03
-4.751358e+09 -4.551407e+09 -4.711428e+09 -4.706017e+03 -1.070020e+03 2.883388e+02
-4.291694e+09 -4.091783e+09 -4.251814e+09 2.369602e+04 4.108239e+03 9.231911e+03
-4.800808e+09 -4.600731e+09 -4.760871e+09 -1.777178e+04 9.140554e+02 -3.830802e+03
-2.216270e+09 -2.016321e+09 -2.176339e+09 1.495677e+03 1.334232e+02 5.035334e+02
-2.530771e+09 -2.330736e+09 -2.490812e+09 1.562008e+04 1.149076e+04 9.115763e+03
-4.644622e+09 -4.444731e+09 -4.604794e+09 4.831891e+04 2.404206e+03 1.001249e+04
-4.988077e+09 -4.788142e+09 -4.948177e+09 1.634726e+04 1.153813e+03 1.305925e+02
-5.002624e+09 -4.802687e+09 -4.962732e+09 2.497953e+04 2.199457e+03 1.224175e+03
-4.817782e+09 -4.617690e+09 -4.777954e+09 -1.481947e+05 2.797070e+04 -6.452068e+03
-2.421828e+09 -2.221808e+09 -2.381873e+09 1.308315e+04 9.357963e+03 6.905347e+03
-2.871691e+09 -2.671676e+09 -2.831737e+09 1.536721e+04 1.150417e+04 8.811195e+03
-3.969549e+09 -3.769318e+09 -3.929574e+09 3.788709e+04 3.128095e+04 5.346620e+03
-3.401361e+09 -3.201337e+09 -3.361408e+09 1.979852e+04 1.057735e+04 8.134267e+03
-3.154628e+09 -2.954602e+09 -3.114678e+09 1.879732e+04 1.379762e+04 1.299310e+04
-4.509564e+09 -4.309408e+09 -4.469620e+09 3.549471e+04 1.549293e+04 4.154043e+03
-2.501039e+09 -2.301065e+09 -2.461096e+09 -9.954098e+02 -6.742509e+02 2.340002e+03
-4.985952e+09 -4.785666e+09 -4.945969e+09 -1.125490e+04 1.568120e+04 -2.772455e+03
-4.824481e+09 -4.624193e+09 -4.784514e+09 -4.028102e+04 8.171214e+03 3.359396e+02
-2.135453e+09 -1.935476e+09 -2.095509e+09 -3.569330e+03 -1.129633e+03 2.445468e+03
-1.810614e+09 -1.610644e+09 -1.770671e+09 -6.376074e+02 -4.877348e+02 6.239526e+02
-3.935736e+09 -3.735824e+09 -3.895962e+09 1.454848e+05 3.346513e+04 3.883541e+04
-2.254652e+09 -2.054685e+09 -2.214711e+09 -5.987983e+03 -1.478734e+03 2.781731e+03
-3.970581e+09 -3.770148e+09 -3.930543e+09 5.685370e+04 4.299622e+04 1.542983e+04
-4.826774e+09 -4.626400e+09 -4.786782e+09 -2.693555e+04 3.303056e+04 2.344658e+03
-1.883208e+09 -1.683243e+09 -1.843270e+09 -4.549512e+03 -1.115342e+03 2.638688e+03
-1.566543e+09 -1.366573e+09 -1.526602e+09 -1.138439e+03 -4.220842e+02 1.152734e+03
-4.308093e+09 -4.107651e+09 -4.268089e+09 -3.907914e+04 -8.206948e+04 9.460860e+03
-5.000743e+09 -4.800367e+09 -4.960775e+09 -3.900585e+04 -2.950342e+04 4.494858e+03
-4.992075e+09 -4.791676e+09 -4.952095e+09 1.344325e+03 -3.401568e+04 -1.478208e+03
-4.825282e+09 -4.624868e+09 -4.785287e+09 6.168847e+03 -3.504743e+04 6.406612e+03
-4.818327e+09 -4.617686e+09 -4.778155e+09 -1.048858e+04 6.165762e+03 -8.920837e+03
-4.819632e+09 -4.619483e+09 -4.779779e+09 1.586370e+05 -1.631987e+04 -2.020161e+04
-4.986542e+09 -4.786018e+09 -4.946497e+09 -3.509203e+04 -4.381974e+04 -1.367279e+03
-1.632570e+09 -1.432513e+09 -1.592589e+09 -4.592840e+02 2.074971e+04 -1.356394e+03
-4.142377e+09 -3.942019e+09 -4.102374e+09 -3.205017e+04 -4.145832e+04 -1.253193e+03
-4.128144e+09 -3.927687e+09 -4.088122e+09 -3.885945e+04 -7.784403e+04 1.068241e+04
-4.632811e+09 -4.432731e+09 -4.592968e+09 1.145503e+05 -2.023584e+04 -2.104769e+04
-4.653612e+09 -4.453185e+09 -4.613618e+09 5.561286e+04 -1.410422e+04 3.238456e+03
-3.982679e+09 -3.782757e+09 -3.942914e+09 2.624422e+05 -8.595657e+03 -2.544672e+04
-4.652659e+09 -4.452204e+09 -4.612651e+09 5.671267e+03 -1.028251e+04 6.052332e+03
-4.622561e+09 -4.423494e+09 -4.580332e+09 5.888985e+05 1.427043e+05 3.928627e+05
-3.958038e+09 -3.757878e+09 -3.918086e+09 2.387945e+05 -5.960853e+04 -4.251442e+04
-4.818452e+09 -4.618345e+09 -4.778618e+09 1.582295e+05 -3.058521e+04 -1.260828e+04
-4.976023e+09 -4.775902e+09 -4.936199e+09 1.431253e+05 -2.463781e+04 -1.709838e+04
-4.160819e+09 -3.960611e+09 -4.120903e+09 1.497352e+05 -4.442640e+04 -2.959360e+04
-4.822698e+09 -4.622079e+09 -4.782528e+09 1.257236e+05 3.617642e+04 2.127088e+04
-4.656402e+09 -4.455962e+09 -4.616345e+09 1.697403e+05 3.357670e+03 2.010461e+03
-4.143094e+09 -3.942551e+09 -4.102926e+09 2.145716e+05 6.440195e+04 3.321726e+04
-4.662152e+09 -4.461515e+09 -4.621869e+09 2.166362e+05 -2.508897e+04 -1.157399e+04
-4.990888e+09 -4.791037e+09 -4.951076e+09 -3.466908e+03 -4.114834e+03 1.048825e+04
-4.311964e+09 -4.111306e+09 -4.271756e+09 1.487545e+05 8.627520e+04 2.817916e+04
-4.145789e+09 -3.945286e+09 -4.105725e+09 1.216189e+05 7.449955e+04 3.041051e+04
-3.161216e+09 -2.961274e+09 -3.121296e+09 -1.007831e+04 -1.417940e+03 6.330411e+03
-3.121938e+09 -2.922033e+09 -3.082048e+09 -1.483314e+03 -3.388243e+01 1.401890e+04
-3.963123e+09 -3.763045e+09 -3.923186e+09 7.611057e+03 -1.035351e+04 -6.102643e+03
-4.986479e+09 -4.786672e+09 -4.946723e+09 -6.460424e+04 -6.563032e+03 1.121979e+04
-5.015263e+09 -4.815399e+09 -4.975433e+09 -1.263775e+04 -1.636349e+03 5.873584e+03
-1.698513e+09 -1.498582e+09 -1.658595e+09 -5.436811e+03 -2.410215e+03 1.159586e+04
-2.190406e+09 -1.990477e+09 -2.150486e+09 -9.190944e+02 -1.378490e+02 7.906464e+02
-4.797574e+09 -4.597680e+09 -4.757701e+09 -1.699816e+02 3.976993e+02 3.316060e+03
-4.664227e+09 -4.464162e+09 -4.624317e+09 1.463081e+04 -3.638145e+03 -3.076111e+03
-4.452733e+09 -4.252674e+09 -4.412831e+09 1.823290e+04 -1.136932e+04 -2.730084e+03
-3.969519e+09 -3.769695e+09 -3.929735e+09 -1.048679e+04 3.407683e+03 2.493178e+04
-4.975850e+09 -4.775943e+09 -4.935961e+09 -6.598460e+03 -1.204770e+02 2.005106e+03
-4.828094e+09 -4.627857e+09 -4.788100e+09 -3.023377e+05 2.591543e+04 -1.540069e+03
-3.967733e+09 -3.767969e+09 -3.928010e+09 -5.473487e+03 2.035569e+03 3.787118e+04
-2.972361e+09 -2.772429e+09 -2.932441e+09 -8.818906e+02 -4.622953e+02 7.037757e+02
-3.616360e+09 -3.416433e+09 -3.576445e+09 -6.135055e+02 -3.075928e+02 1.219843e+03
-4.830549e+09 -4.630631e+09 -4.790666e+09 -2.143200e+04 1.040735e+03 2.900935e+03
-2.789036e+09 -2.588969e+09 -2.749081e+09 1.134806e+04 -2.129186e+04 -1.221204e+04
-3.394722e+09 -3.194790e+09 -3.354804e+09 -7.662781e+02 -8.985256e+02 9.297732e+02
-3.982887e+09 -3.782824e+09 -3.942969e+09 1.473341e+04 -1.835494e+04 -5.580872e+03
-4.137575e+09 -3.937750e+09 -4.097830e+09 1.544531e+05 3.082696e+04 3.833970e+04
-4.999774e+09 -4.799878e+09 -4.959900e+09 -1.332487e+04 -1.905045e+03 2.564224e+03
-4.990745e+09 -4.790853e+09 -4.950894e+09 -2.332798e+04 -2.818615e+03 3.409277e+03
-5.004360e+09 -4.804483e+09 -4.964579e+09 2.539840e+05 1.075786e+04 2.392689e+04
-4.297114e+09 -4.097184e+09 -4.257211e+09 -1.174145e+04 -2.197430e+03 3.910245e+03
-4.661282e+09 -4.461427e+09 -4.621379e+09 3.334391e+05 7.785833e+03 3.347305e+04
-4.812037e+09 -4.612117e+09 -4.772189e+09 3.352597e+05 1.886368e+04 1.995683e+04
-4.990898e+09 -4.790986e+09 -4.951101e+09 -1.085775e+05 -5.660099e+03 1.015744e+04
-4.157849e+09 -3.958067e+09 -4.118113e+09 2.090564e+05 2.312934e+04 4.104386e+04
-5.000658e+09 -4.800757e+09 -4.960794e+09 -2.941846e+04 -2.148380e+03 3.233436e+03
-4.125569e+09 -3.925693e+09 -4.085742e+09 3.003552e+05 2.755347e+04 4.083281e+04
-4.832093e+09 -4.631984e+09 -4.791942e+09 4.286951e+05 -2.146405e+04 3.455139e+04
-4.990821e+09 -4.790935e+09 -4.951072e+09 -1.414625e+05 -9.070137e+03 1.427351e+04
-4.488872e+09 -4.288636e+09 -4.448835e+09 4.087589e+05 -2.654338e+04 -4.594134e+02
-4.327732e+09 -4.127717e+09 -4.287448e+09 4.523043e+05 -6.518125e+04 -3.448065e+04
-4.308552e+09 -4.108101e+09 -4.267913e+09 4.335872e+05 -6.790986e+04 -3.738281e+04
-2.758697e+09 -2.558632e+09 -2.718734e+09 2.160836e+04 2.331023e+04 1.153320e+04
-1.860706e+09 -1.660663e+09 -1.820729e+09 1.034265e+04 2.291622e+04 1.722366e+04
-2.137504e+09 -1.937475e+09 -2.097541e+09 2.000175e+04 2.045206e+04 1.560712e+04
-2.649794e+09 -2.449763e+09 -2.609831e+09 1.014995e+04 8.837219e+03 8.773069e+03
-4.127220e+09 -3.927039e+09 -4.087318e+09 -1.762084e+05 -3.619790e+04 3.916700e+04
-2.364731e+09 -2.164700e+09 -2.324768e+09 1.086187e+04 8.283204e+03 7.847213e+03
-3.957210e+09 -3.756801e+09 -3.917105e+09 -2.196383e+05 -3.781620e+04 6.599836e+02
-4.975607e+09 -4.775564e+09 -4.935690e+09 -3.863477e+04 -3.118600e+03 3.997045e+03
-4.308075e+09 -4.108076e+09 -4.268249e+09 -1.263866e+05 -2.653130e+04 2.781638e+04
-4.307545e+09 -4.107568e+09 -4.267722e+09 -1.448927e+05 -3.306222e+04 4.156695e+04
-4.986489e+09 -4.786654e+09 -4.946721e+09 -5.811843e+04 -6.960087e+03 1.068828e+04
-4.311449e+09 -4.111479e+09 -4.271668e+09 -1.859788e+05 -3.653417e+04 3.962623e+04
-2.956389e+09 -2.756333e+09 -2.916426e+09 1.029115e+04 1.054855e+04 6.327962e+03
-4.314096e+09 -4.115273e+09 -4.274238e+09 2.404831e+04 -6.434314e+04 -1.382799e+04
-4.115791e+09 -3.915896e+09 -4.075914e+09 -3.213541e+03 -2.381288e+02 9.758183e+03
-3.100697e+09 -2.900638e+09 -3.060739e+09 2.133808e+04 2.027108e+04 9.677677e+03
-3.436804e+09 -3.236758e+09 -3.396851e+09 2.423096e+04 1.513823e+04 9.366221e+03
-3.022088e+09 -2.822044e+09 -2.982138e+09 2.356368e+04 2.174290e+04 1.548232e+04
-4.138632e+09 -3.938551e+09 -4.098680e+09 2.193774e+04 9.898065e+03 6.533493e+03
-4.778435e+09 -4.578350e+09 -4.738483e+09 1.800796e+04 2.390774e+03 5.889586e+03
-2.716003e+09 -2.515932e+09 -2.676034e+09 1.999906e+04 2.324426e+04 1.103470e+04
-3.949347e+09 -3.750756e+09 -3.906373e+09 2.742459e+05 2.158608e+05 1.172294e+06
-3.396702e+09 -3.196608e+09 -3.356740e+09 2.607071e+04 2.458171e+04 1.309485e+04
-4.993441e+09 -4.794293e+09 -4.953985e+09 1.125563e+05 -7.310158e+03 -6.276143e+04
-3.791277e+09 -3.591206e+09 -3.751333e+09 2.915473e+04 1.610219e+04 8.993482e+03
-1.561242e+09 -1.361281e+09 -1.521233e+09 -1.336750e+04 -6.355536e+04 -1.352532e+05
-2.923781e+09 -2.723705e+09 -2.883814e+09 1.409868e+04 1.754214e+04 1.550065e+04
-4.137140e+09 -3.936565e+09 -4.093913e+09 -6.371403e+05 -8.287114e+05 8.096159e+04
-3.694433e+09 -3.494359e+09 -3.654477e+09 1.928949e+04 1.237212e+04 7.031361e+03
-4.629492e+09 -4.429489e+09 -4.589573e+09 -2.124162e+04 -4.207960e+03 2.932164e+03
-4.845566e+09 -4.645231e+09 -4.805597e+09 -1.722547e+05 3.156954e+04 1.033437e+02
-4.425446e+09 -4.225449e+09 -4.385508e+09 -2.589791e+03 -4.762366e+02 3.555803e+03
-4.432069e+09 -4.232665e+09 -4.392706e+09 -1.716239e+04 8.415941e+03 5.735766e+03
-3.733678e+09 -3.533684e+09 -3.693744e+09 -1.382986e+04 -5.089396e+03 5.741867e+03
-4.788658e+09 -4.588678e+09 -4.748731e+09 -1.573769e+04 -1.525599e+03 1.342915e+03
-4.641329e+09 -4.441347e+09 -4.601397e+09 -1.013379e+04 -1.056445e+03 2.735265e+03
-4.943624e+09 -4.744353e+09 -4.904079e+09 -7.583113e+04 -1.027795e+04 4.525490e+04
-4.826352e+09 -4.626347e+09 -4.786424e+09 -1.802546e+04 -3.285948e+03 3.278902e+03
-4.472461e+09 -4.272023e+09 -4.432413e+09 1.003931e+05 -4.148086e+04 -1.620825e+04
-3.934672e+09 -3.733550e+09 -3.893266e+09 -2.045832e+04 3.462459e+05 7.275582e+04
-4.514417e+09 -4.314415e+09 -4.474485e+09 -8.117795e+03 -1.049626e+03 3.086889e+03
-4.993765e+09 -4.793670e+09 -4.953906e+09 -1.445750e+05 -5.303633e+03 1.013235e+04
-4.817475e+09 -4.616785e+09 -4.777168e+09 -2.002569e+05 1.401413e+04 -1.180542e+04
-4.651709e+09 -4.450996e+09 -4.611396e+09 1.705984e+05 7.794186e+03 1.042906e+04
-4.699303e+09 -4.499304e+09 -4.659368e+09 -5.689196e+03 -1.329996e+03 1.333827e+03
-4.142974e+09 -3.942821e+09 -4.103080e+09 -1.213830e+05 -4.046257e+04 3.506234e+04
-4.290990e+09 -4.090708e+09 -4.251067e+09 -1.217938e+05 -5.707756e+04 2.706746e+04
-4.988115e+09 -4.789157e+09 -4.948456e+09 3.228632e+04 7.320647e+04 7.841722e+04
-4.796829e+09 -4.596721e+09 -4.756891e+09 3.515161e+04 7.975126e+03 8.448883e+03
-4.267670e+09 -4.067557e+09 -4.227714e+09 2.798340e+04 1.709370e+04 5.527144e+03
-4.470425e+09 -4.270314e+09 -4.430534e+09 1.113623e+05 2.548319e+04 1.451035e+04
-3.971337e+09 -3.770899e+09 -3.919642e+09 4.620339e+04 7.529315e+05 2.032837e+05
-4.985088e+09 -4.784977e+09 -4.945172e+09 6.702185e+04 1.314087e+04 4.098130e+03
-3.963520e+09 -3.763395e+09 -3.923577e+09 5.126700e+04 2.261917e+04 1.244932e+04
-4.999575e+09 -4.800752e+09 -4.957241e+09 -2.000062e+05 -5.611250e+04 1.951388e+05
-4.447570e+09 -4.247420e+09 -4.407631e+09 5.053058e+04 2.050426e+04 7.136586e+03
-5.000369e+09 -4.800391e+09 -4.950344e+09 -1.460551e+05 -5.605850e+04 -1.044823e+03
-4.123917e+09 -3.923795e+09 -4.083970e+09 3.378915e+04 1.687318e+04 7.335284e+03
-4.653991e+09 -4.453435e+09 -4.611598e+09 -5.345817e+05 -4.780684e+05 2.703144e+05
-4.140752e+09 -3.940712e+09 -4.100837e+09 5.569014e+04 1.386153e+04 1.774637e+04
-3.954164e+09 -3.754559e+09 -3.914066e+09 -4.178774e+05 -2.194328e+04 1.067851e+05
-4.132386e+09 -3.932340e+09 -4.092463e+09 4.492366e+04 1.306627e+04 5.884789e+03
-4.830642e+09 -4.630619e+09 -4.790722e+09 3.964483e+04 1.903207e+03 7.633456e+03
-4.986956e+09 -4.786900e+09 -4.947031e+09 4.791563e+04 7.429795e+03 5.326190e+03
-4.805856e+09 -4.605800e+09 -4.765928e+09 4.144922e+04 9.843815e+03 1.589138e+03
-4.984908e+09 -4.784024e+09 -4.937425e+09 -2.517679e+05 -1.163566e+05 -8.732117e+03
-4.997094e+09 -4.797193e+09 -4.948540e+09 3.848735e+05 -2.420520e+05 -2.610220e+05
-4.994579e+09 -4.793435e+09 -4.951899e+09 4.362086e+05 -8.325569e+04 4.552370e+04
-4.652821e+09 -4.452797e+09 -4.612907e+09 4.512653e+04 6.270693e+03 3.738767e+03
-4.449117e+09 -4.249074e+09 -4.409182e+09 3.230612e+04 7.300993e+03 5.804881e+03
-3.969876e+09 -3.769794e+09 -3.922833e+09 6.803781e+05 7.796418e+05 1.427039e+06
-4.472262e+09 -4.273385e+09 -4.426985e+09 -2.514365e+05 -2.355464e+03 7.513366e+05
-4.114081e+09 -3.914270e+09 -4.074315e+09 -2.782608e+05 -6.254905e+04 4.133385e+04
-3.960263e+09 -3.760371e+09 -3.920428e+09 -3.226243e+05 -9.259957e+03 -1.276097e+04
-4.258101e+09 -4.058332e+09 -4.218321e+09 -3.562222e+05 -2.311222e+04 2.172085e+04
-3.963872e+09 -3.765051e+09 -3.923629e+09 2.665824e+05 8.547589e+04 2.138836e+05
-4.287512e+09 -4.087422e+09 -4.247487e+09 -2.905679e+05 -8.022036e+04 4.645767e+03
-4.860041e+09 -4.659114e+09 -4.819115e+09 4.027405e+05 -4.817596e+04 1.216488e+03
-4.321915e+09 -4.122150e+09 -4.282177e+09 -1.888062e+05 -3.044095e+04 4.116175e+04
-4.450259e+09 -4.250510e+09 -4.410570e+09 -1.236237e+05 -1.855825e+04 4.272992e+04
-4.645639e+09 -4.445801e+09 -4.605943e+09 -1.926265e+05 -1.382222e+04 1.832161e+04
-3.960923e+09 -3.760576e+09 -3.920917e+09 4.712421e+04 -5.151067e+04 -4.168832e+03
-4.990801e+09 -4.789998e+09 -4.950461e+09 6.646132e+04 -4.341697e+04 -1.802690e+04
-4.833088e+09 -4.632518e+09 -4.792798e+09 -3.212137e+05 -2.560642e+04 2.904065e+04
-4.301799e+09 -4.101237e+09 -4.261479e+09 -3.629636e+05 -4.886717e+04 4.979413e+04
-4.990864e+09 -4.790135e+09 -4.950638e+09 -2.826289e+03 -6.398002e+04 -1.581072e+04
-4.474865e+09 -4.274152e+09 -4.434571e+09 3.235721e+05 -1.554965e+04 -2.034883e+04
-4.800250e+09 -4.600224e+09 -4.760374e+09 -3.316083e+05 -1.426911e+04 9.532678e+03
-4.003015e+09 -3.802144e+09 -3.961751e+09 2.989245e+05 1.839735e+05 3.537651e+04
-4.511895e+09 -4.311687e+09 -4.471913e+09 2.377834e+05 -4.106113e+04 -3.295227e+04
-4.823289e+09 -4.623334e+09 -4.783448e+09 -2.774227e+05 4.606029e+03 -3.744991e+03
-2.968522e+09 -2.768572e+09 -2.928686e+09 -8.448761e+03 6.718328e+04 -1.342756e+04
-4.479667e+09 -4.279865e+09 -4.440027e+09 5.375117e+04 -2.063026e+04 -7.326495e+03
-2.087037e+09 -1.887026e+09 -2.047098e+09 -1.222339e+04 5.571563e+04 -1.953077e+04
-2.984276e+09 -2.784296e+09 -2.944421e+09 -2.307234e+04 5.919426e+04 -1.710045e+04
-2.920011e+09 -2.720102e+09 -2.880224e+09 -4.588102e+04 6.882153e+04 -4.184450e+04
-3.474856e+09 -3.274831e+09 -3.434993e+09 -8.510814e+04 6.601706e+04 -3.900991e+04
-1.860328e+09 -1.660330e+09 -1.820384e+09 1.209829e+04 6.049968e+04 -1.013053e+04
-3.969001e+09 -3.769029e+09 -3.929080e+09 -2.046032e+04 -5.535913e+03 6.190447e+03
-1.860323e+09 -1.660307e+09 -1.820373e+09 -1.479391e+04 5.529593e+04 -9.546963e+03
-2.168463e+09 -1.968451e+09 -2.128525e+09 -3.499251e+03 4.477565e+04 -1.068775e+03
-2.751087e+09 -2.551081e+09 -2.711205e+09 -3.072503e+04 5.551208e+04 -2.155482e+04
-1.920879e+09 -1.720866e+09 -1.880930e+09 1.156684e+04 5.202015e+04 -9.401573e+03
-2.654165e+09 -2.454138e+09 -2.614241e+09 -2.101215e+03 4.437853e+04 -1.954364e+03
-4.519622e+09 -4.319687e+09 -4.479734e+09 -2.825084e+04 -3.894059e+03 6.453395e+03
-3.963742e+09 -3.763778e+09 -3.923821e+09 -1.968138e+04 -5.747233e+03 6.363837e+03
-1.889250e+09 -1.689206e+09 -1.849287e+09 -7.438883e+03 5.213849e+04 -2.076524e+04
-4.890040e+09 -4.690111e+09 -4.850126e+09 -1.069369e+03 2.483934e+02 4.499473e-05
-2.239306e+09 -2.039269e+09 -2.199361e+09 -1.461969e+04 4.028427e+04 -1.450074e+04
-4.119696e+09 -3.918888e+09 -4.077479e+09 5.585502e+05 3.901780e+05 2.246485e+03
-4.978495e+09 -4.778657e+09 -4.938751e+09 -1.386090e+05 -1.187049e+04 1.491432e+04
-4.991626e+09 -4.791428e+09 -4.949276e+09 6.921688e+05 1.616239e+04 5.823355e+04
-4.462948e+09 -4.263385e+09 -4.423393e+09 8.323773e+04 3.453990e+03 3.892239e+04
-4.476205e+09 -4.276265e+09 -4.436329e+09 5.575569e+04 6.528049e+03 1.023561e+04
-3.954642e+09 -3.754576e+09 -3.914740e+09 7.146759e+04 3.481263e+04 1.600386e+04
-5.008741e+09 -4.808076e+09 -4.967950e+09 4.345833e+05 5.125133e+04 2.289482e+04
-3.962852e+09 -3.762684e+09 -3.922936e+09 1.186402e+05 3.046353e+04 2.078622e+04
-3.960955e+09 -3.760945e+09 -3.921072e+09 7.213621e+04 2.585188e+04 2.340578e+04
-4.978869e+09 -4.778677e+09 -4.938916e+09 1.973481e+04 1.126466e+04 3.882277e+03
-3.941717e+09 -3.741718e+09 -3.901755e+09 3.522849e+05 1.130051e+04 -1.475470e+04
-4.130403e+09 -3.930450e+09 -4.089053e+09 6.978374e+05 2.326547e+05 4.522072e+04
-4.633662e+09 -4.434237e+09 -4.592091e+09 7.027922e+05 3.264054e+05 2.855433e+05
-3.955859e+09 -3.756281e+09 -3.913048e+09 7.033202e+05 3.094255e+05 8.891070e+05
-4.985708e+09 -4.786115e+09 -4.942597e+09 6.338097e+05 5.486182e+04 1.227403e+05
-4.991745e+09 -4.791874e+09 -4.949406e+09 6.165505e+05 2.961889e+04 5.736591e+04
-4.653034e+09 -4.452880e+09 -4.608863e+09 6.876990e+05 3.700867e+05 3.612420e+05
-3.004548e+09 -2.804985e+09 -2.964962e+09 2.221128e+03 -1.624723e+04 -4.973066e+04
-4.825623e+09 -4.625461e+09 -4.785734e+09 2.481345e+05 2.814720e+04 7.569592e+03
-2.911863e+09 -2.712290e+09 -2.872279e+09 1.123510e+03 -1.872730e+04 -4.848762e+04
-2.727921e+09 -2.528301e+09 -2.688307e+09 3.449979e+04 -4.550985e+04 -6.249210e+04
-1.935993e+09 -1.736154e+09 -1.896127e+09 -5.553331e+04 -1.613970e+04 -2.048061e+04
-1.948636e+09 -1.748801e+09 -1.908773e+09 5.415110e+04 -2.801324e+04 -1.715411e+04
-3.950300e+09 -3.751423e+09 -3.908952e+09 4.013129e+05 1.953658e+05 5.196831e+05
-4.644853e+09 -4.445831e+09 -4.604906e+09 6.918195e+04 1.576880e+04 -8.141619e+03
-2.677793e+09 -2.477936e+09 -2.638017e+09 4.614732e+04 -5.823181e+04 -3.985118e+04
-4.796392e+09 -4.596478e+09 -4.756503e+09 1.274071e+04 -2.831415e+02 2.995494e+03
-4.311189e+09 -4.111088e+09 -4.270180e+09 6.006496e+05 -2.998446e+05 -2.594134e+05
-5.006201e+09 -4.805152e+09 -4.965040e+09 1.099019e+05 3.872766e+04 -1.218864e+04
-3.958635e+09 -3.758469e+09 -3.918719e+09 2.051326e+05 3.970260e+04 1.844354e+04
-3.003253e+09 -2.803379e+09 -2.963479e+09 1.101189e+04 -6.591638e+04 -2.416769e+04
-2.904617e+09 -2.704669e+09 -2.864804e+09 7.544626e+04 -8.006069e+04 -5.121088e+04
-1.667208e+09 -1.467221e+09 -1.627257e+09 -3.586726e+03 -7.141807e+04 -2.538904e+04
-1.914848e+09 -1.714861e+09 -1.874919e+09 2.597729e+04 -6.566632e+04 -1.467563e+04
-2.932345e+09 -2.732351e+09 -2.892470e+09 2.511729e+04 -6.435783e+04 -2.990495e+04
-3.102379e+09 -2.902468e+09 -3.062594e+09 2.626050e+04 -6.423269e+04 -2.341924e+04
-5.007000e+09 -4.806176e+09 -4.958798e+09 -8.359799e+04 3.325867e+05 -5.990577e+04
-3.133071e+09 -2.933088e+09 -3.093232e+09 2.260296e+04 -6.271860e+04 -2.091040e+04
-3.053719e+09 -2.853776e+09 -3.013890e+09 1.032882e+04 -6.175905e+04 -2.119835e+04
-4.475471e+09 -4.274772e+09 -4.428780e+09 3.435727e+05 -5.468833e+05 -1.634159e+05
-4.987703e+09 -4.786411e+09 -4.944040e+09 -1.084476e+05 -1.392785e+05 8.279216e+02
-1.684596e+09 -1.484589e+09 -1.644642e+09 2.001074e+02 -6.618754e+04 -1.655205e+04
-4.357967e+09 -4.157724e+09 -4.311136e+09 -6.494859e+05 4.687148e+05 -5.536211e+05
-4.296311e+09 -4.095354e+09 -4.255777e+09 -5.146543e+04 -9.176662e+04 -1.855502e+04
-4.993946e+09 -4.793006e+09 -4.953337e+09 9.864431e+04 -5.606122e+04 -2.366253e+04
-4.477096e+09 -4.277604e+09 -4.432800e+09 -6.628764e+05 9.360500e+05 -1.005468e+06
-1.932228e+09 -1.732213e+09 -1.892283e+09 1.750624e+04 -5.791548e+04 -9.156324e+03
-4.134146e+09 -3.932824e+09 -4.091654e+09 2.902775e+05 -6.961026e+05 -1.951104e+05
-4.644771e+09 -4.443505e+09 -4.601040e+09 3.474028e+05 -2.365693e+04 -5.121743e+04
-4.994032e+09 -4.793022e+09 -4.951679e+09 1.765533e+05 1.638698e+04 -1.230529e+05
-3.961381e+09 -3.759930e+09 -3.919195e+09 9.963374e+04 -5.269598e+05 1.340637e+05
-3.953633e+09 -3.752403e+09 -3.911014e+09 -3.171546e+05 6.784742e+05 -1.328961e+05
-4.832659e+09 -4.631475e+09 -4.791001e+09 6.259283e+04 -1.199168e+05 -8.431756e+04
-5.044642e+09 -4.843965e+09 -4.999942e+09 -4.468515e+05 3.350262e+05 -2.465806e+05
-1.944208e+09 -1.744269e+09 -1.904282e+09 -1.014787e+03 -8.871127e+02 7.408275e+02
-4.146261e+09 -3.944962e+09 -4.104698e+09 2.713625e+04 -1.313055e+05 2.343797e+04
-4.999414e+09 -4.798652e+09 -4.957634e+09 -5.367082e+05 -1.475491e+04 1.869194e+04
-3.953031e+09 -3.752163e+09 -3.912270e+09 -1.715326e+05 5.104309e+04 -1.857493e+04
-4.451433e+09 -4.250144e+09 -4.410120e+09 -1.039509e+05 -3.098436e+04 9.521727e+04
-4.991065e+09 -4.789788e+09 -4.948680e+09 1.141523e+05 -5.969845e+04 -1.299426e+04
-3.961895e+09 -3.763265e+09 -3.921635e+09 -3.062751e+05 2.719249e+05 -5.249795e+05
-4.820287e+09 -4.621164e+09 -4.774943e+09 -3.704017e+05 9.997715e+04 -7.889841e+04
-4.108056e+09 -3.906872e+09 -4.066112e+09 -1.741152e+05 -3.560504e+05 -4.482456e+04
-4.491232e+09 -4.291280e+09 -4.440606e+09 -1.747899e+05 -9.101398e+05 1.352268e+05
-4.311564e+09 -4.112419e+09 -4.265510e+09 -3.240005e+05 -8.913333e+04 8.412707e+05
-4.301520e+09 -4.101318e+09 -4.260552e+09 -6.425835e+05 -1.209838e+05 1.033219e+05
-4.148130e+09 -3.948149e+09 -4.097684e+09 -2.057690e+05 -1.104428e+06 2.600931e+04
-4.319894e+09 -4.118775e+09 -4.278809e+09 1.625843e+04 -1.377140e+05 -1.895456e+04
-3.971205e+09 -3.771008e+09 -3.919702e+09 -3.052585e+05 -1.207236e+06 3.215263e+05
-4.997410e+09 -4.797474e+09 -4.949332e+09 -5.134750e+05 4.872685e+03 2.765054e+05
-2.869206e+09 -2.669171e+09 -2.829282e+09 1.114574e+04 -3.933020e+04 -9.642684e+03
-3.332766e+09 -3.132738e+09 -3.292877e+09 1.919862e+04 -3.851078e+04 -1.358043e+04
-4.637500e+09 -4.436387e+09 -4.592505e+09 -8.280327e+04 -6.245928e+05 2.452709e+05
-2.765331e+09 -2.565298e+09 -2.725427e+09 3.924905e+04 -4.867451e+04 -2.513591e+04
-2.610241e+09 -2.410179e+09 -2.570290e+09 9.807989e+03 -2.753306e+04 -1.516330e+04
-1.926051e+09 -1.726032e+09 -1.886100e+09 9.657614e+03 -6.161721e+04 -2.730606e+04
-2.532489e+09 -2.332459e+09 -2.492557e+09 5.065639e+03 -4.337541e+04 -1.102942e+04
-2.480091e+09 -2.280051e+09 -2.440157e+09 1.045904e+04 -5.264078e+04 -2.397471e+04
-3.428266e+09 -3.228220e+09 -3.388365e+09 2.401910e+04 -3.541810e+04 -1.001633e+04
-4.431810e+09 -4.232232e+09 -4.391852e+09 -3.682930e+05 -1.463548e+04 3.682371e+04
-1.855623e+09 -1.655585e+09 -1.815663e+09 1.075689e+04 -6.004676e+04 -2.671447e+04
-3.977186e+09 -3.776016e+09 -3.928938e+09 4.555397e+05 1.662048e+06 1.509630e+05
-2.327257e+09 -2.127215e+09 -2.287326e+09 2.357772e+04 -5.924052e+04 -3.279444e+04
-2.041977e+09 -1.841937e+09 -2.002016e+09 1.097639e+04 -4.638670e+04 -2.526207e+04
-4.133850e+09 -3.934297e+09 -4.094248e+09 1.588705e+05 6.471333e+03 1.548074e+04
-4.834567e+09 -4.635169e+09 -4.795016e+09 1.063395e+04 -1.165233e+04 -1.281678e+04
-4.654047e+09 -4.454724e+09 -4.604311e+09 -7.800512e+04 -3.956460e+05 7.505109e+04
-4.482285e+09 -4.282455e+09 -4.441428e+09 -5.871815e+05 1.782546e+05 -2.019964e+04
-4.477490e+09 -4.277820e+09 -4.428302e+09 -4.047166e+05 1.661833e+06 -9.672909e+05
-2.175914e+09 -1.975786e+09 -2.135915e+09 2.033188e+03 -3.280840e+03 -1.029720e+04
-3.314841e+09 -3.114657e+09 -3.274874e+09 1.985106e+04 -5.378193e+04 -1.607807e+04
-4.968612e+09 -4.769611e+09 -4.926742e+09 1.227793e+05 4.317507e+04 -7.170313e+04
-2.325718e+09 -2.125562e+09 -2.285721e+09 2.639074e+04 -5.678624e+04 -1.858429e+04
-2.652224e+09 -2.452084e+09 -2.612250e+09 2.000939e+03 -2.794024e+04 -4.154311e+03
-2.509471e+09 -2.309536e+09 -2.469549e+09 -8.592705e+02 -1.328115e+03 1.067588e+03
-1.871151e+09 -1.671025e+09 -1.831152e+09 1.314099e+03 -2.815592e+04 -7.840269e+03
-4.820400e+09 -4.621357e+09 -4.777371e+09 2.010138e+04 1.474015e+04 -4.508120e+04
-4.889951e+09 -4.690058e+09 -4.850238e+09 1.871888e+04 -1.060910e+04 -3.645733e-03
-2.228027e+09 -2.027903e+09 -2.188028e+09 9.817916e+02 -2.030277e+04 -9.053108e+03
-1.928259e+09 -1.728151e+09 -1.888259e+09 -1.355870e+04 -1.315188e+04 -1.226642e+04
-2.410858e+09 -2.210926e+09 -2.370938e+09 4.255257e+03 1.517273e+03 5.955769e+03
-1.828571e+09 -1.628703e+09 -1.788701e+09 5.920165e+04 -5.267365e+04 -1.741239e+04
-1.591301e+09 -1.391366e+09 -1.551377e+09 -1.596438e+03 -1.234736e+03 1.330087e+03
-3.330125e+09 -3.130226e+09 -3.290291e+09 1.747971e+05 -8.174630e+04 -8.060242e+04
-2.697690e+09 -2.497766e+09 -2.657777e+09 1.419493e+03 2.501296e+02 4.094717e+03
-2.568722e+09 -2.368793e+09 -2.528806e+09 2.233373e+03 2.391158e+02 3.583924e+03
-4.252252e+09 -4.052515e+09 -4.212549e+09 -6.806225e+04 -1.662318e+04 4.413166e+04
-3.596804e+09 -3.396994e+09 -3.557116e+09 9.573618e+04 -3.235952e+04 -9.979589e+03
-1.648995e+09 -1.449068e+09 -1.609058e+09 3.811383e+02 -3.946171e+04 1.790961e+04
-3.154983e+09 -2.955056e+09 -3.115068e+09 1.493666e+03 1.196933e+03 1.305911e+03
-2.081823e+09 -1.881895e+09 -2.041904e+09 4.716718e+02 2.959546e+02 1.540145e+03
-2.036242e+09 -1.836310e+09 -1.996321e+09 4.351525e+03 1.131759e+03 4.848741e+03
-1.989419e+09 -1.789639e+09 -1.949602e+09 1.509447e+04 -2.934960e+04 -5.281587e+04
-4.986217e+09 -4.786219e+09 -4.946440e+09 7.273068e+04 -2.086539e+04 -1.224528e+04
-4.392375e+09 -4.192832e+09 -4.352894e+09 1.755997e+04 -2.062847e+04 -1.145772e+03
-1.783013e+09 -1.583082e+09 -1.743091e+09 3.474460e+03 2.967124e+02 4.818671e+03
-3.958376e+09 -3.758446e+09 -3.918476e+09 1.929693e+04 2.922074e+03 8.826097e+03
-1.573360e+09 -1.373432e+09 -1.533440e+09 1.202541e+03 6.057643e+02 1.686018e+03
-2.253494e+09 -2.053495e+09 -2.213574e+09 1.744183e+04 -5.950754e+04 -2.048684e+04
-2.756056e+09 -2.556134e+09 -2.716144e+09 1.663849e+03 4.789730e+02 6.071492e+03
-1.847742e+09 -1.647817e+09 -1.807824e+09 2.859596e+03 1.451501e+03 6.451951e+03
-3.628434e+09 -3.428815e+09 -3.588872e+09 1.460693e+04 -3.956588e+04 -1.915703e+04
-4.691267e+09 -4.491913e+09 -4.651909e+09 2.475994e+04 -5.465632e+03 -5.626846e+03
-2.559812e+09 -2.359889e+09 -2.519897e+09 3.429324e+03 4.512543e+02 6.667782e+03
-4.981546e+09 -4.782286e+09 -4.942238e+09 -1.678049e+03 -9.349638e+02 -1.600343e+04
-4.989839e+09 -4.789872e+09 -4.949958e+09 5.223036e+04 3.544942e+03 4.691826e+03
-3.605582e+09 -3.406253e+09 -3.566125e+09 1.841857e+05 -1.836112e+04 -2.974961e+04
-4.988876e+09 -4.788921e+09 -4.949015e+09 5.972575e+04 2.427629e+03 4.354870e+03
-4.130042e+09 -3.930072e+09 -4.090162e+09 5.402540e+04 1.553480e+04 8.955683e+03
-4.990735e+09 -4.790768e+09 -4.950892e+09 8.620290e+04 4.083586e+03 7.323887e+03
-4.611779e+09 -4.411824e+09 -4.571961e+09 1.195901e+05 1.629944e+04 1.801411e+04
-4.170430e+09 -3.970499e+09 -4.130597e+09 7.959154e+04 8.715804e+03 2.726551e+04
-4.472467e+09 -4.272524e+09 -4.432633e+09 8.307459e+04 1.202604e+04 1.778544e+04
-1.675123e+09 -1.475154e+09 -1.635183e+09 4.768477e+02 6.589594e+04 -2.665038e+04
-4.132985e+09 -3.933045e+09 -4.093119e+09 5.211628e+04 1.355432e+04 1.736468e+04
-3.069547e+09 -2.869431e+09 -3.029561e+09 7.205802e+03 1.069838e+04 6.470990e+03
-2.974085e+09 -2.773968e+09 -2.934100e+09 8.092162e+03 1.744735e+04 2.794796e+03
-2.977026e+09 -2.776909e+09 -2.937041e+09 3.390677e+03 1.243351e+04 8.459753e+03
-2.994270e+09 -2.794166e+09 -2.954289e+09 3.324332e+03 8.025017e+03 6.828609e+03
-4.983779e+09 -4.784357e+09 -4.943835e+09 -4.574481e+05 4.671081e+04 -5.243938e+03
-1.913861e+09 -1.713778e+09 -1.873872e+09 8.476343e+03 8.166172e+03 2.606297e+03
-2.174418e+09 -1.974323e+09 -2.134423e+09 1.495318e+03 1.853638e+03 4.748434e+03
-4.889813e+09 -4.690119e+09 -4.850265e+09 -2.642380e+04 9.740150e+03 -4.595928e-03
-1.854624e+09 -1.654517e+09 -1.814623e+09 -5.765307e+02 1.757354e+04 -3.309218e+03
-2.061880e+09 -1.861769e+09 -2.021878e+09 -2.924638e+03 1.899923e+04 -3.201198e+01
-3.120221e+09 -2.920080e+09 -3.080236e+09 -6.449276e+03 2.846528e+04 -5.938894e+03
-3.106399e+09 -2.906268e+09 -3.066408e+09 1.182748e+03 1.217481e+04 -2.899187e+03
-2.576503e+09 -2.376397e+09 -2.536514e+09 2.867229e+02 3.881885e+03 -5.159391e+03
-4.111838e+09 -3.910724e+09 -4.069926e+09 -3.581463e+05 -1.129030e+05 1.551991e+05
-3.399110e+09 -3.199447e+09 -3.359387e+09 -1.967882e+05 5.316540e+04 -9.297512e+04
-4.125142e+09 -3.925252e+09 -4.085273e+09 5.530194e+03 -3.251338e+03 1.011722e+04
-4.088936e+09 -3.889020e+09 -4.049037e+09 3.347253e+03 1.175779e+03 4.980814e+03
-4.606720e+09 -4.406813e+09 -4.566827e+09 -2.997484e+01 -2.011178e+02 1.519877e+03
-4.133079e+09 -3.933168e+09 -4.093186e+09 1.193997e+03 -1.297236e+01 5.565333e+03
-3.883785e+09 -3.683874e+09 -3.843890e+09 3.160876e+03 1.343845e+03 6.074271e+03
-4.271926e+09 -4.072031e+09 -4.232051e+09 -9.227964e+02 -6.971706e+01 9.156118e+03
-3.435949e+09 -3.235889e+09 -3.395999e+09 -2.460923e+03 1.921586e+04 -1.727139e+03
-4.959758e+09 -4.759684e+09 -4.919811e+09 -1.052597e+04 3.287212e+03 -1.017938e+03
-4.911007e+09 -4.710922e+09 -4.871048e+09 -9.251287e+03 2.821898e+03 -1.642631e+03
-3.955284e+09 -3.755361e+09 -3.915390e+09 1.542110e+04 2.220014e+03 8.559080e+03
-4.625691e+09 -4.424773e+09 -4.584455e+09 -4.408224e+05 -1.790574e+05 1.193767e+05
-4.993409e+09 -4.793542e+09 -4.953570e+09 2.095737e+04 2.413039e+03 4.506718e+03
-2.791692e+09 -2.591725e+09 -2.751751e+09 9.906648e+02 1.942245e+02 -1.261588e+02
-4.959753e+09 -4.759682e+09 -4.919809e+09 -7.163728e+03 2.096547e+03 -1.600112e+03
-2.938509e+09 -2.738539e+09 -2.898565e+09 1.265082e+03 1.895202e+02 -7.022095e+01
-2.667259e+09 -2.467197e+09 -2.627294e+09 -7.396526e+02 1.531283e+04 -1.751530e+03
-2.982303e+09 -2.782338e+09 -2.942362e+09 8.153006e+02 5.386809e+02 3.822287e+02
-2.739053e+09 -2.539082e+09 -2.699110e+09 2.619707e+03 1.975400e+02 6.380462e+02
-1.934161e+09 -1.734197e+09 -1.894222e+09 1.170792e+03 3.304269e+02 4.440040e+01
-2.181192e+09 -1.981226e+09 -2.141251e+09 8.890088e+02 -4.806104e+01 1.676140e+02
-2.124081e+09 -1.923997e+09 -2.084092e+09 1.785296e+03 4.102620e+03 5.194392e+03
-2.437921e+09 -2.237830e+09 -2.397941e+09 1.247033e+04 2.861072e+04 1.425910e+04
-2.149980e+09 -1.949897e+09 -2.109992e+09 8.937252e+03 1.589938e+04 6.864765e+03
-3.199315e+09 -2.999366e+09 -3.159387e+09 -4.013418e+03 -1.289895e+03 1.120941e+03
-2.706942e+09 -2.507001e+09 -2.667018e+09 -4.303122e+03 -1.501559e+03 3.066454e+03
-1.951191e+09 -1.751250e+09 -1.911267e+09 -5.212312e+03 -2.353332e+03 3.739400e+03
-2.876217e+09 -2.676269e+09 -2.836287e+09 -3.860395e+03 -1.222088e+03 2.440750e+03
-2.267237e+09 -2.067287e+09 -2.227307e+09 -5.086824e+03 -1.480248e+03 2.424000e+03
-2.909443e+09 -2.709499e+09 -2.869519e+09 -7.956677e+03 -2.763832e+03 6.413835e+03
-4.647029e+09 -4.447120e+09 -4.607313e+09 1.340390e+05 -1.962503e+04 -9.637125e+03
-4.613723e+09 -4.414335e+09 -4.574306e+09 1.501891e+05 5.084149e+03 1.028547e+04
-3.663135e+09 -3.463362e+09 -3.623477e+09 1.637655e+04 -4.275789e+04 1.347959e+03
-4.925239e+09 -4.725233e+09 -4.885423e+09 2.427630e+04 -1.053791e+04 -3.236590e+03
-2.240160e+09 -2.040271e+09 -2.200325e+09 3.780414e+04 -7.594285e+04 -4.076660e+04
-2.762275e+09 -2.562353e+09 -2.722444e+09 4.166181e+03 -5.788178e+04 -1.067595e+02
-4.522999e+09 -4.323280e+09 -4.483342e+09 2.327433e+05 -7.463182e+03 -8.876923e+03
-4.925248e+09 -4.725236e+09 -4.885426e+09 4.479730e+04 -1.247896e+04 -2.947280e+03
-3.538150e+09 -3.338307e+09 -3.498438e+09 1.608086e+05 -5.903340e+04 -6.211821e+04
-4.018212e+09 -3.818276e+09 -3.978447e+09 1.178353e+04 -4.010132e+04 -6.916048e+03
-4.634520e+09 -4.434508e+09 -4.594730e+09 1.510398e+05 -1.756117e+04 -1.103795e+04
-4.977791e+09 -4.778222e+09 -4.938303e+09 1.010100e+05 -1.597972e+04 -1.276131e+04
-3.962737e+09 -3.763223e+09 -3.923210e+09 2.083536e+05 -2.782541e+04 -1.116210e+04
-4.600424e+09 -4.400352e+09 -4.560484e+09 2.757029e+04 6.039147e+03 3.438489e+03
-4.617864e+09 -4.418448e+09 -4.578258e+09 2.167163e+05 -1.089645e+04 2.888232e+03
-4.603904e+09 -4.404303e+09 -4.564295e+09 2.824686e+05 1.700307e+04 -1.187752e+04
-3.921411e+09 -3.721343e+09 -3.881473e+09 3.532619e+03 -6.755104e+03 4.071343e+02
-2.924792e+09 -2.724716e+09 -2.884830e+09 4.895085e+03 -8.026709e+03 -8.626196e+03
-1.840501e+09 -1.640412e+09 -1.800498e+09 4.563653e+02 6.000666e+04 7.732593e+03
-3.724645e+09 -3.524664e+09 -3.684697e+09 2.925227e+03 5.024550e+02 5.697423e+02
-4.771117e+09 -4.571006e+09 -4.731190e+09 2.088124e+04 -5.210281e+03 -6.325213e+03
-4.766594e+09 -4.566509e+09 -4.726679e+09 2.624858e+04 -1.076736e+04 -5.857734e+02
-4.340525e+09 -4.140447e+09 -4.300592e+09 3.419882e+03 -4.495844e+03 -3.585797e+03
-4.747915e+09 -4.547837e+09 -4.707999e+09 1.840215e+04 -7.728017e+03 -1.888510e+03
-4.993409e+09 -4.793529e+09 -4.953567e+09 2.100153e+04 1.925380e+03 4.764112e+03
-3.773534e+09 -3.573409e+09 -3.733594e+09 2.693237e+04 -1.944899e+04 -1.103064e+04
-1.636070e+09 -1.436037e+09 -1.596098e+09 1.473841e+03 2.223079e+03 6.798289e+03
-3.053467e+09 -2.853547e+09 -3.013555e+09 -2.737465e+02 -3.999771e+02 1.755479e+03
-3.007970e+09 -2.808055e+09 -2.968064e+09 -2.449488e+03 9.991726e+02 6.749128e+03
-2.075934e+09 -1.876014e+09 -2.036018e+09 -9.324421e+02 7.559616e+01 4.725199e+03
-3.056729e+09 -2.856808e+09 -3.016816e+09 -1.924557e+02 -3.773415e+02 1.372089e+03
-3.118800e+09 -2.918879e+09 -3.078888e+09 -6.499743e+02 -2.288302e+02 1.351017e+03
-1.922699e+09 -1.722775e+09 -1.882782e+09 2.569616e+02 -7.636772e+02 1.705977e+03
-4.134773e+09 -3.934463e+09 -4.094799e+09 2.049469e+04 5.544361e+04 8.123572e+03
-2.170377e+09 -1.970454e+09 -2.130461e+09 -1.790650e+02 -1.197248e+02 9.934553e+02
-3.083317e+09 -2.883402e+09 -3.043410e+09 3.954351e+02 -7.242743e+02 6.508968e+03
-1.992790e+09 -1.792869e+09 -1.952873e+09 3.018822e+02 -2.692980e+02 4.656335e+03
-2.892993e+09 -2.693078e+09 -2.853089e+09 6.108929e+02 -1.762486e+02 1.088045e+04
-3.159550e+09 -2.959632e+09 -3.119646e+09 -2.709100e+03 -1.082766e+03 7.337491e+03
-3.412246e+09 -3.212337e+09 -3.372349e+09 -3.256085e+03 -7.618076e+02 8.962212e+03
-3.208807e+09 -3.008896e+09 -3.168911e+09 -5.902031e+03 8.517846e+02 1.185270e+04
-2.781947e+09 -2.582031e+09 -2.742043e+09 -3.313798e+03 -1.250455e+02 1.162090e+04
-2.158805e+09 -1.958703e+09 -2.118807e+09 -1.376958e+03 3.332675e+03 -6.198138e+03
-2.088718e+09 -1.888637e+09 -2.048725e+09 -1.055738e+03 2.951299e+03 -6.655691e+03
-4.447586e+09 -4.246665e+09 -4.406921e+09 -2.893778e+05 -2.805759e+04 4.865223e+04
-4.276225e+09 -4.076245e+09 -4.236283e+09 8.220252e+03 9.815494e+02 1.430479e+03
-4.205591e+09 -4.005606e+09 -4.165643e+09 4.233345e+03 2.182071e+02 3.093057e+02
-1.762302e+09 -1.562194e+09 -1.722299e+09 1.474421e+03 4.071254e+04 -3.088129e+02
-4.790738e+09 -4.590749e+09 -4.750790e+09 5.507268e+03 -2.813952e+00 7.223078e+02
-4.237306e+09 -4.037326e+09 -4.197360e+09 6.150501e+03 1.898213e+02 1.619936e+02
-2.949871e+09 -2.749885e+09 -2.909921e+09 3.824493e+03 1.343405e+03 1.172020e+03
-2.802391e+09 -2.602413e+09 -2.762444e+09 5.576345e+03 1.136560e+03 1.160801e+03
-1.926520e+09 -1.726434e+09 -1.886526e+09 -2.972952e+03 6.111430e+03 6.586484e+03
-4.025702e+09 -3.825720e+09 -3.985755e+09 4.345582e+03 1.499452e+01 6.167049e+02
-4.965682e+09 -4.765519e+09 -4.925718e+09 7.261985e+03 3.507701e+03 1.287002e+03
-2.998892e+09 -2.798949e+09 -2.958965e+09 1.943962e+03 1.149409e+03 1.257311e+03
-2.736343e+09 -2.536215e+09 -2.696357e+09 -3.557349e+03 2.735823e+04 -2.974300e+03
-2.789746e+09 -2.589802e+09 -2.749820e+09 5.581815e+03 7.782100e+02 2.767425e+03
-2.572878e+09 -2.372938e+09 -2.532953e+09 3.329142e+03 1.402882e+03 2.539692e+03
-2.105436e+09 -1.905492e+09 -2.065509e+09 7.992832e+03 2.158598e+03 5.622441e+03
-3.859582e+09 -3.659421e+09 -3.819605e+09 -4.279304e+03 1.528936e+04 -2.183922e+03
-3.058958e+09 -2.859011e+09 -3.019030e+09 2.928203e+03 1.175857e+03 1.177301e+03
-4.275034e+09 -4.074235e+09 -4.233666e+09 -4.339195e+05 -2.183157e+04 -3.842063e+04
-2.214683e+09 -2.014576e+09 -2.174685e+09 -4.714408e+03 1.704420e+04 -7.182486e+03
-2.191877e+09 -1.991936e+09 -2.151950e+09 -1.132784e+03 -3.327613e+02 6.554817e+02
-2.183721e+09 -1.983775e+09 -2.143792e+09 1.166209e+03 4.137086e+01 7.108053e+02
-1.923099e+09 -1.723151e+09 -1.883168e+09 1.129053e+03 3.067356e+02 1.003172e+03
-2.161381e+09 -1.961352e+09 -2.121413e+09 2.140590e+03 1.376509e+03 4.455954e+03
-3.858276e+09 -3.658357e+09 -3.818566e+09 -1.734423e+05 3.483656e+04 -3.409648e+04
-3.993307e+09 -3.793518e+09 -3.953638e+09 -1.766688e+05 5.024475e+04 -5.556764e+04
-4.644281e+09 -4.444291e+09 -4.604556e+09 -1.974030e+05 1.502459e+04 -2.041447e+04
-4.813556e+09 -4.613558e+09 -4.773623e+09 2.078383e+04 3.178090e+03 -6.073897e+02
-2.842369e+09 -2.642267e+09 -2.802390e+09 8.056234e+03 2.019937e+04 5.992849e+03
-1.636060e+09 -1.436040e+09 -1.596094e+09 1.353121e+03 1.728894e+03 5.164768e+03
-4.994813e+09 -4.794816e+09 -4.955020e+09 -2.130624e+05 2.376268e+04 -9.443711e+03
-4.189111e+09 -3.989183e+09 -4.149382e+09 -1.097258e+05 6.120101e+04 -2.964609e+04
-3.859988e+09 -3.659970e+09 -3.820189e+09 -1.273881e+05 5.034165e+04 -3.357855e+04
-4.100498e+09 -3.900465e+09 -4.060684e+09 -1.379009e+05 5.937855e+04 -2.689866e+04
-2.208360e+09 -2.008397e+09 -2.168422e+09 -4.708973e+03 -1.116496e+03 1.567666e+03
-1.727526e+09 -1.527574e+09 -1.687594e+09 -3.756822e+03 -6.309902e+02 2.669971e+03
-1.775072e+09 -1.575111e+09 -1.735134e+09 -2.395430e+03 -2.030732e+02 1.215007e+03
-1.697708e+09 -1.497787e+09 -1.657794e+09 1.449419e+03 4.053073e+02 1.459675e+04
-3.102505e+09 -2.902552e+09 -3.062571e+09 -2.135494e+03 -6.274788e+02 1.213996e+03
-1.974275e+09 -1.774322e+09 -1.934340e+09 -2.322497e+03 -1.041132e+03 1.099065e+03
-1.989522e+09 -1.789567e+09 -1.949587e+09 -1.956641e+03 -3.557830e+02 1.261118e+03
-4.172105e+09 -3.972151e+09 -4.132198e+09 -2.388645e+04 -5.004559e+03 5.141302e+03
-4.328914e+09 -4.128961e+09 -4.288999e+09 -1.922046e+04 -1.879765e+03 4.856066e+03
-2.875291e+09 -2.675305e+09 -2.835341e+09 2.666836e+03 1.039137e+03 3.433398e+02
-4.493527e+09 -4.293573e+09 -4.453612e+09 -1.809613e+04 -2.283772e+03 4.344187e+03
-3.955587e+09 -3.755639e+09 -3.915670e+09 -1.630706e+04 -2.832550e+03 6.758230e+03
-4.130999e+09 -3.931054e+09 -4.091087e+09 -1.497733e+04 -7.447167e+02 5.286171e+03
-4.335966e+09 -4.136026e+09 -4.296062e+09 -2.173976e+04 -3.156107e+03 5.386612e+03
-2.133511e+09 -1.933494e+09 -2.093546e+09 4.908171e+03 3.151692e+03 5.180538e+03
-2.621174e+09 -2.421152e+09 -2.581214e+09 2.237745e+03 3.902082e+02 4.663563e+03
-3.499345e+09 -3.299279e+09 -3.459383e+09 -9.923971e+02 9.167235e+03 -1.340631e+03
-4.959748e+09 -4.759673e+09 -4.919806e+09 -1.679078e+04 1.798544e+03 1.281145e+03
-2.999162e+09 -2.799134e+09 -2.959204e+09 5.987896e+03 3.185631e+03 5.642998e+03
-2.491861e+09 -2.291837e+09 -2.451902e+09 7.342120e+03 5.571442e+03 6.190942e+03
-3.934772e+09 -3.734754e+09 -3.894820e+09 2.757427e+03 8.962635e+02 3.096659e+03
-2.183656e+09 -1.983647e+09 -2.143694e+09 4.407780e+03 2.564184e+03 3.378310e+03
-2.664524e+09 -2.464515e+09 -2.624568e+09 4.558084e+03 2.317172e+03 3.550476e+03
-1.920693e+09 -1.720681e+09 -1.880731e+09 2.360287e+03 1.702193e+03 3.150490e+03
-2.220528e+09 -2.020450e+09 -2.180539e+09 -1.454434e+03 1.782996e+03 -5.308832e+03
-2.531483e+09 -2.331465e+09 -2.491522e+09 8.438895e+03 5.262700e+03 6.847219e+03
-3.281502e+09 -3.081431e+09 -3.241527e+09 -1.150639e-04 2.440633e+03 -1.498894e+03
-1.995345e+09 -1.795280e+09 -1.955363e+09 -6.759164e+03 4.080576e+04 -2.044467e+04
-1.925599e+09 -1.725558e+09 -1.885633e+09 -7.457101e+03 3.001772e+04 -1.032284e+04
-4.813826e+09 -4.613924e+09 -4.773964e+09 2.733254e+04 3.985007e+03 4.999151e+03
-1.673024e+09 -1.473009e+09 -1.633061e+09 2.734782e+03 1.983839e+03 4.846373e+03
-1.888486e+09 -1.688475e+09 -1.848528e+09 9.182542e+03 5.764292e+03 6.763070e+03
-2.897743e+09 -2.697652e+09 -2.857760e+09 -1.328676e+03 2.415134e+03 -6.200995e+03
-2.509406e+09 -2.309325e+09 -2.469423e+09 -1.213735e+03 2.031118e+03 -7.512393e+03
-2.256738e+09 -2.056719e+09 -2.216780e+09 9.906469e+03 5.410319e+03 5.429173e+03
-2.274399e+09 -2.074394e+09 -2.234443e+09 9.265230e+03 4.051730e+03 4.483395e+03
-1.895558e+09 -1.695639e+09 -1.855645e+09 4.996187e+03 -2.020766e+03 1.137978e+04
-4.122692e+09 -3.923065e+09 -4.083011e+09 -2.403071e+05 -2.282522e+04 4.366524e+04
-4.826088e+09 -4.626334e+09 -4.786406e+09 -1.720632e+05 -2.713115e+04 2.540260e+04
-1.881745e+09 -1.681655e+09 -1.841757e+09 -8.181661e+02 3.292325e+04 -1.928351e+04
-4.710086e+09 -4.509967e+09 -4.670119e+09 -7.041004e+03 2.209126e+03 -1.753666e+02
-3.493305e+09 -3.293216e+09 -3.453331e+09 -1.954399e+03 2.402299e+03 -5.719296e+03
-3.550820e+09 -3.350706e+09 -3.510868e+09 -3.141629e+04 2.930849e+04 -1.485256e+04
-4.809142e+09 -4.609461e+09 -4.769449e+09 -2.589871e+05 -1.012611e+04 2.067702e+04
-3.289799e+09 -3.089803e+09 -3.249935e+09 -3.972000e+04 5.861067e+04 -2.192010e+04
-4.263374e+09 -4.063363e+09 -4.223571e+09 -1.425764e+05 4.470066e+04 -2.745792e+04
-2.144288e+09 -1.944201e+09 -2.104298e+09 -8.088372e+02 7.972475e+03 -6.490243e+03
-3.915286e+09 -3.715223e+09 -3.875435e+09 -8.674197e+04 3.583292e+04 -2.129666e+04
-3.006729e+09 -2.806673e+09 -2.966808e+09 -3.499445e+04 5.065101e+04 -2.359310e+04
-2.009443e+09 -1.809344e+09 -1.969449e+09 -1.126944e+04 7.585867e+04 -3.826184e+04
-2.010346e+09 -1.810227e+09 -1.970338e+09 -2.095919e+04 8.684528e+04 -6.342321e+04
-1.928894e+09 -1.728838e+09 -1.888928e+09 -7.583397e+03 4.252522e+04 -1.914837e+04
-1.699500e+09 -1.499469e+09 -1.659530e+09 -4.254714e+03 8.540866e+04 -4.490140e+04
-2.615905e+09 -2.415977e+09 -2.576065e+09 -1.143779e+04 6.219228e+04 -8.277974e+03
-2.009771e+09 -1.809677e+09 -1.969750e+09 -3.040681e+04 1.114731e+05 -8.061014e+04
-3.831666e+09 -3.631517e+09 -3.791719e+09 2.818158e+04 -1.926246e+04 -1.200251e+04
-4.138821e+09 -3.938667e+09 -4.098888e+09 3.752231e+04 -2.953005e+04 -1.431704e+04
-1.636016e+09 -1.436091e+09 -1.596098e+09 -3.400874e+02 -3.869124e+02 1.859415e+03
-3.999886e+09 -3.799700e+09 -3.959938e+09 3.420330e+04 -2.425721e+04 -1.564296e+04
-4.815207e+09 -4.615290e+09 -4.775307e+09 -5.211458e+03 5.957137e+02 1.871885e+03
-1.636010e+09 -1.436083e+09 -1.596091e+09 -4.589230e+02 -6.575794e+02 1.553772e+03
-2.935919e+09 -2.735787e+09 -2.895967e+09 3.603449e+04 -6.100149e+04 -2.349951e+04
-1.586195e+09 -1.386272e+09 -1.546279e+09 1.264561e+03 9.945863e+02 6.975670e+03
-2.647914e+09 -2.447991e+09 -2.607999e+09 -2.866614e+02 -5.680468e+02 7.794616e+02
-1.805445e+09 -1.605521e+09 -1.765528e+09 5.753019e+02 1.615673e+02 1.910931e+03
-3.689482e+09 -3.489301e+09 -3.649532e+09 1.691729e+04 -2.178013e+04 -7.092916e+03
-4.634228e+09 -4.433949e+09 -4.594304e+09 -1.179562e+05 -1.075442e+04 8.155762e+03
-4.134751e+09 -3.934437e+09 -4.094772e+09 -6.283179e+04 -3.761722e+04 2.230205e+03
-4.978063e+09 -4.777707e+09 -4.938098e+09 -1.295690e+05 -3.868045e+04 1.291993e+04
-3.959619e+09 -3.759223e+09 -3.919571e+09 -1.250527e+05 -3.484760e+04 7.465748e+03
-4.112069e+09 -3.911759e+09 -4.072114e+09 -1.145119e+05 -5.670665e+04 3.383669e+04
-4.984445e+09 -4.784191e+09 -4.944521e+09 -8.352830e+04 -9.575338e+03 1.349164e+04
-5.000786e+09 -4.800411e+09 -4.960795e+09 -6.768790e+04 -3.514039e+04 1.646470e+03
-4.646453e+09 -4.446079e+09 -4.606485e+09 -8.758123e+04 -1.320582e+04 6.131580e+03
-4.475766e+09 -4.275508e+09 -4.435820e+09 -4.294631e+04 -2.775241e+04 8.189383e+03
-4.316206e+09 -4.115961e+09 -4.276277e+09 -6.479642e+04 -4.127820e+04 1.679181e+04
-4.995541e+09 -4.795609e+09 -4.955653e+09 -2.417842e+04 -2.936016e+03 1.222364e+03
-4.145852e+09 -3.945933e+09 -4.105973e+09 -2.721286e+04 -2.194139e+03 1.054239e+04
-4.486679e+09 -4.286768e+09 -4.446813e+09 -3.130710e+04 -3.956177e+03 8.696432e+03
-4.829911e+09 -4.629992e+09 -4.790041e+09 -3.363291e+04 -1.895214e+02 6.590786e+03
-1.636053e+09 -1.436043e+09 -1.596092e+09 1.372509e+03 1.062464e+03 3.563128e+03
-3.170946e+09 -2.970951e+09 -3.130995e+09 2.283835e+03 1.076677e+03 1.266065e+03
-3.965845e+09 -3.765914e+09 -3.925954e+09 -2.251346e+04 -4.088377e+03 1.069829e+04
-2.202398e+09 -2.002422e+09 -2.162451e+09 1.844351e+02 -1.999023e+02 7.405103e+01
-2.215268e+09 -2.015296e+09 -2.175323e+09 9.416929e+02 -2.166825e+01 6.062816e+01
-4.662200e+09 -4.462276e+09 -4.622311e+09 -2.429158e+04 -1.215251e+03 5.470237e+03
-4.648250e+09 -4.449327e+09 -4.608344e+09 -3.421171e+05 1.228479e+05 -6.612930e+04
-4.133647e+09 -3.934499e+09 -4.093693e+09 -2.775200e+05 3.177458e+04 -1.040533e+05
-4.991412e+09 -4.792534e+09 -4.950886e+09 -2.293535e+05 1.116220e+05 6.864501e+04
-3.962778e+09 -3.763818e+09 -3.922999e+09 4.924242e+04 9.230374e+03 8.621584e+04
-4.128069e+09 -3.929230e+09 -4.088266e+09 6.307647e+04 -2.005158e+03 -5.202531e+04
-3.405616e+09 -3.205646e+09 -3.365684e+09 -1.281729e+04 -3.404818e+03 4.797856e+03
-4.410222e+09 -4.210236e+09 -4.370282e+09 -1.931305e+03 -2.188860e+02 2.746459e+03
-4.576107e+09 -4.376082e+09 -4.536190e+09 -3.208268e+04 -3.969667e+03 3.979767e+03
-3.301568e+09 -3.101559e+09 -3.261631e+09 -1.754965e+04 -8.420629e+03 1.142732e+04
-4.141733e+09 -3.942976e+09 -4.101660e+09 -6.255069e+04 1.029344e+05 2.103276e+05
-4.815651e+09 -4.616885e+09 -4.775473e+09 1.906297e+05 4.785830e+04 -1.103433e+05
-3.422198e+09 -3.222221e+09 -3.382270e+09 -1.804020e+04 -6.808435e+03 7.809288e+03
-1.598517e+09 -1.398538e+09 -1.558570e+09 -5.484398e+03 -3.414019e+03 4.283569e+03
-4.828214e+09 -4.629484e+09 -4.788200e+09 -7.016902e+04 -4.554537e+04 2.728214e+04
-1.884685e+09 -1.684714e+09 -1.844741e+09 2.252293e+03 5.140989e+02 4.206047e+02
-2.107088e+09 -1.907113e+09 -2.067143e+09 2.789053e+03 4.683543e+02 1.833487e+02
-4.971115e+09 -4.771120e+09 -4.931181e+09 -1.139607e+04 -6.348723e+02 6.522952e+02
-4.519978e+09 -4.319939e+09 -4.480043e+09 -5.600763e+03 -8.237866e+02 5.510056e+03
-2.829207e+09 -2.629176e+09 -2.789255e+09 -8.463495e+03 -5.904058e+03 1.037937e+04
-4.997555e+09 -4.797569e+09 -4.957625e+09 -1.296971e+04 -8.706586e+02 5.153589e+02
-2.116568e+09 -1.916591e+09 -2.076622e+09 2.267658e+03 1.229331e+02 1.054398e+02
-2.217849e+09 -2.017873e+09 -2.177902e+09 5.278778e+02 1.426778e+02 -1.993408e+02
-2.929476e+09 -2.729499e+09 -2.889530e+09 1.560162e+03 -1.698917e+01 6.311088e+02
-2.230262e+09 -2.030288e+09 -2.190316e+09 5.364115e+02 -1.511775e+02 1.839795e+02
-3.776193e+09 -3.576257e+09 -3.736275e+09 6.470060e+03 1.235492e+03 2.858832e+03
-4.836331e+09 -4.636096e+09 -4.796376e+09 -4.362054e+04 1.756195e+04 -6.086667e+03
-4.994514e+09 -4.794277e+09 -4.954565e+09 -3.742354e+04 1.293520e+04 -7.064857e+03
-4.641171e+09 -4.440995e+09 -4.601209e+09 -2.021277e+04 7.446206e+03 -3.113600e+03
-3.181168e+09 -2.981214e+09 -3.141237e+09 4.413311e+03 8.791174e+02 1.008007e+03
-1.576017e+09 -1.376078e+09 -1.536090e+09 2.058323e+03 1.714317e+03 1.115136e+03
-3.903644e+09 -3.703485e+09 -3.863687e+09 -3.121145e+04 2.663861e+04 -4.458110e+03
-3.123924e+09 -2.923989e+09 -3.084005e+09 5.938407e+03 1.768507e+03 4.476009e+03
-4.264570e+09 -4.064353e+09 -4.224608e+09 -2.414357e+04 3.346396e+04 -5.748484e+03
-3.593880e+09 -3.393713e+09 -3.553909e+09 -1.866730e+04 3.453385e+04 -8.328230e+03
-2.013386e+09 -1.813460e+09 -1.973467e+09 7.468753e+02 1.944148e+02 1.057143e+03
-2.561299e+09 -2.361270e+09 -2.521340e+09 1.860666e+04 1.554278e+04 8.682959e+03
-3.886837e+09 -3.686905e+09 -3.846926e+09 7.611646e+03 1.899106e+03 3.468798e+03
-3.117948e+09 -2.917973e+09 -3.078008e+09 -7.064603e+03 -3.048809e+03 3.084292e+03
-2.338754e+09 -2.138796e+09 -2.298820e+09 -6.550508e+03 -1.800793e+03 2.761488e+03
-1.583291e+09 -1.383326e+09 -1.543351e+09 -3.418731e+03 -7.853780e+02 1.507368e+03
-2.532179e+09 -2.332126e+09 -2.492216e+09 2.501857e+04 2.262195e+04 1.453630e+04
-2.007852e+09 -1.807899e+09 -1.967920e+09 -8.089270e+03 -2.998073e+03 4.707669e+03
-1.578572e+09 -1.378612e+09 -1.538635e+09 -3.297063e+03 -8.009752e+02 7.021651e+02
-3.092641e+09 -2.892606e+09 -3.052688e+09 1.554590e+04 1.192527e+04 1.150102e+04
-2.919609e+09 -2.719569e+09 -2.879650e+09 9.289268e+03 8.203709e+03 6.235678e+03
-1.761635e+09 -1.561609e+09 -1.721668e+09 1.113869e+04 1.054517e+04 8.986286e+03
-1.936744e+09 -1.736701e+09 -1.896770e+09 6.631184e+03 8.601165e+03 9.445683e+03
-4.472694e+09 -4.273326e+09 -4.433150e+09 -2.768700e+05 -5.721368e+02 -2.567230e+04
-4.982447e+09 -4.783344e+09 -4.943032e+09 -1.862418e+05 -1.629356e+04 -3.487940e+04
-3.956865e+09 -3.756681e+09 -3.916947e+09 7.066309e+04 -4.431634e+04 -2.069227e+04
-2.611330e+09 -2.411205e+09 -2.571357e+09 6.954672e+03 -2.725541e+04 -1.489687e+04
-4.308497e+09 -4.109446e+09 -4.268569e+09 -3.030984e+05 5.386566e+04 3.974309e+03
-1.758817e+09 -1.558720e+09 -1.718816e+09 2.267774e+04 -5.679789e+04 3.075380e+03
-4.485548e+09 -4.285896e+09 -4.445962e+09 -2.889492e+05 1.521856e+04 -3.363497e+04
-4.273536e+09 -4.074272e+09 -4.234039e+09 -1.990652e+05 5.253809e+04 -4.187371e+04
-3.955187e+09 -3.755957e+09 -3.915409e+09 -2.567216e+05 -3.905894e+04 5.464929e+04
-4.808931e+09 -4.609807e+09 -4.768980e+09 -3.373689e+05 -1.592822e+04 1.267316e+05
-4.636327e+09 -4.436882e+09 -4.596420e+09 -3.632566e+05 9.118715e+03 9.676463e+02
-3.964860e+09 -3.765328e+09 -3.925199e+09 -3.114643e+05 -5.373541e+04 6.478461e+03
-2.602983e+09 -2.402893e+09 -2.563009e+09 4.764291e+03 -7.237285e+03 -1.236436e+04
-3.006107e+09 -2.806147e+09 -2.966170e+09 1.999617e+03 4.282094e+02 4.763397e+02
-1.897691e+09 -1.697590e+09 -1.857698e+09 -1.562848e+04 -1.505028e+04 -1.726175e+04
-2.215151e+09 -2.015195e+09 -2.175215e+09 1.306970e+03 1.543356e+01 3.183959e+02
-2.849179e+09 -2.649225e+09 -2.809246e+09 1.764326e+03 1.396640e+03 1.151011e+02
-2.978824e+09 -2.778867e+09 -2.938888e+09 9.908066e+02 7.887369e+02 8.876273e+02
-2.844884e+09 -2.644844e+09 -2.804921e+09 4.531684e+03 2.226086e+03 8.148635e+03
-1.635386e+09 -1.435418e+09 -1.595445e+09 6.998975e+02 4.267683e+02 3.268831e+02
-2.154726e+09 -1.954695e+09 -2.114756e+09 6.346487e+03 4.922609e+03 5.917998e+03
-4.291105e+09 -4.091202e+09 -4.251235e+09 1.790897e+04 4.401725e+03 1.118859e+04
-2.966172e+09 -2.766151e+09 -2.926211e+09 2.137770e+03 2.678852e+03 4.932261e+03
-2.974525e+09 -2.774488e+09 -2.934561e+09 2.923919e+03 4.197178e+03 6.634827e+03
-3.745605e+09 -3.545592e+09 -3.705654e+09 5.552081e+03 1.394560e+03 4.769666e+03
-2.198344e+09 -1.998323e+09 -2.158380e+09 2.405652e+03 2.480970e+03 4.070670e+03
-4.141106e+09 -3.941995e+09 -4.101214e+09 -2.046949e+05 1.477786e+04 4.666230e+04
-1.686502e+09 -1.486537e+09 -1.646562e+09 1.503921e+03 4.123596e+02 1.937437e+02
-3.955070e+09 -3.755818e+09 -3.915258e+09 -2.003244e+05 4.552275e+04 1.118913e+05
-4.673324e+09 -4.474317e+09 -4.633763e+09 1.306663e+05 5.372218e+03 4.907870e+04
-1.591197e+09 -1.391245e+09 -1.551265e+09 3.885014e+03 1.057067e+03 2.515622e+03
-4.970525e+09 -4.770515e+09 -4.930589e+09 2.414596e+04 4.834853e+02 1.249116e+03
-4.486745e+09 -4.287985e+09 -4.445964e+09 -2.193164e+05 -1.027416e+05 1.095937e+05
-2.146051e+09 -1.946133e+09 -2.106143e+09 2.828783e+03 8.454377e+02 1.233651e+04
-4.630875e+09 -4.432106e+09 -4.590257e+09 3.956108e+05 1.422538e+05 1.787931e+05
-3.955686e+09 -3.757056e+09 -3.915419e+09 7.179076e+03 6.202003e+04 2.406543e+05
-4.985366e+09 -4.786836e+09 -4.945136e+09 -9.487886e+03 -2.446638e+03 -3.661475e+04
-4.965689e+09 -4.765527e+09 -4.925721e+09 1.263385e+04 6.445912e+03 3.005220e+02
-4.157452e+09 -3.957219e+09 -4.117501e+09 6.162720e+04 3.932896e+04 1.884738e+04
-3.976245e+09 -3.777359e+09 -3.936593e+09 -1.431966e+05 -1.105752e+04 2.749907e+05
-4.960281e+09 -4.760133e+09 -4.920322e+09 1.164054e+04 5.086442e+03 2.027644e+03
-2.515880e+09 -2.315941e+09 -2.475957e+09 1.120038e+03 6.479152e+02 1.154066e+03
-1.636112e+09 -1.436182e+09 -1.596175e+09 -9.307568e+01 4.036391e+04 9.806333e+03
-1.836641e+09 -1.636700e+09 -1.796714e+09 1.844593e+03 1.268568e+03 1.857024e+03
-1.773649e+09 -1.573714e+09 -1.733726e+09 3.553809e+03 6.946652e+02 4.131581e+03
-2.409978e+09 -2.210037e+09 -2.370055e+09 7.942691e+03 2.055971e+03 6.269221e+03
-1.824998e+09 -1.625086e+09 -1.784965e+09 -9.611982e+03 -9.697725e+03 -8.327205e+04
-4.132822e+09 -3.931993e+09 -4.088815e+09 6.063099e+05 5.493697e+05 6.690244e+05
-1.876668e+09 -1.676726e+09 -1.836743e+09 5.054071e+03 3.618959e+02 3.234048e+03
-2.181257e+09 -1.981316e+09 -2.141334e+09 5.394683e+03 1.096342e+03 4.473628e+03
-4.990338e+09 -4.790416e+09 -4.950475e+09 3.734877e+04 2.860025e+03 1.903590e+03
-4.143552e+09 -3.943626e+09 -4.103668e+09 2.749815e+04 2.220390e+03 1.142415e+04
-4.142599e+09 -3.942677e+09 -4.102724e+09 3.353263e+04 8.776789e+03 1.188702e+04
-4.135590e+09 -3.935645e+09 -4.095694e+09 3.053315e+04 7.750604e+03 7.401208e+03
-4.980487e+09 -4.781928e+09 -4.938674e+09 1.595051e+05 3.175040e+04 9.738916e+04
-4.323737e+09 -4.123801e+09 -4.283839e+09 2.055737e+04 3.533581e+03 5.814612e+03
-3.021920e+09 -2.822429e+09 -2.982213e+09 1.124051e+05 -2.312155e+04 -1.149922e+05
-2.707360e+09 -2.507687e+09 -2.667666e+09 9.465973e+03 -1.760804e+04 -1.643007e+04
-4.842791e+09 -4.642850e+09 -4.802890e+09 2.150338e+04 -1.118195e+03 2.743073e+03
-4.831547e+09 -4.631605e+09 -4.791649e+09 2.693385e+04 4.782812e+03 3.157183e+03
-4.313207e+09 -4.112910e+09 -4.273246e+09 2.394415e+04 5.555706e+04 2.999920e+03
-4.477511e+09 -4.277337e+09 -4.437566e+09 5.237807e+04 1.536715e+04 8.794848e+03
-3.114135e+09 -2.914571e+09 -3.074538e+09 -8.277487e+03 3.306680e+04 -5.424846e+04
-1.556483e+09 -1.356507e+09 -1.516464e+09 6.244780e+03 6.256045e+04 -6.985898e+04
-4.659844e+09 -4.459635e+09 -4.619882e+09 5.433394e+04 1.676147e+04 9.547317e+03
-3.950186e+09 -3.751416e+09 -3.908509e+09 -2.892910e+04 -1.000955e+05 7.232859e+05
-4.127160e+09 -3.926873e+09 -4.087197e+09 4.901388e+04 5.186412e+04 1.599509e+04
-4.999249e+09 -4.798987e+09 -4.959279e+09 4.109506e+04 1.887287e+04 2.027359e+03
-4.987276e+09 -4.788131e+09 -4.946890e+09 -4.160750e+05 7.213736e+04 -4.647777e+04
-2.122538e+09 -1.922838e+09 -2.082734e+09 -3.610218e+04 4.175488e+04 -1.423936e+05
-2.048180e+09 -1.848266e+09 -2.008315e+09 -3.944382e+04 9.090246e+04 -7.058454e+04
-1.876416e+09 -1.676335e+09 -1.836425e+09 -4.578414e+03 7.936159e+03 6.722595e+03
-1.597361e+09 -1.397289e+09 -1.557367e+09 3.236400e+03 3.573632e+04 8.363852e+03
-5.003067e+09 -4.802839e+09 -4.963121e+09 4.316718e+04 1.701532e+04 4.841022e+03
-4.226394e+09 -4.026330e+09 -4.186444e+09 1.955764e+04 9.086473e+03 6.416038e+03
-3.911241e+09 -3.711203e+09 -3.871288e+09 1.432446e+04 6.993280e+03 3.216016e+03
-4.049313e+09 -3.849272e+09 -4.009357e+09 8.423026e+03 3.155453e+03 2.597139e+03
-1.648992e+09 -1.448909e+09 -1.608995e+09 7.769635e+02 4.930357e+03 4.679001e+03
-4.983183e+09 -4.783131e+09 -4.943233e+09 8.313706e+03 8.547144e+02 2.000844e+02
-4.492830e+09 -4.291887e+09 -4.451526e+09 3.818391e+05 -2.111428e+05 -1.047838e+05
-1.872696e+09 -1.672601e+09 -1.832699e+09 -5.169631e+03 8.618385e+03 1.221003e+03
-4.340399e+09 -4.139450e+09 -4.299606e+09 2.454610e+05 5.048072e+04 -3.713363e+04
-3.976610e+09 -3.775438e+09 -3.935213e+09 3.925196e+04 -2.420108e+05 3.234970e+04
-3.678402e+09 -3.478272e+09 -3.638423e+09 -1.437594e+03 3.063886e+03 -2.899855e+03
-4.799354e+09 -4.599318e+09 -4.759410e+09 1.659393e+04 5.399964e+02 3.512400e+03
-1.566147e+09 -1.366119e+09 -1.526176e+09 1.170254e+04 1.566667e+04 1.244943e+04
-4.669626e+09 -4.468692e+09 -4.628859e+09 1.318215e+05 -8.195144e+04 7.093965e+03
-4.837255e+09 -4.636211e+09 -4.796294e+09 8.674343e+04 -8.241373e+04 -1.688769e+04
-4.164536e+09 -3.963595e+09 -4.123495e+09 2.663322e+05 -1.392389e+05 -5.477810e+04
-2.810965e+09 -2.610952e+09 -2.771009e+09 6.208366e+03 2.609029e+03 3.197526e+03
-3.080361e+09 -2.880362e+09 -3.040407e+09 1.426697e+03 7.681602e+02 2.126148e+03
-3.015947e+09 -2.815938e+09 -2.975990e+09 1.809747e+03 1.637049e+03 3.414756e+03
-1.952728e+09 -1.752769e+09 -1.912792e+09 9.002611e+03 2.625107e+03 4.108202e+03
-2.736327e+09 -2.536328e+09 -2.696373e+09 3.784137e+03 1.568862e+03 2.367308e+03
-4.769256e+09 -4.569343e+09 -4.729361e+09 4.423181e+03 -5.181917e+02 2.113433e+03
-1.689428e+09 -1.489424e+09 -1.649470e+09 2.489131e+03 1.268028e+03 3.016497e+03
-1.662193e+09 -1.462258e+09 -1.622269e+09 8.915834e+02 1.006726e+03 1.353866e+03
-1.937095e+09 -1.737093e+09 -1.897137e+09 1.780907e+03 1.209721e+03 1.840776e+03
-1.670588e+09 -1.470634e+09 -1.630655e+09 8.383694e+03 3.505631e+03 5.340063e+03
-3.930630e+09 -3.730677e+09 -3.890700e+09 1.341188e+03 6.011017e+02 1.310859e+02
-3.964769e+09 -3.764832e+09 -3.924904e+09 4.889425e+04 1.135383e+04 2.131992e+04
-2.717662e+09 -2.517675e+09 -2.677712e+09 4.603164e+03 8.865713e+02 2.123744e+03
-3.056098e+09 -2.856109e+09 -3.016148e+09 6.155289e+03 1.560460e+03 1.759803e+03
-2.638949e+09 -2.439001e+09 -2.599020e+09 4.108085e+03 1.498875e+03 2.775972e+03
-3.174875e+09 -2.974938e+09 -3.134953e+09 1.446159e+03 4.193857e+02 1.036510e+03
-1.884367e+09 -1.684415e+09 -1.844434e+09 3.535650e+03 1.255517e+03 1.393509e+03
-4.996726e+09 -4.796926e+09 -4.948394e+09 1.559412e+05 -2.136453e+05 -3.516142e+05
-2.062369e+09 -1.862411e+09 -2.022432e+09 3.455023e+03 7.861602e+02 1.484422e+03
-2.171254e+09 -1.971303e+09 -2.131320e+09 2.709951e+03 4.537958e+02 1.029358e+03
-1.586571e+09 -1.386624e+09 -1.546595e+09 2.281461e+03 2.916893e+04 -5.977947e+04
-4.994494e+09 -4.794994e+09 -4.954843e+09 -3.398119e+05 4.117867e+04 -1.490520e+04
-2.640765e+09 -2.440816e+09 -2.600835e+09 1.368143e+03 5.209134e+02 -8.108803e+01
-1.987122e+09 -1.787299e+09 -1.947231e+09 -4.600633e+04 9.153830e+04 -1.451714e+05
-3.368878e+09 -3.169188e+09 -3.329263e+09 -1.824865e+04 4.421355e+04 4.300604e+03
-1.912902e+09 -1.712989e+09 -1.872990e+09 3.119797e+04 6.293126e+04 -1.544926e+04
-4.710678e+09 -4.511080e+09 -4.671188e+09 -5.286713e+04 1.466644e+04 -1.295317e+04
-2.994272e+09 -2.794322e+09 -2.954341e+09 1.108294e+03 9.542518e+02 8.445535e+02
-2.521278e+09 -2.321319e+09 -2.481343e+09 3.531750e+03 9.709608e+02 5.709762e+02
-2.265992e+09 -2.066036e+09 -2.226059e+09 5.658848e+03 8.863168e+02 1.893811e+03
-1.776423e+09 -1.576465e+09 -1.736487e+09 4.408847e+03 2.575367e+02 2.236407e+03
-3.444150e+09 -3.244203e+09 -3.404222e+09 2.918436e+03 8.868858e+02 1.999682e+03
-2.950609e+09 -2.750662e+09 -2.910683e+09 4.282429e+03 3.562205e+02 3.002067e+03
-4.562670e+09 -4.362804e+09 -4.522953e+09 2.098331e+05 -1.011256e+04 -1.542549e+04
-1.929203e+09 -1.729249e+09 -1.889269e+09 1.037929e+03 2.601779e+02 9.407649e+02
-1.929385e+09 -1.729434e+09 -1.889453e+09 1.248816e+03 6.043607e+02 4.260841e+02
-4.984920e+09 -4.785343e+09 -4.945209e+09 3.053717e+05 -4.470779e+04 -2.095327e+04
-4.983325e+09 -4.783331e+09 -4.943490e+09 1.171678e+05 3.156660e+03 8.130621e+03
-3.960590e+09 -3.761052e+09 -3.921020e+09 1.504854e+05 -3.759402e+04 -5.675996e+04
-1.795425e+09 -1.595585e+09 -1.755613e+09 6.931002e+04 -8.623524e+04 -1.123933e+05
-1.697445e+09 -1.497455e+09 -1.657349e+09 1.998083e+03 -5.417234e+04 -1.284567e+05
-2.741498e+09 -2.541324e+09 -2.701510e+09 -2.420394e+01 -3.941079e+04 -1.182143e+03
-4.810139e+09 -4.610166e+09 -4.770315e+09 1.174360e+05 5.764579e+03 1.943828e+04
-4.300994e+09 -4.100968e+09 -4.261134e+09 1.074929e+05 2.634816e+04 2.808677e+04
-4.815680e+09 -4.615707e+09 -4.775880e+09 1.626835e+05 1.694506e+04 5.000946e+03
-4.105870e+09 -3.905914e+09 -4.066045e+09 1.137159e+05 1.738333e+04 3.475487e+04
-4.986265e+09 -4.786065e+09 -4.946319e+09 1.063503e+04 -1.236270e+03 -2.342713e+01
-4.123675e+09 -3.923715e+09 -4.083846e+09 1.095286e+05 3.116618e+04 2.081924e+04
-3.964156e+09 -3.763698e+09 -3.924130e+09 7.131265e+04 -5.469064e+04 -1.362982e+04
-3.275183e+09 -3.074992e+09 -3.235219e+09 -6.585337e+03 -5.978970e+04 -9.210749e+02
-4.035098e+09 -3.834824e+09 -3.995127e+09 1.091345e+04 -3.243504e+04 -2.904604e+03
-3.962432e+09 -3.762062e+09 -3.922409e+09 -2.752129e+04 -4.044038e+04 7.649765e+02
-2.878984e+09 -2.679042e+09 -2.839061e+09 3.306846e+03 1.163032e+03 1.928824e+03
-3.890004e+09 -3.689721e+09 -3.850023e+09 1.520792e+04 -3.476401e+04 3.629893e+03
-3.790874e+09 -3.590939e+09 -3.750954e+09 1.938091e+03 1.011743e+03 -1.911028e+02
-3.456575e+09 -3.256642e+09 -3.416657e+09 2.287006e+03 7.024902e+02 1.543579e+03
-3.376256e+09 -3.176325e+09 -3.336339e+09 2.224013e+03 9.388139e+02 1.508628e+03
-3.956177e+09 -3.755739e+09 -3.916136e+09 1.194179e+05 -5.332505e+04 -6.731434e+03
-1.752000e+09 -1.551928e+09 -1.712019e+09 2.943695e+03 -4.595246e+04 -2.663551e+04
-3.140571e+09 -2.940640e+09 -3.100655e+09 4.325911e+03 1.721408e+03 3.710524e+03
-1.922718e+09 -1.722785e+09 -1.882795e+09 2.317229e+03 1.172577e+03 3.585767e+03
-4.183926e+09 -3.983894e+09 -4.143981e+09 2.041745e+04 5.535737e+03 4.046865e+03
-1.961135e+09 -1.761080e+09 -1.921151e+09 1.675568e+04 -7.578402e+04 -3.486136e+04
-2.131265e+09 -1.931148e+09 -2.091280e+09 1.315634e+04 -2.878871e+04 -1.497733e+04
-2.917364e+09 -2.717238e+09 -2.877389e+09 4.185130e+03 -4.264071e+03 -1.388179e+04
-4.596450e+09 -4.396424e+09 -4.556503e+09 1.523850e+04 -7.911421e+01 5.655922e+02
-4.792335e+09 -4.592306e+09 -4.752407e+09 3.432356e+04 5.218529e+03 -6.129990e+02
-4.979265e+09 -4.779308e+09 -4.939331e+09 -4.528528e+03 -1.001110e+02 -6.547247e+02
-4.258602e+09 -4.058582e+09 -4.218670e+09 2.524467e+04 5.741766e+03 6.546496e+03
-4.017309e+09 -3.817386e+09 -3.977403e+09 -5.722539e+03 -1.477724e+03 3.108595e+03
-2.608898e+09 -2.408973e+09 -2.568982e+09 -2.788196e+02 -8.060388e+02 1.075551e+03
-4.767027e+09 -4.567009e+09 -4.727089e+09 2.269964e+04 1.403409e+03 5.351114e+03
-3.962943e+09 -3.763026e+09 -3.923055e+09 -1.387613e+04 -2.067576e+03 9.712709e+03
-4.437125e+09 -4.237203e+09 -4.397217e+09 -7.361672e+02 -4.389801e+02 5.190601e+02
-4.066599e+09 -3.866668e+09 -4.026691e+09 -1.003820e+04 -5.315388e+02 4.826269e+03
-4.822519e+09 -4.622601e+09 -4.782631e+09 -1.680968e+04 -2.740757e+03 2.525967e+03
-4.668063e+09 -4.468111e+09 -4.628132e+09 -1.636333e+03 5.851224e+01 5.187701e+02
-3.484950e+09 -3.285432e+09 -3.445416e+09 1.755747e+05 -1.952019e+04 -5.578057e+04
-2.603521e+09 -2.403804e+09 -2.563748e+09 7.608822e+04 -6.835095e+04 -4.725991e+04
-3.713858e+09 -3.513892e+09 -3.673916e+09 -4.518930e+02 -8.675886e+00 1.280644e+02
-4.858105e+09 -4.658138e+09 -4.818164e+09 -1.206352e+03 -9.661170e+01 -1.155595e+02
-2.869288e+09 -2.669504e+09 -2.829503e+09 1.321343e+05 -8.202390e+04 -1.345286e+04
-1.900702e+09 -1.700850e+09 -1.860681e+09 -5.564822e+03 -6.592155e+04 -9.459667e+04
-4.810486e+09 -4.611730e+09 -4.769690e+09 3.123495e+05 -2.668179e+04 3.317632e+05
-1.591152e+09 -1.391193e+09 -1.551125e+09 4.819812e+03 -8.910067e+04 -5.391986e+04
-2.914249e+09 -2.714282e+09 -2.874308e+09 -6.705828e+02 2.951635e+01 3.749967e+02
-3.281447e+09 -3.081482e+09 -3.241505e+09 4.942248e-05 -8.024125e+01 2.202064e+02
-4.979268e+09 -4.779309e+09 -4.939332e+09 -2.971745e+03 -2.807461e+01 1.942066e+02
-3.025814e+09 -2.825870e+09 -2.985887e+09 -9.398322e+02 -1.118929e+03 -4.020936e+02
-2.169640e+09 -1.969680e+09 -2.129703e+09 1.012402e+03 -3.752822e+01 4.099701e+02
-2.884278e+09 -2.684319e+09 -2.844344e+09 7.781824e+03 2.542773e+03 4.044775e+03
-4.514325e+09 -4.314352e+09 -4.474388e+09 -5.738044e+03 -1.284529e+03 1.081997e+03
-2.827905e+09 -2.627943e+09 -2.787967e+09 4.046263e+03 5.000746e+02 1.372471e+03
-4.490277e+09 -4.290354e+09 -4.450480e+09 1.114760e+05 1.588413e+04 2.061879e+04
-1.921980e+09 -1.722022e+09 -1.882044e+09 1.405950e+03 5.163902e+02 2.012732e+02
-2.005141e+09 -1.805197e+09 -1.965213e+09 6.148751e+03 2.357853e+03 2.387922e+03
-3.048392e+09 -2.848429e+09 -3.008451e+09 -4.119110e+02 -5.067555e+01 1.940131e+02
-1.920660e+09 -1.720705e+09 -1.880727e+09 5.444702e+03 1.488350e+03 2.100070e+03
-2.657825e+09 -2.457860e+09 -2.617886e+09 4.911966e+03 1.267272e+03 1.855624e+03
-1.918910e+09 -1.718948e+09 -1.878973e+09 5.324924e+03 1.582042e+03 1.444588e+03
-2.034228e+09 -1.834262e+09 -1.994287e+09 4.100817e+03 3.392095e+02 6.923002e+02
-1.640896e+09 -1.440913e+09 -1.600949e+09 -4.817514e+03 -3.257405e+03 4.785105e+03
-4.316052e+09 -4.115932e+09 -4.276170e+09 -1.240426e+05 -3.388475e+04 2.506631e+04
-4.821278e+09 -4.621334e+09 -4.781487e+09 -1.443870e+05 -1.433622e+04 2.387571e+03
-4.819052e+09 -4.619149e+09 -4.779286e+09 -1.496869e+05 -5.406685e+03 2.386240e+04
-2.685170e+09 -2.485096e+09 -2.645209e+09 -3.670615e+03 -4.874704e+03 1.555840e+04
-4.968013e+09 -4.767851e+09 -4.928080e+09 -3.554002e+04 -1.105254e+04 4.084414e+03
-3.967366e+09 -3.767395e+09 -3.927539e+09 -1.911777e+05 -4.091415e+04 4.573478e+04
-4.290222e+09 -4.090219e+09 -4.250332e+09 -2.669189e+05 -2.803967e+04 6.359107e+04
-3.962294e+09 -3.762370e+09 -3.922533e+09 -1.787162e+05 -3.635431e+04 3.387242e+04
-4.830998e+09 -4.631128e+09 -4.791255e+09 -2.074417e+05 -1.672564e+04 5.828683e+03
-4.826526e+09 -4.626521e+09 -4.786713e+09 -1.909370e+05 -1.330023e+04 1.760792e+03
-4.675303e+09 -4.475347e+09 -4.635370e+09 -3.706579e+03 -5.500598e+02 2.267008e+01
-4.364682e+09 -4.164727e+09 -4.324751e+09 -4.226342e+03 3.691360e+01 8.567979e+02
-2.756978e+09 -2.557013e+09 -2.717037e+09 -2.207159e+02 -2.305711e+01 1.429590e+02
-4.807062e+09 -4.607099e+09 -4.767125e+09 -3.711473e+03 4.911692e+02 6.968739e+02
-3.308087e+09 -3.108126e+09 -3.268148e+09 -1.754943e+03 -3.886439e+02 5.292614e+02
-4.335965e+09 -4.136001e+09 -4.296025e+09 -6.951381e+02 -9.939520e+01 1.389694e+02
-1.904478e+09 -1.704499e+09 -1.864532e+09 -1.315349e+03 -5.233581e+02 2.370517e+03
-4.264349e+09 -4.064386e+09 -4.224411e+09 -3.019978e+03 -3.817295e+02 3.599210e+02
-3.286729e+09 -3.086768e+09 -3.246790e+09 -1.081070e+03 -4.298973e+02 5.898283e+01
-3.988147e+09 -3.788187e+09 -3.948210e+09 -1.323622e+03 -4.712345e+02 2.193030e+02
-4.201414e+09 -4.001413e+09 -4.161488e+09 -2.159568e+04 -5.382618e+03 6.400609e+03
-2.157007e+09 -1.957026e+09 -2.117060e+09 -2.352866e+03 -1.287196e+03 2.455714e+03
-4.652048e+09 -4.452056e+09 -4.612122e+09 -1.484491e+04 -1.120499e+03 3.293131e+03
-4.822361e+09 -4.622352e+09 -4.782472e+09 -5.603875e+04 -3.481009e+03 1.074400e+04
-2.177308e+09 -1.977206e+09 -2.137316e+09 3.030833e+03 -2.743544e+03 -1.304854e+04
-3.940831e+09 -3.740615e+09 -3.900869e+09 6.002149e+03 -1.991469e+04 -2.023989e+03
-4.435808e+09 -4.235597e+09 -4.395859e+09 2.827930e+03 -1.118951e+03 -2.525834e+03
-3.422171e+09 -3.221975e+09 -3.382212e+09 5.372468e+04 -7.036267e+04 -2.229266e+04
-2.937997e+09 -2.737895e+09 -2.898061e+09 2.973017e+04 -5.349753e+04 -2.997642e+04
-2.273591e+09 -2.073475e+09 -2.233605e+09 1.552132e+04 -4.340425e+04 -2.425130e+04
-3.949064e+09 -3.749047e+09 -3.909126e+09 -7.938607e+03 -1.199438e+03 8.050487e+03
-4.720226e+09 -4.520211e+09 -4.680293e+09 -7.854267e+03 -2.043422e+03 9.756394e+02
-3.390056e+09 -3.189885e+09 -3.350093e+09 3.405630e+03 -3.511062e+03 -7.861591e+03
-3.403310e+09 -3.203071e+09 -3.363324e+09 3.261887e+04 -8.302750e+04 -1.671193e+04
-2.817726e+09 -2.617600e+09 -2.777779e+09 3.110718e+04 -6.929340e+04 -3.003473e+04
-3.280634e+09 -3.080504e+09 -3.240685e+09 4.271803e+04 -5.628586e+04 -2.867939e+04
-4.815966e+09 -4.616084e+09 -4.776121e+09 2.391663e+04 2.567081e+03 6.503127e+03
-3.125983e+09 -2.925945e+09 -3.086056e+09 -3.579989e+04 -2.616521e+04 2.426741e+04
-3.116959e+09 -2.916863e+09 -3.077025e+09 -4.685333e+04 -4.785451e+04 3.038854e+04
-3.323925e+09 -3.123858e+09 -3.283982e+09 -2.376112e+04 -1.315351e+04 1.753659e+04
-2.559255e+09 -2.359264e+09 -2.519308e+09 -1.262644e+03 -1.098870e+03 7.167224e+03
-2.756032e+09 -2.555908e+09 -2.716055e+09 -1.519834e+03 -8.378203e+03 -1.596309e+04
-3.406438e+09 -3.206282e+09 -3.366478e+09 4.504197e+03 -4.195676e+03 -1.216271e+04
-2.867337e+09 -2.667259e+09 -2.827384e+09 2.574916e+04 -2.980432e+04 -1.907875e+04
-1.636053e+09 -1.436064e+09 -1.596103e+09 -1.266495e+03 -1.113985e+03 4.147776e+03
-4.120096e+09 -3.920017e+09 -4.080173e+09 -4.052454e+04 -1.230486e+04 1.468692e+04
-4.983566e+09 -4.783329e+09 -4.943617e+09 -1.203205e+04 -7.016717e+03 2.952787e+03
-4.213924e+09 -4.013870e+09 -4.174012e+09 -3.981110e+04 -1.640206e+04 1.577888e+04
-2.571126e+09 -2.371317e+09 -2.531346e+09 -3.607781e+04 6.392756e+04 -4.998292e+04
-2.136449e+09 -1.936458e+09 -2.096497e+09 -1.310976e+03 -1.225925e+03 4.598403e+03
-2.656443e+09 -2.456716e+09 -2.616722e+09 -2.220495e+04 4.610599e+04 -3.719447e+04
-2.755195e+09 -2.555082e+09 -2.715220e+09 -1.433185e+03 -5.532070e+03 8.565014e+03
-4.983575e+09 -4.783359e+09 -4.943626e+09 -5.644090e+03 -1.747883e+03 -2.041184e+02
-3.960836e+09 -3.760630e+09 -3.920424e+09 4.070751e+05 -1.851306e+04 -6.733611e+03
-4.264493e+09 -4.065039e+09 -4.225036e+09 1.227593e+05 -1.402534e+04 -3.514893e+04
-4.854072e+09 -4.654083e+09 -4.814233e+09 3.104159e+05 -3.745247e+03 1.931740e+03
-2.156598e+09 -1.956830e+09 -2.116807e+09 -3.904139e+03 4.494321e+04 7.447097e+03
-2.862146e+09 -2.662506e+09 -2.822524e+09 -9.668773e+03 4.847811e+04 -5.079270e+04
-2.853747e+09 -2.654009e+09 -2.814009e+09 -3.713984e+04 3.947579e+04 -3.200694e+04
-3.378937e+09 -3.179289e+09 -3.339205e+09 1.993840e+05 -6.979548e+04 -8.237988e+04
-3.396550e+09 -3.196694e+09 -3.356825e+09 1.533237e+04 -5.310563e+04 -1.574279e+03
-3.211555e+09 -3.012146e+09 -3.171886e+09 8.629153e+04 -3.227851e+04 -8.293415e+04
-4.149178e+09 -3.949796e+09 -4.109372e+09 2.885349e+05 -2.245543e+04 9.625395e+04
-2.825837e+09 -2.626112e+09 -2.786160e+09 -2.720847e+04 7.189316e+04 -5.054530e+04
-1.814403e+09 -1.614323e+09 -1.774407e+09 4.950008e+03 -3.596088e+04 2.081070e+04
-1.600175e+09 -1.400121e+09 -1.560182e+09 -8.339080e+03 -4.334380e+04 2.730370e+04
-3.642078e+09 -3.442202e+09 -3.602346e+09 1.437766e+04 -4.220612e+04 -2.094681e+03
-2.735452e+09 -2.535394e+09 -2.695490e+09 -5.301102e+03 2.093162e+04 -5.761401e+03
-4.955022e+09 -4.755047e+09 -4.915097e+09 -1.643001e+04 -7.753302e+02 3.280840e+02
-3.968574e+09 -3.768652e+09 -3.928705e+09 -3.546767e+04 -6.676241e+03 1.774425e+04
-4.987835e+09 -4.787948e+09 -4.948027e+09 -6.099177e+04 -6.185849e+03 7.859087e+03
-2.844334e+09 -2.644267e+09 -2.804366e+09 -6.808074e+03 1.475730e+04 -4.922591e+03
-4.996084e+09 -4.796141e+09 -4.956174e+09 -1.427843e+04 -7.497323e+02 -1.361611e+02
-3.963752e+09 -3.763786e+09 -3.923827e+09 -1.457532e+04 -3.158804e+03 3.297611e+03
-4.785804e+09 -4.585861e+09 -4.745890e+09 -1.270282e+04 5.711642e+02 1.961839e+03
-4.985286e+09 -4.785336e+09 -4.945369e+09 -1.568791e+04 -6.355759e+02 5.363635e+02
-1.598513e+09 -1.398540e+09 -1.558571e+09 -4.212580e+03 -1.596304e+03 2.663158e+03
-3.932129e+09 -3.732143e+09 -3.892190e+09 -1.941687e+03 -1.938830e+02 2.702171e+03
-1.576075e+09 -1.376087e+09 -1.536125e+09 -5.976477e+03 -5.795939e+03 9.301041e+03
-3.111386e+09 -2.911321e+09 -3.071423e+09 -4.291939e+03 1.503221e+04 -5.373472e+03
-2.879381e+09 -2.679328e+09 -2.839424e+09 -2.267952e+03 2.337225e+04 -3.969604e+03
-3.042707e+09 -2.842647e+09 -3.002747e+09 -3.011712e+03 2.016594e+04 -4.234484e+03
-4.643335e+09 -4.443208e+09 -4.603448e+09 2.122684e+05 9.175822e+03 6.385823e+03
-4.633835e+09 -4.433715e+09 -4.593980e+09 1.692027e+05 2.001056e+04 1.062092e+04
-1.900837e+09 -1.700868e+09 -1.860896e+09 -2.839271e+03 -5.934070e+02 1.626412e+03
-3.400265e+09 -3.200308e+09 -3.360329e+09 -4.710021e+02 -8.115240e+02 4.578827e+02
-4.584572e+09 -4.384622e+09 -4.544650e+09 -1.019542e+04 -9.946542e+02 1.782775e+03
-4.303055e+09 -4.102966e+09 -4.263178e+09 1.132732e+05 2.567055e+04 1.901355e+04
-3.175078e+09 -2.975095e+09 -3.135146e+09 -1.680056e+04 -7.603718e+03 8.912786e+03
-3.985680e+09 -3.785734e+09 -3.945773e+09 -2.096656e+04 -3.002580e+03 7.426957e+03
-4.966870e+09 -4.766905e+09 -4.926936e+09 -7.276195e+03 1.826147e+02 2.397269e+02
-3.968978e+09 -3.769017e+09 -3.929051e+09 -1.538470e+04 -4.021991e+03 3.066643e+03
-4.792323e+09 -4.592383e+09 -4.752517e+09 1.149515e+05 1.819121e+04 8.838981e+03
-4.468958e+09 -4.268798e+09 -4.429038e+09 9.945810e+04 2.503740e+04 1.526909e+04
-3.954631e+09 -3.754550e+09 -3.914731e+09 8.869851e+04 2.940017e+04 1.494244e+04
-4.139444e+09 -3.939374e+09 -4.099569e+09 1.200775e+05 3.598107e+04 1.505407e+04
-1.960996e+09 -1.761026e+09 -1.921056e+09 -9.465871e+03 -4.844475e+03 6.990101e+03
-4.992543e+09 -4.792351e+09 -4.952636e+09 1.327846e+05 2.261224e+04 1.078925e+04
-4.662639e+09 -4.462678e+09 -4.622735e+09 -2.996423e+04 -3.832303e+03 4.722052e+03
-4.997557e+09 -4.797574e+09 -4.957627e+09 -1.606758e+04 -1.208904e+03 -1.339208e+02
-2.012637e+09 -1.812656e+09 -1.972694e+09 -9.731987e+03 -5.740360e+03 5.729410e+03
-4.644588e+09 -4.444652e+09 -4.604679e+09 -1.468823e+04 -9.871324e+02 3.217922e+03
-4.146956e+09 -3.947069e+09 -4.107097e+09 -1.540931e+04 -4.260070e+03 1.384135e+04
-4.997510e+09 -4.797648e+09 -4.957676e+09 -1.813099e+04 -1.931281e+03 5.244906e+03
-4.993768e+09 -4.793845e+09 -4.953875e+09 -1.877170e+04 -9.201899e+02 1.246577e+03
-4.975846e+09 -4.775940e+09 -4.935959e+09 -4.124300e+03 -2.146419e+02 1.707101e+03
-4.325708e+09 -4.125763e+09 -4.285799e+09 -1.692506e+04 -2.692701e+03 3.034212e+03
-4.825908e+09 -4.625821e+09 -4.786036e+09 1.233120e+05 1.053467e+04 1.919451e+04
-1.761237e+09 -1.561467e+09 -1.721515e+09 -2.480847e+03 7.603885e+03 -1.133207e+05
-3.141076e+09 -2.941645e+09 -3.101577e+09 6.849908e+03 -2.839729e+04 -8.416556e+04
-4.130987e+09 -3.931186e+09 -4.091266e+09 -1.877387e+05 -3.418259e+04 4.253055e+04
-3.961478e+09 -3.761638e+09 -3.921680e+09 -2.366068e+04 -9.515812e+02 2.384037e+04
-4.316067e+09 -4.116154e+09 -4.276188e+09 -1.928165e+04 -4.388172e+03 8.363227e+03
-4.459686e+09 -4.259750e+09 -4.419768e+09 -2.662432e+03 -8.341114e+02 1.936576e+02
-1.698595e+09 -1.498659e+09 -1.658673e+09 -6.026035e+03 -2.794560e+03 1.003854e+04
-4.655403e+09 -4.455505e+09 -4.615539e+09 -1.746296e+04 -3.670526e+02 5.141067e+03
-3.403140e+09 -3.203196e+09 -3.363222e+09 -1.126893e+04 -2.539249e+03 5.630836e+03
-3.034961e+09 -2.835405e+09 -2.995379e+09 2.782067e+03 -1.333730e+04 -4.385837e+04
-2.673251e+09 -2.473597e+09 -2.633579e+09 5.459461e+01 -1.292172e+04 1.632560e+03
-3.969889e+09 -3.769586e+09 -3.929878e+09 -1.930309e+05 -2.103570e+04 1.430878e+04
-4.451442e+09 -4.250376e+09 -4.410449e+09 1.024770e+05 4.637350e+04 9.588148e+04
-3.949029e+09 -3.748799e+09 -3.909068e+09 -4.954035e+04 -2.515458e+04 6.257284e+03
-3.401940e+09 -3.201786e+09 -3.361992e+09 -2.323875e+04 -4.722970e+04 1.320957e+04
-2.097988e+09 -1.897895e+09 -2.058002e+09 -3.351664e+03 -5.670745e+03 1.161888e+04
-4.466374e+09 -4.266211e+09 -4.426341e+09 -2.809562e+05 -4.646599e+04 2.991931e+04
-4.139558e+09 -3.939169e+09 -4.099568e+09 -7.616845e+04 -6.304991e+04 2.455006e+04
-4.470487e+09 -4.270279e+09 -4.430561e+09 -1.694499e+05 -3.814221e+04 2.230206e+04
-2.896671e+09 -2.697079e+09 -2.857066e+09 1.296458e+04 5.987571e+03 -9.479234e+03
-4.965493e+09 -4.765569e+09 -4.925693e+09 1.198229e+05 8.217088e+03 1.252175e+04
-2.163453e+09 -1.963411e+09 -2.123494e+09 -3.010164e+04 -4.343981e+04 3.465665e+04
-4.968019e+09 -4.767856e+09 -4.928082e+09 -1.641375e+04 -2.975775e+03 -4.652980e+02
-3.069780e+09 -2.869711e+09 -3.029832e+09 -8.727393e+03 -1.167195e+04 1.557393e+04
-4.993991e+09 -4.794108e+09 -4.954213e+09 -9.734835e+04 -6.367018e+03 1.026900e+04
-4.134832e+09 -3.934860e+09 -4.095015e+09 -1.405112e+05 -3.052531e+04 4.549581e+04
-4.303674e+09 -4.103735e+09 -4.263855e+09 -1.050886e+05 -1.919493e+04 2.777138e+04
-1.949056e+09 -1.749210e+09 -1.909169e+09 -5.477133e+04 -2.372737e+03 -1.514451e+04
-4.998247e+09 -4.798344e+09 -4.958400e+09 -4.552161e+04 -3.103546e+03 4.673840e+03
-4.990652e+09 -4.790701e+09 -4.950805e+09 -6.979854e+04 -1.334584e+03 3.411534e+03
-3.957203e+09 -3.757222e+09 -3.917291e+09 -2.835273e+04 -9.182332e+03 1.089328e+04
-1.949248e+09 -1.749439e+09 -1.909402e+09 7.028839e+04 -1.900339e+03 -3.215850e+04
-4.968684e+09 -4.768700e+09 -4.928767e+09 -2.352608e+04 -1.034125e+03 1.115876e+03
-4.662599e+09 -4.462715e+09 -4.622746e+09 -1.307309e+04 -1.643719e+02 5.538940e+03
-4.827724e+09 -4.627788e+09 -4.787826e+09 -2.021486e+04 9.446594e+02 2.899154e+03
-1.560175e+09 -1.360210e+09 -1.520235e+09 3.078763e+03 2.912724e+02 9.248335e+02
-4.485723e+09 -4.285823e+09 -4.445842e+09 -9.669325e+03 -9.781814e+02 6.045009e+03
-4.142070e+09 -3.942162e+09 -4.102187e+09 -1.339812e+04 -2.031132e+03 9.092546e+03
-3.185549e+09 -2.985564e+09 -3.145602e+09 8.268504e+03 2.160620e+03 2.688714e+03
-4.828531e+09 -4.628626e+09 -4.788653e+09 -1.480791e+04 -1.243384e+03 4.237383e+03
-4.485301e+09 -4.285393e+09 -4.445413e+09 -1.380719e+04 -1.025048e+03 5.549067e+03
-4.609679e+09 -4.409626e+09 -4.569825e+09 -6.604476e+04 1.530672e+04 -5.865041e+03
-3.190974e+09 -2.990914e+09 -3.151069e+09 -5.125299e+04 5.799916e+04 -2.822512e+04
-3.938317e+09 -3.738311e+09 -3.898470e+09 -8.003926e+03 3.395314e+04 -3.787855e+03
-2.676720e+09 -2.476673e+09 -2.636774e+09 -2.541376e+03 3.180451e+04 -1.102582e+03
-2.895153e+09 -2.695140e+09 -2.855248e+09 -4.421375e+03 4.619368e+04 -8.891886e+03
-2.145106e+09 -1.945097e+09 -2.105171e+09 -4.945595e+03 5.241287e+04 -1.634288e+04
-2.736270e+09 -2.536219e+09 -2.696322e+09 -7.311381e+03 3.151306e+04 -7.790788e+03
-3.752759e+09 -3.552719e+09 -3.712855e+09 -1.341012e+04 3.061642e+04 -3.789410e+03
-4.504650e+09 -4.304776e+09 -4.464861e+09 9.309697e+04 1.300231e+04 2.320011e+04
-3.924687e+09 -3.724649e+09 -3.884796e+09 -5.348289e+03 2.723784e+04 -1.955054e+03
-2.689678e+09 -2.489605e+09 -2.649731e+09 1.905026e+04 -3.757531e+04 -1.960452e+04
-2.103133e+09 -1.903067e+09 -2.063160e+09 6.580361e+03 -2.135852e+04 -9.240128e+03
-1.778097e+09 -1.578037e+09 -1.738114e+09 -3.974940e+02 -2.162426e+04 -1.106362e+04
-2.655751e+09 -2.455681e+09 -2.615791e+09 3.822968e+03 -1.144648e+04 -9.132537e+03
-4.691116e+09 -4.490168e+09 -4.645964e+09 1.383754e+05 5.650329e+05 2.890020e+05
-4.840282e+09 -4.640839e+09 -4.794922e+09 -4.339862e+05 -9.278886e+04 8.793603e+05
-4.999610e+09 -4.799521e+09 -4.952538e+09 4.735006e+05 7.805432e+04 2.431797e+05
-4.132743e+09 -3.933185e+09 -4.091645e+09 -6.233728e+05 -1.251501e+05 3.496821e+05
-4.675366e+09 -4.476211e+09 -4.632927e+09 -7.062511e+05 -1.855528e+05 4.591810e+05
-1.850477e+09 -1.650424e+09 -1.810504e+09 1.130194e+04 -2.864618e+04 -1.659660e+04
-2.166454e+09 -1.966377e+09 -2.126470e+09 6.614095e+03 -1.703767e+04 -1.295093e+04
-3.230387e+09 -3.030273e+09 -3.190429e+09 9.031443e+03 -1.231382e+04 -2.139840e+04
-3.966152e+09 -3.767063e+09 -3.924701e+09 -4.321425e+05 -1.342584e+05 6.270222e+05
-4.459244e+09 -4.260646e+09 -4.418475e+09 1.045967e+04 2.521592e+03 2.143693e+05
-2.217694e+09 -2.017598e+09 -2.177720e+09 2.028909e+04 -3.470876e+04 -2.240440e+04
-1.913739e+09 -1.713664e+09 -1.873754e+09 2.208473e+03 -1.418361e+04 -1.158188e+04
-3.957947e+09 -3.758295e+09 -3.918391e+09 -2.110586e+04 4.458868e+04 -2.901905e+04
-4.662986e+09 -4.461695e+09 -4.621064e+09 2.425873e+05 -2.052167e+05 3.069909e+04
-4.711165e+09 -4.511128e+09 -4.671213e+09 6.976445e+03 2.068683e+03 8.154658e+01
-3.087298e+09 -2.887253e+09 -3.047335e+09 7.072965e+03 4.478681e+03 6.567734e+03
-4.064311e+09 -3.864260e+09 -4.024371e+09 3.005417e+04 1.223074e+04 5.220001e+03
-3.680539e+09 -3.480506e+09 -3.640589e+09 1.700948e+04 7.983675e+03 6.168601e+03
-4.781506e+09 -4.581481e+09 -4.741567e+09 1.909487e+04 3.767423e+03 2.733063e+02
-3.366913e+09 -3.166876e+09 -3.326955e+09 3.013906e+03 1.554115e+03 5.903600e+03
-3.959136e+09 -3.759198e+09 -3.919294e+09 7.556761e+04 1.721309e+04 2.360756e+04
-4.799956e+09 -4.599934e+09 -4.760007e+09 1.204061e+04 6.337883e+02 3.740324e+03
-3.960144e+09 -3.760175e+09 -3.920259e+09 5.159054e+04 1.195449e+04 1.466924e+04
-4.530395e+09 -4.330353e+09 -4.490444e+09 8.500574e+03 1.951221e+03 2.736466e+03
-3.380989e+09 -3.181003e+09 -3.341039e+09 7.752607e+02 2.178124e+02 1.007906e+03
-4.985019e+09 -4.784986e+09 -4.945071e+09 7.705095e+03 3.757380e+02 -1.171469e+03
-2.214016e+09 -2.014037e+09 -2.174068e+09 2.949215e+03 3.136767e+02 1.320956e+02
-4.143362e+09 -3.943761e+09 -4.103725e+09 -9.775580e+04 -1.273970e+04 2.928291e+04
-3.950603e+09 -3.752254e+09 -3.909061e+09 1.777721e+05 2.386946e+05 5.747979e+05
-4.106998e+09 -3.907301e+09 -4.067334e+09 -9.610957e+04 -2.594303e+04 6.583182e+04
-2.217910e+09 -2.017933e+09 -2.177963e+09 5.800768e+02 -4.937622e+01 -5.589144e+01
-4.816611e+09 -4.618017e+09 -4.774628e+09 -8.023542e+04 9.532666e+04 1.367522e+05
-1.949114e+09 -1.749137e+09 -1.909167e+09 4.957497e+02 6.586397e+01 1.156246e+01
-1.774931e+09 -1.574955e+09 -1.734985e+09 1.913821e+03 -9.027522e+01 3.641413e+01
-4.109808e+09 -3.911366e+09 -4.067714e+09 2.273898e+05 1.958304e+05 3.494997e+05
-3.976288e+09 -3.777471e+09 -3.932980e+09 -6.327007e+05 -7.491571e+05 1.028300e+06
-4.979720e+09 -4.781091e+09 -4.936031e+09 -6.896348e+04 -4.565313e+04 1.387022e+05
-4.980822e+09 -4.781495e+09 -4.941423e+09 1.042307e+05 -1.818021e+04 -2.533282e+04
-5.005893e+09 -4.807026e+09 -4.966204e+09 -1.641226e+05 -1.884688e+04 6.595704e+03
-4.317396e+09 -4.117938e+09 -4.272681e+09 5.290004e+05 5.390786e+05 6.042361e+05
-1.923763e+09 -1.723786e+09 -1.883817e+09 2.299757e+03 1.924129e+02 5.032634e+02
-2.211159e+09 -2.011179e+09 -2.171211e+09 2.058981e+03 5.427686e+02 3.144795e+02
-4.993539e+09 -4.794825e+09 -4.953359e+09 2.878811e+05 -4.525984e+04 -3.045019e+04
-3.117054e+09 -2.917075e+09 -3.077106e+09 8.679421e+02 2.204987e+02 7.314517e+01
-3.952817e+09 -3.752017e+09 -3.912185e+09 -7.632656e+04 7.964284e+04 3.624094e+04
-2.594335e+09 -2.394357e+09 -2.554387e+09 1.625322e+03 7.300729e+01 5.819884e+01
-4.647863e+09 -4.447251e+09 -4.607737e+09 5.393341e+04 -1.802041e+03 9.216150e+03
-3.967506e+09 -3.767168e+09 -3.927523e+09 2.622267e+04 -5.049355e+04 -3.106103e+03
-1.886122e+09 -1.686144e+09 -1.846174e+09 6.669439e+02 7.059884e+01 -7.639915e+01
-4.983974e+09 -4.782736e+09 -4.941003e+09 -3.251411e+05 4.265567e+04 -1.142674e+04
-1.617324e+09 -1.417347e+09 -1.577378e+09 3.570458e+02 1.300525e+02 -5.797989e+01
-3.792723e+09 -3.592745e+09 -3.752775e+09 5.092000e+02 -3.446168e+01 2.658855e+01
-4.645014e+09 -4.444465e+09 -4.604614e+09 -3.539580e+05 5.361614e+04 1.252345e+03
-4.475573e+09 -4.274781e+09 -4.432804e+09 -5.588364e+05 2.038738e+05 -8.627619e+04
-2.880302e+09 -2.680325e+09 -2.840354e+09 2.879099e+02 -7.314847e+01 -1.694949e+02
-2.899122e+09 -2.699145e+09 -2.859174e+09 1.020470e+02 1.590935e+02 9.087074e+01
-2.610083e+09 -2.409917e+09 -2.570104e+09 -1.698704e+03 -3.913135e+04 4.759874e+02
-3.971115e+09 -3.770887e+09 -3.931078e+09 2.946494e+05 2.281765e+04 2.757446e+03
-3.452068e+09 -3.252092e+09 -3.412121e+09 1.682602e+03 3.810825e+02 -1.294763e+02
-4.981561e+09 -4.781489e+09 -4.941730e+09 1.920972e+05 7.077697e+03 1.351463e+04
-4.981600e+09 -4.781549e+09 -4.941752e+09 1.521134e+05 7.421278e+03 1.358937e+04
-4.136252e+09 -3.935694e+09 -4.096069e+09 1.218636e+05 2.846237e+04 1.363356e+03
-4.638155e+09 -4.437741e+09 -4.597948e+09 3.428173e+05 -4.848157e+04 5.148629e+03
-4.595488e+09 -4.395747e+09 -4.555782e+09 -6.807379e+04 6.379296e+02 1.943960e+04
-4.995883e+09 -4.795455e+09 -4.955857e+09 1.945896e+05 5.720678e+04 2.112036e+04
-4.635289e+09 -4.435567e+09 -4.590180e+09 6.272088e+05 1.044511e+05 -1.855972e+05
-4.642442e+09 -4.443021e+09 -4.601806e+09 5.484768e+05 -9.715663e+04 -1.710793e+05
-3.958654e+09 -3.758528e+09 -3.918749e+09 1.676760e+05 6.007061e+04 3.120937e+04
-3.962066e+09 -3.761970e+09 -3.922182e+09 1.120287e+05 4.503294e+04 2.391903e+04
-4.318186e+09 -4.117684e+09 -4.278096e+09 2.319615e+05 7.214688e+04 3.268654e+04
-5.008763e+09 -4.807924e+09 -4.967920e+09 3.399835e+05 4.732844e+04 2.196817e+04
-4.988586e+09 -4.788403e+09 -4.948703e+09 -1.715989e+05 -3.415229e+04 1.505696e+04
-3.968135e+09 -3.767556e+09 -3.926913e+09 5.608377e+05 -3.571869e+05 -8.534309e+04
-4.312171e+09 -4.111730e+09 -4.272126e+09 4.784227e+04 6.869739e+04 4.140227e+03
-4.995880e+09 -4.795514e+09 -4.955870e+09 2.339336e+05 4.077091e+04 1.805664e+04
-4.481094e+09 -4.280913e+09 -4.441200e+09 -1.459051e+05 -3.106392e+04 2.274309e+04
-4.133714e+09 -3.933481e+09 -4.093776e+09 -9.045626e+04 -4.492239e+04 1.281442e+04
-4.116897e+09 -3.916539e+09 -4.076903e+09 -1.277599e+05 -4.605340e+04 6.486132e+03
-3.983101e+09 -3.783381e+09 -3.943351e+09 3.925083e+05 -1.903729e+04 -5.381033e+04
-4.470567e+09 -4.270317e+09 -4.430618e+09 -1.590382e+05 -4.085605e+04 2.501439e+04
-2.584211e+09 -2.384183e+09 -2.544248e+09 1.813764e+03 1.841262e+03 6.163122e+03
-4.978079e+09 -4.777750e+09 -4.938112e+09 -1.574012e+05 -2.693305e+04 1.347742e+04
-3.974612e+09 -3.774723e+09 -3.934871e+09 2.705377e+05 2.277109e+04 8.749922e+03
-4.300381e+09 -4.100295e+09 -4.260505e+09 1.354781e+05 3.586767e+04 2.731315e+04
-4.137879e+09 -3.937679e+09 -4.097960e+09 -1.425761e+05 -2.490712e+04 1.992224e+04
-2.633682e+09 -2.433577e+09 -2.593724e+09 2.306031e+04 -3.502174e+04 -2.225680e+04
-3.337518e+09 -3.137406e+09 -3.297563e+09 9.161273e+03 -1.041134e+04 -1.270696e+04
-3.974674e+09 -3.774784e+09 -3.934866e+09 2.228590e+05 3.479043e+04 4.809609e+04
-2.661154e+09 -2.461026e+09 -2.621182e+09 1.657144e+04 -3.364175e+04 -2.077242e+04
-5.044297e+09 -4.843566e+09 -4.999771e+09 -2.456989e+05 3.109246e+05 -2.650178e+05
-3.595644e+09 -3.395533e+09 -3.555693e+09 1.263740e+04 -1.847897e+04 -1.086253e+04
-4.499711e+09 -4.299358e+09 -4.449888e+09 -1.513233e+05 4.196467e+05 3.352538e+05
-2.788709e+09 -2.588594e+09 -2.748738e+09 1.294827e+04 -1.220016e+04 -1.547548e+04
-4.985988e+09 -4.787006e+09 -4.942865e+09 4.597032e+05 -3.031074e+04 1.198686e+05
-3.979855e+09 -3.778297e+09 -3.935648e+09 1.957939e+05 1.048752e+06 -1.159589e+04
-5.010054e+09 -4.808770e+09 -4.965349e+09 -2.428066e+05 1.534968e+05 -4.674735e+04
-1.929698e+09 -1.729616e+09 -1.889711e+09 1.062339e+04 -9.383135e+03 -1.309056e+04
-4.821126e+09 -4.621145e+09 -4.775132e+09 -2.860356e+05 5.456833e+04 -1.712563e+05
-4.012028e+09 -3.812448e+09 -3.972352e+09 -1.591310e+05 -2.176370e+04 3.289901e+04
-4.820516e+09 -4.621182e+09 -4.777423e+09 -7.553445e+05 -1.395278e+04 -9.873415e+04
-4.311412e+09 -4.112349e+09 -4.264309e+09 -8.988787e+03 -6.412887e+05 -1.094357e+06
-4.137880e+09 -3.937743e+09 -4.097570e+09 -4.677125e+05 -6.563372e+04 -7.841789e+03
-4.121789e+09 -3.922157e+09 -4.080690e+09 -6.246448e+05 1.892367e+05 -1.953860e+05
-2.626803e+09 -2.426724e+09 -2.586834e+09 1.507689e+03 -4.568391e+03 -1.105696e+04
-4.798674e+09 -4.598747e+09 -4.758774e+09 1.369569e+04 -4.957639e+02 2.165373e+03
-4.129000e+09 -3.929078e+09 -4.089112e+09 2.254175e+04 5.752208e+03 9.235471e+03
-4.014969e+09 -3.814354e+09 -3.970192e+09 -1.002985e+06 9.555502e+05 -7.607844e+05
-4.122698e+09 -3.922772e+09 -4.082802e+09 1.704943e+04 1.454108e+03 6.972310e+03
-4.632846e+09 -4.434123e+09 -4.593013e+09 -9.889047e+04 2.146887e+05 1.486622e+05
-4.357267e+09 -4.157563e+09 -4.312866e+09 -6.640253e+05 8.959475e+05 -1.012530e+06
-4.485306e+09 -4.284831e+09 -4.442711e+09 -6.431262e+05 2.095811e+05 -1.190850e+05
-4.825487e+09 -4.625507e+09 -4.783921e+09 -6.308823e+05 2.796112e+05 -2.739179e+03
-4.306182e+09 -4.106960e+09 -4.264718e+09 -6.590571e+05 7.220039e+05 -6.646003e+05
-4.309920e+09 -4.110113e+09 -4.269401e+09 -5.482708e+05 2.739284e+05 -2.219622e+05
-4.986423e+09 -4.786524e+09 -4.946566e+09 2.455705e+04 2.368541e+03 3.036865e+03
-4.824340e+09 -4.624233e+09 -4.783932e+09 -4.999850e+05 1.255646e+05 -4.844981e+03
-3.948938e+09 -3.749581e+09 -3.908560e+09 -4.582975e+05 1.652242e+05 -3.797050e+05
-4.991284e+09 -4.791364e+09 -4.951409e+09 2.581292e+04 2.281265e+03 1.632401e+03
-4.110272e+09 -3.910335e+09 -4.070362e+09 1.451017e+04 3.442358e+03 5.274264e+03
-2.868616e+09 -2.668627e+09 -2.828668e+09 6.472818e+03 2.696504e+03 2.825665e+03
-1.674285e+09 -1.474296e+09 -1.634334e+09 1.802832e+03 4.711909e+02 1.005061e+03
-4.847876e+09 -4.648004e+09 -4.808104e+09 1.016227e+05 1.990357e+04 2.225776e+04
-2.994654e+09 -2.794668e+09 -2.954704e+09 8.532097e+02 -3.108832e+02 6.213679e+02
-2.831066e+09 -2.631081e+09 -2.791116e+09 1.328604e+03 3.745710e+02 9.921480e+02
-3.964811e+09 -3.765473e+09 -3.925220e+09 6.642002e+04 -3.545757e+03 2.023614e+04
-1.894705e+09 -1.694720e+09 -1.854755e+09 1.372714e+03 -9.546280e+00 3.386582e+02
-2.858230e+09 -2.658240e+09 -2.818278e+09 1.249809e+03 5.602240e+02 1.061410e+03
-1.973781e+09 -1.773721e+09 -1.933798e+09 -9.809970e+03 3.932827e+04 -1.860361e+04
-1.921294e+09 -1.721308e+09 -1.881343e+09 7.012793e+02 3.119093e+02 2.579734e+02
-2.737984e+09 -2.537870e+09 -2.698006e+09 -8.359133e+03 3.054222e+04 -1.057580e+04
-4.852793e+09 -4.652633e+09 -4.812842e+09 3.403605e+04 1.055715e+04 5.704255e+03
-2.252910e+09 -2.052829e+09 -2.212929e+09 -1.230838e+04 2.780204e+04 -8.590543e+03
-2.051009e+09 -1.850894e+09 -2.011017e+09 -1.733637e+04 -5.536101e+04 2.468578e+04
-3.985357e+09 -3.785219e+09 -3.945393e+09 1.587252e+04 1.339961e+04 2.063495e+03
-3.909472e+09 -3.709292e+09 -3.869514e+09 2.043450e+04 2.109846e+04 5.437290e+03
-1.670721e+09 -1.470781e+09 -1.630797e+09 8.154371e+03 3.597292e+03 9.376258e+03
-2.968199e+09 -2.768075e+09 -2.928237e+09 2.582512e+04 4.950036e+04 1.788942e+04
-2.637955e+09 -2.437999e+09 -2.598020e+09 1.174857e+03 6.108631e+02 -2.177375e+02
-3.292256e+09 -3.092098e+09 -3.252289e+09 1.899813e+04 4.400304e+04 1.725436e+04
-2.985932e+09 -2.786016e+09 -2.946033e+09 -6.573103e+03 -2.943086e+03 1.349173e+04
-3.254721e+09 -3.054584e+09 -3.214760e+09 3.313436e+04 5.047427e+04 6.826288e+03
-1.923947e+09 -1.724012e+09 -1.884026e+09 6.551973e+03 3.169801e+03 8.409889e+03
-4.138201e+09 -3.938278e+09 -4.098297e+09 5.196468e+03 5.556338e+02 3.870481e+03
-4.536638e+09 -4.336722e+09 -4.496740e+09 3.801961e+03 4.657706e+02 1.483020e+03
-4.672474e+09 -4.472549e+09 -4.632564e+09 1.100110e+03 7.301034e+02 2.270869e+02
-3.589730e+09 -3.389810e+09 -3.549823e+09 4.638287e+03 8.799662e+02 4.998948e+03
-4.477451e+09 -4.276952e+09 -4.434732e+09 7.487315e+05 -6.180133e+05 -5.764011e+05
-3.957590e+09 -3.758726e+09 -3.917234e+09 -3.252792e+05 -1.558155e+05 2.196597e+05
-4.488958e+09 -4.290356e+09 -4.448224e+09 -3.958461e+05 -1.103128e+05 2.372050e+05
-1.789294e+09 -1.589350e+09 -1.749367e+09 7.037924e+03 3.061615e+03 6.499479e+03
-3.949723e+09 -3.751686e+09 -3.906141e+09 -8.415054e+04 1.916792e+05 1.148399e+06
-4.838879e+09 -4.639581e+09 -4.796639e+09 -6.036152e+05 -1.039163e+05 4.483665e+05
-4.970532e+09 -4.770525e+09 -4.930593e+09 1.724927e+04 6.085451e+02 1.286008e+03
-3.969754e+09 -3.771103e+09 -3.927626e+09 -2.878112e+05 -2.237451e+05 4.903360e+05
-4.152480e+09 -3.953057e+09 -4.110429e+09 -6.043943e+05 -3.177364e+05 2.683478e+05
-2.414553e+09 -2.214596e+09 -2.374618e+09 -3.724829e+03 -1.056549e+03 1.705585e+03
-4.688440e+09 -4.488308e+09 -4.648477e+09 4.447693e+03 6.626605e+02 2.802107e+03
-4.957935e+09 -4.757952e+09 -4.917998e+09 -8.066001e+03 -2.891126e+02 1.873262e+02
-3.894608e+09 -3.694462e+09 -3.854638e+09 1.053493e+04 1.580948e+04 2.390995e+03
-4.047778e+09 -3.847655e+09 -4.007812e+09 9.504801e+03 1.100533e+04 5.004497e+03
-3.806732e+09 -3.606740e+09 -3.766793e+09 -5.186246e+03 -9.105335e+02 5.948231e+03
-3.800406e+09 -3.600268e+09 -3.760436e+09 6.853377e+03 9.512422e+03 3.958294e+03
-4.960286e+09 -4.760149e+09 -4.920326e+09 6.302212e+03 2.133182e+03 -7.513935e+02
-4.164774e+09 -3.964610e+09 -4.124814e+09 1.264340e+04 2.301776e+04 3.548754e+03
-3.448110e+09 -3.247927e+09 -3.408142e+09 -6.685733e+02 -3.121430e+03 -9.178456e+02
-3.157509e+09 -2.957272e+09 -3.117533e+09 2.500902e+04 -8.141976e+04 5.468659e+02
-1.636102e+09 -1.436105e+09 -1.596147e+09 -1.166383e+03 6.455386e+04 -4.238586e+03
-1.769342e+09 -1.569243e+09 -1.729338e+09 1.988571e+04 -5.320007e+04 1.193582e+04
-3.147079e+09 -2.946880e+09 -3.107096e+09 -1.801861e+04 -7.495111e+04 -1.727552e+04
-4.602529e+09 -4.402269e+09 -4.562563e+09 1.411433e+04 -1.056936e+04 -8.608346e+01
-4.195955e+09 -3.995692e+09 -4.155985e+09 -4.823772e+03 -3.129489e+04 3.270974e+03
-3.088746e+09 -2.888548e+09 -3.048773e+09 1.664454e+03 -5.881711e+04 -8.523547e+03
-3.452249e+09 -3.252072e+09 -3.412283e+09 -3.862507e+03 -2.254459e+03 3.817833e+03
-3.389192e+09 -3.188947e+09 -3.349212e+09 1.897883e+04 -5.495649e+04 -9.187618e+03
-4.134036e+09 -3.933411e+09 -4.093931e+09 6.341506e+04 -9.748597e+04 -5.428476e+03
-3.964269e+09 -3.763736e+09 -3.924171e+09 4.896810e+04 -4.898788e+04 7.010090e+03
-4.299050e+09 -4.098635e+09 -4.259041e+09 9.156747e+04 -6.447758e+04 -2.334955e+04
-4.815694e+09 -4.615233e+09 -4.775675e+09 1.109389e+05 -5.168284e+04 -1.058961e+04
-4.890145e+09 -4.689942e+09 -4.850200e+09 -4.369558e+03 -1.432181e-06 1.835473e+01
-4.991426e+09 -4.790888e+09 -4.951373e+09 3.065332e+04 -4.397506e+04 -1.311986e+04
-4.824646e+09 -4.624174e+09 -4.784613e+09 2.078024e+04 -3.332290e+03 -4.206156e+03
-4.622061e+09 -4.421822e+09 -4.582121e+09 -2.062192e+04 -8.758735e+03 7.893198e+02
-2.847445e+09 -2.647368e+09 -2.807482e+09 -3.928796e+03 -4.991913e+03 1.407903e+04
-4.129233e+09 -3.928792e+09 -4.089198e+09 1.003975e+05 -3.626670e+04 -1.601084e+04
-4.719013e+09 -4.519378e+09 -4.679493e+09 5.011654e+04 -7.150412e+03 1.576884e+04
-4.609937e+09 -4.410483e+09 -4.570459e+09 1.229930e+05 -9.562704e+03 -8.311889e+03
-4.471679e+09 -4.272666e+09 -4.425775e+09 2.394362e+05 1.837257e+05 9.437727e+05
-4.890067e+09 -4.690086e+09 -4.850127e+09 -1.773013e+03 -9.500308e-05 -1.412755e+02
-4.684077e+09 -4.484094e+09 -4.644138e+09 -3.198754e+03 1.673438e+02 1.235662e+03
-4.999982e+09 -4.800042e+09 -4.952742e+09 -8.029764e+04 1.525547e+05 1.678311e+05
-4.311894e+09 -4.111403e+09 -4.262721e+09 1.907846e+04 -8.648100e+05 1.908742e+05
-4.294096e+09 -4.092983e+09 -4.248673e+09 -7.401561e+04 -9.354351e+05 3.293008e+05
-3.176813e+09 -2.976844e+09 -3.136874e+09 -6.086325e+03 -1.391868e+03 1.649653e+03
-3.963975e+09 -3.763328e+09 -3.919937e+09 -4.476881e+05 -1.508128e+06 8.863736e+05
-4.499432e+09 -4.298604e+09 -4.458836e+09 -2.863166e+05 -3.666492e+04 3.500768e+04
-4.669643e+09 -4.469919e+09 -4.625447e+09 -3.321185e+05 -4.992682e+05 5.477248e+05
-4.154099e+09 -3.954334e+09 -4.108862e+09 -5.017999e+05 -8.293149e+05 5.181098e+05
-4.229908e+09 -4.029721e+09 -4.189932e+09 -4.148815e+03 2.368948e+04 8.754576e+02
-4.897010e+09 -4.697556e+09 -4.857595e+09 4.433484e+04 -1.665953e+04 -5.395223e+03
-3.982751e+09 -3.782797e+09 -3.942932e+09 2.123940e+05 -4.390297e+04 -4.007749e+04
-4.696312e+09 -4.496160e+09 -4.656342e+09 -1.616612e+03 1.111407e+03 -3.226666e+03
-4.102925e+09 -3.902735e+09 -4.062960e+09 -1.838842e+04 2.215000e+04 -1.696482e+03
-3.765597e+09 -3.565444e+09 -3.725626e+09 -3.327158e+03 1.425143e+04 -3.105772e+03
-4.510740e+09 -4.310579e+09 -4.470770e+09 -5.756297e+02 5.473987e+03 -2.023470e+02
-4.907934e+09 -4.707842e+09 -4.867967e+09 -2.457573e+03 2.569673e-05 -5.855437e+02
-4.623070e+09 -4.422997e+09 -4.583103e+09 9.801046e+01 0.000000e+00 -1.523918e+03
-4.417482e+09 -4.217406e+09 -4.377520e+09 -2.087611e+03 2.183476e+03 -2.303624e+03
-3.885393e+09 -3.685319e+09 -3.845422e+09 -4.099240e+02 1.788848e+02 -1.378422e+03
-3.862976e+09 -3.662827e+09 -3.823004e+09 -3.404808e+03 9.956498e+03 -9.978837e+02
-4.968129e+09 -4.767974e+09 -4.928162e+09 -2.985769e+03 1.985686e+03 -4.641333e+02
-4.356064e+09 -4.155990e+09 -4.316098e+09 -4.256068e+02 8.935470e+02 -1.621825e+03
-3.479675e+09 -3.279600e+09 -3.439703e+09 -8.534767e+02 1.546721e+03 -3.735356e+03
-3.662866e+09 -3.462785e+09 -3.622904e+09 -1.136651e+04 1.078775e+04 -5.765018e+03
-3.856269e+09 -3.656125e+09 -3.816300e+09 -1.467713e+03 9.966068e+03 -4.052571e+03
-4.356178e+09 -4.156107e+09 -4.316216e+09 -4.017339e+02 2.584624e+03 -2.313726e+02
-4.897073e+09 -4.697002e+09 -4.857116e+09 -1.337407e+03 1.399023e+03 -3.341181e-05
-3.133932e+09 -2.934589e+09 -3.094266e+09 -1.510328e+04 1.848722e+04 -3.413739e+04
-2.075688e+09 -1.876031e+09 -2.035912e+09 -2.313471e+03 4.647493e+03 -1.588417e+05
-2.962428e+09 -2.762911e+09 -2.922867e+09 -1.813988e+04 1.073951e+04 -5.684951e+04
-2.471392e+09 -2.271952e+09 -2.431764e+09 2.614823e+04 9.965478e+03 -1.506546e+05
-1.870177e+09 -1.670336e+09 -1.830179e+09 -3.896144e+04 -1.204748e+04 -8.439057e+04
-4.436836e+09 -4.236769e+09 -4.396888e+09 -2.420437e+03 6.757602e+03 -6.699029e+02
-4.642799e+09 -4.442904e+09 -4.602933e+09 2.110142e+04 5.066988e+02 5.387112e+03
-4.936845e+09 -4.736772e+09 -4.896883e+09 -3.212844e+03 1.251052e+03 -5.659073e+01
-4.477127e+09 -4.276975e+09 -4.437226e+09 1.299028e+05 2.678086e+04 1.651927e+04
-4.616413e+09 -4.416365e+09 -4.576476e+09 2.512509e+04 3.449665e+03 3.535768e+03
-4.705028e+09 -4.505008e+09 -4.665077e+09 5.655924e+03 1.567711e+03 6.642325e+01
-4.148164e+09 -3.948166e+09 -4.108243e+09 3.382492e+04 4.379070e+03 1.097699e+04
-2.880178e+09 -2.680102e+09 -2.840206e+09 4.760380e+03 6.448919e+03 1.033468e+04
-4.998742e+09 -4.798732e+09 -4.958819e+09 2.974225e+04 -8.921330e+02 1.378878e+03
-1.674133e+09 -1.474078e+09 -1.634144e+09 -3.916388e+03 -8.180209e+04 3.150878e+04
-1.561274e+09 -1.361303e+09 -1.521306e+09 -7.408073e+03 -5.496459e+04 -7.077173e+03
-4.890082e+09 -4.690071e+09 -4.850131e+09 2.653273e+03 8.447234e-06 -3.465978e+02
-4.152717e+09 -3.952899e+09 -4.113036e+09 9.507195e+04 -4.942813e+04 -3.213140e+04
-4.549811e+09 -4.350160e+09 -4.510240e+09 1.292835e+05 -6.663477e+03 1.989748e+04
-4.023964e+09 -3.823863e+09 -3.984002e+09 1.152085e+04 8.051264e+03 3.125463e+03
-3.409599e+09 -3.209585e+09 -3.369644e+09 4.736777e+03 2.911515e+03 3.762777e+03
-2.026845e+09 -1.826734e+09 -1.986865e+09 -2.571018e+04 -6.872909e+04 3.920350e+04
-2.680095e+09 -2.480149e+09 -2.640273e+09 5.325787e+04 -5.720014e+04 -2.077593e+04
-4.664600e+09 -4.464619e+09 -4.624884e+09 2.044704e+05 -1.437985e+04 -1.614947e+04
-2.809948e+09 -2.609928e+09 -2.770068e+09 4.276030e+04 -6.548885e+04 -3.799518e+04
-3.678351e+09 -3.478423e+09 -3.638579e+09 5.241286e+04 -4.093862e+04 -2.469219e+04
-3.686542e+09 -3.486541e+09 -3.646592e+09 6.774402e+03 2.633094e+03 2.334268e+03
-4.991171e+09 -4.791174e+09 -4.951243e+09 2.297202e+04 8.281943e+01 1.520180e+03
-3.178540e+09 -2.978550e+09 -3.138595e+09 1.063585e+04 3.647653e+03 4.402501e+03
-3.729505e+09 -3.529518e+09 -3.689558e+09 5.655676e+03 1.255131e+03 1.355800e+03
-4.978883e+09 -4.778866e+09 -4.938934e+09 6.222184e+03 3.438247e+02 -1.023275e+03
-1.765450e+09 -1.565476e+09 -1.725505e+09 2.216012e+03 4.298352e+02 7.206908e+02
-4.276683e+09 -4.076503e+09 -4.236718e+09 -1.408788e+04 1.977501e+04 -3.605410e+03
-4.791307e+09 -4.591319e+09 -4.751364e+09 1.000507e+04 1.980032e+02 8.596093e+02
-3.692758e+09 -3.492621e+09 -3.652778e+09 -9.379850e+02 3.602664e+03 -1.666924e+03
-4.768465e+09 -4.568468e+09 -4.728517e+09 7.696821e+03 -1.177178e+02 1.117496e+03
-3.028686e+09 -2.828732e+09 -2.988753e+09 2.593386e+03 1.222319e+03 9.239165e+02
-3.431251e+09 -3.231098e+09 -3.391270e+09 9.149716e+03 1.813592e+04 -1.014702e+03
-2.642920e+09 -2.442957e+09 -2.602981e+09 9.360097e+02 3.069144e+02 -2.584427e+02
-3.700362e+09 -3.500400e+09 -3.660424e+09 2.085958e+03 8.634521e+02 2.733961e+02
-3.390195e+09 -3.190234e+09 -3.350258e+09 1.947399e+03 6.681039e+02 1.296164e+03
-1.553608e+09 -1.353550e+09 -1.513618e+09 -2.768663e+03 -6.137879e+04 2.385855e+04
-3.356200e+09 -3.156151e+09 -3.316249e+09 1.808051e+04 1.451513e+04 8.704003e+03
-4.998262e+09 -4.798090e+09 -4.958297e+09 1.194672e+03 5.159430e+03 -6.810082e+02
-1.632493e+09 -1.432445e+09 -1.592520e+09 7.958618e+02 -3.126786e+04 -1.516568e+03
-4.153229e+09 -3.953332e+09 -4.113401e+09 2.733738e+05 -3.533229e+04 -8.343545e+03
-3.961325e+09 -3.761502e+09 -3.921520e+09 2.498903e+05 -4.549635e+04 -4.167643e+04
-4.977762e+09 -4.778263e+09 -4.938306e+09 1.196641e+05 -2.498480e+04 9.118424e+02
-1.981847e+09 -1.781837e+09 -1.941891e+09 -1.625552e+04 -1.073278e+04 1.296388e+04
-4.769387e+09 -4.569763e+09 -4.729832e+09 1.522207e+05 -1.670299e+03 -1.277934e+04
-3.083742e+09 -2.883726e+09 -3.043800e+09 -1.498784e+04 -9.511806e+03 1.317088e+04
-1.585155e+09 -1.385109e+09 -1.545166e+09 -7.780399e+03 -3.511811e+04 2.315446e+04
-4.819507e+09 -4.619606e+09 -4.779639e+09 -1.940344e+04 7.028740e+02 4.146605e+03
-2.137943e+09 -1.937973e+09 -2.098000e+09 -1.010264e+03 -3.210914e+02 5.904792e+02
-3.665209e+09 -3.465251e+09 -3.625272e+09 -5.859881e+02 -2.127139e+02 3.597133e+02
-3.968982e+09 -3.769020e+09 -3.929053e+09 -9.258128e+03 -2.171431e+03 3.506314e+03
-3.847366e+09 -3.647426e+09 -3.807443e+09 -1.251752e+03 -3.196295e+02 1.714965e+02
-4.892296e+09 -4.692322e+09 -4.852355e+09 -1.256014e+03 5.231437e-06 -2.332463e+02
-3.965835e+09 -3.765911e+09 -3.925951e+09 -2.931128e+04 -4.630436e+03 1.201049e+04
-4.574751e+09 -4.374802e+09 -4.534828e+09 -8.088425e+03 -5.643707e+02 1.000341e+03
-4.143445e+09 -3.943527e+09 -4.103573e+09 -3.344237e+04 -8.372550e+03 1.103938e+04
-4.832315e+09 -4.632398e+09 -4.792439e+09 -2.822320e+04 -4.980852e+03 4.920239e+03
-5.000664e+09 -4.800752e+09 -4.960795e+09 -2.530872e+04 -2.677609e+03 2.075518e+03
-4.659300e+09 -4.459387e+09 -4.619421e+09 -1.936163e+04 -7.265390e+02 4.516814e+03
-4.975455e+09 -4.775489e+09 -4.935514e+09 -2.274809e+03 -3.718513e+01 2.154186e+02
-4.596812e+09 -4.396870e+09 -4.556893e+09 9.035163e+03 4.885529e+02 1.326456e+03
-4.622415e+09 -4.422453e+09 -4.582479e+09 -3.318271e+03 -3.867063e+00 1.219878e+03
-4.403667e+09 -4.203711e+09 -4.363733e+09 -2.424179e+03 -5.320350e+02 3.921900e+02
-2.961442e+09 -2.761466e+09 -2.921501e+09 -2.153759e+03 -1.351624e+03 2.099185e+03
-4.037570e+09 -3.837629e+09 -3.997650e+09 5.763321e+03 -1.724282e+02 2.702056e+03
-2.299703e+09 -2.099729e+09 -2.259766e+09 -1.138213e+04 -3.647358e+03 5.130373e+03
-4.123683e+09 -3.923724e+09 -4.083750e+09 -6.478200e+03 -2.544947e+02 1.859138e+03
-4.541160e+09 -4.341219e+09 -4.501240e+09 3.653035e+03 5.939174e+02 3.655215e+02
-3.946203e+09 -3.745660e+09 -3.905517e+09 -4.050676e+05 9.895285e+04 -1.104661e+04
-4.715638e+09 -4.515695e+09 -4.675715e+09 2.462051e+03 -3.431131e+02 8.254260e+02
-3.644885e+09 -3.444937e+09 -3.604958e+09 5.287400e+03 9.097720e+02 2.590278e+03
-2.123738e+09 -1.923631e+09 -2.083744e+09 -3.904825e+03 -2.232695e+04 1.153755e+04
-3.774106e+09 -3.574158e+09 -3.734180e+09 3.152177e+03 1.239634e+03 7.007319e+02
-4.998720e+09 -4.798539e+09 -4.958807e+09 -8.993915e+04 -6.385868e+03 9.065260e+02
-4.300314e+09 -4.100172e+09 -4.260427e+09 -1.593105e+05 -4.678434e+04 4.194567e+04
-3.233528e+09 -3.033404e+09 -3.193575e+09 -2.889640e+04 -4.231165e+04 2.576381e+04
-3.197083e+09 -2.997051e+09 -3.157139e+09 -1.513693e+04 -6.518293e+03 1.208480e+04
-4.944182e+09 -4.744161e+09 -4.904271e+09 -4.346465e+04 -1.976058e+03 2.778334e+03
-3.707512e+09 -3.507568e+09 -3.667589e+09 7.203481e+03 1.069023e+03 2.785044e+03
-4.612306e+09 -4.412040e+09 -4.572124e+09 3.545833e+05 -2.179804e+04 -1.488569e+04
-3.948363e+09 -3.748075e+09 -3.908401e+09 -1.503917e+05 -5.119144e+04 1.628387e+04
-4.971513e+09 -4.771522e+09 -4.931522e+09 3.429526e+05 -4.411191e+03 2.014219e+04
-3.961581e+09 -3.761532e+09 -3.921682e+09 -6.228325e+04 -2.159425e+04 1.653875e+04
-4.167056e+09 -3.967205e+09 -4.127225e+09 2.990252e+05 5.122850e+04 4.515259e+04
-4.775310e+09 -4.575060e+09 -4.735117e+09 4.375716e+05 1.275293e+04 4.494154e+04
-4.766925e+09 -4.567004e+09 -4.726865e+09 4.414866e+05 -6.288840e+04 2.938595e+04
-1.767412e+09 -1.567416e+09 -1.727459e+09 -8.076375e+03 -8.800888e+03 8.663794e+03
-4.080509e+09 -3.880520e+09 -4.040491e+09 4.175256e+05 4.266748e+04 3.716276e+04
-3.964240e+09 -3.764265e+09 -3.924354e+09 -4.826307e+04 -1.431215e+04 1.513112e+04
-4.835619e+09 -4.635641e+09 -4.795782e+09 -9.689317e+04 -1.268140e+04 1.161002e+03
-3.428473e+09 -3.228472e+09 -3.388555e+09 -3.365393e+04 -1.609220e+04 1.567155e+04
-4.813422e+09 -4.613339e+09 -4.772894e+09 -5.598465e+05 -4.524859e+04 -9.057862e+04
-2.627685e+09 -2.427689e+09 -2.587732e+09 9.681298e+02 5.025928e+02 2.115207e+03
-4.650150e+09 -4.450223e+09 -4.610291e+09 4.551233e+04 3.840683e+03 9.454202e+03
-4.993733e+09 -4.793754e+09 -4.953799e+09 1.606903e+04 5.441608e+02 6.367581e+02
-3.968648e+09 -3.768305e+09 -3.928570e+09 -3.362946e+05 -4.148833e+04 2.310852e+04
-4.475842e+09 -4.275865e+09 -4.435910e+09 1.695679e+04 2.553738e+03 2.021443e+03
-3.121843e+09 -2.921870e+09 -3.081899e+09 5.344390e+03 5.995011e+02 1.052684e+03
-4.328481e+09 -4.128536e+09 -4.288574e+09 2.346744e+04 3.340687e+03 5.219072e+03
-4.285722e+09 -4.085762e+09 -4.245562e+09 -4.982204e+05 -9.944800e+03 6.545585e+02
-4.825081e+09 -4.624777e+09 -4.784846e+09 -4.137773e+05 7.963331e+03 -4.192338e+04
-4.990596e+09 -4.790371e+09 -4.950216e+09 -4.444791e+05 3.525200e+04 -1.250615e+04
-4.131757e+09 -3.931672e+09 -4.091671e+09 -3.996890e+05 5.926032e+03 -7.336372e+04
-4.796737e+09 -4.596799e+09 -4.756828e+09 1.428976e+04 -7.784164e+02 2.136179e+03
-4.012327e+09 -3.812308e+09 -3.972387e+09 2.215205e+04 7.230557e+03 2.533771e+03
-4.355174e+09 -4.155670e+09 -4.315508e+09 -2.288603e+05 1.831168e+04 7.185731e+02
-2.000196e+09 -1.800129e+09 -1.960218e+09 9.226928e+03 -9.487836e+03 1.813655e+04
-4.465911e+09 -4.266334e+09 -4.426152e+09 -2.378131e+05 -2.303588e+04 5.136169e+04
-4.720276e+09 -4.520666e+09 -4.680676e+09 -1.684558e+05 -1.980842e+03 1.880752e+04
-4.167058e+09 -3.967086e+09 -4.127119e+09 7.193232e+03 9.118431e+02 1.059793e+03
-4.987966e+09 -4.787864e+09 -4.948103e+09 -1.004131e+05 9.462593e+03 -1.488767e+03
-4.478563e+09 -4.279176e+09 -4.439038e+09 -1.334725e+05 -3.033934e+03 3.864674e+04
-2.674762e+09 -2.474697e+09 -2.634792e+09 -7.129535e+03 1.880049e+04 -7.836158e+03
-4.969143e+09 -4.769074e+09 -4.929307e+09 -8.664444e+04 1.060075e+04 -7.949309e+03
-1.570588e+09 -1.370578e+09 -1.530591e+09 2.826480e+02 8.625044e+04 -4.748377e+04
-4.991775e+09 -4.791745e+09 -4.951949e+09 -8.670156e+04 8.714838e+03 -8.203938e+03
-4.529324e+09 -4.329840e+09 -4.489726e+09 -1.202907e+05 -1.283411e+04 4.184831e+04
-5.041673e+09 -4.842145e+09 -5.002033e+09 -1.893190e+05 -2.744031e+04 1.462017e+04
-2.044357e+09 -1.844364e+09 -2.004440e+09 -2.965594e+04 6.291044e+04 -3.582140e+04
-3.464068e+09 -3.263950e+09 -3.424090e+09 8.007106e+03 7.246598e+03 4.759075e+03
-4.695244e+09 -4.495133e+09 -4.655284e+09 6.934230e+03 -2.701606e+02 2.884321e+03
-4.623361e+09 -4.423243e+09 -4.583413e+09 2.213634e+04 3.194629e+03 2.843547e+03
-1.674005e+09 -1.473938e+09 -1.634014e+09 7.846322e+03 5.155135e+04 1.757900e+04
-3.944852e+09 -3.744762e+09 -3.904898e+09 2.451544e+04 1.260862e+04 9.541921e+03
-4.765401e+09 -4.565256e+09 -4.725441e+09 1.330507e+04 5.177615e+03 4.694067e+03
-2.512937e+09 -2.312924e+09 -2.472983e+09 6.555063e+03 3.075327e+03 4.036706e+03
-4.769612e+09 -4.569502e+09 -4.729658e+09 1.847421e+04 3.899281e+03 5.194539e+03
-2.221742e+09 -2.021732e+09 -2.181781e+09 2.138642e+03 1.485837e+03 2.532257e+03
-4.969107e+09 -4.768988e+09 -4.929148e+09 9.623359e+03 2.100905e+03 -1.106387e+03
-3.733683e+09 -3.533656e+09 -3.693731e+09 6.888348e+03 2.135514e+03 6.581067e+03
-2.373066e+09 -2.172902e+09 -2.333074e+09 1.879958e+04 -6.406856e+04 -1.471380e+04
-4.620733e+09 -4.420747e+09 -4.580794e+09 1.528380e+04 2.701740e+03 2.082682e+03
-4.986000e+09 -4.786004e+09 -4.946055e+09 1.248075e+04 5.732264e+02 -5.369261e+02
-2.033227e+09 -1.833225e+09 -1.993273e+09 1.074135e+04 6.065313e+03 4.909671e+03
-4.787217e+09 -4.586958e+09 -4.747260e+09 3.875565e+03 -9.070817e+03 9.605408e+02
-4.593470e+09 -4.393276e+09 -4.553528e+09 4.329102e+04 -1.116480e+04 -2.440227e+03
-3.923583e+09 -3.723577e+09 -3.883632e+09 2.204251e+03 8.738768e+01 2.339304e+03
-4.998396e+09 -4.797929e+09 -4.958355e+09 -1.088277e+05 3.156695e+04 -1.188213e+04
-4.481779e+09 -4.281301e+09 -4.441748e+09 -8.426344e+04 4.921340e+04 -5.465735e+03
-4.159107e+09 -3.958765e+09 -4.119125e+09 -1.588750e+05 6.237909e+04 -3.274268e+04
-4.123296e+09 -3.923184e+09 -4.083429e+09 -1.474714e+05 6.731391e+04 -2.670509e+04
-4.965886e+09 -4.765586e+09 -4.925932e+09 9.199883e+03 -1.981999e+04 -2.464027e+03
-5.006304e+09 -4.807396e+09 -4.962484e+09 -4.797013e+05 -1.181593e+05 1.218946e+05
-4.818111e+09 -4.617720e+09 -4.777347e+09 -5.395288e+05 2.072745e+04 8.640333e+04
-4.832427e+09 -4.632059e+09 -4.792362e+09 -2.723162e+05 2.516827e+04 -2.031171e+04
-4.997856e+09 -4.798098e+09 -4.958185e+09 -3.203470e+05 3.651560e+04 -1.717428e+04
-4.799561e+09 -4.599283e+09 -4.759608e+09 3.735444e+04 -2.151179e+04 -2.630709e+03
-4.176110e+09 -3.975432e+09 -4.135693e+09 -2.156235e+05 -4.212833e+04 -2.423955e+04
-4.304801e+09 -4.104379e+09 -4.264229e+09 -4.150141e+05 6.670516e+04 -2.165862e+04
-4.985690e+09 -4.785470e+09 -4.945830e+09 -2.105056e+05 3.685973e+04 -2.088402e+04
-4.311310e+09 -4.110812e+09 -4.271247e+09 3.718667e+04 -7.472727e+04 -1.439308e+04
-4.997200e+09 -4.796816e+09 -4.957229e+09 3.684652e+04 -2.891726e+04 -1.185570e+04
-4.709720e+09 -4.509830e+09 -4.670014e+09 -3.031623e+04 1.361191e+04 6.087328e+03
-4.984557e+09 -4.784884e+09 -4.945026e+09 -1.329606e+05 2.735226e+04 -3.323086e+04
-3.956106e+09 -3.756227e+09 -3.916379e+09 -7.606233e+04 2.812219e+04 -1.410071e+04
-3.895209e+09 -3.695418e+09 -3.855547e+09 -1.200832e+05 4.333579e+04 -3.516604e+04
-4.455632e+09 -4.255792e+09 -4.415908e+09 -1.760696e+05 2.923881e+04 -2.599366e+04
-4.990363e+09 -4.790185e+09 -4.950004e+09 5.227629e+05 -4.446351e+04 -2.328979e+04
-5.005378e+09 -4.805366e+09 -4.965481e+09 4.106475e+05 -4.024423e+04 -2.117340e+04
-3.955249e+09 -3.755773e+09 -3.915584e+09 3.023310e+05 5.315166e+04 1.778552e+04
-5.012338e+09 -4.812390e+09 -4.972594e+09 2.847045e+05 -2.313487e+04 -1.877919e+04
-4.162968e+09 -3.963258e+09 -4.123339e+09 -1.185104e+05 5.392035e+04 -4.550445e+04
-4.145617e+09 -3.945559e+09 -4.105500e+09 4.259029e+05 -1.083442e+04 -5.983822e+04
-4.815677e+09 -4.616232e+09 -4.775788e+09 3.978292e+05 7.248475e+03 7.693713e+04
-4.904150e+09 -4.704375e+09 -4.864508e+09 2.149683e+05 -2.900905e+04 -2.592597e+04
-3.022254e+09 -2.822275e+09 -2.982411e+09 1.139064e+05 -7.214865e+04 -4.560345e+04
-4.991145e+09 -4.790398e+09 -4.950505e+09 4.155408e+05 -2.641563e+04 -1.664217e+04
-3.822209e+09 -3.622306e+09 -3.782466e+09 -3.238172e+04 5.041149e+04 -1.578570e+04
-4.478480e+09 -4.278141e+09 -4.438521e+09 3.086709e+05 -5.923523e+04 -2.430679e+04
-4.627922e+09 -4.427993e+09 -4.588176e+09 -7.568238e+04 2.375079e+04 3.967742e+02
-3.782321e+09 -3.582133e+09 -3.742369e+09 -1.204054e+04 -1.595878e+04 8.953451e+03
-4.705075e+09 -4.504878e+09 -4.665129e+09 -1.161520e+04 -3.818234e+03 -6.416306e+02
-5.005481e+09 -4.805442e+09 -4.965522e+09 3.444667e+05 -3.672451e+04 -9.710640e+03
-4.338139e+09 -4.138224e+09 -4.298227e+09 3.164780e+05 -7.865048e+04 -4.549014e+04
-4.168396e+09 -3.968362e+09 -4.128581e+09 2.125941e+05 -3.603281e+04 -2.062866e+04
-4.254419e+09 -4.054218e+09 -4.214476e+09 -2.554581e+04 -3.112393e+04 5.901793e+03
-4.294436e+09 -4.094468e+09 -4.254545e+09 -4.465737e+04 -7.582734e+03 1.143003e+04
-4.130444e+09 -3.930465e+09 -4.090550e+09 -4.399466e+04 -7.756869e+03 1.807465e+04
-4.986880e+09 -4.786900e+09 -4.946983e+09 -4.101057e+04 -2.117899e+03 2.325134e+03
-4.984660e+09 -4.784703e+09 -4.944781e+09 -4.717920e+04 -4.054682e+03 5.583926e+03
-3.975602e+09 -3.775607e+09 -3.935699e+09 -3.921982e+04 -1.526061e+04 1.323008e+04
-3.166766e+09 -2.966829e+09 -3.126963e+09 5.317390e+04 -7.431644e+04 -3.607429e+04
-4.562451e+09 -4.362444e+09 -4.522528e+09 -2.573084e+04 -3.892486e+03 3.991677e+03
-1.861639e+09 -1.661654e+09 -1.821691e+09 -9.527252e+03 -6.985637e+03 9.395965e+03
-4.099366e+09 -3.899454e+09 -4.059627e+09 4.238486e+04 -3.646980e+04 -1.115059e+04
-4.135730e+09 -3.935822e+09 -4.095991e+09 2.015591e+05 -5.106110e+04 -5.079346e+04
-2.729082e+09 -2.529193e+09 -2.689280e+09 3.855005e+04 -6.358376e+04 -1.885726e+04
-4.507128e+09 -4.307347e+09 -4.467492e+09 1.262914e+05 -1.712051e+04 -1.590190e+04
-1.861191e+09 -1.661164e+09 -1.821260e+09 7.364646e+04 -8.471815e+04 -5.043617e+04
-4.981001e+09 -4.780980e+09 -4.941109e+09 -5.437677e+04 -1.792018e+03 4.461346e+03
-4.319945e+09 -4.119976e+09 -4.280086e+09 -7.167598e+04 -1.432424e+04 1.925471e+04
-4.697261e+09 -4.497383e+09 -4.657568e+09 3.312183e+04 -1.431544e+04 5.753020e+03
-4.659288e+09 -4.459169e+09 -4.619411e+09 -1.230813e+05 -1.625731e+04 8.390460e+03
-4.651984e+09 -4.451940e+09 -4.612134e+09 -1.246369e+05 -1.797609e+04 1.151233e+04
-4.705921e+09 -4.506561e+09 -4.666562e+09 -2.907335e+04 5.950197e+03 -5.913747e+03
-2.203614e+09 -2.003700e+09 -2.163753e+09 1.349697e+04 -6.610068e+04 -4.308483e+04
-4.699281e+09 -4.499457e+09 -4.659623e+09 4.564793e+04 -1.557548e+04 -1.295072e+04
-4.806845e+09 -4.606690e+09 -4.766881e+09 -1.533000e+04 6.817222e+03 5.088415e+02
-4.999690e+09 -4.799426e+09 -4.959772e+09 -1.425910e+05 -1.165546e+04 3.545702e+02
-4.989005e+09 -4.788816e+09 -4.949113e+09 -2.096139e+05 -3.357229e+04 2.467780e+04
-4.439668e+09 -4.239538e+09 -4.399700e+09 -3.227646e+03 1.202899e+03 -3.134182e+03
-4.132393e+09 -3.932280e+09 -4.092530e+09 -1.564564e+05 -5.229633e+04 4.713118e+04
-3.462634e+09 -3.262520e+09 -3.422657e+09 -5.057158e+03 4.342374e+03 -6.472830e+03
-3.961052e+09 -3.761157e+09 -3.921194e+09 -2.126024e+04 -3.936404e+03 1.658097e+04
-4.028855e+09 -3.828713e+09 -3.988894e+09 -1.776976e+04 1.433844e+04 -8.304209e+03
-4.713538e+09 -4.513390e+09 -4.673569e+09 -5.238563e+03 2.377378e+03 1.168841e+03
-4.499379e+09 -4.299536e+09 -4.459565e+09 -7.368083e+03 -1.212578e+03 1.923404e+04
-4.817670e+09 -4.617878e+09 -4.777916e+09 -2.757306e+04 -3.430330e+02 8.186195e+03
-4.013252e+09 -3.813826e+09 -3.973858e+09 -1.264911e+04 2.671034e+04 -3.683601e+04
-3.933172e+09 -3.733898e+09 -3.893738e+09 -1.946542e+04 1.409885e+04 -8.104466e+04
-4.317074e+09 -4.117184e+09 -4.277210e+09 -1.870428e+04 -3.686696e+03 1.251052e+04
-3.256032e+09 -3.056679e+09 -3.216475e+09 -1.256951e+04 9.784362e+03 -1.309474e+05
-4.794278e+09 -4.594867e+09 -4.754885e+09 -8.284764e+04 2.283844e+04 -9.564717e+03
-4.707774e+09 -4.508446e+09 -4.668432e+09 -4.519794e+03 -2.958231e+03 5.082410e+03
-3.817413e+09 -3.617257e+09 -3.777466e+09 -8.086590e+03 -1.147135e+04 1.243377e+04
-4.610975e+09 -4.410905e+09 -4.571170e+09 -1.397207e+05 2.079332e+04 -1.606839e+04
-4.645014e+09 -4.444488e+09 -4.604875e+09 -3.218371e+05 -9.976250e+03 2.408607e+04
-4.823539e+09 -4.623189e+09 -4.780239e+09 -6.292529e+05 -2.483136e+03 5.517243e+05
-4.138640e+09 -3.938318e+09 -4.098362e+09 -3.874539e+05 2.179338e+04 3.688060e+04
-3.090420e+09 -2.891023e+09 -3.050803e+09 6.492035e+04 -5.059184e+04 -9.274104e+04
-3.963940e+09 -3.763817e+09 -3.924028e+09 -2.277259e+05 5.740291e+04 -3.786719e+04
-4.633864e+09 -4.433835e+09 -4.593669e+09 -4.346067e+05 -3.172389e+03 4.897499e+03
-4.694154e+09 -4.494003e+09 -4.654215e+09 -1.198250e+04 8.544256e+02 5.698223e+03
-4.811596e+09 -4.611422e+09 -4.771668e+09 -4.180468e+04 -7.834771e+03 -2.575957e+03
-4.297344e+09 -4.097862e+09 -4.256638e+09 -4.874595e+05 -8.134310e+04 -7.508514e+04
-4.996129e+09 -4.797063e+09 -4.954619e+09 -4.568050e+05 -3.211575e+04 -3.846450e+03
-3.848549e+09 -3.648390e+09 -3.808601e+09 -3.059377e+04 -1.362663e+04 5.671313e+03
-3.731339e+09 -3.531161e+09 -3.691388e+09 -1.434728e+04 -1.268092e+04 5.192597e+03
-3.960604e+09 -3.760823e+09 -3.920863e+09 -2.947281e+04 -3.761180e+03 3.535866e+04
-4.782944e+09 -4.582740e+09 -4.743001e+09 -2.168161e+04 -8.486308e+03 6.438452e+03
-4.285913e+09 -4.086158e+09 -4.246202e+09 4.970775e+04 1.243222e+04 3.762448e+04
-3.960287e+09 -3.760738e+09 -3.920656e+09 7.352360e+04 1.341594e+04 4.745962e+04
-4.799445e+09 -4.599250e+09 -4.759506e+09 -3.677416e+04 -5.549159e+03 1.132180e+03
-4.998892e+09 -4.799341e+09 -4.959326e+09 -8.582221e+04 -8.766210e+03 3.128189e+04
-4.377056e+09 -4.177435e+09 -4.337427e+09 -1.636516e+05 -1.873161e+04 6.328748e+04
-3.964772e+09 -3.765342e+09 -3.925194e+09 9.194730e+04 -9.159685e+03 2.568299e+04
-4.133800e+09 -3.934377e+09 -4.094099e+09 1.541195e+05 8.440940e+02 2.192781e+04
-4.994174e+09 -4.794206e+09 -4.954243e+09 1.388972e+04 3.553916e+02 7.831053e+02
-4.324889e+09 -4.125138e+09 -4.285234e+09 -1.632924e+05 -1.827853e+04 4.650987e+04
-4.994490e+09 -4.794913e+09 -4.954893e+09 -1.315105e+05 -1.399025e+04 2.527874e+04
-4.143003e+09 -3.942951e+09 -4.103117e+09 8.632086e+04 2.413299e+04 2.756578e+04
-4.993122e+09 -4.793184e+09 -4.953244e+09 4.218630e+04 2.886949e+03 2.953529e+03
-4.793459e+09 -4.593764e+09 -4.753802e+09 -1.091463e+05 -1.129242e+03 1.077766e+04
-4.488029e+09 -4.288230e+09 -4.448293e+09 -9.065874e+04 -9.684345e+03 2.748794e+04
-3.960643e+09 -3.760720e+09 -3.920775e+09 3.606242e+04 7.182509e+03 1.754254e+04
-4.647394e+09 -4.447516e+09 -4.607541e+09 1.441520e+04 -4.162785e+01 7.023049e+03
-3.932958e+09 -3.733216e+09 -3.893246e+09 -7.922704e+04 -9.805742e+03 4.768572e+04
-4.817789e+09 -4.617888e+09 -4.777954e+09 5.187710e+04 -1.296138e+03 6.981135e+03
-4.616944e+09 -4.416729e+09 -4.577003e+09 2.899892e+04 -1.196953e+03 -3.609357e+03
-4.775003e+09 -4.574824e+09 -4.735074e+09 3.862927e+04 -1.196893e+04 -1.918852e+02
-3.961510e+09 -3.760831e+09 -3.921017e+09 3.827239e+05 2.010737e+05 1.118249e+05
-4.463435e+09 -4.263296e+09 -4.423502e+09 2.233465e+04 -1.614734e+04 -5.306010e+03
-4.430652e+09 -4.230483e+09 -4.390706e+09 6.702012e+03 -1.512232e+03 -5.321909e+03
-4.825164e+09 -4.624645e+09 -4.784784e+09 3.801502e+05 -2.157409e+04 2.562242e+04
-4.108092e+09 -3.906976e+09 -4.067358e+09 -5.226268e+04 -3.433554e+03 2.892818e+04
-4.082988e+09 -3.882806e+09 -4.043030e+09 1.414975e+04 -1.164119e+04 -8.555833e+03
-3.719596e+09 -3.519445e+09 -3.679645e+09 1.338271e+04 -1.342740e+04 -1.321204e+04
-4.173207e+09 -3.972229e+09 -4.132404e+09 2.275340e+05 -1.106509e+05 1.010352e+04
-4.636426e+09 -4.436191e+09 -4.595884e+09 -5.243898e+05 6.893700e+04 -5.039078e+04
-3.966583e+09 -3.766639e+09 -3.925952e+09 -5.568789e+05 1.490269e+05 -2.127424e+05
-5.032408e+09 -4.832557e+09 -4.992648e+09 -8.961090e+04 -1.094707e+04 5.096004e+03
-4.133460e+09 -3.934300e+09 -4.093594e+09 -6.212731e+04 1.160295e+04 -1.093537e+05
-4.704504e+09 -4.504341e+09 -4.664563e+09 1.024225e+04 7.060343e+02 -4.212726e+03
-1.990641e+09 -1.790568e+09 -1.950653e+09 -4.330430e+03 1.900446e+04 -8.143350e+03
-5.041611e+09 -4.842253e+09 -5.002044e+09 -1.768610e+05 -2.796924e+04 1.422630e+04
-4.130023e+09 -3.930366e+09 -4.090359e+09 5.338287e+02 -3.388217e+03 3.767985e+04
-3.029065e+09 -2.829001e+09 -2.989112e+09 -1.325878e+04 2.321763e+04 -7.708925e+03
-4.618036e+09 -4.418525e+09 -4.578388e+09 -3.126161e+05 -4.191215e+04 7.992721e+04
-4.151649e+09 -3.951559e+09 -4.111716e+09 2.761331e+05 3.068827e+04 2.880770e+04
-3.910444e+09 -3.710372e+09 -3.870499e+09 -1.458018e+04 1.122505e+04 -6.434780e+03
-3.047349e+09 -2.847276e+09 -3.007398e+09 -1.483962e+04 2.925898e+04 -1.702740e+04
-2.969076e+09 -2.768995e+09 -2.929106e+09 -1.257219e+04 1.664782e+04 -7.490225e+03
-3.154508e+09 -2.954426e+09 -3.114560e+09 -2.716808e+04 3.360080e+04 -1.236762e+04
-3.798464e+09 -3.598380e+09 -3.758513e+09 -1.746790e+04 1.726400e+04 -5.730256e+03
-3.821107e+09 -3.621039e+09 -3.781172e+09 5.653523e+03 -1.405049e+04 -3.256852e+03
-4.310780e+09 -4.110236e+09 -4.270720e+09 6.309559e+04 7.275453e+04 1.063571e+04
-1.842452e+09 -1.642397e+09 -1.802478e+09 5.409610e+03 -2.216688e+04 -4.534691e+03
-3.966312e+09 -3.765836e+09 -3.926153e+09 1.800394e+05 2.891861e+04 4.413625e+02
-2.555818e+09 -2.355756e+09 -2.515858e+09 1.448702e+03 -2.295650e+04 -4.602738e+03
-4.613124e+09 -4.413870e+09 -4.573690e+09 -7.668028e+04 -3.857265e+02 4.028392e+03
-1.870852e+09 -1.670805e+09 -1.830882e+09 -2.556185e+03 -2.560876e+04 -6.294299e+03
-3.756339e+09 -3.556280e+09 -3.716422e+09 1.273746e+04 -1.826198e+04 -4.991504e+03
-4.667944e+09 -4.467612e+09 -4.627997e+09 1.807577e+05 1.323347e+04 7.623268e+03
-2.080901e+09 -1.880852e+09 -2.040933e+09 5.450972e+03 -3.261209e+04 -1.203128e+04
-4.832821e+09 -4.632493e+09 -4.792798e+09 2.594295e+05 3.630878e+04 5.354012e+03
-4.489481e+09 -4.289217e+09 -4.449549e+09 2.932910e+05 3.821767e+04 2.744899e+04
-3.950308e+09 -3.749311e+09 -3.907675e+09 5.421718e+05 3.997036e+05 9.550081e+04
-3.960590e+09 -3.760083e+09 -3.919278e+09 5.370268e+05 9.071899e+04 8.671691e+04
-4.159331e+09 -3.958507e+09 -4.111741e+09 4.593429e+05 1.663449e+06 -2.085507e+05
-4.129807e+09 -3.931317e+09 -4.087610e+09 -1.398076e+05 -5.708417e+04 6.761518e+05
-4.145765e+09 -3.946467e+09 -4.106222e+09 2.077888e+05 -6.249960e+03 -6.839796e+04
-3.048219e+09 -2.848176e+09 -3.008295e+09 6.926107e+03 -2.939674e+04 -7.903187e+03
-4.833336e+09 -4.633929e+09 -4.785426e+09 -9.385864e+04 -1.489937e+04 4.547403e+05
-4.292932e+09 -4.094509e+09 -4.247612e+09 1.558147e+05 -1.261495e+05 8.936704e+05
-4.997950e+09 -4.798538e+09 -4.949699e+09 -1.674828e+05 -2.134969e+05 3.806024e+05
-2.560355e+09 -2.360306e+09 -2.520408e+09 5.715552e+02 -3.115549e+04 -3.617874e+03
-4.463860e+09 -4.263774e+09 -4.423913e+09 -1.693279e+04 6.911134e+03 -3.062272e+03
-3.381055e+09 -3.180971e+09 -3.341090e+09 -1.528047e+04 1.529287e+04 -7.984319e+03
-4.313423e+09 -4.113749e+09 -4.263272e+09 3.427082e+05 6.880975e+05 4.495853e+05
-4.499729e+09 -4.299531e+09 -4.449427e+09 2.339027e+05 1.854316e+05 2.879978e+05
-4.839256e+09 -4.639060e+09 -4.793092e+09 4.634333e+05 4.685298e+05 1.423006e+03
-4.636974e+09 -4.437476e+09 -4.591546e+09 4.617344e+05 3.448413e+05 6.281857e+05
-5.000218e+09 -4.800340e+09 -4.952865e+09 7.511090e+04 8.573673e+04 2.516544e+05
-3.973806e+09 -3.773024e+09 -3.929092e+09 7.912056e+05 8.973952e+05 5.537084e+05
-2.271958e+09 -2.071885e+09 -2.231982e+09 -1.844947e+04 3.631106e+04 -1.753152e+04
-4.637188e+09 -4.436658e+09 -4.597070e+09 -1.600213e+05 -3.170566e+03 2.181125e+03
-4.644412e+09 -4.444046e+09 -4.604072e+09 -4.014040e+05 3.978101e+04 -3.053228e+04
-3.962776e+09 -3.762189e+09 -3.922335e+09 -3.070997e+05 3.498539e+04 -3.904671e+04
-3.962757e+09 -3.762080e+09 -3.922329e+09 -2.268091e+05 5.708117e+04 2.791625e+04
-4.479626e+09 -4.279675e+09 -4.439697e+09 -3.535372e+03 -7.136971e+02 2.718866e+02
-4.288959e+09 -4.088182e+09 -4.248298e+09 -3.527826e+05 -3.983118e+04 -6.218202e+03
-4.646601e+09 -4.445489e+09 -4.604570e+09 -3.969277e+05 2.073573e+05 -1.150072e+05
-4.833473e+09 -4.632226e+09 -4.791956e+09 9.581308e+04 -7.785735e+04 7.798126e+04
-3.708231e+09 -3.508281e+09 -3.668300e+09 -2.200037e+03 -1.447122e+03 1.361307e+02
-3.660875e+09 -3.460932e+09 -3.620950e+09 -1.910547e+03 -5.214788e+02 8.726847e+02
-4.997752e+09 -4.798265e+09 -4.948937e+09 -3.710284e+04 -1.395939e+05 -1.909588e+05
-3.411365e+09 -3.211417e+09 -3.371436e+09 -1.850145e+03 -1.292771e+03 1.232982e+03
-3.614916e+09 -3.414975e+09 -3.574994e+09 -4.574283e+03 -1.051590e+03 2.748663e+03
-2.636391e+09 -2.436459e+09 -2.596470e+09 -1.068814e+03 -1.136173e+03 1.621087e+03
-3.675407e+09 -3.475472e+09 -3.635490e+09 -4.477982e+03 -8.002728e+02 3.256629e+03
-3.944894e+09 -3.744965e+09 -3.904981e+09 -4.445709e+03 -9.769346e+01 2.969330e+03
-3.958324e+09 -3.759110e+09 -3.918594e+09 8.693078e+04 2.539059e+04 -7.301139e+04
-5.006505e+09 -4.805359e+09 -4.965157e+09 2.398412e+05 3.966366e+04 -1.344234e+04
-4.985498e+09 -4.785110e+09 -4.937810e+09 1.281007e+05 -1.038470e+05 -1.557513e+04
-4.477689e+09 -4.277286e+09 -4.431819e+09 5.208840e+05 -1.052285e+06 -5.275687e+05
-2.993644e+09 -2.793717e+09 -2.953731e+09 -3.532801e+03 -3.022617e+03 5.688401e+03
-3.219595e+09 -3.019512e+09 -3.179695e+09 6.441234e+04 -4.568612e+04 -1.987000e+04
-3.305183e+09 -3.105252e+09 -3.265268e+09 -5.889658e+03 -1.914089e+03 4.447901e+03
-3.413922e+09 -3.213849e+09 -3.373991e+09 -4.102465e+04 -2.918642e+04 2.592288e+04
-3.996358e+09 -3.796284e+09 -3.956440e+09 -4.854825e+04 -1.765489e+04 7.271754e+03
-4.417580e+09 -4.217489e+09 -4.377684e+09 -7.539200e+04 -1.729953e+04 1.172934e+04
-4.842326e+09 -4.642159e+09 -4.802407e+09 -6.116379e+04 -1.735507e+04 1.106361e+04
-4.392086e+09 -4.192018e+09 -4.352160e+09 3.722228e+03 -5.322435e+03 -2.258883e+03
-4.364920e+09 -4.164826e+09 -4.324990e+09 -1.064827e+04 -5.991130e+03 7.105441e+03
-4.573911e+09 -4.373840e+09 -4.533994e+09 -3.143046e+04 -1.375690e+04 3.604284e+03
-4.998733e+09 -4.798584e+09 -4.958821e+09 -6.814710e+04 -1.078602e+04 6.966012e+03
-3.559547e+09 -3.359382e+09 -3.519602e+09 4.840453e+04 -3.778533e+04 -2.191329e+04
-4.730703e+09 -4.530619e+09 -4.690796e+09 -5.277793e+04 -7.774606e+03 1.128681e+04
-4.597995e+09 -4.397900e+09 -4.558059e+09 7.803153e+03 -2.378731e+03 -3.725586e+03
-4.213844e+09 -4.013918e+09 -4.173937e+09 -5.051587e+03 -5.860079e+02 3.089584e+03
-4.603581e+09 -4.403509e+09 -4.563644e+09 -5.795414e+02 0.000000e+00 -2.413389e+03
-1.671785e+09 -1.471857e+09 -1.631848e+09 3.144329e+03 2.571513e+04 -4.174793e+04
-1.605486e+09 -1.405531e+09 -1.565468e+09 8.881228e+03 4.624343e+04 -5.421484e+04
-4.703229e+09 -4.503304e+09 -4.663319e+09 -1.872779e+03 5.477326e+02 8.137114e+02
-4.045414e+09 -3.845490e+09 -4.005503e+09 -2.370584e+03 -2.913538e+02 1.358584e+03
-1.605200e+09 -1.405232e+09 -1.565176e+09 1.087516e+03 1.637958e+03 -7.272738e+04
-4.797052e+09 -4.597124e+09 -4.757143e+09 -5.641881e+03 -1.678167e+03 3.368449e+02
-4.520630e+09 -4.320701e+09 -4.480717e+09 -2.697833e+03 -4.057618e+02 7.432813e+02
-4.977087e+09 -4.777161e+09 -4.937177e+09 -2.221333e+03 4.094744e+02 6.084233e+01
-2.619580e+09 -2.419924e+09 -2.579929e+09 -4.252495e+03 -5.133034e+03 1.113677e+04
-4.529984e+09 -4.330033e+09 -4.486308e+09 -7.694713e+05 1.821748e+05 -3.724376e+05
-1.523498e+09 -1.323537e+09 -1.483479e+09 -1.074162e+04 -3.045611e+04 -3.764655e+04
-1.701460e+09 -1.501523e+09 -1.661521e+09 1.015538e+03 1.846333e+03 -4.516717e+04
-4.701215e+09 -4.500996e+09 -4.655509e+09 -3.490486e+05 3.634980e+05 -1.987421e+05
-4.014203e+09 -3.813193e+09 -3.969866e+09 -4.715095e+05 1.353463e+06 -3.700873e+05
-1.961798e+09 -1.762022e+09 -1.922015e+09 6.851892e+04 -6.376974e+04 -1.044038e+05
-2.232271e+09 -2.032542e+09 -2.192493e+09 -4.101482e+03 1.293574e+04 -5.993618e+04
-3.424181e+09 -3.224581e+09 -3.384613e+09 8.053129e+03 -2.592805e+04 3.495823e+03
-3.486971e+09 -3.287504e+09 -3.447482e+09 7.955102e+04 -2.658385e+02 -2.011085e+04
-2.340767e+09 -2.141108e+09 -2.300906e+09 -1.884379e+04 -1.687125e+04 -1.387120e+05
-1.636134e+09 -1.436171e+09 -1.596177e+09 -4.472799e+02 5.727706e+04 3.469194e+03
-3.672884e+09 -3.473035e+09 -3.633167e+09 -6.806100e+04 4.343488e+04 -2.444832e+04
-2.593181e+09 -2.393290e+09 -2.553364e+09 -5.494029e+03 6.679815e+04 -2.326894e+03
-4.863827e+09 -4.662673e+09 -4.820322e+09 -4.183344e+05 4.100798e+05 -1.267643e+05
-4.889866e+09 -4.688760e+09 -4.845179e+09 -1.732470e+05 2.230698e+05 1.058047e+05
-4.530141e+09 -4.329611e+09 -4.487513e+09 -5.616775e+05 3.516983e+05 -1.685818e+05
-3.182411e+09 -2.982418e+09 -3.142587e+09 -1.067851e+05 9.333433e+04 -6.392282e+04
-1.920826e+09 -1.720791e+09 -1.880866e+09 -1.122272e+04 4.409732e+04 -7.029616e+03
-3.889755e+09 -3.689706e+09 -3.849829e+09 -2.092596e+04 -8.070857e+03 9.340117e+03
-3.027460e+09 -2.827411e+09 -2.987513e+09 -1.447736e+04 -1.189967e+04 1.538553e+04
-4.413831e+09 -4.213749e+09 -4.373898e+09 -5.347857e+03 -1.503346e+03 7.774026e+03
-4.976542e+09 -4.776494e+09 -4.936685e+09 -4.772747e+04 7.920583e+03 -6.094022e+03
-2.866169e+09 -2.666123e+09 -2.826217e+09 -5.763848e+03 -5.928672e+03 1.311890e+04
-3.770847e+09 -3.570879e+09 -3.731038e+09 -2.652956e+04 4.477176e+04 -1.101904e+04
-4.507275e+09 -4.307175e+09 -4.467320e+09 -1.727169e+04 5.480525e+03 -3.320545e+03
-4.704418e+09 -4.504362e+09 -4.664503e+09 -1.070226e+04 6.012504e+03 -1.967729e+03
-3.358430e+09 -3.158339e+09 -3.318485e+09 -2.466485e+04 -1.478699e+04 1.202276e+04
-4.435928e+09 -4.236579e+09 -4.396595e+09 -1.479067e+03 3.652625e+02 7.887023e+03
-2.713045e+09 -2.512966e+09 -2.673084e+09 -3.223559e+04 -3.444567e+04 2.177615e+04
-3.456759e+09 -3.256740e+09 -3.416884e+09 -1.954581e+04 3.831342e+04 -7.825595e+03
-2.778209e+09 -2.578140e+09 -2.738256e+09 -1.660438e+04 -2.622029e+04 2.116714e+04
-3.388840e+09 -3.188845e+09 -3.348987e+09 -9.410174e+03 4.638023e+04 -1.702531e+03
-2.965491e+09 -2.765411e+09 -2.925516e+09 -2.855388e+03 1.058963e+04 -6.657407e+03
-3.037857e+09 -2.837805e+09 -2.997931e+09 -2.419746e+04 3.529896e+04 -1.203507e+04
-4.985485e+09 -4.785311e+09 -4.945524e+09 -2.436639e+04 3.018422e+03 -5.024345e+01
-4.809175e+09 -4.609002e+09 -4.769207e+09 -8.416954e+03 7.559356e+03 2.183881e+03
-3.142155e+09 -2.942026e+09 -3.102182e+09 -1.201738e+04 4.201468e+04 -1.994494e+04
-3.266691e+09 -3.066537e+09 -3.226727e+09 -2.367663e+04 4.708731e+04 -1.185120e+04
-3.027080e+09 -2.826928e+09 -2.987115e+09 -1.896206e+04 5.078017e+04 -1.523234e+04
-3.518286e+09 -3.318144e+09 -3.478316e+09 -1.033943e+04 2.908805e+04 -4.850733e+03
-3.961037e+09 -3.760849e+09 -3.921072e+09 -2.253991e+04 2.755558e+04 -3.730262e+03
-4.386606e+09 -4.186600e+09 -4.346654e+09 2.250430e+03 4.439536e+02 1.974967e+03
-4.633519e+09 -4.433425e+09 -4.593637e+09 5.981121e+04 -1.403016e+04 -8.244922e+03
-1.624589e+09 -1.424530e+09 -1.584609e+09 -5.059569e+02 -9.957830e+03 -5.384034e+03
-1.924210e+09 -1.724135e+09 -1.884245e+09 1.755717e+04 -5.095557e+04 -2.762273e+04
-1.624592e+09 -1.424530e+09 -1.584611e+09 2.209874e+03 -1.032092e+04 -4.104531e+03
-4.248128e+09 -4.048133e+09 -4.208184e+09 1.340047e+04 1.710405e+03 2.038885e+03
-4.785471e+09 -4.585461e+09 -4.745530e+09 1.534742e+04 3.088731e+03 5.756333e+01
-4.985345e+09 -4.785187e+09 -4.945381e+09 -1.040682e+04 3.185672e+03 -1.408158e+03
-3.537648e+09 -3.337512e+09 -3.497669e+09 -5.042269e+02 3.622676e+03 -1.554803e+03
-4.052577e+09 -3.852573e+09 -4.012637e+09 1.796048e+04 5.661404e+03 2.521670e+03
-3.778677e+09 -3.578675e+09 -3.738726e+09 4.172731e+03 6.896516e+02 3.626801e+03
-4.475405e+09 -4.275395e+09 -4.435456e+09 6.903548e+03 5.658962e+02 1.774498e+03
-4.803704e+09 -4.603506e+09 -4.763739e+09 -1.180859e+04 9.386321e+03 -5.124360e+03
-4.660461e+09 -4.460458e+09 -4.620510e+09 3.436822e+03 -1.830652e+02 9.610427e+02
-2.308026e+09 -2.107947e+09 -2.268054e+09 2.052525e+04 -4.327475e+04 -2.129161e+04
-3.953214e+09 -3.753127e+09 -3.913285e+09 2.353477e+04 -1.483289e+04 -8.229877e+03
-3.364335e+09 -3.164216e+09 -3.324395e+09 2.212245e+04 -2.741833e+04 -1.873371e+04
-2.136926e+09 -1.936827e+09 -2.096933e+09 1.946365e+03 1.157785e+04 5.797576e+03
-2.720743e+09 -2.520593e+09 -2.680762e+09 -3.220395e+03 5.064596e+04 -1.220694e+04
-2.209175e+09 -2.009091e+09 -2.169193e+09 -8.785570e+03 2.366355e+04 -8.807342e+03
-3.011559e+09 -2.811472e+09 -2.971602e+09 1.376639e+04 -3.456830e+04 -1.896890e+04
-4.978877e+09 -4.778867e+09 -4.938933e+09 1.296116e+04 2.575123e+03 2.503594e+03
-4.437482e+09 -4.237332e+09 -4.397513e+09 -1.308217e+03 1.489824e+03 -1.791528e+03
-3.634393e+09 -3.434291e+09 -3.594424e+09 3.617089e+03 3.097204e+03 4.056184e+03
-4.461180e+09 -4.261089e+09 -4.421248e+09 1.373361e+04 -6.458031e+03 -4.438522e+03
-3.803665e+09 -3.603547e+09 -3.763693e+09 -5.529516e+03 6.019510e+03 -7.499483e+03
-4.227549e+09 -4.027480e+09 -4.187615e+09 -1.622050e+04 1.372646e+04 -5.106289e+03
-1.870485e+09 -1.670395e+09 -1.830493e+09 -1.348454e+04 2.335024e+04 -9.954961e+03
-3.205490e+09 -3.005378e+09 -3.165522e+09 -1.602882e+04 3.605726e+04 -1.686596e+04
-1.629970e+09 -1.429886e+09 -1.589972e+09 -1.162211e+03 2.955405e+04 -6.802648e+03
-1.862563e+09 -1.662476e+09 -1.822564e+09 -1.349469e+02 1.878206e+04 -8.848743e+03
-1.935724e+09 -1.735635e+09 -1.895729e+09 4.055785e+03 5.828629e+03 -8.788413e+03
-4.254151e+09 -4.054024e+09 -4.214246e+09 5.077781e+04 -1.938143e+04 -1.125026e+04
-3.434964e+09 -3.234836e+09 -3.395001e+09 -2.834224e+04 3.858244e+04 -1.497099e+04
-4.406256e+09 -4.206141e+09 -4.366355e+09 4.520221e+04 -2.262907e+04 -1.042540e+04
-3.808896e+09 -3.608800e+09 -3.768986e+09 4.243738e+04 -2.102504e+04 -1.219535e+04
-4.775380e+09 -4.575286e+09 -4.735478e+09 3.661025e+04 -1.193689e+04 -5.544924e+03
-2.210758e+09 -2.010664e+09 -2.170765e+09 -2.555803e+03 9.002383e+03 -7.755412e+03
-2.268959e+09 -2.068852e+09 -2.228967e+09 -4.702581e+03 2.657259e+04 -1.183648e+04
-4.985493e+09 -4.785341e+09 -4.945532e+09 -1.713543e+04 4.397592e+03 -1.005803e+03
-4.533481e+09 -4.333358e+09 -4.493515e+09 -9.086767e+03 2.164690e+03 -2.790034e+03
-1.957104e+09 -1.757111e+09 -1.917151e+09 1.471195e+03 8.030928e+02 8.541414e+02
-4.629600e+09 -4.429512e+09 -4.589705e+09 5.038341e+04 -1.836424e+04 -5.581116e+03
-4.454376e+09 -4.254965e+09 -4.414822e+09 -2.552590e+05 1.338740e+04 1.236187e+03
-4.978882e+09 -4.778864e+09 -4.938934e+09 1.082812e+04 6.101176e+02 1.079996e+03
-3.928270e+09 -3.728764e+09 -3.888736e+09 -7.786116e+04 1.899869e+04 -9.921152e+03
-4.979779e+09 -4.780412e+09 -4.940399e+09 -3.363450e+04 -1.398736e+03 -3.555536e+03
-4.936845e+09 -4.736770e+09 -4.896882e+09 -1.786396e+03 1.130861e+03 -3.334931e+02
-3.500777e+09 -3.301258e+09 -3.461273e+09 -2.116124e+04 2.307708e+04 -1.268379e+04
-3.028288e+09 -2.828217e+09 -2.988312e+09 -2.319112e+03 7.179013e+03 -2.080711e+03
-2.399905e+09 -2.199834e+09 -2.359927e+09 -5.935455e+03 1.539992e+04 -7.072476e+03
-3.280136e+09 -3.080384e+09 -3.240314e+09 -1.513805e+05 8.929838e+04 -8.439710e+04
-4.623070e+09 -4.422997e+09 -4.583104e+09 2.519567e+01 1.460593e+03 0.000000e+00
-1.598843e+09 -1.398759e+09 -1.558847e+09 1.800863e+03 1.395971e+04 3.498223e+03
-4.618413e+09 -4.418832e+09 -4.578870e+09 -1.248428e+05 4.444061e+03 5.982057e+03
-4.046246e+09 -3.846665e+09 -4.006730e+09 -6.458506e+04 3.869710e+04 -3.010569e+04
-3.981279e+09 -3.781759e+09 -3.941813e+09 -1.966128e+04 3.669538e+04 -2.890850e+04
-2.908341e+09 -2.708320e+09 -2.868396e+09 2.064065e+04 1.502172e+04 1.352831e+04
-4.611884e+09 -4.411710e+09 -4.571923e+09 5.969792e+03 3.931535e+03 1.692533e+03
-4.704176e+09 -4.504652e+09 -4.664737e+09 -4.428257e+04 6.057763e+03 1.415202e+04
-3.765666e+09 -3.565500e+09 -3.725693e+09 4.375499e+03 2.604570e+04 3.048627e+03
-3.326535e+09 -3.127146e+09 -3.286991e+09 -1.177563e+05 1.696297e+04 -6.755254e+04
-4.998272e+09 -4.798097e+09 -4.958301e+09 5.960529e+03 5.501305e+03 -9.782007e+02
-2.739481e+09 -2.539374e+09 -2.699496e+09 4.341759e+03 7.272891e+03 5.946168e+03
-4.798986e+09 -4.599425e+09 -4.759510e+09 -1.012521e+05 2.797642e+04 -3.405475e+03
-2.546914e+09 -2.346830e+09 -2.506931e+09 1.850441e+03 4.005309e+03 7.438500e+03
-2.832241e+09 -2.632123e+09 -2.792256e+09 1.192776e+03 5.058741e+03 1.456032e+03
-4.626414e+09 -4.426265e+09 -4.586447e+09 -1.068447e+03 2.523156e+03 1.884972e+03
-4.304307e+09 -4.103439e+09 -4.263833e+09 1.308185e+05 -6.303305e+04 -2.645332e+04
-4.516490e+09 -4.315331e+09 -4.475511e+09 1.635302e+05 -4.717864e+03 4.345997e+03
-3.968724e+09 -3.768123e+09 -3.928493e+09 1.635855e+05 -2.889090e+04 1.581930e+04
-4.990798e+09 -4.790105e+09 -4.950377e+09 2.480955e+05 -4.310454e+04 -3.781572e+04
-3.961115e+09 -3.760427e+09 -3.920663e+09 2.302744e+05 8.168221e+03 -3.587598e+02
-2.392780e+09 -2.192841e+09 -2.352857e+09 -7.943508e+03 -1.976339e+03 6.879288e+03
-3.714019e+09 -3.513959e+09 -3.674065e+09 1.420781e+04 1.039297e+04 5.271020e+03
-4.504578e+09 -4.304496e+09 -4.464626e+09 1.260145e+04 2.658628e+03 2.992036e+03
-3.447393e+09 -3.247469e+09 -3.407489e+09 -1.066433e+04 -2.442926e+03 9.082242e+03
-4.977915e+09 -4.777844e+09 -4.937966e+09 9.620376e+03 7.093815e+02 -1.400365e+03
-2.622647e+09 -2.422711e+09 -2.582726e+09 -4.264156e+03 -1.517306e+03 4.103773e+03
-3.690821e+09 -3.490745e+09 -3.650869e+09 2.197981e+04 8.217773e+03 5.531631e+03
-4.768096e+09 -4.568002e+09 -4.728148e+09 2.759929e+04 6.531611e+03 4.111319e+02
-3.948460e+09 -3.748385e+09 -3.908512e+09 2.516078e+04 1.086886e+04 9.864243e+03
-4.709324e+09 -4.509277e+09 -4.669371e+09 5.865530e+03 -4.139136e+02 2.643307e+03
-4.796809e+09 -4.596741e+09 -4.756867e+09 2.622880e+04 5.379448e+03 1.064634e+02
-4.797139e+09 -4.597078e+09 -4.757188e+09 1.660195e+04 1.032627e+03 5.027363e+03
-2.220106e+09 -2.020144e+09 -2.180168e+09 1.066503e+03 -7.502373e+01 1.635979e+02
-1.929613e+09 -1.729564e+09 -1.889644e+09 -5.006808e+03 -2.864574e+04 -4.440271e+03
-4.200323e+09 -4.000366e+09 -4.160393e+09 8.911264e+03 8.892890e+02 1.260412e+03
-1.780915e+09 -1.581101e+09 -1.741019e+09 -2.074066e+03 -2.737274e+04 -1.105112e+05
-4.763394e+09 -4.563446e+09 -4.723471e+09 8.477383e+03 -5.116207e+02 9.055936e+02
-4.573951e+09 -4.374005e+09 -4.534031e+09 6.942205e+03 2.268670e+02 1.820288e+03
-2.525652e+09 -2.325703e+09 -2.485723e+09 4.253677e+03 1.511729e+03 2.775559e+03
-4.409067e+09 -4.209114e+09 -4.369136e+09 1.331174e+03 6.477427e+02 3.717285e+02
-4.682924e+09 -4.482973e+09 -4.642995e+09 2.737298e+03 -4.258624e+02 9.743776e+02
-4.844270e+09 -4.644351e+09 -4.804288e+09 4.262602e+05 -2.129159e+04 -5.680296e+04
-4.307955e+09 -4.108273e+09 -4.268009e+09 3.592013e+05 -9.931198e+04 -2.987603e+04
-4.827780e+09 -4.627990e+09 -4.787420e+09 5.248801e+05 -1.101143e+04 1.227131e+05
-4.670996e+09 -4.470978e+09 -4.630768e+09 4.492072e+05 -8.344838e+03 3.205843e+03
-4.821134e+09 -4.621019e+09 -4.772403e+09 -4.696018e+04 -5.221658e+05 -2.377140e+05
-4.647733e+09 -4.447112e+09 -4.600038e+09 -6.108363e+05 -5.308864e+05 3.620688e+05
-4.157021e+09 -3.956282e+09 -4.106450e+09 2.290013e+04 3.794038e+05 5.116427e+05
-3.956233e+09 -3.754850e+09 -3.908666e+09 4.109207e+05 -1.736915e+06 1.464940e+05
-4.490765e+09 -4.290796e+09 -4.440410e+09 4.674490e+04 -2.315178e+05 -4.101096e+05
-4.147507e+09 -3.947768e+09 -4.097009e+09 8.822914e+04 -2.806030e+05 -4.807280e+05
-4.834766e+09 -4.634514e+09 -4.785327e+09 -6.209718e+04 -1.603511e+05 5.146606e+05
-3.933499e+09 -3.733450e+09 -3.893601e+09 1.175300e+04 -2.313599e+04 -6.760656e+03
-3.888897e+09 -3.688868e+09 -3.849021e+09 2.047207e+04 -2.986662e+04 -4.261953e+03
-3.662446e+09 -3.462376e+09 -3.622499e+09 3.053633e+03 -4.560165e+03 -2.263334e+03
-3.306134e+09 -3.106064e+09 -3.266205e+09 2.188726e+04 -2.605314e+04 -1.040305e+04
-4.817594e+09 -4.617407e+09 -4.777627e+09 -2.288646e+02 5.974734e+03 7.143855e+02
-4.082547e+09 -3.882347e+09 -4.042576e+09 -2.435901e+03 2.365821e+04 -2.061056e+03
-4.781982e+09 -4.581773e+09 -4.742016e+09 -6.755643e+03 1.209716e+04 2.834115e+01
-4.812555e+09 -4.612319e+09 -4.772588e+09 3.029541e+03 8.802043e+03 -1.819691e+03
-4.281243e+09 -4.081020e+09 -4.241278e+09 2.006541e+03 4.058820e+04 1.155176e+02
-4.126081e+09 -3.925850e+09 -4.086112e+09 5.520200e+03 3.586323e+04 1.378376e+03
-1.919383e+09 -1.719542e+09 -1.879491e+09 4.217844e+04 2.988140e+04 -9.896528e+03
-1.928876e+09 -1.728814e+09 -1.888894e+09 6.379107e+03 5.881853e+03 6.772440e+03
-2.599785e+09 -2.399741e+09 -2.559817e+09 2.194904e+03 2.076890e+03 7.191747e+03
-3.272089e+09 -3.072679e+09 -3.232587e+09 -2.064048e+04 4.105641e+04 -1.248935e+05
-3.011956e+09 -2.812338e+09 -2.972338e+09 -7.782229e+03 4.318252e+04 -4.341510e+04
-2.615106e+09 -2.415370e+09 -2.575382e+09 -5.522856e+03 4.007962e+04 -9.866193e+02
-1.928881e+09 -1.728812e+09 -1.888897e+09 -3.088448e+03 6.620564e+03 8.816253e+03
-3.080744e+09 -2.881090e+09 -3.041093e+09 -6.532148e+04 6.861933e+04 -8.320992e+04
-2.166883e+09 -1.967174e+09 -2.127117e+09 -3.240345e+03 3.395611e+04 1.827563e+04
-2.176547e+09 -1.976473e+09 -2.136562e+09 2.112383e+03 2.485599e+03 6.424011e+03
-3.388791e+09 -3.188686e+09 -3.348819e+09 3.645653e+03 3.096138e+03 5.208510e+03
-4.265506e+09 -4.065324e+09 -4.225539e+09 1.310813e+03 2.288782e+04 -2.876778e+02
-2.655692e+09 -2.455627e+09 -2.615722e+09 8.205109e+03 1.171272e+04 8.985114e+03
-1.602627e+09 -1.402542e+09 -1.562629e+09 4.645790e+02 2.598213e+04 -3.807553e+03
-1.565151e+09 -1.365075e+09 -1.525149e+09 -6.828848e+02 5.176011e+04 -4.962270e+03
-2.451318e+09 -2.251241e+09 -2.411341e+09 1.224088e+04 2.115586e+04 1.534784e+04
-3.651642e+09 -3.451523e+09 -3.611665e+09 -2.110242e+03 2.904798e+03 -4.599573e+03
-2.108217e+09 -1.908145e+09 -2.068236e+09 1.153234e+04 1.701161e+04 9.720034e+03
-3.432864e+09 -3.232734e+09 -3.392886e+09 -1.470170e+03 3.164083e+03 -3.379274e+03
-2.174849e+09 -1.974746e+09 -2.134853e+09 -1.329721e+03 1.103537e+04 -5.298080e+03
-3.434706e+09 -3.234536e+09 -3.394730e+09 -7.988879e+03 3.883027e+04 -2.641630e+03
-2.591796e+09 -2.391717e+09 -2.551818e+09 2.163173e+03 2.327271e+03 7.014860e+03
-4.536188e+09 -4.336271e+09 -4.496289e+09 6.771206e+03 7.032263e+02 1.791642e+03
-1.875051e+09 -1.674953e+09 -1.835055e+09 -1.682539e+03 6.124842e+04 -1.531367e+04
-2.982814e+09 -2.782697e+09 -2.942831e+09 1.301089e+03 5.392762e+03 2.596551e+03
-4.998065e+09 -4.798168e+09 -4.958199e+09 1.090588e+04 2.140758e+03 3.052320e+03
-1.629973e+09 -1.429887e+09 -1.589973e+09 -2.975288e+02 2.971522e+04 -7.236289e+03
-1.759678e+09 -1.559592e+09 -1.719676e+09 -6.123173e+03 4.196994e+04 -8.106755e+03
-2.731429e+09 -2.531511e+09 -2.691522e+09 5.950537e+03 3.075699e+03 1.189043e+04
-3.080824e+09 -2.880908e+09 -3.040919e+09 2.271364e+03 7.113016e+02 7.230526e+03
-3.060704e+09 -2.860784e+09 -3.020798e+09 2.524741e+03 1.552156e+03 6.516762e+03
-2.692092e+09 -2.492172e+09 -2.652185e+09 4.609108e+03 1.710748e+03 1.287900e+04
-4.657573e+09 -4.457466e+09 -4.617670e+09 -5.958816e+04 1.201015e+04 -7.365148e+03
-4.145206e+09 -3.945295e+09 -4.105310e+09 4.835177e+03 1.118332e+03 4.780394e+03
-4.014046e+09 -3.814130e+09 -3.974149e+09 8.810171e+03 3.791631e+02 6.971804e+03
-3.042875e+09 -2.842956e+09 -3.002972e+09 4.663442e+03 4.968081e+03 1.273122e+04
-2.598174e+09 -2.398197e+09 -2.558234e+09 -3.893991e+03 -1.606617e+03 2.384460e+03
-3.946816e+09 -3.746847e+09 -3.906875e+09 -1.423186e+03 -4.510638e+02 7.368752e+02
-1.516486e+09 -1.316533e+09 -1.476554e+09 -3.055768e+03 -6.387801e+02 1.448010e+03
-2.939412e+09 -2.739454e+09 -2.899481e+09 -6.740775e+03 -3.206684e+03 3.320904e+03
-4.936705e+09 -4.736740e+09 -4.896763e+09 0.000000e+00 1.218956e+02 -1.811932e+02
-3.759898e+09 -3.559951e+09 -3.719974e+09 -8.765538e+03 -1.608756e+03 3.822409e+03
-2.915517e+09 -2.715489e+09 -2.875561e+09 1.951797e+04 1.486394e+04 1.243109e+04
-2.646989e+09 -2.447028e+09 -2.607051e+09 -4.463707e+02 -4.937932e+02 3.127179e+02
-1.846137e+09 -1.646185e+09 -1.806204e+09 -1.324086e+03 -6.242770e+02 3.956971e+02
-2.961659e+09 -2.761694e+09 -2.921718e+09 -3.011668e+02 7.942205e+01 -3.063986e+01
-4.426306e+09 -4.226334e+09 -4.386365e+09 -8.940677e+02 -1.574463e+02 1.096180e+03
-4.697930e+09 -4.497960e+09 -4.657989e+09 -1.346716e+03 2.935759e+01 3.916113e+02
-2.695730e+09 -2.495782e+09 -2.655801e+09 -3.781124e+03 -1.631733e+03 2.516975e+03
-4.481892e+09 -4.281740e+09 -4.441952e+09 1.823343e+04 -3.366878e+03 -5.324216e+03
-3.709773e+09 -3.509808e+09 -3.669833e+09 -2.770235e+03 -8.852350e+02 9.073761e+02
-2.603135e+09 -2.402999e+09 -2.563152e+09 -9.722035e-01 -5.753504e+03 -1.015931e+03
-4.820442e+09 -4.620022e+09 -4.780443e+09 7.415833e+04 -2.118272e+03 7.681936e+02
-1.959856e+09 -1.759775e+09 -1.919834e+09 1.367898e+04 -9.724146e+04 -2.068937e+04
-1.959849e+09 -1.759769e+09 -1.919840e+09 1.737271e+04 -8.694412e+04 -2.729359e+04
-4.993854e+09 -4.793382e+09 -4.953840e+09 9.145704e+04 -3.373911e+04 -1.490777e+04
-1.675447e+09 -1.475370e+09 -1.635462e+09 9.756297e+02 -6.730127e+04 -3.172725e+04
-3.919413e+09 -3.719308e+09 -3.879479e+09 2.315772e+04 -1.472277e+04 -1.559060e+04
-1.613762e+09 -1.413685e+09 -1.573773e+09 8.691408e+02 -3.863753e+04 -1.842412e+04
-1.670491e+09 -1.470531e+09 -1.630555e+09 8.053066e+03 3.241863e+03 3.710656e+03
-3.956115e+09 -3.755751e+09 -3.916123e+09 1.093390e+05 -5.240549e+04 -1.576783e+04
-1.698905e+09 -1.498919e+09 -1.658943e+09 -4.830858e+02 1.258226e+05 -8.952420e+04
-4.029162e+09 -3.829204e+09 -3.989234e+09 9.931369e+03 -1.195973e+02 2.884155e+03
-3.878663e+09 -3.678731e+09 -3.838745e+09 7.661168e+02 9.139234e+01 5.457988e+02
-4.820120e+09 -4.619624e+09 -4.780062e+09 1.624482e+05 -3.508071e+03 1.402803e+03
-4.508148e+09 -4.307745e+09 -4.468124e+09 1.677871e+05 -3.814722e+04 -2.031751e+04
-4.317222e+09 -4.117019e+09 -4.277337e+09 1.302925e+05 -4.171228e+04 -1.803714e+04
-2.103272e+09 -1.903181e+09 -2.063282e+09 6.886732e+03 1.883428e+04 7.682957e+03
-4.660340e+09 -4.460026e+09 -4.620391e+09 1.198901e+05 -2.577978e+04 3.824646e+03
-4.985804e+09 -4.785428e+09 -4.945828e+09 1.315034e+05 -3.023170e+04 -2.658810e+04
-4.428106e+09 -4.227958e+09 -4.388140e+09 1.284344e+03 4.545040e+03 -3.291102e+02
-4.465013e+09 -4.265773e+09 -4.423503e+09 -5.970851e+05 1.943719e+05 -1.657818e+05
-3.801103e+09 -3.601005e+09 -3.761149e+09 3.004939e+04 1.309874e+04 7.131933e+03
-4.187017e+09 -3.986745e+09 -4.144236e+09 -7.392239e+05 4.345276e+05 -2.274712e+05
-3.962694e+09 -3.763128e+09 -3.920961e+09 -6.438791e+05 4.074342e+05 -6.860404e+05
-1.569475e+09 -1.369474e+09 -1.529518e+09 -1.127022e+04 -1.568819e+04 1.653485e+04
-4.572932e+09 -4.372900e+09 -4.533031e+09 -4.415667e+04 -9.633301e+03 6.303542e+03
-3.963474e+09 -3.763497e+09 -3.921443e+09 -8.263737e+05 5.812875e+05 -3.021428e+05
-3.168283e+09 -2.968294e+09 -3.128349e+09 -1.691688e+04 -9.656841e+03 1.095218e+04
-2.782753e+09 -2.582746e+09 -2.742795e+09 8.159065e+02 6.187064e+02 2.103710e+03
-4.649571e+09 -4.449827e+09 -4.606448e+09 -6.240040e+05 3.664395e+05 -5.639940e+04
-4.979049e+09 -4.779037e+09 -4.939118e+09 -1.501286e+04 -1.293988e+03 2.178772e+03
-3.303998e+09 -3.103996e+09 -3.264062e+09 -1.042921e+04 -4.264561e+03 9.504480e+03
-2.830341e+09 -2.630249e+09 -2.790382e+09 -1.095732e+04 -8.123663e+03 1.269168e+04
-3.955739e+09 -3.755667e+09 -3.915823e+09 2.563734e+04 -1.766528e+04 -8.897519e+03
-4.152080e+09 -3.951993e+09 -4.112173e+09 3.765524e+04 -1.712622e+04 -8.026773e+03
-1.571400e+09 -1.371322e+09 -1.531402e+09 -1.955594e+03 -4.283619e+04 -9.883049e+03
-2.157374e+09 -1.957247e+09 -2.117374e+09 -7.973000e+02 -4.038444e+03 4.990455e+03
-1.591579e+09 -1.391498e+09 -1.551582e+09 6.903621e+02 -4.341086e+04 -1.525414e+04
-1.674132e+09 -1.474060e+09 -1.634143e+09 1.137927e+03 -8.148129e+04 -3.248435e+04
-4.765256e+09 -4.565183e+09 -4.725378e+09 5.149870e+04 -7.539206e+03 -7.335809e+03
-1.571406e+09 -1.371324e+09 -1.531401e+09 1.797049e+02 -4.376135e+04 -8.699172e+03
-4.633481e+09 -4.433457e+09 -4.593645e+09 4.520607e+04 -1.897033e+04 -1.555836e+03
-2.745303e+09 -2.545288e+09 -2.705393e+09 5.644244e+02 -4.318913e+04 -3.705267e+03
-2.632764e+09 -2.432625e+09 -2.592790e+09 -1.182201e+03 -2.895883e+04 1.965826e+03
-1.665272e+09 -1.465314e+09 -1.625328e+09 3.594369e+03 6.282361e+04 -3.813805e+04
-4.680806e+09 -4.480768e+09 -4.640942e+09 1.910729e+04 -1.075074e+04 -5.354413e+03
-4.696398e+09 -4.496347e+09 -4.656511e+09 9.594689e+03 -9.482675e+03 -1.715936e+01
-3.733856e+09 -3.533874e+09 -3.693909e+09 4.620061e+03 1.064404e+03 9.702717e+02
-3.799979e+09 -3.599992e+09 -3.760029e+09 2.148805e+03 7.649662e+01 1.314459e+03
-3.657248e+09 -3.457263e+09 -3.617299e+09 3.206570e+03 1.224109e+03 1.335393e+03
-4.989949e+09 -4.789966e+09 -4.950001e+09 1.767258e+03 2.823783e+02 -5.238916e+02
-4.993774e+09 -4.793844e+09 -4.953876e+09 -1.525067e+04 -1.164566e+03 4.155627e+02
-1.874907e+09 -1.674796e+09 -1.834914e+09 -3.006014e+03 6.447362e+04 -7.166762e+03
-1.583892e+09 -1.383867e+09 -1.543924e+09 6.615381e+03 8.059799e+03 7.628871e+03
-4.129185e+09 -3.929148e+09 -4.088560e+09 5.474842e+05 3.747227e+04 1.735214e+05
-4.636583e+09 -4.437491e+09 -4.597079e+09 3.918142e+04 -4.918965e+03 4.160168e+04
-4.825956e+09 -4.626022e+09 -4.786054e+09 -1.680908e+04 -2.877606e+03 1.648996e+03
-4.214007e+09 -4.014070e+09 -4.174091e+09 -8.591053e+03 -7.840174e+02 2.512445e+03
-4.157818e+09 -3.958755e+09 -4.117988e+09 2.944085e+05 1.307423e+04 -3.425595e+04
-3.895427e+09 -3.695492e+09 -3.855514e+09 -1.160996e+04 -1.502432e+03 5.838156e+03
-2.209571e+09 -2.009797e+09 -2.169622e+09 9.712469e+04 -8.000428e+04 -1.770065e+05
-1.698032e+09 -1.498084e+09 -1.658010e+09 -5.486888e+03 -7.355855e+04 -1.237383e+05
-3.732180e+09 -3.532500e+09 -3.692558e+09 1.023732e+05 -3.457754e+04 -2.399974e+04
-3.826412e+09 -3.626469e+09 -3.786492e+09 -1.142243e+04 -2.171894e+03 5.154799e+03
-4.786700e+09 -4.586761e+09 -4.746784e+09 -7.860197e+03 5.078882e+02 1.388163e+03
-3.797917e+09 -3.597979e+09 -3.758002e+09 -9.689830e+03 -1.604723e+03 4.733670e+03
-4.986548e+09 -4.786337e+09 -4.946643e+09 1.010804e+05 -2.479297e+04 -1.045209e+04
-4.134293e+09 -3.934134e+09 -4.094381e+09 8.843618e+04 -3.355616e+04 -1.747789e+04
-2.885309e+09 -2.685240e+09 -2.845354e+09 1.343315e+04 -2.287027e+04 -9.426936e+03
-2.773178e+09 -2.573082e+09 -2.733207e+09 9.401899e+02 -5.619656e+03 -1.144307e+04
-3.341918e+09 -3.141792e+09 -3.301961e+09 4.206365e+03 -4.609668e+03 -1.336653e+04
-4.134239e+09 -3.934118e+09 -4.094366e+09 8.488185e+04 -3.321329e+04 -1.179191e+04
-4.977367e+09 -4.777238e+09 -4.937437e+09 3.101974e+04 2.756825e+02 -3.534074e+03
-4.807046e+09 -4.607099e+09 -4.767060e+09 -4.044914e+05 1.083165e+04 -6.191052e+04
-3.956871e+09 -3.756651e+09 -3.916945e+09 9.318721e+04 -4.286434e+04 -9.870281e+03
-4.712409e+09 -4.512205e+09 -4.672459e+09 9.577472e+03 -3.162434e+03 -9.596010e+01
-4.813481e+09 -4.613679e+09 -4.773612e+09 -3.634573e+05 -3.328876e+03 4.544457e+04
-3.957634e+09 -3.758401e+09 -3.917361e+09 -3.314740e+05 -6.132666e+04 1.013422e+05
-3.494814e+09 -3.294752e+09 -3.454852e+09 7.455214e+03 4.737066e+03 5.454438e+03
-4.115682e+09 -3.915830e+09 -4.075383e+09 -5.032531e+05 -5.038285e+04 -6.127975e+04
-3.961766e+09 -3.761736e+09 -3.921901e+09 -3.629082e+05 -2.776231e+04 -8.233675e+03
-3.963879e+09 -3.763724e+09 -3.924026e+09 -2.748377e+05 1.941221e+04 -2.134804e+04
-3.230907e+09 -3.030948e+09 -3.190975e+09 -7.561691e+03 -1.978757e+03 2.615362e+03
-3.464570e+09 -3.264655e+09 -3.424673e+09 -8.762599e+03 -2.362080e+03 1.050677e+04
-4.814883e+09 -4.615325e+09 -4.775012e+09 -3.819590e+05 7.652632e+03 6.327668e+04
-4.802171e+09 -4.602377e+09 -4.761859e+09 -5.296584e+05 -2.214099e+04 1.251954e+05
-2.614702e+09 -2.414761e+09 -2.574776e+09 -8.388154e+02 -1.110656e+03 8.424681e+02
-4.975471e+09 -4.775525e+09 -4.935545e+09 -4.390005e+03 -2.232545e+02 2.701631e+00
-4.892274e+09 -4.692318e+09 -4.852340e+09 -8.924011e+02 1.115535e+02 -1.777687e-06
-1.940281e+09 -1.740231e+09 -1.900307e+09 -7.145971e+03 -1.959134e+04 1.784887e+04
-2.033627e+09 -1.833551e+09 -1.993651e+09 -1.801564e+04 -2.721738e+04 1.929362e+04
-1.591106e+09 -1.391177e+09 -1.551187e+09 -2.769210e+03 -6.084555e+02 5.832488e+03
-2.613235e+09 -2.413306e+09 -2.573317e+09 -6.002441e+02 -1.008182e+03 1.041077e+03
-1.796888e+09 -1.596836e+09 -1.756908e+09 -1.254618e+04 -3.737213e+04 2.241335e+04
-4.228226e+09 -4.028262e+09 -4.188287e+09 -4.218977e+03 2.071937e+02 7.066441e+02
-4.530973e+09 -4.331011e+09 -4.491034e+09 -1.848884e+03 -3.557186e+02 3.663017e+02
-4.435469e+09 -4.235418e+09 -4.395516e+09 3.370731e+03 8.551918e+02 4.012819e+03
-3.258459e+09 -3.058497e+09 -3.218520e+09 -1.287825e+03 -2.540534e+02 5.485883e+02
-2.312319e+09 -2.112226e+09 -2.272351e+09 -4.070344e+04 -6.087752e+04 3.515796e+04
-2.236948e+09 -2.036874e+09 -2.196968e+09 -6.861272e+03 -1.247753e+04 1.854995e+04
-2.742724e+09 -2.542661e+09 -2.702778e+09 -2.964023e+04 -3.369710e+04 2.279208e+04
-2.137001e+09 -1.936942e+09 -2.097030e+09 -1.310769e+04 -2.043103e+04 1.748309e+04
-1.578570e+09 -1.378613e+09 -1.538635e+09 -2.621031e+03 -5.656844e+02 1.054708e+03
-2.798760e+09 -2.598800e+09 -2.758821e+09 -1.208642e+02 -3.092482e+02 3.518597e+02
-3.768417e+09 -3.568332e+09 -3.728456e+09 9.175366e+03 6.653795e+03 9.071403e+03
-2.690304e+09 -2.490204e+09 -2.650324e+09 6.851519e+03 2.056084e+04 8.187267e+03
-2.245877e+09 -2.045802e+09 -2.205898e+09 1.848765e+04 3.167178e+04 1.723301e+04
-1.636086e+09 -1.436071e+09 -1.596124e+09 3.491759e+02 -5.748345e+04 -2.326213e+03
-2.767593e+09 -2.567677e+09 -2.727685e+09 4.441847e+02 1.449174e+02 6.621044e+03
-2.158530e+09 -1.958461e+09 -2.118550e+09 1.477380e+04 2.327664e+04 1.327801e+04
-3.687280e+09 -3.487359e+09 -3.647369e+09 -3.105069e+02 -6.202963e+01 9.660652e+02
-2.483403e+09 -2.283306e+09 -2.443430e+09 1.618019e+04 3.025785e+04 1.180437e+04
-2.017182e+09 -1.817122e+09 -1.977212e+09 3.022580e+04 3.485704e+04 1.845411e+04
-2.430615e+09 -2.230690e+09 -2.390700e+09 1.981426e+03 1.042418e+03 4.425664e+03
-2.168964e+09 -1.968886e+09 -2.128981e+09 3.807418e+03 1.034111e+04 6.943443e+03
-1.648898e+09 -1.448968e+09 -1.608977e+09 7.154848e+02 8.076270e+02 1.464934e+03
-1.962521e+09 -1.762594e+09 -1.922601e+09 1.541490e+03 4.607128e+02 2.757249e+03
-1.588354e+09 -1.388432e+09 -1.548439e+09 -1.422205e+01 -3.088100e+02 7.113440e+03
-3.828125e+09 -3.628226e+09 -3.788241e+09 1.320363e+03 3.363936e+02 8.953247e+03
-3.944980e+09 -3.744890e+09 -3.905021e+09 4.590876e+03 4.283142e+03 6.258756e+03
-3.227947e+09 -3.027887e+09 -3.187986e+09 1.397984e+04 1.132556e+04 8.390892e+03
-2.101942e+09 -1.901896e+09 -2.061971e+09 1.230806e+04 1.285854e+04 7.167066e+03
-2.608036e+09 -2.407993e+09 -2.568076e+09 2.317061e+04 2.269321e+04 1.225269e+04
-1.815433e+09 -1.615373e+09 -1.775452e+09 1.059238e+04 2.451770e+04 1.114719e+04
-1.636013e+09 -1.436070e+09 -1.596085e+09 -8.672763e+02 -1.054970e+03 1.026587e+03
-3.802187e+09 -3.602252e+09 -3.762268e+09 -2.539781e+03 -1.225562e+03 1.334755e+03
-2.086645e+09 -1.886710e+09 -2.046721e+09 -6.882949e+02 -3.855298e+02 1.178362e+03
-3.434440e+09 -3.234341e+09 -3.394470e+09 8.804848e+03 5.993120e+03 5.431744e+03
-1.869418e+09 -1.669358e+09 -1.829437e+09 7.292959e+03 1.178916e+04 9.688561e+03
-3.989238e+09 -3.789229e+09 -3.949322e+09 -3.321964e+04 -1.081065e+04 7.035036e+03
-3.249522e+09 -3.049587e+09 -3.209605e+09 -4.287337e+03 -1.991371e+03 3.537407e+03
-3.780919e+09 -3.580918e+09 -3.740993e+09 -2.388313e+04 -1.090347e+04 1.058678e+04
-4.981295e+09 -4.781365e+09 -4.941383e+09 -4.583106e+03 -2.115873e+02 3.746922e+02
-3.273277e+09 -3.073264e+09 -3.233354e+09 -3.082139e+04 -1.947167e+04 1.998969e+04
-3.343652e+09 -3.143651e+09 -3.303722e+09 -2.268126e+04 -1.288526e+04 1.415377e+04
-2.543581e+09 -2.343504e+09 -2.503616e+09 -2.206184e+03 -3.503420e+03 1.731471e+04
-4.709300e+09 -4.509147e+09 -4.669331e+09 -3.609897e+03 2.278215e+03 1.544551e+03
-4.829824e+09 -4.630056e+09 -4.789965e+09 3.846859e+05 2.830590e+03 3.378696e+04
-2.120744e+09 -1.920667e+09 -2.080763e+09 -2.083431e+03 -3.910845e+03 1.488594e+04
-4.328308e+09 -4.128451e+09 -4.288484e+09 3.803845e+05 -4.180185e+04 -3.264920e+04
-1.636105e+09 -1.436042e+09 -1.596117e+09 -1.662997e+03 -5.574562e+03 1.594089e+04
-4.677913e+09 -4.477853e+09 -4.638125e+09 3.137006e+05 -1.054158e+04 -2.700903e+04
-4.829324e+09 -4.629212e+09 -4.789410e+09 3.453723e+05 -4.108916e+04 -3.973065e+04
-3.364884e+09 -3.164800e+09 -3.324959e+09 -5.634890e+04 -4.331455e+04 2.742248e+04
-4.011076e+09 -3.810924e+09 -3.971130e+09 -6.177358e+03 -1.287693e+04 1.173191e+04
-1.585157e+09 -1.385111e+09 -1.545171e+09 -4.506085e+03 -3.075445e+04 2.167282e+04
-4.486163e+09 -4.285972e+09 -4.446061e+09 3.311019e+05 -4.056861e+04 -1.566946e+03
-3.438773e+09 -3.238645e+09 -3.398825e+09 -3.878461e+03 -3.244900e+03 1.368757e+04
-4.681399e+09 -4.481493e+09 -4.641545e+09 3.146622e+05 -1.420745e+04 -1.546915e+04
-2.614005e+09 -2.413980e+09 -2.574067e+09 -3.341773e+04 -2.878274e+04 2.358548e+04
-2.148744e+09 -1.948693e+09 -2.108778e+09 -7.496196e+03 -6.952096e+03 1.508336e+04
-2.689435e+09 -2.489508e+09 -2.649519e+09 3.293134e+03 1.457616e+03 5.901666e+03
-1.585158e+09 -1.385110e+09 -1.545170e+09 -4.041315e+03 -2.953653e+04 2.195759e+04
-3.885562e+09 -3.685597e+09 -3.845620e+09 -2.495300e+02 1.234440e+02 2.539641e+01
-2.252366e+09 -2.052429e+09 -2.212444e+09 5.520595e+03 1.757819e+03 4.759766e+03
-1.838607e+09 -1.638678e+09 -1.798687e+09 4.036420e+03 1.693038e+03 5.668738e+03
-2.106471e+09 -1.906544e+09 -2.066553e+09 4.756848e+03 1.811233e+03 6.459522e+03
-3.332284e+09 -3.132357e+09 -3.292372e+09 6.485272e+03 1.481094e+03 5.407183e+03
-2.481087e+09 -2.281159e+09 -2.441170e+09 4.738657e+03 1.817054e+03 7.492842e+03
-3.105176e+09 -2.905247e+09 -3.065261e+09 2.936822e+03 2.360959e+02 3.633292e+03
-2.263362e+09 -2.063428e+09 -2.223440e+09 2.204757e+03 1.597465e+03 3.392443e+03
-2.119757e+09 -1.919826e+09 -2.079835e+09 2.746442e+03 7.093746e+02 3.842498e+03
-1.725085e+09 -1.525153e+09 -1.685164e+09 1.609057e+03 9.683740e+02 1.494134e+03
-1.829246e+09 -1.629310e+09 -1.789322e+09 5.698620e+03 2.118700e+03 5.095480e+03
-3.963687e+09 -3.763509e+09 -3.923737e+09 -4.766813e+03 -1.910778e+04 7.433160e+03
-3.945726e+09 -3.745726e+09 -3.905789e+09 -1.208970e+04 -4.616451e+03 2.176522e+03
-4.890137e+09 -4.689957e+09 -4.850194e+09 -6.670693e+03 -8.948402e-05 7.512117e+02
-4.436064e+09 -4.235776e+09 -4.396104e+09 -1.142136e+04 -3.341434e+04 2.622521e+03
-2.798932e+09 -2.598947e+09 -2.758989e+09 -9.175811e+03 -3.798551e+03 5.856443e+03
-3.993420e+09 -3.793427e+09 -3.953492e+09 -1.483636e+04 -2.642024e+03 6.776335e+03
-4.709713e+09 -4.509503e+09 -4.669764e+09 -4.230937e+03 -2.107849e+02 3.186026e+03
-2.119501e+09 -1.919520e+09 -2.079553e+09 -3.759890e+03 -1.532187e+03 2.752044e+03
-4.589592e+09 -4.389612e+09 -4.549653e+09 -7.317856e+03 -6.634095e+02 2.502749e+03
-3.984801e+09 -3.784821e+09 -3.944861e+09 -4.476946e+03 -4.250881e+02 1.717533e+03
-4.134044e+09 -3.933680e+09 -4.094063e+09 -8.024966e+04 6.895220e+04 -2.439308e+04
-2.120016e+09 -1.920024e+09 -2.080069e+09 -1.185889e+04 -7.326461e+03 1.289575e+04
-3.599657e+09 -3.399967e+09 -3.560063e+09 -1.284991e+05 1.701310e+04 -1.857416e+04
-3.606454e+09 -3.406798e+09 -3.566855e+09 -7.544561e+04 2.009944e+04 -3.451958e+04
-3.968697e+09 -3.768268e+09 -3.928644e+09 -9.091091e+04 5.853043e+04 -4.286165e+03
-2.342280e+09 -2.142170e+09 -2.302297e+09 3.177161e+03 4.060357e+04 -4.258482e+03
-4.121182e+09 -3.920991e+09 -4.081243e+09 -6.318722e+04 3.838768e+04 -1.855895e+04
-4.529716e+09 -4.330011e+09 -4.490163e+09 -6.641992e+04 1.629257e+04 2.036584e+03
-2.929721e+09 -2.729602e+09 -2.889739e+09 -5.196816e+03 2.103543e+04 -2.947468e+03
-3.424837e+09 -3.224685e+09 -3.384872e+09 -2.992730e+04 4.441686e+04 -1.138798e+04
-4.984539e+09 -4.784912e+09 -4.945028e+09 -5.806684e+04 3.471967e+02 -4.079535e+03
-1.663469e+09 -1.463385e+09 -1.623472e+09 -7.021860e+02 1.811429e+04 -8.514674e+03
-4.706040e+09 -4.506092e+09 -4.666143e+09 -2.992893e+04 -3.543162e+03 5.148239e+03
-4.797436e+09 -4.597913e+09 -4.757937e+09 -1.503448e+05 -1.715887e+03 -2.114548e+04
-3.968988e+09 -3.769018e+09 -3.929073e+09 -2.745568e+04 -8.408021e+03 8.987608e+03
-3.960575e+09 -3.760464e+09 -3.920613e+09 4.107101e+03 8.471777e+03 5.010049e+03
-3.004491e+09 -2.804393e+09 -2.964513e+09 7.876667e+03 1.192094e+04 8.434052e+03
-1.698514e+09 -1.498586e+09 -1.658596e+09 -4.946722e+03 -3.410822e+03 1.185253e+04
-1.698687e+09 -1.498740e+09 -1.658759e+09 -7.141957e+03 -3.958450e+03 6.110594e+03
-4.847015e+09 -4.647080e+09 -4.807122e+09 -2.574288e+04 -5.534606e+03 2.796804e+03
-2.564779e+09 -2.364672e+09 -2.524801e+09 2.230414e+04 3.656338e+04 6.628138e+03
-3.956142e+09 -3.756191e+09 -3.916355e+09 -9.517951e+03 4.043897e+04 -8.907759e+03
-4.142576e+09 -3.942379e+09 -4.102669e+09 -1.485229e+05 4.260947e+04 -2.853723e+04
-2.075236e+09 -1.875293e+09 -2.035362e+09 -4.435455e+04 7.579049e+04 -4.165894e+04
-2.099909e+09 -1.899815e+09 -2.059921e+09 1.614550e+04 3.487213e+04 1.488039e+04
-2.054433e+09 -1.854345e+09 -2.014445e+09 1.018261e+04 1.553572e+04 9.459930e+03
-4.314339e+09 -4.114229e+09 -4.274434e+09 -5.845513e+04 2.509838e+04 -1.110096e+04
-4.332673e+09 -4.132541e+09 -4.292756e+09 -6.193919e+04 2.573109e+04 -8.923759e+03
-4.128986e+09 -3.928802e+09 -4.089085e+09 -2.199916e+05 5.026808e+04 -2.868810e+04
-4.302054e+09 -4.101905e+09 -4.262216e+09 -2.081444e+05 6.179781e+04 -3.571101e+04
-3.373942e+09 -3.173806e+09 -3.333971e+09 1.628321e+04 3.407660e+04 6.488289e+03
-4.987901e+09 -4.787781e+09 -4.948069e+09 -1.415054e+05 1.500770e+04 -7.517987e+03
-4.957070e+09 -4.757043e+09 -4.917290e+09 -1.240641e+05 1.466212e+04 -1.111420e+04
-1.564838e+09 -1.364817e+09 -1.524860e+09 8.816768e+02 6.800806e+04 -3.796214e+04
-3.115872e+09 -2.915733e+09 -3.075892e+09 1.073768e+04 3.418425e+04 3.780892e+03
-1.814358e+09 -1.614292e+09 -1.774369e+09 7.456247e+03 2.728081e+04 1.224980e+04
-3.503824e+09 -3.303695e+09 -3.463851e+09 2.399303e+02 1.059409e+04 6.790511e+01
-3.956077e+09 -3.755939e+09 -3.916178e+09 -1.541255e+05 6.192177e+04 -3.394826e+04
-4.133314e+09 -3.933083e+09 -4.093367e+09 -2.047929e+05 3.517744e+04 -1.977416e+04
-3.962376e+09 -3.762024e+09 -3.922388e+09 -2.366134e+03 -4.089675e+04 1.326827e+03
-4.817518e+09 -4.616744e+09 -4.777242e+09 1.667155e+04 -6.979963e+04 8.146346e+03
-2.525467e+09 -2.325368e+09 -2.485482e+09 2.084600e+03 1.204722e+04 5.301265e+03
-4.814628e+09 -4.614167e+09 -4.774599e+09 -3.297375e+04 -7.865656e+03 -3.222177e+03
-2.072123e+09 -1.872025e+09 -2.032126e+09 7.255424e+03 1.817180e+04 7.081830e+03
-1.943318e+09 -1.743232e+09 -1.903332e+09 -5.710890e+03 4.650487e+04 1.806534e+04
-2.329871e+09 -2.129734e+09 -2.289873e+09 1.565191e+04 6.434176e+04 1.124675e+04
-1.874879e+09 -1.674781e+09 -1.834884e+09 5.051900e+03 1.924944e+04 6.144373e+03
-3.975098e+09 -3.775005e+09 -3.935195e+09 -7.224653e+04 -3.468433e+04 1.800220e+04
-4.293340e+09 -4.093017e+09 -4.253381e+09 -2.090628e+05 -9.015210e+04 3.485233e+04
-4.481385e+09 -4.281113e+09 -4.441483e+09 -2.158947e+05 -3.742981e+04 2.265483e+04
-3.958912e+09 -3.758779e+09 -3.919018e+09 -1.264675e+05 -5.034392e+04 3.018199e+04
-2.852671e+09 -2.652542e+09 -2.812692e+09 8.344339e+03 4.346734e+04 8.763758e+03
-4.124029e+09 -3.924397e+09 -4.084404e+09 -6.878726e+04 -1.488820e+04 7.574022e+04
-1.882788e+09 -1.682693e+09 -1.842799e+09 2.678536e+04 5.409604e+04 5.267546e+03
-4.829788e+09 -4.630221e+09 -4.790210e+09 -1.034673e+05 -4.728046e+03 4.857928e+04
-4.483034e+09 -4.283213e+09 -4.443244e+09 -1.157519e+04 -2.504549e+03 1.840122e+04
-4.991165e+09 -4.791336e+09 -4.951380e+09 -2.447813e+04 -5.287052e+03 8.013517e+03
-4.312742e+09 -4.112922e+09 -4.272954e+09 -6.100179e+03 -5.547698e+02 1.866518e+04
-4.432106e+09 -4.232002e+09 -4.391838e+09 4.271472e+05 9.349285e+03 3.469804e+04
-4.133039e+09 -3.933141e+09 -4.093170e+09 -1.875832e+04 -5.709443e+03 1.231039e+04
-4.997510e+09 -4.797635e+09 -4.957673e+09 -1.854265e+04 -2.179544e+03 5.132618e+03
-4.992353e+09 -4.792517e+09 -4.952552e+09 -3.582847e+04 -3.267457e+03 6.754262e+03
-4.303247e+09 -4.102710e+09 -4.262574e+09 4.665822e+05 -3.163193e+04 6.824688e+04
-4.842609e+09 -4.642765e+09 -4.802799e+09 -1.599426e+04 8.555192e+02 4.256480e+03
-4.302888e+09 -4.102281e+09 -4.262492e+09 3.559422e+05 6.094074e+04 9.460790e+03
-4.991166e+09 -4.791356e+09 -4.951385e+09 -2.426735e+04 -2.845925e+03 9.248904e+03
-4.822234e+09 -4.622336e+09 -4.782403e+09 -5.096629e+04 2.351614e+02 8.807099e+03
-4.488018e+09 -4.288222e+09 -4.448296e+09 -1.048295e+05 -2.073860e+04 3.513101e+04
-4.486677e+09 -4.286750e+09 -4.446801e+09 -3.626295e+04 -4.941102e+03 9.530626e+03
-3.937799e+09 -3.737566e+09 -3.897412e+09 4.162725e+05 -6.751012e+04 -1.280734e+05
-3.979021e+09 -3.778382e+09 -3.938153e+09 4.109579e+05 -1.254054e+05 -1.175052e+05
-4.801302e+09 -4.600793e+09 -4.760950e+09 3.466068e+05 -1.582874e+04 -5.552688e+02
-4.801423e+09 -4.601036e+09 -4.760659e+09 4.948584e+05 -1.096532e+05 -6.287185e+03
-4.170501e+09 -3.970487e+09 -4.130558e+09 1.809671e+04 4.676078e+03 4.400447e+03
-4.644563e+09 -4.444656e+09 -4.604702e+09 3.796629e+04 1.961725e+03 7.712277e+03
-4.118239e+09 -3.918415e+09 -4.078462e+09 5.461415e+04 7.413032e+03 2.938092e+04
-2.318909e+09 -2.118914e+09 -2.278959e+09 1.305289e+04 3.961066e+03 4.760466e+03
-4.989426e+09 -4.789488e+09 -4.949509e+09 7.160806e+03 5.947753e+02 1.907706e+03
-3.232344e+09 -3.032328e+09 -3.192392e+09 1.415756e+04 6.705289e+03 6.210069e+03
-5.002616e+09 -4.802687e+09 -4.962730e+09 3.009359e+04 2.021572e+03 2.276601e+03
-4.141780e+09 -3.941840e+09 -4.101873e+09 1.734378e+04 8.203855e+02 6.871294e+03
-3.902747e+09 -3.702745e+09 -3.862806e+09 1.868569e+04 6.119954e+03 4.997549e+03
-4.640654e+09 -4.440760e+09 -4.600807e+09 3.102756e+04 1.341333e+03 7.067288e+03
-3.918320e+09 -3.718395e+09 -3.878410e+09 8.390743e+02 4.943704e+02 1.535059e+03
-3.622359e+09 -3.422347e+09 -3.582409e+09 9.135231e+03 4.352216e+03 3.681951e+03
-3.176498e+09 -2.976500e+09 -3.136549e+09 8.248817e+03 2.654200e+03 4.527167e+03
-4.620155e+09 -4.420153e+09 -4.580221e+09 2.027292e+04 3.163906e+03 2.167962e+03
-4.806866e+09 -4.607278e+09 -4.766507e+09 -5.257010e+05 -1.788259e+04 4.824080e+04
-4.475824e+09 -4.276458e+09 -4.435256e+09 -5.422311e+05 -7.834960e+04 2.305899e+05
-4.979190e+09 -4.779482e+09 -4.939198e+09 -4.568786e+05 2.371639e+04 -3.267089e+04
-3.949544e+09 -3.749732e+09 -3.909544e+09 -4.573576e+05 -9.365317e+04 5.660319e+04
-1.899237e+09 -1.699317e+09 -1.859325e+09 -4.488823e+03 4.512684e+02 1.227209e+04
-4.297809e+09 -4.097557e+09 -4.256782e+09 -5.885226e+05 3.136964e+04 1.316231e+04
-2.820770e+09 -2.620850e+09 -2.780858e+09 -2.470337e+03 -6.473659e+02 6.181684e+03
-2.178279e+09 -1.978356e+09 -2.138362e+09 -1.131571e+03 -4.821533e+02 4.475164e+03
-4.628982e+09 -4.429027e+09 -4.588896e+09 -4.998977e+05 -7.666783e+04 3.959394e+04
-4.986584e+09 -4.786659e+09 -4.945795e+09 -5.785832e+05 2.360917e+04 1.548521e+03
-4.890111e+09 -4.690027e+09 -4.850153e+09 5.021836e+03 9.372762e-05 2.132191e+02
-4.890119e+09 -4.690012e+09 -4.850159e+09 4.874693e+03 -8.496451e-05 1.667073e+02
-3.956836e+09 -3.756959e+09 -3.916150e+09 -5.728394e+05 -3.094827e+05 1.798559e+05
-3.137650e+09 -2.937733e+09 -3.097744e+09 -5.385352e+02 1.498382e+02 6.094667e+03
-4.983841e+09 -4.784263e+09 -4.943828e+09 -4.166030e+05 2.845501e+04 -3.223610e+04
-3.965607e+09 -3.765565e+09 -3.925708e+09 7.477569e+04 2.629785e+04 1.664417e+04
-1.789248e+09 -1.589326e+09 -1.749333e+09 -6.111369e+02 -3.370320e+02 6.867386e+03
-4.488727e+09 -4.288515e+09 -4.448818e+09 2.022149e+05 3.751111e+04 2.461592e+04
-1.943369e+09 -1.743320e+09 -1.903397e+09 4.174565e+03 2.982335e+04 -3.455418e+03
-4.995297e+09 -4.795250e+09 -4.955408e+09 8.140206e+04 4.250091e+03 5.188668e+03
-3.961004e+09 -3.761039e+09 -3.921171e+09 1.025686e+05 2.351975e+04 2.453965e+04
-4.998056e+09 -4.797997e+09 -4.958198e+09 1.262333e+05 3.716976e+03 6.795503e+03
-1.875919e+09 -1.675996e+09 -1.836001e+09 -7.914815e+02 -4.802962e+02 4.541966e+03
-3.736391e+09 -3.536348e+09 -3.696462e+09 -2.792083e+04 -1.343152e+04 1.580242e+04
-5.007574e+09 -4.807337e+09 -4.967640e+09 1.504296e+05 2.001426e+04 4.020451e+03
-4.793396e+09 -4.593332e+09 -4.753477e+09 -3.906131e+04 -3.385088e+03 -3.550137e+02
-3.968395e+09 -3.768351e+09 -3.928513e+09 9.201144e+04 3.005136e+04 2.418512e+04
-3.968366e+09 -3.768311e+09 -3.928499e+09 1.192986e+05 3.731691e+04 2.409671e+04
-3.468156e+09 -3.268114e+09 -3.428207e+09 -1.188655e+04 -7.356282e+03 1.172899e+04
-4.494181e+09 -4.293137e+09 -4.453195e+09 -2.369558e+03 3.385941e+04 5.744844e+04
-4.991304e+09 -4.791437e+09 -4.951507e+09 7.240365e+04 6.219858e+03 9.150655e+03
-3.976655e+09 -3.775562e+09 -3.935296e+09 2.798739e+05 -2.178807e+05 -9.139859e+04
-4.807308e+09 -4.607447e+09 -4.767525e+09 7.953471e+04 7.108691e+02 1.212603e+04
-3.958205e+09 -3.758349e+09 -3.918410e+09 5.216974e+04 9.681652e+03 3.342762e+04
-4.326445e+09 -4.125520e+09 -4.285789e+09 1.333901e+05 4.982552e+04 -2.893854e+04
-4.993693e+09 -4.793848e+09 -4.953888e+09 3.970909e+04 3.782826e+03 6.652949e+03
-3.961003e+09 -3.761108e+09 -3.921159e+09 3.626701e+04 6.219296e+03 2.061594e+04
-4.141223e+09 -3.940414e+09 -4.100643e+09 1.305801e+05 -4.331446e+04 -3.078489e+04
-4.464480e+09 -4.264611e+09 -4.424640e+09 1.024021e+04 2.297348e+03 1.129883e+04
-4.816267e+09 -4.616391e+09 -4.776433e+09 3.105586e+04 -3.833809e+02 5.549768e+03
-4.131590e+09 -3.930828e+09 -4.091263e+09 6.372937e+03 9.167644e+04 -2.433480e+03
-4.622856e+09 -4.422927e+09 -4.582952e+09 1.524461e+04 4.413781e+02 2.811507e+03
-4.307645e+09 -4.107786e+09 -4.267818e+09 2.850111e+04 5.040305e+03 1.958720e+04
-3.961749e+09 -3.761922e+09 -3.921950e+09 2.513480e+04 2.468382e+03 2.543247e+04
-4.820539e+09 -4.620673e+09 -4.780721e+09 4.006825e+04 5.265805e+03 9.104715e+03
-4.654402e+09 -4.453579e+09 -4.613933e+09 1.076296e+05 -2.912352e+04 1.229630e+04
-4.060130e+09 -3.860157e+09 -4.020187e+09 4.574448e+03 5.478007e+02 2.575665e+02
-4.999223e+09 -4.798772e+09 -4.957618e+09 -6.084086e+05 -3.865212e+03 1.081919e+04
-3.961961e+09 -3.761080e+09 -3.920772e+09 -2.394167e+05 2.081552e+05 1.845027e+03
-4.674832e+09 -4.474859e+09 -4.634891e+09 5.734501e+03 4.522380e+02 -7.351770e+01
-1.674147e+09 -1.474078e+09 -1.634150e+09 -5.961449e+02 -1.117939e+05 3.544588e+03
-3.472259e+09 -3.272290e+09 -3.432318e+09 6.157735e+03 7.491785e+02 1.088363e+03
-4.068354e+09 -3.868388e+09 -4.028417e+09 5.779468e+03 8.512660e+02 1.193338e+03
-5.001124e+09 -4.801044e+09 -4.961272e+09 2.845425e+05 2.124476e+04 1.436498e+04
-4.629398e+09 -4.429433e+09 -4.589463e+09 8.147686e+03 9.549034e+02 5.708422e+02
-4.862489e+09 -4.662574e+09 -4.822663e+09 7.636285e+04 2.072778e+02 1.150722e+04
-2.830507e+09 -2.630528e+09 -2.790564e+09 6.447264e+03 2.250760e+03 3.004848e+03
-2.525971e+09 -2.326003e+09 -2.486030e+09 2.258168e+03 5.459280e+02 1.875313e+02
-4.661608e+09 -4.461641e+09 -4.621667e+09 3.758742e+03 3.182237e+02 -1.095316e+02
-4.477122e+09 -4.276964e+09 -4.437222e+09 1.339115e+05 3.369809e+04 1.860522e+04
-3.951866e+09 -3.751818e+09 -3.912035e+09 1.752569e+05 4.577959e+04 2.468307e+04
-4.635170e+09 -4.435144e+09 -4.595331e+09 1.368463e+05 1.589328e+04 8.380058e+03
-4.975185e+09 -4.775488e+09 -4.935534e+09 -7.001479e+04 -1.048843e+04 1.944158e+04
-4.820260e+09 -4.620826e+09 -4.780626e+09 2.011002e+05 2.340437e+04 6.061182e+04
-3.936941e+09 -3.736833e+09 -3.897001e+09 1.702691e+04 -1.310230e+04 -9.342884e+03
-2.839525e+09 -2.639398e+09 -2.799557e+09 1.511997e+04 -4.439419e+04 -1.576289e+04
-4.483057e+09 -4.283221e+09 -4.443253e+09 7.036000e+03 6.176884e+02 1.561906e+04
-3.969234e+09 -3.769638e+09 -3.929616e+09 -7.548031e+04 -1.052875e+04 4.189123e+04
-3.948811e+09 -3.748967e+09 -3.909044e+09 -1.319245e+05 -2.699154e+04 4.633128e+04
-4.823950e+09 -4.624211e+09 -4.784243e+09 -1.628385e+04 5.445700e+01 1.982123e+04
-3.960615e+09 -3.760860e+09 -3.920874e+09 -2.330397e+04 -1.433944e+03 3.484613e+04
-4.021676e+09 -3.821568e+09 -3.981757e+09 4.010165e+04 -1.929203e+04 -6.033980e+03
-3.741048e+09 -3.541145e+09 -3.701162e+09 1.561870e+02 5.984330e+02 8.522064e+03
-1.589025e+09 -1.389027e+09 -1.549068e+09 6.500370e+03 3.488083e+03 3.546800e+03
-4.396182e+09 -4.196024e+09 -4.356260e+09 4.862775e+04 -2.660161e+04 -1.524658e+04
-4.626880e+09 -4.427071e+09 -4.587043e+09 -2.972909e+05 -1.520054e+04 2.155432e+04
-3.477057e+09 -3.276903e+09 -3.437117e+09 4.100993e+04 -3.168464e+04 -1.897457e+04
-4.749479e+09 -4.549348e+09 -4.709569e+09 4.663985e+04 -1.061789e+04 -9.169115e+03
-4.811619e+09 -4.611861e+09 -4.771902e+09 -3.878682e+04 -2.769725e+03 2.032533e+04
-4.940618e+09 -4.740475e+09 -4.900701e+09 4.660069e+04 -9.347003e+03 -4.057915e+03
-4.122085e+09 -3.921889e+09 -4.082049e+09 3.329545e+05 1.330806e+04 2.358681e+04
-4.155792e+09 -3.956105e+09 -4.116089e+09 -1.284892e+05 -1.893130e+04 3.813790e+04
-4.816794e+09 -4.616461e+09 -4.775999e+09 5.625496e+05 -1.629149e+04 1.175138e+05
-2.879341e+09 -2.679362e+09 -2.839393e+09 2.586587e+03 2.850583e+02 3.017022e+02
-4.309503e+09 -4.109362e+09 -4.264703e+09 6.803580e+05 2.689124e+05 5.410361e+05
-2.625539e+09 -2.425556e+09 -2.585591e+09 2.983541e+03 5.652465e+02 6.712889e+02
-3.945694e+09 -3.745960e+09 -3.905998e+09 6.523636e+04 9.553962e+03 3.723802e+04
-2.797035e+09 -2.597053e+09 -2.757086e+09 1.960952e+03 3.590473e+02 1.541409e+02
-5.000200e+09 -4.800601e+09 -4.960585e+09 -2.088784e+04 -1.485690e+03 2.299375e+04
-2.802901e+09 -2.602903e+09 -2.762945e+09 8.201856e+02 4.966548e+02 1.148598e+03
-4.477028e+09 -4.277179e+09 -4.437289e+09 1.315350e+05 1.591831e+04 3.539891e+04
-3.935810e+09 -3.735878e+09 -3.895987e+09 1.105071e+05 3.025602e+04 3.740015e+04
-3.146659e+09 -2.946588e+09 -3.106724e+09 -3.309335e+04 -3.514634e+04 3.080234e+04
-4.820082e+09 -4.620754e+09 -4.780568e+09 2.817229e+05 1.707010e+04 5.551195e+04
-3.783489e+09 -3.583407e+09 -3.743550e+09 -1.900258e+04 -1.269282e+04 8.379543e+03
-4.685670e+09 -4.485590e+09 -4.645737e+09 -6.321980e+03 -1.188667e+03 5.816078e+03
-3.369659e+09 -3.169613e+09 -3.329732e+09 -3.483757e+04 -2.149204e+04 2.403798e+04
-3.983247e+09 -3.783483e+09 -3.943360e+09 3.131274e+05 1.552549e+04 2.994653e+04
-3.596076e+09 -3.396049e+09 -3.556123e+09 1.115664e+04 6.163529e+03 5.337832e+03
-4.476945e+09 -4.277471e+09 -4.437294e+09 3.034341e+05 7.312320e+04 3.491208e+04
-3.994724e+09 -3.795081e+09 -3.955042e+09 2.108025e+05 7.014835e+03 3.711580e+04
-4.475849e+09 -4.275719e+09 -4.435933e+09 -5.797031e+04 2.115196e+04 -1.216836e+04
-4.418374e+09 -4.218271e+09 -4.378408e+09 -3.482632e+03 1.215953e+03 -3.571554e+03
-4.539609e+09 -4.339497e+09 -4.499669e+09 -3.439079e+04 1.795125e+04 -3.777100e+03
-3.937702e+09 -3.737595e+09 -3.897732e+09 -2.914732e+03 2.647545e+03 -6.411458e+03
-1.582971e+09 -1.382885e+09 -1.542973e+09 4.434893e+02 3.262901e+04 -9.229648e+03
-3.461595e+09 -3.261484e+09 -3.421627e+09 -1.820944e+04 1.907100e+04 -1.120211e+04
-3.977544e+09 -3.777385e+09 -3.937642e+09 -8.064058e+04 4.276239e+04 -2.391973e+04
-4.515828e+09 -4.315760e+09 -4.475893e+09 -1.039874e+04 6.276547e+03 -1.534699e+03
-3.669296e+09 -3.469237e+09 -3.629361e+09 -3.073965e+03 1.694405e+04 -2.491322e+03
-3.976902e+09 -3.776888e+09 -3.936956e+09 1.551098e+04 3.033916e+03 5.573358e+03
-1.928106e+09 -1.728071e+09 -1.888139e+09 8.237380e+02 3.994653e+04 -1.441185e+04
-4.493564e+09 -4.293439e+09 -4.453603e+09 9.646182e+03 3.991705e+03 2.475838e+03
-1.864975e+09 -1.664864e+09 -1.824981e+09 3.289857e+03 6.256364e+04 8.157478e+02
-3.366468e+09 -3.166474e+09 -3.326520e+09 8.179116e+03 2.719877e+03 2.043008e+03
-1.597362e+09 -1.397291e+09 -1.557367e+09 6.189397e+03 3.956965e+04 1.033994e+04
-2.627093e+09 -2.426984e+09 -2.587112e+09 -1.657952e+03 1.374006e+04 -4.532923e+03
-1.598910e+09 -1.398826e+09 -1.558914e+09 5.482482e+03 3.221826e+04 3.564154e+02
-4.581970e+09 -4.381955e+09 -4.542027e+09 1.797765e+04 2.950636e+03 2.687582e+03
-3.125435e+09 -2.925312e+09 -3.085449e+09 1.389750e+02 4.675388e+03 -1.943979e+02
-1.555065e+09 -1.354988e+09 -1.515061e+09 1.188779e+03 5.168491e+04 -9.334138e+01
-2.827873e+09 -2.627730e+09 -2.787881e+09 -1.480926e+02 3.244327e+04 3.982096e+03
-2.057374e+09 -1.857435e+09 -2.017452e+09 -6.740857e+03 -2.173439e+03 6.509977e+03
-3.391549e+09 -3.191521e+09 -3.351593e+09 6.026508e+03 3.778894e+03 5.212974e+03
-3.092465e+09 -2.892458e+09 -3.052515e+09 1.085575e+04 5.080761e+03 7.425920e+03
-3.632133e+09 -3.432127e+09 -3.592180e+09 1.449492e+03 1.098617e+03 1.249577e+03
-4.041574e+09 -3.841405e+09 -4.001623e+09 -1.544133e+04 -1.715042e+04 6.093909e+03
-4.129418e+09 -3.929154e+09 -4.089468e+09 -5.944060e+04 -4.199122e+04 1.857762e+04
-4.269351e+09 -4.069124e+09 -4.229397e+09 -3.467569e+04 -3.214279e+04 6.399262e+03
-4.618270e+09 -4.418029e+09 -4.578318e+09 -8.504995e+03 -1.021414e+04 2.808224e+03
-3.213081e+09 -3.012845e+09 -3.173101e+09 -9.956629e+03 -7.288239e+04 1.636117e+04
-4.454067e+09 -4.254162e+09 -4.414184e+09 1.129979e+04 1.244812e+03 5.772351e+03
-4.988072e+09 -4.788143e+09 -4.948176e+09 1.978181e+04 8.187207e+02 1.417629e+03
-2.712772e+09 -2.512847e+09 -2.672856e+09 2.680925e+02 3.060254e+02 1.242096e+03
-4.815888e+09 -4.615621e+09 -4.775939e+09 -6.584875e+04 -9.011852e+03 -2.499098e+03
-4.779286e+09 -4.578980e+09 -4.739322e+09 -6.724115e+03 -2.093078e+04 5.241279e+03
-4.987611e+09 -4.787300e+09 -4.947641e+09 -3.030850e+04 -1.798822e+04 7.349890e+03
-2.506249e+09 -2.306321e+09 -2.466331e+09 7.797229e+02 1.070470e+03 1.238488e+03
-2.089098e+09 -1.889287e+09 -2.049258e+09 5.785751e+03 -4.572485e+04 1.377850e+04
-2.488600e+09 -2.288981e+09 -2.448937e+09 7.909891e+04 -4.025905e+04 -4.252995e+04
-2.494742e+09 -2.294976e+09 -2.454983e+09 8.377057e+03 -4.250218e+04 -5.245490e+04
-1.815288e+09 -1.615445e+09 -1.775411e+09 -5.028485e+04 -4.003558e+04 -1.417597e+04
-2.719105e+09 -2.519190e+09 -2.679199e+09 3.606214e+03 8.182351e+02 1.138254e+04
-1.862453e+09 -1.662698e+09 -1.822689e+09 3.133002e+04 -6.316407e+04 -9.738559e+04
-1.955718e+09 -1.755851e+09 -1.915833e+09 -3.899862e+04 -6.508057e+04 -1.198788e+04
-2.630048e+09 -2.430418e+09 -2.590427e+09 3.932219e+04 -4.460167e+04 -5.650216e+04
-3.579748e+09 -3.380242e+09 -3.540216e+09 9.220569e+04 -2.976214e+04 -9.318582e+04
-3.969034e+09 -3.768873e+09 -3.929107e+09 -7.918625e+04 -2.845199e+04 2.010965e+04
-4.646624e+09 -4.446649e+09 -4.606717e+09 4.080405e+04 8.496888e+03 3.231066e+03
-4.486250e+09 -4.286037e+09 -4.446324e+09 -1.176657e+05 -3.046055e+04 1.894794e+04
-4.832115e+09 -4.632025e+09 -4.792227e+09 -8.532014e+04 -1.101383e+04 1.859672e+04
-2.299203e+09 -2.099238e+09 -2.259265e+09 8.463053e+03 1.857320e+03 1.818457e+03
-1.967587e+09 -1.767614e+09 -1.927644e+09 6.556812e+03 1.077531e+03 1.555584e+03
-4.477454e+09 -4.277482e+09 -4.437515e+09 9.303218e+03 1.125762e+03 -3.180264e+02
-4.145651e+09 -3.945583e+09 -4.105758e+09 -7.903964e+04 -2.898271e+04 1.058457e+04
-1.582125e+09 -1.382147e+09 -1.542179e+09 2.500457e+03 6.611446e+02 7.322853e+02
-4.132615e+09 -3.932636e+09 -4.092684e+09 1.821585e+04 1.036498e+03 5.411911e+03
-4.667401e+09 -4.467430e+09 -4.627459e+09 4.660637e+03 -3.910529e+02 5.268622e+02
-2.256412e+09 -2.056441e+09 -2.216470e+09 6.652728e+03 9.729862e+02 8.464774e+02
-1.859523e+09 -1.659563e+09 -1.819585e+09 3.009287e+03 1.117620e+03 9.564040e+02
-3.362911e+09 -3.162954e+09 -3.322977e+09 9.771373e+02 8.911935e+02 4.450095e+02
-3.971970e+09 -3.772016e+09 -3.932049e+09 1.670032e+04 2.382055e+03 5.771472e+03
-4.936704e+09 -4.736739e+09 -4.896763e+09 -3.475612e+02 6.596372e+01 3.028902e+01
-4.661987e+09 -4.461895e+09 -4.622102e+09 -9.733717e+04 -1.649824e+04 1.031921e+04
-4.658291e+09 -4.458307e+09 -4.618400e+09 -4.540169e+04 -6.018774e+03 6.153482e+03
-4.637668e+09 -4.437700e+09 -4.597777e+09 -4.468321e+04 -7.926684e+03 7.465975e+03
-4.105199e+09 -3.905213e+09 -4.065283e+09 -2.799034e+04 -4.159404e+03 1.113399e+04
-4.299210e+09 -4.099239e+09 -4.259308e+09 -3.229060e+04 -5.597650e+03 9.372077e+03
-4.335055e+09 -4.135088e+09 -4.295114e+09 -5.683888e+02 -3.121059e+01 6.063741e+02
-4.497228e+09 -4.297634e+09 -4.451179e+09 -6.374824e+05 -3.296517e+05 8.428544e+05
-3.970218e+09 -3.771344e+09 -3.928213e+09 -4.086222e+05 -1.911794e+05 1.161490e+06
-4.275137e+09 -4.076597e+09 -4.233050e+09 4.482974e+05 2.296026e+05 5.345526e+05
-4.155898e+09 -3.956952e+09 -4.112633e+09 -5.972814e+05 -7.315000e+05 1.014816e+06
-4.994433e+09 -4.794389e+09 -4.952259e+09 -6.238764e+05 1.151772e+03 4.866332e+04
-4.671962e+09 -4.471983e+09 -4.632022e+09 -2.981008e+03 -6.316310e+02 2.845046e+02
-3.964626e+09 -3.764545e+09 -3.922932e+09 -6.817860e+05 -7.924780e+05 5.201628e+05
-4.495834e+09 -4.296236e+09 -4.454234e+09 -5.878784e+05 -1.988090e+05 3.247138e+05
-4.953970e+09 -4.754000e+09 -4.914032e+09 -5.820401e+03 8.340249e+02 -1.982980e+02
-3.966373e+09 -3.767238e+09 -3.924999e+09 -5.331948e+05 -3.634567e+05 4.793451e+05
-2.082030e+09 -1.882056e+09 -2.042086e+09 -7.895113e+02 -5.949243e+02 6.533880e+02
-4.463648e+09 -4.264189e+09 -4.423171e+09 -4.997893e+05 6.372676e+04 2.634532e+04
-4.976742e+09 -4.776655e+09 -4.936868e+09 5.799644e+04 -1.429880e+04 -7.277830e+03
-4.953972e+09 -4.754001e+09 -4.914033e+09 -2.183963e+03 -3.750520e+02 -2.029838e+02
-4.804669e+09 -4.604665e+09 -4.764884e+09 8.130842e+04 -9.438393e+03 -1.481873e+04
-4.890017e+09 -4.690045e+09 -4.850224e+09 1.187269e+04 -9.663743e+03 -2.023962e-03
-1.698646e+09 -1.498706e+09 -1.658721e+09 -7.312982e+03 -3.993458e+03 8.080200e+03
-4.747583e+09 -4.547588e+09 -4.707778e+09 5.661031e+04 -2.055333e+04 -4.604200e+03
-3.859176e+09 -3.659127e+09 -3.819305e+09 4.327869e+04 -3.108875e+04 -1.207797e+04
-4.361886e+09 -4.161862e+09 -4.322032e+09 2.159645e+04 -1.941140e+04 -6.179287e+03
-3.564888e+09 -3.364847e+09 -3.525016e+09 4.320864e+04 -4.077763e+04 -1.306712e+04
-3.990929e+09 -3.790863e+09 -3.951042e+09 4.509919e+04 -2.755027e+04 -6.347096e+03
-4.302826e+09 -4.102750e+09 -4.262960e+09 8.135968e+04 -2.170694e+04 -8.703586e+03
-4.944091e+09 -4.744360e+09 -4.904506e+09 5.426805e+04 -9.586413e+03 -1.159740e+04
-4.986190e+09 -4.786244e+09 -4.946440e+09 3.927822e+04 -5.267845e+03 -2.045666e+03
-4.968013e+09 -4.767838e+09 -4.928077e+09 -2.707938e+04 -5.156026e+03 3.118377e+03
-4.629261e+09 -4.429466e+09 -4.589527e+09 6.702827e+04 8.295860e+02 1.633508e+04
-4.451251e+09 -4.251165e+09 -4.411425e+09 1.080108e+05 -2.704773e+04 -1.674885e+04
-2.742411e+09 -2.542370e+09 -2.702463e+09 -2.393770e+04 -1.693928e+04 1.904891e+04
-3.528804e+09 -3.328727e+09 -3.488921e+09 6.725190e+04 -4.318330e+04 -2.366912e+04
-3.256082e+09 -3.056171e+09 -3.216189e+09 4.717353e+03 1.722718e+03 1.327064e+04
-4.782370e+09 -4.582456e+09 -4.742470e+09 9.845824e+02 1.456274e+02 1.190080e+03
-2.706648e+09 -2.506725e+09 -2.666733e+09 1.260331e+02 -7.088618e-01 1.329985e+03
-2.546567e+09 -2.346462e+09 -2.506590e+09 -6.867413e+03 -9.244128e+03 9.316687e+03
-4.400632e+09 -4.200707e+09 -4.360722e+09 8.002704e+02 4.212196e+02 5.177335e+02
-4.595271e+09 -4.395360e+09 -4.555378e+09 1.279460e+03 -6.853241e+01 1.478705e+03
-4.641367e+09 -4.441214e+09 -4.601432e+09 -5.003899e+04 -7.558371e+03 1.701433e+03
-2.149601e+09 -1.949530e+09 -2.109628e+09 -1.891376e+04 -3.676849e+04 2.490878e+04
-4.967063e+09 -4.767066e+09 -4.927154e+09 -3.326816e+04 -1.800007e+03 2.789458e+03
-4.595628e+09 -4.395496e+09 -4.555708e+09 -6.861527e+04 -1.237876e+04 8.831972e+03
-4.387477e+09 -4.187408e+09 -4.347572e+09 -5.240120e+04 -1.445400e+04 1.127147e+04
-2.919283e+09 -2.719328e+09 -2.879456e+09 3.346846e+04 -6.179130e+04 -2.425552e+04
-4.982347e+09 -4.782322e+09 -4.942539e+09 9.079103e+04 -1.597847e+04 -8.452780e+03
-4.874020e+09 -4.673957e+09 -4.834111e+09 9.242626e+03 -4.808197e+03 -1.458981e+03
-4.639115e+09 -4.439060e+09 -4.599287e+09 9.452493e+04 -3.027106e+04 -1.254293e+04
-4.786317e+09 -4.586265e+09 -4.746403e+09 -4.525254e+04 -1.909850e+03 8.759870e+03
-4.896948e+09 -4.696880e+09 -4.857022e+09 1.964771e+03 -2.593057e+03 -9.097780e-05
-4.560918e+09 -4.360967e+09 -4.520989e+09 -5.575410e+03 -2.330430e+02 1.196623e+03
-3.698902e+09 -3.498832e+09 -3.658960e+09 3.414675e+03 -6.636758e+03 -4.012922e+03
-4.711112e+09 -4.511035e+09 -4.671184e+09 7.381528e+03 -2.524826e+03 -2.435147e+03
-4.297187e+09 -4.097119e+09 -4.257326e+09 6.378583e+04 -1.938224e+04 -1.461709e+04
-3.003610e+09 -2.803610e+09 -2.963730e+09 -7.904013e+03 5.365671e+04 -1.285604e+04
-4.720031e+09 -4.519968e+09 -4.680102e+09 -7.189526e+03 4.776390e+03 2.104316e+02
-3.955951e+09 -3.755995e+09 -3.916016e+09 -2.109448e+03 -8.538000e+02 -1.474531e+02
-4.668646e+09 -4.468688e+09 -4.628713e+09 -4.863624e+03 2.799632e+02 5.040537e+02
-4.463805e+09 -4.263753e+09 -4.423900e+09 -1.605167e+04 1.106644e+04 -1.962141e+03
-2.686756e+09 -2.486592e+09 -2.646782e+09 -9.188773e+03 -3.896006e+04 6.123107e+03
-1.602658e+09 -1.402596e+09 -1.562669e+09 -2.970528e+03 -2.890360e+04 1.713787e+04
-1.890979e+09 -1.690863e+09 -1.850987e+09 -6.636825e+03 -2.898481e+04 1.384961e+04
-2.807809e+09 -2.607697e+09 -2.767848e+09 1.123171e+04 -1.387425e+04 1.767976e+04
-4.923321e+09 -4.723278e+09 -4.883438e+09 -1.765676e+04 5.511848e+03 -2.298956e+03
-2.398062e+09 -2.197955e+09 -2.358091e+09 -1.258073e+04 -5.102836e+04 2.163345e+04
-2.841812e+09 -2.641647e+09 -2.801831e+09 -1.671461e+04 -3.500261e+04 9.911626e+03
-4.844327e+09 -4.645257e+09 -4.804433e+09 2.999280e+05 6.570872e+03 1.372339e+05
-1.592634e+09 -1.392567e+09 -1.552643e+09 -7.785812e+02 1.367206e+04 -6.541406e+03
-4.653702e+09 -4.454387e+09 -4.614191e+09 2.454547e+05 7.758671e+03 4.683193e+03
-2.235133e+09 -2.035072e+09 -2.195156e+09 -1.594876e+03 1.988970e+04 -4.104664e+03
-4.907929e+09 -4.707866e+09 -4.867994e+09 -3.393681e+03 2.641114e+03 -1.600551e-04
-4.004724e+09 -3.804668e+09 -3.964799e+09 -3.468175e+03 1.717605e+04 -1.435050e+03
-3.456809e+09 -3.256710e+09 -3.416862e+09 -3.102390e+04 3.771576e+04 -1.828274e+04
-3.424168e+09 -3.224227e+09 -3.384244e+09 1.064304e+03 1.105173e+03 5.803992e+02
-3.717463e+09 -3.517508e+09 -3.677531e+09 3.045931e+03 1.322668e+03 5.827047e+02
-4.835581e+09 -4.636291e+09 -4.795919e+09 3.126699e+05 -1.480493e+04 -8.148891e+04
-5.013927e+09 -4.814844e+09 -4.974273e+09 1.557156e+05 1.480142e+04 -9.247850e+04
-4.666436e+09 -4.467109e+09 -4.626534e+09 3.735246e+05 -2.351427e+02 3.279359e+04
-4.765292e+09 -4.565346e+09 -4.725369e+09 5.621630e+03 1.366220e+03 7.275327e+02
-2.163460e+09 -1.963421e+09 -2.123517e+09 3.010485e+04 -5.138011e+04 -2.119173e+04
-2.901384e+09 -2.701334e+09 -2.861463e+09 2.638544e+04 -4.166125e+04 -1.738088e+04
-2.163415e+09 -1.963402e+09 -2.123485e+09 2.173034e+04 -5.776526e+04 -2.260073e+04
-3.963586e+09 -3.763627e+09 -3.923652e+09 1.099649e+03 4.874320e+02 -2.166902e+02
-4.004760e+09 -3.804827e+09 -3.964845e+09 4.760079e+03 3.989283e+02 3.145145e+03
-2.012441e+09 -1.812377e+09 -1.972498e+09 3.937675e+04 -7.412003e+04 -4.039535e+04
-1.720001e+09 -1.519966e+09 -1.680034e+09 7.680062e+03 -6.182781e+04 -2.950154e+04
-4.994226e+09 -4.794743e+09 -4.954105e+09 4.561186e+05 -4.126744e+04 -2.361924e+04
-2.973233e+09 -2.773099e+09 -2.933250e+09 1.759649e+04 3.546080e+04 -2.055761e+02
-4.315290e+09 -4.115606e+09 -4.274808e+09 5.157021e+05 -8.039502e+04 2.254831e+04
-4.416774e+09 -4.216683e+09 -4.376816e+09 4.966094e+03 1.903321e+03 4.336385e+03
-4.983181e+09 -4.783126e+09 -4.943231e+09 1.609118e+04 1.104664e+03 1.186693e+03
-4.890094e+09 -4.690052e+09 -4.850141e+09 3.621650e+03 -5.017771e-05 -6.799358e+00
-4.812298e+09 -4.612678e+09 -4.772601e+09 3.285454e+05 -2.983485e+04 -5.888942e+04
-4.260672e+09 -4.061061e+09 -4.221025e+09 2.764159e+05 -3.613286e+04 -4.843188e+04
-4.310467e+09 -4.111150e+09 -4.270923e+09 2.408651e+05 -1.948394e+04 -3.053298e+04
-5.014051e+09 -4.814770e+09 -4.974284e+09 2.799977e+05 -7.892254e+04 -1.833554e+04
-4.991744e+09 -4.791610e+09 -4.951868e+09 1.499717e+05 1.984190e+04 1.243076e+04
-1.586743e+09 -1.386696e+09 -1.546763e+09 6.604897e+03 1.895915e+04 1.037703e+04
-1.879538e+09 -1.679474e+09 -1.839553e+09 5.568324e+03 1.436517e+04 1.017994e+04
-4.651216e+09 -4.451540e+09 -4.611343e+09 3.639485e+05 1.016616e+04 -2.892915e+03
-3.173630e+09 -2.973676e+09 -3.133701e+09 -6.940249e+03 -2.607057e+03 3.015367e+03
-1.710983e+09 -1.511029e+09 -1.671048e+09 -2.570001e+03 -1.035691e+03 8.787150e+02
-3.872594e+09 -3.672581e+09 -3.832652e+09 2.403061e+04 9.368097e+03 6.521546e+03
-2.211952e+09 -2.011902e+09 -2.171977e+09 2.937735e+03 5.189799e+03 6.283320e+03
-4.979784e+09 -4.779972e+09 -4.940050e+09 1.085526e+05 8.897549e+03 1.283293e+04
-4.971111e+09 -4.771252e+09 -4.931434e+09 8.425207e+04 -1.315691e+04 -6.031715e+03
-3.274529e+09 -3.074510e+09 -3.234664e+09 9.234786e+04 -7.126601e+04 -5.110062e+04
-2.038834e+09 -1.838879e+09 -1.998901e+09 -6.437906e+03 -1.679788e+03 3.495820e+03
-3.553183e+09 -3.353226e+09 -3.513250e+09 -5.445135e+03 -2.165828e+02 3.657294e+02
-3.810096e+09 -3.610098e+09 -3.770269e+09 9.857660e+04 -3.621371e+04 -2.298682e+04
-4.986205e+09 -4.786249e+09 -4.946444e+09 6.519139e+04 -1.074413e+04 -8.815049e+02
-4.917969e+09 -4.718036e+09 -4.878053e+09 1.255015e+03 -2.167956e+02 -4.858601e-06
-2.357801e+09 -2.157845e+09 -2.317867e+09 -5.940099e+03 -2.540658e+03 2.849180e+03
-4.737412e+09 -4.537493e+09 -4.697507e+09 3.186408e+03 1.001742e+03 8.872730e+02
-4.994255e+09 -4.794343e+09 -4.954363e+09 -6.526814e+03 -5.634169e+02 2.522126e+03
-4.702376e+09 -4.502458e+09 -4.662471e+09 1.868520e+02 8.613060e+02 3.990631e+02
-4.970029e+09 -4.770116e+09 -4.930128e+09 1.750260e+03 7.511891e+02 9.623284e+02
-1.586194e+09 -1.386271e+09 -1.546278e+09 2.584704e+02 4.089359e+02 7.046963e+03
-3.117395e+09 -2.917253e+09 -3.077429e+09 1.523572e+04 -3.130082e+04 -1.714540e+04
-3.950110e+09 -3.750291e+09 -3.910357e+09 9.455762e+04 7.828093e+03 3.874986e+04
-4.248035e+09 -4.048121e+09 -4.208136e+09 -5.338871e+03 -1.260183e+03 3.377905e+03
-3.632493e+09 -3.432374e+09 -3.592554e+09 3.012613e+04 -3.014191e+04 -1.412013e+04
-1.682697e+09 -1.482621e+09 -1.642708e+09 9.746956e+02 -1.260068e+04 -1.668912e+04
-2.984960e+09 -2.784860e+09 -2.945009e+09 2.323861e+04 -3.094641e+04 -2.019744e+04
-4.330113e+09 -4.131097e+09 -4.290600e+09 1.330606e+05 -3.782847e+04 7.804376e+02
-1.960021e+09 -1.759928e+09 -1.920039e+09 8.012728e+03 -3.912040e+04 -2.596548e+04
-1.890717e+09 -1.690620e+09 -1.850724e+09 4.202410e+03 -2.177405e+04 -1.786002e+04
-4.978300e+09 -4.778842e+09 -4.938823e+09 1.845883e+05 -2.192987e+04 -1.696663e+04
-4.660464e+09 -4.460456e+09 -4.620514e+09 4.238594e+03 1.065297e+03 2.093230e+02
-3.141266e+09 -2.941290e+09 -3.101319e+09 3.718002e+02 -6.777762e+00 1.382024e+02
-2.335272e+09 -2.135148e+09 -2.295288e+09 2.164612e+04 -4.984929e+04 -2.451043e+04
-3.109731e+09 -2.909753e+09 -3.069785e+09 3.112770e+03 2.199029e+02 6.953097e+02
-4.966369e+09 -4.766394e+09 -4.926424e+09 2.915799e+03 -4.767448e+01 -4.776859e+02
-1.869700e+09 -1.669618e+09 -1.829725e+09 2.193350e+04 -5.569855e+04 -1.669847e+04
-2.764779e+09 -2.564792e+09 -2.724828e+09 5.261498e+02 4.210406e+02 2.384519e+02
-4.284466e+09 -4.084482e+09 -4.244516e+09 9.584948e+02 -3.052405e+01 4.953641e+02
-3.321340e+09 -3.121366e+09 -3.281394e+09 1.153605e+03 3.315585e+02 6.465256e+01
-4.710982e+09 -4.511062e+09 -4.671075e+09 -1.292709e+03 6.599302e+02 6.449574e+02
-4.995531e+09 -4.795608e+09 -4.955651e+09 -3.026641e+04 -2.666366e+03 3.829637e+03
-4.798029e+09 -4.598108e+09 -4.758123e+09 -3.743067e+03 -1.036630e+03 7.240215e+02
-4.966370e+09 -4.766393e+09 -4.926424e+09 1.616483e+03 2.568992e+02 4.490318e+01
-3.911343e+09 -3.711374e+09 -3.871401e+09 2.398775e+03 5.520714e+02 -9.526728e+01
-4.601994e+09 -4.402080e+09 -4.562098e+09 -2.809876e+03 -2.962537e+02 1.138080e+03
-4.134227e+09 -3.934252e+09 -4.094287e+09 8.383340e+03 1.846411e+03 2.605424e+03
-4.962691e+09 -4.762709e+09 -4.922748e+09 9.351031e+03 -1.545732e+02 -1.659085e+02
-4.710983e+09 -4.511060e+09 -4.671074e+09 -1.451102e+03 -7.645191e+02 4.257386e+00
-4.985231e+09 -4.785255e+09 -4.945287e+09 4.176294e+03 -1.210472e+02 1.076399e+02
-3.961855e+09 -3.761808e+09 -3.921895e+09 -2.932814e+05 5.485188e+04 -4.132502e+04
-3.836545e+09 -3.636784e+09 -3.796934e+09 -2.180790e+05 3.246574e+04 -3.522718e+04
-1.866969e+09 -1.666991e+09 -1.827024e+09 -3.436238e+03 -1.310800e+03 3.090108e+03
-1.835031e+09 -1.635059e+09 -1.795088e+09 -3.063459e+03 -1.388321e+03 1.050305e+03
-4.993636e+09 -4.793493e+09 -4.953734e+09 -2.361355e+05 3.143833e+04 -1.194524e+04
-4.120611e+09 -3.920632e+09 -4.080566e+09 -3.974296e+05 2.781175e+04 2.139371e+04
-4.502273e+09 -4.301980e+09 -4.462362e+09 -1.852619e+05 4.226270e+04 -2.249199e+04
-2.632024e+09 -2.432048e+09 -2.592083e+09 -6.605076e+03 -2.480812e+03 3.731439e+03
-3.934240e+09 -3.734071e+09 -3.894296e+09 -5.318080e+04 3.299379e+04 -1.015852e+04
-2.775101e+09 -2.575127e+09 -2.735160e+09 -8.337556e+03 -3.720925e+03 5.606884e+03
-1.907511e+09 -1.707540e+09 -1.867570e+09 -7.789058e+03 -3.343412e+03 4.095458e+03
-4.809768e+09 -4.609616e+09 -4.769899e+09 -1.473774e+05 1.083797e+04 -1.607801e+04
-2.207426e+09 -2.007459e+09 -2.167488e+09 -7.865778e+03 -3.151872e+03 3.476434e+03
-2.580665e+09 -2.380706e+09 -2.540728e+09 4.437611e+03 1.432267e+03 1.207439e+03
-4.820507e+09 -4.620147e+09 -4.780529e+09 -9.296216e+04 1.421231e+04 5.536086e+02
-5.004163e+09 -4.804439e+09 -4.964504e+09 1.633474e+05 1.503808e+04 1.694342e+04
-3.893945e+09 -3.693980e+09 -3.854007e+09 2.508954e+03 1.650315e+02 8.026004e+01
-3.670365e+09 -3.470413e+09 -3.630437e+09 6.906522e+03 9.958867e+02 2.345215e+03
-4.167026e+09 -3.967076e+09 -4.127100e+09 9.340405e+03 7.579472e+02 2.306796e+03
-3.400317e+09 -3.200363e+09 -3.360387e+09 8.863420e+03 1.174027e+03 3.601625e+03
-2.845021e+09 -2.645067e+09 -2.805088e+09 4.098887e+03 2.691447e+02 2.120431e+03
-4.513252e+09 -4.313296e+09 -4.473320e+09 3.088772e+03 4.805720e+02 3.169630e+02
-4.032962e+09 -3.833015e+09 -3.993042e+09 1.076791e+04 3.354922e+02 3.498026e+03
-4.820685e+09 -4.620716e+09 -4.780748e+09 8.361772e+03 -2.314648e+01 2.016941e+02
-4.451323e+09 -4.251356e+09 -4.411385e+09 5.984625e+03 5.978337e+02 5.108101e+02
-3.841532e+09 -3.641570e+09 -3.801598e+09 7.360218e+03 7.807107e+02 1.858922e+03
-4.840683e+09 -4.640729e+09 -4.800788e+09 3.561283e+04 7.108091e+03 3.532455e+03
-3.203605e+09 -3.003643e+09 -3.163668e+09 4.128376e+03 7.281483e+02 8.133566e+02
-2.484315e+09 -2.284349e+09 -2.444374e+09 3.814503e+03 9.153772e+02 9.722257e+02
-2.104055e+09 -1.904083e+09 -2.064111e+09 3.714844e+03 3.078451e+02 5.475273e+02
-1.858324e+09 -1.658357e+09 -1.818382e+09 2.260831e+03 7.213804e+02 5.634532e+02
-4.961546e+09 -4.761345e+09 -4.921615e+09 8.616197e+04 1.202620e+04 4.030399e+03
-2.931728e+09 -2.731758e+09 -2.891785e+09 2.328170e+03 3.583454e+02 1.425042e+02
-3.960922e+09 -3.760913e+09 -3.921059e+09 9.344001e+04 2.715156e+04 2.227140e+04
-1.960562e+09 -1.760594e+09 -1.920621e+09 5.672562e+03 1.159051e+03 1.799840e+03
-4.432953e+09 -4.233297e+09 -4.393289e+09 7.394023e+04 1.464501e+04 5.103467e+04
-4.846973e+09 -4.646843e+09 -4.807034e+09 3.865841e+04 1.760496e+04 5.275128e+03
-4.462229e+09 -4.262126e+09 -4.422313e+09 7.770456e+04 1.872479e+04 1.291041e+04
-5.004839e+09 -4.804598e+09 -4.964901e+09 9.506631e+04 1.869019e+04 9.765299e+03
-4.836150e+09 -4.635935e+09 -4.796235e+09 1.470017e+05 1.029769e+04 1.125109e+04
-3.962859e+09 -3.762706e+09 -3.922944e+09 9.690705e+04 3.876222e+04 2.282850e+04
-3.031690e+09 -2.831773e+09 -2.991783e+09 7.930401e+02 5.053471e+01 6.611315e+03
-4.994415e+09 -4.795049e+09 -4.954887e+09 1.187556e+05 4.143941e+04 3.152993e+04
-3.360549e+09 -3.160645e+09 -3.320659e+09 3.627367e+03 1.159835e+03 1.370689e+04
-4.992555e+09 -4.792389e+09 -4.952647e+09 1.053634e+05 1.878476e+04 2.830555e+03
-2.627748e+09 -2.427831e+09 -2.587843e+09 2.518134e+03 1.151445e+03 1.063536e+04
-1.586194e+09 -1.386270e+09 -1.546273e+09 1.779333e+03 1.262152e+03 1.065077e+04
-3.871269e+09 -3.671352e+09 -3.831369e+09 5.678246e+03 1.687790e+03 5.609974e+03
-3.674789e+09 -3.474845e+09 -3.635003e+09 1.317128e+04 -4.246124e+04 -3.741837e+03
-5.006210e+09 -4.806140e+09 -4.966437e+09 2.143141e+05 -1.829225e+04 -6.085279e+03
-2.466829e+09 -2.266907e+09 -2.426916e+09 1.117626e+03 4.225337e+02 5.056190e+03
-2.461097e+09 -2.261174e+09 -2.421184e+09 9.550065e+02 -3.027308e+01 4.437796e+03
-4.817644e+09 -4.617722e+09 -4.777838e+09 -1.016038e+05 -1.470305e+04 3.565800e+03
-4.149163e+09 -3.949169e+09 -4.109310e+09 -9.608715e+04 -2.011005e+04 3.370668e+04
-4.131185e+09 -3.931254e+09 -4.091369e+09 -1.008257e+05 -1.569725e+04 3.550506e+04
-4.824714e+09 -4.624778e+09 -4.784873e+09 -6.723524e+04 -2.181175e+02 1.471496e+04
-4.476527e+09 -4.276238e+09 -4.436613e+09 -1.889394e+05 4.718569e+04 -1.663763e+04
-3.981844e+09 -3.781537e+09 -3.941878e+09 -1.098949e+05 3.034049e+04 -2.001060e+04
-4.138379e+09 -3.938530e+09 -4.098565e+09 -1.975792e+04 -3.600848e+03 2.184193e+04
-4.502662e+09 -4.302304e+09 -4.462694e+09 -1.223680e+05 4.435570e+04 -1.303715e+04
-4.998327e+09 -4.797944e+09 -4.958343e+09 -1.104342e+05 2.792492e+04 -1.733976e+04
-4.511602e+09 -4.311371e+09 -4.471665e+09 -1.407894e+05 3.396293e+04 -2.019316e+04
-4.698522e+09 -4.498295e+09 -4.658613e+09 -1.123199e+05 2.022179e+04 -7.610714e+03
-4.984810e+09 -4.785491e+09 -4.945028e+09 -2.859027e+05 5.383408e+04 -2.002448e+04
-4.133803e+09 -3.934772e+09 -4.093211e+09 -4.002702e+05 -1.044281e+05 2.260324e+05
-3.954183e+09 -3.754836e+09 -3.914234e+09 -4.347452e+05 -1.469422e+05 9.093475e+04
-4.640680e+09 -4.440097e+09 -4.600571e+09 -1.852850e+04 -1.712026e+03 1.001574e+04
-4.833341e+09 -4.633020e+09 -4.793369e+09 1.228299e+05 6.925477e+03 9.817691e+03
-4.592509e+09 -4.392331e+09 -4.552541e+09 1.136241e+04 6.059330e+03 -5.458638e+02
-4.854821e+09 -4.654570e+09 -4.814897e+09 -1.300071e+05 2.548785e+04 -2.525993e+04
-4.324709e+09 -4.124377e+09 -4.284763e+09 1.828451e+05 4.925996e+04 2.189543e+04
-3.973388e+09 -3.773191e+09 -3.933429e+09 5.139923e+04 2.712133e+04 9.406762e+03
-3.142498e+09 -2.942950e+09 -3.102917e+09 -9.852466e+04 5.112278e+04 -9.348517e+04
-3.977872e+09 -3.777665e+09 -3.937939e+09 1.403886e+05 5.243395e+04 2.806223e+04
-1.917885e+09 -1.718165e+09 -1.878181e+09 -1.468187e+04 2.088171e+03 -5.226561e+04
-3.977861e+09 -3.777627e+09 -3.937929e+09 1.810825e+05 3.518914e+04 2.920383e+04
-5.000876e+09 -4.800506e+09 -4.960817e+09 2.897367e+05 7.710901e+04 4.426346e+04
-2.471260e+09 -2.271867e+09 -2.431633e+09 -3.661928e+04 -2.611303e+04 -1.164602e+05
-5.011362e+09 -4.811429e+09 -4.971493e+09 -4.093730e+04 -3.701356e+03 6.119241e+03
-2.732346e+09 -2.532799e+09 -2.692774e+09 -9.177916e+03 -8.788406e+03 -2.536974e+04
-3.747671e+09 -3.548252e+09 -3.708186e+09 -3.409898e+04 2.086816e+04 1.086896e+04
-3.977407e+09 -3.777446e+09 -3.937494e+09 -2.399514e+04 -5.277539e+03 7.406575e+03
-2.526912e+09 -2.327143e+09 -2.487181e+09 -5.510021e+04 5.584306e+04 -4.720639e+04
-4.319115e+09 -4.119152e+09 -4.279282e+09 -9.591611e+04 -1.749167e+04 2.178309e+04
-4.997947e+09 -4.798017e+09 -4.958103e+09 -6.435057e+04 -3.697786e+03 6.883467e+03
-2.214404e+09 -2.014747e+09 -2.174649e+09 -7.278330e+04 5.072146e+04 -1.016477e+05
-3.181931e+09 -2.981840e+09 -3.141966e+09 1.538683e+04 3.253556e+04 2.098654e+04
-4.824635e+09 -4.624417e+09 -4.784715e+09 -2.247633e+05 -7.185398e+03 2.347200e+04
-2.215535e+09 -2.015467e+09 -2.175554e+09 1.226035e+04 3.219859e+04 1.222203e+04
-3.208360e+09 -3.008288e+09 -3.168398e+09 1.931854e+04 1.258000e+04 1.073078e+04
-4.794606e+09 -4.593432e+09 -4.753390e+09 6.593013e+03 1.752860e+05 -3.201870e+03
-4.810315e+09 -4.609349e+09 -4.769468e+09 -2.452104e+05 7.344196e+04 -1.212068e+04
-4.964574e+09 -4.763418e+09 -4.923017e+09 5.694016e+04 -3.537711e+04 -4.158586e+04
-4.994316e+09 -4.793167e+09 -4.953459e+09 -4.816132e+03 -5.256449e+04 -1.157786e+04
-1.872437e+09 -1.672368e+09 -1.832447e+09 1.541228e+03 2.724526e+04 1.950575e+04
-4.812619e+09 -4.611578e+09 -4.771920e+09 -7.407373e+04 -7.849570e+04 3.648534e+04
-4.982580e+09 -4.781644e+09 -4.942009e+09 -9.999206e+04 -8.165050e+04 -6.679598e+03
-2.302872e+09 -2.102795e+09 -2.262891e+09 2.201255e+04 4.078403e+04 1.848323e+04
-4.827373e+09 -4.626878e+09 -4.787321e+09 5.413460e+04 3.596296e+04 1.227430e+04
-4.140915e+09 -3.940449e+09 -4.100847e+09 5.023387e+04 4.352952e+04 2.304279e+03
-4.442147e+09 -4.242316e+09 -4.402392e+09 -8.787382e+04 -1.053465e+04 2.656595e+04
-4.138373e+09 -3.938022e+09 -4.098366e+09 1.305616e+04 4.223173e+04 -1.576663e+03
-4.977241e+09 -4.777498e+09 -4.937210e+09 -4.101756e+05 -2.097241e+04 5.259917e+04
-4.962650e+09 -4.762882e+09 -4.922948e+09 -8.914038e+04 -1.399385e+04 1.611490e+04
-4.305470e+09 -4.105147e+09 -4.265468e+09 -2.168293e+04 5.197630e+04 -8.815703e+03
-4.131298e+09 -3.930817e+09 -4.091212e+09 -6.630494e+03 3.841061e+04 -3.170724e+03
-4.997424e+09 -4.797702e+09 -4.957723e+09 -1.501001e+03 -2.216904e+02 1.646208e+04
-4.477687e+09 -4.278218e+09 -4.438108e+09 1.000296e+05 1.073217e+04 4.227929e+04
-3.970545e+09 -3.770894e+09 -3.930869e+09 -1.666092e+04 9.162759e+01 4.218483e+04
-3.937983e+09 -3.737580e+09 -3.897595e+09 3.883102e+05 -5.980713e+04 -1.213036e+04
-4.820621e+09 -4.620200e+09 -4.780604e+09 -4.264824e+04 6.084498e+03 -2.137148e+03
-4.140316e+09 -3.939974e+09 -4.100308e+09 -2.658949e+04 4.213618e+04 -5.498323e+03
-3.929549e+09 -3.729676e+09 -3.889406e+09 4.281666e+05 4.132736e+04 2.623643e+04
-4.818867e+09 -4.618796e+09 -4.779019e+09 2.156270e+05 -2.215342e+03 -5.777878e+03
-4.318527e+09 -4.117998e+09 -4.278458e+09 -9.753030e+04 8.149551e+04 -2.759316e+04
-4.817939e+09 -4.616730e+09 -4.774672e+09 -2.808466e+05 -3.157286e+04 2.152495e+05
-3.956922e+09 -3.756919e+09 -3.916204e+09 -5.221879e+05 -6.541680e+04 4.841845e+04
-4.991079e+09 -4.790574e+09 -4.951040e+09 2.602377e+03 4.104209e+04 -8.488855e+03
-4.817753e+09 -4.617228e+09 -4.777687e+09 -1.180107e+04 4.761409e+04 5.171688e+03
-4.993177e+09 -4.792403e+09 -4.948480e+09 -5.984119e+05 -2.723673e+04 1.150976e+05
-4.993697e+09 -4.793319e+09 -4.948809e+09 -2.625946e+05 1.025205e+04 9.157717e+04
-4.817169e+09 -4.617180e+09 -4.775867e+09 -6.713857e+05 -1.356939e+04 2.203330e+05
-4.813685e+09 -4.613075e+09 -4.773538e+09 -4.032174e+04 -1.074876e+04 -6.118327e+03
-3.961047e+09 -3.760553e+09 -3.920942e+09 -2.254134e+04 4.940507e+04 9.632410e+03
-4.127204e+09 -3.926608e+09 -4.087100e+09 -3.546631e+04 9.708218e+04 -1.692575e+03
-3.971423e+09 -3.771375e+09 -3.931569e+09 2.556460e+05 4.071894e+04 1.402357e+04
-3.040053e+09 -2.840001e+09 -3.000107e+09 -2.974095e+03 2.867914e+04 -4.215015e+03
-3.084974e+09 -2.884915e+09 -3.045026e+09 -7.003329e+03 2.376683e+04 -5.427289e+03
-1.683042e+09 -1.482981e+09 -1.643061e+09 -1.789201e+01 1.734361e+04 -4.120190e+03
-3.970522e+09 -3.770834e+09 -3.930850e+09 -3.105037e+04 5.662744e+03 4.146526e+04
-3.950293e+09 -3.750633e+09 -3.910619e+09 2.521977e+04 -3.004516e+03 4.222872e+04
-3.960228e+09 -3.760663e+09 -3.920629e+09 3.351474e+04 1.887976e+04 3.761539e+04
-4.447532e+09 -4.247948e+09 -4.407887e+09 1.183814e+05 1.312982e+04 4.251722e+04
-4.146374e+09 -3.946604e+09 -4.106637e+09 -2.248412e+03 -1.071775e+03 3.619741e+04
-4.650181e+09 -4.450508e+09 -4.610513e+09 4.244756e+03 -7.252851e+03 1.911165e+04
-1.696368e+09 -1.496316e+09 -1.656392e+09 -4.818614e+02 2.746479e+04 -5.346854e+03
-4.301695e+09 -4.102505e+09 -4.261909e+09 2.192671e+05 -1.914820e+04 -6.302367e+04
-4.820854e+09 -4.621442e+09 -4.781312e+09 6.931369e+04 5.602679e+03 -1.212452e+04
-3.964819e+09 -3.765211e+09 -3.925186e+09 -1.170463e+05 -5.517909e+02 5.120484e+04
-4.317641e+09 -4.118227e+09 -4.278146e+09 4.080980e+04 5.960850e+03 7.548891e+04
-4.989895e+09 -4.790368e+09 -4.950324e+09 3.024143e+04 -7.578429e+03 4.996440e+04
-2.187510e+09 -1.987458e+09 -2.147537e+09 -1.212270e+03 2.375597e+04 1.395653e+03
-4.649349e+09 -4.449361e+09 -4.609583e+09 3.070686e+05 2.891973e+03 3.458652e+01
-4.114817e+09 -3.914331e+09 -4.074561e+09 3.453441e+05 3.093937e+04 1.269614e+04
-4.997582e+09 -4.796973e+09 -4.957340e+09 2.527343e+05 5.199965e+04 2.088300e+04
-3.967841e+09 -3.767404e+09 -3.927594e+09 2.967902e+05 3.460185e+03 -3.382267e+04
-4.959196e+09 -4.759438e+09 -4.918957e+09 4.387637e+05 -5.307625e+03 3.629334e+04
-4.615850e+09 -4.416204e+09 -4.575723e+09 4.866653e+05 4.934007e+04 6.797445e+04
-4.629603e+09 -4.429870e+09 -4.589915e+09 1.186833e+05 1.522005e+03 2.082965e+04
-2.176317e+09 -1.976365e+09 -2.136385e+09 7.233584e+03 1.699902e+03 4.171277e+03
-4.292393e+09 -4.093070e+09 -4.252601e+09 -4.108216e+05 9.124377e+04 -1.554452e+04
-4.968850e+09 -4.770139e+09 -4.926918e+09 -8.502039e+04 1.069066e+05 -6.042668e+04
-4.991691e+09 -4.791548e+09 -4.951523e+09 -4.411775e+05 -4.361950e+04 3.409013e+04
-4.808401e+09 -4.609002e+09 -4.767357e+09 -5.879891e+05 -4.357136e+02 -8.670763e+04
-4.975835e+09 -4.776972e+09 -4.935633e+09 -4.526532e+04 -5.583498e+04 7.945552e+04
-4.132727e+09 -3.933481e+09 -4.093187e+09 8.834280e+04 2.064515e+04 8.787501e+04
-2.026876e+09 -1.826943e+09 -1.986955e+09 4.503757e+03 1.785330e+03 4.950842e+03
-2.797368e+09 -2.597425e+09 -2.757444e+09 1.080683e+04 2.937530e+03 6.347920e+03
-1.506877e+09 -1.306934e+09 -1.466948e+09 6.939886e+03 2.584248e+03 7.087063e+03
-1.789249e+09 -1.589308e+09 -1.749324e+09 8.656087e+03 1.708975e+03 8.558552e+03
-2.819534e+09 -2.619594e+09 -2.779615e+09 8.026491e+03 2.739311e+03 6.925377e+03
-2.392342e+09 -2.192394e+09 -2.352414e+09 6.102615e+03 7.117730e+02 3.266544e+03
-2.196722e+09 -1.997066e+09 -2.157006e+09 -4.647768e+03 -6.176127e+03 2.393337e+04
-4.796113e+09 -4.597628e+09 -4.753662e+09 2.191683e+05 6.675875e+04 7.263849e+05
-3.206579e+09 -3.006632e+09 -3.166653e+09 5.126641e+03 1.600751e+03 2.348338e+03
-3.127152e+09 -2.927111e+09 -3.087206e+09 -1.773093e+04 -1.183686e+04 1.208799e+04
-3.913297e+09 -3.713336e+09 -3.873361e+09 -3.860035e+03 -9.311178e+02 1.369521e+02
-2.754278e+09 -2.554313e+09 -2.714338e+09 -5.149619e+02 -3.613034e+02 5.046469e+01
-3.811878e+09 -3.611912e+09 -3.771936e+09 -7.158436e+02 -8.365224e+01 8.624356e+01
-3.256774e+09 -3.056808e+09 -3.216833e+09 -1.271166e+03 -2.436609e+02 5.900724e+02
-4.977167e+09 -4.777339e+09 -4.937514e+09 -1.257575e+05 1.099949e+04 -2.313821e+04
-4.806208e+09 -4.606529e+09 -4.766638e+09 -1.529528e+05 6.355748e+03 -2.081941e+04
-2.849386e+09 -2.649424e+09 -2.809447e+09 -7.248040e+02 -2.985722e+02 -7.375654e+01
-4.620510e+09 -4.420549e+09 -4.580571e+09 -8.267803e+02 -1.766346e+02 2.013163e+02
-4.889891e+09 -4.690083e+09 -4.850251e+09 -2.111776e+04 1.089814e+04 -4.084852e-03
-3.050781e+09 -2.850822e+09 -3.010844e+09 -6.191561e+02 -7.317391e+02 7.987867e+02
-3.268502e+09 -3.068435e+09 -3.228551e+09 1.688467e+03 -3.404669e+03 6.238300e+01
-3.090050e+09 -2.890249e+09 -3.050277e+09 -1.447472e+05 5.519320e+04 -1.002336e+05
-4.983565e+09 -4.783615e+09 -4.943805e+09 -3.559255e+04 6.539397e+03 -4.314988e+03
-3.281507e+09 -3.081448e+09 -3.241576e+09 8.750134e+03 -2.674175e+04 -3.338863e+03
-4.435460e+09 -4.235384e+09 -4.395547e+09 2.455444e+04 -8.778098e+03 -7.545377e+03
-3.878190e+09 -3.678133e+09 -3.838267e+09 3.556854e+03 -1.647824e+04 -1.270480e+03
-1.828955e+09 -1.628896e+09 -1.788975e+09 6.207442e+03 -1.352567e+04 -8.233265e+03
-4.438481e+09 -4.238549e+09 -4.398727e+09 1.712725e+04 -2.283948e+04 -6.211504e+02
-2.971416e+09 -2.771420e+09 -2.931557e+09 3.612323e+04 -5.971473e+04 -2.236158e+04
-3.530272e+09 -3.330216e+09 -3.490390e+09 6.961562e+04 -5.756541e+04 -3.365973e+04
-2.564844e+09 -2.364764e+09 -2.524883e+09 9.067893e+03 -2.334631e+04 -1.583766e+04
-3.759419e+09 -3.559332e+09 -3.719526e+09 4.184004e+04 -2.457275e+04 -1.751257e+04
-4.647774e+09 -4.447689e+09 -4.607843e+09 1.269265e+04 -6.890645e+03 -7.313046e+02
-1.636089e+09 -1.436005e+09 -1.596092e+09 -4.976109e+02 3.831928e+03 -7.828969e+03
-3.407348e+09 -3.207230e+09 -3.367373e+09 2.133960e+03 2.860110e+03 5.399337e+03
-4.129803e+09 -3.929738e+09 -4.089914e+09 3.562791e+04 -2.177482e+04 -8.913756e+03
-3.978751e+09 -3.778673e+09 -3.938822e+09 1.564626e+04 -1.135521e+04 -8.141331e+03
-4.567811e+09 -4.367746e+09 -4.527934e+09 3.633541e+04 -1.136984e+04 -5.314230e+03
-4.615053e+09 -4.415096e+09 -4.575127e+09 1.148701e+04 7.023728e+02 1.547361e+03
-4.144124e+09 -3.944171e+09 -4.104208e+09 1.928373e+04 4.688805e+03 4.239389e+03
-5.004065e+09 -4.804122e+09 -4.964157e+09 1.902694e+04 7.471462e+02 8.911743e+02
-4.905188e+09 -4.705046e+09 -4.865222e+09 3.044797e+03 1.014447e-04 3.620631e+01
-4.303265e+09 -4.103313e+09 -4.263344e+09 1.443724e+04 1.529612e+03 2.431796e+03
-4.808736e+09 -4.608787e+09 -4.768818e+09 1.349559e+04 -7.346500e+02 1.867027e+03
-3.953710e+09 -3.754620e+09 -3.912671e+09 5.466612e+05 3.492529e+05 3.867533e+05
-3.671367e+09 -3.471317e+09 -3.631408e+09 2.731933e+03 2.500279e+03 3.585392e+03
-4.918065e+09 -4.717912e+09 -4.878095e+09 1.536260e+03 1.289446e-05 4.700307e+02
-4.965688e+09 -4.765538e+09 -4.925724e+09 4.199038e+03 1.105293e+03 1.921965e+02
-4.478154e+09 -4.278053e+09 -4.438202e+09 -1.356382e+04 5.092513e+03 -2.779410e+03
-3.322982e+09 -3.122890e+09 -3.283007e+09 -1.342713e+03 2.337227e+03 -6.985458e+03
-4.617395e+09 -4.417448e+09 -4.577479e+09 1.270169e+04 5.244882e+02 2.390716e+03
-3.152266e+09 -2.952145e+09 -3.112303e+09 -3.540878e+04 3.530322e+04 -8.749918e+03
-2.094357e+09 -1.894434e+09 -2.054439e+09 -2.429740e+03 -8.554734e+02 4.677801e+03
-4.664900e+09 -4.464796e+09 -4.624948e+09 -1.956941e+04 8.384454e+03 -7.508172e+02
-2.807585e+09 -2.607512e+09 -2.767605e+09 -2.638928e+03 3.536903e+03 -2.341325e+03
-3.004487e+09 -2.804565e+09 -2.964577e+09 -6.177728e+03 -2.502633e+03 1.053498e+04
-2.735225e+09 -2.535300e+09 -2.695311e+09 -3.385394e+03 -1.785737e+03 5.953941e+03
-2.984787e+09 -2.784871e+09 -2.944882e+09 -4.229156e+03 -1.657759e+03 1.200183e+04
-2.642500e+09 -2.442577e+09 -2.602591e+09 -5.676429e+03 -1.534211e+02 9.160254e+03
-2.865198e+09 -2.665076e+09 -2.825214e+09 1.989611e+02 4.963654e+03 9.303511e+02
-3.470044e+09 -3.270131e+09 -3.430145e+09 -5.801053e+03 -1.411377e+03 8.500886e+03
-2.719324e+09 -2.519204e+09 -2.679337e+09 -6.036460e+02 2.487867e+04 4.910414e+03
-2.905363e+09 -2.705231e+09 -2.865372e+09 -1.664272e+03 2.664950e+04 -3.120505e+03
-2.278959e+09 -2.078850e+09 -2.238972e+09 -1.762869e+04 3.338343e+04 -1.370406e+04
-2.797457e+09 -2.597534e+09 -2.757543e+09 -4.018460e+03 -1.285860e+03 6.222179e+03
-1.576075e+09 -1.376089e+09 -1.536126e+09 -9.109979e+03 -7.697814e+03 9.197599e+03
-4.988908e+09 -4.789177e+09 -4.948119e+09 5.910373e+05 -4.221713e+04 -1.163202e+04
-4.057184e+09 -3.857264e+09 -4.017275e+09 -1.404918e+03 -4.015496e+02 1.623615e+03
-3.215433e+09 -3.015518e+09 -3.175534e+09 -3.541240e+03 -4.283901e+03 1.170032e+04
-3.981687e+09 -3.781739e+09 -3.941800e+09 -3.768497e+04 -7.299367e+03 8.407544e+03
-4.484639e+09 -4.284685e+09 -4.444747e+09 -3.482523e+04 -4.920003e+03 6.683737e+03
-2.946081e+09 -2.746150e+09 -2.906167e+09 -7.469477e+03 -2.837074e+03 8.859740e+03
-3.211328e+09 -3.011403e+09 -3.171422e+09 -1.065690e+04 -6.094426e+02 9.415396e+03
-1.879374e+09 -1.679382e+09 -1.839423e+09 -1.353062e+04 -1.184886e+04 1.390676e+04
-3.465827e+09 -3.265906e+09 -3.425922e+09 -7.850127e+03 -1.722072e+03 6.832002e+03
-3.397070e+09 -3.197127e+09 -3.357144e+09 1.724933e+03 8.716336e+02 5.042954e+02
-3.972887e+09 -3.773062e+09 -3.932783e+09 3.999625e+05 -2.510431e+04 -7.785943e+03
-3.596949e+09 -3.397010e+09 -3.557027e+09 1.870632e+03 1.035505e+03 1.243280e+03
-5.002807e+09 -4.802974e+09 -4.963052e+09 -2.134795e+05 -6.010518e+03 1.276248e+04
-2.033992e+09 -1.834060e+09 -1.994074e+09 -6.526401e+03 -2.350403e+03 7.517423e+03
-3.415142e+09 -3.215213e+09 -3.375230e+09 -9.068413e+03 -1.728207e+03 5.634648e+03
-4.971114e+09 -4.771119e+09 -4.931180e+09 -6.331331e+03 -7.044783e+02 -7.141343e+01
-1.649016e+09 -1.448998e+09 -1.609050e+09 -2.612851e+03 -3.908032e+03 1.026229e+04
-3.182145e+09 -2.982216e+09 -3.142235e+09 -7.065280e+03 -4.463064e+03 8.438235e+03
-4.331019e+09 -4.130923e+09 -4.291087e+09 -3.881419e+04 1.972013e+04 -5.389860e+03
-1.698280e+09 -1.498291e+09 -1.658334e+09 -1.157426e+04 -1.170996e+04 1.419805e+04
-3.899165e+09 -3.699159e+09 -3.859227e+09 -6.744834e+03 -2.564763e+03 7.634795e+03
-3.240544e+09 -3.040629e+09 -3.200645e+09 -8.662272e+03 6.418384e+01 1.091105e+04
-2.265864e+09 -2.065939e+09 -2.225950e+09 -5.227571e+03 -3.021524e+03 8.422913e+03
-3.117561e+09 -2.917624e+09 -3.077643e+09 -6.542681e+03 -2.726124e+03 4.601848e+03
-2.286595e+09 -2.086657e+09 -2.246672e+09 -5.720443e+03 -1.655202e+03 3.878461e+03
-2.190512e+09 -1.990577e+09 -2.150589e+09 3.027562e+03 -2.162236e+02 1.150304e+03
-2.212885e+09 -2.012955e+09 -2.172968e+09 8.798617e+03 3.087149e+03 9.714159e+03
-4.974465e+09 -4.774521e+09 -4.934542e+09 2.778539e+03 -4.596266e+02 2.154919e+02
-1.674298e+09 -1.474339e+09 -1.634362e+09 1.934976e+03 7.098270e+02 3.089296e+02
-1.675232e+09 -1.475286e+09 -1.635303e+09 1.939872e+03 1.024828e+03 8.735884e+02
-2.535306e+09 -2.335284e+09 -2.495360e+09 -2.218156e+04 -2.364631e+04 2.073108e+04
-2.863922e+09 -2.663990e+09 -2.824007e+09 -4.670697e+03 -2.763729e+03 7.309150e+03
-2.757686e+09 -2.557581e+09 -2.717704e+09 -9.953819e+03 1.785723e+04 -1.012692e+04
-3.764149e+09 -3.564064e+09 -3.724179e+09 -1.757685e+03 2.009349e+03 -5.248628e+03
-1.570467e+09 -1.370521e+09 -1.530538e+09 3.919955e+03 1.250613e+03 2.586416e+03
-1.648968e+09 -1.449026e+09 -1.609041e+09 9.789664e+02 8.939037e+02 1.162441e+03
-3.292530e+09 -3.092596e+09 -3.252619e+09 9.869425e+03 2.746253e+03 7.415390e+03
-1.887151e+09 -1.687059e+09 -1.847154e+09 -4.397641e+03 1.507265e+04 -8.790025e+03
-2.364565e+09 -2.164461e+09 -2.324579e+09 -1.628667e+04 3.355112e+04 -1.147471e+04
-3.081874e+09 -2.881937e+09 -3.041961e+09 1.141156e+04 3.576295e+03 7.604749e+03
-2.858351e+09 -2.658403e+09 -2.818422e+09 1.932467e+03 1.322999e+03 2.438710e+02
-2.634608e+09 -2.434607e+09 -2.594659e+09 -4.795827e+03 -3.617743e+03 7.377416e+03
-1.636245e+09 -1.436246e+09 -1.596290e+09 -1.506026e+03 -1.678636e+03 7.383788e+03
-2.260739e+09 -2.060665e+09 -2.220765e+09 -4.435416e+03 -1.304473e+03 1.443191e+04
-4.052773e+09 -3.852761e+09 -4.012836e+09 -3.476117e+03 -5.766503e+02 5.889362e+03
-1.675428e+09 -1.475352e+09 -1.635440e+09 -3.839548e+03 4.259025e+04 -1.995314e+04
-4.013011e+09 -3.813015e+09 -3.973074e+09 -2.428892e+03 -2.997201e+02 4.165279e+03
-4.376001e+09 -4.176031e+09 -4.336060e+09 4.191729e+03 -1.958121e+02 8.249503e+02
-4.510291e+09 -4.310321e+09 -4.470352e+09 6.645686e+03 1.549619e+03 5.989762e+02
-4.641998e+09 -4.442022e+09 -4.602055e+09 6.033172e+03 -1.986316e+02 8.626353e+02
-4.196257e+09 -3.996282e+09 -4.156311e+09 3.028439e+03 1.559854e+02 2.736159e+02
-2.847017e+09 -2.646946e+09 -2.807040e+09 -8.858938e+02 7.925530e+03 -3.142439e+03
-1.770104e+09 -1.570035e+09 -1.730115e+09 1.279506e+02 1.287998e+04 -4.690385e+03
-3.982048e+09 -3.782051e+09 -3.942097e+09 1.496579e+03 -4.567918e+02 1.218995e+03
-1.649012e+09 -1.449000e+09 -1.609051e+09 -1.589677e+03 -2.177929e+03 9.854634e+03
-4.101980e+09 -3.901979e+09 -4.062044e+09 -7.928199e+03 -1.582205e+03 3.920870e+03
-2.545564e+09 -2.345551e+09 -2.505607e+09 8.471794e+03 5.105128e+03 4.883856e+03
-4.184982e+09 -3.984955e+09 -4.145034e+09 1.541322e+04 5.306730e+03 4.236389e+03
-3.487227e+09 -3.287224e+09 -3.447274e+09 3.541261e+03 2.079629e+03 2.649882e+03
-1.914951e+09 -1.714958e+09 -1.875000e+09 7.073862e+03 2.172588e+03 3.216123e+03
-1.594502e+09 -1.394476e+09 -1.554533e+09 2.313216e+03 -5.862854e+04 -2.262408e+04
-4.714391e+09 -4.514931e+09 -4.674958e+09 6.700918e+04 -7.394945e+03 8.403038e+03
-2.912401e+09 -2.712567e+09 -2.872634e+09 3.623942e+04 -5.646159e+04 -3.411558e+04
-3.825427e+09 -3.625433e+09 -3.785477e+09 2.695206e+03 7.334968e+01 2.178914e+03
-2.938023e+09 -2.738037e+09 -2.898092e+09 -1.676503e+04 -9.597471e+03 1.276964e+04
-2.602681e+09 -2.402706e+09 -2.562798e+09 4.762365e+03 -5.932031e+04 -3.082855e+03
-3.143672e+09 -2.943698e+09 -3.103737e+09 -1.174926e+04 -4.190183e+03 6.036827e+03
-3.714787e+09 -3.514717e+09 -3.674842e+09 -3.544675e+03 -1.586069e+03 1.030323e+04
-3.403568e+09 -3.203592e+09 -3.363630e+09 -1.272329e+04 -4.403428e+03 4.867774e+03
-1.930310e+09 -1.730222e+09 -1.890318e+09 -5.300858e+03 -9.407218e+03 -1.599212e+04
-2.181900e+09 -1.981827e+09 -2.141936e+09 1.548395e+04 -5.279461e+04 -2.702838e+04
-2.950748e+09 -2.750770e+09 -2.910808e+09 -7.422373e+03 -2.887120e+03 5.529976e+03
-3.841012e+09 -3.640865e+09 -3.801039e+09 -1.355389e+04 1.360232e+04 -3.602892e+03
-4.301362e+09 -4.101508e+09 -4.261563e+09 4.566651e+04 1.115073e+04 2.668084e+04
-2.743429e+09 -2.543311e+09 -2.703449e+09 9.194296e+02 -3.981082e+03 -1.226089e+04
-3.414804e+09 -3.214665e+09 -3.374828e+09 -2.233535e+04 3.115404e+04 -1.348075e+04
-4.991842e+09 -4.791886e+09 -4.951912e+09 6.461477e+03 -3.467965e+02 1.281927e+02
-3.115650e+09 -2.915708e+09 -3.075730e+09 8.324188e+03 4.800247e+03 7.121456e+03
-1.674000e+09 -1.473922e+09 -1.634007e+09 -4.738907e+03 5.075362e+04 -1.900200e+04
-2.999728e+09 -2.799787e+09 -2.959803e+09 7.272022e+02 2.896352e+02 9.054359e+02
-3.491444e+09 -3.291301e+09 -3.451474e+09 -5.491799e+03 3.245114e+04 -3.138493e+03
-3.116822e+09 -2.916709e+09 -3.076853e+09 -1.308979e+04 2.636049e+04 -1.323027e+04
-4.987879e+09 -4.788060e+09 -4.948112e+09 6.629368e+04 5.248488e+03 1.048445e+04
-1.698647e+09 -1.498704e+09 -1.658720e+09 -6.246231e+03 -2.621678e+03 8.281039e+03
-2.595440e+09 -2.395502e+09 -2.555517e+09 -3.070227e+03 -5.612556e+02 2.497618e+03
-3.663759e+09 -3.463814e+09 -3.623833e+09 1.032353e+03 1.199717e+02 8.700647e+02
-4.815370e+09 -4.615515e+09 -4.775581e+09 6.604461e+04 9.778663e+03 1.423311e+04
-3.394129e+09 -3.194190e+09 -3.354209e+09 -9.254448e+03 -1.896174e+03 5.152700e+03
-1.937868e+09 -1.737816e+09 -1.897899e+09 -2.092634e+04 -4.592555e+04 2.042308e+04
-1.906450e+09 -1.706463e+09 -1.866524e+09 -2.663430e+04 6.182542e+04 -1.472445e+04
-1.871247e+09 -1.671159e+09 -1.831248e+09 -4.322702e+03 4.341622e+04 1.828880e+04
-2.766596e+09 -2.566574e+09 -2.726687e+09 -4.249123e+03 4.914393e+04 -2.525552e+03
-2.181292e+09 -1.981194e+09 -2.141298e+09 1.808394e+04 5.363946e+04 1.553528e+04
-4.108769e+09 -3.908643e+09 -4.068813e+09 2.568085e+04 1.444681e+04 9.380423e+03
-3.997007e+09 -3.796857e+09 -3.957051e+09 3.861683e+04 2.554262e+04 6.001058e+03
-3.222300e+09 -3.022191e+09 -3.182347e+09 3.536493e+04 3.804848e+04 1.453688e+04
-3.546260e+09 -3.346134e+09 -3.506296e+09 3.044759e+04 3.255305e+04 9.643190e+03
-1.681208e+09 -1.481148e+09 -1.641226e+09 1.963959e+03 8.622126e+03 9.329230e+03
-4.991746e+09 -4.791736e+09 -4.951940e+09 -7.126855e+04 9.975444e+03 -7.381694e+03
-2.188359e+09 -1.988276e+09 -2.148374e+09 2.286193e+04 4.538754e+04 1.670059e+04
-2.930087e+09 -2.730124e+09 -2.890147e+09 -1.281867e+03 -6.073123e+02 6.543745e+02
-3.405274e+09 -3.205316e+09 -3.365497e+09 -1.538037e+05 8.523680e+04 -7.920321e+04
-3.808814e+09 -3.608856e+09 -3.768878e+09 -2.978064e+03 -5.793233e+02 7.690511e+02
-2.276246e+09 -2.076283e+09 -2.236307e+09 -2.995845e+03 -4.630920e+02 7.333886e+02
-2.758463e+09 -2.558612e+09 -2.718680e+09 -2.879371e+03 5.797069e+04 1.461382e+03
-4.890020e+09 -4.690043e+09 -4.850220e+09 -1.231825e+04 8.154297e+03 -1.793689e-03
-2.694587e+09 -2.494621e+09 -2.654648e+09 -4.570092e+03 -1.366357e+03 2.053362e+03
-1.922864e+09 -1.722847e+09 -1.882903e+09 2.613112e+01 -4.009945e+03 8.873560e+03
-2.954958e+09 -2.754906e+09 -2.915054e+09 -4.200464e+04 6.768561e+04 -3.537157e+04
-2.228166e+09 -2.028196e+09 -2.188223e+09 -2.183863e+03 -5.254585e+02 9.309470e+02
-3.326157e+09 -3.126191e+09 -3.286216e+09 -4.333776e+03 -7.282576e+02 1.056687e+03
-2.791769e+09 -2.591732e+09 -2.751818e+09 -2.099296e+03 -3.099384e+03 1.236772e+04
-2.153927e+09 -1.953857e+09 -2.113943e+09 -2.839393e+03 6.050389e+03 -3.660056e+03
-1.583386e+09 -1.383321e+09 -1.543397e+09 -2.043094e+03 2.354753e+04 -1.113467e+04
-1.570391e+09 -1.370387e+09 -1.530433e+09 -6.891974e+03 -1.189418e+04 1.128404e+04
-3.638213e+09 -3.438126e+09 -3.598251e+09 -9.420127e+03 9.697414e+03 -6.374614e+03
-1.570397e+09 -1.370388e+09 -1.530436e+09 -7.548037e+03 -1.204051e+04 1.402111e+04
-3.710941e+09 -3.510918e+09 -3.671004e+09 -7.491618e+03 -3.995614e+03 1.003857e+04
-2.220849e+09 -2.020827e+09 -2.180890e+09 -2.910849e+03 -4.336206e+03 1.198812e+04
-1.570401e+09 -1.370386e+09 -1.530437e+09 -6.669354e+03 -1.135368e+04 1.269956e+04
-4.808313e+09 -4.608233e+09 -4.768410e+09 -3.909275e+04 1.003112e+04 -3.915816e+03
-1.658264e+09 -1.458259e+09 -1.618307e+09 -3.084366e+03 -3.825199e+03 9.442911e+03
-2.441079e+09 -2.241014e+09 -2.401101e+09 -1.902567e+03 1.445215e+04 -7.121496e+02
-2.267608e+09 -2.067550e+09 -2.227633e+09 -5.368810e+03 2.133500e+04 -5.917163e+03
-1.951833e+09 -1.751768e+09 -1.911851e+09 -2.844311e+03 1.339839e+04 -2.158344e+03
-3.681931e+09 -3.481859e+09 -3.641961e+09 -1.236079e+03 2.448116e+03 -8.283974e+02
-2.089257e+09 -1.889299e+09 -2.049320e+09 -5.380193e+02 -6.692084e+01 3.708781e+02
-2.175714e+09 -1.975753e+09 -2.135776e+09 -4.941073e+02 -3.454680e+00 3.051037e+02
-1.598095e+09 -1.398137e+09 -1.558159e+09 -1.272015e+03 -4.491660e+02 2.305812e+02
-1.819243e+09 -1.619330e+09 -1.779245e+09 -8.724219e+03 4.982130e+04 -4.333821e+04
-2.929773e+09 -2.729691e+09 -2.889803e+09 -1.148000e+04 2.249743e+04 -1.483994e+04
-2.941045e+09 -2.740978e+09 -2.901092e+09 -9.858696e+03 2.232303e+04 -6.387654e+03
-2.161575e+09 -1.961857e+09 -2.121837e+09 -2.000226e+04 3.992816e+04 -5.583978e+04
-1.697337e+09 -1.497391e+09 -1.657308e+09 8.163094e+03 4.936113e+04 -1.307060e+05
-3.069406e+09 -2.869381e+09 -3.029519e+09 -1.700599e+04 5.163497e+04 -1.459696e+04
-3.423788e+09 -3.224530e+09 -3.384217e+09 -1.142074e+05 1.945071e+04 -1.113766e+05
-2.631723e+09 -2.431660e+09 -2.591760e+09 -6.823975e+03 2.090315e+04 -5.760560e+03
-1.887257e+09 -1.687198e+09 -1.847276e+09 -1.472402e+03 1.778334e+04 -5.688115e+03
-3.221111e+09 -3.020998e+09 -3.181152e+09 -2.814039e+04 -4.811503e+04 2.954344e+04
-1.696645e+09 -1.496697e+09 -1.656539e+09 -8.578056e+03 -3.910894e+04 -1.520552e+05
-2.538478e+09 -2.338399e+09 -2.498516e+09 -2.364026e+04 -3.247934e+04 2.198699e+04
-3.038931e+09 -2.838820e+09 -2.998977e+09 -3.269454e+04 -4.615103e+04 2.558959e+04
-2.312535e+09 -2.112415e+09 -2.272551e+09 -4.062840e+04 -7.620597e+04 3.638269e+04
-3.670618e+09 -3.470527e+09 -3.630689e+09 -2.168748e+04 -1.640767e+04 9.724698e+03
-4.553789e+09 -4.353665e+09 -4.513883e+09 -5.442732e+04 -7.347719e+03 3.698188e+03
-2.669921e+09 -2.469825e+09 -2.629960e+09 -1.119182e+04 -2.664935e+04 1.801032e+04
-2.857813e+09 -2.657749e+09 -2.817878e+09 -2.511283e+04 3.511934e+04 -1.539964e+04
-4.078500e+09 -3.878424e+09 -4.038562e+09 -1.753753e+04 1.533365e+04 -4.330174e+03
-3.963754e+09 -3.764617e+09 -3.923496e+09 3.361948e+05 4.057887e+04 2.096725e+05
-4.612915e+09 -4.412845e+09 -4.572987e+09 -1.700113e+04 6.996985e+03 -3.391048e+03
-1.852938e+09 -1.653142e+09 -1.812844e+09 -2.305811e+04 -4.129455e+03 -1.091319e+05
-4.039775e+09 -3.839707e+09 -3.999833e+09 -9.306332e+03 1.179282e+04 -2.858691e+03
-4.448393e+09 -4.248338e+09 -4.408471e+09 -5.064920e+03 9.752442e+03 -1.559287e+02
-4.020131e+09 -3.820076e+09 -3.980213e+09 -1.513212e+04 1.885530e+04 -2.162543e+03
-4.976055e+09 -4.775994e+09 -4.936136e+09 -1.095028e+04 2.943189e+03 -1.915793e+03
-4.638193e+09 -4.438738e+09 -4.598796e+09 3.243587e+04 -1.653695e+04 -1.083840e+04
-2.210977e+09 -2.011007e+09 -2.171075e+09 1.011216e+04 -6.391067e+04 -2.528023e+04
-3.154044e+09 -2.953877e+09 -3.114095e+09 -4.677056e+04 -6.398838e+04 3.413185e+04
-1.841688e+09 -1.641613e+09 -1.801698e+09 -3.454796e+03 4.999461e+03 -6.714848e+03
-3.300426e+09 -3.100343e+09 -3.260459e+09 -1.062514e+04 1.380162e+04 -7.505821e+03
-1.930297e+09 -1.730239e+09 -1.890318e+09 -2.535243e+03 2.199566e+04 -6.244544e+03
-3.583880e+09 -3.383812e+09 -3.543924e+09 -6.834343e+03 1.311142e+04 -2.269274e+03
-1.741162e+09 -1.541108e+09 -1.701181e+09 -7.592111e+03 -4.898144e+04 2.603899e+04
-2.063099e+09 -1.863173e+09 -2.023185e+09 -5.781877e+03 -2.103587e+03 9.000835e+03
-4.890058e+09 -4.690096e+09 -4.850121e+09 1.030923e+03 -3.425074e+02 9.317069e-05
-2.211411e+09 -2.011490e+09 -2.171499e+09 -6.067355e+03 -2.032128e+03 1.142504e+04
-3.400158e+09 -3.200218e+09 -3.360243e+09 1.242499e+04 2.632719e+03 6.982001e+03
-4.327037e+09 -4.127070e+09 -4.287096e+09 8.146091e+02 6.060973e+02 2.845320e+02
-1.791999e+09 -1.592074e+09 -1.752083e+09 -2.479195e+03 -7.186068e+02 6.580237e+03
-1.833919e+09 -1.633991e+09 -1.793999e+09 1.081786e+03 4.720540e+02 1.818059e+03
-2.107143e+09 -1.907214e+09 -2.067223e+09 2.027314e+03 1.164480e+03 3.276874e+03
-4.810498e+09 -4.610666e+09 -4.770715e+09 4.400381e+04 4.621043e+02 7.956880e+03
-1.579876e+09 -1.379951e+09 -1.539958e+09 1.590636e+03 4.244167e+02 6.244204e+03
-4.970028e+09 -4.770112e+09 -4.930127e+09 2.268656e+03 1.642655e+02 1.049342e+03
-1.901239e+09 -1.701316e+09 -1.861325e+09 -6.689033e+03 2.467619e+02 1.174889e+04
-3.956726e+09 -3.756835e+09 -3.916867e+09 2.573875e+04 3.816014e+03 1.678963e+04
-1.897826e+09 -1.697898e+09 -1.857906e+09 -2.315458e+03 -1.087078e+03 3.955924e+03
-4.790031e+09 -4.590115e+09 -4.750129e+09 -2.474985e+03 -7.241053e+02 9.139111e+02
-4.623211e+09 -4.423289e+09 -4.583308e+09 -7.408988e+03 -8.319628e+02 1.476612e+03
-2.778424e+09 -2.578486e+09 -2.738500e+09 -5.686753e+03 -1.707194e+03 3.620495e+03
-1.893464e+09 -1.693539e+09 -1.853545e+09 -1.756725e+03 -1.063717e+03 3.966183e+03
-4.976661e+09 -4.776733e+09 -4.936750e+09 4.550508e+03 1.376108e+02 8.177915e+02
-4.356034e+09 -4.156070e+09 -4.316093e+09 -1.760726e+02 -1.846944e+02 6.967993e+01
-3.161532e+09 -2.961476e+09 -3.121592e+09 -2.736074e+04 -2.257769e+04 1.554892e+04
-4.462990e+09 -4.263079e+09 -4.423102e+09 -7.938091e+03 -7.619641e+02 4.430091e+03
-4.083855e+09 -3.883942e+09 -4.043961e+09 -7.061797e+03 -1.933842e+02 5.448740e+03
-3.960996e+09 -3.761116e+09 -3.921160e+09 4.072420e+04 6.045316e+03 2.198200e+04
-3.431242e+09 -3.231318e+09 -3.391329e+09 -1.405844e+03 -4.432389e+02 1.666314e+03
-4.723240e+09 -4.523280e+09 -4.683303e+09 -1.281775e+03 -2.515753e+02 -1.556139e+02
-4.125940e+09 -3.926009e+09 -4.086035e+09 -1.331953e+04 -3.180510e+03 5.070335e+03
-3.182588e+09 -2.982676e+09 -3.142691e+09 -8.375226e+02 -3.421307e+03 1.321655e+04
-3.828379e+09 -3.628460e+09 -3.788471e+09 -9.146301e+02 -1.498589e+02 1.956110e+03
-3.946523e+09 -3.746610e+09 -3.906625e+09 -2.417274e+03 -1.339286e+03 4.892781e+03
-4.717861e+09 -4.517932e+09 -4.677948e+09 2.327297e+03 -4.016123e+02 1.080307e+03
-3.714325e+09 -3.514397e+09 -3.674414e+09 6.709015e+03 1.103378e+03 3.761924e+03
-4.975452e+09 -4.775488e+09 -4.935513e+09 -1.852792e+03 1.511231e+00 3.874194e+02
-4.134857e+09 -3.934932e+09 -4.094953e+09 7.921127e+03 1.580246e+03 4.502408e+03
-3.637444e+09 -3.437519e+09 -3.597535e+09 3.821750e+03 2.270401e+02 4.251630e+03
-4.549728e+09 -4.349806e+09 -4.509825e+09 5.044051e+03 -5.453729e+02 2.925851e+03
-4.744037e+09 -4.544114e+09 -4.704131e+09 3.921295e+03 8.241744e+02 9.374838e+02
-4.114456e+09 -3.914525e+09 -4.074540e+09 1.139814e+03 5.299781e+02 1.716982e+03
-4.976663e+09 -4.776734e+09 -4.936751e+09 2.455107e+03 -3.420526e+02 6.425064e+02
-3.395855e+09 -3.195917e+09 -3.355933e+09 -1.001667e+03 -1.188403e+03 8.651899e+02
-4.695231e+09 -4.495312e+09 -4.655325e+09 -5.299721e+02 -1.000385e+03 4.061980e+02
-4.753460e+09 -4.553529e+09 -4.713550e+09 7.157969e+03 -3.180983e+02 1.490860e+03
-4.532511e+09 -4.331649e+09 -4.492108e+09 -8.239376e+04 5.754433e+04 -4.441199e+03
-4.644659e+09 -4.443896e+09 -4.604304e+09 2.885377e+04 -4.044508e+04 2.731961e+04
-4.421373e+09 -4.221454e+09 -4.381467e+09 -3.682196e+02 -1.316168e+02 6.381178e+02
-4.813750e+09 -4.613038e+09 -4.773505e+09 3.807705e+04 5.137907e+04 1.823526e+04
-4.890034e+09 -4.690116e+09 -4.850128e+09 -1.033117e+02 2.186326e+01 -4.033447e-08
-4.990703e+09 -4.790047e+09 -4.950525e+09 5.293160e+04 5.221145e+04 -4.683944e+03
-4.131318e+09 -3.930760e+09 -4.091227e+09 4.950684e+04 7.746680e+04 1.551787e+04
-4.976229e+09 -4.776315e+09 -4.936330e+09 3.805383e+02 1.800832e+01 9.462408e+02
-3.961110e+09 -3.760501e+09 -3.920838e+09 1.147226e+05 1.246367e+04 -2.570755e+02
-3.124520e+09 -2.924524e+09 -3.084591e+09 -2.276924e+04 -1.207126e+04 1.820025e+04
-5.024740e+09 -4.824693e+09 -4.984809e+09 -5.483346e+03 -3.149773e+03 8.861869e+02
-4.984184e+09 -4.784143e+09 -4.944258e+09 -2.789132e+04 3.147499e+03 2.085052e+03
-4.119815e+09 -3.919784e+09 -4.079881e+09 -1.183155e+04 -5.836564e+03 8.490184e+03
-4.512363e+09 -4.312384e+09 -4.472415e+09 5.931935e+02 -1.052292e+02 2.205026e+02
-1.585402e+09 -1.385410e+09 -1.545452e+09 -5.135363e+03 -5.761529e+03 7.259984e+03
-2.638643e+09 -2.438639e+09 -2.598702e+09 -1.946643e+04 -1.735862e+04 1.819844e+04
-4.387587e+09 -4.187614e+09 -4.347649e+09 -3.283182e+03 -3.427720e+02 1.123477e+03
-2.159867e+09 -1.959900e+09 -2.119926e+09 -6.268108e+02 -4.528130e+02 -4.307875e+01
-3.103803e+09 -2.903826e+09 -3.063856e+09 3.770965e+02 -2.747688e+01 -7.951527e+01
-3.353076e+09 -3.153101e+09 -3.313130e+09 3.546866e+03 6.691062e+02 -1.138092e+02
-4.682348e+09 -4.482376e+09 -4.642408e+09 -2.071440e+03 -5.131849e+02 3.160031e+02
-3.886949e+09 -3.686970e+09 -3.847001e+09 1.455123e+03 2.161191e+02 1.969759e+02
-3.800467e+09 -3.600480e+09 -3.760538e+09 -1.767319e+04 -7.138836e+03 7.302737e+03
-3.248377e+09 -3.048407e+09 -3.208441e+09 -9.113698e+03 -2.626537e+03 4.697298e+03
-3.683981e+09 -3.484012e+09 -3.644039e+09 -9.069163e+02 -2.041136e+02 5.998636e+02
-4.985334e+09 -4.785110e+09 -4.945383e+09 -7.547971e+02 -1.712029e+03 -1.013023e+03
-4.890152e+09 -4.689935e+09 -4.850202e+09 -1.502772e+03 5.502942e-05 -1.971794e+02
-2.649230e+09 -2.449093e+09 -2.609255e+09 3.525074e+03 -2.737322e+04 -1.136615e+04
-4.804843e+09 -4.604599e+09 -4.764889e+09 6.565490e+03 -8.609759e+03 -3.081411e+03
-3.918307e+09 -3.718328e+09 -3.878360e+09 2.702936e+03 4.671853e+02 4.442025e+02
-3.165671e+09 -2.965781e+09 -3.125906e+09 8.190518e+04 -6.720919e+04 -3.856648e+04
-2.549122e+09 -2.349115e+09 -2.509235e+09 5.754554e+04 -8.879460e+04 -8.110502e+04
-2.277469e+09 -2.077452e+09 -2.237557e+09 3.935899e+04 -7.402682e+04 -3.218350e+04
-3.484234e+09 -3.283977e+09 -3.444259e+09 -1.707053e+04 -5.844575e+04 4.795926e+03
-1.767794e+09 -1.567717e+09 -1.727816e+09 -2.782530e+04 -3.925423e+04 1.752379e+04
-2.185291e+09 -1.985318e+09 -2.145400e+09 2.938861e+04 -6.922072e+04 -3.013627e+04
-1.907690e+09 -1.707661e+09 -1.867709e+09 9.098983e+03 -8.466616e+04 -4.585755e+04
-3.946405e+09 -3.746307e+09 -3.906529e+09 9.808980e+04 -5.363133e+04 -3.391468e+04
-1.615198e+09 -1.415185e+09 -1.575229e+09 5.081877e+03 -9.066693e+04 -4.806854e+04
-4.636866e+09 -4.437107e+09 -4.595149e+09 7.118121e+05 1.415103e+05 1.924269e+05
-2.308847e+09 -2.108819e+09 -2.268922e+09 4.687655e+04 -7.207934e+04 -3.986333e+04
-4.980132e+09 -4.781175e+09 -4.938420e+09 3.871423e+05 -9.736301e+04 4.821431e+04
-4.952407e+09 -4.752357e+09 -4.912550e+09 5.175456e+04 -6.880162e+03 3.876320e+03
-3.197421e+09 -2.997444e+09 -3.157604e+09 7.618606e+04 -7.028811e+04 -5.070771e+04
-3.406246e+09 -3.206265e+09 -3.366409e+09 7.457108e+03 -5.010385e+04 -3.738091e+03
-4.124080e+09 -3.925305e+09 -4.083674e+09 2.705026e+05 8.180741e+04 8.009061e+04
-4.289641e+09 -4.089485e+09 -4.249747e+09 1.042333e+05 -3.541042e+04 -2.181716e+04
-4.116018e+09 -3.917350e+09 -4.075509e+09 7.884326e+04 -6.536566e+03 1.528167e+05
-3.932971e+09 -3.733187e+09 -3.893241e+09 -7.251428e+04 -1.614088e+04 4.661347e+04
-4.489082e+09 -4.289167e+09 -4.449215e+09 -2.949076e+04 -4.218256e+03 8.418709e+03
-4.862853e+09 -4.662910e+09 -4.822961e+09 -2.937980e+04 6.840169e+02 4.691759e+03
-3.969530e+09 -3.769717e+09 -3.929744e+09 -3.325194e+03 -1.773327e+03 2.738918e+04
-4.127819e+09 -3.928505e+09 -4.087443e+09 4.958689e+05 1.054482e+05 -3.905423e+04
-2.209374e+09 -2.009456e+09 -2.169464e+09 -3.215211e+03 -1.903619e+03 1.221894e+04
-3.953946e+09 -3.754083e+09 -3.914109e+09 1.226189e+04 1.394096e+03 1.709252e+04
-4.516178e+09 -4.316259e+09 -4.476272e+09 -1.360680e+03 -3.294052e+02 9.440229e+02
-4.984659e+09 -4.784775e+09 -4.944804e+09 -4.164417e+03 -1.850436e+03 4.028660e+03
-4.615160e+09 -4.415265e+09 -4.575288e+09 -8.189001e+02 2.588696e+01 3.353023e+03
-4.627172e+09 -4.427257e+09 -4.587274e+09 -5.243441e+03 -4.481998e+02 1.780583e+03
-4.969085e+09 -4.769170e+09 -4.929184e+09 -2.680002e+03 4.877997e+01 1.227782e+03
-3.985569e+09 -3.785702e+09 -3.945731e+09 -1.126058e+04 -1.726179e+03 1.676298e+04
-4.994207e+09 -4.794986e+09 -4.954156e+09 4.699411e+05 -4.640534e+04 -2.011912e+04
-3.069259e+09 -2.869353e+09 -3.029368e+09 2.885810e+03 5.584177e+02 1.422036e+04
-3.961204e+09 -3.761340e+09 -3.921377e+09 -2.689862e+03 2.587731e+03 1.774512e+04
-4.985172e+09 -4.786402e+09 -4.944992e+09 1.154536e+05 -1.719379e+04 -4.140364e+04
-4.993421e+09 -4.794345e+09 -4.953222e+09 3.617481e+05 -4.773218e+04 -3.018850e+04
-4.122287e+09 -3.922400e+09 -4.082424e+09 -3.522363e+01 6.909752e+02 1.375587e+04
-3.957180e+09 -3.756710e+09 -3.917050e+09 -1.644291e+05 -1.004408e+02 2.622858e+04
-4.501008e+09 -4.302115e+09 -4.461139e+09 2.159357e+05 -4.548178e+02 4.514019e+04
-2.580053e+09 -2.379938e+09 -2.540076e+09 -2.204202e+03 -5.294059e+03 1.015251e+04
-3.392835e+09 -3.192668e+09 -3.352873e+09 -2.925261e+03 -3.907337e+03 7.096157e+03
-3.984443e+09 -3.785271e+09 -3.944593e+09 2.255003e+05 5.192836e+04 7.665089e+04
-1.636113e+09 -1.436044e+09 -1.596125e+09 -8.158610e+02 -5.555987e+03 1.218739e+04
-4.619324e+09 -4.419354e+09 -4.579401e+09 -1.871853e+04 -2.854921e+03 3.262205e+03
-4.998698e+09 -4.798727e+09 -4.958781e+09 -2.031785e+04 5.071542e+02 1.198233e+02
-3.970000e+09 -3.769767e+09 -3.930081e+09 -1.270708e+05 -4.307142e+04 3.380334e+04
-4.470376e+09 -4.270103e+09 -4.430474e+09 -2.166027e+05 -3.742745e+04 2.425074e+04
-3.970016e+09 -3.769827e+09 -3.930088e+09 -9.145655e+04 -4.229550e+04 1.769363e+04
-4.817155e+09 -4.617257e+09 -4.777311e+09 4.281873e+04 6.325717e+03 6.719079e+03
-5.004778e+09 -4.804641e+09 -4.964887e+09 -1.064882e+05 -1.110704e+04 1.020458e+04
-4.642443e+09 -4.442472e+09 -4.602540e+09 -3.211555e+04 -4.163023e+03 4.194758e+03
-4.594573e+09 -4.394596e+09 -4.554651e+09 -2.015441e+04 -2.581881e+03 2.795054e+03
-4.135201e+09 -3.935229e+09 -4.095291e+09 -2.781853e+04 -9.770299e+03 4.966756e+03
-3.962969e+09 -3.762947e+09 -3.923095e+09 -8.249103e+04 -3.236166e+04 2.628782e+04
-4.821666e+09 -4.621692e+09 -4.781758e+09 -2.982656e+04 7.172085e+02 6.090882e+03
-5.002672e+09 -4.802877e+09 -4.962999e+09 -2.748541e+05 -6.689286e+03 1.350299e+04
-3.964216e+09 -3.764245e+09 -3.924343e+09 -6.150924e+04 -1.715690e+04 1.738774e+04
-4.791660e+09 -4.591677e+09 -4.751748e+09 -2.762008e+04 -5.048699e+03 -7.685057e+02
-4.819458e+09 -4.619493e+09 -4.779557e+09 -3.090814e+04 -5.492534e+03 -8.407058e+02
-4.847776e+09 -4.647782e+09 -4.807900e+09 -6.224145e+04 -8.417057e+03 -7.885514e+02
-4.474714e+09 -4.274860e+09 -4.434660e+09 -3.868710e+05 -1.964946e+04 2.894219e+04
-3.143833e+09 -2.943741e+09 -3.103875e+09 4.484901e+03 -8.447311e+03 -1.196778e+04
-4.973943e+09 -4.773837e+09 -4.934115e+09 -3.297503e+05 -1.976644e+03 1.127465e+04
-3.962027e+09 -3.761978e+09 -3.921968e+09 -3.380752e+05 -5.268386e+04 4.295760e+04
-3.959318e+09 -3.759151e+09 -3.919388e+09 -1.881389e+05 -2.202977e+04 3.052445e+04
-4.848422e+09 -4.648160e+09 -4.808484e+09 1.366532e+05 3.263783e+04 9.434902e+03
-5.003080e+09 -4.802865e+09 -4.963130e+09 5.965716e+04 2.065017e+04 4.313374e+03
-3.711727e+09 -3.511623e+09 -3.671777e+09 3.729663e+03 -3.125877e+03 -8.762682e+03
-3.967163e+09 -3.766799e+09 -3.927141e+09 5.479030e+03 4.568991e+04 6.975138e+03
-2.634801e+09 -2.434748e+09 -2.594830e+09 2.644100e+03 8.636697e+02 7.316223e+03
-4.416797e+09 -4.216718e+09 -4.376880e+09 1.694528e+04 -8.436019e+03 -3.047341e+03
-4.821247e+09 -4.620933e+09 -4.781269e+09 1.867439e+04 9.390343e+03 -4.183536e+03
-3.966188e+09 -3.765812e+09 -3.926134e+09 1.729367e+05 1.952188e+04 2.264763e+04
-2.290947e+09 -2.090835e+09 -2.250954e+09 8.339340e+02 1.180786e+04 6.806262e+03
-4.587129e+09 -4.387046e+09 -4.547193e+09 6.777601e+02 -2.161476e+03 -4.709577e+03
-4.854018e+09 -4.653928e+09 -4.814085e+09 8.557622e+03 -2.175845e+03 -1.979914e+03
-4.993255e+09 -4.792968e+09 -4.953274e+09 1.568319e+04 1.852753e+04 -1.837447e+03
-2.441884e+09 -2.241741e+09 -2.401897e+09 -9.120372e+02 -6.066847e+04 -2.557280e+03
-1.573376e+09 -1.373313e+09 -1.533379e+09 -3.302382e+03 -6.678711e+04 -5.934197e+03
-2.933454e+09 -2.733263e+09 -2.893482e+09 -2.441380e+03 -5.880383e+04 2.123341e+02
-2.889895e+09 -2.689717e+09 -2.849921e+09 7.466300e+03 -6.368157e+04 -8.334517e+03
-2.144761e+09 -1.944605e+09 -2.104734e+09 7.676076e+03 -1.103093e+05 -1.992920e+03
-4.776167e+09 -4.576502e+09 -4.736514e+09 9.785869e+04 -1.045951e+02 1.354215e+04
-4.135451e+09 -3.935539e+09 -4.095612e+09 6.024480e+04 5.861764e+03 2.156936e+04
-3.975140e+09 -3.774901e+09 -3.935186e+09 6.885727e+04 3.440879e+04 1.094503e+04
-4.978401e+09 -4.778074e+09 -4.938436e+09 5.505111e+04 2.653061e+04 3.387843e+03
-3.961046e+09 -3.761076e+09 -3.921189e+09 7.934065e+04 2.193427e+04 2.434709e+04
-4.652691e+09 -4.452421e+09 -4.612735e+09 4.859262e+04 6.470064e+03 4.717657e+03
-4.275102e+09 -4.074944e+09 -4.235173e+09 6.190965e+04 2.641742e+04 6.768795e+03
-4.658335e+09 -4.458070e+09 -4.618370e+09 6.936751e+04 8.852545e+03 3.105942e+03
-4.643189e+09 -4.442799e+09 -4.603179e+09 9.710832e+04 6.011320e+03 3.978028e+03
-3.948725e+09 -3.748440e+09 -3.908743e+09 7.922797e+04 4.087391e+04 8.144534e+03
-4.477032e+09 -4.277587e+09 -4.437473e+09 1.863954e+05 5.531354e+04 4.772724e+04
-4.814744e+09 -4.614881e+09 -4.774938e+09 5.100935e+04 -9.377795e+02 6.394579e+03
-4.964362e+09 -4.764790e+09 -4.924801e+09 1.092213e+05 8.007428e+03 4.931251e+04
-4.002191e+09 -3.802314e+09 -3.962390e+09 1.038998e+05 1.020537e+04 3.241713e+04
-3.941914e+09 -3.742154e+09 -3.902186e+09 1.409222e+04 2.689147e+03 3.618762e+04
-4.843914e+09 -4.643674e+09 -4.803968e+09 6.873511e+04 1.285232e+04 -3.216825e+03
-4.979914e+09 -4.780268e+09 -4.940299e+09 4.685528e+04 1.928216e+04 4.035643e+04
-2.851872e+09 -2.651769e+09 -2.811907e+09 -1.010427e+04 -2.601719e+04 1.798987e+04
-3.226257e+09 -3.026093e+09 -3.186299e+09 -2.252045e+04 -4.662592e+04 1.265380e+04
-2.238547e+09 -2.038482e+09 -2.198589e+09 -3.891968e+04 -6.576969e+04 3.382389e+04
-4.641031e+09 -4.440541e+09 -4.600614e+09 -4.750155e+05 -7.907974e+04 3.285862e+04
-4.463047e+09 -4.262038e+09 -4.421471e+09 4.734481e+05 1.161495e+05 1.431441e+05
-3.960587e+09 -3.760049e+09 -3.919417e+09 5.719028e+05 4.259236e+05 2.624844e+05
-4.991242e+09 -4.790602e+09 -4.950574e+09 3.535521e+05 -1.635912e+04 -1.277675e+04
-3.961946e+09 -3.761749e+09 -3.919792e+09 7.206048e+05 2.500776e+05 3.581355e+05
-4.647123e+09 -4.446648e+09 -4.604535e+09 5.277869e+05 4.219037e+05 2.725861e+05
-1.952897e+09 -1.752838e+09 -1.912915e+09 -3.237115e+03 -4.542675e+04 3.255215e+04
-4.157850e+09 -3.957883e+09 -4.117772e+09 4.065274e+05 -2.898360e+04 3.877399e+04
-4.141843e+09 -3.942048e+09 -4.102085e+09 2.865360e+04 5.774283e+03 3.648317e+04
-3.960711e+09 -3.760556e+09 -3.920474e+09 5.050217e+05 1.673713e+05 8.600598e+04
-4.991069e+09 -4.790150e+09 -4.950449e+09 2.201751e+05 -4.822529e+04 -1.806245e+04
-4.811227e+09 -4.611389e+09 -4.771423e+09 1.925448e+04 -1.212395e+03 8.424512e+03
-2.869060e+09 -2.669223e+09 -2.829315e+09 1.719745e+04 -6.655623e+04 -1.944503e+04
-3.981859e+09 -3.781561e+09 -3.941816e+09 2.299617e+05 -3.752399e+04 5.938597e+03
-3.961293e+09 -3.760584e+09 -3.920953e+09 -5.706730e+04 -2.259299e+04 -5.588649e+02
-4.301331e+09 -4.101424e+09 -4.261469e+09 3.797026e+04 5.863633e+03 1.286884e+04
-3.961719e+09 -3.761234e+09 -3.921662e+09 2.049489e+04 -4.958446e+04 5.912638e+03
-4.640783e+09 -4.440936e+09 -4.600975e+09 1.862438e+04 9.418679e+02 7.672653e+03
-4.634311e+09 -4.433553e+09 -4.593968e+09 -1.079419e+05 3.388646e+04 8.744961e+03
-3.963720e+09 -3.763844e+09 -3.923870e+09 2.001798e+04 1.513376e+03 1.751459e+04
-4.486725e+09 -4.287244e+09 -4.447183e+09 1.797845e+04 3.384372e+03 4.030187e+04
-4.991432e+09 -4.791597e+09 -4.951644e+09 2.821413e+04 4.442682e+03 7.579317e+03
-3.950259e+09 -3.750578e+09 -3.910595e+09 3.267468e+03 8.453121e+03 3.383212e+04
-4.505276e+09 -4.304390e+09 -4.463786e+09 4.651888e+05 1.795973e+05 3.237896e+04
-4.638103e+09 -4.438278e+09 -4.598330e+09 3.716069e+04 1.345014e+03 1.328783e+04
-4.138639e+09 -3.937341e+09 -4.094896e+09 3.141219e+05 1.122364e+06 -1.257753e+05
-3.979764e+09 -3.778176e+09 -3.936202e+09 -5.595451e+04 5.568790e+05 7.652513e+04
-4.990686e+09 -4.790811e+09 -4.950859e+09 4.552116e+04 3.003669e+03 5.093354e+03
-1.674146e+09 -1.474071e+09 -1.634139e+09 5.044043e+02 -1.021934e+05 -1.598668e+04
-2.216866e+09 -2.016853e+09 -2.176911e+09 -4.989173e+03 -5.418748e+03 1.075733e+04
-3.564654e+09 -3.364648e+09 -3.524713e+09 -5.618857e+03 -3.210725e+03 5.897029e+03
-2.579821e+09 -2.379840e+09 -2.539877e+09 -2.152367e+03 3.028326e+02 3.143190e+03
-4.619076e+09 -4.419606e+09 -4.579492e+09 -5.245245e+04 8.304210e+03 7.249812e+03
-3.123723e+09 -2.923690e+09 -3.083775e+09 -9.002568e+03 -6.134403e+03 1.091828e+04
-5.003636e+09 -4.804180e+09 -4.964071e+09 9.185972e+03 -9.931272e+03 3.778207e+04
-4.210635e+09 -4.010607e+09 -4.170696e+09 -6.694262e+03 -5.072590e+03 5.298323e+03
-3.016123e+09 -2.816107e+09 -2.976177e+09 -2.160231e+03 -3.134671e+03 9.999681e+03
-5.003574e+09 -4.804073e+09 -4.964032e+09 -3.087345e+04 -6.872127e+03 3.585566e+04
-3.742906e+09 -3.542904e+09 -3.702973e+09 -1.012661e+04 -5.699498e+03 5.573046e+03
-3.793038e+09 -3.593019e+09 -3.753100e+09 -1.263467e+04 -3.835042e+03 3.650352e+03
-3.497737e+09 -3.297783e+09 -3.457805e+09 -7.059686e+03 -1.698276e+03 2.352206e+03
-3.691104e+09 -3.491140e+09 -3.651165e+09 -1.405119e+03 -1.879484e+02 2.230110e+02
-4.820725e+09 -4.620510e+09 -4.778900e+09 8.080890e+05 4.391021e+04 8.881172e+03
-4.134148e+09 -3.934771e+09 -4.085013e+09 -3.573046e+05 1.272612e+06 -1.201382e+06
-4.873317e+09 -4.673218e+09 -4.829963e+09 -6.797708e+05 1.687811e+05 -2.271960e+05
-4.827113e+09 -4.626206e+09 -4.785657e+09 -4.527313e+05 1.087036e+05 -5.111136e+04
-4.655443e+09 -4.455483e+09 -4.615510e+09 -9.067455e+03 5.876426e+01 2.123095e+03
-3.023940e+09 -2.823882e+09 -2.984008e+09 -2.468463e+04 4.613997e+04 -1.746791e+04
-4.828426e+09 -4.628169e+09 -4.786430e+09 -6.805160e+05 1.008409e+05 -6.282280e+04
-2.236040e+09 -2.035989e+09 -2.196072e+09 -7.330732e+03 3.145344e+04 -1.054153e+04
-3.262478e+09 -3.062410e+09 -3.222551e+09 -3.590315e+04 4.400993e+04 -2.190597e+04
-4.202973e+09 -4.001468e+09 -4.157919e+09 -3.568726e+05 1.429527e+06 -3.914580e+05
-4.014069e+09 -3.814026e+09 -3.969967e+09 -5.405881e+05 6.912192e+05 -9.123714e+05
-3.963556e+09 -3.763301e+09 -3.923569e+09 1.679817e+04 3.495058e+04 4.506583e+03
-4.999039e+09 -4.798875e+09 -4.959091e+09 2.935527e+04 6.690693e+03 4.852444e+03
-3.963523e+09 -3.763284e+09 -3.923558e+09 5.970112e+03 3.668354e+04 1.099332e+03
-4.095828e+09 -3.895631e+09 -4.055856e+09 3.695825e+03 2.446317e+04 -3.200984e+03
-1.698491e+09 -1.498419e+09 -1.658502e+09 6.375255e+03 6.097498e+04 1.749100e+04
-3.863119e+09 -3.663053e+09 -3.823192e+09 -1.860091e+04 1.747177e+04 -8.047716e+03
-3.472393e+09 -3.272351e+09 -3.432478e+09 -1.201183e+04 2.866213e+04 -5.884631e+03
-4.477457e+09 -4.277479e+09 -4.437516e+09 9.696005e+03 -5.043602e+02 1.577869e+03
-4.985228e+09 -4.785254e+09 -4.945286e+09 6.027671e+03 -1.865865e+02 -4.237557e+02
-3.670989e+09 -3.470923e+09 -3.631054e+09 -1.272056e+04 2.004702e+04 -6.970171e+03
-4.820691e+09 -4.620715e+09 -4.780748e+09 7.285421e+03 -7.704896e+00 7.791076e+01
-4.137064e+09 -3.937002e+09 -4.097150e+09 -2.328786e+04 2.024337e+04 -6.652417e+03
-4.988765e+09 -4.788784e+09 -4.948819e+09 6.580214e+03 2.026897e+02 -1.139484e+02
-3.488201e+09 -3.288226e+09 -3.448255e+09 1.192870e+03 1.437852e+02 2.350469e+02
-2.928354e+09 -2.728381e+09 -2.888411e+09 3.160993e+03 5.584227e+02 3.074987e+02
-4.671350e+09 -4.471253e+09 -4.631418e+09 -3.414179e+04 8.862725e+03 -4.373325e+03
-4.012695e+09 -3.812733e+09 -3.972761e+09 7.037429e+03 1.110696e+03 1.569782e+03
-3.861775e+09 -3.661716e+09 -3.821898e+09 -5.906570e+04 3.924343e+04 -2.127417e+04
-4.134285e+09 -3.934115e+09 -4.094354e+09 5.271810e+04 2.621120e+04 8.556186e+03
-4.972630e+09 -4.772666e+09 -4.932696e+09 7.467900e+03 3.590813e+02 -1.027102e+02
-4.327521e+09 -4.127570e+09 -4.287609e+09 1.828590e+04 2.996778e+03 3.868356e+03
-4.954737e+09 -4.754785e+09 -4.914809e+09 5.256481e+03 3.557837e+02 3.882303e+02
-4.266195e+09 -4.066047e+09 -4.226240e+09 1.691400e+04 2.119749e+04 4.688539e+03
-4.674512e+09 -4.474360e+09 -4.634568e+09 3.699213e+04 1.601444e+04 3.503627e+03
-2.622080e+09 -2.421998e+09 -2.582109e+09 9.760301e+03 1.812490e+04 8.134276e+03
-4.818093e+09 -4.617266e+09 -4.777665e+09 8.549287e+03 -4.633069e+04 2.071934e+03
-3.468289e+09 -3.268323e+09 -3.428347e+09 -3.492889e+02 -7.101091e+00 4.739611e+02
-4.392116e+09 -4.192147e+09 -4.352176e+09 -1.555352e+03 -3.285402e+01 8.449304e+02
-4.907877e+09 -4.707908e+09 -4.867936e+09 -6.570576e+02 1.828461e-06 -1.558370e+02
-4.477389e+09 -4.277025e+09 -4.437391e+09 -7.968682e+04 4.793355e+04 -6.218044e+03
-4.647497e+09 -4.447384e+09 -4.607544e+09 2.978999e+04 6.223919e+03 1.301658e+03
-2.996465e+09 -2.796528e+09 -2.956547e+09 8.147024e+03 1.229157e+03 6.919989e+03
-2.869800e+09 -2.669854e+09 -2.829880e+09 1.021344e+04 4.243336e+03 7.918258e+03
-4.134280e+09 -3.934166e+09 -4.094390e+09 6.163271e+04 -4.527294e+04 -2.155923e+04
-3.102097e+09 -2.902130e+09 -3.062158e+09 4.038058e+03 5.219684e+02 1.866172e+03
-1.953873e+09 -1.753907e+09 -1.913933e+09 8.341066e+03 1.982438e+03 2.648378e+03
-4.892260e+09 -4.692102e+09 -4.852316e+09 6.393090e+03 -1.911143e-04 -1.238379e+03
-2.599872e+09 -2.399920e+09 -2.559940e+09 7.256887e+02 1.048450e+03 7.141947e+02
-4.650467e+09 -4.450388e+09 -4.610530e+09 4.625487e+03 -1.690535e+03 -1.068108e+03
-4.966502e+09 -4.766425e+09 -4.926607e+09 3.938148e+04 -6.452693e+03 -3.557254e+03
-3.143561e+09 -2.943609e+09 -3.103634e+09 8.574438e+03 3.656028e+03 5.119802e+03
-1.670589e+09 -1.470632e+09 -1.630654e+09 7.301449e+03 1.936008e+03 5.504597e+03
-2.282185e+09 -2.082230e+09 -2.242254e+09 9.300482e+03 2.332222e+03 2.498355e+03
-4.461790e+09 -4.261888e+09 -4.421909e+09 -8.672564e+03 -1.054553e+03 5.831792e+03
-4.655178e+09 -4.454516e+09 -4.614923e+09 1.466137e+05 -3.036784e+04 7.294016e+03
-1.641152e+09 -1.441090e+09 -1.601165e+09 1.077877e+03 -2.056535e+04 -1.572589e+04
-4.336694e+09 -4.136619e+09 -4.296755e+09 1.323603e+03 -1.632172e+03 -2.305839e+03
-3.970080e+09 -3.770180e+09 -3.930201e+09 -1.219539e+04 -9.786156e+02 1.117594e+04
-4.312169e+09 -4.112272e+09 -4.272304e+09 -1.737101e+04 -4.886283e+03 1.179669e+04
-4.802257e+09 -4.602363e+09 -4.762384e+09 -2.597143e+03 -2.403268e+02 2.866591e+03
-4.972831e+09 -4.772728e+09 -4.932922e+09 3.739249e+04 -1.006212e+04 -4.362657e+03
-4.643320e+09 -4.443154e+09 -4.603399e+09 9.019016e+04 -2.024604e+04 -1.718273e+04
-4.820661e+09 -4.620585e+09 -4.780824e+09 9.172949e+04 -1.813245e+04 -1.433061e+04
-3.954971e+09 -3.755078e+09 -3.915104e+09 -4.174748e+03 6.330269e+02 1.285673e+04
-3.963359e+09 -3.763468e+09 -3.923488e+09 -7.462863e+03 -6.937770e+02 1.194714e+04
-4.499081e+09 -4.299233e+09 -4.459268e+09 -6.824598e+03 -1.403430e+03 1.477721e+04
-4.678121e+09 -4.478245e+09 -4.638269e+09 -1.175061e+04 6.451083e+02 5.830289e+03
-3.091560e+09 -2.891402e+09 -3.051585e+09 7.699947e+03 -2.045962e+04 -1.191307e+04
-4.531929e+09 -4.331721e+09 -4.491978e+09 9.521390e+03 -3.600016e+03 -2.810506e+03
-4.891594e+09 -4.692252e+09 -4.852263e+09 6.048304e+03 -4.069963e+02 -4.395795e-05
-2.715635e+09 -2.515487e+09 -2.675665e+09 1.877203e+04 -4.054377e+04 -1.569665e+04
-4.434994e+09 -4.235233e+09 -4.395392e+09 -2.363297e+04 2.454116e+04 -7.623162e+02
-4.040038e+09 -3.840661e+09 -4.000641e+09 -7.017431e+02 1.860186e+03 -4.337137e+04
-2.114907e+09 -1.915167e+09 -2.075118e+09 9.584068e+03 -2.998276e+04 -5.681941e+04
-3.273097e+09 -3.072894e+09 -3.233117e+09 8.896135e+03 -5.569337e+04 -9.260863e+03
-4.781216e+09 -4.580984e+09 -4.741278e+09 5.066130e+04 -1.804347e+04 -9.016319e+03
-4.509460e+09 -4.310123e+09 -4.470091e+09 1.896560e+04 -1.778789e+03 -4.098157e+02
-2.106137e+09 -1.906323e+09 -2.066339e+09 -3.472118e+04 6.232254e+04 -4.939576e+04
-5.007013e+09 -4.807033e+09 -4.967065e+09 1.014074e+03 2.772913e+02 -2.000745e+02
-4.798501e+09 -4.598302e+09 -4.758555e+09 2.378546e+04 -6.319509e+03 -7.830253e+03
-4.115952e+09 -3.915862e+09 -4.076054e+09 -6.251186e+04 3.469735e+04 -8.276702e+03
-4.983536e+09 -4.783295e+09 -4.943578e+09 1.865543e+04 -1.174767e+04 3.674541e+02
-4.841832e+09 -4.641880e+09 -4.801915e+09 1.629107e+04 2.627253e+03 8.423188e+02
-5.004071e+09 -4.804122e+09 -4.964158e+09 1.516514e+04 8.943488e+02 -1.480506e+02
-4.892290e+09 -4.692304e+09 -4.852340e+09 9.780295e+02 -5.853346e-06 -3.351510e+02
-1.872378e+09 -1.672398e+09 -1.832430e+09 2.522581e+03 7.390302e+02 -4.902364e-01
-4.632929e+09 -4.432969e+09 -4.592996e+09 6.950803e+03 3.332797e+02 8.954539e+02
-4.800556e+09 -4.600596e+09 -4.760625e+09 8.973727e+03 3.599853e+02 9.361543e+02
-3.881072e+09 -3.681122e+09 -3.841149e+09 1.172102e+04 1.562911e+03 4.340772e+03
-4.267190e+09 -4.067255e+09 -4.227284e+09 1.281074e+04 2.690750e+03 4.060278e+03
-4.824213e+09 -4.624254e+09 -4.784280e+09 5.540181e+03 8.804612e+02 -3.111178e+02
-2.605850e+09 -2.405876e+09 -2.565905e+09 2.458678e+03 2.916760e+02 5.463680e+01
-2.045027e+09 -1.845083e+09 -2.005097e+09 3.744748e+03 5.400081e+02 2.522769e+03
-3.932522e+09 -3.732596e+09 -3.892612e+09 4.398649e+03 -5.245491e+01 3.437729e+03
-3.503327e+09 -3.303399e+09 -3.463412e+09 1.632936e+03 8.408737e+02 1.689172e+03
-2.595090e+09 -2.395161e+09 -2.555172e+09 6.881632e+02 7.743720e+02 7.462960e+02
-3.024757e+09 -2.824832e+09 -2.984848e+09 3.584366e+03 2.259544e+03 6.646852e+03
-4.988764e+09 -4.788781e+09 -4.948818e+09 5.109918e+03 1.488901e+02 -3.458946e+01
-4.890078e+09 -4.690077e+09 -4.850126e+09 1.873022e+03 -5.813682e-05 -2.511102e+02
-3.790171e+09 -3.590245e+09 -3.750260e+09 1.966423e+03 8.030877e+02 1.783862e+03
-3.884714e+09 -3.684737e+09 -3.844766e+09 2.072861e+02 -1.476545e+02 -2.823108e+01
-4.957711e+09 -4.757612e+09 -4.917787e+09 2.518559e+04 3.734251e+02 -1.759797e+03
-4.952442e+09 -4.752387e+09 -4.912565e+09 2.987823e+04 -1.028209e+04 -3.752131e+03
-3.722352e+09 -3.522429e+09 -3.682448e+09 9.474993e+03 1.141132e+03 5.704836e+03
-3.303374e+09 -3.103448e+09 -3.263469e+09 8.506620e+03 2.945772e+03 9.458912e+03
-3.078160e+09 -2.878240e+09 -3.038257e+09 9.896990e+03 5.227185e+02 1.036494e+04
-4.952430e+09 -4.752384e+09 -4.912561e+09 1.872008e+04 -6.533574e+03 -5.117219e+03
-2.835632e+09 -2.635710e+09 -2.795729e+09 7.933845e+03 3.224180e+03 1.399937e+04
-4.782349e+09 -4.582426e+09 -4.742445e+09 6.514509e+03 -3.452398e+02 9.017360e+02
-3.828944e+09 -3.629035e+09 -3.789053e+09 8.790373e+03 1.305663e+03 8.261630e+03
-3.146328e+09 -2.946407e+09 -3.106421e+09 4.847838e+03 1.386594e+03 7.489741e+03
-4.966492e+09 -4.766423e+09 -4.926605e+09 3.109123e+04 -6.804541e+03 -3.407770e+03
-3.463723e+09 -3.263789e+09 -3.423803e+09 -2.182662e+03 -7.291612e+02 1.731055e+03
-4.146736e+09 -3.946643e+09 -4.106814e+09 -3.901625e+04 2.460442e+04 -7.465879e+03
-4.977225e+09 -4.777135e+09 -4.937270e+09 -1.522021e+04 3.254927e+03 -2.803328e+03
-4.707441e+09 -4.507510e+09 -4.667526e+09 -2.028967e+03 6.335913e+02 7.809459e+02
-4.911612e+09 -4.711529e+09 -4.871650e+09 -4.885276e+03 1.187665e+03 -8.930405e+02
-4.624997e+09 -4.425069e+09 -4.585088e+09 -7.315904e+03 -3.599948e+02 1.646834e+03
-4.882831e+09 -4.682703e+09 -4.842879e+09 -3.467800e+04 4.283352e+03 -3.650779e+03
-4.503257e+09 -4.303163e+09 -4.463292e+09 -6.898944e+03 -1.010500e+03 -2.940724e+03
-2.358988e+09 -2.159006e+09 -2.319098e+09 -8.086348e+04 6.622110e+04 -4.093212e+04
-3.995253e+09 -3.795264e+09 -3.955303e+09 1.092004e+03 -1.769171e+02 7.395359e+02
-4.697460e+09 -4.497472e+09 -4.657510e+09 1.830987e+03 -2.674166e+02 3.484682e+02
-3.932770e+09 -3.732834e+09 -3.892852e+09 -5.694132e+03 -1.464270e+02 2.269770e+03
-4.981299e+09 -4.781367e+09 -4.941384e+09 -2.427011e+03 7.282284e+02 -1.744832e+02
-1.845104e+09 -1.645148e+09 -1.805169e+09 -1.196742e+03 -3.578045e+02 5.354872e+01
-4.709789e+09 -4.510464e+09 -4.670446e+09 -4.608741e+02 4.690429e+03 4.599058e+03
-4.053933e+09 -3.853974e+09 -4.013998e+09 -4.976547e+03 -6.110678e+02 2.701503e+02
-2.543304e+09 -2.343348e+09 -2.503369e+09 -4.217289e+03 -4.651328e+02 1.924848e+03
-4.976063e+09 -4.776740e+09 -4.936599e+09 -1.425823e+05 1.316690e+04 -6.140856e+04
-4.981588e+09 -4.782357e+09 -4.942264e+09 2.552134e+04 9.232908e+03 -2.281297e+04
-2.528963e+09 -2.329008e+09 -2.489028e+09 -7.828334e+02 -5.322679e+02 8.228830e+02
-4.991176e+09 -4.790636e+09 -4.951076e+09 4.249169e+04 3.724741e+04 -3.686802e+03
-4.758274e+09 -4.558608e+09 -4.718724e+09 1.090284e+05 -2.650224e+04 -4.685930e+03
-4.897040e+09 -4.697513e+09 -4.857592e+09 2.492700e+04 -1.227255e+04 -1.200063e+04
-4.027527e+09 -3.827564e+09 -3.987589e+09 -1.387263e+03 -4.337074e+02 7.201496e+02
-4.955185e+09 -4.755540e+09 -4.915586e+09 1.881810e+05 -2.462305e+04 -2.427613e+04
-2.887443e+09 -2.687480e+09 -2.847503e+09 -2.682581e+02 -1.729291e+02 3.415208e+02
-4.199077e+09 -3.999009e+09 -4.159204e+09 -6.225137e+04 2.713490e+04 -1.324764e+04
-4.435862e+09 -4.235902e+09 -4.395925e+09 -1.372274e+03 -4.825333e+02 3.418079e+01
-3.700179e+09 -3.500218e+09 -3.660240e+09 -1.008908e+03 -3.427347e+02 5.812063e+01
-4.977818e+09 -4.778230e+09 -4.938311e+09 6.191499e+04 4.408420e+03 -7.844323e+03
-4.019892e+09 -3.819986e+09 -3.980003e+09 -3.666625e+03 3.527153e+02 7.622891e+03
-2.991304e+09 -2.791348e+09 -2.951369e+09 -5.289565e+02 -6.481648e+02 -5.278960e+02
-4.178495e+09 -3.978772e+09 -4.138821e+09 1.758569e+05 2.865868e+04 6.546407e+04
-4.118502e+09 -3.918788e+09 -4.078806e+09 1.347049e+05 9.029551e+03 2.464903e+04
-4.294868e+09 -4.095044e+09 -4.255094e+09 3.755007e+04 8.507958e+03 2.817890e+04
-3.967562e+09 -3.767184e+09 -3.927541e+09 1.623396e+04 -4.825755e+04 2.681764e+03
-4.890142e+09 -4.689955e+09 -4.850194e+09 6.101026e+03 -1.815920e-04 -1.210258e+03
-4.684761e+09 -4.484987e+09 -4.645087e+09 1.915655e+05 7.049587e+03 2.086967e+04
-4.826037e+09 -4.625631e+09 -4.786036e+09 -7.808027e+04 -1.522588e+04 -7.533972e+03
-4.317780e+09 -4.117937e+09 -4.278044e+09 1.315880e+05 1.624115e+04 3.332454e+04
-3.974550e+09 -3.774695e+09 -3.934798e+09 1.318984e+05 8.898545e+03 3.402683e+04
-5.004207e+09 -4.804416e+09 -4.964509e+09 1.414465e+05 1.464637e+04 1.781934e+04
-3.963358e+09 -3.763460e+09 -3.923486e+09 -8.068085e+03 -1.505939e+02 1.185183e+04
-3.517463e+09 -3.318007e+09 -3.478012e+09 1.866977e+04 3.442161e+03 -3.508244e+03
-2.129282e+09 -1.929360e+09 -2.089368e+09 -2.487443e+01 -2.383253e+00 1.442939e+03
-1.837666e+09 -1.637625e+09 -1.797630e+09 -3.759117e+04 9.738230e+04 -2.736083e+04
-3.332531e+09 -3.132569e+09 -3.292596e+09 -5.465454e+03 -1.787589e+03 1.551811e+03
-2.711645e+09 -2.511694e+09 -2.671715e+09 -4.669530e+03 -2.138183e+03 2.482806e+03
-2.201246e+09 -2.001578e+09 -2.161540e+09 -8.527183e+03 1.495981e+04 -5.449158e+04
-4.973467e+09 -4.773517e+09 -4.933542e+09 -8.128056e+03 -8.457471e+02 1.025856e+03
-3.254193e+09 -3.054210e+09 -3.214245e+09 4.619691e+03 1.499579e+02 5.589572e+02
-3.098879e+09 -2.898898e+09 -3.058931e+09 1.481945e+03 4.276310e+02 3.709612e+02
-3.792918e+09 -3.592957e+09 -3.752980e+09 -1.972441e+03 -2.378580e+02 5.699825e+02
-4.939795e+09 -4.739842e+09 -4.899864e+09 -3.769047e+03 -3.396630e+02 1.046683e+02
-4.820686e+09 -4.620711e+09 -4.780746e+09 9.923692e+03 -4.492442e+02 -6.647696e+02
-4.069235e+09 -3.869258e+09 -4.029290e+09 6.072518e+03 7.644197e+02 1.807601e+02
-3.473837e+09 -3.273848e+09 -3.433886e+09 1.768544e+03 9.725221e+02 7.455424e+02
-2.148654e+09 -1.948671e+09 -2.108704e+09 2.905781e+03 2.745172e+02 9.255067e+02
-3.150981e+09 -2.950995e+09 -3.111035e+09 9.896882e+03 2.679968e+03 2.828030e+03
-4.141618e+09 -3.941412e+09 -4.101624e+09 -2.974472e+05 4.357276e+04 -4.484736e+04
-3.244982e+09 -3.045000e+09 -3.205033e+09 2.949854e+03 1.573627e+02 3.356831e+02
-3.087501e+09 -2.887513e+09 -3.047550e+09 2.022380e+03 2.384140e+02 4.284512e+02
-2.999137e+09 -2.799154e+09 -2.959188e+09 1.467067e+03 1.042996e+02 3.392886e+02
-2.848985e+09 -2.649015e+09 -2.809043e+09 4.010699e+03 5.543058e+02 5.529416e+02
-4.116423e+09 -3.916457e+09 -4.076490e+09 1.033346e+04 2.358922e+03 8.940441e+02
-2.109411e+09 -1.909535e+09 -2.069566e+09 -3.287683e+04 7.371714e+04 -4.819548e+04
-4.617771e+09 -4.417977e+09 -4.578143e+09 -1.459733e+05 9.083204e+03 -5.458992e+03
-4.991841e+09 -4.791885e+09 -4.951912e+09 8.585374e+03 -4.768758e+02 1.133573e+02
-4.615040e+09 -4.415083e+09 -4.575107e+09 5.704899e+03 1.666177e+03 5.334730e+02
-3.784834e+09 -3.584869e+09 -3.744896e+09 3.786232e+03 -5.236535e+00 1.228808e+03
-2.121757e+09 -1.921798e+09 -2.081821e+09 5.016423e+03 8.231925e+02 1.343353e+03
-4.606604e+09 -4.406592e+09 -4.566814e+09 -1.468831e+05 1.850580e+04 -1.356555e+04
-3.955202e+09 -3.755810e+09 -3.915443e+09 -2.582226e+05 6.014717e+03 6.521543e+03
-2.681528e+09 -2.481578e+09 -2.641597e+09 5.551008e+03 1.430382e+03 3.410487e+03
-2.882843e+09 -2.682888e+09 -2.842916e+09 9.493647e+03 3.646072e+03 5.487869e+03
-3.155474e+09 -2.955513e+09 -3.115541e+09 7.868477e+03 2.621239e+03 2.788971e+03
-3.965586e+09 -3.764671e+09 -3.924845e+09 1.079077e+05 -5.869737e+04 1.571368e+03
-4.985999e+09 -4.786001e+09 -4.946054e+09 9.801522e+03 3.607595e+02 9.307287e+01
-4.960438e+09 -4.760415e+09 -4.920500e+09 2.229071e+04 1.614830e+03 2.033373e+03
-4.986315e+09 -4.786318e+09 -4.946380e+09 1.761539e+04 6.244403e+02 1.065025e+03
-4.145467e+09 -3.945505e+09 -4.105541e+09 1.440451e+04 9.410581e+02 3.426826e+03
-4.526752e+09 -4.325777e+09 -4.486299e+09 -9.158289e+04 5.780860e+04 9.775560e+03
-3.830375e+09 -3.630397e+09 -3.790430e+09 5.301092e+03 2.114753e+03 1.230692e+03
-2.796340e+09 -2.596710e+09 -2.756676e+09 -1.731875e+02 -9.302445e+03 8.880209e+03
-4.981591e+09 -4.782358e+09 -4.942265e+09 -3.031371e+04 -1.477416e+04 -2.612923e+04
-4.996574e+09 -4.795754e+09 -4.956136e+09 1.402578e+05 6.904432e+04 -8.466922e+03
-4.827662e+09 -4.626754e+09 -4.787109e+09 1.209617e+05 5.965029e+04 2.414471e+04
-4.499990e+09 -4.300873e+09 -4.459991e+09 1.756236e+05 1.082207e+03 5.631861e+04
-4.481963e+09 -4.282966e+09 -4.442553e+09 -8.388774e+04 1.059145e+04 6.500075e+02
-4.844172e+09 -4.645039e+09 -4.804647e+09 1.531224e+05 1.830737e+04 8.135483e+03
-4.983543e+09 -4.784453e+09 -4.942232e+09 5.099045e+05 -2.829402e+04 2.556598e+04
-3.966927e+09 -3.766243e+09 -3.926418e+09 2.303809e+05 -1.817213e+04 -4.072706e+04
-4.830085e+09 -4.629968e+09 -4.790229e+09 2.280444e+05 -7.795643e+03 -6.033011e+03
-4.990487e+09 -4.790260e+09 -4.950050e+09 4.464641e+05 -4.147678e+04 -9.693223e+03
-4.997993e+09 -4.797652e+09 -4.957834e+09 3.128138e+05 -3.072846e+04 -1.748365e+04
-3.957952e+09 -3.757766e+09 -3.918059e+09 2.992284e+05 -2.233856e+03 -1.580531e+04
-4.318936e+09 -4.118300e+09 -4.278694e+09 2.169918e+05 8.349184e+04 1.143305e+04
-4.159095e+09 -3.958721e+09 -4.119031e+09 2.770699e+05 -7.493416e+04 -2.935153e+04
-5.011554e+09 -4.811236e+09 -4.971541e+09 2.108269e+05 -1.382341e+04 -2.587885e+04
-4.841367e+09 -4.640536e+09 -4.800707e+09 2.804079e+05 -5.094767e+04 -3.390252e+04
-4.504044e+09 -4.303829e+09 -4.464151e+09 1.588800e+05 -4.108683e+04 -3.044999e+04
-3.966851e+09 -3.766148e+09 -3.926389e+09 1.642591e+05 -4.033703e+04 9.579696e+03
-3.683364e+09 -3.483926e+09 -3.643879e+09 2.516919e+04 -3.566451e+03 -8.507089e+03
-5.007435e+09 -4.807212e+09 -4.967588e+09 2.198107e+05 -2.776374e+04 -1.729250e+04
-4.664384e+09 -4.464386e+09 -4.624536e+09 -9.777535e+04 -1.385619e+04 1.130624e+04
-4.651309e+09 -4.451310e+09 -4.611486e+09 -1.264320e+05 -1.595025e+04 1.152901e+04
-2.176688e+09 -1.977054e+09 -2.136715e+09 1.772315e+04 1.134676e+04 -1.632445e+05
-3.976720e+09 -3.776728e+09 -3.936842e+09 -6.352860e+04 -2.199701e+04 2.185385e+04
-4.828263e+09 -4.628276e+09 -4.788364e+09 -4.268960e+04 -5.029542e+01 8.176062e+03
-3.961450e+09 -3.760970e+09 -3.921352e+09 3.943014e+04 4.578534e+04 6.313452e+03
-3.151759e+09 -2.952232e+09 -3.112205e+09 -4.362759e+04 5.153136e+04 -7.691118e+04
-2.990907e+09 -2.791307e+09 -2.951253e+09 -3.005336e+04 2.985006e+02 -6.648087e+04
-4.808335e+09 -4.608285e+09 -4.768446e+09 -6.835857e+04 -5.564272e+03 1.352450e+04
-4.260161e+09 -4.060118e+09 -4.220248e+09 -4.781173e+04 -1.408202e+04 1.035328e+04
-4.980980e+09 -4.780952e+09 -4.941098e+09 -7.254506e+04 -1.579683e+03 4.390645e+03
-4.282997e+09 -4.082597e+09 -4.243004e+09 -1.637142e+05 -6.771190e+04 3.514257e+04
-4.019177e+09 -3.819996e+09 -3.979701e+09 4.106413e+04 2.039646e+03 1.918550e+04
-1.852751e+09 -1.652867e+09 -1.812711e+09 -5.165997e+04 3.518191e+04 -1.226405e+05
-3.772267e+09 -3.572143e+09 -3.732331e+09 -5.382719e+04 -1.837396e+04 1.093123e+04
-1.544721e+09 -1.344745e+09 -1.504574e+09 -4.542381e+02 -1.712252e+04 -8.344797e+04
-2.802290e+09 -2.602733e+09 -2.762572e+09 -4.039567e+04 2.734128e+04 -5.316864e+04
-4.297463e+09 -4.097701e+09 -4.257731e+09 6.389066e+03 1.866706e+02 3.180953e+04
-4.140305e+09 -3.940602e+09 -4.100627e+09 -2.205024e+04 -3.012539e+02 5.260538e+04
-4.468008e+09 -4.268165e+09 -4.428196e+09 1.193487e+04 1.185097e+03 1.559699e+04
-4.115519e+09 -3.915463e+09 -4.075617e+09 -5.936286e+04 -1.732332e+04 1.827555e+04
-4.760837e+09 -4.560725e+09 -4.720932e+09 -7.115570e+04 -1.126662e+04 -1.289497e+02
-5.004794e+09 -4.804682e+09 -4.964900e+09 -7.990688e+04 -6.189807e+03 9.966610e+03
-3.969520e+09 -3.769696e+09 -3.929736e+09 2.795958e+03 -4.008727e+03 2.658744e+04
-4.304970e+09 -4.105147e+09 -4.265190e+09 1.753601e+04 -1.077143e+03 2.379795e+04
-4.816889e+09 -4.617192e+09 -4.777217e+09 3.117075e+04 2.571507e+03 1.541521e+04
-3.961212e+09 -3.761356e+09 -3.921382e+09 2.594284e+03 5.601396e+02 1.876914e+04
-4.229701e+09 -4.029667e+09 -4.189795e+09 -4.357907e+04 -1.136933e+04 1.240408e+04
-3.951290e+09 -3.751266e+09 -3.911397e+09 -6.584266e+04 -2.494535e+04 1.689331e+04
-4.991417e+09 -4.791599e+09 -4.951641e+09 1.857022e+04 -1.811138e+03 1.330930e+04
-4.124025e+09 -3.924197e+09 -4.084242e+09 4.315004e+04 1.052567e+04 3.234038e+04
-5.000664e+09 -4.800934e+09 -4.960956e+09 3.416068e+04 9.718011e+02 2.164325e+04
-4.971679e+09 -4.771876e+09 -4.931912e+09 1.076136e+04 -2.796807e+02 9.213731e+03
-4.134668e+09 -3.934585e+09 -4.094779e+09 -9.646765e+04 -3.140571e+04 3.383342e+04
-4.649850e+09 -4.449799e+09 -4.609982e+09 -1.016981e+05 -1.305056e+04 6.943882e+03
-4.892143e+09 -4.692014e+09 -4.852180e+09 3.923761e+03 -1.149219e-04 -2.204429e+02
-3.982587e+09 -3.782654e+09 -3.942675e+09 1.123626e+04 1.218063e+03 4.505742e+03
-4.985078e+09 -4.784943e+09 -4.945162e+09 8.644621e+04 1.173658e+04 1.792888e+03
-4.546385e+09 -4.346460e+09 -4.506481e+09 8.546388e+03 7.075161e+02 1.184202e+03
-4.098771e+09 -3.898870e+09 -4.058997e+09 1.583686e+05 2.711009e+04 5.085822e+04
-4.818431e+09 -4.618375e+09 -4.778596e+09 -1.782820e+05 -1.588391e+04 2.238495e+04
-4.656173e+09 -4.456145e+09 -4.616300e+09 8.991567e+04 1.255623e+04 7.577943e+03
-4.126356e+09 -3.926336e+09 -4.086466e+09 6.998426e+04 1.674343e+04 2.497015e+04
-3.761935e+09 -3.561994e+09 -3.722013e+09 5.522637e+03 5.167460e+02 2.616643e+03
-2.110493e+09 -1.910554e+09 -2.070567e+09 1.075904e+03 4.242247e+02 1.530987e+03
-4.803112e+09 -4.603176e+09 -4.763199e+09 8.264759e+03 -5.919927e+02 1.776358e+03
-3.960881e+09 -3.760894e+09 -3.920990e+09 5.367434e+04 1.781844e+04 1.594387e+04
-4.473269e+09 -4.273293e+09 -4.433379e+09 5.295651e+04 7.325607e+03 9.347400e+03
-4.815760e+09 -4.615709e+09 -4.775908e+09 1.339633e+05 1.077209e+04 2.172734e+02
-4.643616e+09 -4.443533e+09 -4.603744e+09 1.345230e+05 1.603846e+04 1.263111e+04
-4.129228e+09 -3.929237e+09 -4.089409e+09 1.561404e+05 3.387209e+04 4.614575e+04
-3.779245e+09 -3.579312e+09 -3.739330e+09 4.692630e+03 7.428355e+02 3.372738e+03
-4.983268e+09 -4.783278e+09 -4.943465e+09 1.513198e+05 1.051401e+04 1.266439e+04
-3.790648e+09 -3.590721e+09 -3.750743e+09 1.209546e+04 1.496869e+03 5.850623e+03
-4.305062e+09 -4.105007e+09 -4.265228e+09 -1.613391e+05 -3.616930e+04 3.156968e+04
-4.988951e+09 -4.788831e+09 -4.949104e+09 -2.205653e+05 -2.156813e+04 1.286892e+04
-3.376085e+09 -3.176141e+09 -3.336162e+09 9.721462e+03 1.399661e+03 4.558925e+03
-3.960936e+09 -3.760511e+09 -3.920907e+09 -5.047570e+04 4.997929e+04 2.973900e+03
-4.568062e+09 -4.368112e+09 -4.528137e+09 9.383560e+03 2.284189e+02 1.296121e+03
-4.647543e+09 -4.446675e+09 -4.607082e+09 1.320026e+05 1.116875e+04 3.397353e+04
-3.975738e+09 -3.775732e+09 -3.935828e+09 3.813070e+05 3.318822e+04 5.605687e+03
-3.269207e+09 -3.069263e+09 -3.229284e+09 7.184461e+03 1.732469e+03 3.927988e+03
-3.130237e+09 -2.930290e+09 -3.090314e+09 1.045968e+04 1.399786e+03 6.161814e+03
-4.606585e+09 -4.406677e+09 -4.566692e+09 2.671261e+03 -4.856749e+02 1.550935e+03
-2.864458e+09 -2.664539e+09 -2.824551e+09 4.270989e+03 1.235454e+03 7.982892e+03
-4.508517e+09 -4.308599e+09 -4.468613e+09 9.458580e+02 1.107287e+02 1.146854e+03
-4.295055e+09 -4.095363e+09 -4.255370e+09 -3.400049e+04 -9.921512e+03 4.721910e+04
-4.186127e+09 -3.986558e+09 -4.146512e+09 -1.415858e+05 -2.630689e+04 7.788260e+04
-4.474418e+09 -4.274646e+09 -4.434677e+09 -9.960012e+03 -1.270954e+03 2.181682e+04
-4.985111e+09 -4.785317e+09 -4.945375e+09 -4.865561e+04 -7.802427e+03 1.179820e+04
-3.590068e+09 -3.390151e+09 -3.550165e+09 1.030800e+03 8.497707e+01 5.093778e+03
-4.304907e+09 -4.106252e+09 -4.264291e+09 -1.802755e+05 6.966582e+04 -6.783184e+05
-4.028741e+09 -3.828822e+09 -3.988833e+09 9.051262e+02 1.823991e+02 1.746946e+03
-2.774984e+09 -2.575063e+09 -2.735072e+09 9.019132e+02 -9.283384e+01 5.049228e+03
-3.969400e+09 -3.768951e+09 -3.927747e+09 -6.126698e+05 3.132621e+05 -3.573897e+05
-4.449280e+09 -4.249791e+09 -4.409444e+09 -4.246846e+05 4.809466e+04 -4.248499e+04
-4.991823e+09 -4.792788e+09 -4.951039e+09 -3.926675e+05 5.015795e+04 -1.771079e+04
-4.499010e+09 -4.299320e+09 -4.459354e+09 -1.456706e+05 -1.030128e+04 3.886404e+04
-4.978772e+09 -4.779492e+09 -4.938214e+09 -3.866702e+05 4.028324e+04 3.743202e+04
-4.996597e+09 -4.796406e+09 -4.955777e+09 -5.900517e+05 -3.771509e+04 1.069990e+04
-2.498867e+09 -2.298942e+09 -2.458951e+09 5.489719e+02 3.699867e+02 1.065290e+03
-2.339583e+09 -2.139648e+09 -2.299660e+09 1.651100e+03 4.328556e+02 1.112183e+03
-4.124661e+09 -3.924743e+09 -4.084760e+09 6.790456e+03 1.237527e+03 4.319516e+03
-4.977116e+09 -4.777419e+09 -4.937163e+09 -4.609876e+05 -2.788207e+04 6.162277e+04
-4.305218e+09 -4.105023e+09 -4.265204e+09 -3.748886e+05 -1.608303e+04 1.115083e+04
-4.466842e+09 -4.266874e+09 -4.426791e+09 -4.951888e+05 1.081896e+03 -2.734667e+04
-2.170665e+09 -1.970736e+09 -2.130745e+09 1.048341e+03 5.348161e+02 1.301036e+03
-4.632158e+09 -4.431392e+09 -4.591425e+09 -3.584586e+05 7.226594e+04 -4.007981e+04
-4.975843e+09 -4.775402e+09 -4.935288e+09 -4.809505e+05 -7.000968e+04 4.319222e+04
-3.969266e+09 -3.769739e+09 -3.929646e+09 -5.594642e+04 9.826271e+02 4.184639e+04
-4.840196e+09 -4.640632e+09 -4.800604e+09 -2.292328e+04 2.552718e+02 4.758149e+02
-4.984686e+09 -4.784723e+09 -4.944791e+09 -3.426928e+04 -5.729374e+02 2.465825e+03
-3.973923e+09 -3.774369e+09 -3.934322e+09 -2.167973e+04 4.524382e+02 4.459959e+04
-4.271577e+09 -4.072200e+09 -4.232043e+09 -1.652123e+04 -1.908309e+04 7.077002e+04
-4.827866e+09 -4.627908e+09 -4.787969e+09 -3.349689e+04 1.087157e+03 8.057505e+03
-4.818750e+09 -4.618801e+09 -4.778876e+09 -4.805186e+04 -1.019973e+04 5.009787e+03
-4.475528e+09 -4.275575e+09 -4.435657e+09 -5.014167e+04 -7.842052e+03 1.208772e+04
-3.954966e+09 -3.755006e+09 -3.915079e+09 -4.720511e+04 -1.207407e+04 1.547106e+04
-4.651247e+09 -4.451896e+09 -4.611747e+09 1.477650e+05 -1.960906e+03 7.175856e+04
-3.954991e+09 -3.755026e+09 -3.915091e+09 -3.431476e+04 -9.351311e+03 1.135682e+04
-4.303763e+09 -4.104146e+09 -4.264150e+09 -5.303554e+04 -1.776454e+04 5.865196e+04
-4.988307e+09 -4.786809e+09 -4.944269e+09 2.713912e+05 -1.032016e+05 -1.421732e+05
-4.993937e+09 -4.793963e+09 -4.954055e+09 -4.907644e+04 -1.968470e+03 4.563874e+03
-4.653925e+09 -4.454022e+09 -4.608052e+09 4.921426e+05 -5.867016e+05 -2.771071e+05
-4.149953e+09 -3.949982e+09 -4.110086e+09 -6.365775e+04 -2.076093e+04 1.243516e+04
-4.529462e+09 -4.329547e+09 -4.489734e+09 -4.256221e+04 1.818487e+04 -1.543860e+03
-3.259350e+09 -3.059489e+09 -3.219611e+09 -7.732715e+04 9.384133e+04 -6.680866e+04
-4.625252e+09 -4.425542e+09 -4.585638e+09 -1.190908e+05 5.265194e+03 9.451520e+03
-3.481382e+09 -3.281466e+09 -3.441612e+09 -3.281471e+04 4.927836e+04 -1.222180e+04
-4.350976e+09 -4.150918e+09 -4.311062e+09 2.585260e+03 -9.761568e+03 -6.144504e+02
-2.760075e+09 -2.560115e+09 -2.720249e+09 -6.253086e+04 7.084298e+04 -4.355547e+04
-2.576919e+09 -2.376964e+09 -2.537055e+09 -4.309182e+03 6.717558e+04 -1.659536e+03
-2.552873e+09 -2.352790e+09 -2.512902e+09 2.107593e+03 -4.557751e+03 -1.361358e+04
-2.716367e+09 -2.516298e+09 -2.676419e+09 1.729065e+04 -3.530664e+04 -1.750966e+04
-1.709370e+09 -1.509304e+09 -1.669388e+09 -2.344444e+02 -8.689462e+03 -1.117557e+04
-4.907899e+09 -4.707846e+09 -4.868002e+09 4.134147e+03 -5.405685e+03 -3.990690e-04
-2.964562e+09 -2.764492e+09 -2.924617e+09 1.609149e+04 -3.535820e+04 -1.862425e+04
-3.295627e+09 -3.095548e+09 -3.255695e+09 2.422908e+04 -2.288002e+04 -1.561935e+04
-4.043236e+09 -3.843154e+09 -4.003353e+09 -6.045499e+04 2.847888e+04 -2.071316e+04
-3.330594e+09 -3.130485e+09 -3.290641e+09 1.412822e+04 -1.810092e+04 -9.648776e+03
-4.892285e+09 -4.692259e+09 -4.852434e+09 7.839350e+03 -9.100478e+03 -1.273960e-03
-1.917839e+09 -1.717769e+09 -1.877859e+09 5.833502e+02 -2.286475e+04 -1.515605e+04
-3.671724e+09 -3.471699e+09 -3.631873e+09 5.611301e+04 -3.679815e+04 -1.127464e+04
-3.969315e+09 -3.769723e+09 -3.929826e+09 1.864124e+04 -2.440737e+04 -1.762314e+03
-2.152006e+09 -1.951900e+09 -2.112009e+09 -8.012034e+01 1.112726e+04 -4.647835e+03
-4.980853e+09 -4.781415e+09 -4.941411e+09 8.462586e+04 -2.505777e+04 -1.768330e+04
-3.224893e+09 -3.025273e+09 -3.185310e+09 1.460097e+04 -4.181925e+04 7.855233e+03
-4.813635e+09 -4.613347e+09 -4.773667e+09 4.782328e+04 9.110205e+03 -3.525435e+03
-2.001201e+09 -1.801089e+09 -1.961197e+09 -2.851990e+03 3.712165e+04 -8.721880e+03
-4.904677e+09 -4.705269e+09 -4.865310e+09 1.728971e+04 -4.650975e+03 -1.435968e-03
-2.957161e+09 -2.757494e+09 -2.917540e+09 1.131811e+05 -5.580123e+04 -5.775178e+04
-3.289546e+09 -3.089945e+09 -3.249977e+09 4.050110e+04 -4.209830e+04 -4.245662e+04
-2.231065e+09 -2.031232e+09 -2.191241e+09 1.144977e+04 -6.775477e+04 -5.401127e+04
-4.944069e+09 -4.744353e+09 -4.904500e+09 9.861963e+04 -2.111829e+04 -1.361848e+04
-4.417650e+09 -4.217499e+09 -4.377682e+09 -2.478285e+02 4.213185e+03 4.493639e+02
-3.877004e+09 -3.677289e+09 -3.837362e+09 1.929795e+05 -3.072319e+04 -2.055291e+04
-2.964674e+09 -2.764532e+09 -2.924687e+09 -4.033864e+03 2.992644e+04 -8.081949e+03
-2.844335e+09 -2.644216e+09 -2.804348e+09 -5.765077e+03 7.621614e+03 -2.720739e+03
-2.850301e+09 -2.650181e+09 -2.810316e+09 -3.777291e+03 9.052135e+03 -6.635401e+03
-2.769295e+09 -2.569187e+09 -2.729312e+09 -4.604282e+03 1.722513e+04 -9.184206e+03
-3.076960e+09 -2.877198e+09 -3.037185e+09 1.474519e+05 -6.411635e+04 -8.888838e+04
-1.611550e+09 -1.411586e+09 -1.571596e+09 7.986750e+02 -9.135144e+04 -2.370721e+04
-3.539456e+09 -3.339319e+09 -3.499475e+09 -4.762757e+02 3.802220e+03 -1.927922e+03
-3.425059e+09 -3.224941e+09 -3.385111e+09 -4.565570e+04 -3.963871e+04 2.221730e+04
-4.493185e+09 -4.293046e+09 -4.453250e+09 -1.915688e+04 -4.619284e+03 5.163064e+03
-4.574038e+09 -4.374234e+09 -4.534396e+09 9.440542e+04 -2.999973e+04 2.014220e+03
-4.413469e+09 -4.213730e+09 -4.373873e+09 2.519999e+04 -2.457629e+04 5.696872e+02
-3.758872e+09 -3.558743e+09 -3.718922e+09 -6.091914e+03 -2.573752e+03 1.465288e+04
-4.499457e+09 -4.299769e+09 -4.459899e+09 7.646822e+04 -1.475391e+04 -4.856961e+00
-1.752288e+09 -1.552244e+09 -1.712317e+09 -3.037195e+03 -1.081621e+04 1.707017e+04
-3.644321e+09 -3.444282e+09 -3.604419e+09 -3.926713e+03 2.525649e+04 -4.187606e+03
-2.223378e+09 -2.023302e+09 -2.183397e+09 -1.748633e+04 -5.095210e+04 2.860578e+04
-2.433505e+09 -2.233444e+09 -2.393555e+09 -3.153052e+04 -3.661014e+04 2.547229e+04
-1.911916e+09 -1.711850e+09 -1.871930e+09 -1.170731e+03 3.200827e+03 -1.628542e+03
-2.702461e+09 -2.502408e+09 -2.662512e+09 -9.071964e+03 3.057971e+04 -8.389535e+03
-3.896245e+09 -3.696123e+09 -3.856296e+09 -6.887703e+03 -1.231975e+03 9.657583e+03
-2.585802e+09 -2.385708e+09 -2.545839e+09 -1.342442e+04 -2.203900e+04 1.701598e+04
-4.379960e+09 -4.179923e+09 -4.340072e+09 -6.507341e+03 1.512510e+04 -8.969698e+02
-1.940512e+09 -1.740453e+09 -1.900534e+09 -4.130194e+03 2.183310e+04 -2.837736e+03
-1.632491e+09 -1.432418e+09 -1.592500e+09 -5.215497e+02 3.054636e+03 -6.327125e+03
-1.859267e+09 -1.659304e+09 -1.819327e+09 -1.654482e+03 -4.537336e+02 4.770538e+02
-1.662765e+09 -1.462804e+09 -1.622827e+09 -9.724117e+02 -3.828873e+02 1.124487e+02
-1.698866e+09 -1.498826e+09 -1.658897e+09 -1.346579e+02 4.029081e+04 -8.123122e+03
-3.982191e+09 -3.782123e+09 -3.942235e+09 -1.809963e+03 9.879647e+03 -2.302878e+03
-1.967418e+09 -1.767452e+09 -1.927477e+09 -6.422214e+02 -1.322966e+02 4.254930e+01
-4.105187e+09 -3.905501e+09 -4.065513e+09 5.341904e+04 -8.400332e+02 3.353531e+04
-2.843589e+09 -2.643510e+09 -2.803607e+09 -9.866137e+02 3.307573e+03 -5.993909e+03
-1.760301e+09 -1.560336e+09 -1.720361e+09 -1.813681e+03 -3.342595e+02 2.337472e+02
-2.386332e+09 -2.186285e+09 -2.346406e+09 -6.406682e+04 4.843871e+04 -3.642840e+04
-1.903725e+09 -1.703765e+09 -1.863789e+09 -3.700458e+03 -1.183614e+03 1.019188e+03
-1.698681e+09 -1.498717e+09 -1.658741e+09 -9.161695e-07 -1.245655e+02 1.060492e+02
-2.734478e+09 -2.534341e+09 -2.694494e+09 9.745532e+03 3.493169e+04 3.294755e+03
-3.858488e+09 -3.658404e+09 -3.818543e+09 3.244736e+03 -2.332031e+03 -6.924612e+03
-2.588469e+09 -2.388319e+09 -2.548478e+09 9.497664e+03 5.503381e+04 -1.218560e+02
-3.244400e+09 -3.044241e+09 -3.204428e+09 2.033821e+04 5.281219e+04 1.871680e+03
-3.714781e+09 -3.514591e+09 -3.674812e+09 1.126402e+04 2.699862e+04 3.425565e+02
-3.215220e+09 -3.015177e+09 -3.175321e+09 4.957164e+04 -6.286220e+04 -3.653164e+04
-3.384333e+09 -3.184156e+09 -3.344357e+09 2.319604e+03 3.730361e+04 -6.770186e+02
-2.613806e+09 -2.413796e+09 -2.573899e+09 2.816342e+03 -4.743706e+04 -2.096854e+03
-2.190895e+09 -1.990885e+09 -2.150959e+09 2.894465e+03 -4.719926e+04 3.356747e+03
-4.978430e+09 -4.778117e+09 -4.938452e+09 8.292741e+04 2.531102e+04 3.685312e+03
-1.662288e+09 -1.462200e+09 -1.622291e+09 1.038902e+03 5.462304e+03 3.735013e+02
-2.087057e+09 -1.886972e+09 -2.047078e+09 -5.014914e+03 -1.815639e+04 1.604012e+04
-4.712343e+09 -4.512382e+09 -4.672573e+09 2.988467e+04 -1.220068e+04 6.235491e+03
-3.055830e+09 -2.855686e+09 -3.015847e+09 9.582960e+03 3.486033e+04 7.678794e+03
-3.677247e+09 -3.477359e+09 -3.637514e+09 8.557974e+04 -3.704606e+04 -2.344164e+04
-3.822038e+09 -3.622153e+09 -3.782307e+09 3.472014e+04 -4.852872e+04 -1.972603e+04
-4.712327e+09 -4.512408e+09 -4.672592e+09 3.497077e+04 -1.507080e+04 -8.391057e+03
-3.789362e+09 -3.589383e+09 -3.749548e+09 2.414950e+04 -4.506462e+04 -7.587034e+03
-2.663561e+09 -2.463466e+09 -2.623575e+09 -4.531602e+03 9.715665e+03 -8.640509e+03
-3.331412e+09 -3.131380e+09 -3.291513e+09 6.761404e+03 -3.387356e+04 -1.062874e+03
-2.716095e+09 -2.516023e+09 -2.676127e+09 1.591208e+04 1.783472e+04 1.251289e+04
-3.210208e+09 -3.010121e+09 -3.170248e+09 -1.752096e+04 2.342068e+04 -8.897087e+03
-2.850347e+09 -2.650260e+09 -2.810375e+09 2.039737e+04 3.181888e+04 1.279170e+04
-2.989871e+09 -2.789793e+09 -2.949904e+09 1.378320e+04 1.575428e+04 5.813146e+03
-2.184768e+09 -1.984762e+09 -2.144809e+09 1.745615e+03 3.680649e+02 1.768308e+03
-4.582051e+09 -4.381969e+09 -4.542102e+09 2.158799e+04 5.879201e+03 2.431387e+03
-4.073768e+09 -3.873666e+09 -4.033828e+09 3.549565e+04 2.080358e+04 4.445291e+03
-4.657920e+09 -4.457784e+09 -4.617963e+09 2.843419e+04 5.994055e+03 4.252956e+02
-1.727143e+09 -1.527164e+09 -1.687196e+09 9.870428e+02 7.476462e+01 4.020936e+01
-4.989950e+09 -4.789967e+09 -4.950001e+09 3.047599e+03 5.875988e+01 6.034633e+01
-3.346472e+09 -3.146493e+09 -3.306526e+09 5.200576e+03 3.872797e+02 4.823701e+02
-3.655566e+09 -3.455588e+09 -3.615618e+09 6.020942e+02 1.651677e+02 2.992805e+01
-1.617325e+09 -1.417347e+09 -1.577378e+09 7.287587e+02 2.496906e+02 6.577490e+01
-2.202460e+09 -2.002482e+09 -2.162512e+09 2.023820e+02 7.778522e+00 -2.306803e+02
-2.863139e+09 -2.663158e+09 -2.823190e+09 3.492030e+02 1.745308e+02 7.797214e+01
-4.134222e+09 -3.934246e+09 -4.094287e+09 1.133052e+04 1.535069e+03 2.599230e+03
-1.617324e+09 -1.417348e+09 -1.577378e+09 9.963317e-05 4.656309e+01 -9.625001e+00
-4.799981e+09 -4.600257e+09 -4.760303e+09 8.097648e+04 7.030122e+03 2.650036e+04
-3.917990e+09 -3.717889e+09 -3.878030e+09 1.953844e+04 1.459244e+04 3.404528e+03
-3.426664e+09 -3.226550e+09 -3.386702e+09 2.110920e+04 3.065587e+04 7.658585e+03
-3.726229e+09 -3.526093e+09 -3.686261e+09 1.631077e+04 1.414806e+04 5.392178e+03
-3.885025e+09 -3.685047e+09 -3.845077e+09 2.940668e+02 -8.325308e+01 -1.837782e+02
-3.591251e+09 -3.391289e+09 -3.551313e+09 4.150132e+03 6.057654e+02 9.596116e+02
-1.933662e+09 -1.733685e+09 -1.893716e+09 -1.209277e+02 9.544846e+01 1.041573e+02
-1.876177e+09 -1.676103e+09 -1.836190e+09 8.350805e+03 8.407604e+03 5.742650e+03
-4.495759e+09 -4.295656e+09 -4.455803e+09 1.186305e+04 3.095728e+03 2.529501e+03
-2.147675e+09 -1.947569e+09 -2.107675e+09 -8.673445e+02 2.778362e+03 -4.259969e+03
-4.439676e+09 -4.239533e+09 -4.399706e+09 -2.902013e+03 1.705198e+03 -2.323910e+03
-3.780370e+09 -3.580228e+09 -3.740398e+09 7.567720e+02 2.862725e+03 -5.882897e+02
-3.582849e+09 -3.382699e+09 -3.542884e+09 3.878929e+04 2.517865e+04 1.052252e+04
-4.007502e+09 -3.807359e+09 -3.967567e+09 -2.967634e+04 -1.534262e+04 2.211641e+03
-1.902804e+09 -1.702726e+09 -1.862810e+09 2.435259e+03 3.656898e+04 1.860097e+04
-3.739853e+09 -3.539719e+09 -3.699915e+09 -3.257878e+04 -1.862307e+04 1.295068e+04
-3.546952e+09 -3.346749e+09 -3.506962e+09 2.825784e+03 3.910178e+04 -3.481589e+03
-3.016405e+09 -2.816277e+09 -2.976441e+09 -4.717624e+03 1.278111e+03 1.219309e+04
-1.830456e+09 -1.630506e+09 -1.790523e+09 -6.193758e+02 -7.495652e+02 6.614326e+02
-4.509096e+09 -4.308922e+09 -4.469153e+09 -1.626263e+04 -5.042212e+03 3.524837e+03
-3.492325e+09 -3.292185e+09 -3.452371e+09 -6.678506e+03 -1.894824e+03 9.739792e+03
-3.304676e+09 -3.104568e+09 -3.264736e+09 -3.106565e+04 -4.108420e+04 2.040864e+04
-3.914526e+09 -3.714401e+09 -3.874593e+09 -4.262154e+04 -1.855367e+04 1.665165e+04
-1.886172e+09 -1.686200e+09 -1.846228e+09 5.092875e+02 1.050591e+02 3.612449e+02
-4.420299e+09 -4.220142e+09 -4.380359e+09 -7.197233e+03 -1.665713e+03 7.291648e+03
-3.350518e+09 -3.150313e+09 -3.310565e+09 -3.993807e+04 -5.572964e+04 1.709547e+04
-4.411332e+09 -4.211223e+09 -4.371401e+09 -3.440435e+04 -9.978377e+03 7.340037e+03
-1.765627e+09 -1.565580e+09 -1.725639e+09 -7.084866e+03 -3.515919e+04 2.456277e+04
-1.657096e+09 -1.457121e+09 -1.617150e+09 3.032169e+02 5.417058e+01 1.359357e+02
-1.632429e+09 -1.432457e+09 -1.592485e+09 5.015015e+02 2.056757e+02 2.415368e+02
-3.954076e+09 -3.753874e+09 -3.914143e+09 -4.504423e+04 -2.159221e+04 1.142727e+04
-4.643037e+09 -4.442843e+09 -4.603092e+09 -4.169881e+04 -7.647537e+03 5.154289e+02
-5.007568e+09 -4.807386e+09 -4.967646e+09 -5.325715e+04 -8.517674e+03 7.416208e+03
-4.470698e+09 -4.270511e+09 -4.430746e+09 2.476309e+04 1.902720e+04 2.754883e+03
-2.998769e+09 -2.798793e+09 -2.958823e+09 3.874251e+03 3.403638e+02 2.679234e+02
-1.581166e+09 -1.381191e+09 -1.541220e+09 1.789529e+03 1.795677e+02 3.943426e+02
-2.158745e+09 -1.958768e+09 -2.118799e+09 4.610226e+03 4.455242e+02 6.103793e+02
-1.636302e+09 -1.436213e+09 -1.596303e+09 -3.582118e+01 5.238095e+03 -4.168182e+03
-3.113205e+09 -2.913070e+09 -3.073219e+09 -4.884708e+02 3.035816e+03 -4.624412e+02
-4.804166e+09 -4.604022e+09 -4.764210e+09 2.332012e+04 2.662911e+03 -4.955004e+02
-4.180431e+09 -3.980254e+09 -4.140458e+09 1.123127e+04 2.291771e+04 3.729830e+03
-4.610227e+09 -4.410060e+09 -4.570262e+09 1.950452e+04 6.905747e+03 1.085534e+03
-3.647132e+09 -3.446988e+09 -3.607166e+09 9.690601e+03 1.512198e+04 1.934667e+03
-4.776504e+09 -4.576941e+09 -4.736884e+09 2.552825e+05 -1.170274e+04 3.212103e+04
-4.990996e+09 -4.791183e+09 -4.951221e+09 2.800429e+05 -3.185970e+04 -6.394468e+03
-4.731454e+09 -4.531683e+09 -4.691783e+09 2.550542e+05 -9.951567e+03 1.018699e+04
-4.143357e+09 -3.943635e+09 -4.103498e+09 3.706619e+05 -4.536495e+04 -7.465922e+04
-4.125874e+09 -3.926220e+09 -4.086075e+09 2.928889e+05 -1.421449e+04 2.837281e+04
-5.002528e+09 -4.802694e+09 -4.962449e+09 4.286474e+05 -4.103203e+04 -1.080956e+04
-4.671564e+09 -4.471711e+09 -4.631805e+09 3.828736e+05 1.921341e+04 -9.411936e+03
-4.167600e+09 -3.967667e+09 -4.127763e+09 3.093797e+05 -4.503107e+04 -6.069956e+04
-4.335482e+09 -4.135421e+09 -4.295593e+09 2.442994e+05 -5.804355e+04 -3.311961e+04
-4.989265e+09 -4.789290e+09 -4.949339e+09 1.896753e+04 1.993719e+01 1.105282e+03
-4.820241e+09 -4.620349e+09 -4.780380e+09 1.834527e+04 -2.453987e+02 4.209754e+03
-4.297110e+09 -4.097128e+09 -4.257180e+09 1.752306e+04 7.241216e+02 2.290010e+03
-1.872850e+09 -1.672780e+09 -1.832866e+09 7.242046e+03 -9.530012e+03 1.690713e+04
-1.662252e+09 -1.462227e+09 -1.622285e+09 -2.000717e+03 -3.120414e+03 1.245412e+04
-3.964035e+09 -3.764055e+09 -3.924100e+09 1.721466e+04 4.347768e+03 4.309746e+03
-4.650506e+09 -4.450528e+09 -4.610564e+09 1.206776e+04 1.046352e+02 1.332326e+03
-3.779328e+09 -3.579230e+09 -3.739410e+09 -6.156339e+04 -2.238333e+04 1.169159e+04
-4.449271e+09 -4.249293e+09 -4.409331e+09 1.001510e+04 1.484201e+03 7.823613e+02
-4.255016e+09 -4.055031e+09 -4.215075e+09 1.124505e+04 7.353875e+02 1.468655e+03
-3.047342e+09 -2.847290e+09 -3.007374e+09 2.919637e+03 5.266384e+03 7.357054e+03
-2.796937e+09 -2.596889e+09 -2.756972e+09 1.243585e+04 1.060243e+04 1.045130e+04
-1.546046e+09 -1.346051e+09 -1.506029e+09 9.320282e+02 7.142231e+04 -6.317292e+04
-3.829808e+09 -3.629744e+09 -3.789850e+09 8.980856e+03 5.776621e+03 7.286917e+03
-4.639455e+09 -4.439455e+09 -4.599575e+09 7.194105e+04 1.120912e+04 9.524375e+03
-4.114544e+09 -3.914537e+09 -4.074702e+09 1.432999e+05 3.735913e+04 2.238904e+04
-4.290176e+09 -4.090176e+09 -4.250343e+09 1.617407e+05 3.555684e+04 4.145211e+04
-4.129295e+09 -3.929232e+09 -4.089435e+09 1.336245e+05 3.808019e+04 3.801628e+04
-4.812145e+09 -4.612036e+09 -4.772259e+09 1.109274e+05 1.325142e+04 1.262164e+03
-4.990608e+09 -4.790602e+09 -4.950758e+09 1.009257e+05 5.032356e+03 6.126074e+03
-4.644227e+09 -4.444204e+09 -4.604373e+09 1.070838e+05 1.458617e+04 9.640523e+03
-4.998086e+09 -4.798038e+09 -4.958215e+09 9.874799e+04 6.556099e+03 7.591802e+03
-4.306643e+09 -4.106581e+09 -4.266754e+09 8.798215e+04 2.526194e+04 1.965751e+04
-1.813777e+09 -1.613746e+09 -1.773808e+09 -6.730843e+03 -6.286044e+03 1.318816e+04
-2.361091e+09 -2.161037e+09 -2.321123e+09 -6.257587e+03 -5.980858e+03 1.478891e+04
-1.576413e+09 -1.376375e+09 -1.536434e+09 -6.362020e+03 -2.233478e+04 1.856806e+04
-4.829464e+09 -4.629420e+09 -4.789584e+09 8.889973e+04 1.085915e+04 -6.620635e+02
-2.892143e+09 -2.692047e+09 -2.852185e+09 -1.269557e+04 -1.669812e+04 1.934127e+04
-2.469536e+09 -2.269416e+09 -2.429560e+09 -1.756712e+04 -5.502113e+04 1.805323e+04
-3.273444e+09 -3.073406e+09 -3.233503e+09 -1.402563e+04 -1.108432e+04 1.355772e+04
-1.568885e+09 -1.368862e+09 -1.528913e+09 -8.018049e+03 -3.808095e+04 2.850575e+04
-3.519151e+09 -3.319001e+09 -3.479202e+09 -2.961620e+04 -4.465214e+04 1.359817e+04
-3.230694e+09 -3.030485e+09 -3.190721e+09 -3.921557e+04 -7.626009e+04 7.646536e+03
-4.802510e+09 -4.602271e+09 -4.762561e+09 -2.702589e+04 -5.492291e+03 1.583199e+03
-4.524644e+09 -4.324440e+09 -4.484693e+09 -1.172341e+04 -4.032324e+03 2.548909e+03
-2.040008e+09 -1.839852e+09 -2.000027e+09 1.007861e+04 -6.201808e+04 -1.706000e+04
-1.979539e+09 -1.779432e+09 -1.939552e+09 -1.290347e+04 -5.390380e+04 2.354870e+04
-2.983882e+09 -2.783742e+09 -2.943914e+09 -3.978186e+03 -1.838678e+04 1.159705e+04
-2.877645e+09 -2.677877e+09 -2.837892e+09 -1.312863e+05 7.060366e+04 -4.675647e+04
-1.658816e+09 -1.458828e+09 -1.618870e+09 -7.595434e+02 6.653928e+04 -1.930503e+04
-2.424623e+09 -2.224623e+09 -2.384731e+09 -7.120100e+04 7.740112e+04 -5.663082e+04
-3.446361e+09 -3.246200e+09 -3.406398e+09 -1.076972e+04 8.227511e+02 7.948408e+03
-1.544731e+09 -1.344751e+09 -1.504616e+09 1.366022e+03 1.580841e+04 -6.270625e+04
-3.191987e+09 -2.991802e+09 -3.152022e+09 -1.587308e+04 -5.762959e+04 1.045267e+04
-3.685988e+09 -3.485852e+09 -3.646035e+09 -4.427285e+03 -3.560744e+03 9.156565e+03
-4.633926e+09 -4.433697e+09 -4.593975e+09 -3.401327e+04 -9.900457e+03 3.939510e+03
-1.821903e+09 -1.621836e+09 -1.781918e+09 -6.759641e+03 -2.080656e+04 1.895260e+04
-4.431208e+09 -4.231021e+09 -4.391265e+09 -5.544363e+03 -6.961624e+02 4.240708e+03
-3.691598e+09 -3.491397e+09 -3.651650e+09 -1.722627e+04 -1.963338e+04 8.482980e+03
-4.995407e+09 -4.795178e+09 -4.955472e+09 -4.775302e+04 -1.078822e+04 7.208188e+03
-4.472675e+09 -4.272399e+09 -4.432711e+09 -5.026465e+04 -3.112562e+04 6.676684e+03
-3.967376e+09 -3.767472e+09 -3.919203e+09 4.306508e+05 -7.367808e+05 -1.544297e+06
-4.716608e+09 -4.516629e+09 -4.676660e+09 1.808884e+03 3.172427e+01 1.759353e+02
-4.612028e+09 -4.412735e+09 -4.572618e+09 -3.753897e+04 1.814195e+04 1.315424e+04
-2.956679e+09 -2.757044e+09 -2.916974e+09 -1.058327e+05 2.605165e+04 -1.459857e+04
-4.136032e+09 -3.936946e+09 -4.096587e+09 7.761355e+04 1.690040e+04 -5.077953e+04
-3.966751e+09 -3.766777e+09 -3.926806e+09 1.387904e+03 6.018533e+01 1.197697e+02
-4.796680e+09 -4.597502e+09 -4.757236e+09 -8.706245e+04 8.844123e+03 -7.089089e+04
-4.820226e+09 -4.621260e+09 -4.779501e+09 -3.985907e+05 -2.306010e+04 1.416973e+05
-2.176637e+09 -1.977000e+09 -2.136648e+09 -3.606039e+04 -3.557245e+04 -1.710664e+05
-4.982958e+09 -4.783370e+09 -4.943394e+09 -2.353582e+05 3.123483e+04 -4.421043e+04
-4.488709e+09 -4.288737e+09 -4.448767e+09 4.713951e+03 2.967976e+02 4.987931e+02
-1.649060e+09 -1.449106e+09 -1.609125e+09 1.119431e+02 -6.601701e+04 2.804114e+03
-3.965229e+09 -3.765256e+09 -3.925285e+09 3.493840e+03 6.551972e+02 9.218988e+01
-4.686395e+09 -4.486426e+09 -4.646454e+09 3.569771e+03 3.326276e+02 -7.112599e+01
-3.861423e+09 -3.661540e+09 -3.821698e+09 1.924754e+05 -4.519668e+04 -3.253158e+04
-4.425591e+09 -4.225508e+09 -4.385677e+09 2.467126e+04 -1.482553e+04 -4.579152e+03
-4.545210e+09 -4.345151e+09 -4.505312e+09 2.553875e+04 -1.477054e+04 -2.981587e+03
-4.519638e+09 -4.319734e+09 -4.479922e+09 4.689887e+04 -1.842676e+04 -2.732043e+03
-3.672220e+09 -3.472169e+09 -3.632304e+09 5.347246e+03 -2.207557e+04 -2.602386e+03
-2.085295e+09 -1.885192e+09 -2.045298e+09 5.304215e+03 1.948064e+04 3.402026e+03
-2.015019e+09 -1.815055e+09 -1.975079e+09 3.553334e+02 -5.864675e+01 3.530597e+02
-2.283816e+09 -2.083852e+09 -2.243876e+09 -2.404175e+02 7.088483e+01 2.166953e+02
-3.384589e+09 -3.184465e+09 -3.344613e+09 -6.999842e+01 5.524219e+03 4.332368e+03
-3.961004e+09 -3.761093e+09 -3.921121e+09 1.337447e+04 2.058735e+03 1.051047e+04
-3.208564e+09 -3.008446e+09 -3.168599e+09 1.748638e+04 3.402038e+04 1.087068e+04
-3.106578e+09 -2.906421e+09 -3.066613e+09 4.143409e+03 5.548497e+04 2.608894e+03
-2.153944e+09 -1.953855e+09 -2.113956e+09 2.180378e+03 1.076517e+04 3.885805e+03
-4.936847e+09 -4.736774e+09 -4.896884e+09 0.000000e+00 9.897936e+01 -2.654795e+01
-3.744836e+09 -3.544766e+09 -3.704871e+09 -1.804451e+02 7.030133e+03 -1.881482e+03
-1.795416e+09 -1.595480e+09 -1.755491e+09 -3.182128e+03 -1.756093e+03 3.631786e+03
-2.827035e+09 -2.626968e+09 -2.787060e+09 -2.751240e+03 8.142458e+03 -2.399950e+03
-2.856257e+09 -2.656327e+09 -2.816339e+09 -7.833652e+02 -9.772729e+02 5.722916e+02
-3.636989e+09 -3.437043e+09 -3.597062e+09 -8.192146e+02 -3.461298e+02 7.203915e+02
-3.567764e+09 -3.367812e+09 -3.527832e+09 -1.413630e+03 -4.499586e+02 -9.021651e+01
-3.104042e+09 -2.904077e+09 -3.064100e+09 -3.064627e+02 -1.411992e+02 -4.679322e+01
-1.788315e+09 -1.588356e+09 -1.748377e+09 -2.089322e+03 -8.304135e+02 5.524608e+02
-3.719909e+09 -3.519822e+09 -3.679944e+09 -1.062889e+04 1.172167e+04 -5.913274e+03
-4.692863e+09 -4.492792e+09 -4.652911e+09 -3.469440e+03 3.640673e+03 -4.796461e+02
-3.997079e+09 -3.796986e+09 -3.957123e+09 -1.695598e+04 1.103451e+04 -6.081840e+03
-4.067435e+09 -3.867506e+09 -4.027520e+09 -2.644872e+03 -6.106696e+02 9.859529e+02
-4.703726e+09 -4.503658e+09 -4.663785e+09 -6.919773e+03 4.157232e+03 -1.612668e+03
-3.653146e+09 -3.453078e+09 -3.613197e+09 -1.478022e+04 1.476106e+04 -3.912104e+03
-1.921959e+09 -1.721998e+09 -1.882021e+09 9.150391e+02 1.881926e+02 6.129949e+02
-4.791593e+09 -4.591954e+09 -4.751973e+09 5.271252e+04 1.429439e+04 4.340682e+04
-1.918889e+09 -1.718878e+09 -1.878930e+09 -3.729726e+02 -2.573207e+03 9.310188e+03
-2.706831e+09 -2.506829e+09 -2.666884e+09 -8.886776e+03 -6.484371e+03 9.624726e+03
-4.907944e+09 -4.707840e+09 -4.868006e+09 3.989430e+03 -1.121455e-04 -1.574197e+03
-4.771854e+09 -4.571788e+09 -4.731923e+09 -1.579274e+04 8.125568e+03 1.361790e+03
-4.562894e+09 -4.362782e+09 -4.522976e+09 3.160656e+04 -1.076787e+04 -5.657475e+03
-4.739401e+09 -4.539212e+09 -4.699472e+09 5.021185e+04 -9.753787e+03 -1.216147e+04
-3.280143e+09 -3.080554e+09 -3.240526e+09 9.029103e+04 -3.043545e+04 -3.511904e+04
-3.827614e+09 -3.628127e+09 -3.788096e+09 1.862859e+05 -2.657124e+04 -2.236596e+04
-4.466491e+09 -4.266514e+09 -4.426548e+09 5.206887e+03 5.447309e+02 5.999746e+02
-4.387748e+09 -4.187783e+09 -4.347810e+09 2.117863e+03 3.788252e+02 7.544707e+02
-2.182413e+09 -1.982325e+09 -2.142428e+09 3.147015e+03 -1.333684e+04 -1.292941e+04
-3.598461e+09 -3.398494e+09 -3.558520e+09 2.095552e+03 7.911487e+02 2.616849e+02
-3.357031e+09 -3.157061e+09 -3.317088e+09 1.253019e+03 3.882948e+02 -9.844342e+01
-3.603639e+09 -3.403674e+09 -3.563700e+09 6.935909e+02 1.592492e+02 3.767921e+02
-4.450128e+09 -4.250157e+09 -4.410185e+09 7.975605e+02 3.264028e+02 1.564378e+02
-3.465760e+09 -3.265794e+09 -3.425821e+09 4.064815e+03 7.408706e+02 1.326235e+03
-4.048449e+09 -3.848339e+09 -4.008504e+09 4.672461e+03 -5.937044e+03 -9.625528e+03
-1.596469e+09 -1.396404e+09 -1.556479e+09 -8.555227e+01 -3.399690e+04 -1.991544e+04
-4.892340e+09 -4.692210e+09 -4.852399e+09 5.890237e+03 -2.491516e-04 -1.895875e+03
-4.785376e+09 -4.585412e+09 -4.745437e+09 3.905286e+03 7.456256e+02 -1.034455e+02
-4.003886e+09 -3.803928e+09 -3.963950e+09 -8.175718e+02 -5.098726e+02 1.737419e+02
-4.986418e+09 -4.786531e+09 -4.946567e+09 2.787098e+04 1.813396e+03 3.880688e+03
-3.466588e+09 -3.266618e+09 -3.426647e+09 -5.757332e+02 -1.855128e+02 1.046442e+03
-2.185771e+09 -1.985701e+09 -2.145788e+09 -1.029882e+04 -2.008789e+04 1.982037e+04
-4.945817e+09 -4.745840e+09 -4.905878e+09 -3.127452e+03 -4.078779e+02 -4.173511e+02
-3.683649e+09 -3.483679e+09 -3.643714e+09 -9.918721e+03 -2.007543e+03 3.633515e+03
-3.020081e+09 -2.820113e+09 -2.980140e+09 -2.267570e+03 -3.433991e+02 4.584511e+02
-1.539932e+09 -1.339900e+09 -1.499959e+09 -2.925793e+03 -8.253332e+03 1.501491e+04
-1.715130e+09 -1.515100e+09 -1.675158e+09 -4.787238e+03 -1.393246e+04 1.635699e+04
-2.552766e+09 -2.352746e+09 -2.512821e+09 -2.288530e+04 -2.489864e+04 2.091972e+04
-3.281197e+09 -3.081147e+09 -3.241280e+09 -5.199315e+04 -3.117149e+04 2.405626e+04
-4.890149e+09 -4.689941e+09 -4.850200e+09 4.133093e+03 -1.287320e-04 -1.070302e+03
-4.437609e+09 -4.237394e+09 -4.397660e+09 -2.752158e+02 -1.147471e+03 -4.541048e+02
-3.759254e+09 -3.559230e+09 -3.719338e+09 -4.479811e+04 -1.902736e+04 1.620121e+04
-4.767038e+09 -4.566888e+09 -4.727104e+09 -2.966396e+04 -5.238395e+03 8.851030e+03
-3.380507e+09 -3.180361e+09 -3.340551e+09 -4.262034e+03 -3.584526e+03 1.002232e+04
-4.705066e+09 -4.504881e+09 -4.665122e+09 -8.383591e+03 4.752501e+02 3.578353e+03
-4.890124e+09 -4.689982e+09 -4.850184e+09 -7.513164e+03 -1.770348e-04 1.319543e+03
-3.934431e+09 -3.734358e+09 -3.894492e+09 -1.242004e+04 -6.858670e+03 1.042050e+04
-4.996078e+09 -4.796140e+09 -4.956172e+09 -1.810832e+04 -7.057108e+02 7.407484e+02
-4.263953e+09 -4.064007e+09 -4.224036e+09 -1.356801e+04 -1.597756e+03 2.778176e+03
-1.599388e+09 -1.399441e+09 -1.559458e+09 -3.302680e+03 -9.995898e+02 2.594814e+03
-3.443208e+09 -3.243273e+09 -3.403296e+09 -1.129725e+04 -2.838040e+03 7.637607e+03
-4.466914e+09 -4.266956e+09 -4.426981e+09 -6.051769e+03 -6.318900e+02 1.052713e+03
-4.975473e+09 -4.775522e+09 -4.935545e+09 -5.785873e+03 -7.098121e+02 8.596591e+02
-5.005297e+09 -4.805302e+09 -4.965402e+09 -4.096488e+04 1.243613e+03 1.513678e+03
-2.655097e+09 -2.455066e+09 -2.615149e+09 -1.378420e+04 -1.673289e+04 1.813121e+04
-4.626430e+09 -4.426451e+09 -4.586515e+09 -2.763112e+04 -4.504869e+03 4.279878e+03
-1.563602e+09 -1.363579e+09 -1.523632e+09 -8.278709e+03 -1.568338e+04 1.767935e+04
-5.011233e+09 -4.811238e+09 -4.971309e+09 -2.309865e+04 -1.745890e+03 5.901591e+02
-4.288170e+09 -4.088180e+09 -4.248265e+09 -3.983728e+04 -6.583065e+03 7.848424e+03
-4.986897e+09 -4.786917e+09 -4.946991e+09 -2.970624e+04 4.087875e+02 9.501288e+02
-1.618767e+09 -1.418761e+09 -1.578808e+09 -1.059122e+04 -1.960991e+04 1.729307e+04
-4.283197e+09 -4.083219e+09 -4.243282e+09 -2.753996e+04 -4.531408e+03 5.218223e+03
-4.504404e+09 -4.304332e+09 -4.464473e+09 -1.585412e+04 -4.845744e+03 5.743533e+03
-4.605047e+09 -4.404994e+09 -4.565136e+09 -3.957867e+04 -2.896004e+03 5.217549e+03
-4.593426e+09 -4.393445e+09 -4.553504e+09 -1.788636e+04 -7.214749e+02 3.788187e+03
-4.594816e+09 -4.394826e+09 -4.554901e+09 -2.859785e+04 -3.695207e+03 4.114672e+03
-4.606662e+09 -4.406697e+09 -4.566732e+09 -1.304876e+04 -2.212545e+03 2.103746e+03
-3.799856e+09 -3.599880e+09 -3.759925e+09 -1.289570e+04 -3.555686e+03 4.815749e+03
-4.808436e+09 -4.608437e+09 -4.768532e+09 -3.906659e+04 -5.853916e+03 -4.729520e+02
-3.610138e+09 -3.410180e+09 -3.570204e+09 6.739113e+02 -5.893585e+01 6.327667e+02
-1.909538e+09 -1.709444e+09 -1.869543e+09 9.466926e+03 -1.199654e+04 1.153028e+04
-3.959250e+09 -3.758647e+09 -3.919066e+09 -9.874892e+04 -2.555662e+04 2.412670e+04
-4.197851e+09 -3.997590e+09 -4.157877e+09 1.522970e+04 -3.356438e+04 -9.605660e+02
-3.414721e+09 -3.214450e+09 -3.374714e+09 -6.581308e+03 -8.574486e+04 7.672211e+02
-4.019918e+09 -3.819859e+09 -3.979985e+09 -2.163842e+04 -9.382932e+03 6.117050e+03
-3.119987e+09 -2.919946e+09 -3.080054e+09 -2.468789e+04 -2.024402e+04 1.558798e+04
-4.127326e+09 -3.927054e+09 -4.087389e+09 -1.438310e+05 -6.349389e+04 2.664640e+04
-4.264949e+09 -4.064903e+09 -4.225019e+09 -2.526521e+04 -7.732641e+03 6.722590e+03
-3.874804e+09 -3.674511e+09 -3.834817e+09 -5.256703e+03 -3.536868e+04 7.154367e+03
-4.977396e+09 -4.777091e+09 -4.937438e+09 -1.441546e+04 -1.641762e+04 1.936220e+03
-4.283947e+09 -4.083591e+09 -4.243950e+09 6.855787e+03 -5.729094e+04 -4.755197e+03
-4.147589e+09 -3.947583e+09 -4.107667e+09 -2.636040e+04 -8.091762e+03 9.348539e+03
-2.693264e+09 -2.493574e+09 -2.653619e+09 8.760860e+04 -5.335628e+04 -7.966530e+04
-3.386406e+09 -3.186229e+09 -3.346443e+09 -5.507776e+02 -3.809450e+03 2.536081e+03
-4.798491e+09 -4.598260e+09 -4.758541e+09 -1.642092e+04 -8.681289e+03 4.873457e+03
-4.392326e+09 -4.192732e+09 -4.352837e+09 1.747676e+04 -1.515784e+04 -1.697898e+03
-4.643282e+09 -4.443159e+09 -4.602360e+09 6.443329e+05 2.137184e+05 1.329382e+05
-2.821531e+09 -2.621756e+09 -2.781793e+09 6.490693e+04 -5.470639e+04 -4.215199e+04
-4.711313e+09 -4.511766e+09 -4.671830e+09 5.913058e+04 -1.627471e+04 -1.597043e+04
-5.014085e+09 -4.814999e+09 -4.974345e+09 2.584606e+05 -1.416483e+04 -3.680613e+04
-4.977837e+09 -4.778208e+09 -4.938311e+09 1.307036e+05 -2.220726e+04 -3.303582e+04
-3.377105e+09 -3.177519e+09 -3.337510e+09 6.642564e+04 -3.849557e+04 -2.645261e+04
-1.554840e+09 -1.354883e+09 -1.514833e+09 -1.288481e+03 -5.272789e+04 -4.028623e+04
-4.584236e+09 -4.384674e+09 -4.544690e+09 1.690818e+05 -1.961186e+03 -7.559643e+03
-4.795095e+09 -4.595633e+09 -4.755651e+09 9.463117e+04 -2.086498e+04 -3.154819e+04
-3.995944e+09 -3.795896e+09 -3.955996e+09 1.968762e+04 6.189318e+03 7.630424e+03
-3.837690e+09 -3.637607e+09 -3.797744e+09 3.698185e+04 1.676716e+04 8.997021e+03
-4.620952e+09 -4.421052e+09 -4.581074e+09 6.228617e+03 8.741176e+02 4.543475e+03
-2.920878e+09 -2.720901e+09 -2.880931e+09 1.610731e+03 6.137386e+02 -2.625704e+02
-4.131367e+09 -3.931492e+09 -4.091518e+09 1.114309e+04 2.101928e+03 1.369368e+04
-4.807525e+09 -4.607617e+09 -4.767651e+09 2.093894e+04 -8.012478e+02 3.374462e+03
-3.410953e+09 -3.211033e+09 -3.371052e+09 9.954243e+03 2.724057e+03 1.012070e+04
-3.838874e+09 -3.638975e+09 -3.798992e+09 4.082956e+03 3.008704e+02 8.976127e+03
-2.552797e+09 -2.352818e+09 -2.512849e+09 2.515033e+03 -9.057244e+01 6.150386e+02
-4.811605e+09 -4.611718e+09 -4.771742e+09 2.831791e+03 5.242979e+03 5.341485e+03
-4.302584e+09 -4.102710e+09 -4.262753e+09 2.697989e+04 6.507699e+03 1.850696e+04
-3.211082e+09 -3.011101e+09 -3.171133e+09 5.972596e+02 3.897494e+02 3.305151e+02
-2.148078e+09 -1.948096e+09 -2.108129e+09 4.614993e+03 6.877855e+02 8.575439e+02
-3.963720e+09 -3.763832e+09 -3.923868e+09 2.029218e+04 2.649879e+03 1.658739e+04
-4.297421e+09 -4.097526e+09 -4.257572e+09 3.112725e+04 6.772893e+03 1.534950e+04
-2.601190e+09 -2.401205e+09 -2.561240e+09 1.000541e+03 8.446538e+02 5.040323e+02
-1.995940e+09 -1.795961e+09 -1.955992e+09 3.513072e+02 2.325982e+02 -8.042030e+01
-1.971296e+09 -1.771316e+09 -1.931348e+09 1.032467e+03 2.595012e+00 3.219371e+01
-2.843591e+09 -2.643578e+09 -2.803632e+09 8.088383e+03 5.743849e+03 4.079524e+03
-2.591193e+09 -2.391178e+09 -2.551234e+09 1.422484e+03 1.167523e+03 4.558400e+03
-4.992498e+09 -4.792139e+09 -4.952510e+09 1.467615e+05 3.537381e+04 7.206917e+03
-4.578770e+09 -4.378769e+09 -4.538828e+09 1.145537e+04 2.106809e+03 1.030172e+03
-3.975140e+09 -3.774931e+09 -3.935194e+09 8.917202e+04 4.041346e+04 9.496704e+03
-4.961565e+09 -4.761409e+09 -4.921634e+09 6.530443e+04 1.345474e+04 5.341316e+03
-5.004821e+09 -4.804537e+09 -4.964883e+09 1.241605e+05 1.305812e+04 2.110400e+03
-2.930541e+09 -2.730405e+09 -2.890572e+09 1.576344e+04 5.892441e+04 1.140250e+04
-4.624477e+09 -4.424251e+09 -4.584517e+09 2.677427e+03 6.939347e+03 1.138714e+03
-3.211778e+09 -3.011782e+09 -3.171832e+09 1.373125e+04 5.106010e+03 4.250599e+03
-2.996351e+09 -2.796259e+09 -2.956387e+09 2.086359e+04 2.270837e+04 9.184014e+03
-4.647700e+09 -4.447379e+09 -4.607750e+09 1.019199e+05 9.385267e+03 8.129164e+03
-5.000338e+09 -4.799871e+09 -4.960286e+09 1.013164e+05 3.078137e+04 3.676520e+03
-3.124413e+09 -2.924401e+09 -3.084464e+09 1.632789e+04 1.025667e+04 9.723769e+03
-4.141837e+09 -3.941429e+09 -4.101823e+09 5.461170e+04 6.817964e+04 1.709447e+04
-1.959744e+09 -1.759746e+09 -1.919789e+09 1.333558e+04 8.673000e+03 8.911705e+03
-4.658992e+09 -4.458435e+09 -4.618852e+09 1.087971e+05 -6.574452e+03 5.215347e+03
-3.962779e+09 -3.762434e+09 -3.922784e+09 9.855577e+04 4.192298e+04 1.713622e+04
-2.277007e+09 -2.077001e+09 -2.237055e+09 1.595140e+04 5.854136e+03 6.385732e+03
-3.959184e+09 -3.759234e+09 -3.919313e+09 5.307489e+04 1.518754e+04 2.157250e+04
-3.180672e+09 -2.980672e+09 -3.140725e+09 1.388230e+04 6.586776e+03 6.122005e+03
-3.723433e+09 -3.523474e+09 -3.683500e+09 5.994453e+03 1.097025e+03 2.172827e+03
-3.946701e+09 -3.746730e+09 -3.906757e+09 8.399983e+02 1.524477e+02 2.476904e+02
-4.082774e+09 -3.882796e+09 -4.042826e+09 1.222573e+03 4.137795e+02 -2.930462e+02
-4.128923e+09 -3.929054e+09 -4.089116e+09 6.151402e+04 6.479004e+03 2.565438e+04
-3.962043e+09 -3.762097e+09 -3.920175e+09 7.272210e+05 7.995154e+05 6.168437e+05
-4.484092e+09 -4.284112e+09 -4.444143e+09 4.844751e+02 6.167197e+01 3.064958e+02
-4.414771e+09 -4.214802e+09 -4.374829e+09 2.633220e+03 3.118483e+02 2.885497e+02
-4.129250e+09 -3.930412e+09 -4.088920e+09 2.063657e+05 -1.580859e+04 2.914458e+05
-4.750986e+09 -4.551006e+09 -4.711037e+09 1.062277e+03 3.768126e+02 -6.255641e+01
-1.969035e+09 -1.769111e+09 -1.929117e+09 1.965982e+03 9.722658e+02 3.658308e+03
-3.984425e+09 -3.785065e+09 -3.944589e+09 2.440810e+05 2.485581e+04 3.986130e+04
-3.472966e+09 -3.272987e+09 -3.433019e+09 2.813246e+03 5.514522e+02 2.910708e+02
-4.287646e+09 -4.088879e+09 -4.247052e+09 3.995976e+05 4.672955e+04 1.326414e+05
-4.833037e+09 -4.633056e+09 -4.793089e+09 2.840116e+03 -5.888170e+01 6.565357e+02
-4.831506e+09 -4.631527e+09 -4.791560e+09 3.313942e+03 5.607210e+02 -3.894530e+02
-1.727924e+09 -1.527892e+09 -1.687953e+09 -1.385365e+04 -1.949900e+04 1.635579e+04
-2.043580e+09 -1.843559e+09 -2.003619e+09 -9.897862e+03 -1.336012e+04 1.413714e+04
-3.981831e+09 -3.781456e+09 -3.941772e+09 1.964072e+05 -7.534044e+02 -2.365024e+04
-4.998393e+09 -4.797748e+09 -4.958198e+09 1.870906e+05 -3.492640e+04 -1.771963e+04
-4.825157e+09 -4.624494e+09 -4.784852e+09 2.065835e+05 4.512370e+04 5.387322e+03
-5.011538e+09 -4.811121e+09 -4.971511e+09 2.473643e+05 -4.663716e+04 -2.041902e+04
-3.897058e+09 -3.697000e+09 -3.857152e+09 -5.333497e+04 -2.000013e+04 1.178255e+04
-4.300750e+09 -4.100291e+09 -4.260216e+09 5.069503e+05 2.695217e+04 1.120881e+04
-4.304122e+09 -4.103294e+09 -4.263763e+09 3.260715e+04 -9.347904e+04 -2.678868e+04
-2.581576e+09 -2.381459e+09 -2.541612e+09 -8.283822e+03 -2.932918e+04 1.455357e+04
-3.965840e+09 -3.765750e+09 -3.925899e+09 -1.006173e+04 -4.773357e+03 1.380353e+04
-4.002231e+09 -3.802314e+09 -3.962404e+09 7.602712e+04 1.793390e+04 2.963214e+04
-1.861536e+09 -1.661507e+09 -1.821566e+09 6.195473e+03 4.924829e+03 7.870407e+03
-1.674070e+09 -1.474059e+09 -1.634109e+09 1.175117e+04 1.176444e+04 1.227229e+04
-4.448376e+09 -4.248729e+09 -4.408743e+09 6.079571e+04 1.002295e+04 4.517259e+04
-2.581006e+09 -2.380987e+09 -2.541046e+09 5.100130e+03 3.565934e+03 5.345551e+03
-4.988329e+09 -4.788600e+09 -4.948639e+09 9.435658e+04 9.589317e+03 1.516615e+04
-3.950118e+09 -3.750268e+09 -3.910349e+09 8.742713e+04 1.575013e+04 3.605270e+04
-4.975365e+09 -4.775700e+09 -4.935715e+09 8.232834e+04 1.524134e+04 1.478348e+04
-4.011638e+09 -3.811588e+09 -3.971686e+09 3.220899e+03 1.707837e+03 4.489554e+03
-3.960270e+09 -3.760653e+09 -3.920633e+09 8.307771e+04 -5.391344e+03 5.173026e+04
-4.523278e+09 -4.323219e+09 -4.483330e+09 1.050940e+04 1.330827e+03 3.039705e+03
-4.165708e+09 -3.964325e+09 -4.119465e+09 1.676044e+05 8.707801e+05 3.575548e+05
-2.629748e+09 -2.429712e+09 -2.589784e+09 3.056170e+03 2.441778e+01 5.368504e+03
-4.520384e+09 -4.319463e+09 -4.477564e+09 -5.448089e+05 3.176227e+05 -1.701371e+05
-2.728580e+09 -2.528535e+09 -2.688617e+09 9.356071e+03 8.369568e+03 8.883698e+03
-4.786466e+09 -4.586391e+09 -4.746531e+09 3.461149e+04 5.737585e+03 5.539113e+03
-3.959305e+09 -3.759222e+09 -3.919433e+09 -1.627901e+05 -5.742779e+04 4.254305e+04
-4.810482e+09 -4.610870e+09 -4.770864e+09 -7.513671e+04 -3.177660e+02 1.063177e+03
-3.964842e+09 -3.765154e+09 -3.925167e+09 -1.043150e+05 -2.065984e+04 4.820321e+04
-4.985110e+09 -4.785348e+09 -4.945381e+09 -4.980821e+04 -4.294736e+03 1.403229e+04
-4.636581e+09 -4.436250e+09 -4.596634e+09 -2.086878e+05 -3.797054e+04 6.850010e+02
-3.155074e+09 -2.955057e+09 -3.115128e+09 2.117015e+04 1.223525e+04 8.099947e+03
-4.431169e+09 -4.231151e+09 -4.391217e+09 2.951979e+03 5.697944e+02 2.312854e+03
-3.926928e+09 -3.726814e+09 -3.886986e+09 3.771691e+04 2.098083e+04 8.577020e+03
-2.211555e+09 -2.011491e+09 -2.171575e+09 3.744790e+03 6.871810e+03 7.019301e+03
-3.263511e+09 -3.063480e+09 -3.223558e+09 1.650390e+04 1.100133e+04 7.479752e+03
-3.793816e+09 -3.593791e+09 -3.753872e+09 2.038652e+04 7.813936e+03 5.835759e+03
-4.978285e+09 -4.778241e+09 -4.938344e+09 2.767825e+04 3.210530e+03 1.838686e+03
-4.305088e+09 -4.106161e+09 -4.265321e+09 -3.138885e+05 1.526838e+04 -3.571994e+04
-4.618585e+09 -4.418543e+09 -4.578636e+09 1.637572e+04 2.752117e+03 4.949627e+03
-4.435894e+09 -4.236375e+09 -4.396272e+09 -1.263296e+05 1.822840e+03 4.260540e+04
-2.764439e+09 -2.564378e+09 -2.724465e+09 9.636518e+02 2.044384e+03 5.628181e+03
-2.756261e+09 -2.556090e+09 -2.716273e+09 7.990995e+03 -4.073240e+04 -6.984448e+03
-4.092561e+09 -3.893126e+09 -4.053045e+09 -7.361403e+04 -1.277204e+04 8.899016e+04
-4.133798e+09 -3.934321e+09 -4.093914e+09 -2.912885e+05 -1.203470e+04 -8.109064e+02
-4.820114e+09 -4.621053e+09 -4.780417e+09 -2.792709e+05 -3.122313e+04 8.822941e+04
-3.077487e+09 -2.877331e+09 -3.037513e+09 1.410567e+04 -5.941789e+04 -3.038881e+04
-4.478498e+09 -4.279119e+09 -4.438845e+09 -1.273753e+05 -1.747532e+04 3.163899e+04
-3.043538e+09 -2.843415e+09 -3.003590e+09 2.590853e+04 -4.988717e+04 -2.929709e+04
-3.792356e+09 -3.592157e+09 -3.752399e+09 5.591524e+03 -1.595299e+04 -5.564537e+03
-3.022514e+09 -2.822356e+09 -2.982542e+09 1.066456e+04 5.747609e+04 4.464368e+03
-3.960417e+09 -3.760288e+09 -3.920462e+09 3.234182e+04 1.845283e+04 7.069503e+03
-1.765519e+09 -1.565415e+09 -1.725518e+09 6.391930e+03 4.158403e+04 8.438415e+02
-2.150420e+09 -1.950293e+09 -2.110414e+09 4.912296e+03 6.019111e+04 2.880397e+03
-2.489020e+09 -2.288898e+09 -2.449035e+09 4.918595e+02 4.146560e+04 1.924783e+03
-2.050957e+09 -1.850837e+09 -2.010957e+09 2.429427e+03 4.632661e+04 7.654119e+03
-1.617114e+09 -1.417052e+09 -1.577124e+09 9.719482e+03 3.143389e+04 1.490363e+04
-3.429572e+09 -3.229505e+09 -3.389624e+09 2.946392e+04 2.215324e+04 1.334745e+04
-2.145275e+09 -1.945149e+09 -2.105279e+09 5.206421e+03 -3.007524e+04 -1.459837e+04
-2.044456e+09 -1.844345e+09 -2.004455e+09 -1.337850e+04 5.157336e+04 1.154498e+04
-2.178446e+09 -1.978331e+09 -2.138445e+09 -1.444974e+04 5.696209e+04 -1.461239e+04
-2.813057e+09 -2.612941e+09 -2.773089e+09 9.259540e+03 -2.547054e+04 -1.273196e+04
-4.969110e+09 -4.768971e+09 -4.929145e+09 1.964079e+04 4.359217e+02 3.312167e+03
-5.017727e+09 -4.817587e+09 -4.977785e+09 3.255697e+04 1.024792e+04 3.735436e+03
-2.109089e+09 -1.908965e+09 -2.069093e+09 6.808641e+03 -2.708548e+04 -1.690376e+04
-3.407021e+09 -3.206839e+09 -3.367036e+09 1.748369e+04 5.549402e+04 6.304155e+03
-4.978894e+09 -4.778682e+09 -4.938923e+09 1.712456e+04 1.178710e+04 1.817390e+03
-3.006644e+09 -2.806509e+09 -2.966649e+09 1.741814e+02 2.651602e+04 -5.283285e+03
-2.217053e+09 -2.016922e+09 -2.177074e+09 3.208441e+04 -4.204261e+04 -1.995034e+04
-1.930054e+09 -1.729921e+09 -1.890076e+09 1.822980e+04 -5.543360e+04 -2.031484e+04
-4.524115e+09 -4.324772e+09 -4.484744e+09 -2.285960e+04 2.263806e+03 -7.648260e+02
-4.622928e+09 -4.422963e+09 -4.582986e+09 -1.154883e+02 -4.973798e-05 1.284388e+02
-2.248887e+09 -2.049175e+09 -2.209108e+09 -1.758851e+03 -5.959752e+03 -6.970492e+04
-4.896910e+09 -4.696943e+09 -4.856968e+09 -2.856531e+02 6.054199e-07 -1.186878e+02
-4.795732e+09 -4.596490e+09 -4.756316e+09 -2.860238e+04 -1.309120e+04 1.057361e+04
-2.220693e+09 -2.021038e+09 -2.180989e+09 5.201298e+03 -8.904695e+03 -4.922329e+04
-4.602064e+09 -4.402095e+09 -4.562122e+09 -9.332540e+02 -6.520647e+01 3.561008e+02
-2.783801e+09 -2.584328e+09 -2.744189e+09 7.224235e+04 -1.079139e+04 -1.490816e+04
-1.930128e+09 -1.730383e+09 -1.890338e+09 4.602535e+04 -6.290926e+04 -1.013276e+05
-3.862273e+09 -3.662305e+09 -3.822331e+09 -4.211081e+02 -8.235172e+01 -2.253313e+01
-3.878934e+09 -3.679532e+09 -3.839432e+09 3.165834e+04 -7.688160e+03 -2.951492e+03
-3.503604e+09 -3.304277e+09 -3.464183e+09 1.184506e+05 -3.441629e+04 -4.716424e+04
-2.015020e+09 -1.815055e+09 -1.975079e+09 2.822472e+01 -1.453167e+02 2.711126e+02
-3.672597e+09 -3.472957e+09 -3.632953e+09 1.677555e+05 -3.343645e+04 -2.657717e+04
-4.986287e+09 -4.786453e+09 -4.946624e+09 1.691487e+05 -3.617659e+03 -1.870913e+04
-3.537644e+09 -3.337918e+09 -3.498024e+09 1.752075e+04 -5.286544e+04 6.340457e+03
-4.672304e+09 -4.472542e+09 -4.632691e+09 3.581898e+04 -1.616977e+04 5.794217e+03
-4.070069e+09 -3.870625e+09 -4.030572e+09 7.359394e+04 -6.423687e+03 -3.376403e+03
-3.873615e+09 -3.674537e+09 -3.834253e+09 -1.444524e+04 1.920073e+04 -6.548616e+01
-4.625871e+09 -4.426663e+09 -4.586443e+09 -6.556662e+02 -2.236102e+03 3.637370e+03
-4.004431e+09 -3.805129e+09 -3.964985e+09 6.284071e+04 -2.224207e+03 -7.670470e+04
-3.970466e+09 -3.770612e+09 -3.930762e+09 1.625616e+04 -4.441436e+04 -1.122550e+04
-3.693867e+09 -3.493951e+09 -3.653964e+09 -2.260058e+02 7.925942e+02 4.179322e+03
-2.552107e+09 -2.352184e+09 -2.512192e+09 7.022810e+01 -2.184086e+02 1.120083e+03
-1.771996e+09 -1.572073e+09 -1.732077e+09 1.366211e+03 5.602586e+02 4.003623e+03
-4.971098e+09 -4.771248e+09 -4.931431e+09 4.810806e+04 -6.709305e+03 -6.812580e+03
-3.964078e+09 -3.763988e+09 -3.924210e+09 -1.335203e+05 -4.335857e+04 2.423382e+04
-4.488873e+09 -4.288784e+09 -4.448975e+09 -7.793518e+04 -1.831327e+04 1.093653e+04
-4.988991e+09 -4.788901e+09 -4.949129e+09 -1.750571e+05 -3.881709e+03 9.694572e+03
-4.963001e+09 -4.762861e+09 -4.923071e+09 -2.905237e+04 -5.461000e+03 4.212222e+03
-4.963007e+09 -4.762884e+09 -4.923078e+09 -1.599578e+04 -2.438570e+03 -8.065855e+02
-4.822096e+09 -4.622075e+09 -4.782258e+09 -1.273108e+05 -1.359867e+04 1.360867e+03
-2.997139e+09 -2.797164e+09 -2.957192e+09 7.006955e+02 1.442873e+02 -1.491853e+02
-4.355498e+09 -4.155520e+09 -4.315550e+09 1.944740e+02 -3.867059e+01 1.709068e+02
-4.809725e+09 -4.609748e+09 -4.769780e+09 4.132614e+03 2.384358e+02 5.126079e+02
-4.822512e+09 -4.622457e+09 -4.782654e+09 -1.155504e+05 -1.083374e+04 1.877358e+04
-3.281453e+09 -3.081476e+09 -3.241505e+09 -9.935196e-05 7.042016e+01 9.863883e+01
-4.988603e+09 -4.788459e+09 -4.948719e+09 -1.353863e+05 -1.242766e+04 1.486374e+04
-3.410796e+09 -3.210837e+09 -3.370866e+09 1.045529e+04 1.673021e+03 3.225028e+03
-4.992622e+09 -4.792593e+09 -4.952779e+09 -1.170671e+05 -7.053847e+03 8.762464e+03
-4.135637e+09 -3.935606e+09 -4.095790e+09 -1.247328e+05 -3.107174e+04 4.006168e+04
-4.821127e+09 -4.621058e+09 -4.781251e+09 -1.005088e+05 -1.105422e+04 -8.181975e+02
-4.203488e+09 -4.003359e+09 -4.163572e+09 -4.819611e+04 -2.561134e+04 2.054176e+04
-4.318754e+09 -4.118660e+09 -4.278861e+09 -9.693677e+04 -3.087374e+04 2.616123e+04
-4.655839e+09 -4.455644e+09 -4.615790e+09 -3.219398e+05 1.599998e+04 -1.303810e+04
-4.796984e+09 -4.597118e+09 -4.757304e+09 -9.993801e+04 1.295706e+04 3.991473e+03
-1.564842e+09 -1.364824e+09 -1.524866e+09 -1.262297e+03 7.375138e+04 -3.372938e+04
-3.033264e+09 -2.833515e+09 -2.993590e+09 -4.207804e+04 6.946495e+04 -4.047575e+04
-4.889964e+09 -4.690057e+09 -4.850240e+09 -1.676478e+04 1.025111e+04 -3.168359e-03
-4.983580e+09 -4.783619e+09 -4.943810e+09 -6.209302e+04 9.770251e+03 -3.666612e+03
-4.159021e+09 -3.959047e+09 -4.119087e+09 -8.947897e+03 -1.086111e+03 1.584674e+03
-4.778410e+09 -4.578444e+09 -4.738472e+09 -4.077629e+03 -5.773158e+02 -4.561475e+02
-3.032975e+09 -2.833277e+09 -2.993306e+09 -1.155273e+05 6.783255e+04 -1.129821e+05
-3.837610e+09 -3.637795e+09 -3.797944e+09 -3.117030e+04 4.705155e+04 -2.595731e+04
-2.583320e+09 -2.383488e+09 -2.543534e+09 -5.245588e+03 6.362562e+04 9.569546e+02
-2.832344e+09 -2.632372e+09 -2.792400e+09 1.265496e+03 3.748948e+02 -1.070150e+02
-4.270161e+09 -4.070184e+09 -4.230220e+09 -1.353594e+03 -1.643109e+01 1.448905e+03
-4.735868e+09 -4.535895e+09 -4.695930e+09 -5.155377e+03 3.313127e+02 1.695167e+03
-4.732427e+09 -4.532458e+09 -4.692491e+09 -6.169731e+03 -1.052779e+03 -5.688617e+02
-4.795579e+09 -4.595603e+09 -4.755643e+09 -8.097801e+03 -2.598231e+01 1.359698e+03
-3.583658e+09 -3.383679e+09 -3.543720e+09 -6.193633e+03 -2.926104e+03 4.169877e+03
-4.465972e+09 -4.265992e+09 -4.426033e+09 -4.470555e+03 -5.619360e+02 1.824104e+03
-4.544017e+09 -4.344041e+09 -4.504077e+09 -1.528765e+03 -1.997674e+02 7.462417e+02
-4.968574e+09 -4.768622e+09 -4.928652e+09 1.148196e+04 1.808115e+02 2.554969e+02
-3.819412e+09 -3.619459e+09 -3.779486e+09 8.859005e+03 1.148308e+03 3.564193e+03
-4.996285e+09 -4.796321e+09 -4.956349e+09 5.402161e+03 9.631937e+02 9.160944e+02
-2.629222e+09 -2.429267e+09 -2.589289e+09 2.985937e+03 6.621159e+02 6.019227e+02
-4.488380e+09 -4.288214e+09 -4.448481e+09 -8.465521e+04 3.351963e+04 -1.467646e+04
-4.517669e+09 -4.317520e+09 -4.477700e+09 -4.269371e+03 3.917382e+03 -1.466300e+03
-4.992014e+09 -4.791654e+09 -4.952039e+09 2.171655e+04 2.827750e+04 -1.439869e+03
-4.655402e+09 -4.454961e+09 -4.615357e+09 4.595979e+04 7.275250e+03 6.080761e+03
-4.643333e+09 -4.443092e+09 -4.603360e+09 1.820313e+04 1.183450e+04 4.437219e+03
-4.641666e+09 -4.441357e+09 -4.601679e+09 4.479210e+04 8.316244e+03 3.973909e+03
-4.607826e+09 -4.407646e+09 -4.567862e+09 -1.140274e+04 6.497786e+03 3.776933e+02
-4.968121e+09 -4.767950e+09 -4.928154e+09 -4.927557e+03 4.666802e+03 -1.082535e+03
-4.647925e+09 -4.447618e+09 -4.607960e+09 -2.972846e+03 1.103444e+04 2.508173e+03
-3.956253e+09 -3.755997e+09 -3.916263e+09 -5.209902e+03 3.696992e+04 -5.175623e+02
-4.291245e+09 -4.091003e+09 -4.251262e+09 -4.187299e+02 3.421923e+04 -2.974237e+03
-4.620029e+09 -4.419812e+09 -4.580071e+09 1.533334e+04 9.589501e+03 1.861124e+03
-4.016279e+09 -3.816134e+09 -3.976309e+09 -7.536466e+02 1.099194e+04 -2.362522e+03
-3.880353e+09 -3.680152e+09 -3.840375e+09 1.827921e+04 2.520281e+04 3.601347e+03
-3.978118e+09 -3.777991e+09 -3.938152e+09 -1.403394e+04 1.268972e+04 -3.597841e+03
-5.005053e+09 -4.804882e+09 -4.965089e+09 -1.123906e+04 3.207367e+03 -2.948529e+02
-3.335898e+09 -3.135751e+09 -3.295923e+09 -4.025049e+03 3.233984e+04 -3.760900e+03
-4.805961e+09 -4.605800e+09 -4.766007e+09 -3.012435e+04 9.358863e+03 -7.933207e+02
-2.781436e+09 -2.581340e+09 -2.741449e+09 -4.228875e+02 2.914862e+03 -6.328473e+03
-4.815145e+09 -4.614866e+09 -4.775176e+09 -1.161101e+03 1.962075e+04 1.487152e+03
-2.761114e+09 -2.561050e+09 -2.721165e+09 8.345193e+03 -2.474327e+04 -6.024681e+03
-4.097946e+09 -3.897793e+09 -4.058003e+09 -3.738396e+04 2.639573e+04 -1.485634e+04
-4.107499e+09 -3.907162e+09 -4.067526e+09 -1.275690e+03 -5.778165e+04 2.128139e+03
-3.960876e+09 -3.760566e+09 -3.920904e+09 5.225928e+04 -5.250298e+04 -7.517832e+03
-4.993970e+09 -4.793408e+09 -4.953873e+09 7.434054e+04 -3.467194e+04 -8.149734e+03
-4.606718e+09 -4.406469e+09 -4.566770e+09 4.344558e+03 -7.709760e+03 -5.379873e+03
-2.930800e+09 -2.730751e+09 -2.890874e+09 2.226973e+04 -3.633159e+04 -1.860145e+04
-3.792845e+09 -3.592642e+09 -3.752888e+09 -4.805798e+03 -1.656909e+04 3.901395e+03
-4.824332e+09 -4.624002e+09 -4.784363e+09 -3.686725e+04 -1.168910e+04 2.764340e+03
-4.987572e+09 -4.787293e+09 -4.947631e+09 -3.467049e+04 -1.779434e+04 8.162719e+03
-4.965928e+09 -4.765602e+09 -4.925945e+09 -7.181835e+02 -2.004725e+04 -4.032407e+03
-2.059870e+09 -1.859735e+09 -2.019867e+09 1.043027e+03 -2.877163e+04 -4.137761e+03
-4.127846e+09 -3.927513e+09 -4.087874e+09 2.291245e+04 -6.017851e+04 -5.575326e+03
-4.711474e+09 -4.511252e+09 -4.671521e+09 -1.219473e+03 -1.675571e+03 -3.097456e+03
-4.620553e+09 -4.420296e+09 -4.580591e+09 -1.382751e+04 -9.114235e+03 -6.817028e+01
-2.150504e+09 -1.950370e+09 -2.110503e+09 -2.237710e+03 -3.015411e+04 2.725081e+03
-4.298837e+09 -4.098345e+09 -4.258771e+09 -2.292811e+04 -7.484644e+04 -4.000618e+03
-3.844416e+09 -3.644237e+09 -3.804474e+09 3.882928e+04 -3.116429e+04 -1.183658e+04
-4.927929e+09 -4.728004e+09 -4.888026e+09 9.090359e+03 5.714860e+02 1.198232e+03
-3.714454e+09 -3.514520e+09 -3.674536e+09 9.988839e+02 9.940269e+02 6.602702e+02
-2.794712e+09 -2.594535e+09 -2.754724e+09 -3.512589e+03 -4.098191e+04 6.635236e+03
-3.961001e+09 -3.761097e+09 -3.921121e+09 1.568554e+04 1.375980e+03 1.177169e+04
-4.985341e+09 -4.785087e+09 -4.945379e+09 5.256659e+03 -9.635825e+03 2.395579e+03
-2.081623e+09 -1.881701e+09 -2.041707e+09 -1.725410e+02 -1.220131e+02 4.576850e+03
-3.943260e+09 -3.743344e+09 -3.903358e+09 -6.564514e+02 1.434057e+02 3.639336e+03
-4.013516e+09 -3.813596e+09 -3.973608e+09 -3.649952e+02 -1.458525e+02 1.621972e+03
-3.036243e+09 -2.836305e+09 -2.996321e+09 3.550208e+03 5.411404e+02 2.712638e+03
-4.976659e+09 -4.776735e+09 -4.936750e+09 5.596285e+03 7.892783e+02 -1.929650e+02
-3.698019e+09 -3.498101e+09 -3.658116e+09 -1.868775e+03 -5.411145e+02 4.121286e+03
-3.617359e+09 -3.417437e+09 -3.577448e+09 2.313202e+02 1.088578e+01 1.153323e+03
-4.485241e+09 -4.285314e+09 -4.445330e+09 2.548015e+03 4.661253e+02 1.203350e+03
-4.890034e+09 -4.690115e+09 -4.850128e+09 2.923378e+02 -1.239594e+02 -6.471076e-07
-3.562611e+09 -3.362682e+09 -3.522695e+09 8.593371e+02 7.565043e+02 8.972639e+02
-3.968371e+09 -3.768470e+09 -3.928499e+09 1.125125e+04 2.145384e+02 1.077128e+04
-2.593225e+09 -2.393303e+09 -2.553310e+09 -7.852275e+01 -5.363635e+02 1.147626e+03
-3.864692e+09 -3.664791e+09 -3.824806e+09 -3.212301e+03 -2.368331e+02 7.794425e+03
-4.931271e+09 -4.731351e+09 -4.891366e+09 3.462517e+03 1.900583e+02 7.303901e+02
-4.970031e+09 -4.770114e+09 -4.930128e+09 3.971479e+03 -9.367590e+01 1.887466e+03
-4.144394e+09 -3.944485e+09 -4.104500e+09 2.778504e+03 -2.376155e+02 5.849722e+03
-4.828244e+09 -4.628305e+09 -4.788339e+09 1.808044e+04 2.842607e+03 1.623191e+03
-3.107366e+09 -2.907729e+09 -3.067650e+09 -1.615473e+05 4.567518e+04 -1.113304e+05
-4.293386e+09 -4.094293e+09 -4.253957e+09 4.318741e+04 3.848745e+03 -4.078581e+04
-3.279748e+09 -3.079825e+09 -3.239841e+09 -2.532576e+03 -1.901647e+03 5.696087e+03
-3.656233e+09 -3.456733e+09 -3.616729e+09 6.211290e+03 -1.338215e+04 4.685665e+03
-3.891190e+09 -3.691786e+09 -3.851801e+09 -1.661345e+04 1.534613e+04 -3.005902e+04
-2.164007e+09 -1.964450e+09 -2.124315e+09 2.745037e+04 -1.184496e+03 -8.565852e+04
-3.924964e+09 -3.725475e+09 -3.885460e+09 8.993688e+04 -7.827176e+03 -5.329664e+03
-3.976463e+09 -3.777375e+09 -3.936445e+09 -1.214947e+05 -1.780020e+04 4.200236e+04
-1.589232e+09 -1.389309e+09 -1.549317e+09 -4.469070e+02 -9.008408e+02 6.587096e+03
-1.569468e+09 -1.369473e+09 -1.529515e+09 -1.166572e+04 -1.436551e+04 1.342252e+04
-4.973468e+09 -4.773514e+09 -4.933541e+09 -9.123641e+03 -1.014817e+02 1.340539e+02
-1.912993e+09 -1.713030e+09 -1.873054e+09 -9.418371e+02 -5.435732e+02 4.666127e+02
-3.896629e+09 -3.696720e+09 -3.856736e+09 9.034224e+02 -2.674811e+02 5.540941e+03
-4.141402e+09 -3.941444e+09 -4.101503e+09 -3.353512e+04 -1.020304e+04 5.416612e+03
-4.535381e+09 -4.335413e+09 -4.495444e+09 -6.172603e+03 -4.433820e+02 1.049784e+03
-3.798090e+09 -3.598182e+09 -3.758200e+09 -2.946473e+03 -3.047508e+02 6.724187e+03
-2.474964e+09 -2.275038e+09 -2.435048e+09 9.107424e+02 7.803275e+02 1.679038e+03
-4.582474e+09 -4.382510e+09 -4.542536e+09 -4.222149e+03 -4.511602e+02 4.025771e+02
-2.095569e+09 -1.895652e+09 -2.055658e+09 5.125933e+02 -1.552272e+02 9.968709e+03
-4.942370e+09 -4.742401e+09 -4.902438e+09 -1.118346e+04 6.863121e+01 4.390965e+02
-4.515338e+09 -4.315384e+09 -4.475422e+09 -2.207093e+04 -3.364548e+03 4.036828e+03
-3.293626e+09 -3.093719e+09 -3.253736e+09 -1.008585e+01 -8.601847e+02 1.355507e+04
-4.194567e+09 -3.995253e+09 -4.155149e+09 -1.272349e+05 3.099293e+04 -3.879402e+04
-4.979758e+09 -4.780418e+09 -4.940396e+09 -1.040978e+05 7.107229e+03 -4.095873e+04
-4.999774e+09 -4.799871e+09 -4.959899e+09 -1.283090e+04 -1.316294e+03 2.983658e+03
-4.993050e+09 -4.793164e+09 -4.953188e+09 -9.243707e+03 -1.234404e+03 3.856295e+03
-3.440818e+09 -3.241197e+09 -3.401250e+09 -3.861108e+04 3.671389e+04 -1.258076e+04
-3.675948e+09 -3.476462e+09 -3.636467e+09 -3.942397e+03 1.408946e+04 -2.290096e+03
-3.999213e+09 -3.799528e+09 -3.959597e+09 -2.179407e+05 3.694143e+04 -2.974700e+04
-4.163299e+09 -3.963652e+09 -4.123739e+09 -1.729101e+05 4.357273e+04 -4.702672e+04
-3.872625e+09 -3.673237e+09 -3.833084e+09 -1.721302e+05 7.034175e+03 -1.391370e+04
-2.145695e+09 -1.945763e+09 -2.105774e+09 -1.296873e+03 -8.817485e+01 9.114140e+02
-2.130668e+09 -1.930690e+09 -2.090762e+09 -6.781712e+03 6.123692e+04 -2.285790e+04
-3.324554e+09 -3.124974e+09 -3.284849e+09 -1.393863e+05 6.724442e+04 -7.785963e+04
-4.994259e+09 -4.794345e+09 -4.954364e+09 -9.345010e+03 -5.816186e+02 2.169835e+03
-4.993050e+09 -4.793156e+09 -4.953186e+09 -8.842503e+03 -2.315496e+03 3.134580e+03
-3.497593e+09 -3.297753e+09 -3.457900e+09 -3.330425e+04 5.103939e+04 -8.920068e+03
-4.660308e+09 -4.460418e+09 -4.620446e+09 -1.881008e+04 -2.146414e+02 5.057195e+03
-4.812355e+09 -4.612237e+09 -4.772482e+09 -9.807697e+04 2.105469e+04 -8.146791e+02
-4.985315e+09 -4.785524e+09 -4.945676e+09 -2.138699e+05 3.978546e+04 -4.221939e+04
-4.461533e+09 -4.261806e+09 -4.421837e+09 -2.155650e+05 3.059800e+04 -2.838434e+04
-4.274336e+09 -4.074238e+09 -4.234476e+09 -9.231816e+04 3.290148e+04 -1.645021e+04
-4.988419e+09 -4.788453e+09 -4.948664e+09 -1.203011e+05 7.319150e+03 -1.200141e+04
-4.976147e+09 -4.776807e+09 -4.936634e+09 -1.970047e+05 2.021712e+04 -4.176054e+04
-3.669111e+09 -3.469121e+09 -3.629160e+09 6.375500e+02 5.270862e+02 1.326492e+02
-4.969664e+09 -4.769675e+09 -4.929724e+09 1.303654e+04 6.804028e+02 1.188503e+02
-3.521983e+09 -3.321989e+09 -3.482032e+09 2.179250e+03 1.278798e+03 1.490819e+03
-4.645184e+09 -4.445207e+09 -4.605240e+09 6.429656e+03 7.762926e+02 -2.648175e+02
-4.307274e+09 -4.107296e+09 -4.267336e+09 1.274067e+04 2.092263e+03 1.459742e+03
-5.011561e+09 -4.811295e+09 -4.971618e+09 -1.211830e+05 1.260837e+04 -1.754246e+04
-4.813952e+09 -4.614367e+09 -4.774339e+09 -2.652067e+05 1.198545e+04 -3.586174e+03
-4.781425e+09 -4.581511e+09 -4.741525e+09 -9.123865e+02 -4.537139e+02 1.128585e+03
-3.408905e+09 -3.208982e+09 -3.368993e+09 1.046469e+03 3.561378e+01 1.593205e+03
-4.850975e+09 -4.650791e+09 -4.811063e+09 -8.639885e+04 2.429315e+04 -8.915414e+03
-3.778403e+09 -3.578485e+09 -3.738496e+09 5.252095e+02 6.073151e+01 1.965218e+03
-3.807397e+09 -3.607478e+09 -3.767491e+09 2.898225e+03 -2.244765e+02 4.805826e+03
-4.782931e+09 -4.583021e+09 -4.743037e+09 2.172219e+03 3.546262e+02 1.400124e+03
-4.702376e+09 -4.502459e+09 -4.662472e+09 1.465619e+02 -9.935316e+02 5.465182e+02
-4.663773e+09 -4.463548e+09 -4.623833e+09 -8.332622e+04 -1.354692e+04 5.280383e+02
-4.139815e+09 -3.939639e+09 -4.099865e+09 -3.755206e+04 3.121737e+04 -1.037023e+04
-4.807639e+09 -4.607448e+09 -4.767715e+09 -6.717866e+04 1.679715e+04 -2.733139e+03
-3.978858e+09 -3.778936e+09 -3.938957e+09 1.025032e+04 3.550826e+02 6.470792e+03
-4.732636e+09 -4.532563e+09 -4.692681e+09 -4.617631e+03 3.039679e+03 -2.024276e+03
-3.634645e+09 -3.434541e+09 -3.594671e+09 -1.648200e+03 2.759922e+03 -4.724968e+03
-4.826280e+09 -4.626100e+09 -4.786331e+09 -3.886199e+04 7.955995e+03 3.762550e+02
-4.845890e+09 -4.645525e+09 -4.805919e+09 -1.298618e+05 4.937612e+04 -2.108249e+04
-3.964818e+09 -3.764602e+09 -3.924861e+09 -2.968292e+04 3.799421e+04 -5.101892e+03
-4.976234e+09 -4.776317e+09 -4.936331e+09 1.933986e+02 -7.338354e+01 3.720292e+01
-4.805746e+09 -4.605563e+09 -4.765810e+09 -5.390882e+04 1.835177e+04 -7.751411e+03
-4.464393e+09 -4.264230e+09 -4.424474e+09 -7.294596e+04 2.960701e+04 -1.354834e+04
-4.442063e+09 -4.241886e+09 -4.402166e+09 7.844064e+04 -2.243880e+04 -1.292927e+04
-2.898604e+09 -2.698506e+09 -2.858642e+09 6.705439e+03 -1.033029e+04 -1.402623e+04
-3.969038e+09 -3.768795e+09 -3.929100e+09 7.656286e+04 -4.368133e+04 -1.523111e+04
-4.597396e+09 -4.397262e+09 -4.557484e+09 5.696135e+04 -2.117650e+04 -8.418446e+03
-3.974037e+09 -3.773795e+09 -3.934098e+09 1.206006e+05 -5.078733e+04 -1.721344e+04
-2.324311e+09 -2.124180e+09 -2.284331e+09 -6.099893e+03 -5.845888e+04 8.070020e+03
-3.969084e+09 -3.768796e+09 -3.929113e+09 7.734100e+04 -4.506311e+04 -7.674629e+03
-4.821318e+09 -4.621080e+09 -4.781396e+09 9.608853e+04 -3.027074e+04 -1.498611e+04
-2.606389e+09 -2.406254e+09 -2.566405e+09 5.088869e+02 -6.497503e+03 -6.770925e+03
-4.168643e+09 -3.968385e+09 -4.128710e+09 2.148308e+05 -5.092209e+04 -3.272234e+04
-1.876913e+09 -1.676785e+09 -1.836917e+09 -2.047307e+03 -3.011464e+04 -4.288331e+02
-4.990594e+09 -4.790658e+09 -4.950782e+09 -9.698639e+04 -4.848665e+03 6.877947e+03
-5.015368e+09 -4.815425e+09 -4.975469e+09 -2.687988e+04 -1.751236e+03 1.425971e+03
-4.998681e+09 -4.798713e+09 -4.958774e+09 -2.895806e+04 -3.295759e+02 8.015857e+02
-2.406052e+09 -2.205879e+09 -2.366069e+09 -1.026684e+04 -6.097802e+04 9.080273e+03
-4.132997e+09 -3.933028e+09 -4.093090e+09 -3.192217e+04 -4.128345e+03 1.335724e+04
-4.845456e+09 -4.645521e+09 -4.805587e+09 -4.622317e+04 -2.887350e+02 1.110069e+04
-4.993907e+09 -4.793939e+09 -4.954042e+09 -6.453331e+04 -3.713292e+03 5.965712e+03
-1.959687e+09 -1.759554e+09 -1.919688e+09 -1.307928e+04 -6.448721e+04 1.919207e+04
-2.628035e+09 -2.427903e+09 -2.588064e+09 -5.757746e+03 -2.893668e+04 8.362405e+03
-1.662033e+09 -1.461951e+09 -1.622040e+09 -3.569915e+02 -1.869687e+04 5.954598e+03
-4.128232e+09 -3.928268e+09 -4.088350e+09 -4.833063e+04 -1.434821e+04 8.918716e+03
-4.586417e+09 -4.386351e+09 -4.546576e+09 -1.018887e+05 1.587144e+04 -9.066180e+03
-4.124766e+09 -3.924924e+09 -4.084956e+09 1.687064e+04 4.852943e+03 2.151265e+04
-3.968373e+09 -3.768480e+09 -3.928502e+09 1.008935e+04 1.343477e+03 1.092770e+04
-3.953944e+09 -3.754070e+09 -3.914106e+09 1.366773e+04 -2.881217e+02 1.778994e+04
-3.209200e+09 -3.009181e+09 -3.169321e+09 -7.024035e+04 7.100423e+04 -4.182201e+04
-3.033272e+09 -2.833242e+09 -2.993355e+09 -4.770333e+03 4.010915e+04 -8.969830e+03
-4.648075e+09 -4.447656e+09 -4.607593e+09 -4.127301e+05 -7.688977e+02 -1.391428e+03
-3.809344e+09 -3.609272e+09 -3.769430e+09 -4.208291e+04 2.793215e+04 -1.219951e+04
-4.993683e+09 -4.793613e+09 -4.953910e+09 -2.029712e+05 1.847515e+04 -1.124541e+04
-4.998418e+09 -4.798111e+09 -4.958270e+09 -2.970704e+05 2.288508e+04 -8.702973e+03
-2.957733e+09 -2.757701e+09 -2.917834e+09 -2.625432e+04 4.668909e+04 -1.578425e+04
-4.998307e+09 -4.797933e+09 -4.958204e+09 -3.682478e+05 4.100360e+04 -2.128478e+04
-3.595748e+09 -3.395696e+09 -3.555835e+09 -1.700657e+04 2.926214e+04 -9.670921e+03
-4.134836e+09 -3.934392e+09 -4.094485e+09 -3.720932e+05 -1.036936e+04 -3.962528e+04
-3.894751e+09 -3.694670e+09 -3.854855e+09 -5.980544e+04 3.248175e+04 -1.688500e+04
-3.976153e+09 -3.776639e+09 -3.932942e+09 -7.466840e+05 -4.442185e+05 8.281524e+05
-3.975482e+09 -3.775453e+09 -3.935606e+09 -2.107794e+04 2.646558e+04 -5.838937e+03
-4.636023e+09 -4.436038e+09 -4.596249e+09 -7.903563e+04 1.897272e+04 -3.249375e+03
-4.309525e+09 -4.110212e+09 -4.269043e+09 -4.917783e+05 -8.092029e+04 2.001276e+05
-3.966462e+09 -3.766923e+09 -3.925395e+09 -5.673488e+05 -1.516492e+05 2.861638e+05
-4.322639e+09 -4.122490e+09 -4.278293e+09 -7.138679e+05 -4.164570e+05 4.314298e+05
-4.135385e+09 -3.934988e+09 -4.093698e+09 -6.436875e+05 -1.196727e+05 3.594236e+05
-3.962941e+09 -3.763031e+09 -3.923055e+09 -1.534053e+04 -2.839165e+03 1.039768e+04
-3.970968e+09 -3.771056e+09 -3.931094e+09 -2.404726e+04 -4.161228e+03 1.285151e+04
-4.145914e+09 -3.946027e+09 -4.106067e+09 -3.219907e+04 -9.241832e+03 1.650614e+04
-4.656295e+09 -4.456392e+09 -4.616422e+09 -2.229790e+04 -7.228373e+02 6.198246e+03
-4.998266e+09 -4.798347e+09 -4.958405e+09 -3.664988e+04 -3.300124e+03 2.781509e+03
-5.009428e+09 -4.807989e+09 -4.965026e+09 1.401037e+05 1.977844e+05 -1.219827e+03
-4.659259e+09 -4.459373e+09 -4.619418e+09 -2.969607e+04 -1.607867e+03 7.093060e+03
-4.346461e+09 -4.145215e+09 -4.304077e+09 1.729721e+05 3.282607e+05 -1.008792e+05
-4.003386e+09 -3.802118e+09 -3.962135e+09 3.244944e+05 4.100244e+05 5.278082e+04
-4.828672e+09 -4.627239e+09 -4.785105e+09 -6.283332e+04 2.950010e+05 -9.172934e+04
-4.975377e+09 -4.775657e+09 -4.935708e+09 7.319014e+04 7.449228e+03 2.279489e+04
-3.958654e+09 -3.758900e+09 -3.918938e+09 9.005665e+04 6.953978e+03 4.538829e+04
-4.257511e+09 -4.057806e+09 -4.217854e+09 9.523315e+04 2.574645e+04 5.642207e+04
-4.830153e+09 -4.630243e+09 -4.790266e+09 -1.065159e+04 3.867300e+02 3.072001e+03
-4.130696e+09 -3.930793e+09 -4.090846e+09 4.095418e+04 3.727415e+03 1.678350e+04
-4.465292e+09 -4.265554e+09 -4.425588e+09 2.133497e+04 8.381207e+02 3.244987e+04
-4.626223e+09 -4.425823e+09 -4.586225e+09 -1.663400e+05 -7.410044e+03 6.953727e+02
-4.142492e+09 -3.942593e+09 -4.102617e+09 -1.043064e+04 8.847896e+00 1.023028e+04
-4.301355e+09 -4.101419e+09 -4.261447e+09 -1.465424e+04 -1.882772e+03 4.054322e+03
-3.964072e+09 -3.764149e+09 -3.924176e+09 -1.742827e+04 -2.702706e+03 9.152298e+03
-4.650467e+09 -4.450543e+09 -4.610567e+09 -1.473804e+04 -6.264914e+02 3.235305e+03
-4.992639e+09 -4.792723e+09 -4.952755e+09 -1.521170e+04 -1.408407e+03 1.348301e+03
-4.992824e+09 -4.793348e+09 -4.950909e+09 -6.684164e+05 2.862975e+04 -8.904144e+03
-5.000584e+09 -4.800779e+09 -4.950482e+09 -6.918951e+03 -1.244830e+05 4.017072e+04
-4.842808e+09 -4.642435e+09 -4.794675e+09 1.439513e+05 1.535471e+05 1.531197e+05
-4.815322e+09 -4.616158e+09 -4.769828e+09 3.818150e+04 6.178250e+04 5.037027e+05
-3.949323e+09 -3.749716e+09 -3.908381e+09 -6.101797e+05 2.369930e+05 -2.416365e+05
-4.476765e+09 -4.277501e+09 -4.436642e+09 -3.389938e+05 -1.253003e+05 -1.083389e+05
-4.978812e+09 -4.779429e+09 -4.938208e+09 -4.239924e+05 1.642504e+04 2.674532e+04
-4.141997e+09 -3.941760e+09 -4.100225e+09 -7.044281e+05 3.791805e+05 -2.800641e+05
-4.446424e+09 -4.247612e+09 -4.406535e+09 1.617334e+05 -4.049482e+03 -5.367599e+04
-4.308020e+09 -4.108635e+09 -4.268351e+09 1.221983e+05 6.884560e+03 1.664012e+04
-3.964728e+09 -3.765353e+09 -3.925169e+09 1.319435e+04 1.319888e+04 8.084792e+03
-3.913976e+09 -3.714709e+09 -3.874415e+09 -3.519397e+04 4.521742e+04 8.504251e+03
-4.332318e+09 -4.132767e+09 -4.292719e+09 -3.593120e+04 -1.497818e+04 5.832206e+04
-4.464016e+09 -4.264674e+09 -4.422587e+09 -4.620777e+05 1.254470e+05 -2.204024e+05
-4.463882e+09 -4.264948e+09 -4.423890e+09 -4.395523e+05 5.046098e+04 -1.145982e+05
-4.476817e+09 -4.277612e+09 -4.437201e+09 -1.907627e+05 -5.819366e+04 2.643598e+04
-4.820199e+09 -4.620844e+09 -4.780389e+09 -2.774008e+05 -2.980812e+04 7.062618e+04
-4.476751e+09 -4.277641e+09 -4.437242e+09 -5.314771e+04 1.379929e+04 7.707546e+04
-4.297772e+09 -4.097962e+09 -4.258004e+09 -3.358733e+04 -8.532428e+03 3.056063e+04
-4.137642e+09 -3.937775e+09 -4.097820e+09 -3.623228e+04 -4.216555e+03 1.863656e+04
-4.449493e+09 -4.249770e+09 -4.408989e+09 -5.346548e+05 9.031825e+04 2.484226e+04
-4.476983e+09 -4.277474e+09 -4.436277e+09 5.474498e+05 -1.098803e+05 -1.909856e+05
-4.994473e+09 -4.795266e+09 -4.954950e+09 7.982840e+04 3.788618e+03 3.378686e+04
-4.819879e+09 -4.620805e+09 -4.780474e+09 -1.170880e+05 5.602309e+03 5.421298e+04
-3.949262e+09 -3.749754e+09 -3.909020e+09 -4.281696e+05 7.456917e+03 -2.487721e+04
-3.965889e+09 -3.766019e+09 -3.926062e+09 -3.974162e+04 -4.878936e+03 2.159727e+04
-4.301587e+09 -4.102504e+09 -4.261717e+09 -2.417032e+04 4.590119e+04 -1.249437e+05
-3.970963e+09 -3.771062e+09 -3.931094e+09 -2.706189e+04 -4.962601e+03 1.472459e+04
-4.651375e+09 -4.451385e+09 -4.611569e+09 1.956133e+04 -1.448190e+04 -3.887819e+03
-4.606311e+09 -4.406302e+09 -4.566486e+09 2.650507e+04 -1.763612e+04 -7.210957e+03
-4.424773e+09 -4.224735e+09 -4.384894e+09 6.795321e+03 -1.592528e+04 -1.168518e+03
-4.270038e+09 -4.070007e+09 -4.230185e+09 3.771200e+04 -2.370534e+04 -1.315096e+04
-3.640093e+09 -3.440044e+09 -3.600189e+09 5.838690e+03 -2.541015e+04 -1.731255e+03
-2.153322e+09 -1.953293e+09 -2.113372e+09 5.079956e+03 -4.194929e+04 -1.086871e+04
-3.438939e+09 -3.238899e+09 -3.399030e+09 5.832616e+03 -2.623597e+04 -1.735768e+03
-3.177484e+09 -2.977640e+09 -3.137727e+09 6.648658e+04 -7.403486e+04 -5.262482e+04
-4.141075e+09 -3.941175e+09 -4.101212e+09 -2.485481e+04 -2.846013e+03 1.399424e+04
-1.816040e+09 -1.616119e+09 -1.776024e+09 -1.579421e+03 -7.534572e+04 -8.212447e+04
-2.197778e+09 -1.997822e+09 -2.157855e+09 9.203751e+04 -1.181763e+05 -1.243926e+05
-2.231100e+09 -2.031242e+09 -2.191196e+09 1.075434e+05 -9.814382e+04 -1.631462e+05
-4.904826e+09 -4.705163e+09 -4.865287e+09 2.888490e+04 -9.598399e+03 -4.975744e-03
-4.832383e+09 -4.632491e+09 -4.792536e+09 -3.294300e+04 3.447207e+02 4.666908e+03
-4.829979e+09 -4.630085e+09 -4.790140e+09 -4.228144e+04 -7.239187e+03 8.388488e+03
-3.965897e+09 -3.766011e+09 -3.926061e+09 -3.514157e+04 -7.350110e+03 2.209199e+04
-3.970989e+09 -3.771201e+09 -3.931245e+09 3.239554e+04 2.340782e+03 3.776235e+04
-4.946396e+09 -4.746401e+09 -4.906447e+09 6.250393e+03 2.000342e+02 -3.161770e+02
-4.485055e+09 -4.285289e+09 -4.445317e+09 8.721620e+03 9.759811e+02 2.379661e+04
-3.369351e+09 -3.169374e+09 -3.329407e+09 5.119142e+03 7.488268e+02 9.106915e+02
-3.950924e+09 -3.751131e+09 -3.911163e+09 4.791565e+04 4.243520e+03 3.438384e+04
-2.653875e+09 -2.453807e+09 -2.613896e+09 -7.822812e+02 2.159320e+03 -2.357559e+03
-4.828311e+09 -4.628518e+09 -4.788556e+09 3.152710e+04 -9.082278e+02 7.115602e+03
-1.585668e+09 -1.385600e+09 -1.545677e+09 4.153822e+03 3.074371e+04 1.001752e+04
-3.446835e+09 -3.246754e+09 -3.406870e+09 8.626073e+03 5.758779e+03 7.310942e+03
-3.546337e+09 -3.346193e+09 -3.506360e+09 1.028585e+02 1.458446e+04 1.562661e+03
-4.125979e+09 -3.926180e+09 -4.086237e+09 7.190534e+04 1.926062e+04 4.167238e+04
-4.701485e+09 -4.501346e+09 -4.661520e+09 6.892799e+03 3.036252e+03 -1.999115e+03
-4.049006e+09 -3.848850e+09 -4.009044e+09 1.754175e+04 1.999466e+04 7.297911e+03
-1.913707e+09 -1.713685e+09 -1.873741e+09 3.021852e+03 2.643642e+03 4.751128e+03
-4.634577e+09 -4.434744e+09 -4.594786e+09 4.993645e+04 8.493854e+02 1.102885e+04
-4.804686e+09 -4.604877e+09 -4.764931e+09 5.772044e+04 7.205173e+03 1.625439e+04
-4.291341e+09 -4.091509e+09 -4.251548e+09 5.069695e+04 1.051469e+04 2.802337e+04
-5.007013e+09 -4.807034e+09 -4.967065e+09 1.906893e+03 1.376539e+02 5.958032e+01
-2.727918e+09 -2.527941e+09 -2.687973e+09 4.342160e+03 9.877301e+02 1.221980e+03
-3.235583e+09 -3.035605e+09 -3.195636e+09 2.001707e+03 2.850446e+02 2.784409e+02
-3.726703e+09 -3.526788e+09 -3.686800e+09 -1.470394e+03 -2.879151e+02 3.952610e+03
-4.985567e+09 -4.785578e+09 -4.945621e+09 7.065215e+03 3.851639e+02 -4.040087e+01
-1.937368e+09 -1.737389e+09 -1.897421e+09 4.425589e+03 8.202560e+02 1.097275e+03
-2.753121e+09 -2.553199e+09 -2.713209e+09 -1.412248e+03 -4.233960e+02 4.506400e+03
-2.225067e+09 -2.025143e+09 -2.185151e+09 -4.463975e+02 -7.980818e+01 1.255253e+03
-3.849268e+09 -3.649356e+09 -3.809374e+09 -5.839417e+03 9.377728e+01 7.179865e+03
-4.718312e+09 -4.518328e+09 -4.678363e+09 1.737774e+03 4.384849e+02 -4.545740e+01
-4.613377e+09 -4.413386e+09 -4.573432e+09 1.008378e+04 7.299498e+02 1.403690e+03
-4.128531e+09 -3.928546e+09 -4.088595e+09 1.684038e+04 4.423516e+03 1.527438e+03
-3.899511e+09 -3.699527e+09 -3.859562e+09 1.485075e+03 -3.263783e+02 6.257037e+02
-2.663177e+09 -2.463254e+09 -2.623265e+09 -1.274429e+03 -7.959732e+02 4.291685e+03
-3.340943e+09 -3.140956e+09 -3.300995e+09 5.632796e+03 1.854262e+03 1.168195e+03
-3.742493e+09 -3.542574e+09 -3.702588e+09 -3.216491e+03 -4.441922e+02 4.260015e+03
-4.794372e+09 -4.594470e+09 -4.754487e+09 -4.022097e+02 -5.938395e+02 2.059583e+03
-4.969088e+09 -4.769170e+09 -4.929184e+09 -6.826330e+02 1.364258e+02 1.608116e+02
-4.781048e+09 -4.581136e+09 -4.741153e+09 -3.122545e+03 4.995732e+02 1.581270e+03
-3.114247e+09 -2.914387e+09 -3.074514e+09 -3.555324e+04 6.873048e+04 -3.032753e+04
-4.998064e+09 -4.798176e+09 -4.958200e+09 1.125478e+04 9.002645e+02 3.854867e+03
-4.651692e+09 -4.451645e+09 -4.611795e+09 -1.002600e+04 9.168390e+03 -1.035784e+02
-1.926216e+09 -1.726188e+09 -1.886254e+09 -9.995138e+03 4.577881e+04 -1.532798e+04
-1.842593e+09 -1.642670e+09 -1.802676e+09 -2.824729e+02 6.569944e+02 1.773944e+03
-2.067577e+09 -1.867654e+09 -2.027660e+09 2.144110e+02 -6.982185e+01 1.462204e+03
-4.828951e+09 -4.629057e+09 -4.789082e+09 -1.093490e+04 -2.613358e+03 4.185467e+03
-3.773229e+09 -3.573306e+09 -3.733319e+09 -1.599259e+03 -6.930035e+02 1.846797e+03
-3.850441e+09 -3.650400e+09 -3.810556e+09 -3.279139e+04 2.322071e+04 -1.173699e+04
-3.995829e+09 -3.795924e+09 -3.955941e+09 6.494063e+03 -8.862799e+02 7.987207e+03
-4.976783e+09 -4.776880e+09 -4.936898e+09 2.334742e+03 4.871974e+02 2.045759e+03
-4.793815e+09 -4.593906e+09 -4.753921e+09 -7.054133e+02 4.959239e+02 1.443528e+03
-3.308639e+09 -3.109360e+09 -3.269136e+09 2.830428e+04 -6.680679e+02 -6.862277e+04
-3.880148e+09 -3.680714e+09 -3.840722e+09 2.996561e+04 -2.097793e+04 -4.596180e+04
-2.520620e+09 -2.320885e+09 -2.480866e+09 1.257189e+04 -4.518547e+04 -4.940874e+04
-3.077368e+09 -2.877404e+09 -3.037427e+09 -5.771251e+02 -1.118790e+02 -1.012284e+02
-1.657150e+09 -1.457188e+09 -1.617211e+09 -2.808628e+02 -3.266067e+02 3.346589e+02
-1.563802e+09 -1.363837e+09 -1.523862e+09 -1.916738e+03 -3.147310e+02 6.952193e+02
-4.985324e+09 -4.785077e+09 -4.945373e+09 -1.568191e+03 -7.484331e+03 -6.099980e+02
-4.611299e+09 -4.412015e+09 -4.571896e+09 3.821590e+04 -9.318357e+03 1.177929e+04
-4.792606e+09 -4.593094e+09 -4.753095e+09 1.425180e+05 -3.171894e+03 1.697417e+04
-4.455402e+09 -4.256090e+09 -4.415943e+09 1.001560e+05 -1.782858e+04 -3.595838e+04
-3.600669e+09 -3.401311e+09 -3.561218e+09 5.936444e+04 -2.134192e+03 -2.802525e+04
-4.138756e+09 -3.938823e+09 -4.098961e+09 -1.889144e+05 -3.707682e+04 3.589965e+04
-4.981400e+09 -4.782143e+09 -4.941971e+09 1.454915e+05 -8.634824e+03 -6.124358e+04
-3.951503e+09 -3.752174e+09 -3.911976e+09 1.842175e+05 1.130018e+04 -2.580598e+04
-4.013447e+09 -3.813533e+09 -3.973549e+09 -4.092532e+03 -1.028763e+03 4.806586e+03
-2.386353e+09 -2.186273e+09 -2.346391e+09 -1.847016e+04 -3.929048e+04 2.659254e+04
-2.966062e+09 -2.766001e+09 -2.926129e+09 -3.815579e+04 -3.751611e+04 3.201943e+04
-4.979646e+09 -4.779726e+09 -4.939746e+09 -8.375311e+03 -4.630251e+02 1.307813e+03
-3.234439e+09 -3.034249e+09 -3.194461e+09 -3.805190e+04 -7.917286e+04 2.014550e+04
-2.125919e+09 -1.925990e+09 -2.085998e+09 -2.677315e+03 -1.354315e+03 3.377953e+03
-2.245095e+09 -2.045169e+09 -2.205178e+09 -7.436332e+02 -2.474883e+02 1.121867e+03
-3.908972e+09 -3.709049e+09 -3.869068e+09 -1.101338e+04 -6.521670e+02 6.515445e+03
-1.681520e+09 -1.481568e+09 -1.641587e+09 1.925085e+03 6.832954e+02 5.269590e+02
-4.628398e+09 -4.428479e+09 -4.588497e+09 -4.436560e+03 -1.350707e+02 9.903012e+02
-1.819198e+09 -1.619268e+09 -1.779278e+09 -3.453287e+03 -5.633730e+02 5.372625e+03
-3.177954e+09 -2.978018e+09 -3.138040e+09 -1.135457e+04 -9.499761e+02 8.192901e+03
-3.259271e+09 -3.059112e+09 -3.219307e+09 2.627114e+04 -4.352294e+04 -1.945754e+04
-2.154079e+09 -1.954124e+09 -2.114180e+09 -4.750313e+03 6.379528e+04 5.586917e+02
-4.962756e+09 -4.762565e+09 -4.922832e+09 5.088450e+04 -1.185200e+04 -7.703142e+03
-4.986262e+09 -4.786052e+09 -4.946315e+09 2.854432e+04 -1.220296e+04 -3.562937e+03
-3.433694e+09 -3.233663e+09 -3.393859e+09 -1.198016e+05 8.136592e+04 -5.724794e+04
-2.730742e+09 -2.530814e+09 -2.690829e+09 6.527336e+03 2.395245e+03 1.085868e+04
-4.566223e+09 -4.366293e+09 -4.526315e+09 5.686102e+03 -1.716564e+02 2.593621e+03
-3.440027e+09 -3.240163e+09 -3.400295e+09 -1.137651e+04 5.471085e+04 -2.961931e+03
-4.567150e+09 -4.367216e+09 -4.527238e+09 8.589001e+03 7.163411e+02 1.797952e+03
-1.639454e+09 -1.439487e+09 -1.599462e+09 8.169784e+03 4.832775e+04 -6.595178e+04
-4.435860e+09 -4.235994e+09 -4.396169e+09 -1.875102e+04 2.339389e+04 1.549125e+02
-4.528667e+09 -4.328839e+09 -4.489018e+09 -5.428501e+04 2.117359e+04 -5.787058e+03
-2.768327e+09 -2.568418e+09 -2.728511e+09 -6.607726e+02 5.972615e+04 -1.981909e+03
-4.988386e+09 -4.788443e+09 -4.948654e+09 -9.709853e+04 9.621305e+03 -1.082805e+04
-1.662283e+09 -1.462348e+09 -1.622342e+09 2.206460e+03 -5.768792e+04 1.079527e+04
-1.942493e+09 -1.742589e+09 -1.902611e+09 5.214168e+04 -6.329790e+04 -2.340667e+04
-4.628577e+09 -4.428871e+09 -4.588894e+09 4.162855e+04 1.162810e+03 2.524295e+04
-1.770398e+09 -1.570471e+09 -1.730477e+09 1.954711e+03 9.912457e+02 3.147976e+03
-4.183223e+09 -3.983682e+09 -4.143703e+09 7.679379e+04 -9.919277e+03 -3.710516e+04
-2.737123e+09 -2.537334e+09 -2.697383e+09 9.290967e+03 -6.829230e+04 6.397384e+03
-2.572649e+09 -2.372974e+09 -2.533015e+09 7.831436e+04 -5.385073e+04 -7.168805e+04
-3.718083e+09 -3.518149e+09 -3.678172e+09 1.030725e+04 1.049379e+03 6.406272e+03
-4.219476e+09 -4.019549e+09 -4.179574e+09 1.265198e+04 1.642999e+03 7.055668e+03
-1.886821e+09 -1.686830e+09 -1.846908e+09 8.148953e+04 -1.263502e+05 -1.217673e+05
-4.554711e+09 -4.354790e+09 -4.514814e+09 1.157378e+04 9.387639e+02 3.543889e+03
-3.706767e+09 -3.506801e+09 -3.666829e+09 -4.526532e+03 -9.338709e+02 9.991616e+02
-2.149898e+09 -1.949831e+09 -2.109919e+09 4.244578e+03 -1.323475e+04 -7.697842e+03
-4.973472e+09 -4.773516e+09 -4.933542e+09 -6.451525e+03 -5.040389e+01 -6.451838e+02
-4.414396e+09 -4.214431e+09 -4.374455e+09 -1.144325e+03 -1.118401e+02 2.155379e+02
-1.573729e+09 -1.373675e+09 -1.533750e+09 2.144170e+03 -2.690311e+04 -8.724860e+03
-3.673810e+09 -3.473675e+09 -3.633884e+09 5.244322e+04 -3.184195e+04 -1.502324e+04
-3.881002e+09 -3.681039e+09 -3.841062e+09 -4.568200e+02 3.979881e+01 1.752422e+02
-1.596472e+09 -1.396406e+09 -1.556481e+09 1.369061e+03 -3.402547e+04 -1.987818e+04
-1.674130e+09 -1.474059e+09 -1.634146e+09 2.792097e+03 -8.251243e+04 -3.524850e+04
-2.442868e+09 -2.242755e+09 -2.402896e+09 2.386036e+04 -4.980288e+04 -1.969149e+04
-3.988992e+09 -3.788827e+09 -3.949042e+09 5.512842e+03 -1.014385e+04 -1.082043e+04
-4.126442e+09 -3.926478e+09 -4.086503e+09 -1.973204e+03 -3.456689e+02 3.483550e+02
-1.605520e+09 -1.405550e+09 -1.565489e+09 -5.331073e+03 3.716358e+04 -6.605438e+04
-2.005617e+09 -1.805715e+09 -1.965443e+09 -8.878783e+04 4.263110e+04 -1.557465e+05
-3.985108e+09 -3.785142e+09 -3.945170e+09 -3.768739e+03 -1.275490e+02 1.515236e+03
-1.621122e+09 -1.421154e+09 -1.581106e+09 9.182890e+03 6.633809e+04 -1.301643e+05
-1.585674e+09 -1.385602e+09 -1.545680e+09 2.782156e+03 3.091339e+04 1.110202e+04
-1.674112e+09 -1.474052e+09 -1.634125e+09 1.104862e+04 4.169129e+04 2.063198e+04
-4.669641e+09 -4.469675e+09 -4.629701e+09 -1.604876e+03 -2.627165e+02 -2.249996e+02
-3.865493e+09 -3.665528e+09 -3.825552e+09 -5.845051e+02 -7.128967e+01 4.638601e+01
-3.387085e+09 -3.186940e+09 -3.347116e+09 -2.243803e+03 3.353208e+04 -2.421059e+03
-2.625163e+09 -2.425048e+09 -2.585189e+09 1.797679e+04 2.928487e+04 5.359822e+03
-2.998956e+09 -2.798867e+09 -2.958979e+09 3.779483e+03 1.193071e+04 1.051284e+04
-4.021072e+09 -3.820915e+09 -3.981101e+09 -2.686840e+03 1.405367e+04 1.029828e+03
-3.040729e+09 -2.840681e+09 -3.000808e+09 2.490210e+04 -4.094300e+04 -1.552672e+04
-1.836687e+09 -1.636765e+09 -1.796773e+09 7.519405e+02 2.667546e+03 1.106290e+04
-3.156933e+09 -2.957114e+09 -3.117214e+09 1.010038e+05 -6.275380e+04 -4.182859e+04
-3.335037e+09 -3.135067e+09 -3.295203e+09 1.535715e+05 -7.250093e+04 -6.695816e+04
-5.012433e+09 -4.812462e+09 -4.972632e+09 2.233250e+05 -1.571701e+04 4.418068e+03
-2.777829e+09 -2.577852e+09 -2.737956e+09 5.132026e+03 -5.471847e+04 -1.316286e+03
-3.040376e+09 -2.840508e+09 -3.000576e+09 1.316524e+05 -7.252377e+04 -5.945887e+04
-2.789587e+09 -2.589571e+09 -2.749682e+09 4.039084e+03 -4.949360e+04 -1.826443e+03
-3.592488e+09 -3.392338e+09 -3.552512e+09 4.254191e+02 1.804675e+04 2.953210e+03
-4.802392e+09 -4.602218e+09 -4.762422e+09 -2.185769e+03 5.774985e+03 -2.571723e+03
-4.477468e+09 -4.277383e+09 -4.437602e+09 8.612304e+04 -2.610056e+04 -5.905861e+03
-3.283392e+09 -3.083365e+09 -3.243502e+09 4.074433e+03 -3.667748e+04 3.689586e+02
-2.858147e+09 -2.658121e+09 -2.818234e+09 4.117463e+03 -3.675397e+04 -2.636706e+03
-1.573725e+09 -1.373674e+09 -1.533750e+09 2.223469e+02 -2.755254e+04 -8.650593e+03
-4.097740e+09 -3.897641e+09 -4.057804e+09 2.157835e+04 -1.266216e+04 -8.338488e+03
-2.839906e+09 -2.639838e+09 -2.799952e+09 7.676264e+03 -2.060734e+04 -9.761691e+03
-3.017702e+09 -2.817640e+09 -2.977748e+09 1.695167e+03 -1.385402e+04 -2.026299e+03
-4.621715e+09 -4.421533e+09 -4.581752e+09 -5.339989e+02 4.514524e+03 -3.033891e+03
-4.128615e+09 -3.928671e+09 -4.088693e+09 -6.201084e+03 -9.952596e+02 1.231758e+03
-3.765394e+09 -3.565254e+09 -3.725417e+09 -3.015006e+03 5.553469e+03 9.080366e+02
-4.890035e+09 -4.690115e+09 -4.850128e+09 -5.578584e+02 7.867866e+01 -7.837779e-07
-3.940669e+09 -3.740465e+09 -3.900693e+09 2.743481e+03 2.402592e+04 -1.596438e+03
-4.795264e+09 -4.595054e+09 -4.755296e+09 3.857510e+03 1.007460e+04 2.327497e+03
-4.629535e+09 -4.429346e+09 -4.589563e+09 5.105299e+03 6.172338e+03 5.933896e+02
-1.646125e+09 -1.446061e+09 -1.606141e+09 9.528465e+01 -3.169808e+04 -2.229265e+04
-3.174835e+09 -2.974742e+09 -3.134879e+09 1.889728e+04 -2.950248e+04 -1.398829e+04
-2.206231e+09 -2.006156e+09 -2.166252e+09 3.908480e+03 -1.164685e+04 -1.423072e+04
-1.888582e+09 -1.688592e+09 -1.848631e+09 -1.222663e+03 -1.125712e+03 4.489740e+03
-1.833266e+09 -1.633269e+09 -1.793313e+09 -4.051173e+03 -2.458127e+03 7.845367e+03
-5.013686e+09 -4.813711e+09 -4.973752e+09 -1.131834e+04 -5.268947e+02 1.124219e+02
-3.613354e+09 -3.413200e+09 -3.573407e+09 2.330665e+04 -1.800165e+04 -1.311666e+04
-2.478329e+09 -2.278358e+09 -2.438387e+09 -8.634965e+02 1.166755e+01 1.556347e+03
-2.617246e+09 -2.417253e+09 -2.577304e+09 -4.511284e+03 -3.330122e+03 6.446914e+03
-3.214838e+09 -3.014670e+09 -3.174882e+09 3.655089e+04 -4.738660e+04 -1.794900e+04
-1.944448e+09 -1.744393e+09 -1.904495e+09 2.965368e+04 -5.322424e+04 -2.526740e+04
-2.050361e+09 -1.850286e+09 -2.010376e+09 4.474121e+03 -4.743237e+04 -2.422051e+04
-2.038962e+09 -1.838884e+09 -1.999003e+09 3.347326e+04 -5.701380e+04 -2.819393e+04
-3.429562e+09 -3.229347e+09 -3.389591e+09 3.219271e+04 -6.029521e+04 -2.115412e+04
-4.399191e+09 -4.199210e+09 -4.359242e+09 1.438201e+03 3.860910e+02 4.051653e+02
-4.601555e+09 -4.401581e+09 -4.561611e+09 3.009674e+03 3.981106e+01 9.895806e+02
-4.622391e+09 -4.422414e+09 -4.582443e+09 1.282512e+02 0.000000e+00 4.771454e+01
-1.646128e+09 -1.446074e+09 -1.606143e+09 6.069890e+02 -3.766650e+04 -2.338073e+04
-3.112798e+09 -2.912820e+09 -3.072852e+09 5.742114e+03 6.965198e+02 1.145145e+03
-3.998445e+09 -3.798464e+09 -3.958500e+09 5.942944e+03 4.074843e+02 7.303972e+02
-2.559423e+09 -2.359440e+09 -2.519474e+09 7.069856e+02 1.788791e+02 7.197769e+02
-1.920909e+09 -1.720930e+09 -1.880961e+09 1.699656e+03 1.433565e+02 1.276257e+02
-1.592795e+09 -1.392737e+09 -1.552814e+09 1.057886e+03 -1.856874e+04 -1.234528e+04
-3.317540e+09 -3.117529e+09 -3.277662e+09 1.376830e+04 -4.123367e+04 -6.522756e+03
-4.897070e+09 -4.696988e+09 -4.857133e+09 2.074432e+03 -5.453279e-05 -1.472131e+03
-2.252697e+09 -2.052719e+09 -2.212750e+09 1.622397e+03 1.886821e+02 -8.719546e+01
-3.159063e+09 -2.958956e+09 -3.119103e+09 1.181897e+04 -1.800242e+04 -1.899163e+04
-2.865542e+09 -2.665563e+09 -2.825594e+09 9.038943e+02 1.744899e+02 1.435711e+02
-4.609175e+09 -4.409192e+09 -4.569229e+09 6.911314e+03 5.703261e+02 1.034591e+03
-2.862073e+09 -2.662069e+09 -2.822125e+09 -1.770432e+03 -1.268166e+03 7.834968e+03
-4.591097e+09 -4.391130e+09 -4.551156e+09 -4.873740e+02 -8.644650e+01 2.660427e+02
-2.952979e+09 -2.753003e+09 -2.913034e+09 4.528367e+03 8.792976e+02 9.500228e+02
-4.953973e+09 -4.754004e+09 -4.914033e+09 -3.594463e+03 -1.777499e+02 1.268020e+02
-3.667746e+09 -3.467775e+09 -3.627804e+09 -5.606657e+02 -1.684525e+02 4.948680e+02
-4.236858e+09 -4.036892e+09 -4.196922e+09 -8.858221e+03 -1.223564e+03 2.521092e+03
-3.680092e+09 -3.480119e+09 -3.640147e+09 1.093147e+03 8.200953e+01 -1.745137e+01
-3.754392e+09 -3.554421e+09 -3.714448e+09 2.965673e+03 4.835522e+02 6.136580e+02
-4.293506e+09 -4.092956e+09 -4.253430e+09 -1.043206e+05 -8.880611e+04 1.830540e+04
-3.879962e+09 -3.679699e+09 -3.839990e+09 3.652154e+04 -3.652699e+04 -9.821845e+02
-4.981143e+09 -4.780833e+09 -4.941166e+09 2.459654e+04 -1.659670e+04 -6.248611e+03
-3.038150e+09 -2.838176e+09 -2.998204e+09 1.747052e+03 2.678410e+02 4.618552e+02
-4.639281e+09 -4.439300e+09 -4.599335e+09 4.668851e+03 4.206868e+02 5.642303e+02
-3.989442e+09 -3.789341e+09 -3.949514e+09 -3.654803e+04 2.600121e+04 -1.049615e+04
-3.820762e+09 -3.620694e+09 -3.780852e+09 -3.401243e+04 2.466461e+04 -1.347129e+04
-3.030943e+09 -2.831000e+09 -2.991019e+09 7.017704e+03 2.036768e+03 4.089968e+03
-4.994221e+09 -4.794153e+09 -4.954318e+09 -3.038766e+04 5.311283e+03 -2.589939e+03
-4.090493e+09 -3.890395e+09 -4.050554e+09 -3.345301e+04 1.395742e+04 -7.687987e+03
-3.464888e+09 -3.264827e+09 -3.424945e+09 -8.760083e+03 1.937904e+04 -4.026311e+03
-2.792281e+09 -2.592239e+09 -2.752346e+09 -3.023981e+03 3.744420e+04 -1.879891e+03
-2.459618e+09 -2.259562e+09 -2.419672e+09 -3.378711e+04 5.008049e+04 -2.649990e+04
-3.196617e+09 -2.996532e+09 -3.156681e+09 -3.973023e+04 3.116569e+04 -1.014452e+04
-4.312425e+09 -4.112286e+09 -4.272521e+09 -9.881544e+04 3.984886e+04 -1.605625e+04
-2.423272e+09 -2.223221e+09 -2.383328e+09 -2.416526e+04 4.629226e+04 -2.526460e+04
-4.478488e+09 -4.278597e+09 -4.438629e+09 9.051680e+03 9.848178e+02 9.085180e+03
-2.163880e+09 -1.963817e+09 -2.123903e+09 -7.070294e+03 1.916276e+04 -7.067853e+03
-3.878352e+09 -3.678426e+09 -3.838445e+09 7.065754e+03 2.133654e+03 3.842323e+03
-2.986996e+09 -2.786957e+09 -2.947123e+09 -6.984462e+04 6.943686e+04 -4.502233e+04
-4.425575e+09 -4.225660e+09 -4.385684e+09 9.599573e+03 1.238653e+03 4.810537e+03
-4.790635e+09 -4.590562e+09 -4.750756e+09 -5.606660e+04 1.402570e+04 -4.607224e+03
-4.793180e+09 -4.593100e+09 -4.753335e+09 -9.637622e+04 5.882572e+03 -1.246380e+04
-4.733618e+09 -4.533696e+09 -4.693717e+09 9.902118e+03 2.281039e+03 1.162317e+03
-3.985672e+09 -3.785731e+09 -3.945770e+09 -2.588514e+04 -4.197269e+03 1.050984e+04
-4.176388e+09 -3.976448e+09 -4.136494e+09 -2.961957e+04 -7.546973e+03 8.052877e+03
-3.966380e+09 -3.766444e+09 -3.926473e+09 -1.711828e+04 -2.802798e+03 7.308437e+03
-4.314368e+09 -4.114438e+09 -4.274474e+09 -1.897957e+04 -3.981393e+03 6.160704e+03
-1.697512e+09 -1.497559e+09 -1.657580e+09 -6.728353e+03 -3.326249e+03 3.925790e+03
-4.968073e+09 -4.768130e+09 -4.928153e+09 -6.679483e+03 -1.146620e+02 7.868980e+02
-4.617483e+09 -4.417568e+09 -4.577592e+09 1.437783e+04 8.502217e+02 4.680243e+03
-4.135262e+09 -3.935022e+09 -4.095233e+09 3.221066e+05 -1.913961e+04 -4.024321e+04
-4.142875e+09 -3.942738e+09 -4.102880e+09 3.185370e+05 -2.899540e+04 2.599648e+03
-4.987599e+09 -4.787423e+09 -4.947724e+09 3.206277e+05 -4.702232e+04 -3.065296e+04
-4.478496e+09 -4.278316e+09 -4.438399e+09 3.356229e+05 -1.717488e+04 -3.522439e+04
-3.968228e+09 -3.767843e+09 -3.928131e+09 3.326853e+05 2.520017e+04 4.171256e+04
-5.007524e+09 -4.807347e+09 -4.967640e+09 1.621471e+05 -2.081978e+04 -1.140268e+04
-4.488146e+09 -4.287876e+09 -4.448129e+09 2.288722e+05 -5.147672e+04 -2.091661e+04
-4.484858e+09 -4.286076e+09 -4.444082e+09 -1.408979e+05 8.294757e+04 1.146687e+05
-3.962674e+09 -3.763553e+09 -3.922889e+09 -1.014254e+04 -5.166914e+04 1.059642e+05
-4.290372e+09 -4.090942e+09 -4.248670e+09 7.007087e+05 2.091265e+05 2.997925e+05
-4.831280e+09 -4.631103e+09 -4.791396e+09 2.424154e+05 -3.073268e+04 -2.098799e+04
-4.987705e+09 -4.787560e+09 -4.947780e+09 2.527508e+05 -3.078182e+04 -1.244552e+04
-4.143617e+09 -3.943511e+09 -4.103758e+09 2.355632e+05 -6.222975e+04 -4.536384e+04
-4.143635e+09 -3.944818e+09 -4.103395e+09 -2.781861e+05 -2.188232e+05 2.116175e+05
-1.806662e+09 -1.606550e+09 -1.766659e+09 -5.477663e+02 3.855630e+04 -7.354478e+03
-2.736023e+09 -2.535907e+09 -2.696046e+09 -1.455634e+04 4.030584e+04 -1.220697e+04
-5.006050e+09 -4.807072e+09 -4.966251e+09 -1.071154e+05 -1.049228e+04 -1.469453e+03
-3.043808e+09 -2.844172e+09 -3.004182e+09 -2.808105e+04 5.222131e+04 -4.306479e+04
-4.464610e+09 -4.265252e+09 -4.424027e+09 -4.711064e+05 1.133669e+04 6.205885e+04
-4.812195e+09 -4.611730e+09 -4.772148e+09 -1.662382e+05 -2.102547e+04 -1.144696e+04
-4.299959e+09 -4.099577e+09 -4.259946e+09 9.510576e+04 6.645333e+04 8.856551e+03
-3.439536e+09 -3.240372e+09 -3.399949e+09 -1.801822e+04 9.478695e+03 -9.117041e+04
-3.428742e+09 -3.229251e+09 -3.389260e+09 -4.297946e+03 1.161229e+04 -2.138628e+03
-4.525133e+09 -4.325570e+09 -4.485660e+09 -7.012604e+04 1.290744e+04 1.695208e+03
-2.949435e+09 -2.749948e+09 -2.909859e+09 -2.496716e+04 1.410126e+04 -5.714863e+04
-4.792444e+09 -4.593091e+09 -4.753007e+09 -1.192788e+05 -7.929686e+03 -1.597582e+04
-4.133394e+09 -3.933448e+09 -4.093566e+09 -9.745760e+04 -2.718471e+04 2.064710e+04
-4.831238e+09 -4.631452e+09 -4.791531e+09 -1.038633e+05 -2.009491e+04 3.207729e+04
-4.676944e+09 -4.476648e+09 -4.636971e+09 1.324453e+05 2.824348e+04 1.700056e+04
-4.297632e+09 -4.096986e+09 -4.257454e+09 3.401993e+04 8.328217e+04 -1.286558e+04
-4.994061e+09 -4.794150e+09 -4.954238e+09 -7.015927e+04 -3.311812e+03 5.856441e+03
-3.963442e+09 -3.763466e+09 -3.923595e+09 -9.758469e+04 -2.986809e+04 3.269125e+04
-5.000275e+09 -4.799811e+09 -4.960257e+09 6.198684e+04 3.714303e+04 3.379924e+01
-4.642666e+09 -4.442275e+09 -4.602679e+09 6.379518e+04 8.446097e+03 4.111752e+03
-4.992064e+09 -4.791693e+09 -4.952059e+09 4.717833e+04 2.585152e+04 5.684738e+02
-4.476931e+09 -4.277656e+09 -4.436451e+09 -4.841873e+05 -8.638245e+04 1.996895e+05
-4.823314e+09 -4.622576e+09 -4.782974e+09 1.345117e+05 -2.097643e+04 -1.325138e+04
-4.995970e+09 -4.795403e+09 -4.955867e+09 1.364822e+05 4.350520e+04 1.161584e+04
-4.317476e+09 -4.117003e+09 -4.277443e+09 1.194989e+05 8.311127e+04 2.401636e+04
-4.654004e+09 -4.453462e+09 -4.613919e+09 6.060795e+04 -4.463830e+03 7.630545e+03
-5.007556e+09 -4.807278e+09 -4.967623e+09 1.972953e+05 2.342769e+04 1.180970e+04
-4.996033e+09 -4.795492e+09 -4.955902e+09 1.954241e+05 4.690400e+04 1.068638e+04
-4.304466e+09 -4.104146e+09 -4.264513e+09 1.054150e+05 5.382354e+04 1.122948e+04
-3.970635e+09 -3.770210e+09 -3.930569e+09 9.859163e+04 4.319663e+04 1.187494e+04
-4.990600e+09 -4.789924e+09 -4.950398e+09 1.155521e+05 -4.525776e+04 -3.180760e+04
-3.961061e+09 -3.760351e+09 -3.920737e+09 2.982845e+04 -1.829113e+04 9.350967e+03
-3.960905e+09 -3.760282e+09 -3.920689e+09 7.565531e+04 -1.721970e+04 5.990946e+03
-3.968254e+09 -3.768323e+09 -3.928405e+09 -6.123698e+04 -1.332612e+04 2.057079e+04
-4.818036e+09 -4.618141e+09 -4.778222e+09 -6.611133e+04 -4.644706e+03 1.455379e+04
-4.273621e+09 -4.073860e+09 -4.233894e+09 6.835759e+04 1.498770e+04 3.958539e+04
-4.519380e+09 -4.319508e+09 -4.479598e+09 -9.842834e+04 -1.597029e+04 2.319097e+04
-4.647806e+09 -4.447898e+09 -4.608007e+09 -9.693798e+04 -1.172663e+04 1.456081e+04
-4.616856e+09 -4.417096e+09 -4.577132e+09 6.713414e+04 9.202799e+02 1.604718e+04
-3.950269e+09 -3.750575e+09 -3.910608e+09 4.232467e+04 -8.117635e+03 4.150872e+04
-4.134595e+09 -3.934703e+09 -4.094799e+09 -9.733681e+04 -2.542153e+04 2.300563e+04
-3.964304e+09 -3.764416e+09 -3.924512e+09 -8.974259e+04 -1.932799e+04 3.044481e+04
-4.105783e+09 -3.906023e+09 -4.066064e+09 5.753143e+04 1.340115e+04 4.602760e+04
-4.628433e+09 -4.428631e+09 -4.588650e+09 1.429655e+04 9.264815e+03 1.719198e+04
-4.473611e+09 -4.273943e+09 -4.433973e+09 7.442570e+03 3.199806e+03 3.122016e+04
-4.816454e+09 -4.616822e+09 -4.776837e+09 1.345526e+04 -4.680176e+01 3.780000e+04
-4.131581e+09 -3.931684e+09 -4.091755e+09 -5.957489e+04 -1.626911e+04 2.195808e+04
-4.979946e+09 -4.780337e+09 -4.940322e+09 2.611771e+04 6.623733e+03 3.547709e+04
-4.202943e+09 -4.003334e+09 -4.163280e+09 -1.855268e+05 -2.198975e+04 1.526939e+04
-4.721754e+09 -4.521782e+09 -4.681810e+09 1.246484e+03 1.083519e+02 -1.817906e+02
-3.947452e+09 -3.747735e+09 -3.907471e+09 -4.223970e+05 4.875842e+04 -1.082652e+05
-4.470178e+09 -4.270205e+09 -4.430233e+09 1.369849e+03 3.042094e+02 1.492662e+01
-3.491250e+09 -3.291273e+09 -3.451303e+09 2.580976e+03 3.392120e+02 2.090321e+02
-2.715776e+09 -2.515683e+09 -2.675798e+09 -4.193827e+03 1.330345e+04 -6.247529e+03
-4.484864e+09 -4.284752e+09 -4.444907e+09 -1.293731e+04 1.235193e+04 -3.538495e+03
-4.476808e+09 -4.277651e+09 -4.436693e+09 -2.793716e+05 1.415687e+05 -1.032317e+05
-4.534884e+09 -4.334747e+09 -4.494918e+09 -7.686133e+03 2.797355e+03 -2.533566e+03
-4.635517e+09 -4.436306e+09 -4.595359e+09 -4.166607e+05 -8.022522e+04 -9.109542e+03
-4.243703e+09 -4.043556e+09 -4.203732e+09 -1.825670e+04 1.711867e+04 -9.212812e+03
-3.476730e+09 -3.276636e+09 -3.436760e+09 -8.098111e+03 1.089236e+04 -6.182369e+03
-4.133271e+09 -3.934371e+09 -4.090546e+09 -6.075025e+05 3.163124e+05 -7.365487e+05
-4.476990e+09 -4.278019e+09 -4.435435e+09 -4.977933e+05 -4.532925e+05 -6.218010e+05
-4.993193e+09 -4.793428e+09 -4.951012e+09 -6.230715e+05 1.468791e+04 -9.122877e+04
-4.993202e+09 -4.793407e+09 -4.951009e+09 -6.164308e+05 1.440880e+04 -9.108829e+04
-4.999222e+09 -4.798960e+09 -4.959266e+09 2.341170e+04 1.731801e+04 2.833211e+03
-4.151658e+09 -3.951465e+09 -4.111702e+09 3.538077e+04 2.930653e+04 9.047525e+03
-4.300100e+09 -4.099862e+09 -4.260123e+09 1.907217e+04 3.404213e+04 -2.870052e+02
-4.047886e+09 -3.847745e+09 -4.007913e+09 6.650433e+03 9.448170e+03 1.925603e+03
-3.250966e+09 -3.050867e+09 -3.210997e+09 -7.245253e+03 1.872998e+04 -1.260959e+04
-2.234744e+09 -2.034652e+09 -2.194752e+09 -3.220032e+03 1.478928e+04 -1.077241e+04
-3.245985e+09 -3.045868e+09 -3.206014e+09 -9.134640e+03 2.575075e+04 -1.235186e+04
-4.468829e+09 -4.268740e+09 -4.428868e+09 -6.462416e+03 1.705645e+03 -2.818095e+03
-1.636213e+09 -1.436265e+09 -1.596282e+09 8.629866e+02 7.429410e+02 8.731289e+02
-4.972561e+09 -4.772620e+09 -4.932645e+09 1.240473e+04 4.425093e+02 3.388149e+02
-4.977587e+09 -4.777652e+09 -4.937676e+09 1.023632e+04 5.914174e+02 1.183620e+03
-1.670766e+09 -1.470819e+09 -1.630836e+09 8.384586e+03 3.599061e+03 7.198482e+03
-3.960896e+09 -3.760933e+09 -3.920961e+09 -6.413227e+03 -1.413232e+03 6.908783e+02
-2.781543e+09 -2.581589e+09 -2.741611e+09 -3.200712e+03 -7.072162e+01 1.111313e+03
-2.609515e+09 -2.409562e+09 -2.569583e+09 -2.666419e+03 -4.791900e+02 1.556246e+03
-1.582845e+09 -1.382893e+09 -1.542912e+09 -1.552068e+03 -5.961654e+02 1.900432e+02
-3.158898e+09 -2.958945e+09 -3.118964e+09 -1.834157e+03 -7.301034e+02 3.471454e+02
-4.939795e+09 -4.739842e+09 -4.899863e+09 -2.126157e+03 1.185176e+02 1.512303e+02
-2.766580e+09 -2.566628e+09 -2.726647e+09 -1.055070e+03 -8.271891e+02 8.313207e+02
-4.323680e+09 -4.123702e+09 -4.283740e+09 -2.090554e+03 -3.648851e+02 1.688732e+03
-4.669696e+09 -4.469731e+09 -4.629755e+09 -3.901335e+02 -2.707303e+01 1.275206e+02
-3.209428e+09 -3.009464e+09 -3.169493e+09 -6.594405e+03 -1.255467e+03 2.178751e+03
-4.748241e+09 -4.548275e+09 -4.708300e+09 -1.137361e+03 -1.200135e+02 7.009792e+01
-1.898652e+09 -1.698698e+09 -1.858718e+09 -4.490250e+02 -1.619998e+02 4.184058e+02
-2.509824e+09 -2.309866e+09 -2.469888e+09 -6.795638e+02 -8.379514e+02 3.209111e+02
-4.985351e+09 -4.785206e+09 -4.945387e+09 -5.583683e+03 7.065883e+02 3.580752e+02
-2.187407e+09 -1.987444e+09 -2.147467e+09 -1.573469e+03 -3.206750e+02 5.363858e+02
-1.652134e+09 -1.452046e+09 -1.612138e+09 -5.649759e+02 1.031635e+04 -5.538916e+03
-2.794476e+09 -2.594363e+09 -2.754493e+09 9.263558e+03 2.705103e+04 1.522026e+03
-2.411024e+09 -2.210877e+09 -2.371036e+09 -2.813711e+03 5.022831e+04 -5.806255e+03
-4.998272e+09 -4.798094e+09 -4.958300e+09 -1.312572e+03 5.728390e+03 1.521526e+03
-4.944469e+09 -4.744374e+09 -4.904537e+09 -2.673824e+04 -3.164677e+03 3.732334e+03
-4.984188e+09 -4.784154e+09 -4.944261e+09 -2.093725e+04 -2.376968e+03 2.253651e+03
-3.160259e+09 -2.960281e+09 -3.120324e+09 -1.269712e+04 -6.304326e+03 8.228935e+03
-4.982686e+09 -4.782629e+09 -4.942761e+09 -2.328580e+04 -3.788946e+03 3.616224e+03
-3.501740e+09 -3.301606e+09 -3.461764e+09 1.702785e+03 1.083645e+04 1.432008e+03
-3.742783e+09 -3.542741e+09 -3.702865e+09 -4.097703e+04 -1.727516e+04 1.671483e+04
-2.822044e+09 -2.621955e+09 -2.782090e+09 -1.849131e+04 -2.524492e+04 1.494300e+04
-4.168819e+09 -3.968547e+09 -4.128878e+09 -1.053833e+05 6.092806e+04 -2.340034e+04
-4.061234e+09 -3.861105e+09 -4.021314e+09 -5.788657e+04 -2.799988e+04 1.084299e+04
-2.584573e+09 -2.384461e+09 -2.544590e+09 -3.285822e+03 2.152225e+04 -1.790076e+03
-4.810202e+09 -4.610020e+09 -4.770237e+09 6.572899e+03 6.133040e+03 -1.434291e+03
-4.273325e+09 -4.073134e+09 -4.233348e+09 4.037721e+03 2.311574e+04 -2.261543e+03
-4.974637e+09 -4.774584e+09 -4.934739e+09 -5.707858e+04 -7.214999e+03 7.978370e+03
-4.655283e+09 -4.455171e+09 -4.615349e+09 -3.136822e+04 -7.307449e+03 9.609876e+03
-4.991259e+09 -4.791189e+09 -4.951375e+09 -8.919147e+04 -5.979819e+03 8.323292e+03
-2.912991e+09 -2.712899e+09 -2.873055e+09 -4.055081e+04 -5.311410e+04 3.457630e+04
-4.993440e+09 -4.793476e+09 -4.953521e+09 -1.912025e+04 -4.568218e+02 1.096952e+03
-4.974656e+09 -4.774573e+09 -4.934741e+09 -5.018458e+04 -7.459389e+03 8.154996e+03
-4.093173e+09 -3.892902e+09 -4.053208e+09 -2.059967e+04 -2.866846e+04 7.424229e+03
-2.094923e+09 -1.894798e+09 -2.054924e+09 -8.855433e+03 -3.017412e+04 9.005294e+03
-2.490865e+09 -2.290721e+09 -2.450875e+09 -6.550472e+03 -5.815258e+04 5.887578e+03
-2.767553e+09 -2.567427e+09 -2.727591e+09 -2.786624e+04 -2.972573e+04 1.653189e+04
-1.851072e+09 -1.650972e+09 -1.811085e+09 -4.630928e+04 -8.866012e+04 1.355927e+04
-1.852528e+09 -1.652419e+09 -1.812525e+09 -3.198319e+04 -9.445392e+04 2.605453e+03
-4.828222e+09 -4.628255e+09 -4.788303e+09 -2.013180e+04 1.157761e+03 4.373621e+03
-1.852544e+09 -1.652434e+09 -1.812531e+09 2.346102e+04 -9.097974e+04 1.256622e+04
-3.329376e+09 -3.129347e+09 -3.289499e+09 5.751142e+04 -4.965153e+04 -2.465253e+04
-2.897602e+09 -2.697595e+09 -2.857708e+09 1.502533e+04 -5.040197e+04 -1.554221e+04
-2.155608e+09 -1.955506e+09 -2.115618e+09 7.974255e+03 -2.086132e+04 -1.894138e+04
-3.722553e+09 -3.522497e+09 -3.682654e+09 2.548316e+04 -2.781964e+04 -9.857974e+03
-3.000407e+09 -2.800402e+09 -2.960524e+09 1.004150e+04 -4.813588e+04 -1.260839e+04
-3.655769e+09 -3.455615e+09 -3.615808e+09 4.399786e+03 -4.468460e+03 -9.152132e+03
-2.662842e+09 -2.462846e+09 -2.622949e+09 4.851017e+03 -5.456415e+04 1.606372e+03
-4.800633e+09 -4.600383e+09 -4.760680e+09 2.093620e+04 -8.683280e+03 2.759309e+03
-4.941373e+09 -4.741230e+09 -4.901437e+09 1.228386e+04 -3.037158e+03 -1.241866e+03
-4.299518e+09 -4.099500e+09 -4.259676e+09 5.739928e+03 -2.124894e+04 -1.264973e+03
-3.879148e+09 -3.678942e+09 -3.839203e+09 5.606118e+04 -4.294525e+04 -8.321418e+03
-3.506931e+09 -3.306961e+09 -3.467120e+09 2.745769e+04 -4.944960e+04 -1.105474e+04
-4.135328e+09 -3.934521e+09 -4.093383e+09 -5.611739e+05 -4.045000e+05 -4.232648e+04
-4.991473e+09 -4.790906e+09 -4.950202e+09 -5.288223e+05 1.045986e+04 -7.866275e+02
-3.957187e+09 -3.756522e+09 -3.916627e+09 -3.683189e+05 -1.235400e+05 7.739115e+04
-4.104320e+09 -3.903509e+09 -4.063329e+09 -3.490299e+05 -1.325570e+05 -1.369069e+04
-2.587132e+09 -2.387171e+09 -2.547272e+09 -4.105673e+04 7.130722e+04 -3.261526e+04
-4.986890e+09 -4.786309e+09 -4.946289e+09 -3.648473e+05 3.240577e+04 -2.042162e+04
-4.810595e+09 -4.609980e+09 -4.770205e+09 -3.165240e+05 -2.417206e+04 -3.449896e+04
-3.958040e+09 -3.757433e+09 -3.917876e+09 -2.436772e+05 -7.037168e+03 3.920101e+04
-4.467491e+09 -4.266733e+09 -4.426831e+09 -2.644681e+05 2.662746e+04 2.638377e+03
-4.653030e+09 -4.452863e+09 -4.613168e+09 -1.377672e+05 2.062235e+04 -1.230998e+04
-4.946396e+09 -4.746400e+09 -4.906446e+09 3.377453e+03 1.824983e+02 -1.794556e+02
-4.985772e+09 -4.785600e+09 -4.945879e+09 -1.581505e+05 2.102888e+04 -9.553279e+03
-3.981878e+09 -3.781598e+09 -3.941895e+09 -1.367720e+05 3.720973e+04 -1.048098e+04
-4.855271e+09 -4.655011e+09 -4.815337e+09 -1.067605e+05 1.090285e+04 -9.265889e+02
-4.507736e+09 -4.307551e+09 -4.467803e+09 -8.599779e+04 2.862051e+04 -1.063194e+04
-4.697368e+09 -4.497378e+09 -4.657419e+09 2.067524e+03 4.918978e+02 2.277144e+02
-4.523483e+09 -4.323497e+09 -4.483534e+09 2.365627e+03 2.346276e+02 6.352742e+02
-3.903023e+09 -3.703049e+09 -3.863079e+09 5.398394e+03 2.946248e+02 1.086976e+03
-3.977563e+09 -3.777407e+09 -3.937647e+09 -9.516485e+04 4.136808e+04 -2.078747e+04
-1.599072e+09 -1.399089e+09 -1.559123e+09 2.980285e+03 1.165520e+03 -4.285707e+01
-2.752061e+09 -2.552086e+09 -2.712194e+09 4.527791e+02 5.702254e+04 -2.457610e+03
-5.007260e+09 -4.807099e+09 -4.967354e+09 -9.132556e+04 1.249337e+04 -6.121627e+03
-4.798820e+09 -4.599026e+09 -4.759163e+09 -1.741368e+05 1.642551e+04 -7.519548e+03
-3.770655e+09 -3.570463e+09 -3.730684e+09 7.489435e+03 2.760376e+04 3.280800e+03
-3.511957e+09 -3.311803e+09 -3.471980e+09 1.792316e+03 1.386159e+04 3.040884e+03
-3.859708e+09 -3.659537e+09 -3.819737e+09 9.518325e+03 2.434485e+04 -9.978477e+02
-5.007083e+09 -4.807130e+09 -4.967185e+09 -3.154772e+04 -1.067567e+03 2.214006e+03
-2.530806e+09 -2.330806e+09 -2.490905e+09 -3.968182e+03 6.056417e+04 -1.704121e+03
-4.940615e+09 -4.740454e+09 -4.900695e+09 6.045638e+04 -3.830877e+03 -4.535779e+03
-3.287993e+09 -3.087915e+09 -3.248041e+09 2.032943e+03 -3.841398e+03 -9.097202e+03
-4.018206e+09 -3.818049e+09 -3.978271e+09 4.565999e+04 -3.083991e+04 -7.845355e+03
-4.198151e+09 -3.997988e+09 -4.158185e+09 2.042472e+04 2.365493e+04 3.338083e+03
-4.276795e+09 -4.076580e+09 -4.236833e+09 1.532136e+04 3.364443e+04 1.490810e+01
-4.941370e+09 -4.741217e+09 -4.901433e+09 2.311066e+04 -4.232466e+03 -4.064679e+03
-4.976242e+09 -4.776069e+09 -4.936301e+09 1.351224e+04 -2.454860e+03 9.356570e+02
-4.799952e+09 -4.599785e+09 -4.759985e+09 5.864464e+03 4.200523e+03 3.150053e+03
-3.064213e+09 -2.864301e+09 -3.024318e+09 5.839027e+03 2.932936e+03 1.314729e+04
-4.169933e+09 -3.970078e+09 -4.130151e+09 -7.600016e+04 -2.031625e+04 3.271649e+04
-3.285400e+09 -3.085484e+09 -3.245498e+09 7.667883e+03 1.600619e+03 8.229381e+03
-2.930930e+09 -2.730999e+09 -2.891011e+09 5.755529e+02 5.493062e+02 1.174567e+03
-4.969575e+09 -4.769659e+09 -4.929681e+09 7.933781e+03 7.775082e+02 2.050772e+03
-3.365097e+09 -3.165169e+09 -3.325189e+09 1.162642e+04 2.666338e+03 8.295198e+03
-5.002995e+09 -4.803033e+09 -4.963058e+09 -3.243203e+03 -8.654986e+00 -5.951507e+02
-3.956803e+09 -3.756981e+09 -3.917021e+09 -5.393544e+04 -6.940576e+03 3.385394e+04
-3.955435e+09 -3.755648e+09 -3.915680e+09 -4.468310e+04 -5.249684e+03 3.885340e+04
-4.990277e+09 -4.790517e+09 -4.950565e+09 -3.261872e+04 -4.906453e+03 1.674889e+04
-4.807802e+09 -4.608004e+09 -4.768057e+09 -5.570447e+04 -8.348262e+03 1.789331e+04
-2.799251e+09 -2.599255e+09 -2.759299e+09 7.620474e+03 2.427950e+03 3.029440e+03
-4.985568e+09 -4.785581e+09 -4.945622e+09 9.072435e+03 5.185150e+02 -3.086885e+02
-2.581622e+09 -2.381520e+09 -2.541632e+09 -1.216985e+03 3.800504e+03 -7.599151e+03
-4.813667e+09 -4.613848e+09 -4.773893e+09 -4.018180e+04 1.766398e+02 6.308904e+03
-5.005816e+09 -4.805591e+09 -4.965860e+09 -5.233300e+04 1.084218e+04 -4.757154e+03
-4.796572e+09 -4.596837e+09 -4.756876e+09 -5.600299e+04 -6.187684e+02 8.542068e+03
-4.477310e+09 -4.276902e+09 -4.437298e+09 -6.061429e+04 4.264805e+04 -9.884436e+03
-4.993946e+09 -4.793610e+09 -4.953985e+09 -5.020207e+04 2.656816e+04 -8.669305e+03
-2.742539e+09 -2.542626e+09 -2.702752e+09 -5.854778e+04 7.520037e+04 -3.562473e+04
-3.790993e+09 -3.591045e+09 -3.751213e+09 -1.191998e+05 5.058682e+04 -4.254426e+04
-4.307734e+09 -4.107526e+09 -4.267767e+09 -3.633774e+04 2.917720e+04 -7.855028e+03
-4.997894e+09 -4.797488e+09 -4.957774e+09 3.770921e+05 -4.086027e+04 -2.270468e+04
-3.271174e+09 -3.071245e+09 -3.231367e+09 -4.809531e+04 6.806742e+04 -2.348176e+04
-3.312173e+09 -3.112259e+09 -3.272420e+09 -9.200066e+04 7.788376e+04 -5.948855e+04
-4.008655e+09 -3.809144e+09 -3.969088e+09 -2.164036e+05 2.991097e+04 1.629666e+04
-3.968261e+09 -3.767964e+09 -3.928121e+09 2.898165e+05 -4.626003e+04 -2.531065e+04
-3.114667e+09 -2.914770e+09 -3.074887e+09 -1.271931e+05 8.584086e+04 -9.462569e+04
-5.006373e+09 -4.806388e+09 -4.966528e+09 -8.958206e+04 -4.856568e+03 6.540426e+03
-2.617538e+09 -2.417505e+09 -2.577575e+09 6.341402e+03 5.930176e+03 6.872310e+03
-4.820667e+09 -4.620705e+09 -4.780810e+09 -6.895570e+04 -1.176944e+04 2.681687e+03
-4.465287e+09 -4.265527e+09 -4.425558e+09 2.872109e+04 3.712713e+03 2.505289e+04
-3.961735e+09 -3.761905e+09 -3.921942e+09 1.578876e+04 5.595346e+03 2.154615e+04
-4.999222e+09 -4.799416e+09 -4.959445e+09 -6.228750e+03 5.369544e+01 1.237101e+04
-4.639010e+09 -4.439222e+09 -4.599251e+09 -3.300014e+04 2.178929e+03 1.199203e+04
-4.139815e+09 -3.939984e+09 -4.100013e+09 -2.240636e+02 -1.280724e+03 2.395158e+04
-3.964256e+09 -3.763955e+09 -3.924281e+09 -3.788856e+04 4.950818e+04 -9.330117e+03
-4.141514e+09 -3.941259e+09 -4.101557e+09 -5.384827e+04 4.979466e+04 -1.438002e+04
-3.964300e+09 -3.763962e+09 -3.924294e+09 -3.356876e+04 4.951240e+04 -2.608410e+03
-4.308750e+09 -4.108706e+09 -4.268896e+09 -1.245749e+05 -2.931162e+04 3.334096e+04
-1.743968e+09 -1.543954e+09 -1.704006e+09 9.790304e+03 7.798167e+03 7.423654e+03
-4.827982e+09 -4.627741e+09 -4.788032e+09 -5.692199e+04 8.209429e+03 -5.716793e+02
-1.773358e+09 -1.573309e+09 -1.733375e+09 8.127066e+03 1.837990e+04 1.172989e+04
-3.757772e+09 -3.557722e+09 -3.717822e+09 1.867472e+04 8.627931e+03 6.521526e+03
-2.164083e+09 -1.964067e+09 -2.124120e+09 1.460655e+04 9.132611e+03 8.040871e+03
-4.994011e+09 -4.793628e+09 -4.954003e+09 -3.866258e+04 2.673329e+04 -4.926813e+03
-4.658496e+09 -4.458242e+09 -4.618546e+09 -4.773746e+04 1.481898e+04 -1.866041e+03
-3.956225e+09 -3.755985e+09 -3.916255e+09 -1.278490e+04 3.722251e+04 -1.790766e+03
-4.993219e+09 -4.792948e+09 -4.953261e+09 2.677957e+03 1.869047e+04 -2.112830e+03
-4.996867e+09 -4.796469e+09 -4.956848e+09 4.215261e+03 2.541897e+04 -2.947499e+03
-2.430922e+09 -2.230863e+09 -2.390951e+09 1.683902e+04 1.934792e+04 1.299979e+04
-3.967103e+09 -3.766773e+09 -3.927120e+09 -1.092613e+04 4.810346e+04 2.551931e+02
-4.299436e+09 -4.099052e+09 -4.259446e+09 6.016944e+04 6.954871e+04 8.793062e+03
-4.817386e+09 -4.617414e+09 -4.777531e+09 7.931591e+04 1.168545e+04 8.482364e+02
-3.960169e+09 -3.760198e+09 -3.920270e+09 3.879647e+04 1.042902e+04 1.277163e+04
-3.977679e+09 -3.777698e+09 -3.937775e+09 3.706319e+04 8.073870e+03 6.411679e+03
-4.992819e+09 -4.792871e+09 -4.952918e+09 2.820823e+04 2.089147e+03 2.372629e+03
-4.130927e+09 -3.930947e+09 -4.091065e+09 7.806536e+04 1.372240e+04 2.532604e+04
-4.648369e+09 -4.448457e+09 -4.608523e+09 5.643039e+04 3.674913e+03 1.173108e+04
-3.972920e+09 -3.772990e+09 -3.933030e+09 2.911458e+04 5.002954e+03 1.206994e+04
-2.132232e+09 -1.932194e+09 -2.092264e+09 1.025528e+04 6.847304e+03 7.296861e+03
-4.815466e+09 -4.615543e+09 -4.775580e+09 2.237631e+04 -8.226589e+02 3.569164e+03
-1.565148e+09 -1.365077e+09 -1.525147e+09 1.080259e+03 5.291033e+04 -8.352819e+03
-2.174765e+09 -1.974636e+09 -2.134757e+09 3.615069e+03 6.184073e+04 -4.312458e+03
-2.148930e+09 -1.948824e+09 -2.108929e+09 -1.413299e+02 3.307079e+03 -3.622308e+03
-4.310964e+09 -4.111035e+09 -4.271072e+09 2.485254e+04 4.166122e+03 7.243189e+03
-4.131971e+09 -3.931936e+09 -4.092127e+09 -1.725098e+05 -3.699569e+04 2.416750e+04
-4.990323e+09 -4.790414e+09 -4.950471e+09 4.630976e+04 2.671633e+03 3.833930e+03
-4.301388e+09 -4.101497e+09 -4.261557e+09 4.828476e+04 1.042986e+04 1.867533e+04
-4.989864e+09 -4.789894e+09 -4.949968e+09 3.917957e+04 7.010805e+01 1.528571e+03
-1.888310e+09 -1.688214e+09 -1.848311e+09 -4.916150e+03 7.539940e+03 -2.481577e+03
-2.885051e+09 -2.684913e+09 -2.845067e+09 -5.178822e+03 2.793389e+04 -9.392714e+03
-4.687458e+09 -4.487530e+09 -4.647627e+09 7.550329e+04 7.585505e+03 1.192619e+04
-4.497448e+09 -4.297494e+09 -4.457546e+09 3.296132e+04 4.453143e+03 6.471087e+03
-4.800947e+09 -4.600572e+09 -4.760963e+09 -1.811340e+05 2.411011e+03 2.135977e+03
-4.301198e+09 -4.100819e+09 -4.260940e+09 -4.108160e+05 -6.516907e+04 1.895064e+04
-4.656043e+09 -4.455513e+09 -4.615810e+09 -2.855145e+05 3.108825e+04 -6.237854e+03
-4.789800e+09 -4.589825e+09 -4.749878e+09 -1.917416e+04 -3.782874e+03 -7.953331e+02
-1.595694e+09 -1.395605e+09 -1.555697e+09 -9.659300e+01 2.906320e+04 -1.617976e+03
-2.991680e+09 -2.791689e+09 -2.951736e+09 -7.276759e+03 -4.379723e+03 4.460559e+03
-4.991870e+09 -4.790901e+09 -4.950711e+09 -3.838109e+05 -5.290108e+04 1.189371e+03
-4.267800e+09 -4.066658e+09 -4.226820e+09 -2.159109e+05 -3.544098e+04 -8.937108e+04
-4.792299e+09 -4.591136e+09 -4.750863e+09 -2.167761e+05 -1.960171e+04 -1.753172e+04
-3.184467e+09 -2.984487e+09 -3.144527e+09 -6.256130e+03 -1.739935e+03 4.003296e+03
-3.286118e+09 -3.086128e+09 -3.246179e+09 -8.183228e+03 -2.679029e+03 6.482434e+03
-2.440118e+09 -2.240120e+09 -2.400174e+09 -1.124777e+04 -7.684547e+03 8.959939e+03
-4.826767e+09 -4.627072e+09 -4.787098e+09 -2.202796e+04 -4.288617e+03 6.909139e+03
-4.832843e+09 -4.633073e+09 -4.793107e+09 -4.851147e+03 -6.589911e+02 8.509960e+03
-3.336132e+09 -3.136138e+09 -3.296196e+09 -1.405842e+04 -6.967686e+03 7.807917e+03
-4.990291e+09 -4.790558e+09 -4.950578e+09 -2.347254e+04 -3.231956e+03 1.655356e+04
-4.833897e+09 -4.634214e+09 -4.794239e+09 -6.038376e+03 2.018091e+03 1.056953e+04
-3.947590e+09 -3.747844e+09 -3.907579e+09 -3.621530e+05 -3.141512e+04 4.415029e+04
-4.644829e+09 -4.445041e+09 -4.605118e+09 1.086809e+05 3.087372e+03 2.367974e+04
-5.011238e+09 -4.811606e+09 -4.971663e+09 -2.304834e+05 -1.060284e+04 1.464588e+04
-4.964412e+09 -4.764835e+09 -4.924822e+09 1.458754e+05 1.525391e+04 2.916244e+04
-4.546165e+09 -4.346565e+09 -4.506426e+09 -2.097211e+05 -3.449856e+04 4.313944e+04
-4.808831e+09 -4.608772e+09 -4.768922e+09 3.153714e+05 -1.487850e+04 -6.458148e+03
-3.931639e+09 -3.732023e+09 -3.891917e+09 -3.111747e+05 -1.866747e+04 1.006600e+04
-4.971554e+09 -4.771355e+09 -4.931494e+09 4.236469e+05 6.031316e+04 7.500092e+04
-4.645826e+09 -4.445703e+09 -4.605852e+09 3.192340e+05 -2.525381e+03 -2.656760e+03
-5.000782e+09 -4.800546e+09 -4.960805e+09 3.195569e+05 4.334856e+04 1.721594e+04
-4.281101e+09 -4.080895e+09 -4.240849e+09 4.664301e+05 -1.361275e+05 -6.021138e+04
-4.117119e+09 -3.917278e+09 -4.077212e+09 -3.764150e+05 -3.496396e+04 2.975161e+04
-3.981603e+09 -3.781968e+09 -3.942019e+09 -1.925798e+05 5.994422e+03 2.308210e+04
-4.662514e+09 -4.462346e+09 -4.622605e+09 2.681556e+05 4.907493e+02 -1.381057e+04
-4.601348e+09 -4.401587e+09 -4.561617e+09 -3.556828e+05 1.279842e+03 -5.653574e+03
-4.800503e+09 -4.600766e+09 -4.760765e+09 -2.653527e+05 8.065096e+03 2.096860e+04
-5.003949e+09 -4.803783e+09 -4.958762e+09 2.798646e+05 8.873327e+04 8.777658e+04
-2.308325e+09 -2.108295e+09 -2.268367e+09 -7.769585e+03 -6.661062e+03 9.554136e+03
-4.818089e+09 -4.617679e+09 -4.776248e+09 6.472401e+05 1.909720e+05 -6.897805e+04
-2.168581e+09 -1.968563e+09 -2.128637e+09 -3.004822e+04 -3.207751e+04 2.840453e+04
-4.586157e+09 -4.386129e+09 -4.546222e+09 -9.376692e+03 9.338031e+02 4.161730e+03
-3.950718e+09 -3.749647e+09 -3.908479e+09 4.119162e+05 1.010009e+06 4.545449e+05
-4.980259e+09 -4.779165e+09 -4.937388e+09 3.170805e+05 5.231715e+04 1.591105e+04
-2.741731e+09 -2.541710e+09 -2.701780e+09 -3.026832e+03 -2.885743e+03 1.184984e+04
-4.545754e+09 -4.344681e+09 -4.499067e+09 -2.303975e+05 9.104497e+05 -9.942908e+04
-4.322906e+09 -4.121515e+09 -4.280362e+09 1.010176e+05 3.195843e+05 -8.955759e+04
-5.004234e+09 -4.804387e+09 -4.964528e+09 3.151732e+05 5.982434e+03 1.950971e+04
-3.498142e+09 -3.298167e+09 -3.458200e+09 -1.609016e+03 -4.060562e+02 1.946511e+03
-4.302601e+09 -4.102466e+09 -4.262650e+09 3.253986e+05 4.775035e+04 5.973913e+04
-4.997588e+09 -4.797075e+09 -4.957365e+09 3.226867e+05 5.339493e+04 2.105671e+04
-4.269103e+09 -4.068815e+09 -4.229023e+09 3.605772e+05 6.415545e+04 7.477911e+03
-4.459695e+09 -4.259728e+09 -4.419755e+09 -1.819467e+03 -4.890671e+02 6.902200e+02
-3.564257e+09 -3.364298e+09 -3.524325e+09 -7.875926e+03 -1.682473e+03 2.148530e+03
-4.427703e+09 -4.227740e+09 -4.387769e+09 -6.647039e+03 -5.482084e+02 7.743867e+02
-4.451602e+09 -4.251643e+09 -4.411665e+09 -7.992119e+02 -5.839086e+02 1.848496e+02
-4.272924e+09 -4.072752e+09 -4.232664e+09 4.958528e+05 -2.953421e+04 -5.918579e+04
-4.971374e+09 -4.771373e+09 -4.931456e+09 4.405102e+05 3.193226e+04 3.707485e+04
-1.636311e+09 -1.436325e+09 -1.596354e+09 -4.509770e+01 -7.197887e+04 -2.537324e+03
-1.583290e+09 -1.383323e+09 -1.543350e+09 -2.874102e+03 -6.660247e+02 1.553685e+03
-2.585455e+09 -2.385527e+09 -2.545615e+09 5.802536e+03 -6.649033e+04 -3.196888e+03
-1.611552e+09 -1.411560e+09 -1.571538e+09 -5.527976e+02 -1.090378e+05 -9.037120e+04
-1.951091e+09 -1.751127e+09 -1.911152e+09 -2.433554e+03 -1.039291e+03 3.855867e+02
-3.323865e+09 -3.123897e+09 -3.283923e+09 -1.474646e+03 -4.682003e+02 6.952697e+02
-2.187277e+09 -1.987309e+09 -2.147335e+09 1.151772e+03 -2.711504e+02 -1.688178e+02
-4.963103e+09 -4.763749e+09 -4.923732e+09 2.533737e+04 1.233909e+03 -8.849022e+03
-3.848294e+09 -3.648773e+09 -3.808799e+09 2.251197e+04 -2.714640e+04 1.346270e+04
-3.975223e+09 -3.775810e+09 -3.935816e+09 1.276183e+04 -1.775439e+04 -3.562945e+04
-1.561222e+09 -1.361301e+09 -1.521228e+09 -1.642853e+04 -5.996638e+04 -1.252001e+05
-4.820869e+09 -4.619928e+09 -4.780257e+09 1.497954e+05 -1.050880e+05 1.757947e+04
-4.820620e+09 -4.619756e+09 -4.780163e+09 8.111389e+04 6.045425e+04 -7.281976e+03
-2.858554e+09 -2.658484e+09 -2.818577e+09 9.883059e+02 3.189257e+03 -1.511218e+03
-3.885703e+09 -3.685631e+09 -3.845733e+09 1.166413e+01 3.761402e+03 7.122828e+02
-4.809494e+09 -4.608643e+09 -4.769054e+09 -8.677850e+04 2.689594e+04 -1.916858e+04
-3.943638e+09 -3.743562e+09 -3.903670e+09 -2.156732e+03 2.937230e+03 -2.374728e+03
-3.091140e+09 -2.891074e+09 -3.051167e+09 -1.001311e+03 9.092842e+03 -8.669791e+02
-1.686789e+09 -1.486741e+09 -1.646820e+09 5.698655e+03 -5.313774e+04 -2.851481e+04
-3.322568e+09 -3.122492e+09 -3.282616e+09 3.498856e+03 -8.197563e+03 -6.490017e+03
-4.312830e+09 -4.112314e+09 -4.272637e+09 -2.885622e+05 -9.083941e+04 1.209099e+04
-4.134401e+09 -3.933521e+09 -4.093713e+09 1.343866e+05 8.664544e+04 -2.140996e+04
-1.635453e+09 -1.435421e+09 -1.595484e+09 2.173779e+02 -4.432580e+04 -2.065375e+03
-3.961382e+09 -3.760502e+09 -3.920753e+09 1.807878e+05 2.625583e+04 4.665854e+04
-1.594504e+09 -1.394470e+09 -1.554532e+09 2.450329e+03 -5.595984e+04 -2.430744e+04
-4.269774e+09 -4.068676e+09 -4.228993e+09 -6.069720e+04 1.221857e+04 -1.344347e+04
-1.625866e+09 -1.425820e+09 -1.585889e+09 1.169591e+02 -4.169021e+04 -1.905744e+04
-2.089564e+09 -1.889520e+09 -2.049602e+09 1.890589e+03 -3.565813e+04 -2.658954e+03
-3.964460e+09 -3.763486e+09 -3.923712e+09 -3.947661e+04 5.469683e+04 1.416852e+04
-3.335457e+09 -3.135375e+09 -3.295511e+09 -2.271666e+04 2.805772e+04 -1.307636e+04
-4.975144e+09 -4.775045e+09 -4.935203e+09 -3.056695e+04 4.667930e+03 -2.598816e+03
-4.084614e+09 -3.884523e+09 -4.044646e+09 -7.140101e+03 5.817212e+03 -5.691721e+03
-3.828559e+09 -3.628425e+09 -3.788590e+09 9.139642e+03 9.217668e+03 8.364986e+02
-4.706883e+09 -4.506736e+09 -4.666916e+09 3.048449e+03 5.077548e+02 3.092805e+03
-4.451453e+09 -4.251365e+09 -4.411505e+09 -1.920265e+04 7.327140e+03 -3.712501e+03
-2.691639e+09 -2.491561e+09 -2.651659e+09 -1.165225e+03 3.201191e+03 -5.819898e+03
-4.706793e+09 -4.506715e+09 -4.666840e+09 -1.045345e+04 4.069824e+03 -6.126797e+02
-4.479255e+09 -4.279168e+09 -4.439304e+09 -2.259192e+04 7.700143e+03 -3.346048e+03
-4.093901e+09 -3.893817e+09 -4.053956e+09 -1.878299e+04 1.500757e+04 -8.829025e+03
-2.761117e+09 -2.561023e+09 -2.721133e+09 9.982214e+02 3.437454e+03 4.093304e+03
-3.197589e+09 -2.997621e+09 -3.157649e+09 -2.732102e+03 -5.995560e+02 1.087816e+03
-3.611653e+09 -3.411677e+09 -3.571716e+09 -7.003077e+03 -2.279471e+03 3.126220e+03
-2.576776e+09 -2.376686e+09 -2.536792e+09 3.253707e+03 5.303224e+03 4.566364e+03
-4.969102e+09 -4.768984e+09 -4.929145e+09 2.083315e+04 6.459858e+03 2.165936e+03
-4.423404e+09 -4.223289e+09 -4.383443e+09 4.511952e+03 1.123444e+03 3.445254e+03
-3.862041e+09 -3.662011e+09 -3.822101e+09 3.009178e+04 1.250944e+04 7.199163e+03
-4.174578e+09 -3.974599e+09 -4.134642e+09 -7.342743e+03 -1.914032e+03 2.191130e+03
-4.217508e+09 -4.017412e+09 -4.177566e+09 3.201513e+04 1.954771e+04 1.091989e+04
-3.478459e+09 -3.278467e+09 -3.438517e+09 -4.401457e+03 -2.328480e+03 4.671201e+03
-1.906917e+09 -1.706957e+09 -1.866979e+09 -1.111729e+03 -2.564449e+02 6.088152e+01
-1.967477e+09 -1.767514e+09 -1.927538e+09 -7.288077e+02 -1.402174e+02 2.020911e+02
-1.931563e+09 -1.731601e+09 -1.891624e+09 -2.275233e+02 -1.979540e+02 3.675882e+02
-1.584854e+09 -1.384892e+09 -1.544915e+09 -1.691434e+03 -3.900455e+02 6.048135e+02
-1.584853e+09 -1.384889e+09 -1.544915e+09 -1.333084e+03 -2.650615e+02 6.584473e+02
-2.932091e+09 -2.732126e+09 -2.892150e+09 -8.371498e+02 -9.788298e+01 3.921818e+01
-4.491265e+09 -4.291275e+09 -4.451329e+09 -5.502404e+03 -5.531362e+02 2.656914e+03
-2.136236e+09 -1.936249e+09 -2.096288e+09 -1.716524e+03 -7.904510e+02 2.690694e+03
-2.904828e+09 -2.704855e+09 -2.864884e+09 -1.374691e+03 -2.328177e+02 1.261692e+03
-2.214323e+09 -2.014254e+09 -2.174345e+09 1.940760e+03 -8.683605e+03 -6.688801e+03
-2.550657e+09 -2.350695e+09 -2.510718e+09 -2.610540e+03 -8.227836e+02 1.193300e+01
-3.683663e+09 -3.483674e+09 -3.643727e+09 -8.009810e+03 -4.408365e+03 5.934653e+03
-1.613758e+09 -1.413690e+09 -1.573774e+09 2.747189e+03 -4.034424e+04 -1.816606e+04
-4.822017e+09 -4.622114e+09 -4.782312e+09 9.730825e+04 -2.583608e+04 -1.564797e+04
-4.986251e+09 -4.786443e+09 -4.946613e+09 1.293556e+05 -1.599586e+04 -1.479227e+04
-3.060181e+09 -2.860291e+09 -3.020411e+09 1.113666e+05 -5.134319e+04 -4.749094e+04
-4.229415e+09 -4.029504e+09 -4.189689e+09 1.398486e+05 -4.881755e+04 -3.354607e+04
-3.567075e+09 -3.367058e+09 -3.527133e+09 -2.061364e+03 -2.147581e+03 9.586982e+03
-3.446792e+09 -3.246682e+09 -3.406839e+09 3.015295e+03 -3.709736e+03 -1.277079e+04
-2.751042e+09 -2.550976e+09 -2.711085e+09 1.726034e+03 -1.608815e+04 -7.347432e+03
-2.845358e+09 -2.645279e+09 -2.805389e+09 1.077697e+03 -4.670175e+03 -1.099311e+04
-4.985187e+09 -4.785200e+09 -4.945252e+09 1.663397e+04 -1.413166e+02 -1.542734e+02
-3.429272e+09 -3.229273e+09 -3.389320e+09 1.222302e+03 5.495875e+02 2.581914e+03
-3.956225e+09 -3.756192e+09 -3.916272e+09 3.292845e+03 1.338562e+03 4.174196e+03
-4.008916e+09 -3.808900e+09 -3.968985e+09 -1.620299e+04 -5.967231e+03 4.675262e+03
-3.865741e+09 -3.665737e+09 -3.825824e+09 -3.483341e+04 -1.250319e+04 1.105785e+04
-2.037288e+09 -1.837285e+09 -1.997334e+09 -7.031126e+03 -5.924677e+03 8.986704e+03
-1.674079e+09 -1.474057e+09 -1.634114e+09 1.255119e+04 1.812306e+04 1.591943e+04
-4.814383e+09 -4.614384e+09 -4.774463e+09 -2.459742e+04 -1.132314e+03 4.144436e+03
-3.871630e+09 -3.671652e+09 -3.831703e+09 -1.836945e+04 -5.020924e+03 6.126691e+03
-2.206899e+09 -2.006864e+09 -2.166930e+09 3.010522e+03 4.002948e+03 5.096211e+03
-3.957184e+09 -3.757205e+09 -3.917282e+09 -3.954976e+04 -1.172156e+04 1.365417e+04
-4.761256e+09 -4.561235e+09 -4.721355e+09 -4.759766e+04 -7.984577e+03 -3.558069e+02
-4.588704e+09 -4.388695e+09 -4.548797e+09 -3.683278e+04 -6.824795e+03 4.499174e+03
-2.088442e+09 -1.888477e+09 -2.048501e+09 -1.213012e+03 -5.703536e+02 4.732656e+02
-2.694889e+09 -2.494881e+09 -2.654986e+09 3.692061e+04 -5.640680e+04 -1.843506e+04
-4.671414e+09 -4.471449e+09 -4.631500e+09 -2.186062e+04 -2.426640e+03 2.998258e+03
-3.414600e+09 -3.214541e+09 -3.374734e+09 8.808326e+04 -7.016726e+04 -4.599593e+04
-2.162636e+09 -1.962708e+09 -2.122761e+09 5.896442e+03 -6.597902e+04 8.218498e+01
-2.628104e+09 -2.428222e+09 -2.588289e+09 1.201562e+05 -5.489123e+04 -4.940724e+04
-3.493639e+09 -3.293741e+09 -3.453886e+09 3.076843e+04 -4.733020e+04 -1.115072e+04
-1.611551e+09 -1.411568e+09 -1.571518e+09 -7.644742e+03 -8.573253e+04 -8.937681e+04
-3.565311e+09 -3.365785e+09 -3.525754e+09 2.562709e+04 -1.543548e+04 -3.305211e+04
-1.592960e+09 -1.392978e+09 -1.552940e+09 -5.635068e+03 -7.722890e+04 -6.347244e+04
-4.325214e+09 -4.125261e+09 -4.285283e+09 -3.505441e+03 -7.559036e+02 1.135290e+03
-3.674625e+09 -3.474687e+09 -3.634706e+09 -7.225734e+03 -1.114563e+03 3.377479e+03
-3.285300e+09 -3.085362e+09 -3.245381e+09 -6.967110e+03 -1.836675e+03 4.243199e+03
-1.921610e+09 -1.721763e+09 -1.881652e+09 -2.014495e+04 -7.286742e+04 -7.563144e+04
-4.002068e+09 -3.802557e+09 -3.962579e+09 7.089573e+04 -3.117696e+04 -4.583376e+04
-3.006370e+09 -2.806879e+09 -2.966862e+09 -1.847529e+03 1.665019e+04 4.300890e+03
-4.024679e+09 -3.824869e+09 -3.985011e+09 5.016416e+04 -4.284169e+04 -1.283149e+04
-3.890714e+09 -3.690730e+09 -3.850901e+09 2.330786e+04 -3.676040e+04 -5.830273e+03
-2.258689e+09 -2.058635e+09 -2.218724e+09 3.051141e+03 -2.681697e+04 -2.052051e+03
-2.899499e+09 -2.699547e+09 -2.859568e+09 -6.351807e+03 -1.519317e+03 3.461042e+03
-3.644043e+09 -3.443959e+09 -3.604096e+09 3.485003e+03 -1.858818e+03 -7.385263e+03
-3.306105e+09 -3.106033e+09 -3.266168e+09 1.447061e+04 -2.109797e+04 -7.923931e+03
-3.648735e+09 -3.448807e+09 -3.608823e+09 -3.826376e+03 -6.371192e+02 3.525508e+03
-4.348763e+09 -4.148697e+09 -4.308838e+09 5.664282e+03 -8.231469e+03 -2.233240e+03
-3.866218e+09 -3.666142e+09 -3.826270e+09 1.180029e+03 -8.487192e+02 -2.622668e+03
-4.150168e+09 -3.950206e+09 -4.110252e+09 -2.191487e+04 -1.586945e+03 8.626410e+03
-4.785468e+09 -4.585533e+09 -4.745552e+09 -5.361741e+03 -8.898473e+02 5.676118e+02
-2.909228e+09 -2.709292e+09 -2.869307e+09 -3.686470e+03 -9.645105e+02 3.659359e+03
-3.980389e+09 -3.780456e+09 -3.940472e+09 -1.130656e+03 -7.655102e+02 8.621233e+02
-4.979654e+09 -4.779728e+09 -4.939748e+09 -5.915160e+03 4.122375e+02 3.403064e+02
-4.640346e+09 -4.440417e+09 -4.600444e+09 -1.181185e+04 -5.111853e+02 2.942781e+03
-3.727541e+09 -3.527471e+09 -3.687629e+09 2.140932e+04 -2.375331e+04 -1.452171e+04
-1.940924e+09 -1.740856e+09 -1.900945e+09 2.337723e+03 -5.580111e+03 -1.167365e+03
-2.974011e+09 -2.774087e+09 -2.934106e+09 -8.066120e+03 -3.936399e+03 1.193386e+04
-1.636093e+09 -1.436029e+09 -1.596106e+09 1.599568e+03 4.854605e+03 7.508644e+03
-3.437023e+09 -3.237094e+09 -3.397107e+09 -1.825399e+03 -8.743372e+02 1.858100e+03
-3.201288e+09 -3.001350e+09 -3.161371e+09 -8.510261e+03 -4.285037e+03 7.183416e+03
-4.316621e+09 -4.116424e+09 -4.276668e+09 5.234413e+04 2.792445e+04 1.115575e+04
-1.825743e+09 -1.625651e+09 -1.785753e+09 6.555894e+03 1.876007e+04 7.435264e+03
-4.082829e+09 -3.882835e+09 -4.042888e+09 1.454804e+04 3.981429e+03 1.017905e+03
-4.195356e+09 -3.995362e+09 -4.155408e+09 7.753518e+03 1.042102e+03 9.051630e+02
-1.698563e+09 -1.498587e+09 -1.658567e+09 1.428169e+03 -8.933008e+04 -1.144747e+05
-4.125960e+09 -3.925968e+09 -4.086028e+09 2.286366e+04 6.488439e+03 2.011112e+03
-4.277500e+09 -4.077514e+09 -4.237562e+09 1.522875e+04 1.674712e+03 2.298676e+03
-3.425704e+09 -3.225720e+09 -3.385761e+09 1.038963e+04 2.273030e+03 2.175547e+03
-1.674055e+09 -1.474066e+09 -1.634103e+09 8.181556e+03 4.460367e+03 3.882736e+03
-4.598249e+09 -4.398264e+09 -4.558307e+09 1.131120e+04 9.435802e+02 8.810895e+02
-3.995010e+09 -3.795110e+09 -3.955128e+09 3.568699e+03 1.334774e+03 8.551433e+03
-3.181184e+09 -2.981233e+09 -3.141257e+09 -8.809587e+03 -1.596859e+03 4.133681e+03
-2.286864e+09 -2.086877e+09 -2.246917e+09 1.024231e+04 2.190692e+03 3.054584e+03
-4.099340e+09 -3.899397e+09 -4.059424e+09 -1.253737e+04 -3.424043e+03 3.638439e+03
-4.981298e+09 -4.781364e+09 -4.941384e+09 -6.393964e+03 -6.031765e+02 1.568691e+03
-4.792137e+09 -4.592165e+09 -4.752204e+09 -1.084752e+04 -1.519671e+02 1.771469e+03
-2.900362e+09 -2.700387e+09 -2.860430e+09 -1.219005e+04 -6.158426e+03 9.236966e+03
-3.914692e+09 -3.714746e+09 -3.874769e+09 -7.558001e+03 -2.169439e+03 2.131162e+03
-3.588906e+09 -3.388935e+09 -3.548970e+09 -7.737870e+03 -9.158781e+02 3.985370e+03
-3.405337e+09 -3.205351e+09 -3.365401e+09 -1.786654e+04 -7.595154e+03 7.431470e+03
-1.885972e+09 -1.685988e+09 -1.846029e+09 -1.384181e+04 -1.002298e+04 1.032631e+04
-4.982533e+09 -4.782593e+09 -4.942619e+09 -9.246755e+03 -6.522950e+02 1.079921e+02
-4.137389e+09 -3.936762e+09 -4.097133e+09 -7.051504e+04 9.671716e+03 -1.858533e+04
-3.017355e+09 -2.817432e+09 -2.977444e+09 -2.279204e+03 -7.689981e+02 4.389695e+03
-1.690699e+09 -1.490773e+09 -1.650781e+09 -7.989072e+02 -7.249344e+02 1.772259e+03
-3.971259e+09 -3.770608e+09 -3.931000e+09 -9.171009e+04 2.962515e+04 1.607609e+04
-4.138073e+09 -3.937523e+09 -4.097854e+09 -1.771905e+05 3.496316e+04 -9.996332e+03
-5.000776e+09 -4.800226e+09 -4.960656e+09 -1.498465e+05 3.780323e+04 -2.653912e+04
-4.661759e+09 -4.461225e+09 -4.621683e+09 -9.680467e+04 1.491313e+04 3.426033e+03
-1.675027e+09 -1.475103e+09 -1.635110e+09 -2.215457e+02 -2.502095e+02 2.077761e+03
-4.897023e+09 -4.697060e+09 -4.857082e+09 -2.727136e+02 2.574354e+01 -1.253944e-07
-4.907887e+09 -4.707927e+09 -4.867949e+09 -5.952066e+02 1.054050e+02 -1.120317e-06
-4.986999e+09 -4.786313e+09 -4.946797e+09 -4.989328e+04 5.443454e+04 -1.524455e+04
-4.127293e+09 -3.926629e+09 -4.087015e+09 3.351667e+04 1.441408e+04 -1.035687e+04
-2.123527e+09 -1.923584e+09 -2.083599e+09 2.193529e+03 1.102351e+03 1.468662e+03
-2.592453e+09 -2.392494e+09 -2.552517e+09 8.064697e+02 8.605862e+02 4.332219e+02
-4.211480e+09 -4.011558e+09 -4.171581e+09 1.109042e+04 1.999023e+03 5.194424e+03
-4.443825e+09 -4.243880e+09 -4.403900e+09 1.239411e+03 7.490730e+02 3.697416e+02
-2.474478e+09 -2.274542e+09 -2.434557e+09 4.973759e+03 2.052277e+03 3.220803e+03
-3.966282e+09 -3.766339e+09 -3.926362e+09 8.199098e+03 2.172767e+03 2.050836e+03
-3.812491e+09 -3.612548e+09 -3.772573e+09 9.648185e+03 1.319124e+03 4.081471e+03
-4.588313e+09 -4.388358e+09 -4.548380e+09 -1.076669e+03 -5.755949e+02 6.587759e+01
-4.892178e+09 -4.692229e+09 -4.852248e+09 -1.128224e+03 2.791695e+02 -5.624387e-06
-4.634339e+09 -4.434435e+09 -4.594470e+09 1.801611e+04 6.464105e+02 5.294273e+03
-4.984979e+09 -4.785058e+09 -4.945089e+09 1.602031e+04 1.138802e+03 1.201279e+03
-4.610423e+09 -4.410488e+09 -4.570518e+09 1.292779e+04 4.215550e+02 2.833245e+03
-3.350746e+09 -3.150796e+09 -3.310815e+09 -6.720096e+02 -1.109829e+03 2.840724e+02
-3.319130e+09 -3.119177e+09 -3.279199e+09 -5.260841e+03 -1.713379e+03 1.601233e+03
-1.942734e+09 -1.742807e+09 -1.902815e+09 -5.063685e+02 -1.032945e+03 1.209601e+03
-1.900650e+09 -1.700710e+09 -1.860723e+09 -2.857134e+03 -1.404828e+03 2.567864e+03
-1.938372e+09 -1.738445e+09 -1.898453e+09 -7.135821e+02 5.442633e+01 1.502327e+03
-3.717777e+09 -3.517814e+09 -3.677843e+09 -5.815692e+03 -1.259327e+03 1.292537e+03
-1.888553e+09 -1.688570e+09 -1.848606e+09 -2.248566e+03 -1.540788e+03 3.228640e+03
-3.048437e+09 -2.848481e+09 -3.008504e+09 -4.347162e+03 -8.097329e+02 2.178237e+03
-3.216047e+09 -3.016092e+09 -3.176116e+09 -5.712698e+03 -1.405083e+03 2.708273e+03
-4.438732e+09 -4.238777e+09 -4.398802e+09 -5.607854e+03 -7.396704e+02 1.232194e+03
-4.196497e+09 -3.996515e+09 -4.156569e+09 -1.787015e+04 -2.940500e+03 4.017051e+03
-4.942375e+09 -4.742406e+09 -4.902441e+09 -7.668785e+03 3.074299e+02 3.398726e+02
-2.574405e+09 -2.374428e+09 -2.534462e+09 -9.017210e+02 -5.903493e+02 2.214970e+03
-3.082643e+09 -2.882699e+09 -3.042719e+09 -6.150755e+03 -3.085565e+03 3.592299e+03
-3.366830e+09 -3.166851e+09 -3.326889e+09 -1.415126e+03 -4.481190e+02 3.316904e+03
-4.429883e+09 -4.229937e+09 -4.389956e+09 -1.270217e+03 -7.455942e+02 2.610642e+02
-3.369818e+09 -3.169830e+09 -3.329876e+09 -1.742173e+03 -6.712948e+02 4.964231e+03
-2.914230e+09 -2.714262e+09 -2.874288e+09 8.296912e+02 -1.069253e+02 1.752415e+02
-2.060199e+09 -1.860250e+09 -2.020268e+09 4.058123e+03 1.147328e+03 2.010545e+03
-2.553644e+09 -2.353680e+09 -2.513704e+09 -1.605028e+03 -5.340718e+02 4.047565e+02
-2.851550e+09 -2.651581e+09 -2.811607e+09 -1.256501e+02 -2.788219e+02 6.639647e+02
-2.750190e+09 -2.550212e+09 -2.710246e+09 -6.901138e+02 -6.179480e+02 1.802963e+03
-3.323217e+09 -3.123242e+09 -3.283275e+09 -9.135669e+02 -2.668550e+02 2.097511e+03
-2.608216e+09 -2.408271e+09 -2.568288e+09 9.558641e+02 1.293882e+03 7.882791e+02
-2.849086e+09 -2.649146e+09 -2.809161e+09 7.156559e+02 1.120454e+03 9.111894e+02
-3.008149e+09 -2.808165e+09 -2.968205e+09 -3.837819e+03 4.149417e+02 3.125708e+03
-3.749169e+09 -3.549192e+09 -3.709227e+09 -1.179364e+03 -2.860171e+02 1.023326e+03
-2.559051e+09 -2.359064e+09 -2.519105e+09 -1.679348e+03 -8.193646e+02 4.673367e+03
-4.977912e+09 -4.777835e+09 -4.937963e+09 1.720891e+04 2.350079e+03 2.405386e+03
-4.503738e+09 -4.303604e+09 -4.463804e+09 4.119372e+04 1.762461e+04 6.499487e+03
-4.210772e+09 -4.010700e+09 -4.170824e+09 2.786186e+04 8.188701e+03 7.424442e+03
-4.624340e+09 -4.424256e+09 -4.584405e+09 3.976021e+04 1.022206e+04 3.514105e+03
-4.457752e+09 -4.257468e+09 -4.417795e+09 -1.957858e+04 -3.249680e+04 3.610135e+02
-1.674138e+09 -1.474058e+09 -1.634145e+09 1.023233e+03 -9.204960e+04 -2.582498e+04
-4.453605e+09 -4.253512e+09 -4.413667e+09 4.078847e+04 1.400503e+04 7.246843e+03
-4.268695e+09 -4.068563e+09 -4.228772e+09 6.582175e+04 2.805620e+04 9.124743e+03
-3.914159e+09 -3.714121e+09 -3.874242e+09 -4.246712e+04 -1.851953e+04 1.076777e+04
-4.892129e+09 -4.692022e+09 -4.852193e+09 -6.872906e+03 -6.205581e-05 9.108891e+02
-4.982681e+09 -4.782610e+09 -4.942755e+09 -3.546863e+04 3.585808e+03 3.740154e+03
-4.275806e+09 -4.075758e+09 -4.235906e+09 -6.281787e+04 -1.383362e+04 1.013042e+04
-4.818250e+09 -4.618393e+09 -4.778450e+09 -4.882997e+04 9.586010e+02 7.682531e+03
-4.603394e+09 -4.403351e+09 -4.563484e+09 -4.782183e+04 -8.497674e+03 6.887858e+03
-3.966385e+09 -3.766443e+09 -3.926474e+09 -1.433141e+04 -2.301193e+03 5.669965e+03
-4.772256e+09 -4.572314e+09 -4.732339e+09 -1.017849e+04 -1.314105e+03 7.363691e+02
-4.801978e+09 -4.601926e+09 -4.762085e+09 -6.353581e+04 -1.202619e+04 3.530746e+03
-3.394763e+09 -3.194716e+09 -3.354818e+09 -7.488937e+03 -7.179242e+03 1.274851e+04
-4.194633e+09 -3.995342e+09 -4.155205e+09 -3.686546e+04 3.264278e+03 -7.502311e+04
-4.992417e+09 -4.793547e+09 -4.952664e+09 6.740227e+04 2.315484e+03 -3.844417e+04
-3.955530e+09 -3.756663e+09 -3.915289e+09 1.045089e+05 2.761231e+04 2.251171e+05
-4.993332e+09 -4.794172e+09 -4.953932e+09 4.190584e+04 -4.380268e+03 -6.725265e+04
-1.699242e+09 -1.499241e+09 -1.659276e+09 -1.647058e+03 9.389131e+04 -5.593042e+04
-4.808042e+09 -4.608098e+09 -4.768298e+09 -1.280875e+05 1.302257e+04 -6.330664e+02
-4.106716e+09 -3.906646e+09 -4.066861e+09 -9.574011e+04 4.351604e+04 -1.711904e+04
-4.993766e+09 -4.793702e+09 -4.953949e+09 -1.497306e+05 1.359225e+04 -3.309541e+03
-3.673781e+09 -3.473738e+09 -3.633842e+09 -5.086397e+03 -7.697383e+02 9.675313e+03
-4.458770e+09 -4.258703e+09 -4.418863e+09 -5.631046e+04 -1.523998e+04 9.993357e+03
-4.614362e+09 -4.414158e+09 -4.574428e+09 -2.641395e+04 -1.238402e+04 1.527290e+03
-4.051964e+09 -3.851912e+09 -4.012053e+09 -4.611453e+04 -2.035401e+04 9.558013e+03
-4.659443e+09 -4.459199e+09 -4.619515e+09 -6.255717e+04 -8.086842e+03 4.502980e+02
-3.954758e+09 -3.754476e+09 -3.914800e+09 -6.091025e+04 -2.861970e+04 1.721873e+04
-1.885291e+09 -1.685218e+09 -1.845308e+09 9.640796e+03 -9.340979e+03 -1.409091e+04
-3.970811e+09 -3.770634e+09 -3.930870e+09 -6.367033e+04 -1.789021e+04 1.374258e+04
-2.667128e+09 -2.466982e+09 -2.627161e+09 -8.510267e+03 -3.509242e+04 1.500274e+04
-2.344944e+09 -2.144856e+09 -2.304965e+09 -1.677766e+04 2.855631e+04 -1.177498e+04
-4.481101e+09 -4.280765e+09 -4.441129e+09 -1.849206e+04 -3.391202e+04 3.610460e+03
-4.485591e+09 -4.285189e+09 -4.445600e+09 -2.077358e+04 -3.387874e+04 2.719767e+03
-2.158356e+09 -1.958282e+09 -2.118377e+09 -1.377677e+04 2.264285e+04 -1.096451e+04
-1.647694e+09 -1.447711e+09 -1.607745e+09 1.554693e+03 2.584413e+02 4.986823e+02
-4.997984e+09 -4.798044e+09 -4.958118e+09 -4.773700e+04 -2.059942e+03 4.677387e+03
-3.977386e+09 -3.777433e+09 -3.937485e+09 -3.215145e+04 -8.157652e+03 1.155653e+04
-2.160996e+09 -1.960918e+09 -2.121007e+09 -2.115877e+03 5.811304e+03 -7.448649e+03
-4.502519e+09 -4.302592e+09 -4.462660e+09 -4.297046e+04 -5.823070e+03 1.166655e+04
-3.970081e+09 -3.770174e+09 -3.930200e+09 -1.160324e+04 -1.851131e+03 1.004361e+04
-4.824846e+09 -4.624998e+09 -4.785033e+09 -1.945993e+04 -9.446000e+02 5.189772e+03
-4.824394e+09 -4.624517e+09 -4.784552e+09 -2.142048e+04 -2.764523e+03 6.943339e+03
-3.967820e+09 -3.767938e+09 -3.927974e+09 -1.714637e+04 -3.085937e+03 1.707573e+04
-3.694463e+09 -3.494374e+09 -3.654490e+09 -1.951660e+03 2.399844e+03 -4.945729e+03
-4.157996e+09 -3.958118e+09 -4.118145e+09 -9.328144e+03 -2.247928e+03 1.290132e+04
-4.882831e+09 -4.682715e+09 -4.842882e+09 -2.695954e+04 7.242781e+03 -3.242252e+03
-3.371353e+09 -3.171282e+09 -3.331425e+09 -3.190196e+04 3.384354e+04 -1.345522e+04
-3.439700e+09 -3.239601e+09 -3.399737e+09 -1.186704e+04 2.804921e+04 -1.338158e+04
-4.975151e+09 -4.775059e+09 -4.935208e+09 -2.136284e+04 2.756824e+03 -2.339927e+03
-4.806336e+09 -4.606268e+09 -4.766420e+09 -2.322876e+04 6.335549e+03 -2.067821e+02
-4.138773e+09 -3.938548e+09 -4.098856e+09 2.425827e+05 6.157369e+04 4.463553e+04
-2.673582e+09 -2.473509e+09 -2.633606e+09 -5.848814e+03 1.445797e+04 -5.063921e+03
-4.654526e+09 -4.454626e+09 -4.614427e+09 5.190534e+05 8.150629e+04 3.835454e+04
-3.962063e+09 -3.761938e+09 -3.922169e+09 1.331088e+05 3.557113e+04 1.759935e+04
-4.129701e+09 -3.929532e+09 -4.089810e+09 1.627946e+05 4.705004e+04 3.591953e+04
-4.991759e+09 -4.791656e+09 -4.951882e+09 1.200095e+05 6.499723e+03 1.211737e+04
-4.311261e+09 -4.111364e+09 -4.271102e+09 5.218403e+05 2.460282e+04 2.192003e+03
-4.131071e+09 -3.930378e+09 -4.090759e+09 1.473739e+04 -6.195017e+03 -1.041716e+04
-4.159402e+09 -3.958980e+09 -4.119273e+09 2.161620e+05 -1.739770e+04 -1.150356e+04
-4.481917e+09 -4.281353e+09 -4.441680e+09 2.463249e+05 -3.498374e+04 -7.337773e+03
-4.845864e+09 -4.645394e+09 -4.805790e+09 2.259316e+05 -6.930514e+04 -3.406810e+04
-4.988927e+09 -4.788997e+09 -4.948082e+09 5.763575e+05 -5.845207e+04 3.454333e+02
-4.658549e+09 -4.458872e+09 -4.618115e+09 5.112204e+05 3.206495e+04 5.408443e+04
-4.146776e+09 -3.947145e+09 -4.106580e+09 4.609124e+05 -1.189359e+04 1.305618e+05
-4.122368e+09 -3.922857e+09 -4.081317e+09 6.309785e+05 1.052977e+05 3.835158e+05
-4.293582e+09 -4.093820e+09 -4.251750e+09 7.097089e+05 3.012486e+04 2.035219e+05
-4.134869e+09 -3.934351e+09 -4.094770e+09 4.184847e+04 -4.160915e+04 -1.134984e+04
-4.814241e+09 -4.614943e+09 -4.773627e+09 5.128535e+05 -1.163575e+04 2.484708e+05
-3.972804e+09 -3.773114e+09 -3.932816e+09 4.676697e+05 1.041616e+05 4.664502e+04
-4.817498e+09 -4.616849e+09 -4.776508e+09 5.110976e+05 9.317886e+04 -6.461814e+04
-4.130332e+09 -3.930017e+09 -4.089541e+09 5.640087e+05 1.078187e+05 -4.860873e+04
-4.331982e+09 -4.132883e+09 -4.292137e+09 3.607624e+05 -1.193080e+04 2.754164e+04
-4.473416e+09 -4.275048e+09 -4.432681e+09 -1.733392e+05 3.396618e+04 2.371425e+05
-2.821396e+09 -2.621339e+09 -2.781450e+09 3.454618e+03 -2.819212e+04 -4.560585e+03
-3.966577e+09 -3.766617e+09 -3.926756e+09 1.555505e+05 4.390030e+04 4.656161e+04
-3.953919e+09 -3.754050e+09 -3.914140e+09 1.542416e+05 3.626035e+04 5.457886e+04
-4.651229e+09 -4.451219e+09 -4.611440e+09 2.138572e+05 1.706546e+04 7.160714e+03
-2.687743e+09 -2.487675e+09 -2.647778e+09 2.764836e+03 -5.997225e+03 -5.990175e+03
-3.847159e+09 -3.647102e+09 -3.807253e+09 2.157514e+04 -2.371657e+04 -1.144172e+04
-4.442421e+09 -4.242323e+09 -4.402519e+09 4.408508e+04 -1.582512e+04 -7.459477e+03
-3.966494e+09 -3.766547e+09 -3.926729e+09 2.034770e+05 3.987526e+04 3.151494e+04
-4.133557e+09 -3.934317e+09 -4.093626e+09 -1.570834e+05 5.313520e+04 -8.820532e+04
-2.255781e+09 -2.055710e+09 -2.215811e+09 2.108153e+04 -5.058337e+04 -2.845133e+04
-4.406475e+09 -4.206420e+09 -4.366581e+09 1.339766e+04 -1.232442e+04 -7.353788e+02
-4.976749e+09 -4.776680e+09 -4.936875e+09 6.229294e+04 -1.681384e+04 -7.366978e+03
-4.323661e+09 -4.123529e+09 -4.283705e+09 2.880977e+04 1.830165e+04 3.993734e+03
-4.315099e+09 -4.114832e+09 -4.275135e+09 7.312853e+04 4.714080e+04 1.101509e+04
-3.859210e+09 -3.659132e+09 -3.819319e+09 4.909308e+04 -2.505942e+04 -1.482209e+04
-3.509436e+09 -3.309270e+09 -3.469466e+09 3.299298e+04 5.079160e+04 1.234669e+04
-4.493482e+09 -4.293534e+09 -4.453555e+09 3.588820e+03 5.821359e+02 8.138502e+02
-4.811790e+09 -4.611880e+09 -4.771909e+09 1.594035e+04 2.906831e+03 2.528485e+03
-4.125331e+09 -3.925416e+09 -4.085445e+09 1.536183e+04 8.360130e+02 9.732934e+03
-4.979268e+09 -4.779414e+09 -4.939200e+09 -4.046267e+05 3.277382e+04 -1.446410e+04
-4.892305e+09 -4.692254e+09 -4.852398e+09 -5.262286e+03 4.540242e+03 -4.266432e-04
-3.469014e+09 -3.268840e+09 -3.429057e+09 -6.326730e+04 -7.162857e+04 2.786293e+04
-2.583599e+09 -2.383473e+09 -2.543625e+09 -9.073995e+03 -3.105524e+04 6.794073e+03
-3.659666e+09 -3.459458e+09 -3.619712e+09 3.391557e+03 -2.181184e+04 8.226419e+02
-1.850330e+09 -1.650241e+09 -1.810337e+09 1.262039e+04 -1.449849e+04 1.359202e+04
-1.661857e+09 -1.461782e+09 -1.621867e+09 -2.073422e+03 -1.805271e+04 1.221097e+04
-2.183787e+09 -1.983861e+09 -2.143872e+09 -4.078495e+03 -1.299526e+03 5.247519e+03
-2.183116e+09 -1.982998e+09 -2.143123e+09 -1.808848e+03 -2.160360e+04 7.825893e+03
-4.707442e+09 -4.507507e+09 -4.667525e+09 -2.251426e+03 -5.972420e+02 -2.247227e+02
-2.856519e+09 -2.656369e+09 -2.816539e+09 -1.672050e+04 -3.118708e+04 1.734628e+04
-3.049736e+09 -2.849583e+09 -3.009758e+09 -8.817300e+03 -1.851076e+04 9.773590e+03
-3.980627e+09 -3.780428e+09 -3.940671e+09 -2.184065e+03 -1.823020e+04 3.322539e+03
-3.062969e+09 -2.862851e+09 -3.022988e+09 -9.398874e+03 -1.757043e+04 1.602602e+04
-3.969533e+09 -3.769587e+09 -3.929606e+09 -1.228118e+03 -9.232303e+02 5.955516e+01
-2.846943e+09 -2.646790e+09 -2.806970e+09 -4.055351e+03 -2.105216e+04 9.189204e+03
-3.771275e+09 -3.571347e+09 -3.731362e+09 -2.093154e+03 -1.249871e+03 1.341464e+03
-4.968070e+09 -4.768132e+09 -4.928152e+09 -4.940986e+03 -2.162538e+02 1.013297e+03
-3.909865e+09 -3.709910e+09 -3.869936e+09 -6.926425e+03 -8.963779e+02 1.999629e+03
-3.422152e+09 -3.222151e+09 -3.382210e+09 1.842292e+04 7.261607e+03 6.206571e+03
-2.572600e+09 -2.372410e+09 -2.532611e+09 -3.319511e+03 -6.130986e+04 4.990064e+03
-4.976233e+09 -4.776061e+09 -4.936298e+09 3.310865e+04 -1.182591e+04 -5.366692e+03
-2.744791e+09 -2.544731e+09 -2.704826e+09 1.787371e+04 2.151336e+04 9.485117e+03
-2.176935e+09 -1.976891e+09 -2.136962e+09 2.621346e+03 1.491230e+03 5.328648e+03
-2.773911e+09 -2.573778e+09 -2.733927e+09 5.107355e+02 -4.809775e+03 -8.262369e+03
-3.637263e+09 -3.437092e+09 -3.597299e+09 3.449902e+03 -3.584297e+03 -7.550351e+03
-4.990565e+09 -4.790229e+09 -4.950612e+09 6.630753e+04 -2.042145e+04 -1.431523e+04
-4.122560e+09 -3.922248e+09 -4.082596e+09 4.675662e+04 -5.764221e+04 -1.153556e+04
-2.066650e+09 -1.866518e+09 -2.026646e+09 2.953668e+03 -2.877798e+04 -8.729959e+03
-4.255973e+09 -4.055717e+09 -4.216001e+09 -1.493030e+04 -3.225898e+04 8.301534e+03
-2.867204e+09 -2.667054e+09 -2.827229e+09 5.611186e+03 -1.841167e+04 -1.632315e+04
-2.759391e+09 -2.559360e+09 -2.719426e+09 9.220904e+02 1.391509e+03 4.475771e+03
-4.976235e+09 -4.776046e+09 -4.936295e+09 2.343022e+04 -6.731153e+03 -4.251934e+03
-1.929269e+09 -1.729224e+09 -1.889294e+09 -5.452991e+02 3.832222e+03 8.121838e+03
-2.236042e+09 -2.035989e+09 -2.196065e+09 7.579093e+03 9.682763e+03 8.054125e+03
-1.678613e+09 -1.478633e+09 -1.638666e+09 3.506082e+03 4.707739e+02 6.962505e+02
-3.993714e+09 -3.793769e+09 -3.953790e+09 1.269114e+03 5.755808e+02 6.346795e+02
-2.007910e+09 -1.807869e+09 -1.967939e+09 1.353682e+04 1.589990e+04 1.236352e+04
-1.630942e+09 -1.430971e+09 -1.590999e+09 2.745179e+03 1.418234e+02 5.938429e+02
-4.953006e+09 -4.753040e+09 -4.913067e+09 3.554062e+03 8.743959e+01 -1.282081e+02
-3.903196e+09 -3.703230e+09 -3.863262e+09 8.651043e+03 5.336106e+02 1.141646e+03
-4.122272e+09 -3.922323e+09 -4.082353e+09 1.351718e+04 3.071804e+03 3.232241e+03
-4.953006e+09 -4.753040e+09 -4.913067e+09 2.008965e+03 -3.260169e+02 -8.581165e+01
-3.404359e+09 -3.204311e+09 -3.364433e+09 -3.338952e+03 2.775711e+04 -2.097406e+03
-2.231256e+09 -2.031222e+09 -2.191305e+09 -4.252092e+03 4.137019e+04 -1.052245e+04
-3.433970e+09 -3.234004e+09 -3.394034e+09 8.562004e+03 1.255736e+03 2.091134e+03
-2.157670e+09 -1.957708e+09 -2.117731e+09 2.359150e+03 4.134863e+02 1.309747e+03
-2.006888e+09 -1.806824e+09 -1.966928e+09 -2.427183e+04 5.440868e+04 -2.351570e+04
-1.686782e+09 -1.486723e+09 -1.646802e+09 -4.505754e+03 3.994417e+04 -1.728747e+04
-4.679148e+09 -4.479183e+09 -4.639209e+09 1.454303e+03 -1.314613e+02 3.804624e+02
-1.933533e+09 -1.733567e+09 -1.893592e+09 6.364599e+02 6.460988e+01 3.474633e+02
-4.721190e+09 -4.521097e+09 -4.681227e+09 -4.020287e+03 5.499380e+02 -2.757691e+03
-2.168908e+09 -1.968920e+09 -2.128955e+09 1.214909e+03 8.473583e+01 4.330713e+01
-3.292407e+09 -3.092298e+09 -3.252466e+09 2.700426e+04 -3.093243e+04 -1.729981e+04
-1.963403e+09 -1.763349e+09 -1.923429e+09 -1.050543e+04 3.133256e+04 -1.218696e+04
-1.665054e+09 -1.464997e+09 -1.625076e+09 -1.748150e+03 2.888045e+04 -1.150503e+04
-1.617670e+09 -1.417616e+09 -1.577687e+09 -2.288724e+03 3.284702e+04 -1.215416e+04
-2.199835e+09 -1.999754e+09 -2.159846e+09 -5.934753e+03 1.360368e+04 -6.882980e+03
-2.937873e+09 -2.737799e+09 -2.897929e+09 1.828425e+04 -3.612203e+04 -2.015699e+04
-3.309608e+09 -3.109532e+09 -3.269646e+09 -9.428864e+03 1.405292e+04 -6.597956e+03
-2.830490e+09 -2.630416e+09 -2.790532e+09 -1.938067e+04 3.058746e+04 -1.285648e+04
-4.987381e+09 -4.787241e+09 -4.947417e+09 -1.337657e+04 2.802484e+03 -2.637894e+03
-3.800319e+09 -3.600260e+09 -3.760385e+09 -9.312135e+03 1.978105e+04 -1.512053e+03
-4.812425e+09 -4.612431e+09 -4.772493e+09 2.385829e+04 -7.778539e+01 4.821961e+03
-4.983937e+09 -4.783814e+09 -4.943973e+09 -1.307091e+04 3.162597e+03 -2.172084e+03
-4.977231e+09 -4.777131e+09 -4.937271e+09 -1.292523e+04 2.215491e+03 -2.014464e+03
-2.787306e+09 -2.587209e+09 -2.747329e+09 -8.632053e+03 1.604769e+04 -8.225030e+03
-4.134445e+09 -3.934427e+09 -4.094528e+09 4.608670e+04 1.075251e+04 1.449758e+04
-4.984474e+09 -4.784310e+09 -4.944517e+09 -3.259844e+04 7.719251e+03 -3.651759e+03
-4.987379e+09 -4.787247e+09 -4.947418e+09 -1.760503e+04 6.015014e+03 -3.552485e+03
-3.969035e+09 -3.769020e+09 -3.929112e+09 3.945444e+04 1.291813e+04 8.800487e+03
-4.309587e+09 -4.109563e+09 -4.269671e+09 4.541218e+04 1.058577e+04 1.014172e+04
-4.793636e+09 -4.593796e+09 -4.753967e+09 9.566564e+04 -1.064392e+04 5.333626e+03
-3.351568e+09 -3.151547e+09 -3.311612e+09 2.135018e+03 1.070444e+03 4.962536e+03
-3.931862e+09 -3.731715e+09 -3.891932e+09 6.662191e+04 3.251155e+04 1.242277e+04
-2.903541e+09 -2.703464e+09 -2.863587e+09 2.278075e+04 3.676513e+04 2.161699e+04
-1.566146e+09 -1.366116e+09 -1.526176e+09 8.451399e+03 1.226921e+04 1.211782e+04
-4.986947e+09 -4.786880e+09 -4.947024e+09 6.117646e+04 1.422197e+03 4.704137e+03
-4.946040e+09 -4.745931e+09 -4.906081e+09 -1.863234e+04 2.640329e+03 -1.765078e+03
-3.804416e+09 -3.604372e+09 -3.764462e+09 8.029113e+03 2.721605e+03 6.500688e+03
-4.805332e+09 -4.605321e+09 -4.765402e+09 2.716071e+04 3.718392e+03 -1.093324e+03
-4.825974e+09 -4.625972e+09 -4.786051e+09 3.170959e+04 8.189279e+02 6.121953e+03
-4.995843e+09 -4.795814e+09 -4.955923e+09 3.862321e+04 1.199416e+03 3.491168e+03
-4.995317e+09 -4.795279e+09 -4.955420e+09 6.257853e+04 4.021748e+03 5.128071e+03
-2.595045e+09 -2.395006e+09 -2.555083e+09 9.642019e+03 9.360059e+03 8.884000e+03
-3.264773e+09 -3.064732e+09 -3.224818e+09 1.253868e+04 8.671282e+03 8.429368e+03
-4.295477e+09 -4.095425e+09 -4.255570e+09 7.020695e+04 2.017211e+04 1.425650e+04
-4.992543e+09 -4.791868e+09 -4.952119e+09 -3.155049e+05 -5.491452e+04 1.744190e+04
-4.117946e+09 -3.917317e+09 -4.077460e+09 -3.676177e+05 -8.720542e+03 1.611098e+04
-5.004592e+09 -4.804095e+09 -4.964402e+09 -3.106417e+05 -6.189529e+04 3.296799e+04
-2.209713e+09 -2.009649e+09 -2.169735e+09 9.489797e+02 -4.457334e+03 -4.893152e+03
-4.663070e+09 -4.462703e+09 -4.623052e+09 -2.702083e+05 1.223506e+04 1.055018e+04
-3.966137e+09 -3.766102e+09 -3.926216e+09 4.809027e+04 1.578690e+04 1.120783e+04
-2.208516e+09 -2.008471e+09 -2.168543e+09 9.361744e+03 9.820387e+03 8.785848e+03
-4.045035e+09 -3.845241e+09 -4.005320e+09 2.208433e+05 -6.524314e+04 -7.698893e+04
-4.695694e+09 -4.495990e+09 -4.656079e+09 1.979207e+05 -3.497986e+04 -4.117309e+04
-3.974845e+09 -3.774527e+09 -3.934674e+09 -3.256123e+05 -6.678565e+03 -2.182575e+04
-3.955281e+09 -3.755671e+09 -3.915517e+09 2.666183e+05 -2.288331e+04 2.903125e+03
-4.981493e+09 -4.782204e+09 -4.942007e+09 2.059299e+05 -1.508591e+04 -3.468350e+04
-4.967977e+09 -4.768017e+09 -4.928044e+09 -6.968900e+03 2.285346e+02 -4.475927e+02
-4.476824e+09 -4.276866e+09 -4.436895e+09 -1.159300e+04 -1.195489e+03 1.795986e+03
-4.312211e+09 -4.112253e+09 -4.272290e+09 -1.589592e+04 -1.974547e+03 3.796201e+03
-4.141743e+09 -3.941780e+09 -4.101819e+09 -1.411447e+04 -3.640178e+03 1.402219e+03
-4.319020e+09 -4.119126e+09 -4.279280e+09 -2.600195e+05 -4.173251e+04 4.296645e+04
-4.999545e+09 -4.799285e+09 -4.959603e+09 -3.135992e+05 -2.316994e+04 -5.901494e+02
-4.496950e+09 -4.296721e+09 -4.456851e+09 -3.453359e+05 -4.647671e+04 3.824500e+04
-3.968220e+09 -3.768428e+09 -3.928541e+09 -3.081095e+05 -1.716913e+04 -2.313198e+04
-2.784073e+09 -2.584149e+09 -2.744157e+09 -1.414179e+02 -3.784507e+02 9.762867e+02
-4.622443e+09 -4.422692e+09 -4.582065e+09 -4.930090e+05 -9.954257e+04 5.725546e+04
-4.991839e+09 -4.791908e+09 -4.951932e+09 -9.080531e+03 -7.229120e+02 9.553309e+02
-4.126988e+09 -3.926875e+09 -4.086436e+09 -5.262230e+05 -7.679172e+03 1.243058e+05
-4.613406e+09 -4.413474e+09 -4.573495e+09 -6.887163e+03 -4.927092e+02 7.696775e+02
-4.819016e+09 -4.619546e+09 -4.777848e+09 -5.878388e+05 -5.902174e+04 8.732023e+04
-4.812406e+09 -4.612473e+09 -4.772501e+09 -1.316050e+04 6.900538e+02 2.102542e+03
-4.982530e+09 -4.782594e+09 -4.942618e+09 -1.136817e+04 -5.298161e+02 5.399291e+02
-3.964077e+09 -3.764147e+09 -3.924177e+09 -1.450874e+04 -2.387004e+03 7.712619e+03
-4.992636e+09 -4.792727e+09 -4.952755e+09 -1.724188e+04 -6.811701e+02 2.436671e+03
-4.986460e+09 -4.786821e+09 -4.945804e+09 -5.944237e+05 4.638080e+04 -5.951960e+04
-4.610240e+09 -4.410314e+09 -4.570330e+09 -5.033452e+03 -1.301375e+03 1.881929e+03
-4.131632e+09 -3.931282e+09 -4.090920e+09 -5.203566e+05 -7.423297e+04 -4.054448e+04
-4.476098e+09 -4.276368e+09 -4.434459e+09 -6.987647e+05 -1.033149e+05 1.812540e+05
-4.994325e+09 -4.794077e+09 -4.952162e+09 -6.916782e+05 6.696286e+03 4.808437e+04
-4.117592e+09 -3.918379e+09 -4.078097e+09 -2.044815e+05 4.177147e+04 -2.484557e+04
-3.961736e+09 -3.761207e+09 -3.920694e+09 -5.653353e+05 -4.009698e+05 2.084752e+05
-4.195734e+09 -3.996479e+09 -4.156279e+09 -7.810837e+04 1.173727e+04 -6.998451e+04
-2.866956e+09 -2.667373e+09 -2.827364e+09 -5.367655e+04 3.782636e+04 -4.025992e+04
-4.111103e+09 -3.911783e+09 -4.071599e+09 -2.145562e+05 4.541846e+04 -6.185193e+04
-4.611634e+09 -4.412319e+09 -4.572194e+09 -1.285965e+05 -1.584735e+04 8.031707e+03
-4.994565e+09 -4.794941e+09 -4.954847e+09 -2.932245e+05 3.551820e+04 -2.720426e+04
-4.815918e+09 -4.616522e+09 -4.776203e+09 -3.136653e+05 2.471247e+04 -8.783894e+04
-4.127941e+09 -3.928009e+09 -4.088200e+09 -1.919040e+05 4.978666e+04 -3.893344e+04
-4.473868e+09 -4.274131e+09 -4.432226e+09 -6.911097e+05 -1.378632e+05 1.314904e+05
-2.589735e+09 -2.390027e+09 -2.550035e+09 -1.491152e+03 4.243889e+04 1.153221e+04
-1.909062e+09 -1.709175e+09 -1.869173e+09 -6.269003e+04 4.811887e+04 -3.381514e+04
-2.608634e+09 -2.408836e+09 -2.568876e+09 -8.803765e+03 5.363963e+04 -3.712614e+03
-1.605515e+09 -1.405529e+09 -1.565486e+09 -4.507061e+03 4.653335e+04 -6.784377e+04
-4.821715e+09 -4.621825e+09 -4.781848e+09 9.912552e+03 -2.371978e+03 5.594329e+03
-5.001675e+09 -4.801715e+09 -4.961750e+09 1.267551e+04 2.926101e+02 -5.762066e+02
-4.307713e+09 -4.107743e+09 -4.267780e+09 1.210844e+04 9.991816e+02 2.141010e+03
-2.887557e+09 -2.687491e+09 -2.847597e+09 -1.939748e+03 -5.646117e+03 -2.477871e+03
-4.835145e+09 -4.636231e+09 -4.795424e+09 -5.215332e+04 9.581522e+02 -4.809655e+04
-4.472457e+09 -4.273758e+09 -4.432664e+09 2.331546e+05 1.268646e+04 4.221723e+04
-4.814538e+09 -4.615723e+09 -4.774620e+09 8.221717e+04 1.144184e+04 1.565808e+05
-2.009024e+09 -1.808930e+09 -1.968967e+09 -4.783679e+04 1.092716e+05 -1.121561e+05
-4.471369e+09 -4.272461e+09 -4.431487e+09 1.606877e+05 1.427709e+04 5.400063e+04
-2.160455e+09 -1.960622e+09 -2.120627e+09 -5.369184e+03 6.279602e+04 4.044996e+03
-5.015379e+09 -4.815430e+09 -4.975473e+09 -2.046873e+04 -1.611638e+03 4.253534e+02
-1.912855e+09 -1.712950e+09 -1.872972e+09 -6.304177e+04 6.387728e+04 -3.398186e+04
-1.661458e+09 -1.461512e+09 -1.621513e+09 -5.691284e+03 4.530763e+04 -4.105725e+04
-4.319406e+09 -4.119446e+09 -4.279504e+09 -3.007511e+04 -5.224600e+03 8.034116e+03
-4.503785e+09 -4.303850e+09 -4.463898e+09 -2.729191e+04 -3.793644e+03 6.652167e+03
-4.854571e+09 -4.654624e+09 -4.814679e+09 -3.232478e+04 -7.010087e+03 1.437076e+03
-4.799002e+09 -4.600031e+09 -4.758340e+09 4.054848e+05 -4.864731e+04 -1.389119e+05
-4.789512e+09 -4.590719e+09 -4.749332e+09 1.919009e+05 8.385863e+03 1.180983e+05
-4.362808e+09 -4.162860e+09 -4.322912e+09 -2.989467e+04 -4.971907e+03 7.888496e+03
-4.119971e+09 -3.919649e+09 -4.079979e+09 5.014920e+04 4.357751e+04 1.298977e+03
-4.992477e+09 -4.792082e+09 -4.952492e+09 1.096027e+05 3.486120e+04 7.232891e+03
-4.823903e+09 -4.623465e+09 -4.783874e+09 6.693977e+03 4.654587e+03 -4.802744e+03
-4.832267e+09 -4.631761e+09 -4.792192e+09 1.156481e+05 9.405813e+02 -6.235500e+03
-3.958451e+09 -3.759430e+09 -3.918687e+09 5.169760e+03 -4.774657e+04 -8.881283e+04
-4.988142e+09 -4.789027e+09 -4.948433e+09 2.099776e+05 3.897048e+03 8.157199e+04
-3.955875e+09 -3.756608e+09 -3.914447e+09 4.622332e+05 -1.318876e+05 -3.559187e+05
-4.980605e+09 -4.780799e+09 -4.940859e+09 5.131302e+04 6.760082e+03 1.291800e+04
-3.958195e+09 -3.758364e+09 -3.918411e+09 5.950884e+04 8.371157e+03 3.378045e+04
-3.950924e+09 -3.751103e+09 -3.911156e+09 4.713351e+04 7.374685e+03 3.393364e+04
-5.000657e+09 -4.800895e+09 -4.960946e+09 3.817388e+04 7.100870e+03 2.013738e+04
-4.133707e+09 -3.934246e+09 -4.093813e+09 2.568240e+05 -9.902006e+03 -3.715511e+04
-4.980598e+09 -4.780823e+09 -4.940863e+09 5.674675e+04 6.304280e+03 1.339821e+04
-2.183555e+09 -1.983420e+09 -2.143553e+09 8.124833e+02 -3.555415e+03 -5.812362e+03
-3.958669e+09 -3.758873e+09 -3.918932e+09 7.817855e+04 1.462631e+04 4.086453e+04
-3.964010e+09 -3.764140e+09 -3.924186e+09 3.288402e+04 5.307972e+03 2.376495e+04
-3.964004e+09 -3.764151e+09 -3.924187e+09 3.717659e+04 4.907836e+03 2.581583e+04
-1.680587e+09 -1.480503e+09 -1.640594e+09 1.186496e+03 -1.760524e+04 -1.014946e+04
-2.612653e+09 -2.412532e+09 -2.572674e+09 4.291062e+03 -1.572548e+03 -1.294188e+04
-4.636360e+09 -4.436534e+09 -4.596577e+09 -4.769874e+04 -5.196291e+02 1.250590e+04
-1.585379e+09 -1.385450e+09 -1.545459e+09 2.343703e+03 7.646260e+02 5.540095e+03
-4.110096e+09 -3.910362e+09 -4.070405e+09 -5.312966e+04 -1.253948e+04 5.476065e+04
-4.480722e+09 -4.280977e+09 -4.440994e+09 -1.930474e+04 -1.192253e+03 2.344153e+04
-1.899999e+09 -1.699901e+09 -1.860001e+09 5.709917e+03 7.980531e+03 -6.510905e+03
-3.945524e+09 -3.745792e+09 -3.905829e+09 -5.876202e+04 -8.097521e+03 4.982308e+04
-4.298155e+09 -4.098520e+09 -4.258513e+09 -9.082773e+04 -1.739599e+04 6.287501e+04
-1.663470e+09 -1.463384e+09 -1.623474e+09 -2.207526e+02 1.071916e+04 -8.442640e+03
-4.801003e+09 -4.600981e+09 -4.761174e+09 1.539881e+05 1.312515e+04 2.381165e+04
-3.953587e+09 -3.753596e+09 -3.913766e+09 1.362371e+05 3.571669e+04 2.949974e+04
-4.617273e+09 -4.417328e+09 -4.577498e+09 1.570393e+05 1.807151e+04 1.904085e+04
-2.782771e+09 -2.582708e+09 -2.742814e+09 4.884747e+03 -1.279328e+04 -4.218051e+03
-4.810044e+09 -4.610043e+09 -4.770200e+09 1.090873e+05 1.167328e+04 3.342059e+02
-3.951910e+09 -3.751870e+09 -3.912049e+09 1.390751e+05 4.505941e+04 3.452519e+04
-4.996502e+09 -4.796425e+09 -4.955759e+09 -6.031792e+05 -3.486842e+04 7.436501e+03
-3.966763e+09 -3.766831e+09 -3.926295e+09 -4.865158e+05 2.381770e+04 -1.803099e+04
-3.966829e+09 -3.766673e+09 -3.926029e+09 -5.701675e+05 2.288903e+05 -4.946515e+04
-2.815790e+09 -2.615731e+09 -2.775842e+09 8.396509e+03 -2.618061e+04 -6.021404e+03
-4.489654e+09 -4.289579e+09 -4.449728e+09 1.440945e+04 -5.662739e+03 -3.394468e+03
-4.477333e+09 -4.277393e+09 -4.436299e+09 7.156989e+05 2.937279e+05 -2.341721e+05
-3.068799e+09 -2.868696e+09 -3.028839e+09 2.455086e+03 -6.672790e+03 -1.355681e+04
-2.222305e+09 -2.022228e+09 -2.182324e+09 1.909313e+03 -1.483091e+03 -9.797159e+03
-4.477021e+09 -4.277455e+09 -4.436958e+09 4.006798e+05 -8.398681e+04 -8.986142e+04
-1.657218e+09 -1.457153e+09 -1.617235e+09 5.526899e+02 -3.988757e+03 -8.539790e+03
-4.330896e+09 -4.130938e+09 -4.291063e+09 2.424834e+05 4.935012e+04 4.331131e+04
-4.964441e+09 -4.764780e+09 -4.924817e+09 1.280569e+05 1.770963e+04 2.599382e+04
-4.820346e+09 -4.620876e+09 -4.780219e+09 5.813180e+05 3.221327e+04 7.099576e+04
-4.272899e+09 -4.073033e+09 -4.233049e+09 4.158066e+05 -6.678568e+03 3.877098e+03
-4.450005e+09 -4.249727e+09 -4.409684e+09 5.252497e+05 4.033784e+04 -3.492671e+04
-4.313279e+09 -4.113392e+09 -4.273557e+09 2.173375e+05 3.589504e+04 4.391492e+04
-4.983464e+09 -4.783657e+09 -4.943795e+09 2.204551e+05 1.299773e+04 2.250822e+04
-4.808434e+09 -4.608723e+09 -4.768449e+09 4.102375e+05 2.533129e+04 -2.126952e+04
-4.860179e+09 -4.660083e+09 -4.820252e+09 -3.803544e+04 1.298085e+03 -9.542968e+03
-4.088188e+09 -3.888857e+09 -4.048595e+09 -1.379562e+04 -1.466234e+04 -5.215033e+03
-4.955110e+09 -4.755550e+09 -4.915571e+09 2.365489e+05 -2.448044e+04 -2.491444e+04
-4.873681e+09 -4.674005e+09 -4.833964e+09 2.821279e+05 -5.476085e+03 2.853102e+04
-4.985788e+09 -4.786960e+09 -4.944380e+09 4.746463e+05 -9.214571e+04 -1.169192e+04
-4.090066e+09 -3.890498e+09 -4.050438e+09 2.467599e+05 -3.280057e+04 -8.121733e+04
-4.819198e+09 -4.620025e+09 -4.779578e+09 8.809196e+04 -4.845130e+03 -4.700102e+04
-1.937628e+09 -1.737748e+09 -1.897756e+09 -4.799069e+04 -7.050149e+04 -2.912031e+04
-4.105873e+09 -3.905842e+09 -4.065942e+09 3.342932e+04 9.616930e+03 1.194202e+04
-4.960430e+09 -4.760402e+09 -4.920495e+09 3.110177e+04 1.262625e+03 1.969460e+03
-4.437306e+09 -4.237272e+09 -4.397352e+09 3.543316e+03 9.415506e+02 3.244471e+03
-3.598766e+09 -3.398749e+09 -3.558812e+09 1.722639e+03 1.531673e+03 1.842084e+03
-4.206659e+09 -4.006617e+09 -4.166712e+09 1.639242e+04 5.969230e+03 4.230809e+03
-2.196358e+09 -1.996671e+09 -2.156633e+09 1.460927e+03 -2.033830e+04 1.674748e+04
-1.554812e+09 -1.354884e+09 -1.514868e+09 1.353006e+01 -5.230492e+04 -7.759223e+04
-2.849057e+09 -2.649422e+09 -2.809475e+09 5.377459e+03 -4.104185e+04 -1.686446e+03
-3.118315e+09 -2.918236e+09 -3.078363e+09 3.123313e+04 2.976947e+04 1.444161e+04
-1.763976e+09 -1.564057e+09 -1.723944e+09 1.719845e+04 -7.132697e+04 -1.167717e+05
-2.999642e+09 -2.800037e+09 -2.960057e+09 1.150084e+04 -3.615987e+04 -4.803556e+02
-2.209651e+09 -2.009586e+09 -2.169674e+09 5.372104e+02 -9.170923e+03 -2.196341e+03
-4.597336e+09 -4.397239e+09 -4.557399e+09 3.338278e+04 5.310558e+03 8.947434e+02
-4.704053e+09 -4.503988e+09 -4.664102e+09 7.819399e+03 -6.348196e+02 2.391878e+03
-1.624588e+09 -1.424527e+09 -1.584605e+09 7.721595e-05 -7.351265e+03 -3.559149e+03
-1.953519e+09 -1.753449e+09 -1.913537e+09 -4.914409e+03 -6.509376e+03 -1.290598e+04
-3.623398e+09 -3.423311e+09 -3.583433e+09 3.762597e+03 3.388548e+03 4.794530e+03
-4.616043e+09 -4.415978e+09 -4.576093e+09 1.942623e+04 8.613731e+02 5.336048e+02
-3.425856e+09 -3.225794e+09 -3.385920e+09 1.827381e+03 -1.436034e+04 1.223456e+02
-2.842121e+09 -2.642096e+09 -2.802162e+09 1.062947e+04 7.316676e+03 4.856722e+03
-4.243534e+09 -4.043420e+09 -4.203584e+09 2.139701e+04 1.828876e+04 4.555831e+03
-3.644789e+09 -3.444720e+09 -3.604827e+09 3.029353e+03 2.893191e+03 3.406905e+03
-2.510258e+09 -2.310214e+09 -2.470318e+09 2.003049e+03 -3.650845e+04 -9.489451e+02
-4.709327e+09 -4.509273e+09 -4.669376e+09 7.294946e+03 2.123957e+03 1.093502e+03
-1.516488e+09 -1.316533e+09 -1.476554e+09 -3.801462e+03 -1.279828e+03 1.102506e+03
-3.211322e+09 -3.011256e+09 -3.171372e+09 2.935634e+03 -1.337463e+04 -1.532484e+03
-3.284443e+09 -3.084387e+09 -3.244513e+09 1.289103e+04 -2.482951e+04 -7.241685e+03
-1.592799e+09 -1.392738e+09 -1.552815e+09 4.958872e+02 -1.890177e+04 -1.292083e+04
-2.175517e+09 -1.975461e+09 -2.135548e+09 8.026092e+03 -2.762734e+04 -1.813631e+04
-2.922843e+09 -2.722771e+09 -2.882879e+09 -3.322257e+02 -4.790643e+03 -6.304415e+03
-1.657157e+09 -1.457102e+09 -1.617181e+09 2.601498e+02 -1.802580e+04 -8.195941e+02
-2.957386e+09 -2.757436e+09 -2.917462e+09 -8.732815e+03 -4.016523e+03 5.326402e+03
-3.895348e+09 -3.695388e+09 -3.855412e+09 -5.891266e+03 -3.750753e+02 1.063544e+03
-2.669451e+09 -2.469399e+09 -2.629507e+09 2.283795e+03 -2.395618e+04 -3.114969e+03
-2.356728e+09 -2.156778e+09 -2.316799e+09 -8.530675e+03 -2.611121e+03 3.311791e+03
-1.647122e+09 -1.447139e+09 -1.607173e+09 6.197509e+03 1.522031e+03 1.502316e+03
-1.674059e+09 -1.474061e+09 -1.634103e+09 9.480133e+03 7.372710e+03 6.127750e+03
-2.887522e+09 -2.687535e+09 -2.847579e+09 1.057809e+04 3.754201e+03 5.201596e+03
-3.917204e+09 -3.717212e+09 -3.877261e+09 1.457272e+04 3.975005e+03 4.016773e+03
-3.946384e+09 -3.747635e+09 -3.905900e+09 -3.861606e+04 -8.492778e+04 -2.088861e+05
-4.300915e+09 -4.099882e+09 -4.254945e+09 1.608570e+05 -1.182430e+06 -8.637477e+05
-4.651122e+09 -4.450233e+09 -4.607756e+09 4.874312e+05 -5.115728e+05 -6.878302e+04
-4.307870e+09 -4.107043e+09 -4.264539e+09 5.030840e+05 -5.436035e+05 -8.090100e+04
-4.134096e+09 -3.933319e+09 -4.088366e+09 2.804166e+05 -1.200731e+06 -4.395200e+05
-1.957164e+09 -1.757165e+09 -1.917208e+09 1.431444e+03 4.835767e+02 2.017680e+03
-2.819027e+09 -2.618963e+09 -2.779060e+09 -1.033443e+03 1.887731e+04 -2.455324e+03
-4.183512e+09 -3.982667e+09 -4.142907e+09 -5.990413e+04 -6.817078e+04 -2.841310e+03
-1.657154e+09 -1.457084e+09 -1.617165e+09 -4.784984e+02 3.212199e+03 -4.978138e+03
-4.995050e+09 -4.794149e+09 -4.954516e+09 -1.991745e+04 5.351750e+04 -1.819016e+04
-4.352453e+09 -4.151473e+09 -4.311465e+09 -5.411792e+04 -8.542844e+04 -8.797516e+04
-3.702413e+09 -3.502421e+09 -3.662464e+09 4.560588e+03 1.291658e+03 1.777624e+03
-3.955397e+09 -3.755286e+09 -3.915467e+09 5.824304e+04 2.272113e+04 1.549783e+04
-2.230627e+09 -2.030646e+09 -2.190678e+09 1.248373e+03 1.095313e+02 -1.381853e+01
-4.792916e+09 -4.592913e+09 -4.752977e+09 1.749581e+04 7.387074e+02 3.590189e+03
-4.034738e+09 -3.834757e+09 -3.994789e+09 2.926511e+03 5.996148e+02 -1.948441e+02
-4.969098e+09 -4.769111e+09 -4.929149e+09 4.659555e+03 5.343656e+01 -7.231687e+01
-2.129669e+09 -1.929680e+09 -2.089716e+09 3.284304e+03 1.155834e+03 8.473510e+02
-1.657158e+09 -1.457180e+09 -1.617211e+09 3.834728e+02 1.239349e+02 9.210973e+01
-1.891846e+09 -1.691864e+09 -1.851897e+09 7.590921e+02 3.816020e+02 5.303162e+01
-2.711367e+09 -2.511387e+09 -2.671419e+09 4.513256e+02 1.481268e+02 1.649734e+02
-4.289333e+09 -4.089330e+09 -4.249403e+09 2.872243e+04 5.222335e+03 5.898989e+03
-2.591826e+09 -2.391838e+09 -2.551875e+09 9.043265e+02 1.906114e+02 1.337120e+03
-3.955481e+09 -3.755493e+09 -3.915548e+09 2.269326e+04 5.929077e+03 6.221868e+03
-4.144177e+09 -3.944156e+09 -4.104254e+09 3.872936e+04 1.264462e+04 4.397738e+03
-4.303398e+09 -4.103421e+09 -4.263497e+09 4.121616e+04 6.484697e+03 1.048412e+04
-4.986107e+09 -4.786097e+09 -4.946207e+09 4.924621e+04 -2.112682e+02 2.383356e+03
-3.812778e+09 -3.612596e+09 -3.772825e+09 8.482621e+03 -1.540397e+04 -9.778440e+03
-2.192276e+09 -1.992514e+09 -2.152481e+09 -4.633123e+03 3.281874e+04 -6.734907e+04
-1.928250e+09 -1.728157e+09 -1.888257e+09 1.161753e+04 -1.277789e+04 -9.659948e+03
-1.935895e+09 -1.735788e+09 -1.895895e+09 -1.370436e+04 -1.382204e+04 -7.345954e+03
-2.890706e+09 -2.690534e+09 -2.850721e+09 -1.334678e+03 -3.924431e+04 -1.318835e+03
-4.300487e+09 -4.100417e+09 -4.260579e+09 5.448020e+04 1.939823e+04 4.503762e+03
-1.636122e+09 -1.436036e+09 -1.596124e+09 5.634360e+01 -5.689508e+03 -8.606224e+03
-2.059024e+09 -1.858962e+09 -2.019046e+09 1.938488e+04 2.297726e+04 1.442941e+04
-4.500651e+09 -4.300419e+09 -4.460716e+09 8.202080e+04 2.420552e+04 9.105867e+03
-4.277720e+09 -4.077819e+09 -4.237841e+09 6.121665e+03 5.025932e+02 6.753602e+03
-1.586749e+09 -1.386696e+09 -1.546765e+09 6.774219e+03 1.933379e+04 1.172201e+04
-1.586748e+09 -1.386697e+09 -1.546759e+09 1.072013e+04 2.273450e+04 1.387085e+04
-1.640445e+09 -1.440356e+09 -1.600448e+09 3.258955e+02 9.795302e+03 -2.937631e+03
-4.443239e+09 -4.243170e+09 -4.403307e+09 3.322371e+04 1.101571e+04 6.736197e+03
-2.573430e+09 -2.373324e+09 -2.533441e+09 -1.568725e+02 3.237088e+03 -5.201841e+03
-1.856303e+09 -1.656193e+09 -1.816299e+09 1.358178e+02 1.586290e+04 -1.114117e+03
-4.646031e+09 -4.446054e+09 -4.606117e+09 2.810951e+04 3.064199e+03 5.210736e+03
-5.011444e+09 -4.811482e+09 -4.971546e+09 3.529416e+04 3.469124e+03 3.698838e+03
-4.467265e+09 -4.267414e+09 -4.427490e+09 -6.403671e+04 -1.031092e+04 2.296767e+04
-1.883564e+09 -1.683510e+09 -1.843579e+09 -1.395383e+03 -3.923498e+04 -2.119535e+04
-4.805525e+09 -4.605666e+09 -4.765779e+09 -1.396545e+05 -2.134280e+04 1.571903e+04
-1.893382e+09 -1.693318e+09 -1.853401e+09 -2.585912e+03 -5.824706e+03 -6.330902e+03
-3.961141e+09 -3.761249e+09 -3.921374e+09 -1.298216e+05 -2.535017e+04 3.348099e+04
-1.592797e+09 -1.392738e+09 -1.552813e+09 8.229566e+02 -1.980976e+04 -1.430680e+04
-3.301074e+09 -3.100994e+09 -3.261154e+09 3.217401e+04 -4.479047e+04 -2.417352e+04
-5.011540e+09 -4.811207e+09 -4.971593e+09 -1.500047e+05 3.618272e+04 -1.617037e+04
-4.512072e+09 -4.311754e+09 -4.472104e+09 -8.750161e+04 3.503159e+04 -1.376377e+04
-2.258216e+09 -2.058216e+09 -2.218259e+09 2.021973e+03 7.499911e+02 1.549352e+03
-3.977506e+09 -3.777290e+09 -3.937620e+09 -1.346428e+05 4.965487e+04 -2.438410e+04
-4.985176e+09 -4.785189e+09 -4.945247e+09 2.347548e+04 5.908633e+02 2.857167e+02
-1.674061e+09 -1.474060e+09 -1.634106e+09 1.114480e+04 7.422560e+03 8.708981e+03
-5.007687e+09 -4.807488e+09 -4.967776e+09 -7.751720e+04 1.510407e+04 -1.082291e+04
-3.956509e+09 -3.756209e+09 -3.916523e+09 -5.808947e+04 4.566245e+04 -3.810980e+03
-1.636043e+09 -1.436043e+09 -1.596087e+09 1.232324e+03 8.145167e+02 2.294033e+03
-1.859065e+09 -1.658952e+09 -1.819050e+09 -3.131122e+04 -9.063065e+04 -9.625218e+03
-1.674149e+09 -1.474083e+09 -1.634151e+09 -3.882665e+03 -1.075949e+05 1.333180e+04
-1.855862e+09 -1.655846e+09 -1.815898e+09 5.552183e+03 3.511075e+03 5.901889e+03
-2.755266e+09 -2.555260e+09 -2.715311e+09 9.086196e+03 3.912400e+03 4.632702e+03
-1.580425e+09 -1.380354e+09 -1.540428e+09 -1.723201e+03 -4.449282e+04 -2.479009e+02
-2.937076e+09 -2.736861e+09 -2.897091e+09 -1.292393e+04 -8.779218e+04 7.532442e+03
-1.937101e+09 -1.737094e+09 -1.897142e+09 1.343270e+03 8.559813e+02 3.024609e+03
-3.516917e+09 -3.316997e+09 -3.477006e+09 -1.113774e+02 -9.758342e+01 1.104899e+03
-3.639534e+09 -3.439620e+09 -3.599631e+09 5.620180e+02 -5.218322e+02 4.788084e+03
-3.118244e+09 -2.918241e+09 -3.078291e+09 3.450670e+03 1.351834e+03 2.609790e+03
-1.934384e+09 -1.734357e+09 -1.894417e+09 1.148266e+04 1.073726e+04 9.345052e+03
-1.698348e+09 -1.498428e+09 -1.658434e+09 -9.779764e+02 -1.299469e+03 1.396060e+04
-2.207727e+09 -2.007812e+09 -2.167818e+09 -8.730371e+02 -3.799201e+01 1.284946e+04
-2.605649e+09 -2.405556e+09 -2.565664e+09 -7.569823e+02 3.076329e+03 -7.501382e+03
-1.597623e+09 -1.397548e+09 -1.557631e+09 -7.747971e+01 6.788116e+03 -8.229616e+03
-2.182747e+09 -1.982653e+09 -2.142751e+09 -1.118013e+03 1.619407e+03 -6.325141e+03
-3.271503e+09 -3.071451e+09 -3.231615e+09 3.757547e+04 -4.514902e+04 -1.847302e+04
-2.179856e+09 -1.979882e+09 -2.139949e+09 5.123815e+03 -5.804013e+04 5.074401e+02
-1.838012e+09 -1.637933e+09 -1.798019e+09 1.619439e+03 1.586842e+04 -8.619467e+03
-4.566236e+09 -4.366179e+09 -4.526355e+09 -3.765387e+04 1.236106e+04 -3.032665e+03
-4.148763e+09 -3.949754e+09 -4.108844e+09 -4.508195e+04 -3.299910e+04 8.423282e+04
-2.506959e+09 -2.307197e+09 -2.467189e+09 3.729863e+04 -4.901762e+04 -8.110968e+04
-2.202910e+09 -2.002963e+09 -2.163034e+09 2.667438e+04 -6.997121e+04 -2.918193e+04
-3.957431e+09 -3.756764e+09 -3.917131e+09 1.105567e+04 3.089091e+04 -9.043571e+02
-4.995304e+09 -4.794290e+09 -4.954606e+09 7.558125e+04 5.308377e+04 -1.710432e+04
-5.039093e+09 -4.838108e+09 -4.998478e+09 -1.434075e+05 1.319381e+04 -1.376618e+04
-2.139579e+09 -1.939517e+09 -2.099609e+09 3.104223e+03 -2.175576e+04 -5.161689e+03
-4.009197e+09 -3.808482e+09 -3.968716e+09 -1.550886e+05 2.980519e+03 -9.293443e+03
-4.297667e+09 -4.097327e+09 -4.257676e+09 3.662285e+04 -5.575133e+04 -1.011446e+04
-4.997269e+09 -4.796839e+09 -4.957250e+09 2.194898e+04 -2.822018e+04 -3.440309e+03
-4.367587e+09 -4.167443e+09 -4.327619e+09 1.362781e+03 1.594963e+03 6.463017e+02
-4.905169e+09 -4.705014e+09 -4.865200e+09 -6.636032e+02 1.309184e-04 -5.547119e+02
-2.599375e+09 -2.399301e+09 -2.559398e+09 1.713106e+03 3.269898e+03 8.255834e+03
-3.906735e+09 -3.706676e+09 -3.866799e+09 3.635323e+04 1.387070e+04 8.864798e+03
-1.674098e+09 -1.474053e+09 -1.634120e+09 1.204949e+04 3.516748e+04 1.949788e+04
-2.774537e+09 -2.574460e+09 -2.734558e+09 1.022839e+03 2.777646e+03 6.124430e+03
-4.967576e+09 -4.767471e+09 -4.927629e+09 3.427102e+04 7.662482e+03 2.959557e+03
-2.141191e+09 -1.941133e+09 -2.101214e+09 8.747826e+03 9.789445e+03 1.097214e+04
-1.636014e+09 -1.436077e+09 -1.596089e+09 -7.957887e+02 -9.462734e+02 1.088551e+03
-1.582842e+09 -1.382895e+09 -1.542912e+09 -1.764621e+03 -8.172164e+02 1.054176e+03
-1.599390e+09 -1.399441e+09 -1.559458e+09 -4.407397e+03 -1.515334e+03 2.415851e+03
-4.695230e+09 -4.495312e+09 -4.655325e+09 -6.300243e+02 7.529305e+02 5.740518e+02
-2.771834e+09 -2.571809e+09 -2.731877e+09 7.582586e+03 5.336509e+03 4.349379e+03
-1.843750e+09 -1.643761e+09 -1.803799e+09 4.532674e+03 1.706385e+03 6.657710e+02
-1.673932e+09 -1.473952e+09 -1.633988e+09 -9.233536e+03 -7.352869e+03 1.039878e+04
-3.384931e+09 -3.184922e+09 -3.344977e+09 1.757713e+03 7.958631e+02 3.659651e+03
-2.820993e+09 -2.620968e+09 -2.781033e+09 3.791976e+03 1.822714e+03 6.223087e+03
-4.975453e+09 -4.775486e+09 -4.935513e+09 -3.667218e+03 7.407721e+02 -9.896942e+01
-1.954733e+09 -1.754766e+09 -1.914792e+09 -5.354643e+03 -2.026972e+03 2.211678e+03
-1.949528e+09 -1.749563e+09 -1.909587e+09 -3.237373e+03 -1.005724e+03 9.869536e+02
-1.620442e+09 -1.420471e+09 -1.580500e+09 -6.331224e+03 -2.700174e+03 3.695389e+03
-4.966874e+09 -4.766909e+09 -4.926938e+09 -4.970853e+03 4.460134e+02 8.569532e+01
-4.967980e+09 -4.768018e+09 -4.928045e+09 -4.702889e+03 1.099497e+02 3.691331e+02
-2.116661e+09 -1.916702e+09 -2.076723e+09 -8.344047e+02 -4.895338e+01 3.834825e+01
-1.729674e+09 -1.529719e+09 -1.689740e+09 -5.289088e+03 -1.862068e+03 2.997787e+03
-3.397588e+09 -3.197515e+09 -3.357625e+09 3.680965e+03 2.234369e+03 7.063309e+03
-2.902993e+09 -2.702982e+09 -2.863055e+09 -2.651339e+04 -2.079326e+04 1.539300e+04
-2.919568e+09 -2.719571e+09 -2.879624e+09 1.377621e+04 6.456781e+03 7.554044e+03
-3.385509e+09 -3.185501e+09 -3.345559e+09 1.737206e+04 7.721439e+03 5.825535e+03
-3.828009e+09 -3.627979e+09 -3.788073e+09 -7.687615e+03 -2.859898e+03 8.568514e+03
-3.563594e+09 -3.363527e+09 -3.523652e+09 -3.989926e+03 -1.663921e+03 1.155201e+04
-4.520018e+09 -4.319971e+09 -4.480084e+09 -3.988805e+03 -3.914270e+03 6.593435e+03
-2.189128e+09 -1.989133e+09 -2.149185e+09 -2.205298e+04 -1.334729e+04 1.525507e+04
-3.142633e+09 -2.942615e+09 -3.102685e+09 -2.245973e+03 -3.405146e+02 8.251339e+03
-1.674065e+09 -1.474059e+09 -1.634105e+09 1.085135e+04 1.122460e+04 8.920718e+03
-2.513089e+09 -2.313166e+09 -2.473174e+09 2.219974e+01 -2.991240e+01 1.171407e+03
-1.922705e+09 -1.722782e+09 -1.882789e+09 -5.799120e+02 3.781772e+02 1.724796e+03
-3.065964e+09 -2.866043e+09 -3.026053e+09 -1.222964e+03 -8.859270e+02 4.483767e+03
-4.156319e+09 -3.955341e+09 -4.115426e+09 -2.135583e+05 3.013859e+04 9.663401e+04
-4.308979e+09 -4.108302e+09 -4.266386e+09 -6.403530e+05 -1.341960e+05 9.029925e+04
-3.958040e+09 -3.756405e+09 -3.914125e+09 -2.874466e+05 -1.012625e+06 -1.290862e+05
-4.503825e+09 -4.304035e+09 -4.464097e+09 -1.201053e+05 -1.457431e+04 3.544984e+04
-4.642247e+09 -4.442380e+09 -4.602438e+09 -5.511091e+04 -2.560305e+03 1.404158e+04
-3.964370e+09 -3.764459e+09 -3.924536e+09 -6.251249e+04 -1.798975e+04 2.894915e+04
-4.890129e+09 -4.690006e+09 -4.850161e+09 -3.409901e+03 7.830260e-06 -5.370118e+02
-4.994544e+09 -4.794282e+09 -4.954573e+09 -3.443317e+04 1.388515e+04 -3.601176e+03
-2.367520e+09 -2.167587e+09 -2.327598e+09 4.375061e+03 2.311144e+03 5.034376e+03
-4.271873e+09 -4.071639e+09 -4.231893e+09 -1.860382e+04 3.346106e+04 -4.831449e+03
-3.290346e+09 -3.090412e+09 -3.250426e+09 1.338146e+03 1.824566e+02 3.474233e+02
-2.765736e+09 -2.565792e+09 -2.725808e+09 1.402009e+03 5.892688e+02 1.507032e+03
-3.373178e+09 -3.173228e+09 -3.333248e+09 1.121719e+03 8.736149e+02 6.331137e+02
-4.653384e+09 -4.452972e+09 -4.613383e+09 -3.054791e+04 1.253107e+04 4.920317e+03
-1.576017e+09 -1.376081e+09 -1.536093e+09 4.750543e+03 9.236324e+02 5.170683e+03
-1.985643e+09 -1.785712e+09 -1.945722e+09 7.609303e+02 1.129380e+03 1.142287e+03
-5.007192e+09 -4.806983e+09 -4.967312e+09 -1.353752e+05 1.980979e+04 -1.058367e+04
-1.585974e+09 -1.386041e+09 -1.546052e+09 3.085534e+03 7.206024e+02 4.606766e+03
-1.636025e+09 -1.436044e+09 -1.596078e+09 -1.088342e+03 -6.424568e+02 3.204633e+03
-3.106069e+09 -2.906099e+09 -3.066126e+09 -6.483626e+02 -5.579001e+02 1.163820e+03
-4.129670e+09 -3.929376e+09 -4.089690e+09 -5.178522e+04 4.088029e+04 -1.092080e+04
-3.268686e+09 -3.068700e+09 -3.228737e+09 3.588099e+03 -6.800949e+01 5.688840e+02
-4.555856e+09 -4.355844e+09 -4.515908e+09 1.255246e+04 1.249430e+02 4.189500e+02
-4.104459e+09 -3.904470e+09 -4.064520e+09 1.587726e+04 1.015181e+03 5.190220e+03
-1.635390e+09 -1.435417e+09 -1.595447e+09 -8.049051e+02 -3.627219e+02 1.486160e+03
-1.903846e+09 -1.703871e+09 -1.863901e+09 -1.058754e+03 -7.496632e+02 1.401623e+03
-4.814996e+09 -4.615013e+09 -4.775060e+09 1.667318e+04 -2.395418e+02 2.965193e+03
-3.961476e+09 -3.761478e+09 -3.921544e+09 2.254161e+04 6.410194e+03 6.040552e+03
-5.007393e+09 -4.807399e+09 -4.967478e+09 3.668792e+04 1.801008e+03 2.805329e+03
-4.154867e+09 -3.954902e+09 -4.114940e+09 1.648836e+04 3.635630e+03 1.926876e+03
-4.944472e+09 -4.744382e+09 -4.904540e+09 -1.361378e+04 -2.844402e+03 2.247460e+03
-4.417309e+09 -4.217187e+09 -4.377371e+09 -7.536434e+03 -2.245129e+03 6.457646e+03
-3.862378e+09 -3.662280e+09 -3.822439e+09 -1.952168e+04 -1.044328e+04 1.182885e+04
-4.689156e+09 -4.489024e+09 -4.649219e+09 -1.533518e+04 -5.188828e+03 7.527109e+02
-3.865903e+09 -3.665835e+09 -3.825960e+09 1.338548e+02 -6.661693e+03 1.876435e+02
-4.836423e+09 -4.636452e+09 -4.796498e+09 1.926299e+04 1.063910e+03 2.151911e+03
-4.994181e+09 -4.794210e+09 -4.954245e+09 1.019857e+04 -7.625221e+01 -1.402822e+03
-3.569138e+09 -3.369026e+09 -3.529189e+09 -1.221827e+04 -1.441930e+04 1.046976e+04
-3.907754e+09 -3.707722e+09 -3.867836e+09 -3.171941e+04 -1.275310e+04 1.072601e+04
-3.469005e+09 -3.268852e+09 -3.429064e+09 -6.296490e+04 -5.668909e+04 2.924107e+04
-1.625180e+09 -1.425122e+09 -1.585197e+09 -1.673557e+03 -1.425789e+04 1.772779e+04
-4.993551e+09 -4.793382e+09 -4.953689e+09 -2.905214e+05 3.685041e+04 -1.789306e+04
-4.994728e+09 -4.794754e+09 -4.954986e+09 -2.682127e+05 2.698341e+04 -2.032988e+04
-1.839272e+09 -1.639184e+09 -1.799290e+09 -3.607872e+04 -8.435002e+04 2.296252e+04
-3.687219e+09 -3.487332e+09 -3.647481e+09 -1.240282e+04 4.238063e+04 -2.473186e+03
-4.977182e+09 -4.777344e+09 -4.937519e+09 -1.656840e+05 1.591180e+04 -2.248453e+04
-4.301043e+09 -4.101052e+09 -4.261302e+09 -1.964122e+05 3.746784e+04 -2.497905e+04
-3.964098e+09 -3.764023e+09 -3.924238e+09 -1.343051e+05 6.177646e+04 -3.744484e+04
-4.243181e+09 -4.043110e+09 -4.203323e+09 -9.999947e+04 4.133881e+04 -2.140773e+04
-2.136776e+09 -1.936646e+09 -2.096771e+09 -2.046666e+04 -1.025201e+05 1.802113e+04
-1.851101e+09 -1.651002e+09 -1.811094e+09 1.297609e+04 -8.719485e+04 2.248444e+04
-3.962668e+09 -3.763528e+09 -3.922911e+09 1.194868e+05 4.985228e+04 9.287829e+04
-4.806541e+09 -4.607503e+09 -4.767003e+09 -6.166736e+02 1.505902e+04 4.771592e+04
-3.951307e+09 -3.751289e+09 -3.911406e+09 -5.059489e+04 -2.016618e+04 1.587354e+04
-4.991271e+09 -4.791219e+09 -4.951385e+09 -6.976471e+04 -8.118791e+03 8.468739e+03
-3.524874e+09 -3.324819e+09 -3.484957e+09 -5.163273e+04 -2.912451e+04 2.439400e+04
-4.602620e+09 -4.402608e+09 -4.562717e+09 -4.977666e+04 -8.442114e+03 5.793264e+03
-3.162457e+09 -2.962450e+09 -3.122514e+09 -5.465175e+03 -2.148489e+03 6.170615e+03
-3.854147e+09 -3.654159e+09 -3.814225e+09 -2.566825e+04 -9.056945e+03 9.168040e+03
-4.245470e+09 -4.045463e+09 -4.205564e+09 -3.593403e+04 -8.118709e+03 1.036304e+04
-4.631402e+09 -4.431412e+09 -4.591497e+09 -4.008238e+04 -6.498066e+03 5.639702e+03
-4.121975e+09 -3.921973e+09 -4.082066e+09 -3.792517e+04 -8.539996e+03 1.414579e+04
-4.074794e+09 -3.874772e+09 -4.034888e+09 -4.618674e+04 -1.440471e+04 1.847349e+04
-4.798542e+09 -4.598228e+09 -4.758588e+09 -1.149375e+05 -1.279714e+04 -1.954284e+03
-3.956839e+09 -3.756371e+09 -3.916785e+09 -3.917606e+04 -5.155770e+04 1.045198e+04
-1.839305e+09 -1.639218e+09 -1.799299e+09 7.251122e+03 -7.341105e+04 2.930550e+04
-3.961152e+09 -3.760522e+09 -3.920917e+09 -1.495406e+04 -1.312212e+04 1.535713e+04
-4.127227e+09 -3.926936e+09 -4.087267e+09 -1.736797e+05 -5.139771e+04 3.441109e+04
-4.131000e+09 -3.930331e+09 -4.090742e+09 -2.027566e+05 -6.331563e+04 4.508341e+04
-2.919448e+09 -2.719267e+09 -2.879482e+09 -2.696731e+04 -8.386196e+04 1.845328e+04
-2.890443e+09 -2.690891e+09 -2.850691e+09 -8.661328e+04 3.026661e+04 -7.248051e+04
-2.138235e+09 -1.938084e+09 -2.098209e+09 -8.776974e+03 -1.081495e+05 8.327102e+03
-3.949627e+09 -3.749742e+09 -3.909555e+09 -3.978402e+05 3.773028e+04 -9.178648e+03
-4.122427e+09 -3.923268e+09 -4.082596e+09 -2.855137e+05 -1.685741e+04 -5.307910e+04
-3.969529e+09 -3.769295e+09 -3.929563e+09 2.254466e+04 3.622556e+04 2.948096e+03
-3.962314e+09 -3.761986e+09 -3.922332e+09 2.113189e+04 4.338824e+04 7.675776e+03
-4.298431e+09 -4.098119e+09 -4.258444e+09 4.289303e+04 5.188685e+04 6.888114e+03
-1.698478e+09 -1.498555e+09 -1.658563e+09 -3.933143e+03 -2.151074e+03 1.350494e+04
-1.636012e+09 -1.436080e+09 -1.596090e+09 -6.923058e+02 -8.225318e+02 1.512684e+03
-1.649060e+09 -1.448971e+09 -1.609058e+09 -1.808281e+02 5.357378e+03 -1.615045e+03
-2.069579e+09 -1.869462e+09 -2.029582e+09 -7.233252e+03 5.942188e+04 -1.605054e+04
-1.932637e+09 -1.732533e+09 -1.892639e+09 -1.285976e+04 -1.352217e+04 -2.068136e+03
-4.816804e+09 -4.616899e+09 -4.775364e+09 6.853902e+05 2.214514e+04 2.787881e+05
-1.665962e+09 -1.465883e+09 -1.625972e+09 2.204255e+03 1.012131e+04 5.053780e+03
-3.962069e+09 -3.761246e+09 -3.920790e+09 -3.620123e+05 1.500109e+05 -1.356742e+05
-3.946056e+09 -3.745692e+09 -3.905433e+09 -4.451783e+05 7.625632e+04 -1.092724e+05
-4.803729e+09 -4.603394e+09 -4.763323e+09 -4.472652e+05 -8.600513e+02 1.308290e+04
-2.638648e+09 -2.438524e+09 -2.598666e+09 7.560944e+03 3.237916e+04 8.331402e+03
-3.969604e+09 -3.768844e+09 -3.927835e+09 -5.173307e+05 4.159255e+05 -1.155114e+05
-4.145496e+09 -3.945148e+09 -4.104462e+09 -6.095802e+05 1.283883e+05 -5.917914e+04
-4.123553e+09 -3.923729e+09 -4.083247e+09 -4.891524e+05 7.460665e+04 -6.318907e+04
-4.131480e+09 -3.931540e+09 -4.091510e+09 -3.599331e+05 1.915784e+00 8.447145e+03
-4.996408e+09 -4.796487e+09 -4.955752e+09 -5.580313e+05 7.805697e+03 3.485352e+04
-4.990078e+09 -4.790073e+09 -4.950152e+09 -3.943141e+05 -2.869321e+04 7.210619e+04
-3.477222e+09 -3.277155e+09 -3.437360e+09 -8.438475e+04 6.367309e+04 -4.264615e+04
-4.355112e+09 -4.155738e+09 -4.315381e+09 -1.621409e+05 -4.814107e+04 -9.383529e+03
-2.744909e+09 -2.544856e+09 -2.704980e+09 2.335155e+04 -3.733000e+04 -1.477480e+04
-4.011890e+09 -3.812424e+09 -3.972338e+09 -2.034498e+05 1.810513e+04 3.463383e+03
-3.376851e+09 -3.176881e+09 -3.337038e+09 -1.172653e+05 7.180131e+04 -7.050122e+04
-3.076325e+09 -2.876291e+09 -3.036419e+09 -2.615050e+04 5.063636e+04 -2.179798e+04
-2.234113e+09 -2.034089e+09 -2.194188e+09 -2.989955e+04 6.030796e+04 -2.124453e+04
-2.769951e+09 -2.570005e+09 -2.730102e+09 -1.601723e+04 6.516681e+04 -1.811102e+04
-2.764907e+09 -2.565200e+09 -2.725194e+09 -1.879061e+03 3.586790e+04 8.352820e+03
-1.699245e+09 -1.499233e+09 -1.659291e+09 -2.740682e+03 1.128597e+05 -6.635854e+04
-4.242150e+09 -4.042145e+09 -4.202338e+09 -9.491110e+04 3.235821e+04 -1.745560e+04
-4.987182e+09 -4.786410e+09 -4.946861e+09 1.307652e+04 4.697729e+04 -8.837173e+02
-5.000947e+09 -4.800261e+09 -4.960704e+09 -1.274592e+05 3.966756e+04 -1.605148e+04
-3.965310e+09 -3.764528e+09 -3.924822e+09 -4.273738e+02 -6.052455e+04 1.441390e+04
-3.957293e+09 -3.756689e+09 -3.917084e+09 -3.708321e+04 3.011219e+04 6.490049e+02
-4.978524e+09 -4.779788e+09 -4.933983e+09 3.905236e+05 -1.389262e+05 -2.122985e+05
-4.821442e+09 -4.620757e+09 -4.777502e+09 6.894841e+05 -4.869974e+04 -1.026576e+04
-4.642620e+09 -4.443116e+09 -4.601951e+09 7.414154e+05 -1.317529e+05 3.340217e+05
-4.320748e+09 -4.120595e+09 -4.280851e+09 -9.191076e+04 3.312209e+04 -1.058224e+04
-4.145166e+09 -3.945028e+09 -4.105264e+09 -9.529900e+04 4.117078e+04 -1.253954e+04
-4.172149e+09 -3.972188e+09 -4.132236e+09 2.596070e+04 6.514792e+03 4.794836e+03
-4.992049e+09 -4.792896e+09 -4.951115e+09 -3.234377e+05 3.219204e+04 3.007655e+04
-4.836802e+09 -4.636834e+09 -4.796886e+09 2.742107e+04 5.125748e+03 4.800661e+02
-4.493576e+09 -4.293605e+09 -4.453663e+09 2.897977e+04 3.375174e+03 5.207296e+03
-4.299565e+09 -4.099671e+09 -4.259699e+09 2.094078e+04 3.667027e+03 1.213610e+04
-4.150807e+09 -3.949780e+09 -4.109989e+09 1.062362e+05 3.557871e+04 -4.178674e+02
-4.457333e+09 -4.258541e+09 -4.414601e+09 5.575666e+05 -2.373748e+04 -6.814282e+05
-4.976711e+09 -4.777588e+09 -4.936482e+09 3.258664e+05 6.130948e+04 4.196943e+04
-4.106695e+09 -3.906561e+09 -4.066088e+09 5.478364e+05 -1.036447e+05 -8.252199e+04
-4.969580e+09 -4.769661e+09 -4.929682e+09 1.105414e+04 7.713282e+02 1.500771e+03
-4.133745e+09 -3.933958e+09 -4.091687e+09 6.244235e+05 -3.268342e+05 -1.931868e+05
-4.134034e+09 -3.933925e+09 -4.091695e+09 6.939514e+05 -4.579876e+05 -5.277101e+05
-3.974368e+09 -3.774426e+09 -3.934457e+09 1.852416e+04 2.939281e+03 7.391883e+03
-4.279623e+09 -4.079693e+09 -4.239718e+09 1.521173e+04 2.037769e+03 5.033976e+03
-4.156325e+09 -3.956386e+09 -4.116423e+09 2.173878e+04 5.659281e+03 6.330266e+03
-4.603583e+09 -4.403510e+09 -4.563644e+09 3.720792e+02 -2.274721e+03 -4.973797e-05
-4.972565e+09 -4.772619e+09 -4.932646e+09 9.766655e+03 5.076407e+02 9.750626e+01
-4.666969e+09 -4.467034e+09 -4.627072e+09 2.050382e+04 9.362010e+02 3.727198e+03
-3.363233e+09 -3.163301e+09 -3.323316e+09 4.579448e+03 5.944519e+02 3.636169e+03
-3.958381e+09 -3.758445e+09 -3.918477e+09 1.588213e+04 2.379646e+03 8.143664e+03
-4.636904e+09 -4.436963e+09 -4.596991e+09 1.594002e+04 8.467381e+02 3.139044e+03
-4.642289e+09 -4.442351e+09 -4.602368e+09 -1.856133e+03 -1.585723e+02 4.759547e+02
-4.429639e+09 -4.229505e+09 -4.389674e+09 3.446094e+03 1.726770e+03 1.878631e+03
-4.969103e+09 -4.768977e+09 -4.929144e+09 1.620690e+04 3.540810e+03 1.343719e+03
-4.665153e+09 -4.465386e+09 -4.625436e+09 -1.911470e+05 -1.533581e+04 3.000991e+04
-4.701614e+09 -4.501669e+09 -4.661688e+09 -2.195224e+03 2.098751e+02 5.932767e+02
-4.890044e+09 -4.690108e+09 -4.850125e+09 -1.130456e+03 2.562028e+02 4.456612e-05
-4.842237e+09 -4.642550e+09 -4.802581e+09 -1.472647e+05 -1.068910e+04 4.356582e+04
-4.345889e+09 -4.146107e+09 -4.306170e+09 -1.132211e+05 -1.534850e+04 3.746377e+04
-3.981762e+09 -3.781791e+09 -3.941853e+09 3.312958e+04 4.160325e+03 4.651630e+03
-3.959556e+09 -3.759583e+09 -3.919634e+09 2.654100e+04 6.524806e+03 7.541549e+03
-4.467290e+09 -4.267306e+09 -4.427363e+09 2.330104e+04 2.196763e+03 1.880572e+03
-3.959570e+09 -3.759594e+09 -3.919641e+09 2.000523e+04 4.039517e+03 4.271461e+03
-4.683956e+09 -4.483988e+09 -4.644038e+09 2.527204e+04 3.072049e+03 3.924281e+03
-4.134228e+09 -3.934244e+09 -4.094303e+09 2.727919e+04 6.328964e+03 6.584642e+03
-4.155368e+09 -3.955415e+09 -4.115450e+09 1.567743e+04 6.876467e+02 5.321939e+03
-4.670754e+09 -4.470803e+09 -4.630842e+09 1.822538e+04 1.103939e+03 3.010745e+03
-4.987385e+09 -4.787254e+09 -4.947421e+09 -6.900823e+03 8.427721e+02 1.447826e+02
-4.197868e+09 -3.997930e+09 -4.157952e+09 6.493431e+03 8.005572e+02 3.232616e+03
-4.433584e+09 -4.233651e+09 -4.393667e+09 -1.184839e+03 -5.560124e+02 5.065528e+02
-2.569993e+09 -2.370055e+09 -2.530069e+09 -9.822128e+02 -7.573979e+02 4.178808e+02
-4.012205e+09 -3.812275e+09 -3.972294e+09 -7.069758e+03 -2.044444e+03 2.636531e+03
-3.225591e+09 -3.025650e+09 -3.185669e+09 -4.532420e+03 -1.881187e+03 2.809497e+03
-4.740119e+09 -4.540140e+09 -4.700171e+09 7.187145e+02 -1.183208e+02 1.871625e+01
-4.680881e+09 -4.480927e+09 -4.640950e+09 2.302675e+03 3.813721e+02 -2.908605e+02
-3.265110e+09 -3.065158e+09 -3.225182e+09 6.768307e+03 1.555039e+03 2.983361e+03
-4.892094e+09 -4.692145e+09 -4.852167e+09 1.420882e+03 -3.722622e+02 -5.918338e-05
-3.330305e+09 -3.130381e+09 -3.290396e+09 -4.989664e+03 -1.264257e+03 5.879032e+03
-2.788411e+09 -2.588483e+09 -2.748493e+09 -3.714627e+02 -3.733222e+02 9.892963e+02
-1.899367e+09 -1.699447e+09 -1.859454e+09 -7.938698e+02 -3.290579e+03 1.113256e+04
-3.347630e+09 -3.147714e+09 -3.307727e+09 -1.758876e+03 -7.213913e+02 7.046196e+03
-4.907898e+09 -4.707916e+09 -4.867949e+09 7.294478e+02 1.206867e-04 -2.808475e+02
-4.078014e+09 -3.878034e+09 -4.038065e+09 4.873514e+02 3.165556e+02 2.641617e+02
-3.762310e+09 -3.562331e+09 -3.722361e+09 1.773939e+02 6.894166e-01 -1.918301e+02
-2.106720e+09 -1.906744e+09 -2.066774e+09 1.503153e+03 1.549251e+02 2.672219e+02
-3.256540e+09 -3.056560e+09 -3.216591e+09 8.782242e+02 1.066472e+02 3.037964e+00
-3.560163e+09 -3.360181e+09 -3.520214e+09 3.876518e+02 -1.035799e+01 4.644655e+02
-3.761142e+09 -3.561159e+09 -3.721192e+09 6.369053e+02 8.905322e+01 -6.133713e+01
-1.675247e+09 -1.475262e+09 -1.635299e+09 8.087182e+03 2.415131e+03 3.470199e+03
-1.599076e+09 -1.399088e+09 -1.559125e+09 3.709237e+03 8.790744e+02 6.526557e+02
-2.180624e+09 -1.980638e+09 -2.140673e+09 1.202526e+03 -2.188482e+01 -6.168802e+01
-3.906214e+09 -3.706119e+09 -3.866289e+09 -3.387307e+04 2.039396e+04 -7.346593e+03
-3.992311e+09 -3.792249e+09 -3.952394e+09 -2.513683e+04 2.212249e+04 -5.671909e+03
-4.816205e+09 -4.616119e+09 -4.776266e+09 -2.332631e+04 6.261405e+03 -1.846980e+03
-4.138871e+09 -3.938576e+09 -4.098897e+09 7.007273e+04 -3.734845e+04 -9.801461e+03
-4.998768e+09 -4.798459e+09 -4.958813e+09 9.320202e+04 -1.891446e+04 -8.787359e+03
-4.804708e+09 -4.604487e+09 -4.764767e+09 3.397058e+04 -8.993504e+03 2.174962e+03
-4.626110e+09 -4.425805e+09 -4.586161e+09 4.248095e+04 -1.244317e+04 3.385919e+02
-2.229848e+09 -2.029869e+09 -2.189902e+09 6.726867e+03 1.740543e+03 1.586256e+03
-3.975610e+09 -3.775629e+09 -3.935661e+09 1.157480e+03 1.547054e+00 1.708224e+02
-1.999986e+09 -1.799993e+09 -1.960035e+09 8.964303e+03 3.672449e+03 3.125068e+03
-2.350496e+09 -2.150493e+09 -2.310540e+09 1.260959e+04 6.485981e+03 4.766552e+03
-3.187408e+09 -2.987212e+09 -3.147448e+09 5.171940e+04 -7.145628e+04 -2.035995e+04
-1.635454e+09 -1.435378e+09 -1.595460e+09 -4.636653e+02 3.918904e+03 -7.686327e+03
-4.986257e+09 -4.786036e+09 -4.946310e+09 1.809663e+04 -6.141535e+03 -3.644044e+03
-2.098508e+09 -1.898435e+09 -2.058522e+09 -4.870067e+03 1.491707e+04 -1.134596e+04
-4.981106e+09 -4.780824e+09 -4.941156e+09 3.028092e+04 -1.692399e+04 -3.324585e+03
-3.421229e+09 -3.221089e+09 -3.381271e+09 1.362261e+04 -1.004329e+04 -1.150951e+04
-1.565889e+09 -1.365821e+09 -1.525900e+09 -1.905012e+03 1.139950e+04 -5.685627e+03
-1.951798e+09 -1.751721e+09 -1.911808e+09 2.508425e+03 4.295093e+03 -7.378640e+03
-2.962262e+09 -2.762172e+09 -2.922279e+09 -2.397912e+03 4.722945e+03 -8.015662e+03
-4.962770e+09 -4.762550e+09 -4.922831e+09 6.061918e+04 -1.296305e+04 -7.123567e+03
-4.982476e+09 -4.782201e+09 -4.942516e+09 4.853804e+04 -1.455824e+04 -5.344963e+03
-4.496315e+09 -4.296171e+09 -4.456422e+09 -9.235738e+04 -2.837057e+04 1.603638e+04
-1.922915e+09 -1.722824e+09 -1.882914e+09 1.525304e+02 6.189374e+03 8.116228e+02
-1.901068e+09 -1.700972e+09 -1.861068e+09 4.816368e+03 7.136201e+03 -4.239584e+03
-4.919999e+09 -4.719896e+09 -4.880088e+09 -6.288283e+04 -1.005396e+04 6.347990e+03
-2.626691e+09 -2.426616e+09 -2.586735e+09 -1.499720e+04 -2.699676e+04 2.466717e+04
-3.954776e+09 -3.754519e+09 -3.914815e+09 -8.994781e+04 -4.091056e+04 1.517809e+04
-4.153091e+09 -3.952949e+09 -4.113174e+09 -8.335937e+04 -2.166974e+04 1.371380e+04
-1.649062e+09 -1.448971e+09 -1.609059e+09 2.760930e+02 5.120705e+03 -9.693608e+02
-4.148782e+09 -3.948619e+09 -4.108854e+09 -5.667789e+04 -2.142002e+04 7.761210e+03
-3.975089e+09 -3.774972e+09 -3.935186e+09 -9.457223e+04 -3.445658e+04 1.648849e+04
-2.130157e+09 -1.930046e+09 -2.090157e+09 4.669927e+02 1.551921e+04 6.325371e+02
-5.004833e+09 -4.804572e+09 -4.964893e+09 7.763913e+04 2.638034e+04 9.984902e+03
-3.948702e+09 -3.748405e+09 -3.908731e+09 5.485832e+04 4.334228e+04 1.070272e+04
-4.828303e+09 -4.627890e+09 -4.788293e+09 5.619690e+04 7.048734e+03 -5.866888e+03
-1.899813e+09 -1.699720e+09 -1.859816e+09 -5.478332e+03 7.192890e+03 -3.611672e+03
-3.110121e+09 -2.909991e+09 -3.070137e+09 3.698756e+03 5.960282e+03 -1.620687e+03
-3.962370e+09 -3.762024e+09 -3.922354e+09 4.647760e+04 4.110081e+04 9.668200e+03
-2.754640e+09 -2.554868e+09 -2.714898e+09 -2.270470e+03 5.022475e+04 5.711741e+03
-4.303438e+09 -4.103876e+09 -4.263887e+09 6.822096e+04 1.008938e+04 3.797658e+04
-4.813678e+09 -4.613529e+09 -4.773764e+09 9.279102e+04 7.822139e+03 8.798129e+03
-4.298614e+09 -4.098505e+09 -4.258685e+09 5.133298e+04 1.652183e+04 1.037801e+04
-4.464130e+09 -4.264018e+09 -4.424202e+09 6.270363e+04 1.719382e+04 7.399148e+03
-4.812815e+09 -4.612803e+09 -4.772933e+09 7.169158e+04 1.041195e+04 2.664170e+02
-4.621244e+09 -4.421613e+09 -4.581575e+09 1.430945e+05 1.782034e+04 3.356539e+04
-4.312941e+09 -4.112912e+09 -4.273067e+09 8.972033e+04 2.085143e+04 1.907566e+04
-4.816507e+09 -4.616535e+09 -4.776626e+09 5.464053e+04 8.059196e+02 1.084314e+04
-4.477118e+09 -4.277552e+09 -4.437516e+09 1.767007e+05 1.949678e+04 -4.057650e+03
-4.123586e+09 -3.923570e+09 -4.083730e+09 1.065625e+05 2.614386e+04 3.417701e+04
-4.820314e+09 -4.620748e+09 -4.780620e+09 1.940707e+05 3.319260e+04 5.072582e+04
-3.958067e+09 -3.757581e+09 -3.917840e+09 -2.071359e+05 6.720009e+04 -1.594567e+04
-4.990683e+09 -4.790726e+09 -4.950871e+09 1.133717e+05 7.387919e+03 1.004568e+04
-4.633412e+09 -4.433410e+09 -4.593589e+09 1.630017e+05 2.046209e+04 1.626147e+04
-4.996169e+09 -4.796221e+09 -4.956420e+09 2.220667e+05 1.146019e+04 1.392019e+04
-4.797852e+09 -4.597928e+09 -4.758079e+09 1.647690e+05 8.703220e+03 2.477365e+04
-4.964974e+09 -4.763640e+09 -4.923160e+09 -9.349238e+04 -2.203460e+04 -8.315877e+03
-4.824538e+09 -4.623978e+09 -4.784351e+09 -1.853693e+05 4.494209e+04 -1.415661e+04
-4.490343e+09 -4.288993e+09 -4.449229e+09 1.323863e+05 4.497134e+04 9.828628e+04
-4.283902e+09 -4.083880e+09 -4.243974e+09 3.480024e+04 8.371393e+03 7.190368e+03
-4.979991e+09 -4.779039e+09 -4.937298e+09 4.461755e+05 5.012145e+04 1.761469e+03
-4.797517e+09 -4.597470e+09 -4.757572e+09 1.971948e+04 4.817065e+03 1.457419e+03
-4.644027e+09 -4.443569e+09 -4.603598e+09 5.068693e+05 9.054102e+04 4.751473e+04
-4.646754e+09 -4.447692e+09 -4.606955e+09 -2.079408e+05 6.527311e+03 2.162466e+04
-4.299982e+09 -4.099861e+09 -4.258902e+09 6.437070e+05 1.382455e+05 1.119702e+05
-4.642107e+09 -4.441912e+09 -4.601077e+09 6.091575e+05 6.151693e+04 5.638346e+04
-4.628466e+09 -4.428648e+09 -4.588714e+09 8.462849e+04 3.147616e+03 1.821911e+04
-4.988340e+09 -4.788564e+09 -4.948633e+09 8.896002e+04 8.775895e+03 1.593502e+04
-4.616738e+09 -4.417475e+09 -4.577183e+09 -2.019827e+05 -8.574995e+03 4.018511e+04
-4.452434e+09 -4.252887e+09 -4.412759e+09 -2.174896e+05 2.992948e+04 -6.320762e+03
-2.008989e+09 -1.809043e+09 -1.969060e+09 -8.603670e+03 -3.155602e+03 6.912510e+03
-4.821661e+09 -4.621611e+09 -4.775361e+09 -5.700069e+05 8.660674e+04 -1.204698e+05
-4.478017e+09 -4.277742e+09 -4.431075e+09 -5.486647e+05 2.778619e+05 -4.561039e+05
-4.664032e+09 -4.463231e+09 -4.616564e+09 -1.400370e+05 2.592414e+05 -3.016528e+05
-3.179047e+09 -2.979021e+09 -3.139092e+09 1.092628e+04 7.460800e+03 6.144446e+03
-5.007361e+09 -4.806989e+09 -4.959067e+09 1.395127e+05 1.559991e+05 7.684899e+03
-2.198334e+09 -1.998282e+09 -2.158368e+09 2.728514e+03 -2.323163e+04 -3.097366e+01
-2.877667e+09 -2.677660e+09 -2.837723e+09 1.638033e+04 1.043456e+04 1.050132e+04
-5.012763e+09 -4.813112e+09 -4.973019e+09 3.493723e+05 9.600121e+03 3.064825e+04
-4.306103e+09 -4.106115e+09 -4.266322e+09 3.099530e+05 2.552833e+04 1.939004e+04
-4.318039e+09 -4.118199e+09 -4.278131e+09 3.352920e+05 5.605709e+04 6.676708e+04
-4.122363e+09 -3.922282e+09 -4.082503e+09 3.061164e+05 5.623666e+04 4.945746e+04
-4.437962e+09 -4.239369e+09 -4.397416e+09 2.198430e+05 -1.503352e+05 -3.372205e+05
-2.815834e+09 -2.615799e+09 -2.775876e+09 1.505201e+04 1.199584e+04 1.011367e+04
-4.282195e+09 -4.083477e+09 -4.239520e+09 1.052073e+05 -2.112093e+04 -3.864793e+05
-4.103074e+09 -3.904187e+09 -4.062554e+09 1.890687e+05 -8.636396e+03 -2.383708e+05
-4.133469e+09 -3.934116e+09 -4.093081e+09 3.854709e+05 -5.820728e+04 -1.266001e+05
-4.976634e+09 -4.777819e+09 -4.936517e+09 2.851437e+05 4.797706e+04 4.968661e+04
-1.846813e+09 -1.646797e+09 -1.806854e+09 1.734118e+04 1.552932e+04 1.149287e+04
-4.299123e+09 -4.099799e+09 -4.258683e+09 5.359121e+05 -6.649666e+04 -2.023788e+05
-1.835923e+09 -1.635887e+09 -1.795951e+09 -3.372954e+03 -4.082568e+04 -1.486272e+04
-4.425445e+09 -4.225597e+09 -4.385763e+09 2.214462e+04 -2.220160e+04 -1.376179e+03
-4.891918e+09 -4.692134e+09 -4.852288e+09 2.456831e+04 -1.124384e+04 -4.957763e-03
-4.468929e+09 -4.269219e+09 -4.423564e+09 2.767492e+05 -4.803764e+05 -8.547912e+05
-4.291789e+09 -4.092929e+09 -4.249040e+09 4.133662e+05 -1.692739e+04 -6.814288e+05
-4.291390e+09 -4.092636e+09 -4.245536e+09 -3.236272e+04 2.053145e+05 -1.360521e+06
-4.094891e+09 -3.896251e+09 -4.054559e+09 6.622066e+04 -7.385990e+02 -1.891333e+05
-1.657213e+09 -1.457150e+09 -1.617230e+09 -2.539919e+02 1.125486e+04 -6.838396e+02
-4.985607e+09 -4.786395e+09 -4.944209e+09 2.737594e+05 -1.763068e+05 -9.584059e+03
-3.938421e+09 -3.739824e+09 -3.897474e+09 -8.558214e+04 1.233065e+05 -5.947257e+05
-4.474800e+09 -4.274903e+09 -4.434964e+09 -6.400966e+04 -8.108964e+03 1.421225e+04
-1.906459e+09 -1.706484e+09 -1.866531e+09 1.600710e+04 6.950623e+04 -1.013710e+04
-4.503802e+09 -4.303961e+09 -4.464072e+09 -1.320060e+05 -1.857548e+04 2.815763e+04
-1.636095e+09 -1.436078e+09 -1.596132e+09 -1.388439e+03 5.352571e+04 -3.649742e+03
-1.612676e+09 -1.412671e+09 -1.572718e+09 -6.309837e+02 6.057307e+04 -1.400195e+04
-3.229767e+09 -3.029713e+09 -3.189839e+09 1.028859e+04 -1.983430e+04 -8.448289e+03
-4.307299e+09 -4.106684e+09 -4.267142e+09 -7.073524e+04 7.965665e+04 -1.618526e+04
-2.682880e+09 -2.482815e+09 -2.642922e+09 7.573286e+02 -9.117203e+03 -1.244102e+02
-4.481319e+09 -4.280760e+09 -4.441239e+09 -2.001019e+05 3.671744e+04 -1.977939e+04
-3.971070e+09 -3.770540e+09 -3.930938e+09 -1.376845e+05 3.415367e+04 -1.084605e+03
-4.987696e+09 -4.787029e+09 -4.947480e+09 -2.683024e+05 3.288838e+04 -1.181202e+04
-4.474869e+09 -4.274134e+09 -4.434489e+09 -7.323607e+04 3.868016e+04 5.604835e+03
-3.938254e+09 -3.737363e+09 -3.897020e+09 -2.883074e+05 -8.308495e+04 3.804093e+04
-4.499689e+09 -4.298590e+09 -4.458437e+09 -1.326779e+05 2.383100e+03 4.020188e+04
-4.821698e+09 -4.621247e+09 -4.781609e+09 -2.341622e+05 3.549950e+04 -6.355843e+03
-3.289515e+09 -3.089438e+09 -3.249558e+09 1.878259e+04 2.156712e+04 1.016749e+04
-4.991435e+09 -4.790841e+09 -4.950179e+09 -5.533920e+05 1.558858e+04 -4.101798e+03
-3.938409e+09 -3.737361e+09 -3.897167e+09 -2.229255e+05 -3.018518e+05 1.890711e+05
-4.967924e+09 -4.767001e+09 -4.926662e+09 -2.767817e+05 2.175676e+04 -3.657475e+04
-3.614092e+09 -3.414059e+09 -3.574135e+09 2.462870e+03 2.062482e+03 2.869976e+03
-4.430202e+09 -4.230130e+09 -4.390245e+09 4.841539e+03 1.394837e+03 3.274828e+03
-4.890103e+09 -4.690041e+09 -4.850149e+09 4.202266e+03 -4.586616e-05 5.159638e+01
-4.977909e+09 -4.777843e+09 -4.937964e+09 2.263412e+04 5.720025e+03 3.601539e+03
-4.990740e+09 -4.789468e+09 -4.948532e+09 -7.847769e+04 -3.502862e+04 -5.252423e+04
-3.439473e+09 -3.239364e+09 -3.399520e+09 3.667146e+04 3.714533e+04 1.652693e+04
-1.671092e+09 -1.471042e+09 -1.631114e+09 2.753000e+03 5.691903e+03 7.969282e+03
-3.964810e+09 -3.763760e+09 -3.922342e+09 -4.963056e+05 -3.589785e+05 7.136496e+04
-4.994681e+09 -4.793605e+09 -4.951954e+09 -2.970903e+05 -4.209600e+04 2.888732e+04
-4.821790e+09 -4.620987e+09 -4.779919e+09 -5.414746e+05 7.775694e+03 1.925782e+05
-4.917360e+09 -4.717287e+09 -4.877426e+09 0.000000e+00 -5.215528e+02 3.552616e+02
-4.896963e+09 -4.696884e+09 -4.856998e+09 -1.062725e+03 1.144502e-05 -6.030923e+02
-2.644568e+09 -2.444557e+09 -2.604611e+09 1.823172e+03 2.384358e+02 3.181145e+03
-4.905093e+09 -4.705167e+09 -4.865182e+09 1.012481e+03 -2.244036e+02 -4.057220e-06
-3.139600e+09 -2.939644e+09 -3.099670e+09 9.017458e+03 1.460111e+03 4.369307e+03
-1.635981e+09 -1.435989e+09 -1.596028e+09 1.097434e+03 4.869259e+02 1.136732e+03
-3.453261e+09 -3.253269e+09 -3.413319e+09 1.456374e+04 4.378969e+03 4.134924e+03
-1.929255e+09 -1.729220e+09 -1.889284e+09 4.497542e+03 3.537323e+03 5.788254e+03
-3.168237e+09 -2.968200e+09 -3.128290e+09 2.526394e+04 1.760065e+04 1.211510e+04
-4.822854e+09 -4.622731e+09 -4.782906e+09 2.497939e+04 7.437804e+03 -2.124927e+03
-3.833487e+09 -3.633439e+09 -3.793538e+09 2.514999e+04 8.605248e+03 6.567590e+03
-3.889523e+09 -3.689585e+09 -3.849602e+09 1.200025e+03 7.988326e+01 5.539251e+02
-2.921962e+09 -2.721923e+09 -2.882017e+09 2.331711e+04 2.162268e+04 1.736686e+04
-1.553606e+09 -1.353540e+09 -1.513615e+09 -9.276754e+02 -6.260364e+04 2.406732e+04
-2.139666e+09 -1.939616e+09 -2.099700e+09 2.999809e+03 -3.244733e+04 -8.890755e+03
-4.964483e+09 -4.764391e+09 -4.924534e+09 2.403731e+04 6.090363e+03 3.382527e+03
-2.906130e+09 -2.706025e+09 -2.866175e+09 -3.824102e+04 -4.329810e+04 2.726052e+04
-2.946228e+09 -2.746166e+09 -2.906278e+09 2.792370e+04 2.622909e+04 1.960037e+04
-3.323461e+09 -3.123493e+09 -3.283519e+09 -1.029652e+03 -1.098088e+02 7.451910e+02
-1.885830e+09 -1.685761e+09 -1.845862e+09 -3.963368e+04 -6.733929e+04 2.852066e+04
-1.628511e+09 -1.428441e+09 -1.588523e+09 2.366845e+03 1.214485e+04 7.247567e+03
-1.636333e+09 -1.436259e+09 -1.596341e+09 1.060035e+03 5.072980e+03 5.572202e+03
-1.943899e+09 -1.743884e+09 -1.903951e+09 -1.308668e+04 -5.601319e+04 -7.255995e+03
-3.510393e+09 -3.310428e+09 -3.470452e+09 -3.172457e+02 -9.550884e+01 2.239029e+02
-2.943065e+09 -2.743099e+09 -2.903128e+09 -5.877959e+03 -2.405712e+03 1.557279e+03
-1.598487e+09 -1.398449e+09 -1.558514e+09 2.869231e+02 -4.111042e+04 -8.871920e+03
-2.925281e+09 -2.725190e+09 -2.885326e+09 3.203807e+03 -1.094121e+04 -1.333611e+04
-2.259495e+09 -2.059563e+09 -2.219573e+09 1.058491e+03 4.018425e+02 8.107641e+02
-2.841321e+09 -2.641287e+09 -2.801427e+09 5.023444e+04 -6.808792e+04 -3.782737e+04
-1.598493e+09 -1.398450e+09 -1.558515e+09 1.629769e+03 -4.130991e+04 -1.004663e+04
-3.036752e+09 -2.836653e+09 -2.996777e+09 1.641342e+04 2.349615e+04 1.735220e+04
-1.918767e+09 -1.718718e+09 -1.878790e+09 4.319853e+03 4.552543e+03 5.897815e+03
-2.589288e+09 -2.389230e+09 -2.549315e+09 1.632856e+03 2.477450e+03 8.105421e+03
-4.994240e+09 -4.794159e+09 -4.954324e+09 -3.680066e+04 5.229108e+03 -2.675995e+03
-1.636326e+09 -1.436275e+09 -1.596349e+09 -1.975512e+03 -3.405233e+03 1.557103e+04
-2.785518e+09 -2.585458e+09 -2.745562e+09 -8.135759e+03 1.176515e+03 1.332017e+04
-2.929922e+09 -2.729883e+09 -2.889987e+09 -3.232888e+03 3.297390e+04 -6.150410e+03
-1.862794e+09 -1.662794e+09 -1.822855e+09 -1.007236e+04 5.438411e+04 -1.863143e+04
-3.615375e+09 -3.415409e+09 -3.575562e+09 -8.916232e+03 3.964929e+04 -2.692132e+03
-2.567936e+09 -2.367927e+09 -2.528030e+09 -7.811980e+02 5.557081e+04 -2.905556e+03
-3.638164e+09 -3.438153e+09 -3.598303e+09 -8.223470e+03 3.438330e+04 -2.699928e+03
-4.833424e+09 -4.633536e+09 -4.793566e+09 -1.581996e+04 3.468848e+02 3.249894e+03
-4.976064e+09 -4.775997e+09 -4.936139e+09 -1.529031e+04 4.438337e+03 -7.861724e+02
-4.289443e+09 -4.090670e+09 -4.248998e+09 2.040637e+05 -1.435368e+04 1.650663e+05
-2.986367e+09 -2.786425e+09 -2.946441e+09 -4.165569e+03 -7.819188e+02 3.210042e+03
-4.296538e+09 -4.097128e+09 -4.256164e+09 5.559247e+05 5.583831e+04 4.824911e+04
-4.817483e+09 -4.617455e+09 -4.777586e+09 6.411453e+04 5.122938e+03 1.142751e+04
-1.625871e+09 -1.425823e+09 -1.585891e+09 2.222163e+03 -4.153738e+04 -1.937233e+04
-2.723536e+09 -2.523520e+09 -2.683623e+09 1.791098e+04 -4.703802e+04 -1.307423e+04
-4.306149e+09 -4.106122e+09 -4.266239e+09 5.816839e+04 1.196837e+04 1.175015e+04
-5.007372e+09 -4.807379e+09 -4.967469e+09 4.942781e+04 6.795419e+02 2.124879e+03
-4.664360e+09 -4.464357e+09 -4.624451e+09 4.554631e+04 6.156289e+03 5.307687e+03
-2.756770e+09 -2.556667e+09 -2.716781e+09 -8.814985e+02 3.370967e+03 -6.061555e+03
-3.956413e+09 -3.756401e+09 -3.916503e+09 4.746736e+04 1.793345e+04 1.337184e+04
-3.961465e+09 -3.761466e+09 -3.921538e+09 3.082094e+04 8.124506e+03 8.454334e+03
-3.966148e+09 -3.766118e+09 -3.926223e+09 3.759923e+04 1.348935e+04 8.965429e+03
-4.462636e+09 -4.262572e+09 -4.422704e+09 4.024616e+04 1.102594e+04 7.402843e+03
-2.675877e+09 -2.475900e+09 -2.635930e+09 2.755621e+02 -2.600011e+01 8.606640e+00
-1.933662e+09 -1.733685e+09 -1.893716e+09 -3.906940e+01 8.449458e+01 1.147731e+02
-3.921325e+09 -3.721345e+09 -3.881377e+09 1.057837e+03 -4.390052e+01 2.833250e+02
-2.871871e+09 -2.671735e+09 -2.831899e+09 9.091386e+03 -2.879970e+04 -1.129787e+04
-3.681250e+09 -3.481273e+09 -3.641302e+09 3.382005e-02 3.743039e+01 3.443704e+01
-4.730599e+09 -4.530661e+09 -4.690680e+09 2.581690e+03 5.175095e+02 -5.007073e+02
-1.591200e+09 -1.391243e+09 -1.551265e+09 5.214394e+03 1.272798e+03 1.468213e+03
-4.138160e+09 -3.937697e+09 -4.098140e+09 1.609744e+04 -8.274607e+04 2.793267e+03
-4.293957e+09 -4.093426e+09 -4.253843e+09 -1.596720e+05 -8.448885e+04 1.343751e+04
-3.669162e+09 -3.469223e+09 -3.629240e+09 -1.294775e+03 -1.277649e+03 6.155612e+02
-1.592459e+09 -1.392518e+09 -1.552533e+09 -3.178004e+03 -1.187723e+03 4.014480e+03
-3.151369e+09 -2.951423e+09 -3.111446e+09 -8.266994e+03 -3.048611e+03 4.972871e+03
-4.890048e+09 -4.690104e+09 -4.850124e+09 -1.191351e+03 2.028799e+02 -5.405411e-05
-4.916147e+09 -4.716207e+09 -4.876225e+09 -2.620495e+03 1.465314e+02 8.908872e+01
-1.813574e+09 -1.613602e+09 -1.773631e+09 -1.058466e+03 -1.303057e+02 1.042569e+03
-1.632428e+09 -1.432459e+09 -1.592486e+09 -5.617778e+02 -1.696951e+02 7.718900e+02
-4.109927e+09 -3.910013e+09 -4.070036e+09 1.199699e+04 3.086831e+03 7.618046e+03
-5.003702e+09 -4.803462e+09 -4.963804e+09 1.396452e+05 -2.183763e+04 -2.138054e+04
-4.120090e+09 -3.921043e+09 -4.080675e+09 2.237989e+04 -2.607583e+04 -5.311373e+04
-4.453425e+09 -4.254256e+09 -4.413887e+09 -6.898441e+04 -4.863469e+03 -1.339038e+04
-2.726756e+09 -2.526786e+09 -2.686814e+09 -2.061998e+03 -7.898143e+02 8.315234e+02
-1.563802e+09 -1.363835e+09 -1.523861e+09 -9.262405e+02 1.445948e+01 8.368167e+02
-2.561801e+09 -2.361828e+09 -2.521860e+09 -4.994048e+03 -1.674609e+03 2.617646e+03
-3.929823e+09 -3.730347e+09 -3.890343e+09 -1.396091e+05 3.797811e+04 -6.852386e+04
-2.952312e+09 -2.752324e+09 -2.912367e+09 -1.784988e+03 -1.056306e+03 4.683997e+03
-3.617042e+09 -3.417056e+09 -3.577100e+09 -1.482971e+03 -1.091113e+03 2.069830e+03
-2.897982e+09 -2.698007e+09 -2.858038e+09 -8.896552e+02 -2.821252e+02 9.166001e+02
-2.246223e+09 -2.046250e+09 -2.206280e+09 -8.509665e+03 -3.414260e+03 3.224876e+03
-2.879798e+09 -2.679829e+09 -2.839860e+09 -8.070354e+03 -3.837595e+03 3.260871e+03
-3.357693e+09 -3.157519e+09 -3.317727e+09 3.921925e+04 -4.744494e+04 -2.150153e+04
-4.438544e+09 -4.238348e+09 -4.398596e+09 5.132080e+03 -1.247240e+03 -4.848096e+03
-4.977406e+09 -4.778244e+09 -4.938018e+09 -5.048797e+04 7.018805e+02 -5.575246e+04
-4.331601e+09 -4.131628e+09 -4.291660e+09 5.946689e+03 2.243882e+02 1.073637e+03
-4.271821e+09 -4.071864e+09 -4.231895e+09 1.141126e+04 1.324445e+03 1.480832e+03
-4.972627e+09 -4.772666e+09 -4.932696e+09 9.737938e+03 2.985974e+02 3.390892e+02
-4.826564e+09 -4.626753e+09 -4.786789e+09 -1.206396e+04 -5.101391e+03 1.568552e+04
-4.990742e+09 -4.790861e+09 -4.950895e+09 -2.571323e+04 -2.150838e+03 4.200630e+03
-3.955439e+09 -3.755625e+09 -3.915675e+09 -4.135578e+04 -7.078484e+03 3.979768e+04
-3.956808e+09 -3.756961e+09 -3.917018e+09 -5.142221e+04 -8.291303e+03 3.111394e+04
-2.878978e+09 -2.679048e+09 -2.839062e+09 -2.587647e+03 -3.756795e+02 3.434587e+03
-2.008768e+09 -1.808836e+09 -1.968847e+09 -7.484136e+03 -3.081187e+03 1.063068e+04
-1.592462e+09 -1.392518e+09 -1.552534e+09 -4.351488e+03 -1.632288e+03 2.629421e+03
-2.099248e+09 -1.899331e+09 -2.059337e+09 -1.808965e+03 -8.653433e+02 9.846461e+03
-4.143687e+09 -3.943777e+09 -4.103799e+09 -1.044626e+04 -2.450498e+03 6.598603e+03
-4.067960e+09 -3.868037e+09 -4.028057e+09 -9.509466e+03 -1.224928e+03 5.066701e+03
-4.477348e+09 -4.277434e+09 -4.437457e+09 -1.097095e+04 -7.480727e+02 4.748117e+03
-4.319366e+09 -4.119481e+09 -4.279512e+09 -1.318703e+04 -3.302276e+03 1.227054e+04
-3.151519e+09 -2.951565e+09 -3.111587e+09 -3.958459e+03 -1.065662e+03 1.039874e+03
-2.344296e+09 -2.144362e+09 -2.304376e+09 -9.029401e+03 -2.637625e+03 6.439197e+03
-2.102128e+09 -1.902208e+09 -2.062216e+09 -3.436278e+03 -1.010332e+03 9.093594e+03
-3.885170e+09 -3.685262e+09 -3.845278e+09 -5.924528e+03 -9.824448e+02 7.103478e+03
-4.168326e+09 -3.968415e+09 -4.128430e+09 -2.781804e+03 -8.154819e+01 5.276051e+03
-2.579384e+09 -2.379469e+09 -2.539479e+09 -3.396486e+03 -1.341054e+03 9.459570e+03
-4.999710e+09 -4.799491e+09 -4.959791e+09 -1.036688e+05 -1.801017e+04 1.129303e+04
-4.135825e+09 -3.935611e+09 -4.095881e+09 -4.923962e+04 -2.514182e+04 3.797202e+03
-4.968026e+09 -4.767830e+09 -4.928078e+09 -3.205417e+04 -9.068504e+02 6.150300e+03
-3.415469e+09 -3.215332e+09 -3.375517e+09 -2.197089e+04 -3.310346e+04 2.562014e+04
-3.532692e+09 -3.332466e+09 -3.492720e+09 -4.946736e+04 -6.199145e+04 7.594595e+03
-1.898850e+09 -1.698762e+09 -1.858856e+09 -5.668255e+03 -2.408053e+04 -2.019239e+04
-3.981669e+09 -3.781741e+09 -3.941798e+09 -3.365797e+04 -4.786146e+03 9.192091e+03
-4.127194e+09 -3.927378e+09 -4.087418e+09 -3.828531e+04 -9.634630e+03 3.395436e+04
-4.995590e+09 -4.795706e+09 -4.955761e+09 -3.749144e+04 -3.818230e+03 3.386472e+03
-4.785367e+09 -4.585572e+09 -4.745631e+09 -7.194358e+04 -4.851615e+02 1.092209e+04
-4.333027e+09 -4.133177e+09 -4.293216e+09 -1.694681e+04 -3.789701e+03 2.078855e+04
-4.627134e+09 -4.427112e+09 -4.587206e+09 3.520715e+04 5.597902e+03 3.393701e+03
-4.281112e+09 -4.081027e+09 -4.241184e+09 3.691471e+04 1.285668e+04 8.889284e+03
-4.962625e+09 -4.762911e+09 -4.922949e+09 -9.531970e+04 -1.038636e+04 2.045397e+04
-4.824097e+09 -4.624238e+09 -4.784285e+09 -3.820769e+04 -4.353384e+03 1.009225e+04
-4.686583e+09 -4.486709e+09 -4.646797e+09 -8.352532e+04 -7.513779e+03 1.451626e+04
-4.138250e+09 -3.938319e+09 -4.098407e+09 -6.577116e+04 -1.980012e+04 1.495445e+04
-3.968290e+09 -3.768346e+09 -3.928418e+09 -4.603636e+04 -1.229783e+04 1.834822e+04
-4.502228e+09 -4.302299e+09 -4.462365e+09 -4.631130e+04 -6.296330e+03 1.104349e+04
-4.484889e+09 -4.284975e+09 -4.445052e+09 -6.401357e+04 -8.412371e+03 1.439075e+04
-4.653963e+09 -4.454077e+09 -4.614141e+09 -4.809145e+04 -3.564302e+03 1.252398e+04
-3.968553e+09 -3.768648e+09 -3.928699e+09 -4.391236e+04 -7.633679e+03 2.075303e+04
-3.969046e+09 -3.769034e+09 -3.929118e+09 2.997283e+04 1.133406e+04 8.086465e+03
-4.601835e+09 -4.401815e+09 -4.561903e+09 2.558677e+04 4.788747e+03 3.126172e+03
-2.361679e+09 -2.161693e+09 -2.321729e+09 7.863441e+03 2.234391e+03 1.969473e+03
-3.961747e+09 -3.761901e+09 -3.921945e+09 2.662410e+04 2.351009e+03 2.665975e+04
-1.940920e+09 -1.740864e+09 -1.900946e+09 3.689936e+03 -3.704145e+03 -3.109246e+03
-4.991432e+09 -4.791619e+09 -4.951649e+09 2.862811e+04 1.265819e+03 9.430628e+03
-3.955390e+09 -3.755296e+09 -3.915465e+09 5.066383e+04 2.858980e+04 1.127238e+04
-4.998728e+09 -4.798716e+09 -4.958812e+09 4.002129e+04 1.157064e+03 2.160106e+03
-4.983634e+09 -4.783779e+09 -4.943809e+09 1.465650e+04 1.051717e+03 8.241691e+03
-4.982847e+09 -4.782792e+09 -4.942915e+09 3.783759e+04 7.928200e+03 4.614764e+03
-2.809945e+09 -2.609870e+09 -2.769983e+09 1.833827e+04 3.098366e+04 1.251702e+04
-4.661607e+09 -4.461360e+09 -4.621652e+09 9.522593e+04 2.292346e+04 1.248890e+04
-4.331105e+09 -4.131022e+09 -4.291167e+09 2.834968e+03 -1.561448e+03 -5.414603e+03
-4.103683e+09 -3.903511e+09 -4.063754e+09 9.067901e+04 2.925611e+04 2.054633e+04
-4.820748e+09 -4.620567e+09 -4.780804e+09 4.958646e+04 1.392332e+04 4.804025e+03
-3.965623e+09 -3.765589e+09 -3.925717e+09 5.875450e+04 2.231052e+04 1.578984e+04
-4.530431e+09 -4.330827e+09 -4.490605e+09 2.799433e+05 -4.488828e+03 1.902341e+04
-2.696571e+09 -2.496552e+09 -2.656613e+09 1.206152e+04 8.440490e+03 8.153393e+03
-3.312076e+09 -3.112135e+09 -3.272154e+09 5.346869e+03 1.428500e+03 2.934316e+03
-1.675433e+09 -1.475460e+09 -1.635492e+09 -8.044181e+03 -4.036008e+03 6.376949e+03
-3.934774e+09 -3.735146e+09 -3.895109e+09 1.165292e+05 -1.040340e+03 4.108422e+04
-4.657355e+09 -4.458512e+09 -4.617508e+09 3.094225e+04 -1.192290e+04 1.408451e+05
-4.790716e+09 -4.591172e+09 -4.751140e+09 1.019967e+05 2.228860e+04 4.656028e+04
-3.983660e+09 -3.783602e+09 -3.943705e+09 1.691796e+04 8.082919e+03 1.983505e+03
-1.902984e+09 -1.702945e+09 -1.863059e+09 5.653654e+04 -9.278870e+04 -5.728176e+04
-4.510184e+09 -4.310450e+09 -4.470512e+09 2.893424e+05 1.653348e+04 3.886726e+04
-4.337904e+09 -4.138316e+09 -4.298164e+09 2.453659e+05 4.143283e+04 -9.642706e+03
-2.018361e+09 -1.818304e+09 -1.978385e+09 7.650385e+03 -5.612350e+04 -3.121035e+04
-4.127834e+09 -3.926321e+09 -4.084879e+09 -9.082707e+04 -2.516866e+05 9.798335e+04
-1.681588e+09 -1.481550e+09 -1.641616e+09 2.893514e+03 4.893386e+03 8.458664e+03
-4.987778e+09 -4.787247e+09 -4.947549e+09 -2.163479e+05 3.020229e+04 -1.137284e+04
-2.162215e+09 -1.962150e+09 -2.122230e+09 8.096469e+03 1.207644e+04 7.515784e+03
-3.976431e+09 -3.775356e+09 -3.935283e+09 1.344539e+05 -2.345027e+05 -2.559647e+04
-1.945862e+09 -1.745814e+09 -1.905894e+09 -7.540168e+03 3.294422e+04 -4.044982e+03
-3.430067e+09 -3.230092e+09 -3.390235e+09 -2.496054e+04 4.454371e+04 -1.000119e+04
-4.222831e+09 -4.022789e+09 -4.183005e+09 -9.295899e+04 3.059070e+04 -1.772670e+04
-4.669215e+09 -4.469218e+09 -4.629396e+09 -2.470539e+04 1.379178e+04 -5.044689e+03
-4.836286e+09 -4.635209e+09 -4.794528e+09 2.577115e+05 -1.755052e+05 -5.778411e+04
-4.651589e+09 -4.451554e+09 -4.611714e+09 -1.581092e+04 1.024249e+04 -2.881139e+03
-4.507683e+09 -4.306851e+09 -4.466352e+09 3.281746e+05 -4.270555e+04 1.328626e+04
-3.955475e+09 -3.754026e+09 -3.908237e+09 -8.140450e+04 -1.533714e+06 7.760066e+02
-4.484616e+09 -4.284178e+09 -4.442496e+09 6.733329e+05 -3.140767e+04 -1.326810e+05
-3.964104e+09 -3.763005e+09 -3.921772e+09 3.074635e+05 -6.773118e+05 -1.218254e+04
-3.964955e+09 -3.763729e+09 -3.922649e+09 -4.591231e+05 -9.540486e+05 3.918532e+05
-4.489540e+09 -4.288296e+09 -4.448422e+09 -1.004013e+04 -8.181202e+04 -2.849689e+04
-4.709707e+09 -4.509774e+09 -4.669959e+09 -3.287096e+04 1.527118e+04 -7.677709e+03
-4.134852e+09 -3.934624e+09 -4.094913e+09 8.989790e+04 -3.595820e+04 -1.263242e+04
-4.600456e+09 -4.400304e+09 -4.560503e+09 1.681795e+04 7.399368e+03 7.803119e+02
-1.585674e+09 -1.385604e+09 -1.545676e+09 5.766785e+03 3.343160e+04 1.253582e+04
-3.768170e+09 -3.568025e+09 -3.728199e+09 1.286443e+04 1.424055e+04 3.831014e+03
-3.677330e+09 -3.477341e+09 -3.637504e+09 -4.404456e+04 4.439623e+04 -1.987348e+04
-3.776274e+09 -3.576705e+09 -3.736771e+09 -4.612010e+04 4.438862e+04 -4.387501e+04
-4.803595e+09 -4.603889e+09 -4.764028e+09 -1.001772e+05 2.687698e+04 1.772926e+03
-4.520450e+09 -4.321020e+09 -4.481044e+09 -5.576708e+04 9.417346e+03 8.189306e+02
-1.617114e+09 -1.417049e+09 -1.577126e+09 5.932114e+03 2.630902e+04 1.399267e+04
-2.943820e+09 -2.743714e+09 -2.903863e+09 2.724949e+04 4.280208e+04 1.872229e+04
-4.704155e+09 -4.504694e+09 -4.664742e+09 -4.620899e+04 1.224985e+04 -1.078709e+04
-4.889720e+09 -4.690161e+09 -4.850265e+09 -2.724535e+04 7.998169e+03 -3.891307e-03
-1.851833e+09 -1.651801e+09 -1.811862e+09 1.059593e+04 1.637920e+04 1.459185e+04
-3.384369e+09 -3.184580e+09 -3.344689e+09 -1.885517e+04 5.300516e+04 2.620398e+03
-4.800440e+09 -4.600537e+09 -4.760556e+09 3.669110e+03 -1.124246e+03 3.445216e+03
-4.889635e+09 -4.690205e+09 -4.850255e+09 -2.221009e+04 6.237131e+03 -2.573183e-03
-1.897718e+09 -1.697800e+09 -1.857807e+09 -2.382294e+03 2.041819e+03 1.258674e+04
-4.978016e+09 -4.778531e+09 -4.938581e+09 -5.181132e+04 -5.227156e+02 -3.241912e+03
-2.579464e+09 -2.379696e+09 -2.539717e+09 -3.306207e+03 4.883508e+04 4.077261e+03
-4.436834e+09 -4.237201e+09 -4.397328e+09 -2.755472e+04 2.013659e+04 2.322390e+03
-3.398620e+09 -3.199036e+09 -3.359085e+09 -1.292760e+04 2.740853e+04 3.304538e+03
-4.705934e+09 -4.506532e+09 -4.666558e+09 -2.993980e+04 2.945221e+03 1.063657e+04
-4.642073e+09 -4.441582e+09 -4.602010e+09 -2.419081e+04 -8.267024e+03 9.804602e+03
-4.311415e+09 -4.111876e+09 -4.271556e+09 4.267758e+05 -4.673332e+04 -2.806250e+04
-4.833213e+09 -4.633626e+09 -4.793150e+09 4.809338e+05 -3.071028e+03 -9.060081e+04
-4.815674e+09 -4.615633e+09 -4.775081e+09 5.697460e+05 3.957576e+04 -9.229314e+04
-4.323184e+09 -4.123865e+09 -4.283228e+09 3.694379e+05 -5.272250e+04 -1.892073e+04
-2.721306e+09 -2.521393e+09 -2.681401e+09 -1.036331e+03 5.157566e+02 1.129137e+04
-4.494904e+09 -4.294701e+09 -4.454944e+09 2.641091e+04 2.088868e+04 2.660062e+03
-4.141337e+09 -3.941605e+09 -4.101091e+09 5.281289e+05 5.413017e+04 -6.698716e+04
-4.654674e+09 -4.455143e+09 -4.614882e+09 4.303891e+05 6.067050e+04 5.032730e+03
-3.964578e+09 -3.765286e+09 -3.924587e+09 4.415852e+05 1.586672e+05 1.344513e+05
-4.983430e+09 -4.783948e+09 -4.942090e+09 5.796149e+05 -7.205282e+04 3.209246e+04
-1.656207e+09 -1.456281e+09 -1.616289e+09 3.501166e+03 1.312581e+03 1.087028e+04
-1.591107e+09 -1.391180e+09 -1.551188e+09 -2.691783e+03 -1.501932e+03 5.824768e+03
-2.367717e+09 -2.167775e+09 -2.327792e+09 -9.096676e+03 -2.716568e+03 5.212149e+03
-1.592459e+09 -1.392521e+09 -1.552533e+09 -4.342850e+03 -1.664480e+03 4.555493e+03
-1.698688e+09 -1.498738e+09 -1.658757e+09 -6.162109e+03 -2.576747e+03 6.161425e+03
-3.955489e+09 -3.755501e+09 -3.915553e+09 1.755961e+04 3.699664e+03 4.383481e+03
-4.524175e+09 -4.324251e+09 -4.484266e+09 -2.350808e+03 -3.887519e+02 8.310584e+02
-4.984840e+09 -4.784919e+09 -4.944934e+09 -1.577838e+03 3.612150e+02 -6.676676e+01
-4.099714e+09 -3.899797e+09 -4.059807e+09 -3.773738e+02 -1.458808e+02 1.662284e+03
-2.634667e+09 -2.434608e+09 -2.594702e+09 9.867729e+03 1.115348e+04 8.637101e+03
-4.969083e+09 -4.769169e+09 -4.929183e+09 -1.292708e+03 -1.008464e+02 8.608731e+02
-3.407793e+09 -3.207781e+09 -3.367853e+09 2.358128e+04 1.086832e+04 8.483436e+03
-1.851820e+09 -1.651791e+09 -1.811856e+09 1.954529e+04 2.108540e+04 1.406219e+04
-4.312989e+09 -4.112991e+09 -4.273092e+09 5.385662e+04 1.161112e+04 1.182495e+04
-4.144816e+09 -3.945002e+09 -4.105062e+09 -9.008610e+04 -1.125454e+04 3.108244e+04
-4.843475e+09 -4.643422e+09 -4.803547e+09 -9.618675e+03 -9.692504e+02 3.236751e+03
-4.994504e+09 -4.794840e+09 -4.954880e+09 -1.288918e+05 -1.417394e+04 2.514509e+04
-4.795856e+09 -4.595822e+09 -4.755936e+09 -2.996360e+04 -3.816064e+03 -4.146517e+02
-4.984835e+09 -4.784918e+09 -4.944933e+09 -2.771402e+03 -2.136206e+02 7.623003e+02
-2.936033e+09 -2.736095e+09 -2.896115e+09 -8.299109e+03 -3.091445e+03 8.128350e+03
-3.981695e+09 -3.781963e+09 -3.941993e+09 -1.323508e+05 -3.244546e+04 5.273365e+04
-2.316426e+09 -2.116495e+09 -2.276508e+09 -5.437408e+03 -1.638964e+03 5.033518e+03
-3.228511e+09 -3.028590e+09 -3.188607e+09 -5.310320e+03 -4.739687e+03 1.003303e+04
-4.197778e+09 -3.997864e+09 -4.157880e+09 -3.033220e+03 -7.491400e+02 4.666516e+03
-3.967291e+09 -3.767329e+09 -3.927536e+09 -2.411583e+05 -4.076744e+04 2.589277e+04
-4.974027e+09 -4.773942e+09 -4.934158e+09 -2.605485e+05 -2.621675e+04 1.964561e+04
-3.580027e+09 -3.380283e+09 -3.540385e+09 -8.280583e+04 3.970362e+04 -2.811126e+04
-4.983557e+09 -4.783691e+09 -4.943874e+09 -4.508576e+04 7.603373e+03 -8.046893e+03
-4.651650e+09 -4.451614e+09 -4.611809e+09 -1.907223e+05 -1.958416e+04 1.356423e+04
-4.993308e+09 -4.793284e+09 -4.953502e+09 -1.774442e+05 -9.686063e+03 1.201756e+04
-4.982682e+09 -4.782930e+09 -4.943100e+09 -9.519895e+04 1.506980e+04 -7.625584e+03
-4.120726e+09 -3.920706e+09 -4.080868e+09 -2.439386e+05 -1.718974e+04 2.853060e+04
-4.662258e+09 -4.462361e+09 -4.622516e+09 -2.590990e+05 -1.214513e+04 -3.897384e+03
-4.978023e+09 -4.778513e+09 -4.938579e+09 -1.278964e+05 2.050093e+04 -3.641342e+04
-4.140058e+09 -3.940050e+09 -4.100243e+09 -1.853468e+05 -4.196551e+04 4.913584e+04
-3.960354e+09 -3.760459e+09 -3.920491e+09 -2.689907e+05 -4.401229e+04 4.574510e+04
-4.708856e+09 -4.509067e+09 -4.669239e+09 -3.713969e+04 1.523203e+04 6.699246e+03
-4.177991e+09 -3.978109e+09 -4.138264e+09 -1.259395e+05 4.871079e+04 -3.786869e+04
-3.944329e+09 -3.744207e+09 -3.904455e+09 -2.915088e+05 -4.552745e+04 5.899993e+03
-4.301454e+09 -4.100695e+09 -4.261151e+09 3.138463e+04 7.016221e+04 -1.174948e+04
-4.817807e+09 -4.617220e+09 -4.777673e+09 4.898550e+04 -3.325044e+03 -8.354613e+03
-2.276661e+09 -2.076568e+09 -2.236675e+09 -1.030144e+04 2.457206e+04 -1.267023e+04
-5.017739e+09 -4.817582e+09 -4.977787e+09 3.600728e+04 9.209019e+03 4.595191e+03
-4.829577e+09 -4.629009e+09 -4.789391e+09 2.178846e+05 1.959068e+03 -7.998717e+03
-3.973371e+09 -3.773172e+09 -3.933420e+09 3.888464e+04 3.150415e+04 6.982981e+03
-4.495066e+09 -4.294819e+09 -4.455097e+09 3.375119e+04 2.356958e+04 3.685673e+03
-4.136818e+09 -3.936109e+09 -4.096527e+09 1.437919e+05 6.796995e+04 2.524727e+04
-4.808744e+09 -4.608863e+09 -4.768891e+09 2.806007e+03 -1.430851e+03 6.440006e+03
-4.987914e+09 -4.788059e+09 -4.948087e+09 5.804135e+03 -1.779490e+02 2.183076e+03
-3.954975e+09 -3.755085e+09 -3.915107e+09 -1.805692e+03 -1.082275e+03 1.379890e+04
-4.315769e+09 -4.115208e+09 -4.275655e+09 1.102716e+05 7.368332e+04 5.967881e+03
-4.137937e+09 -3.938053e+09 -4.098087e+09 -2.045117e+04 -2.621561e+03 1.542548e+04
-4.143519e+09 -3.943621e+09 -4.103674e+09 -4.091905e+04 -3.563204e+03 1.723336e+04
-4.274822e+09 -4.075247e+09 -4.234939e+09 -3.016139e+05 -4.827367e+04 7.621277e+02
-4.313062e+09 -4.113159e+09 -4.273189e+09 -2.237382e+04 -4.675340e+03 9.560442e+03
-4.828823e+09 -4.629122e+09 -4.789117e+09 -3.038391e+05 2.327024e+04 -5.899244e+04
-3.953809e+09 -3.753981e+09 -3.914117e+09 2.016105e+05 2.656933e+04 3.670549e+04
-4.824111e+09 -4.624264e+09 -4.784382e+09 2.409952e+05 1.041028e+04 3.304729e+04
-4.309455e+09 -4.109179e+09 -4.269501e+09 4.973092e+04 5.307643e+04 1.093251e+04
-4.833517e+09 -4.633611e+09 -4.793730e+09 1.144762e+05 3.924096e+03 2.479229e+04
-3.974492e+09 -3.774748e+09 -3.934812e+09 1.482698e+05 4.951157e+03 4.926759e+04
-3.974545e+09 -3.774748e+09 -3.934811e+09 1.156461e+05 2.017200e+04 4.349579e+04
-4.501121e+09 -4.301322e+09 -4.461340e+09 2.276175e+05 2.769044e+04 3.742036e+04
-4.844285e+09 -4.644543e+09 -4.804602e+09 2.142898e+05 2.525473e+04 3.057669e+04
-4.681126e+09 -4.481527e+09 -4.641446e+09 2.171157e+05 1.095207e+04 6.389011e+04
-4.137645e+09 -3.937801e+09 -4.097893e+09 2.162955e+05 2.975105e+04 4.106259e+04
-4.965417e+09 -4.765508e+09 -4.925661e+09 1.562396e+05 1.183214e+04 1.671896e+04
-4.470715e+09 -4.271075e+09 -4.431144e+09 -2.826609e+05 2.252097e+04 -2.378156e+04
-3.934773e+09 -3.735077e+09 -3.895091e+09 1.166148e+05 9.233583e+03 4.432348e+04
-4.121968e+09 -3.922217e+09 -4.082027e+09 4.446643e+05 -2.997198e+04 4.641474e+03
-5.012902e+09 -4.813190e+09 -4.973068e+09 2.955800e+05 7.336860e+03 2.480594e+04
-4.476354e+09 -4.276629e+09 -4.436655e+09 -2.217917e+05 1.957290e+04 -3.334623e+04
-3.994817e+09 -3.795061e+09 -3.955065e+09 1.885360e+05 1.734397e+04 5.733688e+04
-4.476916e+09 -4.277579e+09 -4.437297e+09 2.314565e+05 8.233400e+02 6.075964e+04
-4.475913e+09 -4.276687e+09 -4.436373e+09 1.748212e+05 3.079803e+03 1.988443e+04
-4.987991e+09 -4.788914e+09 -4.948372e+09 1.123281e+05 1.334216e+04 5.154211e+04
-4.470751e+09 -4.271263e+09 -4.431093e+09 -2.245901e+05 9.122218e+03 -2.466914e+04
-3.968299e+09 -3.768415e+09 -3.928478e+09 -2.363448e+05 4.172971e+04 -8.367375e+03
-4.526099e+09 -4.326074e+09 -4.486150e+09 8.576630e+03 9.994012e+02 2.181449e+03
-4.660863e+09 -4.461449e+09 -4.621343e+09 4.379283e+04 2.952760e+02 -5.139746e+03
-3.658825e+09 -3.458807e+09 -3.618972e+09 3.068466e+04 -3.034528e+04 -7.472298e+03
-3.747567e+09 -3.547584e+09 -3.707619e+09 1.952879e+03 5.556836e+01 7.617232e+02
-4.298718e+09 -4.098731e+09 -4.258794e+09 2.259333e+04 1.458229e+03 6.092901e+03
-1.636113e+09 -1.436118e+09 -1.596158e+09 1.255009e+03 -6.682281e+04 -3.638361e+03
-4.709699e+09 -4.509853e+09 -4.670029e+09 -4.293160e+04 1.714176e+04 -1.176939e+04
-1.599074e+09 -1.399089e+09 -1.559125e+09 4.184683e+03 8.890202e+02 1.406255e+03
-2.959652e+09 -2.759675e+09 -2.919803e+09 -8.423098e+04 9.178596e+04 -6.075285e+04
-4.983572e+09 -4.783695e+09 -4.943879e+09 -8.455349e+04 1.620740e+04 -6.909785e+03
-3.368180e+09 -3.168233e+09 -3.328374e+09 -1.076831e+04 5.202484e+04 -1.523121e+03
-4.430758e+09 -4.230728e+09 -4.390896e+09 -2.301109e+04 1.473971e+04 -2.039215e+03
-3.081738e+09 -2.881821e+09 -3.041936e+09 -2.312754e+04 5.773794e+04 -1.764493e+04
-3.220029e+09 -3.019998e+09 -3.180125e+09 -2.924421e+04 4.849986e+04 -1.889164e+04
-1.589020e+09 -1.389030e+09 -1.549069e+09 5.431442e+03 1.266297e+03 1.720752e+03
-3.964043e+09 -3.764063e+09 -3.924104e+09 1.235904e+04 2.761116e+03 2.417387e+03
-3.472882e+09 -3.272883e+09 -3.432932e+09 1.405805e+04 4.883023e+03 4.169947e+03
-3.981370e+09 -3.781408e+09 -3.941449e+09 2.330556e+04 4.064330e+03 7.600339e+03
-4.790923e+09 -4.590934e+09 -4.750985e+09 1.526264e+04 2.920837e+03 -1.003207e+03
-4.820676e+09 -4.620698e+09 -4.780770e+09 3.648212e+04 3.183568e+03 2.966626e+03
-4.218630e+09 -4.018640e+09 -4.178683e+09 1.007584e+04 1.027527e+03 1.297637e+03
-1.921898e+09 -1.721908e+09 -1.881946e+09 1.583852e+03 2.312102e+02 6.344673e+02
-1.960933e+09 -1.760949e+09 -1.920985e+09 9.503737e+03 2.939650e+03 3.773712e+03
-4.442923e+09 -4.242923e+09 -4.402974e+09 4.140414e+03 4.070812e+02 1.550122e+03
-4.400809e+09 -4.200813e+09 -4.360858e+09 1.447028e+03 2.606975e+02 1.482372e+03
-2.353618e+09 -2.153552e+09 -2.313639e+09 -1.639863e+03 6.741769e+03 -1.369467e+03
-4.991162e+09 -4.791163e+09 -4.951239e+09 3.024685e+04 2.557339e+03 2.313036e+03
-2.937055e+09 -2.737061e+09 -2.897106e+09 1.072714e+04 4.634358e+03 4.934189e+03
-4.999056e+09 -4.798871e+09 -4.959095e+09 3.162642e+04 7.562360e+03 3.841952e+03
-2.180298e+09 -1.980162e+09 -2.140296e+09 1.612886e+02 -2.720012e+03 -4.787325e+02
-1.636115e+09 -1.436035e+09 -1.596121e+09 1.149256e+02 -6.869081e+03 -1.284277e+04
-1.583384e+09 -1.383315e+09 -1.543394e+09 -1.419059e+03 1.978618e+04 -1.190134e+04
-2.170312e+09 -1.970359e+09 -2.130378e+09 2.956803e+03 6.107504e+02 1.789514e+03
-2.553886e+09 -2.353915e+09 -2.513942e+09 6.366326e+02 3.953882e+02 2.905881e+02
-1.573578e+09 -1.373616e+09 -1.533640e+09 4.737995e+03 1.037300e+03 1.247068e+03
-4.954738e+09 -4.754785e+09 -4.914809e+09 2.988382e+03 -7.067313e+02 3.089814e+02
-3.071526e+09 -2.871451e+09 -3.031545e+09 -8.476983e+02 1.594089e+03 -3.238877e+03
-1.595580e+09 -1.395512e+09 -1.555590e+09 -3.661060e-05 4.479474e+03 -1.620988e+03
-1.587521e+09 -1.387446e+09 -1.547528e+09 -2.869303e+03 2.066036e+04 -1.036304e+04
-2.180711e+09 -1.980641e+09 -2.140724e+09 -3.530892e+02 5.267033e+03 -1.400239e+03
-4.934319e+09 -4.734314e+09 -4.894370e+09 4.696791e+03 4.423453e+02 -4.977165e+02
-4.622391e+09 -4.422414e+09 -4.582443e+09 1.521873e+02 5.741738e+01 0.000000e+00
-4.934319e+09 -4.734314e+09 -4.894370e+09 8.353491e+03 4.373615e+02 7.092823e+02
-4.892200e+09 -4.692208e+09 -4.852249e+09 1.317743e+03 -1.300089e-04 -2.406994e+02
-4.479833e+09 -4.279841e+09 -4.439884e+09 2.756783e+03 3.889597e+02 1.176907e+03
-4.672540e+09 -4.472542e+09 -4.632590e+09 2.822221e+03 6.103783e+02 5.149216e+02
-4.351214e+09 -4.151247e+09 -4.311274e+09 3.464319e+03 6.643649e+02 1.122567e+03
-3.678604e+09 -3.478606e+09 -3.638652e+09 1.074925e+03 7.462013e+02 5.526819e+02
-3.292506e+09 -3.092547e+09 -3.252572e+09 6.022165e+03 9.375579e+02 2.034127e+03
-2.995225e+09 -2.795233e+09 -2.955272e+09 1.082968e+03 -1.037472e+01 7.617022e+02
-2.655700e+09 -2.455642e+09 -2.615736e+09 -1.350484e+03 2.180168e+04 -1.245542e+03
-4.647396e+09 -4.447323e+09 -4.607473e+09 -2.765679e+04 7.459192e+03 -2.604541e+03
-3.713789e+09 -3.513717e+09 -3.673828e+09 -3.275269e+03 1.135031e+04 -7.402171e+02
-1.635429e+09 -1.435384e+09 -1.595454e+09 -6.451065e+02 3.203825e+04 -1.752001e+03
-2.705959e+09 -2.506029e+09 -2.666043e+09 8.795271e+03 3.091840e+03 9.920445e+03
-3.918914e+09 -3.718973e+09 -3.878991e+09 3.165291e+03 5.292807e+02 8.184453e+02
-1.998938e+09 -1.799004e+09 -1.959015e+09 1.296824e+03 3.318189e+02 1.431450e+03
-1.506876e+09 -1.306934e+09 -1.466948e+09 4.854221e+03 2.727617e+03 4.301093e+03
-2.071666e+09 -1.871724e+09 -2.031741e+09 1.000898e+04 2.269605e+03 7.706852e+03
-4.709673e+09 -4.509454e+09 -4.669721e+09 5.705354e+03 -2.521780e+03 1.060214e+03
-3.976462e+09 -3.776258e+09 -3.936505e+09 2.279245e+03 -1.467447e+04 -4.630545e+03
-4.206817e+09 -4.006578e+09 -4.166863e+09 1.796995e+04 -3.332196e+04 -6.599093e+03
-1.566848e+09 -1.366784e+09 -1.526852e+09 -4.152477e+02 -7.113595e+04 6.248326e+03
-1.674143e+09 -1.474077e+09 -1.634140e+09 -4.082652e+03 -1.050530e+05 -1.505141e+04
-2.877763e+09 -2.677750e+09 -2.837806e+09 2.926198e+03 9.783946e+02 4.482424e+03
-1.909706e+09 -1.709606e+09 -1.869708e+09 1.159727e+04 -1.315165e+04 6.298928e+03
-1.909708e+09 -1.709609e+09 -1.869713e+09 -1.382369e+04 -1.381121e+04 4.502021e+03
-1.991330e+09 -1.791317e+09 -1.951371e+09 1.277181e+04 9.123986e+03 7.071881e+03
-2.836889e+09 -2.636748e+09 -2.796911e+09 -5.183859e+03 -2.863908e+04 4.229007e+03
-3.289229e+09 -3.089060e+09 -3.249267e+09 1.610492e+04 -4.884361e+04 -2.037591e+04
-4.431544e+09 -4.231506e+09 -4.391615e+09 2.803293e+04 7.058617e+03 5.911720e+03
-1.575020e+09 -1.374980e+09 -1.535042e+09 1.096000e+04 2.307753e+04 1.490629e+04
-2.766352e+09 -2.566335e+09 -2.726391e+09 7.994562e+02 9.535005e+02 3.296089e+03
-1.636125e+09 -1.436038e+09 -1.596125e+09 -2.859915e+02 -6.560189e+03 -3.398382e+03
-2.156456e+09 -1.956385e+09 -2.116470e+09 -1.463769e+03 5.722960e+03 -3.357513e+03
-1.565886e+09 -1.365815e+09 -1.525894e+09 -7.750905e+02 6.339949e+03 -6.360647e+03
-1.864315e+09 -1.664247e+09 -1.824327e+09 7.876025e+02 4.558662e+03 -2.960491e+03
-4.711159e+09 -4.511129e+09 -4.671208e+09 6.211747e+03 -5.669107e+02 1.770119e+03
-1.632515e+09 -1.432534e+09 -1.592567e+09 7.108892e+02 1.994706e+02 2.174560e+02
-2.658730e+09 -2.458707e+09 -2.618828e+09 -1.701284e+04 5.333182e+04 -1.944791e+04
-4.051750e+09 -3.851686e+09 -4.011897e+09 -9.088999e+04 3.351385e+04 -2.582629e+04
-2.107969e+09 -1.907970e+09 -2.068038e+09 -3.199169e+03 5.492920e+04 -3.729747e+03
-1.673231e+09 -1.473206e+09 -1.633268e+09 -9.409986e+02 5.099832e+04 -1.169249e+04
-4.289448e+09 -4.090595e+09 -4.248693e+09 -9.830709e+04 9.840185e+04 -2.780815e+05
-4.133641e+09 -3.934267e+09 -4.093885e+09 -3.316968e+05 5.135716e+04 -1.085992e+05
-3.407340e+09 -3.207311e+09 -3.367401e+09 2.932065e+04 1.548567e+04 1.076322e+04
-4.820045e+09 -4.620837e+09 -4.780352e+09 -3.070119e+05 -2.486612e+04 8.649786e+04
-4.305173e+09 -4.106050e+09 -4.262676e+09 -4.793315e+05 6.288205e+05 -6.865367e+04
-3.979783e+09 -3.779712e+09 -3.939826e+09 4.359450e+03 2.954176e+03 5.287273e+03
-4.807271e+09 -4.608090e+09 -4.766591e+09 -4.314108e+05 9.158412e+04 5.946265e+03
-1.600176e+09 -1.400119e+09 -1.560188e+09 -5.875875e+03 -3.991565e+04 2.588866e+04
-4.127639e+09 -3.927410e+09 -4.087669e+09 1.946915e+04 3.452078e+04 4.756213e+03
-1.636127e+09 -1.436047e+09 -1.596132e+09 -5.733340e+02 -6.738984e+03 8.381725e+03
-4.310690e+09 -4.110134e+09 -4.268136e+09 -5.348171e+05 -4.360982e+05 2.514471e+05
-4.814334e+09 -4.614214e+09 -4.774411e+09 6.207760e+04 1.876239e+04 1.921596e+03
-4.984323e+09 -4.784228e+09 -4.944433e+09 9.778480e+04 1.301510e+04 8.163531e+03
-2.042473e+09 -1.842538e+09 -2.002551e+09 8.217140e+03 1.122346e+03 6.403527e+03
-4.120874e+09 -3.920801e+09 -4.080960e+09 6.715520e+04 2.488416e+04 1.992427e+04
-2.900907e+09 -2.700745e+09 -2.860938e+09 2.003360e+04 -6.214759e+04 -1.724107e+04
-4.648592e+09 -4.448147e+09 -4.608555e+09 -7.468738e+04 -8.573696e+03 2.092866e+03
-1.585380e+09 -1.385450e+09 -1.545460e+09 3.610669e+03 1.268198e+03 4.773632e+03
-2.780356e+09 -2.580424e+09 -2.740437e+09 8.292321e+02 9.219871e+02 1.213863e+03
-1.635443e+09 -1.435369e+09 -1.595453e+09 1.169835e+03 -4.507603e+03 -1.443163e+04
-1.978158e+09 -1.778091e+09 -1.938179e+09 5.671937e+03 -6.063757e+03 -8.436365e+03
-3.281499e+09 -3.081430e+09 -3.241541e+09 1.091276e-04 -3.624777e+03 -2.454348e+03
-4.638422e+09 -4.437780e+09 -4.598227e+09 -7.569730e+04 4.126201e+03 8.868980e+03
-4.992135e+09 -4.791715e+09 -4.952117e+09 -2.357260e+04 -3.041564e+04 3.067475e+03
-4.477977e+09 -4.277631e+09 -4.438004e+09 -5.978165e+04 -3.386449e+04 6.719174e+03
-2.136195e+09 -1.936132e+09 -2.096223e+09 1.141815e+04 -3.130468e+04 -1.218465e+04
-4.580092e+09 -4.380126e+09 -4.540159e+09 -9.023095e+03 -9.915394e+02 1.042686e+03
-4.998680e+09 -4.798718e+09 -4.958751e+09 -8.244850e+03 1.120776e+03 -1.171132e+03
-4.434306e+09 -4.234347e+09 -4.394374e+09 -7.025798e+03 -1.151440e+03 8.586160e+02
-2.558902e+09 -2.358943e+09 -2.518966e+09 -1.845855e+03 -5.277110e+02 8.481633e+02
-3.332999e+09 -3.133033e+09 -3.293064e+09 -9.059576e+03 -1.868173e+03 2.973412e+03
-3.597238e+09 -3.397270e+09 -3.557299e+09 -2.690144e+03 -9.923886e+02 7.488470e+02
-2.295618e+09 -2.095654e+09 -2.255678e+09 -4.615940e+02 -3.211270e+02 -7.749852e+01
-2.238300e+09 -2.038293e+09 -2.198355e+09 -2.476871e+04 -2.159814e+04 2.040818e+04
-4.986627e+09 -4.786081e+09 -4.946531e+09 -7.600399e+04 -3.936745e+04 2.792104e+03
-4.137858e+09 -3.937537e+09 -4.097889e+09 -3.589188e+04 -5.023706e+04 9.638008e+03
-4.995430e+09 -4.795166e+09 -4.955474e+09 -5.527935e+04 -8.607546e+03 8.905088e+03
-4.819078e+09 -4.619100e+09 -4.779148e+09 1.716203e+04 2.916681e+03 -2.438384e+02
-3.137619e+09 -2.937605e+09 -3.097692e+09 -2.982136e+04 -1.784096e+04 2.335429e+04
-2.942504e+09 -2.742452e+09 -2.902547e+09 -2.402542e+03 -4.143863e+03 1.007335e+04
-5.011076e+09 -4.811108e+09 -4.971153e+09 1.809347e+04 8.510705e+02 -1.268864e+02
-4.579555e+09 -4.379534e+09 -4.539627e+09 -2.057297e+04 7.545529e+02 2.480857e+03
-4.677749e+09 -4.477790e+09 -4.637829e+09 2.000325e+04 1.428126e+03 3.541276e+03
-2.195904e+09 -1.995984e+09 -2.155994e+09 4.692101e+03 1.306503e+03 1.332285e+04
-1.828364e+09 -1.628439e+09 -1.788446e+09 3.995247e+02 3.996329e+02 1.311115e+03
-3.631476e+09 -3.431550e+09 -3.591563e+09 5.882394e+02 2.568603e+02 1.232669e+03
-1.819905e+09 -1.619982e+09 -1.779989e+09 2.330172e+02 -7.602540e+01 1.857658e+03
-4.659433e+09 -4.459510e+09 -4.619525e+09 1.537461e+03 -5.749225e+02 7.069659e+02
-2.707266e+09 -2.507340e+09 -2.667350e+09 1.272777e+03 7.785168e+02 1.650664e+03
-2.605793e+09 -2.406072e+09 -2.566062e+09 -3.609973e+04 5.167095e+04 -3.242921e+04
-4.970033e+09 -4.770114e+09 -4.930129e+09 1.142316e+03 -3.703047e+02 1.906929e+02
-2.114294e+09 -1.914358e+09 -2.074370e+09 2.742827e+03 1.172162e+03 3.985458e+03
-4.606983e+09 -4.407545e+09 -4.567501e+09 -1.020681e+05 3.791608e+03 9.033057e+03
-4.071422e+09 -3.871976e+09 -4.031988e+09 -4.950099e+04 3.431553e+04 -2.937810e+04
-4.890055e+09 -4.690099e+09 -4.850122e+09 1.225337e+03 -3.603310e+02 -7.884407e-06
-4.993212e+09 -4.793079e+09 -4.953278e+09 5.732507e+04 1.173418e+04 2.601606e+03
-1.846823e+09 -1.646807e+09 -1.806859e+09 1.162664e+04 1.154271e+04 1.060904e+04
-4.993218e+09 -4.793099e+09 -4.953284e+09 4.336041e+04 1.228414e+04 3.734374e+03
-4.471099e+09 -4.270986e+09 -4.431167e+09 5.538118e+04 1.670722e+04 8.836650e+03
-4.650781e+09 -4.450805e+09 -4.610968e+09 -1.447964e+05 -1.887787e+04 1.540167e+04
-4.787679e+09 -4.587704e+09 -4.747734e+09 3.325477e+03 -4.635171e+02 5.407998e+02
-3.961208e+09 -3.761293e+09 -3.921397e+09 -1.003911e+05 -2.521305e+04 3.581203e+04
-4.136111e+09 -3.936135e+09 -4.096285e+09 -1.285523e+05 -3.427812e+04 2.634316e+04
-3.549412e+09 -3.349436e+09 -3.509465e+09 3.207079e+02 1.924484e+02 1.506109e+02
-4.648177e+09 -4.448443e+09 -4.608526e+09 -2.424218e+05 3.765807e+03 3.622564e+03
-3.948701e+09 -3.748909e+09 -3.909024e+09 -1.729951e+05 -2.696367e+04 4.423903e+04
-4.936167e+09 -4.736190e+09 -4.896219e+09 3.243241e+02 3.094668e+01 -9.466187e+01
-3.794439e+09 -3.594462e+09 -3.754491e+09 4.942907e+02 -1.331527e+00 -3.589952e+01
-2.994749e+09 -2.794782e+09 -2.954808e+09 1.399335e+03 3.458092e+02 2.657343e+02
-3.684739e+09 -3.484742e+09 -3.644798e+09 -1.741706e+03 -1.505416e+03 2.993019e+03
-4.144560e+09 -3.944654e+09 -4.104784e+09 -1.968099e+05 -3.612636e+04 5.063220e+04
-3.955390e+09 -3.755263e+09 -3.915459e+09 7.488863e+04 2.665733e+04 2.117075e+04
-2.568207e+09 -2.368095e+09 -2.528232e+09 2.008486e+03 -4.179208e+03 -1.560981e+04
-4.633757e+09 -4.433880e+09 -4.593993e+09 -1.472383e+05 -1.814922e+04 2.547818e+04
-3.293709e+09 -3.093633e+09 -3.253767e+09 1.578285e+04 -1.875808e+04 -1.268546e+04
-4.664257e+09 -4.464343e+09 -4.624468e+09 -2.071241e+05 -2.601690e+04 1.937924e+04
-2.905925e+09 -2.706007e+09 -2.866019e+09 3.521557e+03 4.023520e+02 1.190120e+04
-4.290519e+09 -4.090642e+09 -4.250743e+09 -1.478091e+05 -2.553010e+04 3.814498e+04
-3.983261e+09 -3.783339e+09 -3.943352e+09 1.669554e+03 2.650785e+02 1.668829e+03
-4.638712e+09 -4.438659e+09 -4.598807e+09 7.000107e+04 8.480311e+03 4.721875e+03
-4.298626e+09 -4.098546e+09 -4.258704e+09 6.179071e+04 1.591904e+04 1.121067e+04
-4.618329e+09 -4.418168e+09 -4.578385e+09 6.283737e+04 1.936500e+04 2.321023e+02
-4.979825e+09 -4.779974e+09 -4.940060e+09 9.118124e+04 9.501360e+03 9.738403e+03
-4.301599e+09 -4.101809e+09 -4.261881e+09 1.064431e+05 2.645402e+04 4.176610e+04
-4.824041e+09 -4.624223e+09 -4.784315e+09 1.549576e+05 1.504374e+04 3.289371e+04
-3.962371e+09 -3.762426e+09 -3.922554e+09 -1.402901e+05 -3.937816e+04 4.562131e+04
-4.341529e+09 -4.141759e+09 -4.301849e+09 1.871205e+05 2.753517e+04 5.540914e+04
-4.990835e+09 -4.790139e+09 -4.950577e+09 1.121125e+05 4.595561e+04 2.118601e+03
-3.960981e+09 -3.760404e+09 -3.920794e+09 4.929827e+04 7.643767e+03 1.567746e+04
-4.650577e+09 -4.450118e+09 -4.610521e+09 -7.568411e+03 1.130491e+04 8.994849e+03
-4.654907e+09 -4.454981e+09 -4.615073e+09 -7.207496e+04 -8.735349e+03 1.146466e+04
-3.966908e+09 -3.766220e+09 -3.917878e+09 3.621445e+05 -1.910295e+06 -1.059680e+06
-4.821018e+09 -4.620017e+09 -4.777235e+09 4.004566e+05 1.506131e+04 -3.635928e+04
-4.468727e+09 -4.269583e+09 -4.422108e+09 4.509443e+05 -2.232957e+05 -7.798928e+05
-4.997060e+09 -4.797069e+09 -4.957242e+09 -2.092921e+05 -1.193326e+04 1.652426e+04
-3.968583e+09 -3.769513e+09 -3.920820e+09 -2.968819e+05 -1.051405e+06 1.282769e+06
-4.130915e+09 -3.929959e+09 -4.081619e+09 5.028200e+05 -1.829592e+06 -1.137845e+06
-4.465155e+09 -4.263737e+09 -4.418647e+09 -2.866453e+04 -6.802658e+05 -1.082555e+05
-4.992047e+09 -4.792119e+09 -4.952260e+09 -1.539720e+05 -5.161752e+03 1.083830e+04
-4.490138e+09 -4.290365e+09 -4.440150e+09 1.962888e+05 -9.902763e+04 1.429425e+06
-4.310522e+09 -4.110144e+09 -4.259720e+09 -2.086228e+05 -9.064952e+05 -1.646172e+05
-3.967853e+09 -3.767813e+09 -3.920517e+09 -8.164561e+05 -1.145810e+06 1.287206e+06
-4.142391e+09 -3.942655e+09 -4.102620e+09 -2.875186e+05 2.397382e+04 3.548890e+04
-4.991438e+09 -4.791398e+09 -4.951528e+09 -3.934181e+05 3.380617e+04 -2.365460e+04
-4.299139e+09 -4.099507e+09 -4.257123e+09 6.454330e+05 -2.657272e+05 -3.420740e+05
-4.133801e+09 -3.934303e+09 -4.093202e+09 5.059332e+05 -4.306452e+04 -1.547496e+05
-4.290605e+09 -4.090569e+09 -4.250344e+09 -4.350805e+05 6.468211e+04 -3.792441e+04
-4.301208e+09 -4.101479e+09 -4.261327e+09 -3.596693e+05 9.125922e+04 -2.083351e+04
-4.272475e+09 -4.072769e+09 -4.231757e+09 4.697573e+05 7.212839e+04 -1.928303e+05
-4.616160e+09 -4.416285e+09 -4.576350e+09 4.111330e+05 -4.135083e+04 -2.304534e+04
-4.793265e+09 -4.593265e+09 -4.752706e+09 5.811754e+05 8.593777e+04 -3.614489e+03
-3.974063e+09 -3.773756e+09 -3.934111e+09 1.511646e+05 -6.193931e+04 2.435092e+03
-4.156187e+09 -3.955588e+09 -4.115295e+09 4.818414e+05 -1.454320e+05 -5.329842e+04
-4.997664e+09 -4.797527e+09 -4.956623e+09 5.837045e+05 -2.722783e+04 4.660292e+04
-4.088899e+09 -3.888666e+09 -4.048719e+09 3.853183e+05 9.135220e+03 -2.608263e+04
-4.967677e+09 -4.767293e+09 -4.927286e+09 4.426390e+05 6.889741e+04 3.852602e+04
-3.978975e+09 -3.778235e+09 -3.938165e+09 2.982564e+05 -1.557167e+05 -1.398151e+04
-4.462227e+09 -4.262116e+09 -4.422335e+09 8.634448e+04 2.448297e+04 1.363017e+04
-3.631545e+09 -3.431737e+09 -3.591864e+09 -1.796719e+04 4.607743e+04 2.521931e+03
-3.961990e+09 -3.763059e+09 -3.921233e+09 -3.654367e+05 7.336223e+04 -3.122316e+05
-4.028044e+09 -3.828172e+09 -3.988334e+09 -1.285446e+04 4.307570e+04 -9.105220e+03
-3.381122e+09 -3.181293e+09 -3.341406e+09 -1.876041e+05 9.156768e+04 -9.113333e+04
-4.134000e+09 -3.934534e+09 -4.090667e+09 -5.483061e+05 5.337308e+05 -1.326637e+06
-4.120645e+09 -3.921546e+09 -4.079925e+09 -4.733817e+05 8.099208e+04 -3.752632e+05
-4.476833e+09 -4.277533e+09 -4.436948e+09 3.909294e+05 8.284731e+04 1.128247e+05
-3.261141e+09 -3.061052e+09 -3.221177e+09 1.511005e+04 2.614048e+04 1.091292e+04
-4.834032e+09 -4.634028e+09 -4.784174e+09 -4.459952e+04 -1.623907e+05 -4.082063e+05
-4.648211e+09 -4.449148e+09 -4.605822e+09 -3.597461e+05 6.046473e+05 -1.053159e+05
-1.546048e+09 -1.346058e+09 -1.506044e+09 1.467448e+03 9.046785e+04 -4.828734e+04
-4.281930e+09 -4.083552e+09 -4.241342e+09 -1.649497e+05 -1.722380e+05 -7.014790e+05
-4.985280e+09 -4.785599e+09 -4.945685e+09 -1.909845e+05 3.457757e+04 -3.578401e+04
-3.009418e+09 -2.809304e+09 -2.969435e+09 -1.653713e+03 1.068518e+04 -7.313101e+03
-1.565151e+09 -1.365072e+09 -1.525147e+09 4.133216e+03 5.613271e+04 -9.794913e+03
-4.476308e+09 -4.276461e+09 -4.436645e+09 -2.437349e+05 3.765871e+04 -3.048967e+04
-4.014925e+09 -3.815026e+09 -3.975226e+09 -1.627182e+05 3.535801e+04 -2.299213e+04
-3.965146e+09 -3.765153e+09 -3.925311e+09 -1.866101e+05 5.350015e+04 -3.662110e+04
-2.740502e+09 -2.540647e+09 -2.700705e+09 -1.189194e+05 2.053433e+04 -5.242266e+04
-4.997942e+09 -4.798098e+09 -4.958204e+09 -2.638890e+05 3.382152e+04 -3.346931e+04
-1.675432e+09 -1.475354e+09 -1.635442e+09 -2.589257e+03 4.310707e+04 -2.084843e+04
-3.314487e+09 -3.114358e+09 -3.274510e+09 -1.376880e+04 2.764497e+04 -1.251936e+04
-3.685481e+09 -3.485532e+09 -3.645714e+09 -5.353682e+04 4.220001e+04 -2.704116e+04
-4.991547e+09 -4.791478e+09 -4.951571e+09 -3.220047e+05 3.062611e+04 -1.290947e+04
-3.978001e+09 -3.777807e+09 -3.938066e+09 -7.127899e+04 4.110828e+04 -1.390235e+04
-3.968641e+09 -3.768296e+09 -3.928633e+09 -8.974509e+04 6.047865e+04 -1.796880e+04
-5.007700e+09 -4.807462e+09 -4.967773e+09 -9.530556e+04 1.829767e+04 -9.660778e+03
-4.819552e+09 -4.619746e+09 -4.779875e+09 -2.417989e+05 1.741373e+04 -3.339217e+04
-3.666345e+09 -3.466304e+09 -3.626393e+09 1.316774e+04 8.207381e+03 7.406162e+03
-1.961003e+09 -1.760930e+09 -1.921009e+09 -1.072427e+04 4.716400e+04 -2.043936e+04
-4.502655e+09 -4.302317e+09 -4.462656e+09 -1.298486e+05 4.675135e+04 -2.293360e+04
-3.144280e+09 -2.944302e+09 -3.104336e+09 7.309968e+03 7.470320e+02 1.202452e+03
-4.784333e+09 -4.584348e+09 -4.744389e+09 8.755815e+03 6.039630e+02 7.831779e+02
-2.910783e+09 -2.710663e+09 -2.870802e+09 1.152480e+04 2.833158e+04 7.869492e+03
-4.127879e+09 -3.927759e+09 -4.087944e+09 5.368131e+04 1.849765e+04 1.507126e+04
-4.989253e+09 -4.789281e+09 -4.949334e+09 2.506746e+04 1.326782e+03 2.230207e+03
-4.967569e+09 -4.767481e+09 -4.927630e+09 4.083052e+04 6.398612e+03 2.423101e+03
-3.258804e+09 -3.058693e+09 -3.218843e+09 3.486712e+04 4.637104e+04 1.445770e+04
-4.611929e+09 -4.411798e+09 -4.572007e+09 6.480972e+04 1.744905e+04 9.455693e+03
-4.556260e+09 -4.356327e+09 -4.516344e+09 2.901911e+03 5.109980e+02 1.027772e+03
-4.786247e+09 -4.586310e+09 -4.746334e+09 1.089223e+04 1.433667e+03 1.620989e+03
-4.493189e+09 -4.293217e+09 -4.453256e+09 1.880820e+04 2.359579e+03 2.114753e+03
-4.465573e+09 -4.265652e+09 -4.425666e+09 1.760750e+03 3.857765e+02 8.658183e+02
-4.484668e+09 -4.284731e+09 -4.444749e+09 1.354743e+03 7.271334e+02 4.057487e+02
-4.151344e+09 -3.951410e+09 -4.111430e+09 8.747057e+03 1.941849e+03 2.071981e+03
-4.526660e+09 -4.325799e+09 -4.485833e+09 -4.421208e+04 4.800651e+04 -1.118377e+04
-2.979146e+09 -2.779233e+09 -2.939250e+09 -3.573898e+03 -2.093411e+03 1.476556e+04
-3.984322e+09 -3.784403e+09 -3.944415e+09 7.425650e+01 -1.721287e+01 1.912779e+03
-4.507573e+09 -4.307655e+09 -4.467669e+09 -3.919782e+02 -1.328075e+02 1.159243e+03
-1.580461e+09 -1.380534e+09 -1.540542e+09 5.170873e+02 2.931726e+02 2.010606e+03
-3.369218e+09 -3.169293e+09 -3.329304e+09 6.400834e+02 4.847668e+02 1.243014e+03
-4.984663e+09 -4.784783e+09 -4.944807e+09 -2.009148e+03 -2.106901e+02 3.737441e+03
-4.085249e+09 -3.885322e+09 -4.045336e+09 2.540401e+03 5.251656e+02 1.011250e+03
-4.931275e+09 -4.731352e+09 -4.891367e+09 1.627418e+03 -2.781391e+02 3.809483e+02
-4.261719e+09 -4.062026e+09 -4.222059e+09 -9.115069e+04 -2.825550e+04 6.024835e+04
-3.640493e+09 -3.440519e+09 -3.600549e+09 2.913642e+03 1.296584e+02 6.196639e+02
-3.405548e+09 -3.205594e+09 -3.365615e+09 2.641344e+03 8.343158e+02 1.624690e+03
-3.897230e+09 -3.697274e+09 -3.857298e+09 4.949911e+03 -2.181470e+02 1.722333e+03
-1.642100e+09 -1.442130e+09 -1.602157e+09 1.415031e+03 3.800192e+02 -6.695324e+00
-2.604091e+09 -2.404125e+09 -2.564150e+09 7.060653e+02 5.126801e+02 1.749393e+02
-1.591300e+09 -1.391365e+09 -1.551376e+09 -2.994424e+03 -1.449356e+03 4.371696e+03
-3.731067e+09 -3.531137e+09 -3.691153e+09 -6.072359e+03 -1.015312e+03 3.357175e+03
-1.698595e+09 -1.498662e+09 -1.658674e+09 -6.530892e+03 -4.055609e+03 9.936644e+03
-1.869269e+09 -1.669444e+09 -1.829302e+09 8.938208e+04 -9.394848e+04 -1.787005e+05
-1.591153e+09 -1.391196e+09 -1.551151e+09 -1.107027e+04 -8.586909e+04 -1.249724e+05
-2.178300e+09 -1.978602e+09 -2.138329e+09 8.006693e+04 -1.964109e+04 -2.010071e+05
-4.400567e+09 -4.200460e+09 -4.360601e+09 -3.395820e+03 1.612672e+03 -3.541700e+03
-3.110584e+09 -2.910540e+09 -3.070662e+09 -1.018527e+04 3.619781e+04 -9.278767e+03
-4.674420e+09 -4.474315e+09 -4.634454e+09 -3.535008e+03 1.391668e+03 -9.035616e+02
-4.091325e+09 -3.891191e+09 -4.051351e+09 -7.045519e+03 7.325379e+03 -4.747251e+03
-4.936168e+09 -4.736191e+09 -4.896220e+09 7.456264e+02 1.862865e+02 -2.525512e+02
-2.804941e+09 -2.604958e+09 -2.765068e+09 -6.919424e+03 5.772292e+04 -1.112708e+04
-4.977796e+09 -4.777825e+09 -4.937853e+09 1.626825e+03 -4.716080e+02 2.709540e+02
-1.686785e+09 -1.486724e+09 -1.646803e+09 -2.154245e+03 3.818313e+04 -1.639052e+04
-4.118870e+09 -3.918857e+09 -4.078936e+09 2.696582e+04 6.722308e+03 1.015982e+04
-4.443954e+09 -4.243975e+09 -4.404010e+09 6.489711e+03 3.712695e+02 9.515967e+02
-4.977959e+09 -4.778514e+09 -4.938564e+09 -8.663119e+04 1.648196e+04 -1.305240e+04
-4.993741e+09 -4.793762e+09 -4.953803e+09 1.115935e+04 -1.124735e+03 -5.906561e+02
-4.710699e+09 -4.511035e+09 -4.671174e+09 -4.819293e+04 9.592580e+03 1.333954e+04
-3.074587e+09 -2.874413e+09 -3.034607e+09 -5.912620e+02 -2.097258e+04 -1.479568e+03
-1.592385e+09 -1.392313e+09 -1.552389e+09 -8.634681e+02 -4.434312e+04 9.422875e+03
-4.984504e+09 -4.784901e+09 -4.945018e+09 -9.915189e+04 2.010626e+04 -9.995744e+03
-4.177295e+09 -3.977461e+09 -4.137608e+09 -9.894622e+04 5.451511e+04 -4.308746e+04
-3.650917e+09 -3.450997e+09 -3.611007e+09 1.182470e+00 -1.280097e+02 1.048982e+03
-1.565410e+09 -1.365347e+09 -1.525414e+09 -6.560921e+03 -6.493116e+04 1.597969e+04
-4.428518e+09 -4.228601e+09 -4.388613e+09 7.684302e+01 -2.815272e+01 6.972736e+02
-4.890152e+09 -4.689932e+09 -4.850202e+09 1.313532e+03 -6.589008e-05 -6.886106e+02
-1.884775e+09 -1.684706e+09 -1.844792e+09 -3.768922e+03 1.217096e+04 -6.894359e+03
-1.573371e+09 -1.373297e+09 -1.533375e+09 -5.312369e+03 -7.196113e+04 -6.096614e+03
-2.057923e+09 -1.857789e+09 -2.017922e+09 -3.340007e+03 -2.984387e+04 2.930042e+03
-1.927190e+09 -1.727131e+09 -1.887211e+09 2.860576e+03 1.949862e+04 -2.891107e+03
-2.195978e+09 -1.995917e+09 -2.155998e+09 -1.097052e+03 1.450328e+04 1.405457e+02
-1.864375e+09 -1.664308e+09 -1.824389e+09 9.505641e+02 7.014802e+03 -2.439479e+03
-3.940133e+09 -3.740211e+09 -3.900225e+09 -3.754106e+03 1.623294e+02 3.877037e+03
-1.592637e+09 -1.392574e+09 -1.552651e+09 -1.034905e+03 1.827867e+04 -5.758647e+03
-1.869264e+09 -1.669194e+09 -1.829282e+09 -5.095425e+03 2.115083e+04 -1.011651e+04
-1.595580e+09 -1.395514e+09 -1.555593e+09 -4.234841e+01 6.367329e+03 -3.019654e+03
-4.977082e+09 -4.777159e+09 -4.937176e+09 -4.072552e+03 -2.185083e+02 6.084653e+02
-2.180650e+09 -1.980582e+09 -2.140663e+09 -5.029765e+02 3.821011e+03 -2.121817e+03
-1.911917e+09 -1.711847e+09 -1.871930e+09 -9.559370e+02 4.252926e+03 -6.405196e+02
-3.944574e+09 -3.744430e+09 -3.904599e+09 1.078348e+03 2.503155e+03 -3.419913e+02
-4.304693e+09 -4.104388e+09 -4.264725e+09 -1.530371e+03 5.595323e+04 -5.322654e+03
-4.500300e+09 -4.300170e+09 -4.460387e+09 -6.103441e+04 2.357536e+04 -1.074325e+04
-3.394991e+09 -3.194965e+09 -3.355098e+09 -5.369483e+03 3.777275e+04 -2.511273e+03
-5.005018e+09 -4.804940e+09 -4.965087e+09 -2.217312e+04 4.265538e+03 -7.044866e+02
-4.141257e+09 -3.941325e+09 -4.101359e+09 -2.023953e+04 -5.755246e+03 6.608400e+03
-1.617675e+09 -1.417632e+09 -1.577694e+09 -1.011481e+03 3.916128e+04 -1.326588e+04
-2.786847e+09 -2.586790e+09 -2.746891e+09 -1.613010e+03 2.654717e+04 -1.138993e+03
-4.679198e+09 -4.479259e+09 -4.639295e+09 -2.172901e+04 -1.630503e+03 4.360474e+03
-4.657601e+09 -4.457671e+09 -4.617707e+09 -1.896864e+04 -1.139604e+03 3.755673e+03
-4.147998e+09 -3.947819e+09 -4.108077e+09 -9.288591e+04 -4.222925e+04 1.405803e+04
-2.616380e+09 -2.416345e+09 -2.576443e+09 -2.038430e+03 3.638492e+04 -2.395768e+03
-3.970021e+09 -3.769807e+09 -3.930082e+09 -7.770888e+04 -3.331576e+04 1.765845e+04
-4.838937e+09 -4.639444e+09 -4.799387e+09 -4.570204e+04 1.836707e+03 4.574931e+04
-4.320537e+09 -4.120312e+09 -4.280602e+09 -8.603663e+04 -5.054811e+04 1.672148e+04
-4.138824e+09 -3.938452e+09 -4.098811e+09 5.323323e+03 -4.026222e+04 -5.859279e+03
-4.986907e+09 -4.786440e+09 -4.946833e+09 -2.418559e+05 -3.656793e+04 1.258976e+04
-3.948362e+09 -3.748037e+09 -3.908385e+09 -1.254516e+05 -3.773379e+04 2.311201e+04
-4.889376e+09 -4.689820e+09 -4.849777e+09 -2.070515e+05 -2.930722e+04 4.374534e+04
-4.431367e+09 -4.232052e+09 -4.391726e+09 -3.535349e+03 -1.118410e+03 3.327868e+04
-4.943617e+09 -4.744227e+09 -4.904048e+09 -1.003531e+05 -1.689607e+04 4.326896e+04
-4.133974e+09 -3.933548e+09 -4.093972e+09 6.363761e+04 -8.429852e+04 -1.892454e+04
-4.986866e+09 -4.786165e+09 -4.946250e+09 -3.801091e+05 4.511527e+04 -1.723466e+04
-4.699389e+09 -4.498698e+09 -4.659141e+09 -1.931139e+05 6.696305e+03 6.093023e+03
-4.643790e+09 -4.443494e+09 -4.603826e+09 6.457969e+04 -1.625955e+04 7.242816e+02
-4.990614e+09 -4.790233e+09 -4.950625e+09 6.337681e+04 -2.339379e+04 -6.500739e+03
-3.968594e+09 -3.768148e+09 -3.928454e+09 1.748636e+05 -4.534178e+04 -2.417325e+04
-4.476817e+09 -4.276414e+09 -4.436831e+09 2.023561e+05 -5.275282e+04 -2.284453e+04
-4.790785e+09 -4.589946e+09 -4.749822e+09 -3.433882e+05 7.273545e+04 7.622803e+04
-4.189251e+09 -3.988490e+09 -4.148913e+09 -1.263586e+05 1.145127e+05 -1.213550e+04
-4.310379e+09 -4.109951e+09 -4.270379e+09 5.407922e+04 -7.557548e+04 -2.310197e+04
-4.493637e+09 -4.294106e+09 -4.452025e+09 -6.336106e+05 -2.814684e+05 2.084546e+05
-4.825568e+09 -4.625212e+09 -4.785608e+09 1.472968e+05 -5.140603e+04 -2.200551e+04
-4.481740e+09 -4.281066e+09 -4.441593e+09 1.473393e+05 -4.052673e+04 3.614498e+02
-4.297761e+09 -4.097273e+09 -4.257254e+09 -4.750743e+05 -1.410935e+04 1.366288e+04
-4.644818e+09 -4.444614e+09 -4.604004e+09 -6.442878e+05 -1.922970e+05 1.066073e+05
-4.990484e+09 -4.790257e+09 -4.950164e+09 -5.174451e+05 3.876740e+04 -1.890834e+04
-3.964573e+09 -3.764338e+09 -3.922661e+09 -6.640010e+05 -2.524400e+05 2.552410e+05
-4.806894e+09 -4.606543e+09 -4.766914e+09 9.739308e+04 1.238084e+04 -4.134076e+03
-4.624846e+09 -4.423566e+09 -4.582484e+09 -3.263338e+05 -2.336817e+05 6.842437e+04
-4.311190e+09 -4.110371e+09 -4.270765e+09 1.083110e+05 6.938776e+04 -7.458952e+03
-5.004551e+09 -4.804167e+09 -4.964409e+09 -3.601840e+05 -4.416096e+04 2.613253e+04
-3.961589e+09 -3.761668e+09 -3.921709e+09 2.521784e+04 3.852870e+03 1.321384e+04
-4.644597e+09 -4.444743e+09 -4.604800e+09 4.569054e+04 1.365559e+03 1.003387e+04
-4.643108e+09 -4.443228e+09 -4.603267e+09 3.505410e+04 9.579558e+02 8.210175e+03
-3.969844e+09 -3.769633e+09 -3.929891e+09 -2.238704e+05 -4.901617e+04 1.720524e+04
-4.802401e+09 -4.603791e+09 -4.761598e+09 6.381751e+04 4.901074e+04 2.870117e+05
-3.959181e+09 -3.759477e+09 -3.918590e+09 6.150515e+05 3.079747e+05 2.179375e+05
-4.984866e+09 -4.785461e+09 -4.945224e+09 3.407981e+05 -4.342783e+04 -2.252312e+04
-4.975959e+09 -4.775299e+09 -4.935291e+09 -4.076728e+05 -6.080455e+04 3.810124e+04
-3.953663e+09 -3.754227e+09 -3.912565e+09 5.683822e+05 1.627861e+05 2.921291e+05
-4.490783e+09 -4.290808e+09 -4.450896e+09 5.133089e+04 8.346201e+03 8.753293e+03
-4.634825e+09 -4.434670e+09 -4.594898e+09 -2.380249e+05 -2.130535e+04 2.039038e+04
-4.471572e+09 -4.271615e+09 -4.431694e+09 5.484244e+04 8.059616e+03 9.988224e+03
-4.834034e+09 -4.634045e+09 -4.794141e+09 5.191569e+04 7.695111e+03 -2.245855e+02
-4.819441e+09 -4.619502e+09 -4.779587e+09 5.844000e+04 5.319518e+03 1.048553e+04
-4.994433e+09 -4.794517e+09 -4.954599e+09 6.917787e+04 5.850358e+03 7.162659e+03
-4.519262e+09 -4.319366e+09 -4.479443e+09 7.078362e+04 1.150767e+04 1.861442e+04
-4.480464e+09 -4.280519e+09 -4.440588e+09 4.785117e+04 6.238791e+03 9.735893e+03
-4.636070e+09 -4.435291e+09 -4.595650e+09 -1.922460e+05 3.716304e+04 -3.444096e+03
-4.990642e+09 -4.790162e+09 -4.950616e+09 -6.245157e+04 3.972890e+04 -1.914317e+04
-4.988830e+09 -4.788888e+09 -4.948997e+09 8.081165e+04 5.085598e+03 7.089798e+03
-4.002183e+09 -3.802279e+09 -3.962385e+09 9.806404e+04 1.608045e+04 2.767836e+04
-4.491908e+09 -4.291472e+09 -4.451871e+09 -1.522843e+05 4.651004e+04 -1.171634e+04
-4.794610e+09 -4.593366e+09 -4.752792e+09 -1.863075e+05 3.661844e+04 1.140371e+05
-4.344227e+09 -4.144299e+09 -4.304393e+09 7.403894e+04 1.323084e+04 2.050136e+04
-4.785220e+09 -4.585335e+09 -4.745466e+09 1.598023e+05 2.014097e+04 1.299368e+04
-4.989065e+09 -4.788410e+09 -4.948840e+09 -1.751467e+05 -5.295653e+04 7.605807e+03
-3.961820e+09 -3.761291e+09 -3.921696e+09 -1.681811e+04 -4.851209e+04 6.617363e+03
-4.872564e+09 -4.673025e+09 -4.832966e+09 -1.574452e+05 7.082959e+03 -8.418486e+03
-3.956913e+09 -3.756425e+09 -3.916814e+09 -7.450295e+04 -4.893918e+04 1.225953e+04
-4.304933e+09 -4.105203e+09 -4.265292e+09 -2.482493e+05 -2.781209e+04 3.509306e+04
-4.011895e+09 -3.812533e+09 -3.972224e+09 -1.618787e+05 -3.063053e+04 -1.667871e+04
-4.774104e+09 -4.574399e+09 -4.734441e+09 -8.216502e+04 -9.343965e+03 2.918672e+04
-4.644980e+09 -4.444295e+09 -4.604759e+09 8.827611e+03 2.979383e+02 1.519876e+04
-4.477020e+09 -4.277622e+09 -4.437379e+09 -2.872341e+05 5.577440e+04 7.987994e+04
-4.698401e+09 -4.498982e+09 -4.658594e+09 -2.009336e+05 -7.400646e+03 3.102847e+03
-4.990539e+09 -4.790560e+09 -4.950677e+09 7.443492e+04 3.007604e+03 4.358991e+03
-4.961472e+09 -4.761782e+09 -4.921690e+09 -2.831679e+05 -1.763385e+04 3.139841e+04
-1.636084e+09 -1.436040e+09 -1.596107e+09 1.523312e+03 3.233761e+03 7.383816e+03
-4.147572e+09 -3.947577e+09 -4.107672e+09 5.244076e+04 9.353179e+03 1.668470e+04
-4.150933e+09 -3.950970e+09 -4.111036e+09 3.916830e+04 1.009188e+04 5.885260e+03
-3.464144e+09 -3.264100e+09 -3.424184e+09 7.513119e+03 4.555036e+03 5.394393e+03
-1.575018e+09 -1.374976e+09 -1.535039e+09 7.874006e+03 1.883864e+04 1.553177e+04
-1.636087e+09 -1.436030e+09 -1.596104e+09 1.362735e+03 3.428589e+03 8.262967e+03
-2.774964e+09 -2.574917e+09 -2.734994e+09 1.670058e+03 1.855939e+03 5.440953e+03
-1.643560e+09 -1.443524e+09 -1.603588e+09 6.898479e+03 1.158432e+04 9.308179e+03
-3.424190e+09 -3.224135e+09 -3.384228e+09 3.104609e+03 2.258445e+03 6.829368e+03
-4.837398e+09 -4.637435e+09 -4.797502e+09 3.898561e+04 -5.211048e+00 7.882178e+03
-4.643713e+09 -4.443638e+09 -4.603792e+09 5.465579e+04 8.176986e+03 6.294213e+03
-1.910144e+09 -1.710147e+09 -1.870189e+09 4.037129e+03 1.810277e+03 2.546068e+03
-1.597964e+09 -1.397960e+09 -1.558006e+09 5.462593e+03 4.220449e+03 3.472853e+03
-3.107461e+09 -2.907401e+09 -3.067495e+09 6.964384e+03 6.103280e+03 7.510601e+03
-1.913713e+09 -1.713683e+09 -1.873743e+09 4.718019e+02 2.419311e+03 6.098843e+03
-1.920697e+09 -1.720679e+09 -1.880733e+09 1.048214e+03 1.517817e+03 4.636883e+03
-1.666039e+09 -1.466013e+09 -1.626071e+09 2.710514e+03 3.067782e+03 6.368273e+03
-2.044367e+09 -1.844345e+09 -2.004403e+09 7.273832e+03 3.867827e+03 5.795240e+03
-1.561138e+09 -1.361119e+09 -1.521171e+09 7.837569e+03 8.851386e+03 1.083995e+04
-3.977695e+09 -3.777699e+09 -3.937779e+09 3.716441e+04 9.547078e+03 9.257047e+03
-4.986086e+09 -4.786073e+09 -4.946196e+09 6.495610e+04 4.359927e+03 4.364641e+03
-4.995832e+09 -4.795796e+09 -4.955917e+09 4.996280e+04 3.315535e+03 3.983619e+03
-4.972819e+09 -4.772707e+09 -4.932915e+09 5.277101e+04 -2.539072e+03 -3.229018e+03
-4.820686e+09 -4.620561e+09 -4.780806e+09 8.832250e+04 -6.550455e+03 -4.162030e+03
-3.332019e+09 -3.131998e+09 -3.292076e+09 -1.249135e+04 -8.245352e+03 9.300987e+03
-4.168226e+09 -3.968252e+09 -4.128295e+09 -1.200145e+04 -1.921446e+03 2.265324e+03
-4.945818e+09 -4.745843e+09 -4.905879e+09 -5.326411e+03 -1.079205e+02 3.327836e+02
-3.570209e+09 -3.370259e+09 -3.530279e+09 -4.081177e+03 -6.525511e+02 1.601175e+03
-2.008899e+09 -1.808960e+09 -1.968974e+09 -8.528854e+03 -3.081464e+03 8.882266e+03
-4.703741e+09 -4.503793e+09 -4.663813e+09 -2.344731e+03 -2.651458e+02 -3.679090e+02
-4.892052e+09 -4.692130e+09 -4.852144e+09 6.869880e+02 -2.494072e+02 -5.279766e-05
-4.368433e+09 -4.168493e+09 -4.328511e+09 -1.182135e+03 -8.537061e+02 2.464843e+02
-3.454791e+09 -3.254532e+09 -3.414793e+09 -3.357787e+04 -8.404955e+04 1.246766e+04
-3.795609e+09 -3.595655e+09 -3.755676e+09 -7.133341e+02 -4.707870e+01 3.266667e+02
-3.627726e+09 -3.427573e+09 -3.587765e+09 -3.843404e+03 -3.371658e+03 6.010729e+03
-1.674137e+09 -1.474075e+09 -1.634148e+09 -4.031239e+03 -9.904533e+04 2.358826e+04
-2.646009e+09 -2.446091e+09 -2.606103e+09 -3.755552e+03 -1.674955e+02 9.324302e+03
-1.901276e+09 -1.701351e+09 -1.861359e+09 -2.268813e+03 -4.268069e+03 9.589877e+03
-3.950612e+09 -3.750685e+09 -3.910700e+09 -9.224882e+02 -7.454343e+02 1.045747e+03
-2.965044e+09 -2.764934e+09 -2.925060e+09 -3.909519e+03 1.759709e+04 -5.936522e+03
-2.588043e+09 -2.388124e+09 -2.548135e+09 -6.201958e+03 -1.570766e+03 8.224662e+03
-2.206216e+09 -2.006091e+09 -2.166220e+09 1.853082e+02 -2.226805e+04 1.795670e+03
-2.398587e+09 -2.198656e+09 -2.358669e+09 -7.373490e+03 -1.380117e+03 8.147561e+03
-3.411049e+09 -3.210794e+09 -3.371069e+09 1.622889e+03 -6.040648e+04 -3.035717e+03
-1.589231e+09 -1.389309e+09 -1.549313e+09 -2.090784e+03 -1.103781e+03 1.081157e+04
-1.591105e+09 -1.391179e+09 -1.551188e+09 -1.615069e+03 -1.213743e+03 5.587976e+03
-2.235240e+09 -2.035322e+09 -2.195331e+09 6.023282e+03 2.377818e+03 1.241315e+04
-1.638835e+09 -1.438911e+09 -1.598917e+09 3.179225e+03 1.209109e+03 1.133140e+04
-2.090264e+09 -1.890341e+09 -2.050347e+09 4.688367e+01 8.375084e+01 1.351366e+03
-2.373353e+09 -2.173427e+09 -2.333438e+09 -7.816934e+03 -2.785875e+03 8.003057e+03
-2.478763e+09 -2.278844e+09 -2.438856e+09 -3.509400e+03 -5.594006e+02 8.971008e+03
-2.945074e+09 -2.745149e+09 -2.905159e+09 6.711242e+02 2.428744e+02 1.153406e+03
-2.185403e+09 -1.985556e+09 -2.145586e+09 1.030481e+04 -6.267994e+04 3.419127e+03
-1.628086e+09 -1.428097e+09 -1.588113e+09 -1.903024e+03 -8.576218e+04 -3.304140e+04
-2.796129e+09 -2.596104e+09 -2.756248e+09 6.118247e+04 -7.770292e+04 -4.567784e+04
-2.909647e+09 -2.709736e+09 -2.869842e+09 1.476492e+04 -6.642604e+04 -1.901066e+04
-3.962890e+09 -3.763149e+09 -3.923265e+09 2.075471e+04 -5.006210e+04 -1.856150e+04
-1.591105e+09 -1.391179e+09 -1.551184e+09 -3.783654e+03 -1.997064e+03 9.338308e+03
-2.609913e+09 -2.410066e+09 -2.570132e+09 9.753721e+03 -6.675334e+04 4.978429e+02
-2.109855e+09 -1.909983e+09 -2.069981e+09 7.087792e+04 -1.087673e+05 -8.097670e+04
-1.576808e+09 -1.376846e+09 -1.536826e+09 -4.526054e+03 -9.534171e+04 -9.836278e+04
-2.406299e+09 -2.206354e+09 -2.366372e+09 -7.772259e+03 -1.285513e+03 5.345298e+03
-4.531878e+09 -4.331936e+09 -4.491956e+09 -4.667917e+03 -1.038014e+03 1.338821e+03
-2.130819e+09 -1.930883e+09 -2.090898e+09 -4.087569e+03 -2.097434e+03 4.251012e+03
-4.984838e+09 -4.784919e+09 -4.944933e+09 -4.520005e+03 -1.301521e+02 1.714300e+03
-3.261184e+09 -3.061127e+09 -3.221242e+09 3.587313e+04 2.252462e+04 1.471236e+04
-4.985018e+09 -4.784983e+09 -4.945070e+09 1.375242e+04 7.962690e+02 1.502559e+03
-2.146378e+09 -1.946331e+09 -2.106407e+09 2.376289e+04 2.867529e+04 1.754728e+04
-3.375166e+09 -3.175218e+09 -3.335239e+09 -8.933042e+03 -1.211534e+03 3.132989e+03
-3.864619e+09 -3.664667e+09 -3.824688e+09 -2.297858e+03 -3.823185e+02 -7.896060e+01
-2.608083e+09 -2.408031e+09 -2.568125e+09 -8.142519e+02 2.492214e+04 -1.313766e+03
-4.862620e+09 -4.661858e+09 -4.822267e+09 -2.390102e+05 6.093773e+04 -1.230971e+04
-2.916925e+09 -2.716874e+09 -2.876994e+09 -1.672205e+04 3.346586e+04 -8.875341e+03
-3.957262e+09 -3.757206e+09 -3.917334e+09 4.514952e+04 1.284589e+04 9.798424e+03
-3.251130e+09 -3.051060e+09 -3.211175e+09 -1.336650e+04 1.903092e+04 -7.654467e+03
-2.563001e+09 -2.362914e+09 -2.523016e+09 -1.658734e+03 4.801183e+03 -8.267749e+03
-1.860692e+09 -1.660646e+09 -1.820721e+09 2.303420e+04 2.962382e+04 1.542578e+04
-3.948232e+09 -3.749104e+09 -3.903423e+09 1.762237e+05 1.727387e+05 -1.398741e+06
-3.948746e+09 -3.750047e+09 -3.904612e+09 3.119829e+05 -5.461627e+05 -1.085093e+06
-4.134032e+09 -3.934477e+09 -4.091918e+09 7.299384e+05 -8.125816e+05 -6.814909e+05
-4.800336e+09 -4.601384e+09 -4.757611e+09 4.263815e+05 -1.515434e+05 -6.118299e+05
-4.635090e+09 -4.436517e+09 -4.591351e+09 1.184526e+05 2.702259e+05 -3.092086e+05
-4.477483e+09 -4.278579e+09 -4.433712e+09 -2.951986e+05 -8.003634e+05 -6.184545e+05
-4.133538e+09 -3.934897e+09 -4.087616e+09 -1.793806e+05 3.833488e+05 -1.270876e+06
-4.134898e+09 -3.935296e+09 -4.088012e+09 -2.378837e+05 3.913361e+05 -1.601812e+06
-3.973035e+09 -3.773205e+09 -3.933338e+09 -2.477296e+05 -2.855932e+04 1.643065e+04
-1.576019e+09 -1.376079e+09 -1.536093e+09 3.603923e+03 1.146603e+03 3.937171e+03
-4.905077e+09 -4.705136e+09 -4.865155e+09 1.396532e+03 -3.886176e+02 -5.942939e-05
-1.935854e+09 -1.735911e+09 -1.895926e+09 1.404576e+03 7.641292e+02 6.503287e+02
-2.776686e+09 -2.576735e+09 -2.736754e+09 5.038334e+02 1.568796e+02 6.199758e+02
-3.981712e+09 -3.781992e+09 -3.941997e+09 -1.626137e+05 -2.050320e+04 4.848102e+04
-5.011414e+09 -4.811705e+09 -4.971726e+09 -1.661406e+05 -1.508151e+04 2.357367e+04
-4.176132e+09 -3.976262e+09 -4.136346e+09 -9.149557e+04 -8.453154e+03 3.148272e+04
-4.702389e+09 -4.502211e+09 -4.662443e+09 1.326598e+04 -4.385892e+03 -4.876042e+02
-3.963672e+09 -3.763664e+09 -3.923826e+09 -1.274013e+05 -3.850102e+04 3.825561e+04
-4.460482e+09 -4.260529e+09 -4.420384e+09 -4.021470e+05 -1.607437e+04 3.355816e+04
-3.931831e+09 -3.732127e+09 -3.891993e+09 -2.462356e+05 -4.772444e+04 6.350966e+04
-4.633475e+09 -4.433463e+09 -4.593595e+09 -2.680022e+05 -1.700893e+04 4.253331e+03
-4.672632e+09 -4.472540e+09 -4.632702e+09 -1.260383e+04 -3.453349e+03 4.004294e+03
-3.944343e+09 -3.744258e+09 -3.904417e+09 -2.443477e+05 -3.211146e+04 3.518891e+04
-3.380705e+09 -3.180801e+09 -3.340815e+09 1.690198e+03 -3.608917e+02 1.370997e+04
-4.281278e+09 -4.081383e+09 -4.241403e+09 4.844736e+03 8.492868e+02 8.570747e+03
-4.976786e+09 -4.776885e+09 -4.936900e+09 4.147087e+02 1.461084e+01 1.792046e+03
-4.176410e+09 -3.976502e+09 -4.136515e+09 -8.610139e+01 -5.488460e+02 4.785206e+03
-4.074372e+09 -3.874268e+09 -4.034464e+09 -6.639544e+04 -2.716397e+04 2.271219e+04
-3.969865e+09 -3.769666e+09 -3.929950e+09 -2.789101e+05 -9.454917e+03 4.549772e+04
-3.962662e+09 -3.762820e+09 -3.922853e+09 -3.248237e+04 -3.995962e+03 2.464551e+04
-4.839537e+09 -4.639390e+09 -4.799644e+09 -9.818473e+04 -2.030806e+04 1.054440e+04
-1.568892e+09 -1.368857e+09 -1.528911e+09 -1.101051e+04 -4.137717e+04 2.814509e+04
-4.834477e+09 -4.634276e+09 -4.794553e+09 -8.703854e+04 -5.703166e+03 1.404005e+04
-4.283096e+09 -4.082907e+09 -4.243146e+09 -4.160530e+04 -2.819618e+04 6.409519e+03
-2.739478e+09 -2.539789e+09 -2.699782e+09 -1.318545e+05 1.184772e+04 -5.074469e+04
-3.962665e+09 -3.762805e+09 -3.922850e+09 -3.019247e+04 -4.752970e+03 2.301682e+04
-4.651746e+09 -4.452678e+09 -4.611835e+09 -3.096139e+05 -5.529652e+03 1.097684e+05
-1.852975e+09 -1.653050e+09 -1.812806e+09 6.117831e+04 4.616033e+04 -1.373374e+05
-2.662406e+09 -2.462525e+09 -2.622599e+09 -3.638968e+04 6.495282e+04 -4.163822e+04
-4.982892e+09 -4.783399e+09 -4.943386e+09 -1.925550e+05 3.538764e+04 -5.591943e+04
-4.661411e+09 -4.460909e+09 -4.621307e+09 2.322057e+05 -7.533776e+03 9.892084e+03
-3.967867e+09 -3.767329e+09 -3.927604e+09 2.392467e+05 -1.005107e+04 1.766503e+04
-4.674816e+09 -4.474105e+09 -4.634305e+09 2.853819e+05 -7.419509e+04 -5.001366e+03
-4.967706e+09 -4.767234e+09 -4.927279e+09 4.038261e+05 4.534243e+04 2.976369e+04
-4.646768e+09 -4.446919e+09 -4.606976e+09 -4.375819e+04 -7.715848e+02 1.181317e+04
-4.098886e+09 -3.899104e+09 -4.059159e+09 -6.825671e+04 -2.041468e+04 4.700165e+04
-4.513157e+09 -4.313331e+09 -4.473394e+09 -6.992825e+04 -9.565402e+03 2.395049e+04
-1.902668e+09 -1.702595e+09 -1.862688e+09 2.683189e+04 4.321780e+04 1.434822e+04
-4.131778e+09 -3.931928e+09 -4.091977e+09 -4.728101e+04 -1.117388e+04 2.710231e+04
-4.835148e+09 -4.634641e+09 -4.795071e+09 -1.226587e+05 -1.058121e+04 1.103066e+02
-4.704062e+09 -4.503985e+09 -4.664107e+09 9.065336e+03 2.977097e+03 -2.722089e+02
-4.656205e+09 -4.455770e+09 -4.616028e+09 -2.695142e+05 2.550077e+04 -8.394914e+03
-4.696175e+09 -4.496256e+09 -4.656269e+09 1.051011e+03 -9.307999e+02 7.558172e+02
-4.472283e+09 -4.272048e+09 -4.432310e+09 -2.151300e+05 4.647811e+04 -1.469380e+04
-4.312954e+09 -4.112522e+09 -4.272744e+09 -2.715270e+05 7.418027e+04 -3.951401e+04
-4.301764e+09 -4.101240e+09 -4.261592e+09 -3.238509e+05 3.939005e+04 -7.149648e+03
-2.347064e+09 -2.147128e+09 -2.307141e+09 7.515511e+03 2.514705e+03 6.799725e+03
-4.613673e+09 -4.413735e+09 -4.573757e+09 6.657674e+03 3.000886e+02 -1.455064e+02
-4.990759e+09 -4.790205e+09 -4.950653e+09 -3.337745e+04 3.852126e+04 -1.114417e+04
-1.532370e+09 -1.332367e+09 -1.492378e+09 -4.758198e+02 -9.410906e+04 -7.649562e+04
-1.820232e+09 -1.620214e+09 -1.780248e+09 1.939291e+04 -1.014041e+05 -6.637785e+04
-1.676303e+09 -1.476296e+09 -1.636322e+09 6.013138e+02 -9.048259e+04 -6.579926e+04
-2.005189e+09 -1.805191e+09 -1.965246e+09 4.566353e+04 -9.115073e+04 -6.399612e+04
-2.210293e+09 -2.010325e+09 -2.170384e+09 4.820950e+04 -1.130513e+05 -1.077032e+05
-2.342663e+09 -2.142661e+09 -2.302773e+09 8.233738e+04 -9.718803e+04 -7.362654e+04
-1.494264e+09 -1.294260e+09 -1.454270e+09 -8.042195e+03 -7.545254e+04 -5.909204e+04
-1.494270e+09 -1.294280e+09 -1.454274e+09 -2.150293e+03 -6.650855e+04 -6.632658e+04
-1.705864e+09 -1.505892e+09 -1.665908e+09 -1.423251e+04 -5.893527e+04 -4.125700e+04
-1.849761e+09 -1.649790e+09 -1.809777e+09 1.418118e+04 -9.409296e+04 -6.607172e+04
-2.031827e+09 -1.831831e+09 -1.991851e+09 1.482755e+04 -9.909509e+04 -6.078380e+04
-1.743972e+09 -1.543980e+09 -1.703978e+09 -4.687021e+02 -9.580847e+04 -7.249883e+04
-1.649684e+09 -1.449728e+09 -1.609705e+09 3.043835e+04 -9.723428e+04 -9.105317e+04
-2.066366e+09 -1.866434e+09 -2.026455e+09 4.423669e+04 -1.059566e+05 -1.136354e+05
-1.861252e+09 -1.661330e+09 -1.821323e+09 1.894792e+04 -9.021896e+04 -7.724571e+04
-1.494260e+09 -1.294258e+09 -1.454243e+09 -1.108054e+04 -9.846481e+04 -6.975822e+04
-1.705822e+09 -1.505843e+09 -1.665852e+09 6.055507e+03 -9.734277e+04 -6.408908e+04
-1.600050e+09 -1.400044e+09 -1.560057e+09 2.001897e+03 -9.881786e+04 -6.606546e+04
-1.514958e+09 -1.315025e+09 -1.475034e+09 7.234322e+03 3.065604e+03 1.038058e+04
-1.514958e+09 -1.315025e+09 -1.475034e+09 7.190234e+03 2.216338e+03 9.098446e+03
-1.768187e+09 -1.568254e+09 -1.728264e+09 7.527931e+03 2.641778e+03 9.023061e+03
-1.935051e+09 -1.735126e+09 -1.895135e+09 5.834630e+03 3.069709e+03 1.172860e+04
-1.801119e+09 -1.601196e+09 -1.761203e+09 5.162598e+03 2.499390e+03 1.157024e+04
-2.090942e+09 -1.891022e+09 -2.051033e+09 7.301468e+03 2.152034e+03 1.315141e+04
-1.902117e+09 -1.702188e+09 -1.862197e+09 6.311115e+03 1.383126e+03 1.004906e+04
-1.775502e+09 -1.575573e+09 -1.735582e+09 5.717187e+03 1.654812e+03 9.852157e+03
-2.043369e+09 -1.843439e+09 -2.003450e+09 5.703243e+03 1.344145e+03 1.012433e+04
-1.704878e+09 -1.504947e+09 -1.664957e+09 5.276780e+03 1.488124e+03 8.767125e+03
-1.578263e+09 -1.378333e+09 -1.538341e+09 5.741122e+03 1.770749e+03 9.422699e+03
-1.831492e+09 -1.631563e+09 -1.791572e+09 5.660707e+03 1.130448e+03 9.304208e+03
-1.704877e+09 -1.504948e+09 -1.664957e+09 5.065192e+03 1.396658e+03 9.107103e+03
-1.451647e+09 -1.251718e+09 -1.411727e+09 5.223023e+03 1.278238e+03 9.758190e+03
-1.451649e+09 -1.251718e+09 -1.411728e+09 5.413727e+03 1.326243e+03 8.864256e+03
-1.578263e+09 -1.378333e+09 -1.538342e+09 5.414506e+03 1.213240e+03 9.056546e+03
-1.831492e+09 -1.631562e+09 -1.791572e+09 5.446126e+03 1.163778e+03 9.124974e+03
-2.079523e+09 -1.879598e+09 -2.039607e+09 7.263429e+03 2.911999e+03 1.096645e+04
-2.235414e+09 -2.035493e+09 -2.195506e+09 7.145913e+03 2.728674e+03 1.317524e+04
-2.379444e+09 -2.179522e+09 -2.339535e+09 8.060334e+03 2.022336e+03 1.177864e+04
-1.723175e+09 -1.523248e+09 -1.683256e+09 4.396405e+03 2.339584e+03 1.046796e+04
-1.589241e+09 -1.389314e+09 -1.549322e+09 4.881752e+03 2.254923e+03 1.093636e+04
-1.857108e+09 -1.657180e+09 -1.817188e+09 5.203159e+03 2.560130e+03 1.089641e+04
-1.723175e+09 -1.523249e+09 -1.683256e+09 4.994878e+03 2.364045e+03 1.088094e+04
-1.455308e+09 -1.255382e+09 -1.415388e+09 4.987291e+03 2.350151e+03 1.121401e+04
-1.455309e+09 -1.255382e+09 -1.415389e+09 4.433353e+03 2.582406e+03 1.038213e+04
-1.589241e+09 -1.389314e+09 -1.549321e+09 4.526759e+03 2.332065e+03 1.021433e+04
-1.857108e+09 -1.657181e+09 -1.817189e+09 4.517878e+03 1.986946e+03 1.046741e+04
-1.659427e+09 -1.459497e+09 -1.619507e+09 7.788341e+03 3.599775e+03 1.089175e+04
-1.912656e+09 -1.712725e+09 -1.872735e+09 8.102056e+03 3.195334e+03 1.042783e+04
-2.074984e+09 -1.875056e+09 -2.035068e+09 7.371229e+03 4.341164e+03 1.035671e+04
-2.046589e+09 -1.846661e+09 -2.006670e+09 6.790590e+03 1.841313e+03 9.985504e+03
-2.187841e+09 -1.987912e+09 -2.147923e+09 7.087728e+03 2.622198e+03 9.739704e+03
-2.342851e+09 -2.142923e+09 -2.302937e+09 6.591105e+03 1.994845e+03 1.051634e+04
-1.460415e+09 -1.260428e+09 -1.420406e+09 -8.451880e+03 -8.927685e+04 -8.074012e+04
-1.460408e+09 -1.260415e+09 -1.420409e+09 -2.357959e+03 -9.345655e+04 -8.239087e+04
-1.604337e+09 -1.404332e+09 -1.564339e+09 1.089279e+04 -9.379531e+04 -7.586506e+04
-1.532372e+09 -1.332376e+09 -1.492377e+09 -2.830560e+03 -9.218729e+04 -7.506917e+04
-1.591032e+09 -1.391026e+09 -1.551043e+09 2.083834e+04 -8.830059e+04 -7.901528e+04
-1.696824e+09 -1.496825e+09 -1.656845e+09 2.348771e+04 -8.426082e+04 -7.095433e+04
-1.799377e+09 -1.599393e+09 -1.759414e+09 2.583946e+04 -9.850239e+04 -9.186619e+04
-1.865560e+09 -1.665554e+09 -1.825609e+09 4.602758e+04 -8.886650e+04 -7.186184e+04
-1.441365e+09 -1.241374e+09 -1.401379e+09 -7.916960e+03 -6.753634e+04 -6.679613e+04
-1.441361e+09 -1.241365e+09 -1.401367e+09 -8.561358e+03 -7.360150e+04 -6.481975e+04
-1.441366e+09 -1.241378e+09 -1.401373e+09 -4.853673e+03 -6.737946e+04 -6.944236e+04
-1.547163e+09 -1.347185e+09 -1.507188e+09 -1.061453e+04 -6.259271e+04 -5.659251e+04
-1.513326e+09 -1.313342e+09 -1.473308e+09 -1.290216e+03 -9.017842e+04 -8.134967e+04
-1.619108e+09 -1.419133e+09 -1.579105e+09 6.585441e+03 -8.780492e+04 -7.599927e+04
-1.710137e+09 -1.510152e+09 -1.670141e+09 1.161144e+04 -9.242001e+04 -7.176292e+04
-1.566213e+09 -1.366232e+09 -1.526210e+09 1.288154e+03 -9.371157e+04 -8.008628e+04
-1.519065e+09 -1.319093e+09 -1.479079e+09 1.022393e+04 -8.464021e+04 -8.559968e+04
-1.519073e+09 -1.319100e+09 -1.479076e+09 1.600655e+04 -8.704722e+04 -8.543949e+04
-1.727413e+09 -1.527449e+09 -1.687448e+09 2.347211e+04 -9.359922e+04 -9.547499e+04
-1.624857e+09 -1.424902e+09 -1.584884e+09 1.090796e+04 -8.288487e+04 -7.808273e+04
-1.441354e+09 -1.241366e+09 -1.401347e+09 -7.048056e+03 -9.318715e+04 -7.982831e+04
-1.441355e+09 -1.241365e+09 -1.401343e+09 -9.518227e+03 -9.404113e+04 -7.548197e+04
-1.547137e+09 -1.347156e+09 -1.507147e+09 2.350828e+02 -9.228471e+04 -7.322466e+04
-1.494247e+09 -1.294256e+09 -1.454249e+09 -1.451644e+03 -9.509141e+04 -7.752685e+04
-1.451651e+09 -1.251720e+09 -1.411727e+09 7.096384e+03 2.689369e+03 1.077322e+04
-1.451651e+09 -1.251718e+09 -1.411727e+09 7.404100e+03 2.956055e+03 1.089297e+04
-1.451651e+09 -1.251719e+09 -1.411727e+09 7.052650e+03 2.525449e+03 1.023929e+04
-1.578266e+09 -1.378333e+09 -1.538342e+09 7.190213e+03 2.597461e+03 1.016344e+04
-1.527764e+09 -1.327838e+09 -1.487845e+09 6.824559e+03 2.719290e+03 1.194252e+04
-1.661697e+09 -1.461770e+09 -1.621778e+09 6.373632e+03 2.809999e+03 1.175244e+04
-1.594731e+09 -1.394805e+09 -1.554812e+09 5.926804e+03 2.462000e+03 1.164816e+04
-1.739643e+09 -1.539718e+09 -1.699727e+09 7.166492e+03 2.366912e+03 1.240029e+04
-1.518616e+09 -1.318687e+09 -1.478695e+09 6.251018e+03 1.588335e+03 1.113111e+04
-1.645230e+09 -1.445301e+09 -1.605309e+09 6.338236e+03 1.600955e+03 1.063628e+04
-1.581922e+09 -1.381993e+09 -1.542001e+09 5.851579e+03 1.742847e+03 1.048978e+04
-1.715856e+09 -1.515926e+09 -1.675935e+09 5.913016e+03 1.434571e+03 1.070781e+04
-1.451650e+09 -1.251720e+09 -1.411728e+09 6.022565e+03 1.779834e+03 1.089177e+04
-1.546610e+09 -1.346680e+09 -1.506688e+09 5.646310e+03 1.776685e+03 1.007003e+04
-1.483303e+09 -1.283373e+09 -1.443381e+09 5.967830e+03 1.793835e+03 1.030153e+04
-1.609918e+09 -1.409988e+09 -1.569996e+09 6.075496e+03 1.495011e+03 1.039000e+04
-1.546610e+09 -1.346680e+09 -1.506688e+09 5.589223e+03 1.633870e+03 1.024508e+04
-1.419995e+09 -1.220066e+09 -1.380074e+09 5.680528e+03 1.523187e+03 1.056058e+04
-1.419996e+09 -1.220066e+09 -1.380074e+09 5.710584e+03 1.700257e+03 1.019549e+04
-1.483303e+09 -1.283373e+09 -1.443381e+09 5.753083e+03 1.714385e+03 1.022025e+04
-1.609918e+09 -1.409987e+09 -1.569996e+09 5.772921e+03 1.686940e+03 1.015784e+04
-1.600000e+09 -1.400073e+09 -1.560081e+09 7.128040e+03 2.467679e+03 1.177657e+04
-1.733933e+09 -1.534006e+09 -1.694014e+09 7.103837e+03 2.719212e+03 1.136233e+04
-1.811879e+09 -1.611954e+09 -1.771964e+09 7.108294e+03 2.739635e+03 1.239609e+04
-1.883893e+09 -1.683968e+09 -1.843978e+09 7.317670e+03 2.345224e+03 1.207532e+04
-1.455309e+09 -1.255381e+09 -1.415388e+09 6.160087e+03 2.183080e+03 1.142617e+04
-1.555759e+09 -1.355831e+09 -1.515838e+09 5.309273e+03 2.281641e+03 1.100430e+04
-1.488792e+09 -1.288864e+09 -1.448871e+09 5.677221e+03 2.275123e+03 1.129263e+04
-1.622725e+09 -1.422797e+09 -1.582804e+09 5.879365e+03 2.411140e+03 1.129707e+04
-1.555759e+09 -1.355832e+09 -1.515838e+09 5.725300e+03 2.299392e+03 1.128609e+04
-1.421825e+09 -1.221899e+09 -1.381904e+09 5.777525e+03 2.395029e+03 1.145642e+04
-1.421825e+09 -1.221898e+09 -1.381905e+09 5.287629e+03 2.497961e+03 1.093020e+04
-1.488792e+09 -1.288864e+09 -1.448871e+09 5.345564e+03 2.347195e+03 1.079942e+04
-1.622725e+09 -1.422798e+09 -1.582805e+09 5.409163e+03 2.016312e+03 1.100465e+04
-1.523886e+09 -1.323955e+09 -1.483964e+09 7.758132e+03 3.327409e+03 1.118912e+04
-1.523885e+09 -1.323954e+09 -1.483964e+09 7.787256e+03 3.325485e+03 1.112666e+04
-1.650499e+09 -1.450569e+09 -1.610577e+09 7.845498e+03 3.229270e+03 1.102587e+04
-1.731663e+09 -1.531734e+09 -1.691744e+09 7.341817e+03 3.964539e+03 1.110045e+04
-1.590852e+09 -1.390923e+09 -1.550932e+09 6.884302e+03 2.222523e+03 1.097431e+04
-1.717466e+09 -1.517537e+09 -1.677545e+09 6.904944e+03 2.107195e+03 1.071970e+04
-1.788093e+09 -1.588163e+09 -1.748172e+09 6.946309e+03 2.345869e+03 1.029316e+04
-1.865597e+09 -1.665669e+09 -1.825679e+09 6.713939e+03 2.166777e+03 1.115938e+04
-3.404439e+09 -3.204472e+09 -3.364509e+09 1.579461e+04 2.543735e+03 7.619505e+03
-3.380116e+09 -3.180148e+09 -3.340195e+09 2.284589e+04 5.606888e+03 1.278335e+04
-2.649077e+09 -2.449102e+09 -2.609138e+09 1.464101e+04 5.071192e+03 6.323554e+03
-3.198871e+09 -2.998913e+09 -3.158956e+09 2.159210e+04 7.487092e+03 1.402445e+04
-3.136814e+09 -2.936855e+09 -3.096890e+09 1.855443e+04 5.328854e+03 9.708339e+03
-2.534980e+09 -2.335017e+09 -2.495050e+09 1.461884e+04 6.357474e+03 7.967402e+03
-2.432171e+09 -2.232226e+09 -2.392266e+09 2.599418e+04 1.864082e+04 3.681913e+04
-2.029455e+09 -1.829517e+09 -1.989541e+09 2.800078e+04 1.870348e+04 2.988151e+04
-3.397170e+09 -3.197363e+09 -3.355927e+09 6.289402e+05 2.860717e+05 3.917015e+05
-2.771225e+09 -2.570471e+09 -2.729353e+09 6.617787e+05 9.701851e+05 5.806849e+05
-2.565229e+09 -2.364856e+09 -2.523727e+09 6.046489e+05 6.199576e+05 5.429364e+05
-3.403231e+09 -3.202762e+09 -3.361847e+09 6.303985e+05 4.703401e+05 1.715678e+05
-3.203705e+09 -3.003264e+09 -3.162317e+09 5.707490e+05 4.122645e+05 2.177618e+05
-3.235842e+09 -3.035583e+09 -3.195845e+09 8.242992e+04 -8.839187e+04 -2.731964e+04
-3.467824e+09 -3.268803e+09 -3.428171e+09 5.169760e+03 -8.130861e+03 1.206473e+05
-3.058536e+09 -2.858219e+09 -3.018482e+09 5.890480e+04 -1.601056e+05 -2.553935e+04
-3.359102e+09 -3.158771e+09 -3.319136e+09 1.177338e+05 -1.279980e+05 -4.234543e+04
-3.384138e+09 -3.183747e+09 -3.344150e+09 1.033519e+05 -1.116178e+05 -2.891335e+04
-2.045207e+09 -1.845231e+09 -2.005267e+09 1.915947e+04 5.619509e+03 9.052366e+03
-2.285675e+09 -2.085697e+09 -2.245736e+09 1.537502e+04 6.694733e+03 8.356665e+03
-1.721906e+09 -1.521922e+09 -1.681959e+09 1.440022e+04 6.277154e+03 7.046814e+03
-1.720459e+09 -1.520484e+09 -1.680515e+09 1.367455e+04 6.232814e+03 8.116042e+03
-2.400671e+09 -2.200689e+09 -2.360729e+09 1.584526e+04 6.880510e+03 7.703259e+03
-2.204409e+09 -2.005365e+09 -2.164225e+09 2.724328e+05 -1.900928e+05 -3.514595e+05
-2.423239e+09 -2.223262e+09 -2.383301e+09 1.796526e+04 7.647921e+03 1.029066e+04
-2.045706e+09 -1.845724e+09 -2.005763e+09 1.759933e+04 8.251257e+03 9.411800e+03
-1.774461e+09 -1.574413e+09 -1.733698e+09 2.159713e+05 -1.449867e+05 -3.172130e+05
-3.313406e+09 -3.113096e+09 -3.273402e+09 -1.531153e+05 8.269801e+04 -4.451617e+04
-3.104158e+09 -2.903806e+09 -3.064098e+09 -1.375090e+05 8.518490e+04 -3.763783e+04
-2.723481e+09 -2.523220e+09 -2.683349e+09 -1.138399e+05 1.350751e+05 -6.285228e+04
-2.051033e+09 -1.850853e+09 -2.011006e+09 -4.229133e+04 1.349018e+05 -5.228548e+04
-3.324318e+09 -3.124957e+09 -3.284180e+09 3.464175e+05 -3.984000e+04 2.720006e+04
-2.458970e+09 -2.259217e+09 -2.418819e+09 1.954024e+05 -3.632311e+04 2.824671e+03
-3.089912e+09 -2.890303e+09 -3.050255e+09 2.909346e+05 -3.801440e+04 8.122489e+03
-2.548289e+09 -2.348459e+09 -2.508026e+09 2.689241e+05 -2.709692e+04 -9.325444e+02
-3.396055e+09 -3.196528e+09 -3.355327e+09 4.552285e+05 -1.207991e+04 -1.634210e+05
-3.148167e+09 -2.948345e+09 -3.107689e+09 3.778966e+05 -9.637397e+04 -1.772563e+05
-3.538666e+09 -3.338412e+09 -3.498705e+09 1.161908e+05 7.878463e+04 3.387519e+04
-1.784391e+09 -1.584447e+09 -1.744457e+09 2.236065e+04 3.674493e+04 6.257876e+04
-1.784399e+09 -1.584446e+09 -1.744458e+09 2.219722e+04 3.578546e+04 6.336348e+04
-1.797102e+09 -1.597173e+09 -1.757186e+09 2.413953e+04 2.660870e+04 5.777599e+04
-2.400681e+09 -2.200754e+09 -2.360800e+09 3.844487e+04 3.819891e+04 7.428360e+04
-1.936136e+09 -1.736257e+09 -1.896253e+09 -8.629870e+04 -5.926800e+04 1.308985e+05
-1.810566e+09 -1.610727e+09 -1.770697e+09 -1.038705e+05 -8.407421e+04 1.456778e+05
-3.024454e+09 -2.824692e+09 -2.984635e+09 -2.666772e+05 -4.354997e+04 5.973929e+04
-2.604289e+09 -2.404504e+09 -2.564258e+09 -1.828502e+05 -7.700003e+04 9.520768e+04
-1.842303e+09 -1.642404e+09 -1.802281e+09 -4.062112e+04 -8.178735e+04 1.127087e+05
-3.218478e+09 -3.018322e+09 -3.178488e+09 1.674715e+05 1.038222e+05 6.072074e+04
-2.846133e+09 -2.645993e+09 -2.806141e+09 1.932440e+05 1.170112e+05 9.664494e+04
-2.839652e+09 -2.639557e+09 -2.799747e+09 1.672487e+05 1.087905e+05 7.859147e+04
-2.652805e+09 -2.452770e+09 -2.612847e+09 1.070518e+05 8.949788e+04 6.378851e+04
-3.231891e+09 -3.031822e+09 -3.191919e+09 2.085273e+05 7.530646e+04 7.573637e+04
-2.825037e+09 -2.625003e+09 -2.785132e+09 1.789886e+05 1.278767e+05 7.592564e+04
-2.622052e+09 -2.421952e+09 -2.582038e+09 1.419555e+05 1.001720e+05 7.123530e+04
-2.444174e+09 -2.244126e+09 -2.404223e+09 4.098334e+04 4.872279e+04 3.052267e+04
-2.203226e+09 -2.003939e+09 -2.163146e+09 1.265728e+05 -1.115336e+05 9.254924e+04
-2.537963e+09 -2.337916e+09 -2.498011e+09 4.267272e+04 5.095146e+04 2.773460e+04
-3.000272e+09 -2.800017e+09 -2.960269e+09 -4.173983e+04 -6.387466e+04 1.471616e+04
-2.651503e+09 -2.451460e+09 -2.611560e+09 4.810645e+04 4.529531e+04 2.551485e+04
-1.576897e+09 -1.376955e+09 -1.536972e+09 1.306885e+04 7.992367e+03 2.092238e+04
-2.623692e+09 -2.423631e+09 -2.583738e+09 4.037123e+04 4.325194e+04 2.796950e+04
-2.681560e+09 -2.481529e+09 -2.641618e+09 4.041815e+04 4.386869e+04 2.676039e+04
-2.559963e+09 -2.359909e+09 -2.520009e+09 3.354963e+04 4.426970e+04 2.728828e+04
-3.217503e+09 -3.017910e+09 -3.177805e+09 1.160512e+04 1.353899e+04 7.361081e+04
-3.138849e+09 -2.939285e+09 -3.099098e+09 8.258358e+04 2.660756e+04 1.456818e+05
-2.762830e+09 -2.563274e+09 -2.723096e+09 -3.914366e+03 6.871457e+03 6.847175e+04
-3.314312e+09 -3.114874e+09 -3.274538e+09 5.196125e+04 1.288366e+04 1.116312e+05
-2.439013e+09 -2.239125e+09 -2.399264e+09 1.481617e+05 6.740056e+04 7.958683e+04
-2.637059e+09 -2.437164e+09 -2.597260e+09 1.623592e+05 7.203649e+04 8.520534e+04
-2.537572e+09 -2.337603e+09 -2.497634e+09 1.094943e+05 6.592951e+04 9.935174e+04
-2.639238e+09 -2.439391e+09 -2.599439e+09 1.664587e+05 7.433648e+04 8.431965e+04
-1.858432e+09 -1.658452e+09 -1.818514e+09 9.451160e+04 1.150511e+05 1.638056e+05
-1.765972e+09 -1.565958e+09 -1.725955e+09 4.592663e+04 7.223471e+04 7.995636e+04
-3.406605e+09 -3.206686e+09 -3.366713e+09 1.828203e+04 4.255531e+03 1.780089e+04
-3.094890e+09 -2.894970e+09 -3.054998e+09 1.711723e+04 2.845296e+03 1.824162e+04
-2.845450e+09 -2.645516e+09 -2.805544e+09 1.989659e+04 6.066599e+03 1.481061e+04
-3.604284e+09 -3.404369e+09 -3.564392e+09 1.676913e+04 4.863740e+03 1.297601e+04
-2.592962e+09 -2.393025e+09 -2.553047e+09 1.326608e+04 4.838561e+03 1.666947e+04
-3.604286e+09 -3.404363e+09 -3.564391e+09 1.542110e+04 3.077805e+03 1.366184e+04
-3.200015e+09 -3.000090e+09 -3.160118e+09 1.983946e+04 5.402919e+03 1.718219e+04
-2.830960e+09 -2.631052e+09 -2.791071e+09 1.655994e+04 6.885125e+03 2.157032e+04
-3.093866e+09 -2.893949e+09 -3.053973e+09 1.327408e+04 4.386340e+03 1.974354e+04
-2.613865e+09 -2.413946e+09 -2.573966e+09 1.062335e+04 3.850319e+03 2.066532e+04
-2.508337e+09 -2.308423e+09 -2.468438e+09 1.131584e+04 5.817312e+03 2.510334e+04
-2.655815e+09 -2.455911e+09 -2.615929e+09 2.475017e+03 9.304266e+03 2.887125e+04
-3.603242e+09 -3.403341e+09 -3.563363e+09 1.125125e+04 2.151929e+03 1.802166e+04
-3.248004e+09 -3.048105e+09 -3.208124e+09 9.770344e+03 3.176669e+03 1.867209e+04
-3.120282e+09 -2.918893e+09 -3.077253e+09 -6.704187e+05 1.709260e+06 -3.985696e+05
-2.916886e+09 -2.715671e+09 -2.874083e+09 -5.043197e+05 1.634448e+06 -5.192833e+05
-2.079712e+09 -1.879445e+09 -2.038717e+09 -4.712272e+05 4.954495e+05 -3.273181e+05
-1.919030e+09 -1.718682e+09 -1.878915e+09 -3.126728e+05 3.908233e+05 -2.518377e+05
-2.668470e+09 -2.467102e+09 -2.626907e+09 -2.029938e+05 6.768405e+05 -1.459989e+05
-2.142273e+09 -1.941238e+09 -2.101222e+09 -3.077602e+05 4.572109e+05 -2.188252e+04
-3.166303e+09 -2.967232e+09 -3.126456e+09 1.474536e+05 5.019225e+04 3.126590e+05
-2.754879e+09 -2.555764e+09 -2.715144e+09 1.760227e+05 6.757435e+04 7.784171e+04
-1.885347e+09 -1.685693e+09 -1.845562e+09 1.645692e+05 -2.031074e+04 -4.330465e+04
-3.264410e+09 -3.065318e+09 -3.224708e+09 4.580771e+04 9.658138e+04 7.713406e+04
-3.280155e+09 -3.080951e+09 -3.240528e+09 -2.540979e+04 9.478695e+03 1.851153e+05
-2.448940e+09 -2.248988e+09 -2.409023e+09 -1.909890e+04 -1.448898e+04 1.938169e+04
-2.974641e+09 -2.774691e+09 -2.934739e+09 -3.396762e+04 -1.235262e+04 2.697141e+04
-3.361836e+09 -3.161882e+09 -3.321939e+09 -3.695878e+04 -1.317703e+04 2.304700e+04
-3.598659e+09 -3.399235e+09 -3.559104e+09 1.541195e+05 -2.376206e+03 1.270192e+05
-2.805744e+09 -2.605785e+09 -2.765819e+09 -2.346747e+04 -1.125686e+04 1.403190e+04
-3.178345e+09 -2.978391e+09 -3.138448e+09 -2.979906e+04 -1.386324e+04 2.085845e+04
-3.136579e+09 -2.936386e+09 -3.096616e+09 -6.293224e+04 9.232557e+04 -1.856777e+04
-3.340855e+09 -3.140664e+09 -3.300877e+09 -8.480405e+04 7.863881e+04 -2.771455e+04
-2.759124e+09 -2.558985e+09 -2.719175e+09 -5.855445e+04 7.689194e+04 -3.783044e+04
-2.108223e+09 -1.908099e+09 -2.068229e+09 -3.805351e+04 9.614283e+04 -4.084781e+04
-2.987681e+09 -2.788362e+09 -2.948075e+09 3.613458e+03 -6.704367e+03 1.862877e+05
-2.131844e+09 -1.931737e+09 -2.091866e+09 -3.031934e+04 9.283333e+04 -3.540647e+04
-2.323623e+09 -2.123494e+09 -2.283617e+09 -3.499494e+04 9.169503e+04 -4.257868e+04
-2.104713e+09 -1.904599e+09 -2.064731e+09 -3.037370e+04 9.392723e+04 -4.051638e+04
-2.539593e+09 -2.339428e+09 -2.499599e+09 -3.470288e+04 8.304393e+04 -3.212982e+04
-2.369111e+09 -2.168975e+09 -2.329132e+09 -2.373938e+04 8.172104e+04 -2.072058e+04
-2.240851e+09 -2.040792e+09 -2.200877e+09 -7.713355e+04 1.081986e+05 -6.124421e+04
-1.984207e+09 -1.784146e+09 -1.944283e+09 -7.455527e+04 1.110835e+05 -8.280015e+04
-2.061688e+09 -1.861689e+09 -2.021797e+09 -1.186123e+05 8.835106e+04 -9.327522e+04
-2.799567e+09 -2.599125e+09 -2.758734e+09 5.835049e+05 2.768380e+05 6.858232e+04
-3.591855e+09 -3.390587e+09 -3.550206e+09 3.244944e+05 3.673386e+05 3.741915e+04
-3.212046e+09 -3.010784e+09 -3.170724e+09 1.078891e+05 7.695230e+04 -4.640704e+04
-3.388765e+09 -3.187500e+09 -3.346369e+09 2.483513e+05 5.307085e+05 2.396800e+05
-3.175403e+09 -2.974648e+09 -3.133037e+09 6.438824e+05 1.094122e+06 7.265894e+05
-3.172630e+09 -2.971476e+09 -3.129991e+09 3.829273e+05 8.900549e+05 1.476777e+05
-3.375366e+09 -3.174211e+09 -3.332305e+09 5.695553e+05 1.068165e+06 3.920395e+05
-3.395036e+09 -3.195062e+09 -3.355121e+09 3.486457e+04 1.041107e+04 1.948075e+04
-3.283801e+09 -3.083846e+09 -3.243911e+09 4.213963e+04 2.426421e+04 2.787645e+04
-2.376377e+09 -2.176393e+09 -2.336442e+09 2.568876e+04 1.690559e+04 2.255126e+04
-3.082532e+09 -2.882551e+09 -3.042626e+09 4.218124e+04 2.626068e+04 3.101975e+04
-2.647960e+09 -2.447994e+09 -2.608036e+09 2.972420e+04 1.601948e+04 1.857368e+04
-1.948499e+09 -1.748739e+09 -1.904743e+09 -3.209094e+05 -2.632287e+06 -2.280269e+05
-3.255550e+09 -3.054690e+09 -3.207292e+09 2.808765e+05 -1.936039e+06 3.433491e+05
-2.648801e+09 -2.447757e+09 -2.603858e+09 1.361143e+06 -1.906701e+06 -2.052292e+06
-2.842548e+09 -2.642595e+09 -2.789187e+09 3.130351e+04 -4.782972e+06 -3.040562e+06
-3.058101e+09 -2.856691e+09 -3.011337e+09 6.948020e+05 -3.780769e+06 -3.483989e+05
-3.040046e+09 -2.839793e+09 -3.000011e+09 1.102626e+05 -1.217199e+05 -2.792662e+04
-2.651025e+09 -2.450835e+09 -2.611028e+09 1.050156e+05 -8.801004e+04 -3.435725e+04
-2.532209e+09 -2.332032e+09 -2.492218e+09 5.738152e+04 -1.322241e+05 -4.379347e+04
-2.478288e+09 -2.278112e+09 -2.438309e+09 6.053567e+04 -1.329887e+05 -4.956911e+04
-2.718878e+09 -2.518709e+09 -2.678918e+09 9.975841e+04 -1.211839e+05 -5.136565e+04
-2.411662e+09 -2.211651e+09 -2.371733e+09 3.791486e+04 4.226430e+04 4.105975e+04
-2.835231e+09 -2.635225e+09 -2.795314e+09 4.830240e+04 3.362767e+04 3.320308e+04
-3.401673e+09 -3.201657e+09 -3.361771e+09 6.998313e+04 3.094328e+04 3.683579e+04
-3.389040e+09 -3.189042e+09 -3.349133e+09 5.318125e+04 2.352614e+04 2.519775e+04
-3.387542e+09 -3.186914e+09 -3.345811e+09 -5.316229e+05 -3.090853e+05 3.588280e+05
-3.227247e+09 -3.027156e+09 -3.186297e+09 -5.178997e+05 -1.639455e+05 1.847273e+05
-3.262555e+09 -3.062234e+09 -3.220884e+09 -6.132161e+05 -3.864055e+05 2.900041e+05
-2.695478e+09 -2.495461e+09 -2.654383e+09 -5.555712e+05 -4.559581e+05 4.384684e+05
-3.080514e+09 -2.880597e+09 -3.039199e+09 -5.180768e+05 -4.312382e+05 3.559982e+05
-2.726811e+09 -2.526631e+09 -2.686823e+09 -6.849855e+04 1.130372e+05 -4.882773e+04
-1.979788e+09 -1.779702e+09 -1.939812e+09 -4.720858e+04 8.908367e+04 -5.364500e+04
-1.772253e+09 -1.572239e+09 -1.732232e+09 -3.575946e+03 1.067981e+05 -5.660797e+04
-2.669263e+09 -2.469081e+09 -2.629288e+09 -9.056576e+04 8.917832e+04 -4.234844e+04
-1.785723e+09 -1.585641e+09 -1.745762e+09 -3.621048e+04 9.778513e+04 -4.388972e+04
-1.680520e+09 -1.480481e+09 -1.640496e+09 -3.644832e+03 1.256618e+05 -4.400959e+04
-2.076646e+09 -1.876545e+09 -2.036682e+09 -6.706922e+04 1.359982e+05 -6.713091e+04
-2.957043e+09 -2.757226e+09 -2.917233e+09 3.970006e+03 1.131406e+04 5.787741e+04
-2.915457e+09 -2.715624e+09 -2.875643e+09 3.765483e+02 -1.985657e+03 5.298881e+04
-2.883187e+09 -2.683327e+09 -2.843346e+09 -3.772901e+03 -1.983857e+03 5.080398e+04
-3.312577e+09 -3.112754e+09 -3.272775e+09 1.147568e+04 5.394694e+03 4.475977e+04
-3.451218e+09 -3.251367e+09 -3.411389e+09 2.065531e+03 4.785629e+02 3.693660e+04
-2.755995e+09 -2.556140e+09 -2.716161e+09 2.529080e+03 -2.157822e+03 5.190879e+04
-2.020379e+09 -1.820706e+09 -1.980353e+09 7.401191e+03 -3.557245e+04 8.379181e+04
-2.866232e+09 -2.666370e+09 -2.826396e+09 2.961163e+03 -4.317325e+02 5.236572e+04
-2.835570e+09 -2.635724e+09 -2.795741e+09 -1.393340e+04 -5.929815e+03 5.039530e+04
-2.642310e+09 -2.442458e+09 -2.602480e+09 -7.461506e+03 -5.573499e+03 5.409940e+04
-3.474454e+09 -3.274566e+09 -3.434654e+09 2.705377e+05 8.119877e+04 8.603931e+04
-2.770703e+09 -2.571649e+09 -2.730686e+09 3.331106e+04 -6.786145e+04 -2.347252e+05
-3.361412e+09 -3.162322e+09 -3.321327e+09 1.431990e+05 5.975720e+04 -3.122306e+04
-3.604514e+09 -3.404360e+09 -3.564575e+09 2.485775e+05 8.075189e+04 8.181260e+04
-3.012742e+09 -2.813477e+09 -2.972623e+09 1.363315e+05 -1.401342e+05 -1.248688e+05
-3.026427e+09 -2.827743e+09 -2.985988e+09 2.615336e+05 -1.124172e+05 -6.791143e+05
-2.588176e+09 -2.389013e+09 -2.548613e+09 1.445541e+05 -1.446226e+05 -8.133023e+03
-1.870592e+09 -1.670916e+09 -1.830540e+09 5.068172e+04 -1.987507e+04 9.122237e+04
-2.481025e+09 -2.281951e+09 -2.441165e+09 -5.702000e+03 1.001381e+05 -3.992571e+04
-3.387396e+09 -3.188625e+09 -3.347075e+09 5.621969e+04 -7.122600e+04 -1.483001e+05
-3.387281e+09 -3.188323e+09 -3.346983e+09 -5.320031e+04 -1.137261e+05 -1.046599e+05
-3.064786e+09 -2.865834e+09 -3.024756e+09 4.188052e+03 -5.831827e+04 -2.688047e+05
-2.646870e+09 -2.446920e+09 -2.606952e+09 -2.211398e+04 -1.080694e+04 1.460050e+04
-2.055640e+09 -1.855690e+09 -2.015714e+09 -1.991686e+04 -1.078430e+04 2.139014e+04
-1.842187e+09 -1.642231e+09 -1.802254e+09 -1.421091e+04 -8.531983e+03 1.921378e+04
-2.660829e+09 -2.460879e+09 -2.620915e+09 -2.327539e+04 -1.137502e+04 2.276252e+04
-3.048013e+09 -2.848067e+09 -3.008104e+09 -2.622249e+04 -9.541511e+03 1.888185e+04
-2.893650e+09 -2.693714e+09 -2.853743e+09 -2.157055e+04 -8.666255e+03 1.859808e+04
-2.165018e+09 -1.965074e+09 -2.125095e+09 -1.537888e+04 -7.304712e+03 1.411408e+04
-2.574456e+09 -2.374514e+09 -2.534546e+09 -1.776596e+04 -7.889788e+03 1.753494e+04
-2.838082e+09 -2.637795e+09 -2.797980e+09 1.848966e+05 -2.800159e+04 -1.095133e+04
-1.616911e+09 -1.416882e+09 -1.576850e+09 2.696963e+03 -1.727008e+05 -7.859376e+04
-2.076557e+09 -1.876339e+09 -2.036483e+09 7.015778e+04 -8.551092e+04 -4.967418e+04
-3.593689e+09 -3.393642e+09 -3.553842e+09 1.752569e+05 8.424410e+04 6.566137e+04
-2.238210e+09 -2.038037e+09 -2.198064e+09 1.326485e+05 -2.085062e+05 -9.293557e+04
-2.237379e+09 -2.037148e+09 -2.197342e+09 2.085144e+05 -1.181766e+05 -7.400606e+04
-3.161632e+09 -2.961367e+09 -3.121430e+09 -2.351998e+05 1.521636e+04 -1.531030e+04
-2.248862e+09 -2.048462e+09 -2.208686e+09 -2.023130e+05 -1.304552e+04 7.231247e+04
-2.578537e+09 -2.378400e+09 -2.538543e+09 -2.510479e+05 4.929533e+04 -6.055886e+04
-3.237857e+09 -3.037527e+09 -3.197732e+09 -3.212172e+05 8.100826e+04 -7.670795e+04
-2.036829e+09 -1.836719e+09 -1.996512e+09 -9.810903e+04 6.670030e+04 -2.458950e+03
-1.959536e+09 -1.759407e+09 -1.919515e+09 -5.860147e+04 -1.609583e+05 7.151723e+04
-2.173840e+09 -1.973728e+09 -2.133807e+09 -2.187261e+05 1.749846e+05 -9.806622e+04
-1.963636e+09 -1.763627e+09 -1.923351e+09 -9.297214e+04 4.193663e+04 -1.564801e+04
-2.121568e+09 -1.921428e+09 -2.081211e+09 2.173268e+05 -1.394455e+05 -7.568076e+04
-1.920518e+09 -1.720777e+09 -1.880469e+09 1.806961e+05 -1.795886e+04 -1.494049e+05
-1.946107e+09 -1.746195e+09 -1.905950e+09 8.866594e+04 -3.247963e+04 4.038588e+04
-2.109403e+09 -1.909496e+09 -2.069320e+09 3.619182e+05 -1.004775e+04 -5.895328e+04
-2.356271e+09 -2.156485e+09 -2.315751e+09 3.402786e+05 -3.126925e+05 -3.122274e+05
-2.430558e+09 -2.230478e+09 -2.390299e+09 3.172090e+05 -5.863106e+04 -6.491954e+04
-1.877046e+09 -1.676969e+09 -1.836322e+09 1.222574e+05 -3.716129e+05 -2.681050e+05
-3.255253e+09 -3.055039e+09 -3.215309e+09 8.154220e+04 -8.629443e+04 -3.148297e+04
-3.502424e+09 -3.302181e+09 -3.462480e+09 7.656286e+04 -9.203607e+04 -3.661937e+04
-3.187478e+09 -2.987311e+09 -3.147519e+09 5.799342e+04 -7.233475e+04 -2.229266e+04
-2.340953e+09 -2.140821e+09 -2.300974e+09 4.802893e+04 -9.460557e+04 -5.517130e+04
-2.330329e+09 -2.130223e+09 -2.290374e+09 5.515412e+04 -9.527369e+04 -4.076340e+04
-2.273129e+09 -2.072991e+09 -2.233145e+09 4.171989e+04 -7.426691e+04 -3.486136e+04
-2.941621e+09 -2.741482e+09 -2.901666e+09 4.913440e+04 -8.322014e+04 -4.300284e+04
-3.172634e+09 -2.972792e+09 -3.132832e+09 -1.281872e+05 -4.649372e+04 6.146154e+04
-1.600655e+09 -1.400600e+09 -1.560662e+09 1.276597e+04 1.257566e+05 6.374527e+04
-2.943008e+09 -2.743213e+09 -2.903199e+09 -1.053806e+05 -1.823740e+04 9.441260e+04
-3.246802e+09 -3.047023e+09 -3.207000e+09 -1.430457e+05 -4.047495e+04 8.768797e+04
-3.363784e+09 -3.163943e+09 -3.324022e+09 -1.800609e+05 -6.591117e+04 1.142472e+05
-2.014441e+09 -1.814643e+09 -1.974422e+09 3.871778e+04 4.221791e+02 -4.903712e+04
-2.617698e+09 -2.417750e+09 -2.577673e+09 2.073957e+05 -1.626056e+04 3.263481e+04
-2.754507e+09 -2.554567e+09 -2.714582e+09 2.170787e+05 -1.131517e+05 -9.703222e+04
-3.105797e+09 -2.905931e+09 -3.065866e+09 2.397563e+05 -3.809723e+04 -4.646923e+04
-2.324364e+09 -2.124552e+09 -2.284506e+09 1.714255e+05 -9.814382e+04 -1.034143e+05
-1.675248e+09 -1.475267e+09 -1.635301e+09 9.826270e+03 3.363903e+03 3.470199e+03
-3.170305e+09 -2.969929e+09 -3.130192e+09 -1.330389e+05 -8.386939e+04 2.197445e+04
-2.805886e+09 -2.605411e+09 -2.765626e+09 -1.052191e+05 -1.832416e+05 3.759657e+04
-3.274837e+09 -3.074610e+09 -3.234855e+09 -6.524599e+04 -6.893993e+04 2.549706e+04
-1.906434e+09 -1.706452e+09 -1.866489e+09 -1.730298e+04 -2.511270e+04 2.683541e+04
-3.192082e+09 -2.991593e+09 -3.151868e+09 -1.301634e+05 -7.779435e+03 2.474764e+04
-2.759494e+09 -2.559165e+09 -2.719470e+09 -1.484249e+05 -1.359086e+05 7.119657e+04
-2.575558e+09 -2.375227e+09 -2.535352e+09 -8.935840e+04 -6.194313e+04 1.906782e+04
-2.749794e+09 -2.549461e+09 -2.709684e+09 -1.635143e+05 -4.247192e+04 6.537014e+04
-2.444232e+09 -2.244040e+09 -2.404179e+09 -5.099463e+04 1.335844e+05 -3.675991e+04
-2.655085e+09 -2.454769e+09 -2.615070e+09 -7.517853e+04 1.534408e+05 -3.599537e+04
-2.959838e+09 -2.759624e+09 -2.919876e+09 -5.606094e+04 -7.005933e+04 2.544155e+04
-2.664750e+09 -2.464444e+09 -2.624744e+09 -1.688424e+05 8.293303e+04 -1.599349e+04
-3.325808e+09 -3.125550e+09 -3.285827e+09 -1.876194e+05 1.181939e+05 -4.856986e+04
-2.999349e+09 -2.799187e+09 -2.959308e+09 -1.674920e+05 6.096215e+04 -6.312948e+04
-2.781952e+09 -2.581592e+09 -2.741895e+09 -1.652413e+05 6.769071e+04 -3.143289e+04
-3.162630e+09 -2.962255e+09 -3.122442e+09 -1.555654e+05 6.023176e+04 -2.477556e+03
-3.412716e+09 -3.212255e+09 -3.372658e+09 -1.623858e+05 1.291152e+05 -3.170488e+04
-2.553036e+09 -2.353190e+09 -2.513199e+09 1.556625e+04 2.721327e+04 8.410072e+04
-1.952146e+09 -1.752404e+09 -1.911629e+09 -3.750528e+04 -3.864047e+05 -3.061860e+05
-2.770101e+09 -2.570655e+09 -2.730048e+09 -1.012955e+05 5.891199e+04 2.452946e+04
-3.128975e+09 -2.929028e+09 -3.089120e+09 7.909522e+04 3.972347e+04 4.956360e+04
-3.595591e+09 -3.395687e+09 -3.555793e+09 9.806404e+04 3.683440e+04 5.301530e+04
-2.523302e+09 -2.323355e+09 -2.483441e+09 7.989780e+04 4.350049e+04 6.911626e+04
-3.387932e+09 -3.188020e+09 -3.348088e+09 6.807446e+04 2.870290e+04 4.201534e+04
-2.697399e+09 -2.497448e+09 -2.657517e+09 6.380028e+04 3.420767e+04 4.545647e+04
-2.601377e+09 -2.400891e+09 -2.561266e+09 -1.093314e+05 1.126223e+05 -2.716798e+02
-2.561425e+09 -2.361020e+09 -2.520878e+09 -1.352861e+05 -2.389871e+04 7.546245e+04
-1.961915e+09 -1.761831e+09 -1.921662e+09 -3.614608e+04 5.080916e+04 1.112932e+02
-2.181849e+09 -1.981620e+09 -2.141735e+09 -9.991665e+04 1.726546e+05 -1.061279e+05
-1.987510e+09 -1.787069e+09 -1.947196e+09 -7.908210e+04 2.103912e+04 -7.719165e+04
-2.988893e+09 -2.788225e+09 -2.947744e+09 3.470726e+05 -4.808877e+05 -3.459235e+05
-2.530703e+09 -2.329975e+09 -2.489734e+09 1.930921e+05 -1.338896e+05 -1.079922e+05
-2.451067e+09 -2.250616e+09 -2.410917e+09 2.540988e+05 5.273668e+04 5.502240e+03
-3.500288e+09 -3.300396e+09 -3.460411e+09 -4.174748e+03 -4.119616e+02 1.586970e+04
-3.093237e+09 -2.892685e+09 -3.052821e+09 2.742219e+05 -9.444025e+04 -1.076226e+05
-2.933941e+09 -2.732918e+09 -2.892600e+09 1.293510e+05 -7.879938e+05 -8.991966e+03
-2.600708e+09 -2.401422e+09 -2.543305e+09 -5.406596e+05 2.662402e+06 -3.249381e+06
-3.129350e+09 -2.927659e+09 -3.078786e+09 5.543162e+05 2.743888e+06 1.569141e+06
-3.109284e+09 -2.908170e+09 -3.061914e+09 -2.662171e+05 3.528356e+06 -1.137250e+06
-2.619969e+09 -2.419140e+09 -2.562717e+09 6.514557e+05 3.854184e+06 1.452837e+06
-2.726096e+09 -2.526552e+09 -2.670863e+09 -8.578677e+05 1.503506e+06 -1.890674e+06
-2.711910e+09 -2.510404e+09 -2.655565e+09 4.849909e+05 2.848039e+06 1.114662e+06
-2.663631e+09 -2.463881e+09 -2.621873e+09 -5.632176e+05 -5.878107e+05 6.795084e+05
-2.818982e+09 -2.618617e+09 -2.776265e+09 -8.756735e+05 -2.059486e+06 1.229730e+06
-3.421593e+09 -3.222146e+09 -3.382022e+09 7.464380e+04 2.114651e+04 1.062324e+05
-2.143458e+09 -1.943994e+09 -2.103735e+09 4.340539e+04 1.324594e+05 5.789454e+04
-2.608764e+09 -2.409210e+09 -2.569008e+09 6.966202e+04 2.827203e+03 5.073224e+04
-1.866502e+09 -1.666681e+09 -1.826425e+09 -2.493763e+04 -2.053203e+04 1.241757e+05
-2.438074e+09 -2.238518e+09 -2.398134e+09 6.949007e+04 -7.545871e+04 4.833137e+04
-2.044363e+09 -1.844699e+09 -2.004546e+09 4.431264e+04 1.215248e+05 1.555354e+05
-2.362016e+09 -2.162360e+09 -2.321948e+09 7.004549e+04 2.065112e+04 1.043023e+05
-2.934312e+09 -2.734517e+09 -2.894604e+09 -2.137305e+05 -5.532065e+04 8.434933e+04
-3.229150e+09 -3.029403e+09 -3.189395e+09 -2.557206e+05 -2.169362e+04 1.296636e+05
-3.248962e+09 -3.049480e+09 -3.209298e+09 -2.324533e+05 -2.640044e+04 1.552610e+05
-3.587682e+09 -3.388204e+09 -3.547992e+09 -2.912885e+05 -7.924654e+04 1.225212e+05
-2.418424e+09 -2.218525e+09 -2.378409e+09 -1.603617e+05 -9.386351e+04 8.550815e+04
-3.382980e+09 -3.183290e+09 -3.343216e+09 -3.094862e+05 -6.271070e+04 1.231036e+05
-2.647135e+09 -2.447001e+09 -2.607181e+09 1.765323e+05 1.287321e+05 7.901820e+04
-2.804446e+09 -2.604461e+09 -2.764521e+09 2.974498e+04 1.590577e+04 1.949726e+04
-3.222505e+09 -3.022412e+09 -3.182606e+09 1.689447e+05 6.016796e+04 5.870802e+04
-3.408973e+09 -3.208891e+09 -3.369104e+09 1.705885e+05 9.152166e+04 7.538696e+04
-2.467947e+09 -2.267644e+09 -2.427291e+09 -4.888977e+05 3.527350e+05 -1.562807e+05
-2.079009e+09 -1.878899e+09 -2.038683e+09 -1.844620e+05 5.291915e+04 -6.946594e+04
-1.746123e+09 -1.546174e+09 -1.706047e+09 -1.491422e+05 -4.451956e+04 -5.062345e+04
-1.806753e+09 -1.606867e+09 -1.766791e+09 -7.131891e+04 -4.880033e+04 1.530064e+05
-2.622135e+09 -2.422490e+09 -2.582389e+09 1.083657e+03 -1.627588e+03 1.499281e+05
-2.551887e+09 -2.352126e+09 -2.512056e+09 -4.741859e+04 -1.108144e+04 1.218691e+05
-2.098779e+09 -1.898973e+09 -2.058950e+09 -4.462283e+04 -2.726317e+04 1.195342e+05
-2.179960e+09 -1.980071e+09 -2.140054e+09 2.005403e+05 -4.301654e+03 -2.687791e+04
-2.152445e+09 -1.952660e+09 -2.112628e+09 -4.647613e+04 -1.777746e+04 1.210879e+05
-1.765655e+09 -1.565767e+09 -1.725685e+09 -1.034846e+04 -2.142863e+04 1.613816e+05
-1.567954e+09 -1.367989e+09 -1.527950e+09 -1.892069e+04 2.220259e+03 1.298866e+05
-2.005759e+09 -1.806337e+09 -1.961273e+09 2.015856e+05 5.097766e+05 2.727131e+06
-2.396583e+09 -2.197205e+09 -2.351912e+09 1.978894e+05 3.807466e+05 3.233614e+06
-2.793270e+09 -2.593946e+09 -2.746405e+09 3.666712e+05 1.616174e+06 2.821364e+06
-2.382215e+09 -2.182237e+09 -2.336329e+09 6.457866e+05 2.909971e+06 4.915526e+06
-1.801593e+09 -1.601365e+09 -1.758343e+09 -6.585555e+03 9.748647e+05 2.543100e+06
-2.369332e+09 -2.169599e+09 -2.318679e+09 5.976515e+05 2.555307e+06 4.732208e+06
-2.039678e+09 -1.839757e+09 -1.999769e+09 1.445133e+04 5.943271e+03 1.935680e+04
-2.503767e+09 -2.303848e+09 -2.463865e+09 1.397094e+04 6.162290e+03 2.282445e+04
-3.603249e+09 -3.403345e+09 -3.563366e+09 1.568554e+04 2.846686e+03 1.611559e+04
-3.291540e+09 -3.091630e+09 -3.251650e+09 1.145032e+04 5.904170e+03 1.433324e+04
-2.600726e+09 -2.400797e+09 -2.560839e+09 3.994237e+04 2.713343e+04 3.822490e+04
-3.590702e+09 -3.390732e+09 -3.550797e+09 3.879647e+04 1.417350e+04 1.706814e+04
-2.826889e+09 -2.626950e+09 -2.786988e+09 3.305847e+04 1.578663e+04 2.367038e+04
-2.057888e+09 -1.857928e+09 -2.017964e+09 3.607137e+04 2.234560e+04 3.568880e+04
-3.073308e+09 -2.873345e+09 -3.033398e+09 3.535932e+04 1.620670e+04 2.283870e+04
-2.565815e+09 -2.365537e+09 -2.525593e+09 2.311579e+05 1.158401e+05 -1.716352e+04
-1.598865e+09 -1.398877e+09 -1.558911e+09 2.344073e+04 3.697989e+04 3.971453e+04
-3.161228e+09 -2.961263e+09 -3.121329e+09 5.052872e+04 1.428100e+04 2.678146e+04
-2.953526e+09 -2.753562e+09 -2.913636e+09 4.556525e+04 2.364252e+04 3.321761e+04
-2.439000e+09 -2.239033e+09 -2.399095e+09 4.739098e+04 4.150437e+04 4.678468e+04
-1.784918e+09 -1.584927e+09 -1.744962e+09 2.527094e+04 3.568147e+04 4.273736e+04
-2.078650e+09 -1.878678e+09 -2.038719e+09 3.842354e+04 3.082191e+04 3.474028e+04
-2.538920e+09 -2.338956e+09 -2.499019e+09 4.060452e+04 2.993865e+04 4.609258e+04
-2.402053e+09 -2.202088e+09 -2.362156e+09 -4.712988e+04 -3.943484e+04 5.010486e+04
-2.082719e+09 -1.882761e+09 -2.042801e+09 3.012505e+04 1.925596e+04 3.331725e+04
-2.450829e+09 -2.250869e+09 -2.410926e+09 4.082207e+04 2.912640e+04 4.892953e+04
-2.733960e+09 -2.533424e+09 -2.691856e+09 -9.653468e+05 1.146884e+06 -7.629339e+05
-2.859889e+09 -2.659702e+09 -2.817956e+09 -6.516648e+05 8.501859e+05 -6.173934e+05
-2.952963e+09 -2.753515e+09 -2.912090e+09 -4.134126e+05 5.790560e+05 -8.451775e+05
-2.533496e+09 -2.333538e+09 -2.491891e+09 -4.071410e+05 6.874011e+05 -5.790474e+05
-3.589698e+09 -3.389710e+09 -3.549794e+09 5.367434e+04 2.238731e+04 1.881019e+04
-3.423286e+09 -3.223451e+09 -3.383197e+09 -3.944900e+05 -4.153799e+04 2.884075e+04
-3.605618e+09 -3.405826e+09 -3.565772e+09 -3.081095e+05 5.876277e+04 -1.154349e+05
-2.883170e+09 -2.683300e+09 -2.843241e+09 -3.789448e+05 2.627390e+03 -9.517882e+04
-3.314545e+09 -3.114755e+09 -3.274786e+09 -2.995647e+05 9.390864e+04 -1.030537e+05
-2.961505e+09 -2.761741e+09 -2.921520e+09 -2.206827e+05 -1.551850e+04 -4.015538e+04
-3.201810e+09 -3.001882e+09 -3.161904e+09 -1.102712e+04 -7.014442e+03 1.147451e+04
-3.500605e+09 -3.300675e+09 -3.460698e+09 -1.450874e+04 -2.838040e+03 8.618975e+03
-2.495562e+09 -2.295631e+09 -2.455656e+09 -1.610503e+04 -8.840141e+03 2.005729e+04
-3.023140e+09 -2.823208e+09 -2.983236e+09 -1.675594e+04 -5.673618e+03 1.633573e+04
-3.314534e+09 -3.114582e+09 -3.274665e+09 -6.464885e+04 -2.428286e+04 4.421723e+04
-3.493995e+09 -3.293875e+09 -3.454103e+09 -8.787701e+04 6.420010e+04 -3.580431e+04
-2.674127e+09 -2.474164e+09 -2.634232e+09 -5.289329e+04 -3.639076e+04 4.765244e+04
-3.369274e+09 -3.169326e+09 -3.329399e+09 -5.613565e+04 -3.217953e+04 3.009400e+04
-2.749358e+09 -2.549394e+09 -2.709446e+09 -3.933777e+04 -2.125108e+04 2.928531e+04
-3.103732e+09 -2.903755e+09 -3.063830e+09 -3.880268e+04 -2.530058e+04 2.392482e+04
-2.953474e+09 -2.753488e+09 -2.913529e+09 1.586853e+04 6.440160e+03 7.373344e+03
-3.301114e+09 -3.101131e+09 -3.261183e+09 2.358896e+04 1.302682e+04 7.003551e+03
-2.979508e+09 -2.779513e+09 -2.939576e+09 2.214018e+04 1.086840e+04 1.240609e+04
-2.093146e+09 -1.893156e+09 -2.053196e+09 2.008076e+04 1.118806e+04 1.052981e+04
-2.697659e+09 -2.497673e+09 -2.657719e+09 2.286480e+04 1.395469e+04 1.362862e+04
-1.974786e+09 -1.774798e+09 -1.934838e+09 1.511262e+04 6.859168e+03 6.331928e+03
-3.324382e+09 -3.124680e+09 -3.284704e+09 -3.235740e+04 -1.143135e+04 9.005010e+04
-2.812623e+09 -2.612622e+09 -2.772724e+09 -7.299453e+04 -5.599446e+04 5.158588e+04
-3.287024e+09 -3.087339e+09 -3.247357e+09 6.700302e+03 -2.788804e+03 8.870190e+04
-3.100641e+09 -2.900846e+09 -3.060857e+09 -1.932569e+04 -1.001016e+04 7.628772e+04
-2.876054e+09 -2.676273e+09 -2.836271e+09 -5.409562e+04 -2.506612e+04 6.817570e+04
-3.322137e+09 -3.122370e+09 -3.282390e+09 -6.207823e+04 -2.549712e+04 7.222650e+04
-3.439195e+09 -3.239451e+09 -3.399480e+09 -7.316648e+04 -2.042530e+04 9.456497e+04
-3.486993e+09 -3.287260e+09 -3.447295e+09 -1.323508e+05 -3.182945e+04 1.040335e+05
-3.330888e+09 -3.131141e+09 -3.291202e+09 -1.207537e+05 -4.185202e+04 1.002445e+05
-2.941700e+09 -2.741919e+09 -2.901917e+09 -8.395330e+04 -4.041340e+04 9.455577e+04
-3.001315e+09 -2.801216e+09 -2.961418e+09 -7.208994e+04 7.021498e+04 -3.874287e+04
-3.540159e+09 -3.340550e+09 -3.500524e+09 -1.170463e+05 -1.679490e+04 1.103658e+05
-3.384138e+09 -3.184443e+09 -3.344438e+09 -7.634270e+04 -3.014936e+04 9.505275e+04
-2.648788e+09 -2.448761e+09 -2.608866e+09 -5.385403e+04 -5.795528e+04 5.253828e+04
-3.215023e+09 -3.014968e+09 -3.175110e+09 -6.050557e+04 -3.786253e+04 3.797531e+04
-3.334649e+09 -3.134595e+09 -3.294746e+09 -8.754205e+04 -5.232796e+04 3.235138e+04
-3.511351e+09 -3.311302e+09 -3.471445e+09 -6.228325e+04 -4.116645e+04 3.477703e+04
-3.619202e+09 -3.419356e+09 -3.579392e+09 2.662410e+04 9.132379e+03 4.375111e+04
-2.340242e+09 -2.139927e+09 -2.300121e+09 -4.786391e+04 -9.302326e+04 2.181649e+04
-2.089816e+09 -1.889558e+09 -2.049726e+09 -4.204471e+04 -1.375377e+05 2.068406e+04
-1.962972e+09 -1.762678e+09 -1.922846e+09 -5.667341e+04 -2.106536e+05 6.226010e+04
-1.768194e+09 -1.568176e+09 -1.728021e+09 -4.159386e+04 -1.012398e+05 2.340190e+04
-3.036294e+09 -2.836028e+09 -2.996287e+09 -4.942145e+04 -9.075790e+04 5.478473e+03
-2.217463e+09 -2.017240e+09 -2.177448e+09 -5.230248e+04 -1.250045e+05 2.151356e+04
-2.362640e+09 -2.162380e+09 -2.322609e+09 -3.743364e+04 -1.342836e+05 2.425298e+04
-2.285852e+09 -2.085654e+09 -2.245846e+09 -3.567701e+04 -9.258694e+04 1.802113e+04
-2.580895e+09 -2.380691e+09 -2.540874e+09 -3.902176e+04 -1.464025e+05 5.535267e+04
-3.222111e+09 -3.022222e+09 -3.182263e+09 4.523567e+04 1.370410e+04 3.753237e+04
-3.403461e+09 -3.203566e+09 -3.363618e+09 4.939908e+04 2.016366e+04 3.732876e+04
-2.552691e+09 -2.352976e+09 -2.511057e+09 -5.985398e+05 5.186267e+05 -5.825615e+05
-3.298317e+09 -3.098183e+09 -3.258413e+09 -1.065042e+05 6.654240e+04 -4.374972e+04
-2.485412e+09 -2.285698e+09 -2.442200e+09 -6.437127e+05 9.782353e+05 -1.875998e+06
-2.923042e+09 -2.722142e+09 -2.880691e+09 -6.573470e+05 1.190132e+06 -9.264311e+05
-2.482999e+09 -2.282764e+09 -2.441156e+09 -4.456494e+05 7.887805e+05 -4.028486e+05
-2.159672e+09 -1.959058e+09 -2.118792e+09 -5.358333e+05 3.790334e+05 -3.172113e+05
-2.577164e+09 -2.377075e+09 -2.537219e+09 -5.075514e+04 -9.941871e+04 5.320896e+04
-2.593230e+09 -2.393129e+09 -2.553278e+09 -6.161541e+04 -9.945384e+04 5.852888e+04
-2.871330e+09 -2.671270e+09 -2.831414e+09 -5.298079e+04 -6.211809e+04 4.073360e+04
-3.285647e+09 -3.085543e+09 -3.245730e+09 -8.615549e+04 -6.092820e+04 3.829442e+04
-2.235385e+09 -2.035303e+09 -2.195418e+09 -4.709622e+04 -5.890481e+04 3.515796e+04
-2.970687e+09 -2.770585e+09 -2.930776e+09 -8.041501e+04 -6.313464e+04 3.724656e+04
-3.391528e+09 -3.191731e+09 -3.351778e+09 1.040628e+05 3.739298e+04 7.365767e+04
-2.624114e+09 -2.424251e+09 -2.584282e+09 5.411478e+04 3.209580e+04 7.459495e+04
-2.769197e+09 -2.569318e+09 -2.729356e+09 8.038008e+04 4.515488e+04 8.971038e+04
-2.816933e+09 -2.617090e+09 -2.777132e+09 8.080298e+04 2.339682e+04 8.409161e+04
-3.189533e+09 -2.989465e+09 -3.149602e+09 4.887948e+04 -5.593171e+04 -2.362989e+04
-2.881364e+09 -2.681285e+09 -2.841438e+09 4.461362e+04 -6.726700e+04 -4.196872e+04
-3.388125e+09 -3.188976e+09 -3.348211e+09 -6.832954e+04 2.459797e+04 -1.104573e+04
-2.745816e+09 -2.546483e+09 -2.705552e+09 -6.260492e+04 6.036816e+04 5.809649e+04
-2.901835e+09 -2.702865e+09 -2.862231e+09 -2.024413e+05 -1.903494e+05 3.506302e+05
-3.329354e+09 -3.130183e+09 -3.289586e+09 -1.314502e+05 -1.418309e+05 7.769883e+04
-3.237418e+09 -3.038567e+09 -3.196676e+09 -1.076243e+05 1.470209e+05 4.672823e+05
-3.186457e+09 -2.987404e+09 -3.146508e+09 3.380997e+04 -7.253391e+04 2.745981e+05
-2.147017e+09 -1.947113e+09 -2.107122e+09 8.247775e+03 2.839105e+03 2.829913e+04
-3.158819e+09 -2.958921e+09 -3.118938e+09 -1.108961e+03 4.346808e+03 2.125618e+04
-1.899720e+09 -1.699817e+09 -1.859824e+09 4.282310e+03 1.302770e+03 2.846150e+04
-1.677557e+09 -1.477631e+09 -1.637638e+09 4.379296e+03 1.718508e+03 1.945586e+04
-1.957521e+09 -1.757604e+09 -1.917613e+09 1.089324e+04 -1.502061e+03 2.107486e+04
-2.209086e+09 -2.009184e+09 -2.169188e+09 3.835874e+03 3.531560e+03 2.709388e+04
-2.544527e+09 -2.344565e+09 -2.504601e+09 -1.485803e+04 -8.547186e+03 1.094879e+04
-2.220647e+09 -2.020682e+09 -2.180711e+09 -1.254086e+04 -5.849831e+03 7.631189e+03
-2.465203e+09 -2.265238e+09 -2.425281e+09 -1.803955e+04 -1.174704e+04 1.858428e+04
-2.941444e+09 -2.741474e+09 -2.901511e+09 -1.452738e+04 -6.490320e+03 8.974301e+03
-2.954889e+09 -2.754918e+09 -2.914964e+09 -2.218652e+04 -1.070220e+04 1.406357e+04
-3.255018e+09 -3.055052e+09 -3.215094e+09 -2.062819e+04 -7.196862e+03 8.142073e+03
-1.711153e+09 -1.511178e+09 -1.671208e+09 1.958786e+04 1.278468e+04 1.467104e+04
-2.504798e+09 -2.304823e+09 -2.464873e+09 2.277928e+04 1.339259e+04 1.462860e+04
-2.483967e+09 -2.283993e+09 -2.444040e+09 2.325397e+04 9.568671e+03 1.694301e+04
-3.586528e+09 -3.386555e+09 -3.546600e+09 1.772014e+04 6.280739e+03 6.977410e+03
-2.363872e+09 -2.163905e+09 -2.323936e+09 1.727969e+04 7.762252e+03 1.087700e+04
-3.102509e+09 -2.902534e+09 -3.062577e+09 2.105349e+04 6.846911e+03 9.162951e+03
-2.712107e+09 -2.512128e+09 -2.672175e+09 2.134107e+04 1.108248e+04 1.277860e+04
-2.447760e+09 -2.247778e+09 -2.407817e+09 1.913513e+04 7.466773e+03 1.089017e+04
-2.717950e+09 -2.517983e+09 -2.678015e+09 1.392538e+04 4.438811e+03 6.684058e+03
-2.484481e+09 -2.284512e+09 -2.444547e+09 1.672029e+04 8.417598e+03 9.687515e+03
-2.673085e+09 -2.473111e+09 -2.633150e+09 1.805110e+04 6.364873e+03 9.151752e+03
-1.972087e+09 -1.772157e+09 -1.932173e+09 1.812262e+04 9.195561e+03 2.673144e+04
-3.292466e+09 -3.092488e+09 -3.252534e+09 1.974629e+04 7.635389e+03 1.046369e+04
-2.130370e+09 -1.930294e+09 -2.090419e+09 7.290050e+04 1.055727e+05 6.334373e+04
-2.757810e+09 -2.557683e+09 -2.717853e+09 1.141113e+05 1.167635e+05 6.479668e+04
-2.461580e+09 -2.261493e+09 -2.421625e+09 9.500791e+04 9.464934e+04 7.129832e+04
-2.525805e+09 -2.325731e+09 -2.485858e+09 6.074568e+04 8.377742e+04 4.214764e+04
-3.324603e+09 -3.124490e+09 -3.284716e+09 1.257879e+05 7.404951e+04 4.651721e+04
-2.749540e+09 -2.549378e+09 -2.709590e+09 9.181312e+04 1.249570e+05 6.114077e+04
-2.708170e+09 -2.508286e+09 -2.668309e+09 2.331224e+04 8.444846e+03 4.538935e+04
-2.918142e+09 -2.718276e+09 -2.878301e+09 3.051874e+04 1.362416e+04 4.893432e+04
-2.536740e+09 -2.336775e+09 -2.496821e+09 3.302534e+04 1.423680e+04 2.078571e+04
-1.980616e+09 -1.780663e+09 -1.940702e+09 4.216881e+04 2.644737e+04 4.681712e+04
-1.804917e+09 -1.604958e+09 -1.764993e+09 3.086403e+04 1.687451e+04 3.391481e+04
-2.621479e+09 -2.421520e+09 -2.581581e+09 4.934781e+04 3.524617e+04 4.703621e+04
-2.005529e+09 -1.805593e+09 -1.965624e+09 3.553967e+04 2.631437e+04 4.566246e+04
-3.071984e+09 -2.872041e+09 -3.032108e+09 4.522441e+04 2.507718e+04 2.973091e+04
-1.578066e+09 -1.378132e+09 -1.538145e+09 1.208611e+04 7.980231e+03 2.397688e+04
-2.578032e+09 -2.377639e+09 -2.537814e+09 -8.730923e+03 1.580026e+05 -9.262853e+03
-3.171801e+09 -2.971344e+09 -3.131595e+09 -2.280609e+04 7.865770e+04 3.093785e+03
-3.413059e+09 -3.212610e+09 -3.372904e+09 -2.451543e+04 7.994506e+04 -9.313785e+03
-2.765278e+09 -2.564673e+09 -2.725056e+09 -9.538927e+04 1.078498e+05 3.283338e+04
-1.593857e+09 -1.393916e+09 -1.553932e+09 1.496442e+04 1.377784e+04 3.354344e+04
-3.374497e+09 -3.173977e+09 -3.334392e+09 -1.165945e+05 1.193816e+05 -3.393589e+04
-3.205484e+09 -3.005099e+09 -3.165401e+09 -4.512263e+04 8.199525e+04 -2.161109e+04
-3.433580e+09 -3.234128e+09 -3.392310e+09 -5.706608e+05 -3.994984e+05 5.286953e+05
-2.639798e+09 -2.440057e+09 -2.599658e+09 -3.696067e+05 -1.238837e+05 6.257719e+04
-3.422010e+09 -3.222021e+09 -3.381303e+09 -5.215873e+05 -1.901017e+05 1.609017e+05
-3.100282e+09 -2.900572e+09 -3.058962e+09 -5.498485e+05 -4.156567e+05 3.568953e+05
-2.564571e+09 -2.364574e+09 -2.524646e+09 4.760792e+04 3.880643e+04 4.275005e+04
-2.150301e+09 -1.950325e+09 -2.110378e+09 4.753036e+04 4.410013e+04 5.398010e+04
-3.436727e+09 -3.237373e+09 -3.396226e+09 -4.344099e+05 -4.434028e+04 1.247433e+05
-3.254544e+09 -3.054983e+09 -3.214197e+09 -4.377379e+05 -8.679480e+04 2.996300e+05
-2.852935e+09 -2.653384e+09 -2.812615e+09 -4.323976e+05 1.956556e+04 1.180472e+05
-2.546179e+09 -2.347035e+09 -2.504870e+09 -1.831705e+05 -2.996768e+05 7.547437e+05
-2.513134e+09 -2.313652e+09 -2.471578e+09 -3.164936e+05 -1.492749e+05 6.834016e+05
-2.603242e+09 -2.403938e+09 -2.562787e+09 -2.131458e+05 1.067445e+05 4.944154e+05
-2.567317e+09 -2.367751e+09 -2.526878e+09 -3.596468e+05 -4.737778e+05 3.823132e+05
-2.079368e+09 -1.879807e+09 -2.038920e+09 -2.292109e+05 -2.567149e+05 7.450909e+05
-1.854207e+09 -1.654378e+09 -1.813498e+09 -1.670323e+05 -3.366572e+05 3.138270e+05
-2.646945e+09 -2.446358e+09 -2.605919e+09 -5.125131e+05 -3.557436e+05 2.864125e+05
-2.064355e+09 -1.864191e+09 -2.024112e+09 -3.838597e+05 -2.783999e+05 1.787150e+04
-2.048904e+09 -1.849280e+09 -2.008473e+09 -3.900874e+05 -6.369579e+05 2.123619e+05
-3.069813e+09 -2.869985e+09 -3.028625e+09 -7.522294e+05 -4.961404e+05 8.874274e+05
-2.063102e+09 -1.863123e+09 -2.020871e+09 -4.452579e+05 -3.561177e+04 3.777277e+05
-1.868908e+09 -1.669231e+09 -1.827467e+09 -3.446807e+05 -1.005092e+06 2.451728e+05
-1.754841e+09 -1.554569e+09 -1.714306e+09 2.718488e+02 -9.722100e+04 -6.373826e+04
-3.284614e+09 -3.084003e+09 -3.244013e+09 2.608880e+05 -1.157208e+05 7.367756e+03
-2.139814e+09 -1.939234e+09 -2.098990e+09 2.290200e+05 -3.770069e+05 -4.445527e+04
-3.302588e+09 -3.101843e+09 -3.261882e+09 3.151846e+05 3.402099e+03 3.535572e+04
-2.216028e+09 -2.015651e+09 -2.174940e+09 1.808240e+05 -9.382554e+04 -8.913150e+03
-2.298876e+09 -2.098555e+09 -2.258631e+09 1.325158e+05 1.698573e+04 1.284936e+04
-2.645871e+09 -2.445167e+09 -2.605445e+09 2.349022e+05 3.506753e+04 1.164416e+04
-2.396238e+09 -2.195718e+09 -2.355571e+09 1.614465e+05 -1.781474e+05 -1.723522e+05
-3.578331e+09 -3.377238e+09 -3.537424e+09 2.798739e+05 7.022861e+02 -1.730633e+05
-2.458562e+09 -2.259169e+09 -2.418746e+09 1.005039e+05 -1.931948e+04 -3.092161e+04
-2.406380e+09 -2.207036e+09 -2.367062e+09 -1.801448e+04 5.456470e+04 -2.060104e+03
-1.741176e+09 -1.541354e+09 -1.701006e+09 5.196617e+04 -4.623899e+03 1.591818e+04
-2.331828e+09 -2.131888e+09 -2.291905e+09 -1.155428e+04 -3.155602e+03 8.403508e+03
-2.208570e+09 -2.008631e+09 -2.168650e+09 -1.495655e+04 -5.258611e+03 1.699221e+04
-3.338651e+09 -3.138706e+09 -3.298738e+09 -1.705740e+04 -4.034560e+03 9.717760e+03
-2.599416e+09 -2.399468e+09 -2.559495e+09 -1.515624e+04 -6.827569e+03 1.291336e+04
-2.651451e+09 -2.451505e+09 -2.611529e+09 -1.342187e+04 -5.969210e+03 8.883750e+03
-2.774471e+09 -2.573817e+09 -2.733967e+09 -1.755996e+05 3.643744e+04 -1.316526e+05
-3.376863e+09 -3.176076e+09 -3.336532e+09 -9.233720e+04 4.512458e+04 -4.020134e+02
-2.205979e+09 -2.006778e+09 -2.164685e+09 -4.789547e+05 7.934089e+05 -1.370485e+06
-3.002193e+09 -2.803426e+09 -2.960225e+09 -1.430526e+05 9.023139e+04 -1.433487e+06
-3.075613e+09 -2.877196e+09 -3.033408e+09 1.069230e+05 2.632788e+04 -1.337281e+06
-2.869504e+09 -2.671136e+09 -2.828663e+09 -5.219895e+05 3.898373e+05 -2.476106e+06
-3.020791e+09 -2.822341e+09 -2.977858e+09 -1.052260e+06 1.351341e+06 -2.207827e+06
-2.439823e+09 -2.241159e+09 -2.400346e+09 -1.896965e+05 6.325163e+05 -1.174662e+06
-2.952041e+09 -2.751147e+09 -2.909421e+09 8.293383e+05 -1.220059e+06 -1.121569e+06
-2.016273e+09 -1.815467e+09 -1.974336e+09 3.827955e+05 -6.345683e+05 -6.359715e+05
-1.807462e+09 -1.606870e+09 -1.765474e+09 5.570341e+04 -8.088826e+05 -5.341710e+05
-1.822312e+09 -1.622436e+09 -1.781813e+09 2.544632e+05 -1.615581e+06 -6.527119e+05
-2.135074e+09 -1.935122e+09 -2.093432e+09 7.334213e+05 -1.232076e+06 -1.538349e+06
-2.600798e+09 -2.400857e+09 -2.560979e+09 -1.416069e+05 -9.252098e+04 1.024442e+05
-1.989334e+09 -1.789388e+09 -1.949392e+09 -7.958305e+04 -1.002179e+05 1.333986e+05
-1.776580e+09 -1.576659e+09 -1.736636e+09 -3.444700e+04 -8.691809e+04 1.046132e+05
-2.376314e+09 -2.176345e+09 -2.336405e+09 -6.734417e+04 -7.516996e+04 8.934718e+04
-2.000447e+09 -1.800492e+09 -1.960531e+09 -6.770460e+04 -7.619966e+04 9.898878e+04
-1.982548e+09 -1.782578e+09 -1.942627e+09 -6.574613e+04 -6.901774e+04 8.163223e+04
-1.898924e+09 -1.699177e+09 -1.858598e+09 1.273908e+04 -7.784781e+04 -1.792842e+05
-2.575907e+09 -2.376240e+09 -2.535722e+09 2.860511e+05 2.054872e+04 1.600232e+04
-2.502798e+09 -2.302915e+09 -2.462618e+09 3.109171e+05 -2.458660e+04 -7.200931e+04
-2.045691e+09 -1.845911e+09 -2.005678e+09 1.949304e+05 -3.998510e+04 -6.743915e+04
-2.498563e+09 -2.298963e+09 -2.457910e+09 3.605809e+05 -7.444428e+04 -3.828116e+05
-1.783422e+09 -1.583746e+09 -1.743491e+09 1.102605e+05 -1.415620e+05 -8.661447e+04
-1.840624e+09 -1.640931e+09 -1.800846e+09 7.241216e+04 3.090346e+04 2.327223e+04
-2.305201e+09 -2.105306e+09 -2.265322e+09 -3.200758e+04 -1.989628e+04 4.719035e+04
-2.561312e+09 -2.361390e+09 -2.521434e+09 -5.103573e+04 -4.168818e+04 6.996964e+04
-2.294260e+09 -2.094332e+09 -2.254365e+09 -4.072019e+04 -2.822662e+04 5.861031e+04
-3.475166e+09 -3.274781e+09 -3.434988e+09 3.326853e+05 -8.335046e+04 -3.225425e+04
-2.173890e+09 -1.973968e+09 -2.134006e+09 -5.547881e+04 -2.571493e+04 5.801474e+04
-2.277260e+09 -2.077353e+09 -2.237383e+09 -3.713528e+04 -1.825954e+04 4.699757e+04
-3.281331e+09 -3.081387e+09 -3.241415e+09 1.713650e+04 6.837826e+03 9.717045e+03
-2.963089e+09 -2.763145e+09 -2.923172e+09 1.672498e+04 5.181389e+03 1.069675e+04
-2.518038e+09 -2.318094e+09 -2.478122e+09 1.611755e+04 6.228792e+03 1.571189e+04
-1.939036e+09 -1.739082e+09 -1.899106e+09 1.482789e+04 2.965241e+03 8.985110e+03
-2.165058e+09 -1.965115e+09 -2.125135e+09 1.375177e+04 5.239928e+03 1.125479e+04
-2.221449e+09 -2.021502e+09 -2.181521e+09 1.291567e+04 2.849812e+03 7.361514e+03
-2.042245e+09 -1.842365e+09 -2.002330e+09 9.571459e+04 1.086692e+05 1.554143e+05
-3.347868e+09 -3.147996e+09 -3.308058e+09 1.407194e+05 4.423362e+04 7.576690e+04
-2.433332e+09 -2.233467e+09 -2.393438e+09 1.130758e+05 6.911551e+04 1.407860e+05
-2.720215e+09 -2.520306e+09 -2.680383e+09 1.391497e+05 6.301282e+04 1.011564e+05
-3.136157e+09 -2.936251e+09 -3.096346e+09 1.401682e+05 5.485551e+04 8.418339e+04
-3.281948e+09 -3.082134e+09 -3.242241e+09 1.787107e+05 4.325367e+04 8.781224e+04
-3.054100e+09 -2.854237e+09 -3.014250e+09 1.666887e+05 6.479861e+04 7.396650e+04
-2.673883e+09 -2.473743e+09 -2.633922e+09 -1.067631e+05 9.315063e+04 -5.413511e+04
-3.080509e+09 -2.880353e+09 -3.040524e+09 -1.095492e+05 1.068067e+05 -3.965150e+04
-2.972508e+09 -2.772313e+09 -2.932463e+09 -1.523361e+05 7.826519e+04 -2.994083e+03
-1.574134e+09 -1.374119e+09 -1.534068e+09 -1.614092e+04 -1.530341e+05 -2.271028e+04
-1.782332e+09 -1.582305e+09 -1.742378e+09 4.030424e+04 5.818486e+04 3.760425e+04
-2.153768e+09 -1.953724e+09 -2.113797e+09 3.009090e+04 3.321751e+04 1.754728e+04
-3.030353e+09 -2.830282e+09 -2.990400e+09 4.105110e+04 3.330873e+04 1.919603e+04
-2.441870e+09 -2.241829e+09 -2.401917e+09 3.642542e+04 3.525814e+04 2.544705e+04
-1.868067e+09 -1.668038e+09 -1.828108e+09 3.069257e+04 3.441586e+04 2.134545e+04
-2.471925e+09 -2.271884e+09 -2.431971e+09 2.963014e+04 3.198248e+04 2.604157e+04
-1.654462e+09 -1.454417e+09 -1.614448e+09 -4.440801e+03 -1.183682e+05 -3.592884e+04
-3.141397e+09 -2.941175e+09 -3.101451e+09 8.815562e+04 -9.634210e+04 -2.496742e+04
-3.049524e+09 -2.849263e+09 -3.009528e+09 6.521178e+04 -9.367014e+04 -3.217871e+04
-2.252148e+09 -2.051994e+09 -2.212137e+09 4.451204e+04 -1.202331e+05 -4.487275e+04
-2.852831e+09 -2.652665e+09 -2.812854e+09 3.835440e+04 -7.777860e+04 -2.007293e+04
-2.569075e+09 -2.370447e+09 -2.527001e+09 3.132784e+05 6.169676e+05 1.279005e+06
-2.766369e+09 -2.567552e+09 -2.726240e+09 2.905266e+05 1.140630e+05 6.042166e+05
-2.790265e+09 -2.591632e+09 -2.749571e+09 5.288023e+04 -1.649170e+05 4.427611e+05
-2.573152e+09 -2.374116e+09 -2.532953e+09 1.881809e+05 2.246998e+05 4.975669e+05
-3.210161e+09 -3.011755e+09 -3.168254e+09 -1.762454e+04 3.180260e+05 1.754106e+06
-3.392719e+09 -3.194573e+09 -3.350742e+09 2.296833e+05 1.621003e+05 1.814079e+06
-1.836645e+09 -1.636743e+09 -1.796728e+09 -4.038377e+03 2.394494e+04 9.889967e+04
-1.591295e+09 -1.391255e+09 -1.551270e+09 -1.107550e+04 -1.261613e+05 -5.168629e+04
-2.119957e+09 -1.920091e+09 -2.080087e+09 1.153589e+04 2.704201e+03 6.847816e+04
-3.491782e+09 -3.291661e+09 -3.451889e+09 8.488185e+04 -6.772022e+04 -3.607367e+04
-3.203735e+09 -3.003493e+09 -3.163757e+09 -6.665039e+04 8.589370e+04 -1.802686e+04
-3.402933e+09 -3.202664e+09 -3.362913e+09 -6.409164e+04 8.168001e+04 -1.696450e+04
-2.233184e+09 -2.034077e+09 -2.192610e+09 -2.237807e+05 -6.787747e+04 -5.561521e+05
-2.651210e+09 -2.452386e+09 -2.610213e+09 -5.178780e+04 2.118512e+05 -2.940290e+05
-3.275453e+09 -3.076560e+09 -3.234142e+09 -4.390601e+05 -7.074044e+04 -7.676027e+05
-3.363962e+09 -3.165142e+09 -3.323449e+09 -1.983329e+05 2.415756e+05 -4.458435e+05
-2.582304e+09 -2.383712e+09 -2.541501e+09 -1.316491e+04 4.830255e+04 -1.432406e+06
-3.067934e+09 -2.867996e+09 -3.027805e+09 3.334267e+05 -3.226685e+04 -7.530572e+04
-2.672280e+09 -2.472406e+09 -2.632393e+09 2.903483e+05 1.621891e+04 3.269829e+04
-2.077796e+09 -1.877644e+09 -2.037469e+09 2.306586e+05 7.822256e+04 -2.992505e+04
-2.660215e+09 -2.459993e+09 -2.619736e+09 3.728811e+05 -1.871437e+05 -1.831019e+05
-3.543818e+09 -3.343634e+09 -3.503916e+09 1.280888e+05 -8.776738e+04 -4.475465e+04
-3.060076e+09 -2.859864e+09 -3.019515e+09 3.581435e+05 -1.984911e+05 -2.153712e+05
-3.348321e+09 -3.148170e+09 -3.308053e+09 4.033013e+05 -5.300046e+03 1.810084e+04
-2.473190e+09 -2.273015e+09 -2.433200e+09 3.159211e+04 1.260163e+05 2.738201e+04
-2.067895e+09 -1.867723e+09 -2.027879e+09 2.914295e+04 1.274303e+05 1.988414e+04
-2.471154e+09 -2.271026e+09 -2.431171e+09 3.624726e+04 7.821059e+04 2.735540e+04
-2.579575e+09 -2.379428e+09 -2.539592e+09 3.228842e+04 8.460988e+04 2.773510e+04
-2.963309e+09 -2.763051e+09 -2.923305e+09 -3.739378e+04 -9.667579e+04 1.854345e+04
-3.331796e+09 -3.131421e+09 -3.291749e+09 -3.052798e+04 -8.091383e+04 7.725841e+03
-3.516855e+09 -3.316528e+09 -3.476858e+09 -3.799143e+04 -1.076901e+05 2.037903e+04
-2.927316e+09 -2.727079e+09 -2.887320e+09 -2.592881e+04 -7.554216e+04 1.044678e+04
-1.869359e+09 -1.668861e+09 -1.826486e+09 -3.855380e+04 -1.196863e+06 -6.349631e+04
-1.784454e+09 -1.584021e+09 -1.739577e+09 2.036892e+05 -2.533137e+06 -1.902925e+06
-3.310158e+09 -3.110874e+09 -3.270377e+09 2.053948e+05 1.188569e+05 6.567748e+04
-3.017709e+09 -2.818320e+09 -2.978103e+09 1.469311e+05 -2.312155e+04 1.147808e+05
-2.820850e+09 -2.621744e+09 -2.780830e+09 6.916156e+03 -6.170339e+04 1.331893e+05
-3.355002e+09 -3.156059e+09 -3.314996e+09 9.235074e+04 8.377106e+03 3.366261e+05
-3.193335e+09 -2.994266e+09 -3.152692e+09 3.069741e+05 -1.170971e+04 3.298326e+05
-3.258687e+09 -3.059112e+09 -3.218691e+09 -2.664781e+05 1.741791e+04 -1.343428e+04
-1.818401e+09 -1.618547e+09 -1.778330e+09 -1.404724e+04 -1.370993e+04 1.039035e+05
-2.060301e+09 -1.860458e+09 -2.020321e+09 -1.144820e+05 -3.201071e+04 6.648763e+04
-2.023795e+09 -1.823917e+09 -1.983607e+09 -1.503633e+05 -8.339853e+04 9.314013e+04
-1.827881e+09 -1.627943e+09 -1.787714e+09 -1.185727e+05 -8.498528e+04 4.529065e+04
-2.769545e+09 -2.568800e+09 -2.729024e+09 3.105617e+05 2.420704e+05 1.008014e+05
-2.687981e+09 -2.487628e+09 -2.647595e+09 3.550855e+05 1.760846e+05 3.980770e+04
-3.223409e+09 -3.022760e+09 -3.182156e+09 4.133647e+05 2.472764e+05 2.200580e+05
-3.231976e+09 -3.031646e+09 -3.191716e+09 3.803216e+05 2.507910e+05 1.223503e+05
-2.824061e+09 -2.623587e+09 -2.783674e+09 2.370838e+05 -2.517074e+04 -8.021770e+04
-2.653151e+09 -2.452674e+09 -2.612419e+09 2.428287e+05 1.184974e+05 -7.516628e+04
-3.203001e+09 -3.002996e+09 -3.163097e+09 4.818053e+04 2.468628e+04 2.468165e+04
-2.025457e+09 -1.825444e+09 -1.985501e+09 3.099932e+04 2.608362e+04 1.987774e+04
-2.631073e+09 -2.431072e+09 -2.591158e+09 4.908986e+04 3.713853e+04 3.366830e+04
-2.613217e+09 -2.413060e+09 -2.573351e+09 1.515266e+05 -1.170308e+05 -1.005487e+05
-2.011676e+09 -1.811666e+09 -1.971726e+09 3.330117e+04 2.879693e+04 2.956611e+04
-2.029839e+09 -1.829833e+09 -1.989892e+09 2.885785e+04 2.778618e+04 2.509720e+04
-2.751476e+09 -2.551716e+09 -2.711628e+09 1.906291e+05 5.738064e+04 7.932579e+04
-1.922652e+09 -1.722567e+09 -1.882717e+09 6.355789e+04 -1.029766e+05 -6.697615e+04
-3.088448e+09 -2.888635e+09 -3.048762e+09 2.434449e+05 4.492886e+04 3.695943e+04
-3.298057e+09 -3.098261e+09 -3.258250e+09 2.977357e+05 -2.553613e+04 7.331338e+04
-1.754045e+09 -1.554125e+09 -1.713902e+09 8.781284e+04 -3.819663e+04 -1.958529e+04
-2.736487e+09 -2.536685e+09 -2.696407e+09 3.593499e+05 -7.534298e+04 -9.004637e+04
-2.413168e+09 -2.213274e+09 -2.373289e+09 2.370981e+02 -1.657142e+03 3.702811e+04
-2.541974e+09 -2.342108e+09 -2.502128e+09 5.407275e+03 -3.077497e+03 7.267328e+04
-1.894449e+09 -1.694535e+09 -1.854536e+09 1.348380e+03 4.931638e+03 5.923225e+04
-3.288125e+09 -3.088293e+09 -3.248327e+09 8.932781e+02 1.624735e+03 5.598883e+04
-2.125832e+09 -1.925947e+09 -2.085947e+09 1.480590e+03 4.947085e+03 4.863798e+04
-2.759898e+09 -2.560061e+09 -2.720082e+09 3.160104e+03 -1.929294e+03 5.434694e+04
-2.823284e+09 -2.623312e+09 -2.783359e+09 -1.805954e+04 -9.476287e+03 1.469226e+04
-2.278589e+09 -2.078610e+09 -2.238648e+09 -1.952385e+04 -1.085395e+04 1.020423e+04
-2.595696e+09 -2.395718e+09 -2.555775e+09 -2.450606e+04 -1.966912e+04 2.247022e+04
-2.491977e+09 -2.292004e+09 -2.452057e+09 -2.544569e+04 -1.748978e+04 2.394641e+04
-2.628272e+09 -2.428291e+09 -2.588346e+09 -2.857341e+04 -2.010926e+04 2.324072e+04
-2.216313e+09 -2.016340e+09 -2.176378e+09 -2.978547e+04 -1.547086e+04 1.744866e+04
-2.143246e+09 -1.943280e+09 -2.103312e+09 -1.855659e+04 -1.196607e+04 1.284370e+04
-3.112888e+09 -2.912920e+09 -3.072979e+09 -2.862035e+04 -1.605611e+04 1.680528e+04
-2.115824e+09 -1.915601e+09 -2.075783e+09 1.572124e+04 -1.210536e+05 -6.784004e+03
-3.319297e+09 -3.118927e+09 -3.279250e+09 1.819813e+04 -8.339644e+04 1.498588e+03
-3.508864e+09 -3.308511e+09 -3.468865e+09 -2.366134e+03 -1.075771e+05 1.661721e+03
-2.919702e+09 -2.719451e+09 -2.879697e+09 -5.846505e+03 -7.849329e+04 1.101871e+03
-2.510936e+09 -2.310669e+09 -2.470896e+09 -7.967460e+03 -1.566166e+05 3.255409e+03
-2.095401e+09 -1.895171e+09 -2.055357e+09 -8.964337e+03 -1.230960e+05 -3.289484e+03
-3.134193e+09 -2.933823e+09 -3.094143e+09 1.399461e+04 -8.578162e+04 -9.298640e+02
-2.795485e+09 -2.595493e+09 -2.755604e+09 1.288397e+05 6.720994e+04 6.802793e+04
-3.623347e+09 -3.422069e+09 -3.581368e+09 -5.050785e+05 3.392559e+05 -3.716240e+05
-3.196362e+09 -2.996381e+09 -3.156514e+09 1.077567e+05 4.296820e+04 5.414495e+04
-2.629205e+09 -2.429187e+09 -2.589305e+09 8.124408e+04 5.676197e+04 5.531767e+04
-2.630495e+09 -2.430451e+09 -2.590557e+09 7.759953e+04 6.905458e+04 6.102889e+04
-2.618439e+09 -2.418458e+09 -2.578531e+09 6.643547e+04 6.542635e+04 6.562032e+04
-2.420971e+09 -2.221082e+09 -2.381112e+09 3.143375e+04 2.368456e+04 6.386830e+04
-2.621353e+09 -2.421490e+09 -2.581527e+09 5.439927e+04 2.148195e+04 7.821082e+04
-2.602701e+09 -2.402821e+09 -2.562842e+09 2.961167e+04 2.075142e+04 6.732526e+04
-2.835738e+09 -2.635868e+09 -2.795905e+09 5.024223e+04 1.971138e+04 5.142516e+04
-3.412744e+09 -3.212896e+09 -3.372939e+09 5.476039e+04 1.790100e+04 5.878076e+04
-3.226938e+09 -3.027058e+09 -3.187110e+09 3.634409e+04 1.286075e+04 3.917203e+04
-2.769720e+09 -2.569711e+09 -2.729762e+09 -3.560825e+05 3.921722e+04 -1.558399e+04
-2.537786e+09 -2.337796e+09 -2.497654e+09 -1.862097e+05 -6.802025e+04 7.563860e+04
-2.647810e+09 -2.447898e+09 -2.607891e+09 -3.314697e+05 -1.660047e+04 -1.198656e+04
-2.141864e+09 -1.941825e+09 -2.101874e+09 -1.692673e+05 -6.094737e+04 8.403777e+04
-2.735077e+09 -2.535048e+09 -2.694893e+09 -2.529006e+05 -1.208848e+05 8.399944e+04
-2.245667e+09 -2.045193e+09 -2.205384e+09 8.099107e+04 -8.217448e+04 -6.920925e+04
-1.787052e+09 -1.587060e+09 -1.746648e+09 -6.334040e+04 -3.586045e+04 3.614491e+04
-1.734292e+09 -1.534174e+09 -1.694436e+09 -1.544946e+05 6.476642e+04 -2.145337e+03
-3.204404e+09 -3.004305e+09 -3.164521e+09 -8.466147e+04 7.031118e+04 -3.528837e+04
-2.491236e+09 -2.291169e+09 -2.451306e+09 -6.179199e+04 1.088955e+05 -5.285145e+04
-2.209591e+09 -2.009483e+09 -2.169616e+09 -4.722134e+04 7.405282e+04 -3.498549e+04
-2.197164e+09 -1.997105e+09 -2.157214e+09 -5.114145e+04 9.078950e+04 -5.059936e+04
-3.024499e+09 -2.824430e+09 -2.984570e+09 -5.244005e+04 6.342118e+04 -3.078256e+04
-1.692096e+09 -1.492063e+09 -1.652117e+09 -6.357718e+03 8.009733e+04 -4.559187e+04
-2.631432e+09 -2.431336e+09 -2.591486e+09 -4.813768e+04 8.810290e+04 -3.920150e+04
-2.637424e+09 -2.437330e+09 -2.597484e+09 -3.739224e+04 7.685793e+04 -4.059195e+04
-2.150760e+09 -1.950841e+09 -2.110873e+09 5.553610e+04 5.884329e+04 8.555102e+04
-2.001972e+09 -1.801899e+09 -1.962019e+09 -4.147355e+04 7.691883e+04 -4.343102e+04
-2.745924e+09 -2.546089e+09 -2.706116e+09 4.093885e+04 2.290741e+04 7.010132e+04
-2.070892e+09 -1.870981e+09 -2.030996e+09 2.282399e+04 1.288783e+04 5.065670e+04
-2.085199e+09 -1.885296e+09 -2.045309e+09 2.046610e+04 1.393191e+04 4.968770e+04
-2.023231e+09 -1.823361e+09 -1.983358e+09 2.661761e+04 2.092707e+04 7.787073e+04
-2.014770e+09 -1.814887e+09 -1.974885e+09 3.164249e+04 2.885546e+04 9.881645e+04
-1.793156e+09 -1.593240e+09 -1.753231e+09 4.070106e+03 3.051137e+04 8.329075e+04
-2.642867e+09 -2.442996e+09 -2.603015e+09 2.321224e+04 2.809615e+04 6.954880e+04
-2.486779e+09 -2.286870e+09 -2.446894e+09 2.560336e+04 1.293872e+04 4.340047e+04
-2.889002e+09 -2.689092e+09 -2.849109e+09 -4.636592e+03 -2.093411e+03 1.889218e+04
-2.421851e+09 -2.221952e+09 -2.381965e+09 -5.696329e+03 -8.054716e+02 3.297370e+04
-3.062591e+09 -2.862705e+09 -3.022719e+09 -6.231488e+03 -2.585089e+03 2.696598e+04
-2.033529e+09 -1.833623e+09 -1.993625e+09 -4.383352e+03 -1.369749e+03 2.673781e+04
-2.157051e+09 -1.957198e+09 -2.117107e+09 -8.190843e+04 -6.095063e+04 1.622758e+05
-1.901129e+09 -1.701229e+09 -1.861230e+09 -1.796157e+04 -3.155893e+04 1.238563e+05
-1.748820e+09 -1.548914e+09 -1.708843e+09 -1.629247e+04 -4.144825e+04 1.646084e+05
-2.198008e+09 -1.998126e+09 -2.158106e+09 -5.691392e+04 -3.320957e+04 1.006009e+05
-1.695191e+09 -1.495211e+09 -1.655076e+09 4.857370e+03 9.470545e+04 -3.093057e+04
-1.847932e+09 -1.647984e+09 -1.808001e+09 -5.080676e+04 -5.020414e+04 1.109494e+05
-2.506976e+09 -2.307266e+09 -2.467245e+09 -1.035809e+05 -3.108830e+04 9.460569e+04
-2.693215e+09 -2.493308e+09 -2.652737e+09 5.157375e+05 -2.755761e+05 -3.158212e+05
-2.340890e+09 -2.140906e+09 -2.300031e+09 5.576334e+05 -1.617578e+05 -4.540402e+05
-3.087408e+09 -2.887423e+09 -3.047184e+09 5.401346e+05 -3.486640e+05 -3.808426e+05
-1.701184e+09 -1.501139e+09 -1.660871e+09 -2.707049e+04 4.025290e+04 1.201445e+05
-2.984901e+09 -2.785590e+09 -2.944082e+09 4.694209e+05 1.751900e+04 -3.344550e+05
-3.378942e+09 -3.179367e+09 -3.338204e+09 5.306911e+05 -5.919718e+04 -3.875153e+05
-2.941820e+09 -2.741343e+09 -2.900250e+09 5.299216e+05 -4.334331e+05 -6.172261e+05
-2.232411e+09 -2.031876e+09 -2.192067e+09 1.970910e+05 7.930539e+04 5.187003e+03
-3.297940e+09 -3.098036e+09 -3.255483e+09 7.172127e+05 -7.874478e+05 -7.851542e+05
-2.670576e+09 -2.470458e+09 -2.630635e+09 -1.695324e+05 -8.656502e+04 4.310274e+04
-2.656541e+09 -2.456210e+09 -2.616382e+09 -1.603864e+05 -2.060979e+05 5.318886e+04
-2.602080e+09 -2.401991e+09 -2.562173e+09 -2.094310e+05 -7.052287e+04 8.836362e+04
-3.016119e+09 -2.816027e+09 -2.976131e+09 -2.197170e+05 -9.972798e+04 1.049060e+05
-2.477851e+09 -2.277921e+09 -2.437934e+09 -1.465750e+05 -4.989278e+04 8.073825e+04
-2.409910e+09 -2.209950e+09 -2.370008e+09 -6.391872e+04 -6.079867e+04 7.351813e+04
-1.793153e+09 -1.593202e+09 -1.753260e+09 -5.524831e+04 -7.329646e+04 9.097251e+04
-2.596388e+09 -2.396463e+09 -2.556481e+09 -7.055766e+04 -7.020453e+04 8.390966e+04
-2.383093e+09 -2.183149e+09 -2.343190e+09 -8.927579e+04 -6.380515e+04 8.509720e+04
-2.400399e+09 -2.200460e+09 -2.360534e+09 -7.860483e+04 -5.144144e+04 6.967719e+04
-2.342355e+09 -2.142541e+09 -2.302545e+09 -1.088738e+05 -4.896418e+04 1.246864e+05
-3.408978e+09 -3.209066e+09 -3.369098e+09 -2.375027e+04 -9.916908e+03 1.835821e+04
-2.888166e+09 -2.688334e+09 -2.848305e+09 -1.252526e+05 -6.236617e+04 6.425710e+04
-2.054984e+09 -1.855064e+09 -2.015122e+09 -1.377411e+05 -7.524032e+04 1.633897e+05
-1.808412e+09 -1.608499e+09 -1.768510e+09 -4.051093e+04 -6.388775e+04 9.955668e+04
-2.366470e+09 -2.166528e+09 -2.326574e+09 -5.594695e+04 -3.780777e+04 6.502527e+04
-2.803262e+09 -2.603391e+09 -2.763439e+09 -7.454193e+04 -5.082118e+04 9.664226e+04
-3.167761e+09 -2.967522e+09 -3.127806e+09 6.777022e+04 -9.090183e+04 -2.963346e+04
-2.957028e+09 -2.757170e+09 -2.917227e+09 -1.156177e+05 -4.377770e+04 7.949421e+04
-1.892613e+09 -1.692625e+09 -1.852613e+09 -3.028678e+04 -4.882047e+04 1.109395e+05
-3.113001e+09 -2.913033e+09 -3.073075e+09 2.558150e+04 9.175975e+03 1.161955e+04
-1.990949e+09 -1.791013e+09 -1.951057e+09 -7.544212e+04 -6.310143e+04 8.844503e+04
-2.496778e+09 -2.296676e+09 -2.456824e+09 -5.486489e+04 -8.485199e+04 4.392547e+04
-2.156994e+09 -1.956909e+09 -2.117035e+09 -4.712627e+04 -8.761324e+04 4.901830e+04
-2.947437e+09 -2.747278e+09 -2.907496e+09 -7.684569e+04 -8.513899e+04 3.289793e+04
-3.262426e+09 -3.062268e+09 -3.222478e+09 -8.730356e+04 -8.141829e+04 3.468539e+04
-3.476083e+09 -3.275922e+09 -3.436142e+09 -7.918625e+04 -5.729389e+04 2.924107e+04
-3.167313e+09 -2.967154e+09 -3.127348e+09 -4.587493e+04 -7.047792e+04 3.703450e+04
-3.081933e+09 -2.881765e+09 -3.041990e+09 -8.053490e+04 -8.082795e+04 3.222527e+04
-3.390030e+09 -3.190043e+09 -3.350117e+09 2.776684e+05 -6.705722e+04 -1.676845e+04
-2.635065e+09 -2.434980e+09 -2.595116e+09 1.591506e+05 -7.000852e+04 1.431109e+03
-2.853914e+09 -2.653856e+09 -2.813990e+09 2.177144e+05 -1.353431e+05 -8.540056e+04
-2.372150e+09 -2.172234e+09 -2.332267e+09 1.487349e+05 -1.181763e+05 -1.246102e+05
-2.978196e+09 -2.778323e+09 -2.938286e+09 1.690744e+05 -5.981596e+04 -3.766227e+04
-2.305592e+09 -2.105678e+09 -2.265687e+09 -8.342391e+03 -2.032128e+03 1.517753e+04
-2.316704e+09 -2.116848e+09 -2.276845e+09 2.161809e+05 -1.024372e+05 -1.752605e+05
-1.583882e+09 -1.383931e+09 -1.543950e+09 -1.164714e+04 -8.163812e+03 2.159729e+04
-3.477381e+09 -3.277198e+09 -3.437433e+09 7.066309e+04 -5.764877e+04 -2.867939e+04
-2.311579e+09 -2.111559e+09 -2.271636e+09 -3.867649e+04 -3.601031e+04 2.840453e+04
-2.224626e+09 -2.024606e+09 -2.184685e+09 -4.886201e+04 -5.590988e+04 3.912605e+04
-2.521083e+09 -2.321079e+09 -2.481161e+09 -4.347601e+04 -4.017053e+04 4.079029e+04
-2.105428e+09 -1.905427e+09 -2.065492e+09 -4.088150e+04 -3.841066e+04 3.442115e+04
-2.642939e+09 -2.442941e+09 -2.603024e+09 -3.805200e+04 -4.018757e+04 3.750215e+04
-1.676203e+09 -1.476192e+09 -1.636095e+09 -1.811101e+04 -1.315621e+05 -2.399424e+04
-3.133141e+09 -2.933125e+09 -3.093245e+09 -6.606453e+04 -3.907036e+04 3.383372e+04
-1.907437e+09 -1.707317e+09 -1.867183e+09 4.411922e+04 8.515550e+04 8.873558e+04
-3.049701e+09 -2.849654e+09 -3.009523e+09 3.199841e+05 -5.197186e+04 -3.111268e+04
-2.513934e+09 -2.313842e+09 -2.473759e+09 1.740917e+05 8.437323e+04 3.027830e+04
-2.243988e+09 -2.043937e+09 -2.203981e+09 2.704030e+05 5.891006e+04 1.031147e+05
-2.610774e+09 -2.410843e+09 -2.570865e+09 1.414236e+04 8.577387e+03 1.961873e+04
-2.408964e+09 -2.209024e+09 -2.369050e+09 1.684424e+04 9.294918e+03 2.106545e+04
-2.588281e+09 -2.388338e+09 -2.548363e+09 1.449823e+04 7.463659e+03 1.258316e+04
-3.286054e+09 -3.086120e+09 -3.246146e+09 1.531171e+04 5.686312e+03 9.771734e+03
-2.085102e+09 -1.885163e+09 -2.045181e+09 1.360331e+04 6.417459e+03 1.525242e+04
-2.871883e+09 -2.671929e+09 -2.831962e+09 1.418166e+04 5.088874e+03 1.001227e+04
-3.021902e+09 -2.821939e+09 -2.981968e+09 1.212889e+04 3.854188e+03 5.826661e+03
-3.341270e+09 -3.141315e+09 -3.301350e+09 1.864532e+04 3.227252e+03 1.050147e+04
-3.203993e+09 -3.004032e+09 -3.164061e+09 1.193265e+04 1.673021e+03 6.980053e+03
-3.068368e+09 -2.868466e+09 -3.028483e+09 1.129790e+04 3.462569e+03 2.784571e+04
-3.291615e+09 -3.091648e+09 -3.251679e+09 1.031148e+04 1.255736e+03 4.680438e+03
-2.937194e+09 -2.737281e+09 -2.897296e+09 6.620166e+03 4.215087e+03 1.872212e+04
-3.040263e+09 -2.840359e+09 -3.000380e+09 1.249479e+04 1.084648e+03 2.476407e+04
-3.395504e+09 -3.195597e+09 -3.355623e+09 1.643387e+04 2.504477e+03 2.211284e+04
-2.487785e+09 -2.287881e+09 -2.447897e+09 1.232614e+04 7.634104e+03 3.175692e+04
-2.663376e+09 -2.463474e+09 -2.623487e+09 -1.427629e+04 -5.471965e+03 3.490194e+04
-3.075793e+09 -2.875901e+09 -3.035917e+09 -1.525488e+04 -5.349171e+03 2.421306e+04
-2.144708e+09 -1.944788e+09 -2.104798e+09 -1.043630e+04 -5.065915e+03 2.510668e+04
-1.851528e+09 -1.651609e+09 -1.811617e+09 -8.350903e+03 -4.552583e+03 2.600638e+04
-2.039754e+09 -1.839840e+09 -1.999846e+09 -9.249426e+03 -3.702827e+03 2.724562e+04
-1.676184e+09 -1.476177e+09 -1.636087e+09 -7.092314e+03 -1.443778e+05 -5.860307e+04
-2.245627e+09 -2.046250e+09 -2.205527e+09 3.359472e+05 -1.574049e+05 -2.086453e+05
-2.638969e+09 -2.439515e+09 -2.598674e+09 4.350742e+05 -2.149756e+05 -4.177471e+05
-1.923904e+09 -1.724323e+09 -1.882799e+09 1.566132e+05 -3.368151e+05 -7.566218e+05
-1.866432e+09 -1.666145e+09 -1.826378e+09 -1.412279e+04 -1.939986e+05 -2.253029e+04
-2.903234e+09 -2.703890e+09 -2.861870e+09 6.343570e+05 -6.747825e+05 -1.077529e+06
-2.303049e+09 -2.102982e+09 -2.262177e+09 5.388303e+05 -6.818408e+05 -6.277787e+05
-2.236100e+09 -2.036647e+09 -2.194912e+09 3.952685e+05 -1.922383e+05 -6.620056e+05
-3.190114e+09 -2.990993e+09 -3.138579e+09 -4.231709e+05 -2.787222e+05 2.843146e+06
-3.181423e+09 -2.982845e+09 -3.135705e+09 5.019786e+05 4.823499e+05 3.565344e+06
-3.390563e+09 -3.191542e+09 -3.340437e+09 9.835254e+04 -4.900731e+05 2.451835e+06
-3.210495e+09 -3.011863e+09 -3.164792e+09 -4.124513e+05 -6.612773e+05 3.177556e+06
-3.321237e+09 -3.121105e+09 -3.281289e+09 -4.913885e+04 5.397372e+04 -2.714799e+04
-2.297360e+09 -2.097265e+09 -2.257382e+09 -3.253709e+04 6.648140e+04 -2.151654e+04
-2.253351e+09 -2.053235e+09 -2.213371e+09 -1.682284e+04 6.261013e+04 -3.354840e+04
-2.376763e+09 -2.176661e+09 -2.336786e+09 -2.770716e+04 6.276339e+04 -2.188042e+04
-1.905644e+09 -1.705574e+09 -1.865682e+09 -3.578667e+04 6.916281e+04 -3.001585e+04
-1.698090e+09 -1.498034e+09 -1.658105e+09 -8.192611e+03 5.804467e+04 -2.781496e+04
-3.112267e+09 -2.912134e+09 -3.072322e+09 -4.502382e+04 5.601466e+04 -2.781909e+04
-2.283421e+09 -2.083329e+09 -2.243439e+09 -2.392972e+04 4.434782e+04 -1.860361e+04
-3.167066e+09 -2.966684e+09 -3.126920e+09 -7.985544e+04 9.454069e+04 -6.607404e+03
-2.724138e+09 -2.523552e+09 -2.683970e+09 -4.408747e+04 7.626853e+04 -5.200963e+04
-2.661105e+09 -2.460833e+09 -2.621046e+09 1.096107e+04 1.466483e+05 -1.939385e+04
-3.342596e+09 -3.141996e+09 -3.302412e+09 -2.102256e+04 1.352606e+05 -7.623419e+03
-3.414191e+09 -3.213767e+09 -3.374145e+09 -3.763152e+04 1.022573e+05 7.423153e+03
-2.811675e+09 -2.611195e+09 -2.771597e+09 -1.612076e+04 1.136562e+05 6.709180e+04
-3.567731e+09 -3.367101e+09 -3.527573e+09 -1.495406e+04 -1.074085e+05 7.401670e+03
-3.054018e+09 -2.853665e+09 -3.013928e+09 -4.119237e+03 1.473233e+05 1.771632e+04
-3.326691e+09 -3.125466e+09 -3.276079e+09 5.125778e+04 3.261144e+06 7.086072e+05
-3.178757e+09 -2.978984e+09 -3.123767e+09 2.640205e+05 1.397447e+06 7.014074e+05
-2.540003e+09 -2.340016e+09 -2.500059e+09 1.531349e+04 4.745928e+03 7.942513e+03
-3.176101e+09 -2.976115e+09 -3.136159e+09 1.523279e+04 8.469958e+03 4.134924e+03
-2.526151e+09 -2.326167e+09 -2.486206e+09 1.277151e+04 4.666374e+03 5.892803e+03
-2.569725e+09 -2.369360e+09 -2.529695e+09 -1.480920e+04 -1.263445e+05 7.906194e+03
-2.954672e+09 -2.754694e+09 -2.914734e+09 1.235286e+04 4.088893e+03 5.666406e+03
-3.384207e+09 -3.184197e+09 -3.344384e+09 -2.302743e+05 -1.018949e+05 1.039915e+05
-1.885825e+09 -1.685857e+09 -1.845884e+09 1.023854e+04 2.536167e+03 4.437733e+03
-3.589982e+09 -3.389839e+09 -3.534811e+09 -7.329408e+04 -3.565278e+05 -1.081293e+05
-2.509141e+09 -2.309132e+09 -2.457337e+09 -1.303004e+05 -3.440068e+06 1.864419e+06
-2.715744e+09 -2.515371e+09 -2.664129e+09 -3.398260e+05 -3.534190e+06 1.314514e+06
-2.629737e+09 -2.430989e+09 -2.573303e+09 -1.816183e+05 -1.280647e+06 4.707077e+06
-2.815344e+09 -2.616780e+09 -2.772952e+09 -3.740666e+05 -6.171791e+05 2.659803e+06
-3.161530e+09 -2.962148e+09 -3.108477e+09 -6.064037e+04 6.243898e+05 -1.034564e+06
-2.723704e+09 -2.523595e+09 -2.668658e+09 8.001951e+05 2.713125e+06 8.196609e+05
-2.586882e+09 -2.387750e+09 -2.537781e+09 4.873657e+05 8.905270e+05 4.667017e+06
-2.886772e+09 -2.686537e+09 -2.833637e+09 2.983776e+05 -4.591392e+06 7.859558e+04
-3.391822e+09 -3.192038e+09 -3.342427e+09 5.453352e+05 2.548572e+06 2.632338e+06
-2.831005e+09 -2.631228e+09 -2.765236e+09 2.916300e+05 1.116128e+06 5.875430e+05
-2.050325e+09 -1.850537e+09 -2.010399e+09 -2.868173e+05 -1.167351e+05 -8.230139e+04
-2.046307e+09 -1.846462e+09 -2.006389e+09 -2.333758e+05 1.520771e+05 6.945618e+03
-2.470016e+09 -2.269782e+09 -2.429250e+09 -4.526972e+05 -3.998819e+05 2.403096e+05
-3.186911e+09 -2.986235e+09 -3.145817e+09 -4.133820e+05 -5.427743e+05 4.172766e+05
-1.802672e+09 -1.602962e+09 -1.762490e+09 -1.332367e+05 -8.058056e+04 1.550150e+05
-2.179008e+09 -1.978884e+09 -2.138909e+09 -2.367764e+05 2.950965e+04 -3.031288e+04
-3.187111e+09 -2.987251e+09 -3.147281e+09 -5.009563e+04 -2.046113e+04 6.861093e+04
-1.881174e+09 -1.681141e+09 -1.841272e+09 -1.752547e+05 1.992688e+04 -3.315872e+04
-2.574498e+09 -2.374699e+09 -2.532859e+09 -5.628633e+05 -1.848125e+06 1.098676e+06
-2.926010e+09 -2.726101e+09 -2.886131e+09 -2.343000e+04 -9.058818e+03 3.162701e+04
-2.912266e+09 -2.712378e+09 -2.872428e+09 -4.107430e+04 -2.677893e+04 6.656445e+04
-3.270170e+09 -3.070284e+09 -3.230336e+09 -6.706457e+04 -2.129149e+04 5.344189e+04
-2.001526e+09 -1.801596e+09 -1.961607e+09 -1.649272e+04 -2.458937e+04 6.099966e+04
-2.288707e+09 -2.088747e+09 -2.248771e+09 -9.271649e+03 -1.800793e+03 4.448358e+03
-3.198843e+09 -2.998952e+09 -3.158988e+09 -2.944041e+04 -1.528148e+04 3.547246e+04
-3.499482e+09 -3.299530e+09 -3.459555e+09 -1.176066e+04 -2.157202e+03 4.640073e+03
-2.894920e+09 -2.694996e+09 -2.855049e+09 -4.096702e+04 -2.599814e+04 4.942331e+04
-2.607913e+09 -2.407853e+09 -2.567946e+09 1.906699e+05 -6.857484e+04 -7.075008e+04
-2.377596e+09 -2.177671e+09 -2.337683e+09 1.852170e+05 -9.877914e+04 -1.543106e+05
-1.863816e+09 -1.663602e+09 -1.823573e+09 1.040274e+05 -1.055812e+05 -3.007954e+04
-2.668109e+09 -2.467967e+09 -2.628196e+09 2.309359e+05 -9.177156e+04 -1.029546e+05
-2.711074e+09 -2.511210e+09 -2.671105e+09 2.890880e+05 9.903220e+03 -2.983847e+04
-2.083847e+09 -1.883852e+09 -2.043724e+09 2.299272e+05 -1.733447e+05 -1.129349e+05
-1.773706e+09 -1.573678e+09 -1.733740e+09 3.577781e+04 4.415301e+04 5.016353e+04
-3.171274e+09 -2.971290e+09 -3.131399e+09 8.334551e+04 3.798352e+04 4.597323e+04
-1.971138e+09 -1.771183e+09 -1.931215e+09 4.687025e+04 5.017870e+04 6.556520e+04
-3.369247e+09 -3.169312e+09 -3.329415e+09 1.029350e+05 3.436830e+04 6.000012e+04
-1.789967e+09 -1.589974e+09 -1.750010e+09 3.468217e+04 5.406823e+04 6.185155e+04
-3.137146e+09 -2.937217e+09 -3.097304e+09 8.893124e+04 4.317222e+04 6.862258e+04
-2.959822e+09 -2.759846e+09 -2.919924e+09 6.055224e+04 3.320013e+04 3.623089e+04
-3.350002e+09 -3.150029e+09 -3.310128e+09 6.976927e+04 3.684184e+04 3.467654e+04
-1.785730e+09 -1.586667e+09 -1.741399e+09 1.032955e+05 -5.267250e+05 3.176071e+06
-2.379180e+09 -2.180001e+09 -2.336663e+09 2.878997e+05 2.430220e+06 5.417485e+06
-2.379387e+09 -2.180759e+09 -2.338393e+09 5.797390e+04 8.580426e+05 1.713246e+06
-2.776827e+09 -2.575780e+09 -2.732026e+09 8.581093e+05 1.622223e+06 2.760857e+05
-3.381227e+09 -3.182007e+09 -3.336488e+09 7.151790e+05 7.586132e+05 1.817188e+06
-3.340541e+09 -3.139454e+09 -3.292533e+09 5.372088e+05 1.808756e+06 1.611857e+06
-2.779354e+09 -2.579342e+09 -2.735913e+09 8.804374e+05 1.306353e+06 1.315466e+06
-3.513157e+09 -3.313221e+09 -3.473249e+09 -1.711828e+04 -4.745570e+03 9.334461e+03
-3.184288e+09 -2.984313e+09 -3.144402e+09 -5.409250e+04 -3.586371e+04 3.982804e+04
-2.555229e+09 -2.355264e+09 -2.515334e+09 -5.095756e+04 -3.699557e+04 4.748347e+04
-2.227288e+09 -2.027291e+09 -2.187353e+09 -3.401703e+04 -3.393604e+04 3.464929e+04
-3.041778e+09 -2.841776e+09 -3.001864e+09 -4.366447e+04 -2.667253e+04 2.665893e+04
-2.483667e+09 -2.283678e+09 -2.443740e+09 -3.363750e+04 -2.570189e+04 3.664542e+04
-3.328948e+09 -3.128961e+09 -3.289043e+09 -3.893402e+04 -1.948368e+04 2.156426e+04
-3.332649e+09 -3.132654e+09 -3.292742e+09 -4.407836e+04 -2.326781e+04 2.564872e+04
-2.308593e+09 -2.108580e+09 -2.268647e+09 -4.329950e+05 2.707899e+05 -2.292378e+05
-1.933674e+09 -1.733627e+09 -1.893240e+09 -2.717929e+05 6.345508e+04 -1.708972e+05
-2.093310e+09 -1.892839e+09 -2.052290e+09 -2.902020e+05 1.225286e+05 3.891539e+04
-3.143153e+09 -2.941981e+09 -3.101214e+09 -1.826625e+05 6.706691e+05 -2.815911e+05
-3.133469e+09 -2.933067e+09 -3.092482e+09 -5.085388e+05 2.495751e+05 -2.318679e+04
-2.907956e+09 -2.707712e+09 -2.867150e+09 -4.288001e+05 4.387763e+05 -2.029592e+05
-2.426204e+09 -2.226347e+09 -2.386133e+09 -5.275387e+05 1.961672e+05 -2.870093e+05
-2.398534e+09 -2.199050e+09 -2.358384e+09 4.019974e+05 1.153165e+05 2.046321e+05
-1.817953e+09 -1.617960e+09 -1.777981e+09 -3.675758e+04 -5.982125e+04 9.336793e+04
-2.818095e+09 -2.617995e+09 -2.777613e+09 6.044089e+05 3.966230e+05 2.871995e+05
-3.208931e+09 -3.008833e+09 -3.168159e+09 5.974347e+05 4.512987e+05 4.158533e+05
-3.406129e+09 -3.206171e+09 -3.365848e+09 5.097462e+05 7.401901e+04 4.078002e+04
-2.463431e+09 -2.263254e+09 -2.422741e+09 3.045771e+05 2.521851e+05 7.404831e+04
-3.390040e+09 -3.190496e+09 -3.349189e+09 5.422885e+05 2.622031e+05 3.276223e+05
-3.103455e+09 -2.904010e+09 -3.063520e+09 3.508422e+05 3.125146e+04 1.646349e+05
-2.303270e+09 -2.103024e+09 -2.263009e+09 9.339755e+04 1.301548e+05 -3.292285e+04
-2.222542e+09 -2.021590e+09 -2.181950e+09 2.050575e+04 -3.603805e+04 -8.886523e+04
-2.179592e+09 -1.979112e+09 -2.138531e+09 7.303985e+04 -2.774322e+05 -2.508623e+05
-1.835095e+09 -1.634768e+09 -1.794092e+09 1.169081e+03 -5.142510e+05 8.342879e+04
-2.536254e+09 -2.336144e+09 -2.496110e+09 -2.312173e+05 -1.608379e+05 9.208086e+04
-3.339008e+09 -3.138924e+09 -3.298921e+09 -3.425918e+05 -2.456913e+04 1.936069e+04
-3.134327e+09 -2.934257e+09 -3.094232e+09 -2.797097e+05 -3.744020e+04 7.572665e+04
-1.786946e+09 -1.586893e+09 -1.746860e+09 -4.517154e+04 -7.708192e+04 5.696288e+04
-3.123841e+09 -2.923809e+09 -3.083912e+09 -2.052390e+05 -6.137734e+04 6.655224e+04
-2.457047e+09 -2.256969e+09 -2.417129e+09 -1.583276e+05 -9.497571e+04 6.885226e+04
-3.030855e+09 -2.830712e+09 -2.990819e+09 -2.719850e+05 -3.240756e+03 9.920398e+03
-2.451901e+09 -2.251687e+09 -2.411915e+09 8.020392e+04 -1.031841e+05 -5.041089e+04
-3.332532e+09 -3.132299e+09 -3.292563e+09 1.054410e+05 -9.887316e+04 -4.160427e+04
-2.229223e+09 -2.029032e+09 -2.189212e+09 4.260199e+04 -1.222679e+05 -2.627359e+04
-2.220163e+09 -2.019997e+09 -2.180175e+09 5.195740e+04 -1.349300e+05 -3.501891e+04
-1.776969e+09 -1.576896e+09 -1.736963e+09 2.575200e+04 -1.184839e+05 -5.161128e+04
-1.859820e+09 -1.659715e+09 -1.819770e+09 1.107941e+04 -1.594952e+05 -6.791564e+04
-2.646060e+09 -2.445907e+09 -2.606118e+09 7.842563e+04 -1.193826e+05 -4.822729e+04
-2.791514e+09 -2.591111e+09 -2.751238e+09 -1.595847e+05 -1.944929e+05 2.858359e+04
-2.309188e+09 -2.108966e+09 -2.269063e+09 -1.951324e+04 -1.748882e+05 7.609397e+02
-2.386717e+09 -2.186411e+09 -2.346589e+09 -4.931455e+04 -6.724816e+04 3.176588e+04
-3.092299e+09 -2.891839e+09 -3.052146e+09 -6.140865e+04 -9.400490e+04 1.614162e+04
-2.459654e+09 -2.259386e+09 -2.419577e+09 -5.454297e+04 -1.570233e+05 1.769379e+04
-2.704483e+09 -2.504154e+09 -2.664465e+09 -9.668097e+04 -1.658168e+05 4.943002e+04
-3.371209e+09 -3.170622e+09 -3.331061e+09 -8.220169e+04 -1.237798e+05 2.200168e+04
-2.440087e+09 -2.240075e+09 -2.400142e+09 3.065729e+04 2.742263e+04 2.202903e+04
-2.078246e+09 -1.878226e+09 -2.038289e+09 2.649429e+04 2.480764e+04 2.000487e+04
-1.596020e+09 -1.396008e+09 -1.556060e+09 1.634548e+04 2.014958e+04 1.938060e+04
-2.394802e+09 -2.194801e+09 -2.354856e+09 2.474922e+04 1.802250e+04 1.781582e+04
-2.600368e+09 -2.400370e+09 -2.560436e+09 3.431675e+04 2.287436e+04 2.234654e+04
-3.411530e+09 -3.211563e+09 -3.371695e+09 1.021557e+05 4.875427e+04 5.182867e+04
-2.732679e+09 -2.532748e+09 -2.692827e+09 8.752599e+04 5.494305e+04 6.840260e+04
-3.368004e+09 -3.168114e+09 -3.328219e+09 1.282086e+05 4.735045e+04 6.518323e+04
-1.996183e+09 -1.796199e+09 -1.956256e+09 6.264429e+04 6.202404e+04 5.984276e+04
-2.560169e+09 -2.360215e+09 -2.520301e+09 7.094965e+04 6.420258e+04 6.541864e+04
-3.158135e+09 -2.958085e+09 -3.118237e+09 -8.391485e+04 -5.116303e+04 3.481089e+04
-2.526733e+09 -2.326813e+09 -2.486856e+09 8.316888e+04 6.697923e+04 8.529150e+04
-3.388548e+09 -3.188493e+09 -3.348652e+09 1.383219e+05 4.959012e+04 6.975886e+04
-2.364480e+09 -2.164509e+09 -2.324582e+09 7.258003e+04 9.244759e+04 1.045078e+05
-2.589620e+09 -2.389622e+09 -2.549753e+09 1.091629e+05 5.835080e+04 6.910996e+04
-3.602665e+09 -3.402625e+09 -3.562792e+09 1.390751e+05 5.989794e+04 5.425229e+04
-2.801948e+09 -2.601967e+09 -2.762085e+09 1.096318e+05 6.493838e+04 7.409789e+04
-1.668213e+09 -1.468291e+09 -1.628300e+09 -5.076088e+03 -2.193070e+03 2.166034e+04
-3.062763e+09 -2.862611e+09 -3.022796e+09 -3.711776e+04 5.362735e+04 -1.372640e+04
-2.538917e+09 -2.338807e+09 -2.498944e+09 -2.071942e+04 6.776239e+04 -2.888157e+04
-3.291082e+09 -3.090936e+09 -3.251137e+09 -3.971703e+04 5.068922e+04 -2.860675e+04
-3.582087e+09 -3.381942e+09 -3.542145e+09 -4.011255e+04 5.238234e+04 -2.537053e+04
-3.403229e+09 -3.203080e+09 -3.363308e+09 -8.338122e+04 6.621879e+04 -2.619323e+04
-3.259155e+09 -3.058015e+09 -3.210487e+09 6.371546e+05 -1.947028e+06 -1.769524e+06
-3.392073e+09 -3.192209e+09 -3.338737e+09 -2.136847e+05 1.020385e+06 5.636864e+05
-2.381538e+09 -2.180472e+09 -2.339306e+09 3.731056e+05 -1.004320e+06 -8.220299e+05
-3.380344e+09 -3.179479e+09 -3.334678e+09 -5.937470e+05 -1.550370e+06 1.447255e+06
-1.689106e+09 -1.489128e+09 -1.649161e+09 1.045752e+04 3.354333e+03 4.134671e+03
-2.268328e+09 -2.068355e+09 -2.228385e+09 8.878592e+03 1.077531e+03 2.432647e+03
-2.605134e+09 -2.405164e+09 -2.565197e+09 1.084468e+04 3.162235e+03 4.415575e+03
-3.184510e+09 -2.983894e+09 -3.144086e+09 3.922174e+04 -4.167547e+02 -7.193115e+03
-3.220696e+09 -3.019836e+09 -3.179776e+09 -3.056215e+04 1.732532e+05 9.534626e+03
-2.531528e+09 -2.331018e+09 -2.491374e+09 -2.254006e+04 -6.012707e+04 2.642747e+04
-2.038891e+09 -1.838861e+09 -1.998950e+09 5.172115e+04 6.423062e+04 5.517498e+04
-2.877557e+09 -2.677538e+09 -2.837635e+09 4.575923e+04 4.293083e+04 3.541898e+04
-3.056044e+09 -2.855986e+09 -3.016126e+09 6.521821e+04 4.564776e+04 4.091456e+04
-1.798318e+09 -1.598358e+09 -1.758382e+09 -9.829065e+04 -6.815632e+04 1.192772e+05
-3.005197e+09 -2.805345e+09 -2.965340e+09 -1.314805e+05 -2.668955e+04 7.554623e+04
-3.237758e+09 -3.037999e+09 -3.198032e+09 -1.314803e+05 -3.647315e+04 9.826754e+04
-2.287468e+09 -2.087668e+09 -2.247691e+09 -1.452250e+05 -1.069257e+05 1.192132e+05
-3.292985e+09 -3.093282e+09 -3.253220e+09 -2.202090e+05 -5.106419e+04 6.955274e+04
-2.398843e+09 -2.199131e+09 -2.359157e+09 -7.191076e+04 -4.418289e+04 1.123275e+05
-1.851188e+09 -1.651278e+09 -1.811265e+09 -8.029727e+04 -6.054316e+04 1.520618e+05
-2.944957e+09 -2.745245e+09 -2.905230e+09 -1.009826e+05 -1.613215e+04 8.521963e+04
-3.125513e+09 -2.925504e+09 -3.085574e+09 -2.441114e+05 -3.097011e+04 7.422822e+04
-2.018590e+09 -1.818644e+09 -1.978705e+09 -1.167732e+05 -6.662585e+04 8.797385e+04
-2.838599e+09 -2.638718e+09 -2.798785e+09 -2.421498e+05 -3.768242e+04 5.005936e+04
-2.736725e+09 -2.536748e+09 -2.696890e+09 -2.415102e+05 -5.604860e+04 1.172587e+05
-3.254334e+09 -3.054586e+09 -3.214556e+09 -1.905539e+05 -6.138581e+04 1.112207e+05
-3.586819e+09 -3.386633e+09 -3.546874e+09 -4.172603e+04 6.496399e+04 -2.471681e+04
-2.828597e+09 -2.628090e+09 -2.787957e+09 -3.961196e+05 -1.427409e+05 2.018301e+04
-2.595003e+09 -2.394842e+09 -2.555013e+09 -2.149750e+04 8.224700e+04 -1.938348e+04
-2.503993e+09 -2.303844e+09 -2.464002e+09 -2.490275e+04 8.149709e+04 -1.858683e+04
-3.206985e+09 -3.006768e+09 -3.166998e+09 -5.311024e+04 9.584427e+04 -2.717964e+04
-3.335742e+09 -3.135524e+09 -3.295794e+09 -8.147593e+04 7.683491e+04 -2.563311e+04
-2.744797e+09 -2.544602e+09 -2.704835e+09 -4.328649e+04 1.113986e+05 -2.662904e+04
-2.031194e+09 -1.831318e+09 -1.991313e+09 -8.943308e+03 -1.285816e+04 6.477438e+04
-1.815675e+09 -1.615742e+09 -1.775732e+09 -1.346534e+04 -1.290389e+04 8.002473e+04
-2.597448e+09 -2.397625e+09 -2.557644e+09 -2.420768e+04 -1.023160e+04 7.454944e+04
-2.539549e+09 -2.339692e+09 -2.499699e+09 -2.900293e+04 -1.341556e+04 9.752592e+04
-2.828153e+09 -2.628297e+09 -2.788334e+09 -3.688299e+04 -1.904392e+04 7.275060e+04
-2.227484e+09 -2.027625e+09 -2.187640e+09 -3.762181e+04 -2.864317e+04 7.671660e+04
-2.532227e+09 -2.333618e+09 -2.489891e+09 2.747872e+05 -3.263991e+05 -3.408169e+06
-2.668080e+09 -2.469004e+09 -2.625220e+09 7.732385e+05 -1.112931e+06 -2.221168e+06
-3.322901e+09 -3.123560e+09 -3.280426e+09 7.571230e+05 -6.458713e+05 -6.621335e+05
-3.365713e+09 -3.167098e+09 -3.320087e+09 3.873002e+05 -7.275443e+05 -2.323163e+06
-2.436772e+09 -2.236838e+09 -2.396874e+09 2.529446e+04 1.489970e+04 4.155394e+04
-1.818318e+09 -1.618371e+09 -1.778390e+09 1.788939e+04 1.251091e+04 3.001159e+04
-2.820177e+09 -2.620273e+09 -2.780297e+09 2.908276e+04 1.412366e+04 3.232253e+04
-2.385404e+09 -2.185481e+09 -2.345502e+09 1.917147e+04 9.560325e+03 2.934553e+04
-2.425580e+09 -2.225655e+09 -2.385687e+09 2.793339e+04 1.620791e+04 4.071982e+04
-2.630499e+09 -2.430580e+09 -2.590608e+09 2.762745e+04 1.495746e+04 4.069006e+04
-2.991701e+09 -2.791731e+09 -2.951762e+09 1.088517e+04 2.191267e+03 4.236392e+03
-2.382427e+09 -2.181874e+09 -2.341478e+09 -1.193517e+05 -3.208904e+05 1.669996e+04
-2.088930e+09 -1.888960e+09 -2.048990e+09 1.257031e+04 3.270298e+03 5.876270e+03
-1.724145e+09 -1.524168e+09 -1.684202e+09 1.545071e+04 9.127886e+03 1.337856e+04
-1.581535e+09 -1.381390e+09 -1.540122e+09 4.106148e+04 6.374199e+04 3.776667e+05
-2.062744e+09 -1.862667e+09 -2.022795e+09 -1.445129e+05 -1.202964e+05 7.628078e+04
-2.604380e+09 -2.404263e+09 -2.564450e+09 -1.198027e+05 -8.682215e+04 7.576240e+04
-2.781613e+09 -2.581523e+09 -2.741666e+09 -1.510027e+05 -1.153394e+05 9.128108e+04
-2.177759e+09 -1.977673e+09 -2.137729e+09 -6.524974e+04 -1.123918e+05 8.894866e+04
-2.070462e+09 -1.870319e+09 -2.030342e+09 -2.081473e+05 -1.683405e+05 1.482015e+05
-2.453086e+09 -2.253185e+09 -2.413244e+09 -2.462622e+05 4.506660e+04 -1.555304e+04
-3.151580e+09 -2.951944e+09 -3.111804e+09 -2.162095e+05 -5.649537e+04 1.048620e+05
-1.950365e+09 -1.750582e+09 -1.910567e+09 -8.428693e+04 -4.424425e+04 1.422270e+05
-2.783429e+09 -2.582529e+09 -2.742123e+09 -3.214172e+05 -3.470925e+05 -9.580788e+04
-2.983075e+09 -2.783539e+09 -2.943315e+09 -9.082790e+04 -2.930613e+04 9.046822e+04
-2.603154e+09 -2.403555e+09 -2.563425e+09 -7.251110e+04 1.877053e+03 4.691730e+04
-2.489543e+09 -2.289647e+09 -2.449244e+09 -2.371792e+05 -2.769303e+04 7.666151e+04
-1.665828e+09 -1.465817e+09 -1.625657e+09 -4.805571e+03 7.601261e+04 -1.029401e+04
-2.696361e+09 -2.496319e+09 -2.656364e+09 -2.607046e+05 4.095552e+04 -6.860928e+03
-1.973561e+09 -1.773619e+09 -1.933657e+09 -3.769474e+04 -2.407444e+04 5.984927e+04
-2.877924e+09 -2.678017e+09 -2.838062e+09 -3.750307e+04 -1.668148e+04 4.349647e+04
-3.323542e+09 -3.123664e+09 -3.283708e+09 -3.800162e+04 -1.299491e+04 4.931221e+04
-2.979695e+09 -2.779798e+09 -2.939843e+09 -5.313256e+04 -2.496973e+04 6.199434e+04
-1.981684e+09 -1.781809e+09 -1.937056e+09 6.555235e+05 2.666804e+06 4.567153e+06
-2.182856e+09 -1.982495e+09 -2.141726e+09 3.252203e+05 6.727138e+05 1.692130e+05
-2.752894e+09 -2.553015e+09 -2.713035e+09 -2.890078e+04 -9.095789e+03 4.860256e+04
-1.918073e+09 -1.718185e+09 -1.878194e+09 -2.225980e+04 -2.573070e+04 8.987098e+04
-2.010470e+09 -1.811037e+09 -1.966307e+09 -3.667900e+04 1.586128e+06 -2.995153e+06
-2.339834e+09 -2.139361e+09 -2.291496e+09 -6.822410e+05 4.654692e+06 -2.500706e+06
-2.457838e+09 -2.257310e+09 -2.409934e+09 -5.548853e+05 3.485328e+06 -2.973853e+06
-3.308321e+09 -3.107226e+09 -3.264337e+09 -6.733411e+05 1.003983e+06 -6.755717e+05
-2.910561e+09 -2.710567e+09 -2.869741e+09 -5.467673e+05 5.157282e+05 -5.536247e+05
-3.233522e+09 -3.033234e+09 -3.192043e+09 -7.815975e+05 9.070675e+05 -1.465324e+05
-2.450891e+09 -2.250607e+09 -2.410813e+09 8.105129e+04 -1.148497e+05 -3.074404e+04
-2.662521e+09 -2.461991e+09 -2.621944e+09 9.283102e+04 8.407346e+04 -6.357299e+04
-2.355634e+09 -2.155331e+09 -2.315441e+09 1.985229e+05 -7.310539e+04 3.306768e+04
-2.271348e+09 -2.071148e+09 -2.231128e+09 6.473776e+04 -9.109711e+04 -5.136592e+04
-2.559830e+09 -2.359185e+09 -2.518768e+09 2.965639e+05 -1.220786e+05 -2.854648e+05
-1.944411e+09 -1.744217e+09 -1.904171e+09 3.205235e+05 -4.320939e+05 -2.096787e+05
-3.499533e+09 -3.298954e+09 -3.458557e+09 5.608377e+05 -1.488818e+05 7.400729e+04
-1.963082e+09 -1.763300e+09 -1.922881e+09 3.334789e+05 -2.573010e+05 -2.497800e+05
-2.116247e+09 -1.915656e+09 -2.075395e+09 4.147856e+05 -6.165997e+05 -1.484694e+05
-2.458056e+09 -2.257250e+09 -2.416263e+09 -5.357447e+04 1.241796e+06 -3.033569e+05
-2.240109e+09 -2.039404e+09 -2.199580e+09 -1.733086e+04 6.378241e+04 -1.267511e+05
-2.765079e+09 -2.564125e+09 -2.723618e+09 -2.113587e+05 3.675544e+05 -2.526169e+05
-2.791353e+09 -2.589490e+09 -2.748466e+09 2.300329e+05 1.514963e+06 2.498737e+05
-3.303899e+09 -3.102849e+09 -3.262575e+09 3.042078e+05 4.123136e+05 2.549982e+05
-2.840634e+09 -2.639929e+09 -2.799575e+09 3.806817e+04 1.876524e+05 -1.228178e+05
-2.077488e+09 -1.877578e+09 -2.037589e+09 -4.670557e+04 -4.722027e+04 9.792470e+04
-3.614452e+09 -3.414426e+09 -3.574590e+09 -1.088733e+05 -4.695037e+04 3.976658e+04
-2.184467e+09 -1.984537e+09 -2.144569e+09 -4.125095e+04 -2.910430e+04 6.217470e+04
-1.989612e+09 -1.789663e+09 -1.949697e+09 -5.488739e+04 -4.760893e+04 8.327749e+04
-1.967791e+09 -1.767836e+09 -1.927876e+09 -4.799082e+04 -5.542605e+04 7.046852e+04
-3.191844e+09 -2.991921e+09 -3.151986e+09 -5.822221e+04 -1.659712e+04 3.868744e+04
-3.293260e+09 -3.093317e+09 -3.253375e+09 -4.322600e+04 -2.166220e+04 2.937721e+04
-2.168691e+09 -1.968753e+09 -2.128783e+09 -3.674728e+04 -2.563035e+04 4.049266e+04
-3.287207e+09 -3.087287e+09 -3.247352e+09 -6.105616e+04 -2.747345e+04 4.374888e+04
-3.510982e+09 -3.311051e+09 -3.471130e+09 -6.123698e+04 -2.472796e+04 3.609938e+04
-2.448105e+09 -2.248136e+09 -2.408187e+09 -3.774309e+04 -2.933928e+04 4.651660e+04
-3.189893e+09 -2.989901e+09 -3.150024e+09 1.286319e+05 6.863191e+04 6.488788e+04
-1.804200e+09 -1.604218e+09 -1.764269e+09 4.080158e+04 4.466756e+04 4.618589e+04
-2.400644e+09 -2.200637e+09 -2.360721e+09 5.356367e+04 5.707787e+04 5.006806e+04
-2.417023e+09 -2.217014e+09 -2.377104e+09 7.819884e+04 9.463651e+04 8.587578e+04
-2.014947e+09 -1.814938e+09 -1.975013e+09 6.279301e+04 5.583341e+04 5.054206e+04
-1.809693e+09 -1.609623e+09 -1.769680e+09 1.963663e+04 7.240293e+04 6.736033e+04
-1.580445e+09 -1.380488e+09 -1.539817e+09 4.213343e+03 -4.306851e+05 7.252874e+04
-1.786311e+09 -1.586325e+09 -1.746404e+09 6.769380e+04 7.623010e+04 7.243965e+04
-3.376657e+09 -3.176509e+09 -3.336717e+09 -1.405816e+05 8.819103e+04 -4.403967e+04
-2.452140e+09 -2.251955e+09 -2.412176e+09 -7.454149e+04 1.041772e+05 -3.478931e+04
-1.985044e+09 -1.784982e+09 -1.944992e+09 -3.046447e+04 1.225598e+05 -5.980713e+04
-2.636498e+09 -2.436323e+09 -2.596463e+09 -1.034918e+05 1.421550e+05 -5.744224e+04
-3.137735e+09 -2.937541e+09 -3.097766e+09 -7.700287e+04 7.822413e+04 -2.740148e+04
-2.618644e+09 -2.418436e+09 -2.578591e+09 -1.315194e+05 1.176693e+05 -6.590910e+04
-2.509691e+09 -2.309509e+09 -2.469715e+09 -5.274428e+04 1.279000e+05 -4.273237e+04
-1.870199e+09 -1.670081e+09 -1.830225e+09 -4.561733e+04 1.425195e+05 -6.170901e+04
-3.017162e+09 -2.816922e+09 -2.977241e+09 -1.487437e+05 1.009680e+05 -4.501173e+04
-2.652326e+09 -2.452672e+09 -2.612621e+09 -7.987605e+04 -2.058258e+04 1.235864e+05
-3.154395e+09 -2.954790e+09 -3.114705e+09 -5.114765e+04 -3.524207e+04 8.058534e+04
-2.595739e+09 -2.395998e+09 -2.555938e+09 -1.494739e+05 -8.189622e+04 1.404200e+05
-2.045580e+09 -1.845662e+09 -2.005680e+09 -9.167200e+04 -6.521251e+04 1.224124e+05
-1.954743e+09 -1.754879e+09 -1.914885e+09 -2.547507e+04 -2.970085e+04 1.231783e+05
-2.242719e+09 -2.042911e+09 -2.202926e+09 -4.134450e+04 -4.029081e+04 1.137849e+05
-3.040562e+09 -2.840701e+09 -3.000742e+09 -8.060159e+04 -3.771610e+04 7.352493e+04
-2.105323e+09 -1.905788e+09 -2.065073e+09 2.042550e+05 4.230366e+04 -1.136489e+05
-2.192429e+09 -1.993081e+09 -2.152376e+09 8.185392e+04 -8.457489e+03 3.437916e+03
-2.641643e+09 -2.442668e+09 -2.598948e+09 4.424008e+05 -9.014613e+05 -9.084349e+05
-2.088990e+09 -1.889994e+09 -2.048144e+09 2.790001e+05 -4.307855e+04 -1.512528e+06
-2.826839e+09 -2.626768e+09 -2.786903e+09 2.373409e+05 -1.146907e+05 -1.449520e+05
-3.078575e+09 -2.878595e+09 -3.038760e+09 1.773077e+05 -3.927913e+04 -7.102993e+04
-2.838927e+09 -2.638714e+09 -2.798801e+09 1.123360e+05 -1.376675e+05 -3.804406e+04
-2.013574e+09 -1.813505e+09 -1.973606e+09 -7.450361e+04 -8.752696e+04 5.466072e+04
-1.867575e+09 -1.667604e+09 -1.827514e+09 -6.807917e+04 -9.512838e+04 8.755439e+04
-2.380077e+09 -2.179987e+09 -2.340099e+09 -7.567686e+04 -1.210415e+05 8.689012e+04
-1.790761e+09 -1.590632e+09 -1.750779e+09 -4.334138e+04 -1.034777e+05 6.745615e+04
-2.373605e+09 -2.173490e+09 -2.333607e+09 -7.369456e+04 -1.141398e+05 7.236774e+04
-2.577722e+09 -2.377427e+09 -2.537761e+09 -1.422884e+05 -1.249782e+05 8.300928e+04
-3.283578e+09 -3.084202e+09 -3.243790e+09 -5.978740e+04 -2.019898e+04 1.155903e+05
-2.522989e+09 -2.323277e+09 -2.483162e+09 -4.893642e+04 -1.510713e+04 1.430058e+05
-3.055251e+09 -2.855597e+09 -3.015492e+09 -9.600992e+04 -2.626928e+04 9.807788e+04
-3.019435e+09 -2.819509e+09 -2.979602e+09 -2.771647e+05 5.814278e+04 -4.770952e+04
-2.829081e+09 -2.629429e+09 -2.789236e+09 -1.145294e+05 -3.766646e+04 1.357337e+05
-2.228430e+09 -2.028792e+09 -2.188663e+09 -1.102934e+05 -2.090618e+04 1.741232e+05
-2.187071e+09 -1.987401e+09 -2.147299e+09 -9.183845e+04 -3.507650e+04 1.561655e+05
-2.544222e+09 -2.344951e+09 -2.504518e+09 1.257307e+05 3.774818e+04 -5.048356e+04
-3.217384e+09 -3.018238e+09 -3.177314e+09 1.669840e+05 -1.161791e+05 -3.487002e+04
-3.306867e+09 -3.107632e+09 -3.266903e+09 1.776121e+05 -3.834366e+04 -1.228723e+05
-3.032974e+09 -2.833608e+09 -2.992429e+09 4.247250e+05 -3.407032e+05 -5.454819e+05
-1.659851e+09 -1.460189e+09 -1.617842e+09 -5.880480e+04 -1.403715e+06 -3.433615e+04
-2.038880e+09 -1.839450e+09 -1.998891e+09 1.414816e+05 -1.822717e+05 -1.396712e+05
-2.705613e+09 -2.505941e+09 -2.665475e+09 4.113182e+05 5.356739e+04 -1.066335e+05
-2.546067e+09 -2.346650e+09 -2.506311e+09 1.963709e+05 -3.361736e+04 -5.816662e+04
-3.326105e+09 -3.125137e+09 -3.284359e+09 -4.738615e+05 3.916057e+05 -2.800943e+05
-2.011541e+09 -1.811326e+09 -1.971484e+09 3.674992e+04 1.776214e+05 1.907342e+04
-2.109082e+09 -1.907122e+09 -2.061833e+09 1.885475e+05 5.575607e+06 -2.216685e+05
-1.771101e+09 -1.570972e+09 -1.731040e+09 -2.413312e+04 1.298407e+05 2.397885e+04
-2.348506e+09 -2.148342e+09 -2.308504e+09 5.377317e+04 1.489533e+05 4.396579e+04
-2.568848e+09 -2.368616e+09 -2.528809e+09 3.138155e+04 1.063649e+05 2.149211e+04
-1.972666e+09 -1.772493e+09 -1.932637e+09 3.822147e+04 9.045909e+04 2.101457e+04
-2.377964e+09 -2.177792e+09 -2.337969e+09 3.871604e+04 9.236765e+04 2.922572e+04
-2.340394e+09 -2.140255e+09 -2.300414e+09 -6.022776e+04 -9.022667e+04 4.301287e+04
-2.762724e+09 -2.562471e+09 -2.722726e+09 -1.162169e+05 -1.505508e+05 9.764940e+04
-3.369953e+09 -3.169631e+09 -3.330001e+09 -1.137946e+05 -1.088201e+05 4.934028e+04
-3.114308e+09 -2.913911e+09 -3.074255e+09 -7.672178e+04 -7.296928e+04 3.514411e+04
-2.616879e+09 -2.416637e+09 -2.576848e+09 -5.638686e+04 -1.250327e+05 4.227038e+04
-1.588841e+09 -1.388835e+09 -1.547519e+09 -6.030359e+04 -1.665591e+03 9.972561e+05
-2.956118e+09 -2.755992e+09 -2.916161e+09 3.801356e+04 4.689279e+04 1.872229e+04
-3.310831e+09 -3.110426e+09 -3.270835e+09 -8.105634e+04 -1.314385e+05 2.069423e+04
-2.800365e+09 -2.600785e+09 -2.760509e+09 -1.501528e+05 -6.968251e+03 -4.677349e+04
-3.138909e+09 -2.939570e+09 -3.099092e+09 -1.657842e+05 -3.498789e+04 2.058315e+04
-3.145226e+09 -2.945962e+09 -3.105555e+09 -1.044030e+04 2.969276e+04 8.477414e+04
-2.536585e+09 -2.336971e+09 -2.496854e+09 -4.587126e+04 -2.273909e+04 4.725382e+04
-2.795844e+09 -2.596787e+09 -2.756057e+09 3.136173e+05 -9.509719e+04 2.306113e+05
-3.400023e+09 -3.200979e+09 -3.359931e+09 2.743622e+05 9.829588e+04 1.939694e+05
-3.165397e+09 -2.966558e+09 -3.124483e+09 2.766685e+05 3.605968e+05 8.600408e+05
-2.734971e+09 -2.536109e+09 -2.694587e+09 4.895737e+05 3.058253e+05 3.717226e+05
-3.350235e+09 -3.151185e+09 -3.309062e+09 5.370022e+05 3.043735e+05 5.571365e+05
-3.381986e+09 -3.183156e+09 -3.341445e+09 1.809904e+05 5.398045e+04 3.534374e+05
-2.671077e+09 -2.471181e+09 -2.631213e+09 2.340048e+04 7.497177e+03 4.740609e+04
-3.254146e+09 -3.053012e+09 -3.211702e+09 -4.138132e+05 -8.888478e+05 3.326031e+05
-1.860603e+09 -1.660258e+09 -1.819595e+09 -1.788830e+05 -7.399753e+05 -8.527823e+04
-1.874346e+09 -1.673825e+09 -1.830380e+09 -3.284511e+05 -2.759740e+06 1.796295e+06
-2.414261e+09 -2.214697e+09 -2.361593e+09 2.674604e+05 -3.933386e+06 1.999668e+06
-2.655432e+09 -2.454173e+09 -2.613643e+09 -3.978696e+05 -8.537275e+05 2.898046e+05
-2.397731e+09 -2.197708e+09 -2.357776e+09 -9.302735e+04 -1.220453e+05 7.851100e+04
-3.282337e+09 -3.082223e+09 -3.242335e+09 -1.999664e+05 -8.599588e+04 7.316676e+04
-2.214942e+09 -2.014972e+09 -2.175002e+09 -1.363635e+04 -6.255691e+03 6.990101e+03
-3.383232e+09 -3.182919e+09 -3.343244e+09 -1.698399e+05 -1.193101e+05 4.296313e+04
-3.393359e+09 -3.193183e+09 -3.353460e+09 -1.698588e+05 -7.851160e+04 5.998588e+04
-3.190163e+09 -2.989988e+09 -3.150212e+09 -1.203468e+05 -1.040274e+05 6.257907e+04
-3.212892e+09 -3.012780e+09 -3.172988e+09 -1.311987e+05 -7.619196e+04 4.440650e+04
-2.819322e+09 -2.619208e+09 -2.779398e+09 -1.314464e+05 -8.540788e+04 4.661914e+04
-3.163426e+09 -2.963222e+09 -3.123485e+09 -1.494259e+05 -7.819632e+04 3.069535e+04
-2.376268e+09 -2.176467e+09 -2.336238e+09 -1.353322e+05 -4.118885e+04 1.328811e+05
-3.590552e+09 -3.389505e+09 -3.549235e+09 -2.229255e+05 -2.250033e+05 9.271185e+04
-2.657976e+09 -2.458347e+09 -2.618254e+09 -2.878225e+04 -3.107160e+04 1.607919e+05
-2.089688e+09 -1.890014e+09 -2.049935e+09 -1.552969e+05 1.454775e+03 1.590759e+05
-2.617225e+09 -2.417697e+09 -2.577472e+09 -1.438943e+04 1.615970e+04 5.576804e+04
-2.106869e+09 -1.907092e+09 -2.066911e+09 -5.639421e+04 -5.458088e+04 2.029532e+05
-2.198040e+09 -1.998307e+09 -2.158279e+09 -1.365223e+05 -3.404987e+04 1.632418e+05
-2.199761e+09 -2.000184e+09 -2.160001e+09 -1.403417e+05 -8.362048e+04 1.220695e+05
-2.920017e+09 -2.720438e+09 -2.880101e+09 -1.990118e+05 4.878467e+04 -3.710496e+04
-2.931210e+09 -2.730114e+09 -2.889976e+09 1.396628e+05 8.659028e+05 2.585127e+05
-2.553303e+09 -2.352529e+09 -2.512780e+09 2.944469e+03 4.258274e+05 8.432219e+04
-3.096989e+09 -2.895141e+09 -3.053268e+09 -1.694542e+05 1.354174e+06 -2.771953e+05
-3.345995e+09 -3.143766e+09 -3.298373e+09 2.075593e+05 3.676532e+06 -8.612951e+05
-2.434269e+09 -2.233169e+09 -2.391378e+09 4.034353e+05 1.887315e+06 2.330343e+05
-2.569721e+09 -2.368314e+09 -2.526535e+09 3.035954e+05 2.906489e+06 9.077186e+05
-1.856545e+09 -1.656590e+09 -1.816523e+09 6.792353e+04 6.953487e+04 1.094480e+05
-2.451656e+09 -2.251853e+09 -2.411831e+09 1.023561e+05 6.961522e+04 1.681578e+05
-2.576322e+09 -2.376312e+09 -2.536458e+09 2.130070e+05 8.272367e+04 3.088063e+04
-1.877474e+09 -1.677739e+09 -1.837701e+09 9.935137e+04 6.617032e+04 1.205540e+05
-3.319008e+09 -3.118999e+09 -3.279138e+09 3.257255e+05 6.913941e+04 8.613163e+04
-2.976602e+09 -2.776615e+09 -2.936664e+09 2.213057e+05 7.302489e+04 5.927665e+04
-2.565524e+09 -2.365626e+09 -2.525472e+09 1.899336e+05 7.682795e+04 9.311940e+04
-3.132564e+09 -2.932654e+09 -3.092739e+09 8.385343e+04 4.494455e+04 6.437864e+04
-1.785121e+09 -1.585163e+09 -1.745179e+09 2.892136e+04 4.794105e+04 6.666591e+04
-2.398478e+09 -2.198542e+09 -2.358586e+09 3.566538e+04 3.094107e+04 4.475470e+04
-2.999524e+09 -2.799617e+09 -2.959611e+09 2.759918e+05 2.297525e+04 3.089247e+04
-2.773631e+09 -2.573626e+09 -2.733772e+09 1.574157e+05 8.379424e+04 7.876481e+04
-3.262913e+09 -3.062972e+09 -3.222990e+09 1.881524e+05 6.209411e+04 7.477449e+04
-2.811307e+09 -2.611443e+09 -2.771483e+09 7.220345e+04 2.249855e+04 5.951570e+04
-2.383041e+09 -2.183125e+09 -2.343170e+09 4.413825e+04 3.405945e+04 6.727384e+04
-1.774971e+09 -1.574987e+09 -1.735023e+09 3.264354e+04 3.954493e+04 6.162575e+04
-2.494969e+09 -2.295012e+09 -2.455060e+09 2.975761e+04 1.817792e+04 3.245978e+04
-2.806073e+09 -2.606156e+09 -2.766203e+09 5.016294e+04 2.202745e+04 4.374301e+04
-2.808600e+09 -2.608696e+09 -2.768753e+09 6.052912e+04 1.951049e+04 4.165015e+04
-2.611168e+09 -2.411274e+09 -2.571305e+09 3.059143e+04 3.004185e+04 6.114997e+04
-2.008053e+09 -1.808126e+09 -1.968146e+09 3.524472e+04 2.351852e+04 5.124390e+04
-3.582826e+09 -3.381775e+09 -3.540306e+09 -4.963056e+05 -3.242114e+05 2.140543e+04
-2.550043e+09 -2.349581e+09 -2.509714e+09 -2.019944e+05 5.134661e+04 -1.353998e+04
-2.399701e+09 -2.199293e+09 -2.358889e+09 -1.508505e+05 -4.049611e+05 1.934198e+05
-2.009302e+09 -1.809093e+09 -1.968660e+09 -2.875643e+05 -3.279729e+05 2.536821e+05
-2.643942e+09 -2.443703e+09 -2.603688e+09 -3.849886e+05 -1.331179e+05 1.515994e+05
-1.999996e+09 -1.799603e+09 -1.959635e+09 -1.596966e+05 -2.015092e+05 8.339955e+04
-2.612047e+09 -2.412469e+09 -2.571595e+09 -2.432995e+05 1.064848e+05 -1.141669e+05
-3.126490e+09 -2.927043e+09 -3.085043e+09 -5.730987e+05 7.947904e+05 -4.193460e+05
-3.468060e+09 -3.268495e+09 -3.427147e+09 -6.438791e+05 3.199306e+05 -4.342583e+05
-2.981291e+09 -2.781710e+09 -2.940870e+09 -4.132187e+05 6.550184e+04 -4.241811e+05
-3.303575e+09 -3.104146e+09 -3.263362e+09 -4.178652e+05 9.535439e+04 -3.090500e+05
-2.940150e+09 -2.740389e+09 -2.900398e+09 -3.562739e+04 -1.401668e+04 9.990016e+04
-3.107126e+09 -2.907355e+09 -3.067362e+09 -7.552209e+03 -1.507564e+03 8.139584e+04
-2.742414e+09 -2.542608e+09 -2.702620e+09 -7.707416e+03 -2.640034e+03 7.519248e+04
-2.312805e+09 -2.113001e+09 -2.272975e+09 -4.484030e+03 3.342694e+03 9.965116e+04
-2.441427e+09 -2.241674e+09 -2.401630e+09 -2.341111e+03 2.600897e+04 9.368252e+04
-2.265388e+09 -2.065601e+09 -2.225576e+09 -6.448798e+03 -9.061065e+03 1.064016e+05
-2.575614e+09 -2.375884e+09 -2.535889e+09 9.846965e+03 -2.635799e+03 1.434563e+05
-2.198561e+09 -1.998991e+09 -2.158819e+09 -1.934518e+05 -2.942352e+04 -1.430437e+05
-2.396942e+09 -2.198073e+09 -2.353912e+09 -4.439101e+05 -2.969187e+05 1.861122e+06
-1.983808e+09 -1.784250e+09 -1.943148e+09 -4.240053e+05 -7.383313e+05 1.904794e+06
-1.790166e+09 -1.590625e+09 -1.748643e+09 -1.134057e+05 -3.094495e+05 7.263123e+05
-2.837860e+09 -2.639559e+09 -2.796932e+09 -3.430858e+05 -1.588547e+05 1.018707e+06
-2.128135e+09 -1.928891e+09 -2.087863e+09 -2.207115e+05 -3.247205e+05 7.349156e+05
-2.449293e+09 -2.250155e+09 -2.408080e+09 -1.005984e+05 1.903344e+05 7.346158e+05
-2.634132e+09 -2.435298e+09 -2.593547e+09 -3.850514e+04 -1.547414e+04 1.114964e+06
-1.796398e+09 -1.596905e+09 -1.755051e+09 -1.198627e+05 -1.561083e+05 9.039966e+05
-1.799193e+09 -1.599692e+09 -1.758865e+09 6.918145e+04 -2.887897e+04 1.783598e+06
-1.800492e+09 -1.600575e+09 -1.760586e+09 1.663900e+04 1.713492e+04 4.519108e+04
-2.657971e+09 -2.458101e+09 -2.618127e+09 2.830963e+04 1.009368e+04 4.802134e+04
-3.175242e+09 -2.975391e+09 -3.135422e+09 2.629710e+04 1.239050e+04 5.393973e+04
-2.611552e+09 -2.411650e+09 -2.571677e+09 2.405939e+04 1.382714e+04 3.737131e+04
-3.225781e+09 -3.025930e+09 -3.185975e+09 5.320806e+04 1.811389e+04 6.062691e+04
-3.248402e+09 -3.048536e+09 -3.208575e+09 3.026643e+04 7.833532e+03 5.359552e+04
-2.702444e+09 -2.502567e+09 -2.662602e+09 3.780731e+04 1.822675e+04 5.536860e+04
-2.473239e+09 -2.273346e+09 -2.433380e+09 2.695815e+04 2.296598e+04 6.521684e+04
-2.839545e+09 -2.639666e+09 -2.799705e+09 3.587173e+04 1.956272e+04 5.638760e+04
-2.775988e+09 -2.577690e+09 -2.732323e+09 -8.122433e+05 -1.368044e+06 1.925278e+06
-3.170380e+09 -2.969065e+09 -3.123064e+09 -7.875245e+05 -2.372207e+06 1.063615e+06
-3.383744e+09 -3.184834e+09 -3.338979e+09 -8.019910e+05 -9.357871e+05 2.145822e+06
-1.587412e+09 -1.387384e+09 -1.547264e+09 9.151980e+03 -3.387691e+05 2.911174e+05
-2.740305e+09 -2.540345e+09 -2.700381e+09 1.807587e+04 6.215443e+03 1.235139e+04
-2.271223e+09 -2.071270e+09 -2.231295e+09 1.395864e+04 4.406306e+03 8.561877e+03
-1.924687e+09 -1.724728e+09 -1.884753e+09 1.354999e+04 5.484465e+03 9.824168e+03
-1.992333e+09 -1.792366e+09 -1.952393e+09 1.455666e+04 5.684341e+03 7.871909e+03
-1.804677e+09 -1.604717e+09 -1.764742e+09 1.577871e+04 7.418397e+03 1.585815e+04
-2.636695e+09 -2.436753e+09 -2.596784e+09 2.243890e+04 9.344779e+03 1.605426e+04
-3.320260e+09 -3.120431e+09 -3.280473e+09 -4.514358e+04 -1.760305e+04 5.599602e+04
-3.398541e+09 -3.198654e+09 -3.358685e+09 -2.289944e+04 -5.179039e+03 3.294911e+04
-2.130563e+09 -1.930663e+09 -2.090675e+09 -2.174888e+04 -1.726133e+04 5.444917e+04
-3.219136e+09 -3.019258e+09 -3.179286e+09 -2.523134e+04 -8.553725e+03 3.323348e+04
-2.630020e+09 -2.430128e+09 -2.590150e+09 -1.749189e+04 -1.335827e+04 3.854837e+04
-2.097416e+09 -1.896520e+09 -2.052101e+09 2.506288e+05 -2.275704e+06 -1.884352e+06
-2.640680e+09 -2.440821e+09 -2.600830e+09 -3.818496e+03 -1.291214e+03 7.488255e+04
-3.238888e+09 -3.039031e+09 -3.199059e+09 2.269176e+03 -2.485276e+03 3.577101e+04
-2.739107e+09 -2.539267e+09 -2.699273e+09 8.042951e+03 3.072346e+03 7.485272e+04
-1.975999e+09 -1.776015e+09 -1.936055e+09 2.509983e+04 1.732722e+04 1.862098e+04
-3.435282e+09 -3.235523e+09 -3.395549e+09 1.026685e+04 4.081648e+03 6.925695e+04
-2.572635e+09 -2.372642e+09 -2.532696e+09 2.062737e+04 1.398292e+04 1.361139e+04
-2.828728e+09 -2.628944e+09 -2.788951e+09 5.437228e+03 1.063640e+03 7.343290e+04
-2.733410e+09 -2.533634e+09 -2.693629e+09 -7.444013e+03 5.005910e+03 7.759532e+04
-2.831291e+09 -2.631424e+09 -2.791449e+09 -8.858985e+03 -4.004966e+03 5.004688e+04
-3.386936e+09 -3.187168e+09 -3.347196e+09 -7.537784e+03 -5.229723e+03 6.903081e+04
-3.589491e+09 -3.389967e+09 -3.540313e+09 -1.355050e+05 -1.727178e+05 2.238513e+06
-2.027882e+09 -1.826687e+09 -1.985204e+09 3.895875e+05 1.522504e+06 -4.229932e+04
-2.162639e+09 -1.961720e+09 -2.117742e+09 8.455075e+04 2.794622e+06 1.298897e+06
-1.798397e+09 -1.597700e+09 -1.757559e+09 8.716326e+04 1.650338e+06 7.516441e+05
-1.769816e+09 -1.570097e+09 -1.729335e+09 -1.658064e+05 5.004078e+06 1.334260e+06
-2.773378e+09 -2.572869e+09 -2.732737e+09 -2.990615e+05 3.614852e+04 1.719498e+04
-3.139985e+09 -2.939384e+09 -3.099451e+09 -2.229176e+05 -1.501217e+05 5.455366e+04
-2.385161e+09 -2.184781e+09 -2.344866e+09 -3.044328e+04 1.092284e+05 3.881961e+03
-2.610644e+09 -2.410649e+09 -2.570704e+09 2.997404e+04 1.297222e+04 1.848170e+04
-2.776534e+09 -2.575606e+09 -2.735730e+09 -1.462206e+05 -1.713192e+05 5.000101e+04
-2.590277e+09 -2.389590e+09 -2.549037e+09 -2.105398e+05 -4.099273e+05 2.138344e+03
-1.979900e+09 -1.779357e+09 -1.938596e+09 -1.266447e+05 -4.834297e+04 -1.034864e+05
-1.764714e+09 -1.564531e+09 -1.724028e+09 7.745342e+04 5.848646e+04 8.713848e+03
-1.810206e+09 -1.609998e+09 -1.770215e+09 -1.102378e+05 9.111243e+04 -3.097576e+04
-2.551659e+09 -2.351075e+09 -2.511161e+09 -1.089535e+05 2.398124e+04 -5.101030e+04
-3.161872e+09 -2.961273e+09 -3.121181e+09 -3.080655e+05 -1.304956e+05 1.132028e+05
-3.411800e+09 -3.211102e+09 -3.370923e+09 -3.354681e+05 1.179028e+04 7.772230e+04
-2.568563e+09 -2.367792e+09 -2.527841e+09 -1.954481e+04 -2.914475e+04 1.803507e+05
-2.738431e+09 -2.537827e+09 -2.698030e+09 -1.897405e+05 1.801025e+04 1.170806e+04
-3.237747e+09 -3.037870e+09 -3.197885e+09 5.563181e+03 2.634991e+03 3.027574e+04
-3.133917e+09 -2.934983e+09 -3.092410e+09 4.918884e+05 4.273459e+05 5.733443e+05
-2.596487e+09 -2.397996e+09 -2.553869e+09 7.568459e+04 -2.605046e+05 1.994227e+06
-1.790360e+09 -1.590801e+09 -1.749473e+09 4.808413e+04 9.262141e+04 6.198980e+05
-2.411698e+09 -2.212399e+09 -2.371144e+09 3.187100e+04 -1.875681e+05 6.705283e+05
-3.189943e+09 -2.991283e+09 -3.149087e+09 8.098624e+04 -1.163716e+05 7.587872e+05
-2.419264e+09 -2.220313e+09 -2.376735e+09 -8.284711e+04 -3.802231e+05 2.016563e+06
-3.367040e+09 -3.168315e+09 -3.325605e+09 4.236031e+05 3.378587e+05 7.336951e+05
-1.992285e+09 -1.793164e+09 -1.952386e+09 2.522600e+05 -6.886700e+04 1.124379e+06
-3.196979e+09 -2.997045e+09 -3.157103e+09 4.280381e+04 1.999139e+04 3.235777e+04
-1.781933e+09 -1.581969e+09 -1.741994e+09 1.476244e+04 1.132904e+04 1.431277e+04
-2.428174e+09 -2.228221e+09 -2.388257e+09 2.085722e+04 1.053173e+04 2.360102e+04
-2.448485e+09 -2.248539e+09 -2.408571e+09 2.284938e+04 1.215412e+04 2.403308e+04
-2.029368e+09 -1.829422e+09 -1.989449e+09 2.617437e+04 1.578998e+04 2.966674e+04
-1.823707e+09 -1.623749e+09 -1.783774e+09 1.926091e+04 1.368000e+04 2.647195e+04
-1.748111e+09 -1.547967e+09 -1.708147e+09 3.700860e+04 -1.646964e+05 -6.307249e+04
-2.423736e+09 -2.223752e+09 -2.383791e+09 1.741851e+04 1.047139e+04 9.823815e+03
-2.652714e+09 -2.452490e+09 -2.612697e+09 5.053464e+04 -1.249916e+05 -2.313311e+04
-2.062590e+09 -1.862399e+09 -2.022599e+09 7.270840e+04 -1.261225e+05 -7.709338e+04
-1.881688e+09 -1.681681e+09 -1.841733e+09 2.198683e+04 1.703608e+04 1.434110e+04
-2.285159e+09 -2.085033e+09 -2.245181e+09 6.216095e+04 -1.039967e+05 -5.954593e+04
-1.833127e+09 -1.633124e+09 -1.793113e+09 2.224293e+03 -9.975703e+04 -5.994666e+04
-2.186538e+09 -1.986438e+09 -2.146568e+09 5.635345e+04 -1.051820e+05 -5.685479e+04
-3.116706e+09 -2.916535e+09 -3.076740e+09 1.006654e+05 -1.114872e+05 -5.098736e+04
-1.720544e+09 -1.520584e+09 -1.680610e+09 1.095860e+04 5.049681e+03 7.817519e+03
-2.217863e+09 -2.017778e+09 -2.177888e+09 6.001005e+04 -1.188006e+05 -7.213252e+04
-2.390077e+09 -2.189945e+09 -2.348859e+09 3.184340e+05 6.436025e+05 5.104483e+05
-2.573251e+09 -2.372874e+09 -2.533046e+09 -5.136881e+04 -7.449285e+04 3.335697e+04
-2.458294e+09 -2.257802e+09 -2.418128e+09 -6.824386e+04 -8.062885e+04 -1.256823e+04
-2.325413e+09 -2.125192e+09 -2.285292e+09 9.792470e+02 -1.675139e+05 2.320287e+04
-2.960925e+09 -2.760418e+09 -2.920608e+09 -5.981684e+03 -1.645404e+04 3.740232e+04
-1.982943e+09 -1.782630e+09 -1.942887e+09 1.082074e+04 -1.854353e+05 -2.692142e+04
-2.154274e+09 -1.953863e+09 -2.114141e+09 2.671821e+04 -1.853857e+05 5.001556e+03
-1.800899e+09 -1.600971e+09 -1.760960e+09 -7.909291e+03 1.866808e+02 8.571336e+04
-1.934523e+09 -1.734637e+09 -1.894608e+09 -7.210156e+03 -4.272320e+03 1.026840e+05
-2.130586e+09 -1.930743e+09 -2.090741e+09 -8.032277e+03 -1.795105e+03 9.952745e+04
-2.085960e+09 -1.886083e+09 -2.046050e+09 -4.528024e+03 5.133044e+02 1.025502e+05
-3.086734e+09 -2.886633e+09 -3.046620e+09 -2.659551e+05 6.078778e+04 -9.046697e+02
-3.421048e+09 -3.221284e+09 -3.380973e+09 -4.420078e+05 3.838261e+03 6.861724e+03
-3.236163e+09 -3.036290e+09 -3.195960e+09 -3.810268e+05 -4.771698e+03 5.792148e+04
-2.687919e+09 -2.488403e+09 -2.647740e+09 -2.905840e+05 -7.109660e+04 1.894527e+05
-2.854405e+09 -2.654583e+09 -2.814328e+09 -4.329869e+05 -8.655420e+04 1.520916e+05
-3.069915e+09 -2.870315e+09 -3.030178e+09 -3.552691e+05 1.267297e+03 2.928103e+04
-3.146618e+09 -2.946886e+09 -3.106571e+09 -2.722766e+05 4.203811e+04 -3.596208e+04
-3.089310e+09 -2.890029e+09 -3.049656e+09 -3.654365e+05 -1.130996e+05 8.425462e+04
-2.569565e+09 -2.368851e+09 -2.529114e+09 1.717498e+05 6.989168e+04 1.325859e+04
-2.445543e+09 -2.245132e+09 -2.403836e+09 3.218059e+05 2.810548e+05 5.806370e+05
-1.947497e+09 -1.747193e+09 -1.907084e+09 5.203416e+04 4.394404e+04 1.081993e+05
-2.403161e+09 -2.202579e+09 -2.362865e+09 1.589583e+05 -1.053890e+05 1.676163e+04
-3.522512e+09 -3.322553e+09 -3.482587e+09 1.373796e+04 3.045625e+03 5.228303e+03
-2.566871e+09 -2.366537e+09 -2.526865e+09 -5.307722e+04 1.403300e+05 -2.679078e+04
-2.026792e+09 -1.826553e+09 -1.986716e+09 -2.890296e+04 1.890253e+05 -3.330478e+04
-2.655109e+09 -2.454793e+09 -2.615043e+09 -8.956441e+03 1.429234e+05 -1.218967e+04
-3.059931e+09 -2.859603e+09 -3.019933e+09 -2.902153e+04 9.567861e+04 -1.294004e+04
-2.420379e+09 -2.220135e+09 -2.380214e+09 -1.602076e+04 1.417221e+05 -3.054311e+04
-2.415307e+09 -2.215064e+09 -2.375258e+09 -4.578157e+03 9.749009e+04 8.994182e+03
-2.917074e+09 -2.717195e+09 -2.877217e+09 8.716053e+03 6.785882e+03 3.869683e+04
-2.665665e+09 -2.465802e+09 -2.625819e+09 2.023709e+04 9.688635e+03 4.717554e+04
-2.542543e+09 -2.342661e+09 -2.502672e+09 -1.754397e+02 1.645587e+03 3.718984e+04
-3.215824e+09 -3.015947e+09 -3.175971e+09 1.710201e+04 3.632313e+03 2.988394e+04
-2.127300e+09 -1.927409e+09 -2.087413e+09 1.614742e+04 4.438442e+03 4.946772e+04
-1.671739e+09 -1.471769e+09 -1.631797e+09 8.730933e+03 2.182148e+03 3.472848e+03
-1.786433e+09 -1.586344e+09 -1.746454e+09 -4.447903e+04 1.105423e+05 -3.304447e+04
-1.972689e+09 -1.772565e+09 -1.932684e+09 -2.078876e+04 1.227320e+05 -3.292589e+04
-1.670591e+09 -1.470635e+09 -1.630656e+09 1.060210e+04 3.505631e+03 7.714517e+03
-2.107568e+09 -1.907420e+09 -2.067568e+09 -1.948461e+04 9.152616e+04 -1.400705e+04
-2.031286e+09 -1.832182e+09 -1.991127e+09 -1.001375e+05 6.014670e+04 6.326897e+05
-2.590374e+09 -2.391304e+09 -2.550782e+09 4.584880e+04 1.980359e+04 1.289621e+05
-3.406269e+09 -3.207531e+09 -3.365542e+09 4.770124e+04 4.534198e+03 5.625506e+05
-2.378149e+09 -2.178877e+09 -2.337702e+09 1.077727e+05 3.242828e+05 6.053839e+05
-2.640976e+09 -2.441944e+09 -2.600315e+09 -7.175112e+04 -7.297909e+04 5.820894e+05
-2.810895e+09 -2.612470e+09 -2.769755e+09 -7.827474e+04 1.144918e+05 1.335672e+06
-2.380106e+09 -2.180671e+09 -2.339796e+09 1.340843e+05 7.795288e+04 3.938932e+05
-2.803494e+09 -2.604174e+09 -2.763679e+09 3.982151e+05 2.425012e+05 2.500053e+05
-3.391210e+09 -3.191293e+09 -3.351330e+09 3.046994e+04 7.184378e+03 2.573783e+04
-3.210307e+09 -3.010400e+09 -3.170458e+09 4.517034e+04 1.396963e+04 3.734004e+04
-1.990516e+09 -1.790658e+09 -1.950638e+09 -3.840014e+04 -2.231802e+03 9.355477e+04
-2.169992e+09 -1.970214e+09 -2.130194e+09 -8.786675e+03 -2.622616e+04 1.109903e+05
-1.979000e+09 -1.779222e+09 -1.939172e+09 1.376260e+04 3.333034e+04 1.523816e+05
-2.615740e+09 -2.415936e+09 -2.575909e+09 2.162351e+04 1.047990e+04 9.790429e+04
-2.426387e+09 -2.226567e+09 -2.386556e+09 3.000586e+04 7.006127e+03 1.091293e+05
-3.377855e+09 -3.177671e+09 -3.337905e+09 -4.582607e+04 6.513743e+04 -2.731236e+04
-3.374357e+09 -3.173976e+09 -3.334252e+09 -8.965678e+04 8.549590e+04 -2.135433e+04
-3.384427e+09 -3.184096e+09 -3.344440e+09 -8.542704e+04 1.044880e+05 -3.676641e+04
-3.330806e+09 -3.130542e+09 -3.290827e+09 -6.479262e+04 8.337792e+04 -1.196318e+04
-2.976649e+09 -2.776447e+09 -2.936660e+09 -3.300984e+04 1.194699e+05 -1.631182e+04
-1.588643e+09 -1.388785e+09 -1.546726e+09 -1.956873e+04 5.914294e+05 6.133543e+05
-3.189553e+09 -2.989410e+09 -3.149594e+09 3.652492e+04 -4.568612e+04 -3.468961e+04
-2.666928e+09 -2.466676e+09 -2.626957e+09 -3.956653e+04 1.003123e+05 -2.990318e+04
-3.344768e+09 -3.145036e+09 -3.305013e+09 -5.853011e+04 -1.694887e+04 9.206106e+04
-3.126608e+09 -2.926833e+09 -3.086861e+09 -6.125549e+04 -2.643042e+04 7.223263e+04
-2.476292e+09 -2.276412e+09 -2.436431e+09 -1.439090e+04 -1.024271e+04 5.447813e+04
-2.685536e+09 -2.485742e+09 -2.645736e+09 -1.902477e+04 -9.933228e+03 7.647273e+04
-2.134410e+09 -1.934552e+09 -2.094547e+09 -2.708634e+04 -1.993445e+04 8.910132e+04
-2.437060e+09 -2.237197e+09 -2.397212e+09 -2.249125e+04 -1.867273e+04 9.455568e+04
-1.698089e+09 -1.498030e+09 -1.658104e+09 -6.470348e+03 5.809785e+04 -2.750412e+04
-2.396450e+09 -2.196472e+09 -2.355918e+09 -2.550069e+05 -2.272514e+04 -7.642538e+04
-2.996977e+09 -2.797158e+09 -2.957202e+09 -2.518807e+05 -8.599086e+04 3.194699e+04
-2.945253e+09 -2.745614e+09 -2.905175e+09 -2.640498e+05 -2.707347e+04 -5.015413e+04
-1.801571e+09 -1.601508e+09 -1.761667e+09 -1.305918e+05 -6.333364e+04 1.001743e+05
-2.115083e+09 -1.915355e+09 -2.074839e+09 -1.966803e+05 -1.155270e+05 1.110272e+05
-3.588620e+09 -3.389799e+09 -3.548312e+09 2.665824e+05 9.042906e+04 9.108796e+04
-2.057250e+09 -1.857320e+09 -2.017218e+09 -1.718467e+05 -4.763955e+04 1.054934e+05
-1.855680e+09 -1.655835e+09 -1.815698e+09 -7.372015e+04 -7.189792e+03 1.844628e+05
-2.575816e+09 -2.375921e+09 -2.535935e+09 -1.317229e+04 -5.745455e+03 3.906141e+04
-2.808813e+09 -2.608941e+09 -2.768962e+09 -1.570239e+04 -9.847376e+03 4.819023e+04
-2.906252e+09 -2.706339e+09 -2.866356e+09 -8.393345e+03 -2.943086e+03 1.738420e+04
-1.939529e+09 -1.739609e+09 -1.899619e+09 -2.379606e+04 -1.944541e+04 6.284132e+04
-2.529134e+09 -2.329226e+09 -2.489247e+09 -1.392892e+04 -7.402593e+03 3.060509e+04
-3.021260e+09 -2.821369e+09 -2.981397e+09 -2.452426e+04 -1.132463e+04 3.497893e+04
-2.889995e+09 -2.690086e+09 -2.850113e+09 -1.726501e+04 -1.000892e+04 3.120921e+04
-2.340867e+09 -2.140911e+09 -2.300968e+09 4.693798e+04 4.830334e+04 6.514802e+04
-2.432048e+09 -2.232046e+09 -2.392112e+09 3.481657e+04 2.685471e+04 2.833719e+04
-2.032675e+09 -1.832673e+09 -1.992730e+09 3.465057e+04 2.806781e+04 2.572317e+04
-2.138776e+09 -1.938813e+09 -2.098841e+09 1.392786e+04 3.991107e+03 9.680091e+03
-2.423484e+09 -2.223473e+09 -2.383569e+09 6.296567e+04 6.619325e+04 6.817495e+04
-1.984138e+09 -1.784133e+09 -1.944195e+09 4.457267e+04 4.036358e+04 4.380389e+04
-1.778794e+09 -1.578800e+09 -1.738839e+09 2.366473e+04 3.814420e+04 3.874263e+04
-2.145233e+09 -1.945262e+09 -2.105318e+09 4.652406e+04 4.005476e+04 4.531739e+04
-3.414026e+09 -3.213983e+09 -3.374135e+09 9.424471e+04 4.542936e+04 4.812116e+04
-2.779019e+09 -2.579356e+09 -2.739317e+09 6.266429e+04 2.332177e+04 9.224038e+04
-2.668676e+09 -2.468971e+09 -2.628960e+09 8.162251e+04 1.733846e+04 1.155952e+05
-2.716184e+09 -2.516593e+09 -2.676476e+09 8.395025e+04 1.885943e+04 9.569886e+04
-2.628985e+09 -2.429361e+09 -2.589310e+09 1.353053e+04 2.210402e+03 1.682646e+05
-3.010515e+09 -2.810884e+09 -2.970697e+09 1.040747e+05 4.054643e+04 7.568377e+04
-3.315799e+09 -3.116319e+09 -3.276052e+09 1.339933e+05 2.384340e+04 1.042602e+05
-2.621726e+09 -2.421693e+09 -2.581779e+09 1.020606e+05 -1.354912e+05 -1.025967e+05
-2.743394e+09 -2.543284e+09 -2.703452e+09 1.694366e+05 -1.071454e+05 -6.645661e+04
-2.696595e+09 -2.496588e+09 -2.656684e+09 1.566197e+05 -1.069967e+05 -8.754050e+04
-3.172090e+09 -2.971974e+09 -3.132009e+09 2.874266e+05 -1.770519e+04 4.571008e+04
-3.602305e+09 -3.402296e+09 -3.562438e+09 9.344001e+04 4.358858e+04 4.282735e+04
-3.317823e+09 -3.117943e+09 -3.277974e+09 -3.259054e+04 -1.644309e+04 3.575454e+04
-3.435325e+09 -3.235473e+09 -3.395508e+09 -2.898045e+04 -1.679412e+04 4.182650e+04
-1.821144e+09 -1.621217e+09 -1.781226e+09 -1.629946e+04 -9.899414e+03 4.753777e+04
-2.570148e+09 -2.370267e+09 -2.530284e+09 -2.373813e+04 -1.169015e+04 5.161772e+04
-2.371791e+09 -2.171886e+09 -2.331903e+09 -1.549325e+04 -9.757575e+03 3.521868e+04
-1.987349e+09 -1.787441e+09 -1.947446e+09 -1.617612e+04 -9.514902e+03 3.925433e+04
-3.468130e+09 -3.268306e+09 -3.428333e+09 3.867318e+02 2.064320e+03 4.764451e+04
-2.652781e+09 -2.452891e+09 -2.612908e+09 4.577744e+02 3.224736e+03 3.772938e+04
-2.545092e+09 -2.345232e+09 -2.505248e+09 1.280288e+04 8.051619e+03 8.310650e+04
-2.929335e+09 -2.729462e+09 -2.889477e+09 1.177900e+04 6.195682e+03 3.890177e+04
-3.121103e+09 -2.921275e+09 -3.081311e+09 1.825074e+04 2.772838e+03 5.424614e+04
-3.459620e+09 -3.259808e+09 -3.419833e+09 1.129988e+04 1.594263e+03 5.114514e+04
-1.847741e+09 -1.647845e+09 -1.807850e+09 2.438183e+03 -4.341844e+02 4.649465e+04
-3.338901e+09 -3.139312e+09 -3.299285e+09 -6.488347e+04 -2.642652e+04 1.140886e+05
-3.387588e+09 -3.187795e+09 -3.347822e+09 -1.565898e+04 -1.101961e+04 6.445415e+04
-1.846352e+09 -1.646489e+09 -1.806503e+09 -1.341121e+04 -1.793365e+04 9.283358e+04
-1.892760e+09 -1.692845e+09 -1.852842e+09 -2.460957e+04 -2.591680e+04 9.657605e+04
-3.188666e+09 -2.988903e+09 -3.148913e+09 -6.131210e+04 -1.466025e+04 9.048461e+04
-3.400832e+09 -3.200819e+09 -3.358653e+09 7.708917e+05 8.517168e+05 6.768665e+05
-2.607479e+09 -2.407429e+09 -2.567106e+09 4.595701e+05 2.601618e+05 3.224068e+05
-2.724235e+09 -2.523969e+09 -2.683780e+09 2.506051e+05 -2.789829e+04 -1.842689e+04
-2.851567e+09 -2.651229e+09 -2.811274e+09 3.816709e+05 2.000571e+05 3.455767e+04
-2.426835e+09 -2.226655e+09 -2.386066e+09 2.867576e+05 4.698726e+04 2.012894e+05
-3.281245e+09 -3.081234e+09 -3.240979e+09 3.471758e+05 -3.426840e+04 -2.689200e+04
-2.493634e+09 -2.293628e+09 -2.453312e+09 2.187421e+05 -1.341613e+05 2.006477e+04
-2.982786e+09 -2.783439e+09 -2.942796e+09 -1.809193e+05 -2.632099e+04 8.645677e+04
-2.506912e+09 -2.307193e+09 -2.466505e+09 -2.456928e+05 2.573155e+04 2.416232e+05
-2.737597e+09 -2.538304e+09 -2.697533e+09 -2.416345e+05 -1.363150e+04 2.081621e+05
-1.841194e+09 -1.641422e+09 -1.800987e+09 -1.709282e+05 -1.053374e+05 1.337850e+05
-2.185170e+09 -1.985830e+09 -2.145520e+09 -1.209716e+05 -1.638468e+05 -7.221184e+04
-1.877164e+09 -1.677478e+09 -1.836731e+09 -7.231639e+04 3.332768e+04 1.831215e+05
-1.742953e+09 -1.543106e+09 -1.703209e+09 1.445135e+05 4.110909e+04 1.537649e+05
-3.103012e+09 -2.903883e+09 -3.063282e+09 -3.349988e+05 1.027070e+04 2.014544e+05
-2.984165e+09 -2.784695e+09 -2.944421e+09 -1.785302e+04 1.002730e+04 1.169944e+05
-2.579783e+09 -2.380250e+09 -2.539979e+09 1.006851e+05 5.777556e+04 1.474204e+05
-2.539136e+09 -2.339664e+09 -2.498904e+09 7.400037e+04 1.088759e+05 1.188225e+05
-2.146458e+09 -1.946863e+09 -2.106675e+09 1.241578e+05 -2.253608e+03 1.452976e+05
-2.075699e+09 -1.875991e+09 -2.035587e+09 1.429345e+05 -3.153035e+04 1.268151e+05
-1.828926e+09 -1.629133e+09 -1.788836e+09 1.018173e+04 4.305652e+04 6.303567e+04
-1.785094e+09 -1.585246e+09 -1.742705e+09 3.167946e+05 6.204642e+05 1.342178e+06
-2.376115e+09 -2.176995e+09 -2.334874e+09 2.527606e+05 1.848008e+05 1.298702e+06
-2.361168e+09 -2.161446e+09 -2.319911e+09 4.078482e+05 2.117347e+05 6.724279e+05
-2.573634e+09 -2.373787e+09 -2.530512e+09 7.631377e+05 1.540032e+06 1.473248e+06
-1.993999e+09 -1.794291e+09 -1.952923e+09 4.097804e+05 2.588227e+05 5.525834e+05
-2.792517e+09 -2.593127e+09 -2.749449e+09 1.031805e+06 7.981854e+05 1.553242e+06
-2.391640e+09 -2.191749e+09 -2.349072e+09 7.501055e+05 8.674420e+05 1.596430e+06
-1.786372e+09 -1.587123e+09 -1.742163e+09 3.418858e+05 3.047864e+06 2.905596e+06
-2.542432e+09 -2.343578e+09 -2.500533e+09 4.944251e+05 4.492172e+05 1.361475e+06
-2.141092e+09 -1.940961e+09 -2.101091e+09 -4.110908e+04 -7.940687e+04 2.595940e+04
-3.242253e+09 -3.041924e+09 -3.202259e+09 -3.532532e+04 -1.074114e+05 1.828456e+04
-2.036157e+09 -1.835928e+09 -1.996164e+09 -2.492771e+04 -1.339429e+05 2.616552e+04
-3.589805e+09 -3.389547e+09 -3.549816e+09 -8.994781e+04 -1.063964e+05 2.369345e+04
-2.540471e+09 -2.340299e+09 -2.500485e+09 -4.869487e+04 -1.452845e+05 5.210552e+04
-1.855458e+09 -1.655318e+09 -1.815431e+09 3.613680e+04 -1.173811e+05 3.465764e+04
-2.000238e+09 -1.800101e+09 -1.960207e+09 2.328944e+04 -1.157798e+05 2.260220e+04
-3.179645e+09 -2.979744e+09 -3.139760e+09 -1.518101e+03 -5.904788e+03 1.876387e+04
-2.971214e+09 -2.771322e+09 -2.931343e+09 -9.168517e+03 -3.979825e+03 2.586654e+04
-3.296068e+09 -3.095881e+09 -3.256110e+09 -4.692803e+04 6.378047e+04 -7.341820e+03
-1.952189e+09 -1.752286e+09 -1.912291e+09 -1.100794e+04 -6.762522e+03 3.990347e+04
-2.585898e+09 -2.386006e+09 -2.546018e+09 -5.926673e+03 -5.017249e+03 3.996752e+04
-1.753683e+09 -1.553760e+09 -1.713765e+09 -1.016494e+03 -2.773871e+03 3.401919e+04
-1.785961e+09 -1.586057e+09 -1.746062e+09 -9.042166e+03 -7.847594e+03 4.127308e+04
-2.406981e+09 -2.207086e+09 -2.367097e+09 -9.406078e+03 -6.213402e+03 3.954772e+04
-2.233637e+09 -2.033100e+09 -2.193290e+09 -8.080162e+04 -1.929015e+04 2.556404e+03
-2.429814e+09 -2.229476e+09 -2.389633e+09 6.723374e+02 -1.746074e+05 1.387141e+04
-2.686365e+09 -2.485980e+09 -2.646312e+09 -3.109194e+04 -1.212395e+05 -4.008753e+03
-2.708302e+09 -2.507735e+09 -2.667972e+09 -8.467816e+04 -1.530787e+05 5.577464e+04
-3.274015e+09 -3.073410e+09 -3.233574e+09 -5.700561e+04 -4.218138e+04 -1.682050e+04
-3.254795e+09 -3.054202e+09 -3.214642e+09 -1.455540e+03 -1.178647e+05 -8.569977e+03
-3.372976e+09 -3.172687e+09 -3.332797e+09 -2.190921e+05 -3.206608e+04 3.840808e+04
-2.370295e+09 -2.169938e+09 -2.330165e+09 -1.377211e+05 -1.399541e+05 2.364266e+04
-2.185045e+09 -1.984655e+09 -2.144914e+09 -8.626461e+04 -9.527515e+04 4.138243e+04
-1.697708e+09 -1.497787e+09 -1.657794e+09 1.609687e+03 4.053073e+02 2.006215e+04
-2.564541e+09 -2.364436e+09 -2.524525e+09 -2.142962e+05 -1.069430e+05 8.712424e+04
-3.563805e+09 -3.363834e+09 -3.523974e+09 -1.241940e+05 -4.471981e+04 4.758254e+04
-2.746726e+09 -2.546247e+09 -2.706410e+09 -2.153022e+05 -6.116229e+04 3.546080e+04
-2.419103e+09 -2.219177e+09 -2.379223e+09 3.548367e+04 2.696807e+04 5.780220e+04
-2.616648e+09 -2.416747e+09 -2.576795e+09 5.430834e+04 2.544476e+04 6.772285e+04
-2.808721e+09 -2.608840e+09 -2.768878e+09 5.719538e+04 2.893744e+04 7.035693e+04
-2.666565e+09 -2.466709e+09 -2.626749e+09 8.783009e+04 3.381399e+04 7.703308e+04
-3.411772e+09 -3.211922e+09 -3.371998e+09 1.003880e+05 2.298112e+04 6.838337e+04
-2.816935e+09 -2.617118e+09 -2.777147e+09 6.598095e+04 2.934176e+04 7.510811e+04
-3.411775e+09 -3.211981e+09 -3.372026e+09 7.186716e+04 2.944158e+04 6.561792e+04
-2.686358e+09 -2.486507e+09 -2.646543e+09 8.927688e+04 4.234673e+04 7.448087e+04
-3.408594e+09 -3.208752e+09 -3.368810e+09 7.572126e+04 3.891759e+04 6.557270e+04
-3.067811e+09 -2.868131e+09 -3.027924e+09 1.963091e+05 1.060334e+04 9.183696e+04
-2.783620e+09 -2.583844e+09 -2.743740e+09 3.489296e+05 5.231725e+04 3.549062e+04
-2.677001e+09 -2.477066e+09 -2.637115e+09 4.304265e+04 2.423122e+04 3.713457e+04
-2.537573e+09 -2.337647e+09 -2.497699e+09 5.402660e+04 4.199098e+04 5.227927e+04
-2.732436e+09 -2.532522e+09 -2.692585e+09 8.343427e+04 3.343358e+04 5.536685e+04
-1.574439e+09 -1.374464e+09 -1.534490e+09 2.350418e+04 3.293302e+04 4.697047e+04
-2.834722e+09 -2.634833e+09 -2.794867e+09 4.491109e+04 2.070763e+04 5.386528e+04
-2.801999e+09 -2.602065e+09 -2.762112e+09 4.321299e+04 2.444827e+04 3.690776e+04
-3.157014e+09 -2.957084e+09 -3.117154e+09 6.791245e+04 3.323067e+04 5.320502e+04
-2.238353e+09 -2.038154e+09 -2.198335e+09 4.200335e+04 -1.273593e+05 -4.462222e+04
-3.114920e+09 -2.914412e+09 -3.074790e+09 1.213541e+05 -1.554694e+05 -3.337270e+04
-1.913772e+09 -1.713627e+09 -1.873501e+09 -1.084528e+04 -1.654199e+05 -1.469454e+04
-1.966017e+09 -1.765907e+09 -1.925993e+09 1.129866e+03 -8.601835e+04 4.207150e+04
-2.156280e+09 -1.955945e+09 -2.116224e+09 4.259569e+04 -1.351360e+05 -3.655371e+04
-3.382791e+09 -3.182275e+09 -3.342550e+09 1.662378e+05 -3.216582e+04 1.107320e+04
-2.953989e+09 -2.753556e+09 -2.913756e+09 -9.443355e+04 9.093550e+04 -3.900401e+04
-3.362649e+09 -3.162063e+09 -3.322040e+09 -3.213695e+05 -1.226573e+05 7.608871e+04
-3.005822e+09 -2.805260e+09 -2.965622e+09 -1.611735e+05 6.148248e+04 6.553448e+03
-2.150190e+09 -1.949786e+09 -2.109969e+09 -2.077648e+05 -9.750362e+03 -3.945006e+04
-2.609740e+09 -2.409438e+09 -2.569684e+09 2.673069e+04 9.952511e+04 1.273765e+04
-2.357951e+09 -2.157780e+09 -2.317943e+09 2.044849e+04 1.287213e+05 1.696167e+04
-1.772739e+09 -1.572630e+09 -1.732711e+09 -2.921478e+04 1.118067e+05 1.400013e+04
-2.866218e+09 -2.666069e+09 -2.826249e+09 2.047098e+04 5.774018e+04 1.140250e+04
-2.115854e+09 -1.915938e+09 -2.075951e+09 -1.894779e+04 -1.402492e+04 2.992331e+04
-2.424186e+09 -2.224283e+09 -2.384298e+09 -1.102169e+04 -8.163887e+03 3.095423e+04
-2.650172e+09 -2.450279e+09 -2.610288e+09 -5.265061e+03 -4.344520e+03 3.457877e+04
-3.196770e+09 -2.996863e+09 -3.156880e+09 -6.732643e+03 -6.207262e+03 1.657804e+04
-2.336633e+09 -2.136731e+09 -2.296748e+09 -1.128884e+04 -8.032448e+03 3.570360e+04
-1.813367e+09 -1.613446e+09 -1.773447e+09 -7.544749e+03 -5.996605e+03 5.249807e+04
-1.839432e+09 -1.639544e+09 -1.799553e+09 -1.345441e+04 -1.384573e+04 6.415908e+04
-2.164574e+09 -1.964590e+09 -2.124648e+09 4.422137e+04 3.995078e+04 5.203094e+04
-1.799979e+09 -1.599988e+09 -1.760058e+09 5.686406e+04 6.022901e+04 6.202370e+04
-2.056833e+09 -1.856828e+09 -2.016884e+09 4.156487e+04 4.261554e+04 3.215938e+04
-3.584040e+09 -3.384094e+09 -3.544206e+09 -1.402901e+05 -5.970154e+04 7.793258e+04
-2.806555e+09 -2.606594e+09 -2.766638e+09 -3.313336e+04 -1.424170e+04 2.029602e+04
-2.580120e+09 -2.380154e+09 -2.540200e+09 -2.975344e+04 -1.729208e+04 2.555540e+04
-2.708595e+09 -2.508612e+09 -2.668683e+09 -4.115178e+04 -3.704760e+04 3.654731e+04
-2.443063e+09 -2.243139e+09 -2.403188e+09 -4.664214e+04 -4.378829e+04 6.816573e+04
-2.974108e+09 -2.774172e+09 -2.934227e+09 -4.196394e+04 -2.128968e+04 3.403028e+04
-3.003158e+09 -2.803222e+09 -2.963266e+09 -3.365877e+04 -1.314408e+04 2.290735e+04
-1.903647e+09 -1.703788e+09 -1.863795e+09 -5.997604e+03 -6.057211e+03 1.021750e+05
-3.394483e+09 -3.194910e+09 -3.354872e+09 1.678740e+04 7.346343e+03 1.169342e+05
-2.048798e+09 -1.849032e+09 -2.008983e+09 -5.805396e+04 -4.664900e+04 1.382494e+05
-3.404972e+09 -3.205427e+09 -3.365279e+09 -4.662394e+04 -4.462812e+03 8.697641e+04
-3.318732e+09 -3.119058e+09 -3.279003e+09 -1.866615e+04 -6.852509e+03 7.498442e+04
-1.975987e+09 -1.776008e+09 -1.936042e+09 9.733892e+03 2.856986e+03 3.733121e+03
-1.697506e+09 -1.497482e+09 -1.657542e+09 -1.728874e+04 -4.416663e+04 3.442749e+04
-2.377345e+09 -2.177257e+09 -2.337391e+09 -4.865640e+04 1.134919e+05 -5.982309e+04
-2.173953e+09 -1.973855e+09 -2.133971e+09 -2.224661e+04 7.094099e+04 -3.066733e+04
-2.093690e+09 -1.893624e+09 -2.053736e+09 -4.905651e+04 8.975388e+04 -5.283216e+04
-3.590318e+09 -3.390308e+09 -3.550420e+09 7.213621e+04 2.937103e+04 3.225202e+04
-3.356929e+09 -3.156994e+09 -3.317095e+09 -1.059530e+05 -5.747811e+04 6.171431e+04
-1.803055e+09 -1.603014e+09 -1.763137e+09 7.160926e+04 1.047744e+05 5.497305e+04
-1.785646e+09 -1.585600e+09 -1.745634e+09 2.998818e+04 1.374578e+05 6.527188e+04
-3.604953e+09 -3.404939e+09 -3.565047e+09 6.056086e+04 1.888383e+04 1.785268e+04
-2.513836e+09 -2.313746e+09 -2.473876e+09 4.764088e+04 7.227711e+04 2.913522e+04
-2.359794e+09 -2.159695e+09 -2.319819e+09 3.775060e+04 7.338272e+04 2.923651e+04
-2.530336e+09 -2.330195e+09 -2.490382e+09 6.186274e+04 8.625514e+04 3.288136e+04
-1.963998e+09 -1.763905e+09 -1.924008e+09 3.482679e+04 1.012802e+05 4.578409e+04
-2.547881e+09 -2.347734e+09 -2.507920e+09 7.462255e+04 1.184062e+05 5.679110e+04
-2.770557e+09 -2.570401e+09 -2.730613e+09 9.430979e+04 1.202872e+05 6.662759e+04
-3.048869e+09 -2.848681e+09 -3.008896e+09 1.036635e+05 -7.896398e+04 -2.993171e+04
-1.870296e+09 -1.670312e+09 -1.830330e+09 -2.606247e+04 -3.794856e+04 8.833703e+04
-1.599252e+09 -1.399288e+09 -1.559312e+09 1.917904e+04 1.615579e+04 2.672130e+04
-3.068050e+09 -2.868094e+09 -3.028159e+09 -4.403352e+04 -2.414189e+04 3.391657e+04
-1.880759e+09 -1.680824e+09 -1.840859e+09 -3.468629e+04 -3.502120e+04 5.689729e+04
-2.789465e+09 -2.589535e+09 -2.749581e+09 -3.036833e+04 -1.994542e+04 3.116131e+04
-1.975343e+09 -1.775419e+09 -1.935437e+09 -2.134508e+04 -2.066435e+04 3.683876e+04
-3.263334e+09 -3.063361e+09 -3.223498e+09 1.684980e+05 -7.250093e+04 -3.502494e+04
-1.698555e+09 -1.498599e+09 -1.658610e+09 -1.781331e+04 -3.768558e+04 8.687487e+04
-1.848010e+09 -1.648058e+09 -1.808085e+09 -2.452829e+04 -2.263985e+04 3.957206e+04
-2.188800e+09 -1.988871e+09 -2.148897e+09 -2.903221e+04 -1.900386e+04 3.636111e+04
-2.924087e+09 -2.723118e+09 -2.883085e+09 1.143109e+05 2.377373e+05 1.697117e+04
-2.644645e+09 -2.444072e+09 -2.603750e+09 3.691535e+05 2.259438e+05 1.337787e+05
-2.168276e+09 -1.967529e+09 -2.127764e+09 9.738556e+04 1.681966e+02 1.883591e+05
-2.935919e+09 -2.735918e+09 -2.895993e+09 -3.026912e+04 -2.351173e+04 2.335429e+04
-1.606520e+09 -1.406571e+09 -1.566582e+09 1.668219e+04 3.072700e+04 8.832487e+04
-2.784540e+09 -2.583105e+09 -2.740776e+09 -1.068106e+06 -2.134787e+06 1.099716e+06
-2.226306e+09 -2.025173e+09 -2.180322e+09 -2.007133e+05 -1.748298e+06 1.703719e+06
-2.649588e+09 -2.449306e+09 -2.607280e+09 -5.523246e+05 -7.760749e+05 6.850317e+05
-2.764719e+09 -2.565245e+09 -2.721008e+09 -9.584604e+05 -1.205233e+06 1.885175e+06
-2.454454e+09 -2.254072e+09 -2.412235e+09 -4.573899e+05 -7.374421e+05 8.043354e+05
-1.795389e+09 -1.594846e+09 -1.754505e+09 -1.062564e+05 -3.937502e+05 4.921491e+05
-2.370162e+09 -2.170013e+09 -2.324218e+09 -3.124474e+05 -2.733508e+06 4.074773e+06
-2.062531e+09 -1.862385e+09 -2.021664e+09 -3.905915e+05 -5.135089e+05 5.287663e+05
-3.034647e+09 -2.834698e+09 -2.994724e+09 -1.163501e+04 -4.016523e+03 7.355252e+03
-3.573206e+09 -3.373262e+09 -3.533317e+09 -4.603636e+04 -1.688516e+04 2.424104e+04
-2.185038e+09 -1.985288e+09 -2.145277e+09 1.130378e+05 2.622332e+04 1.655551e+05
-1.936272e+09 -1.736389e+09 -1.896362e+09 1.163623e+05 7.830976e+04 1.323830e+05
-2.576161e+09 -2.376427e+09 -2.536362e+09 1.361953e+05 5.160549e+04 1.274924e+05
-3.200739e+09 -3.000844e+09 -3.160880e+09 2.235659e+04 6.742280e+03 3.465821e+04
-1.867455e+09 -1.667552e+09 -1.827524e+09 5.264578e+04 4.605549e+04 1.375744e+05
-3.072418e+09 -2.872608e+09 -3.032647e+09 1.383300e+05 6.633554e+04 7.230785e+04
-1.757982e+09 -1.558048e+09 -1.718018e+09 3.803255e+04 7.694868e+04 1.379650e+05
-2.657604e+09 -2.457767e+09 -2.617810e+09 1.469671e+05 5.930584e+04 1.108853e+05
-3.568364e+09 -3.368388e+09 -3.528430e+09 2.000523e+04 5.591027e+03 5.656987e+03
-1.876906e+09 -1.677002e+09 -1.836984e+09 5.261797e+04 5.687209e+04 1.214710e+05
-2.561183e+09 -2.361363e+09 -2.521323e+09 1.215725e+05 9.709095e+04 1.587384e+05
-3.329050e+09 -3.129624e+09 -3.279408e+09 3.808208e+05 -2.206087e+06 -2.733695e+06
-3.033466e+09 -2.835071e+09 -2.987342e+09 2.494927e+05 -8.997944e+05 -2.262422e+06
-3.348950e+09 -3.148430e+09 -3.302432e+09 7.256915e+05 -1.995592e+06 -1.349056e+06
-3.061224e+09 -2.860274e+09 -3.013205e+09 1.013757e+06 -2.301817e+06 -1.924219e+06
-3.491821e+09 -3.291706e+09 -3.451905e+09 6.163271e+04 -6.338645e+04 -3.333500e+04
-2.397050e+09 -2.196766e+09 -2.342606e+09 -3.044423e+05 -2.158815e+06 -3.563833e+06
-2.526863e+09 -2.326064e+09 -2.474356e+09 -1.036925e+04 2.632977e+06 -1.166137e+06
-2.195864e+09 -1.996308e+09 -2.149869e+09 7.908312e+05 -2.350924e+06 -6.212293e+06
-2.263846e+09 -2.062004e+09 -2.217684e+09 1.309587e+05 -2.313389e+06 3.506183e+04
-2.637169e+09 -2.436567e+09 -2.583132e+09 -4.142393e+05 -3.530573e+06 -1.294813e+06
-3.497929e+09 -3.298678e+09 -3.458365e+09 -2.003244e+05 1.945071e+04 -2.960192e+03
-1.696479e+09 -1.496568e+09 -1.656413e+09 1.226280e+03 3.518191e+04 1.312617e+05
-3.589430e+09 -3.389233e+09 -3.533950e+09 -3.052585e+05 -1.347041e+06 4.204142e+05
-2.711613e+09 -2.511665e+09 -2.671695e+09 1.729636e+04 6.562603e+03 1.470057e+04
-2.492533e+09 -2.292583e+09 -2.452613e+09 1.760573e+04 8.519617e+03 1.509111e+04
-1.802728e+09 -1.602791e+09 -1.762808e+09 1.371928e+04 5.997024e+03 1.504126e+04
-3.595314e+09 -3.395343e+09 -3.555400e+09 3.312958e+04 1.103176e+04 1.448628e+04
-3.589419e+09 -3.389865e+09 -3.549819e+09 -2.167973e+04 -9.267110e+03 1.177343e+05
-2.073116e+09 -1.873163e+09 -2.033187e+09 1.708717e+04 6.472004e+03 1.125983e+04
-2.802356e+09 -2.602397e+09 -2.762433e+09 2.160326e+04 6.948962e+03 1.383748e+04
-3.204168e+09 -3.004182e+09 -3.164250e+09 2.997815e+04 2.130792e+04 1.979069e+04
-2.749399e+09 -2.549436e+09 -2.709464e+09 1.475926e+04 4.582187e+03 6.601624e+03
-2.208535e+09 -2.008718e+09 -2.168704e+09 1.901859e+04 -4.008751e+02 1.044967e+05
-3.405280e+09 -3.205325e+09 -3.365363e+09 2.134855e+04 7.490473e+03 8.834062e+03
-1.603382e+09 -1.403361e+09 -1.563413e+09 1.752394e+04 7.209791e+04 5.899450e+04
-2.230480e+09 -2.030837e+09 -2.190232e+09 2.714549e+05 -5.686408e+04 1.730133e+05
-1.600535e+09 -1.400577e+09 -1.560144e+09 3.092979e+04 -7.913638e+04 1.471909e+05
-2.774981e+09 -2.576158e+09 -2.732771e+09 6.615874e+05 7.667015e+05 1.462109e+06
-1.583852e+09 -1.383899e+09 -1.543918e+09 2.132160e+04 3.031537e+04 6.132471e+04
-3.150209e+09 -2.951065e+09 -3.108311e+09 5.986187e+05 5.081751e+05 1.122874e+06
-3.136258e+09 -2.936733e+09 -3.096290e+09 3.776915e+05 9.532944e+04 1.802626e+05
-2.561154e+09 -2.361182e+09 -2.519379e+09 5.296272e+05 3.718526e+05 7.003479e+05
-1.588811e+09 -1.388794e+09 -1.548800e+09 1.441787e+04 1.408164e+05 1.259606e+05
-3.360314e+09 -3.159745e+09 -3.320056e+09 2.084010e+05 6.635150e+04 5.987080e+04
-2.780437e+09 -2.580003e+09 -2.740308e+09 1.189015e+05 1.533211e+05 3.812137e+04
-3.292569e+09 -3.092652e+09 -3.252673e+09 1.662459e+04 2.543914e+03 1.334987e+04
-3.602919e+09 -3.402996e+09 -3.563038e+09 3.606242e+04 1.130650e+04 1.957440e+04
-2.820537e+09 -2.619763e+09 -2.778057e+09 -6.506226e+05 -7.092372e+05 8.817087e+05
-2.829424e+09 -2.628857e+09 -2.788622e+09 5.140831e+04 2.667324e+05 1.271375e+05
-2.760397e+09 -2.559936e+09 -2.720212e+09 1.564762e+05 3.557111e+04 4.396630e+04
-2.061583e+09 -1.861698e+09 -2.021705e+09 9.150238e+04 6.879333e+04 1.102428e+05
-1.574873e+09 -1.374841e+09 -1.534869e+09 8.035325e+03 1.727648e+05 3.812604e+04
-2.594861e+09 -2.394674e+09 -2.554889e+09 -2.840416e+04 1.130801e+05 -2.686007e+04
-2.120051e+09 -1.920211e+09 -2.080217e+09 1.563989e+05 4.780305e+04 1.709759e+05
-2.633999e+09 -2.434156e+09 -2.594196e+09 1.175302e+05 7.317789e+04 1.110359e+05
-1.975530e+09 -1.775562e+09 -1.935620e+09 7.217116e+04 7.207102e+04 9.121660e+04
-1.790847e+09 -1.590883e+09 -1.750900e+09 3.819824e+04 6.939931e+04 6.954702e+04
-3.381910e+09 -3.181934e+09 -3.342127e+09 1.898487e+05 7.528553e+04 7.916253e+04
-3.036086e+09 -2.836124e+09 -2.996194e+09 5.385428e+04 2.598430e+04 3.397875e+04
-1.890631e+09 -1.690684e+09 -1.850798e+09 1.382876e+05 1.160615e+05 1.020921e+05
-2.137382e+09 -1.937303e+09 -2.097397e+09 2.772283e+04 5.002201e+04 1.670059e+04
-3.405459e+09 -3.205402e+09 -3.365555e+09 1.261172e+05 6.050491e+04 5.471655e+04
-3.387091e+09 -3.187134e+09 -3.347260e+09 1.310437e+05 6.357030e+04 5.992476e+04
-1.869508e+09 -1.669381e+09 -1.829526e+09 -2.733494e+04 -9.524597e+04 4.760085e+04
-2.435241e+09 -2.235629e+09 -2.393594e+09 6.497959e+05 -1.060498e+06 -1.558390e+06
-2.570341e+09 -2.370425e+09 -2.530441e+09 8.911805e+03 5.457245e+03 2.135222e+04
-2.220770e+09 -2.021469e+09 -2.179885e+09 6.476500e+05 -1.000045e+06 -1.010876e+06
-2.624533e+09 -2.426385e+09 -2.581463e+09 6.810234e+05 -1.477970e+06 -2.373837e+06
-3.427236e+09 -3.227290e+09 -3.387335e+09 -2.417728e+04 -8.501185e+03 1.705331e+04
-3.339165e+09 -3.140439e+09 -3.296962e+09 5.649898e+05 -2.777975e+05 -1.636014e+06
-2.425921e+09 -2.227352e+09 -2.384975e+09 1.968617e+05 3.596098e+04 -1.404524e+06
-2.491467e+09 -2.292619e+09 -2.450463e+09 1.643707e+05 -2.177369e+05 -1.593610e+06
-3.140575e+09 -2.941816e+09 -3.098482e+09 3.957842e+05 -3.481860e+05 -1.578156e+06
-2.978758e+09 -2.778797e+09 -2.938835e+09 -1.432096e+04 -6.161689e+03 8.355162e+03
-2.346789e+09 -2.146637e+09 -2.306807e+09 -6.178830e+04 -1.156289e+05 4.555038e+04
-3.481595e+09 -3.281637e+09 -3.441669e+09 -1.209460e+04 -3.034448e+03 5.062781e+03
-2.720949e+09 -2.520993e+09 -2.681022e+09 -1.542301e+04 -4.955235e+03 9.735809e+03
-2.618704e+09 -2.418748e+09 -2.578778e+09 -1.188920e+04 -5.546083e+03 8.554324e+03
-2.779655e+09 -2.578984e+09 -2.738663e+09 -4.237553e+05 -3.842812e+05 2.752219e+05
-1.871293e+09 -1.671191e+09 -1.831323e+09 -3.444411e+04 -7.733165e+04 4.873605e+04
-2.494354e+09 -2.294395e+09 -2.454429e+09 -1.428761e+04 -6.527772e+03 1.199103e+04
-2.192561e+09 -1.992604e+09 -2.152629e+09 -1.110131e+04 -5.116511e+03 7.011380e+03
-3.302793e+09 -3.103459e+09 -3.263045e+09 1.660230e+05 -3.056862e+04 5.188089e+04
-1.944260e+09 -1.744575e+09 -1.904158e+09 -8.972532e+04 -6.400449e+04 7.887472e+04
-3.298278e+09 -3.098629e+09 -3.258490e+09 2.168110e+05 2.744876e+04 8.390671e+04
-3.178370e+09 -2.976557e+09 -3.136052e+09 2.593122e+05 1.562865e+06 6.373087e+05
-1.889890e+09 -1.690026e+09 -1.849951e+09 5.688296e+04 4.617797e+04 1.365299e+05
-2.179143e+09 -1.979430e+09 -2.139399e+09 9.389754e+04 7.220067e+04 1.378807e+05
-3.117258e+09 -2.917661e+09 -3.076661e+09 3.967651e+05 9.046211e+03 -1.379835e+05
-2.062910e+09 -1.863304e+09 -2.022729e+09 1.235607e+05 6.543191e+04 1.274047e+05
-3.606206e+09 -3.406046e+09 -3.566291e+09 2.387945e+05 -1.076182e+05 -8.358272e+04
-1.587904e+09 -1.387942e+09 -1.547970e+09 -1.072643e+04 -9.038377e+03 1.195681e+04
-1.969674e+09 -1.769864e+09 -1.929777e+09 1.139256e+05 3.845386e+04 1.218090e+05
-2.153611e+09 -1.953663e+09 -2.113719e+09 5.966140e+04 5.179283e+04 9.034891e+04
-3.482226e+09 -3.282038e+09 -3.442279e+09 -9.145655e+04 -8.075000e+04 3.390264e+04
-3.216498e+09 -3.016634e+09 -3.176697e+09 7.212942e+04 2.671432e+04 5.724841e+04
-1.782238e+09 -1.582290e+09 -1.742327e+09 4.196026e+04 4.352408e+04 8.612700e+04
-2.585645e+09 -2.385658e+09 -2.545742e+09 6.307271e+04 5.296882e+04 4.315700e+04
-3.611948e+09 -3.411080e+09 -3.571399e+09 -1.715326e+05 -4.941906e+04 9.827652e+03
-2.683520e+09 -2.483561e+09 -2.643608e+09 3.292155e+04 1.365307e+04 2.861019e+04
-1.698190e+09 -1.498177e+09 -1.658230e+09 -1.632632e+04 -3.188514e+04 2.813796e+04
-3.222846e+09 -3.022901e+09 -3.182926e+09 -1.215523e+04 -2.539249e+03 9.667413e+03
-2.598133e+09 -2.398194e+09 -2.558257e+09 5.751066e+04 3.387918e+04 6.612282e+04
-2.556077e+09 -2.356198e+09 -2.516229e+09 5.954780e+04 4.219277e+04 6.744286e+04
-1.595538e+09 -1.395511e+09 -1.555555e+09 -1.072422e+04 -1.010089e+05 6.847091e+04
-3.363512e+09 -3.163624e+09 -3.323687e+09 8.721964e+04 4.085685e+04 6.594109e+04
-2.455566e+09 -2.255656e+09 -2.415675e+09 -1.718407e+04 -6.354476e+03 3.212564e+04
-3.008117e+09 -2.808201e+09 -2.968239e+09 -2.282132e+04 -8.166850e+03 3.014196e+04
-2.197961e+09 -1.998035e+09 -2.158054e+09 -2.364545e+04 -1.066404e+04 2.856280e+04
-3.583964e+09 -3.384040e+09 -3.544189e+09 -1.787162e+05 -5.876933e+04 6.813745e+04
-1.997603e+09 -1.797644e+09 -1.957673e+09 -2.287612e+04 -1.084015e+04 4.333152e+04
-1.673917e+09 -1.473886e+09 -1.633947e+09 -1.981260e+04 -5.683034e+04 3.756641e+04
-2.593683e+09 -2.393761e+09 -2.553785e+09 -1.573569e+04 -8.683671e+03 2.305641e+04
-2.709945e+09 -2.510015e+09 -2.670043e+09 -1.865296e+04 -8.167732e+03 2.275674e+04
-2.183780e+09 -1.983852e+09 -2.143866e+09 -1.461573e+04 -5.059810e+03 2.055099e+04
-2.499189e+09 -2.299262e+09 -2.459286e+09 -1.979195e+04 -9.418090e+03 2.302902e+04
-3.608014e+09 -3.409244e+09 -3.567359e+09 -2.892910e+04 5.410623e+04 6.532928e+05
-1.915633e+09 -1.715260e+09 -1.875627e+09 2.027640e+05 7.915628e+04 5.714784e+03
-2.310744e+09 -2.110813e+09 -2.270827e+09 -1.150664e+04 -3.081464e+03 1.064214e+04
-3.596744e+09 -3.397308e+09 -3.556380e+09 5.683822e+05 5.101880e+04 2.968426e+05
-3.301409e+09 -3.101485e+09 -3.261512e+09 -1.967703e+04 -4.358949e+03 1.856044e+04
-2.174385e+09 -1.974100e+09 -2.134258e+09 1.167155e+04 2.146023e+05 -1.699295e+04
-2.421279e+09 -2.221074e+09 -2.381247e+09 -1.397896e+03 1.022220e+05 3.055653e+02
-2.562449e+09 -2.362848e+09 -2.520536e+09 6.444544e+05 9.446773e+05 7.979755e+05
-1.814991e+09 -1.614873e+09 -1.774886e+09 -2.424291e+04 1.719898e+05 1.079625e+03
-1.818946e+09 -1.618783e+09 -1.778898e+09 -6.456474e+04 1.675138e+05 1.899571e+03
-2.015096e+09 -1.814869e+09 -1.975060e+09 2.995745e+04 1.026408e+05 2.791814e+03
-2.574422e+09 -2.373485e+09 -2.532920e+09 -2.569530e+05 6.150640e+05 -5.677401e+04
-1.581098e+09 -1.380946e+09 -1.537472e+09 3.013078e+05 -2.663312e+06 2.383410e+06
-2.538415e+09 -2.337344e+09 -2.495754e+09 -4.120519e+05 1.418959e+06 -6.973387e+05
-2.725735e+09 -2.523879e+09 -2.682574e+09 -5.530774e+04 1.045070e+06 -2.494231e+05
-2.912246e+09 -2.712225e+09 -2.872323e+09 -3.866007e+04 -3.298191e+04 2.795521e+04
-3.615641e+09 -3.416126e+09 -3.573643e+09 -7.466840e+05 -3.924234e+05 6.913580e+05
-2.952630e+09 -2.751741e+09 -2.910301e+09 -4.357612e+05 5.956749e+05 -2.848299e+05
-3.580207e+09 -3.379620e+09 -3.539897e+09 -3.070997e+05 -5.096727e+04 2.371704e+04
-1.580851e+09 -1.380849e+09 -1.540734e+09 -6.475322e+03 -1.527440e+05 1.240467e+05
-3.037995e+09 -2.837340e+09 -2.997108e+09 -1.950075e+05 1.471192e+05 3.615206e+04
-3.606967e+09 -3.407102e+09 -3.567129e+09 5.203248e+03 2.204773e+03 3.241481e+04
-2.635768e+09 -2.434420e+09 -2.593576e+09 1.732467e+05 1.268607e+06 4.740542e+05
-2.670749e+09 -2.470051e+09 -2.629450e+09 -9.452046e+04 4.180051e+05 -1.200953e+05
-1.696533e+09 -1.496664e+09 -1.656506e+09 -1.247908e+04 -3.910894e+04 1.027715e+05
-3.368228e+09 -3.168218e+09 -3.328387e+09 2.146116e+05 -1.032419e+05 -1.001462e+05
-3.608343e+09 -3.409692e+09 -3.567352e+09 -2.878112e+05 -2.565104e+05 5.158022e+05
-2.233721e+09 -2.033641e+09 -2.193743e+09 5.878569e+04 -1.153349e+05 -7.389431e+04
-3.498802e+09 -3.299410e+09 -3.459195e+09 -2.582226e+05 5.445596e+04 -3.233417e+04
-2.969119e+09 -2.768997e+09 -2.929238e+09 1.157084e+05 -7.605635e+04 -4.859697e+04
-2.043322e+09 -1.843257e+09 -2.003378e+09 5.144702e+04 -9.447823e+04 -4.640028e+04
-2.695613e+09 -2.495535e+09 -2.655644e+09 1.120581e+05 -1.158837e+05 -1.048963e+05
-1.848883e+09 -1.648815e+09 -1.808938e+09 4.857105e+04 -1.056920e+05 -7.639833e+04
-3.216295e+09 -3.016174e+09 -3.176408e+09 1.191089e+05 -7.825565e+04 -4.634523e+04
-3.619205e+09 -3.419377e+09 -3.579397e+09 2.513480e+04 8.802222e+03 4.266862e+04
-1.601645e+09 -1.401702e+09 -1.561715e+09 1.323531e+04 2.029314e+04 5.473498e+04
-1.918128e+09 -1.718129e+09 -1.878129e+09 1.869147e+04 -8.876474e+04 -6.612575e+04
-2.210533e+09 -2.010484e+09 -2.170593e+09 7.585527e+04 -9.177614e+04 -6.923068e+04
-2.563769e+09 -2.363426e+09 -2.523685e+09 5.938638e+04 1.430806e+05 1.568257e+03
-2.116169e+09 -1.915834e+09 -2.076003e+09 -9.959799e+03 4.078415e+04 -4.477578e+04
-2.026721e+09 -1.826517e+09 -1.986676e+09 -3.317666e+03 1.105934e+05 -7.763893e+03
-3.274915e+09 -3.075028e+09 -3.235046e+09 -9.237252e+03 -1.873964e+03 2.589685e+04
-1.594058e+09 -1.394097e+09 -1.554127e+09 1.961427e+04 2.309053e+04 4.037339e+04
-3.223132e+09 -3.023263e+09 -3.183316e+09 5.031872e+04 2.448583e+04 5.628884e+04
-2.724561e+09 -2.524080e+09 -2.684421e+09 8.813134e+04 1.463146e+05 2.636601e+04
-2.369927e+09 -2.169701e+09 -2.329801e+09 -3.723108e+04 1.385790e+05 1.012910e+02
-3.058606e+09 -2.858273e+09 -3.018576e+09 -4.722424e+04 9.694747e+04 -1.037929e+04
-3.122697e+09 -2.921946e+09 -3.082030e+09 4.350410e+03 -2.355966e+04 6.974145e+04
-3.271144e+09 -3.071486e+09 -3.229922e+09 -7.199538e+05 2.477707e+05 -5.911670e+05
-3.177709e+09 -2.977279e+09 -3.137486e+09 -1.764815e+05 -3.434167e+04 1.160053e+04
-2.727717e+09 -2.527120e+09 -2.687570e+09 9.986108e+04 7.514337e+04 4.767019e+02
-3.335852e+09 -3.135126e+09 -3.295424e+09 -5.811823e+04 2.591585e+04 -1.703535e+04
-3.514439e+09 -3.313317e+09 -3.473591e+09 -2.045832e+04 1.818794e+05 9.734374e+03
-2.972762e+09 -2.772888e+09 -2.932956e+09 1.619440e+05 -7.252377e+04 -5.734428e+04
-3.093650e+09 -2.893811e+09 -3.053850e+09 9.653864e+04 6.197596e+04 9.218809e+04
-3.592181e+09 -3.391185e+09 -3.550406e+09 5.421718e+05 3.365043e+05 6.303263e+04
-3.237563e+09 -3.037301e+09 -3.197537e+09 -5.846128e+04 -9.062924e+04 1.825442e+04
-2.454100e+09 -2.254247e+09 -2.414268e+09 6.672120e+04 4.197649e+04 1.027197e+05
-1.981196e+09 -1.781309e+09 -1.941328e+09 4.890875e+04 2.782792e+04 9.500037e+04
-1.766459e+09 -1.566522e+09 -1.726521e+09 2.908073e+04 5.525781e+04 9.473390e+04
-1.940105e+09 -1.739957e+09 -1.900101e+09 1.498756e+04 -8.799666e+04 -2.194346e+04
-2.014570e+09 -1.814419e+09 -1.974130e+09 2.979644e+05 -4.422235e+04 1.514549e+04
-1.799842e+09 -1.599917e+09 -1.759927e+09 3.034713e+04 3.595246e+04 8.682206e+04
-2.153388e+09 -1.953477e+09 -2.113483e+09 -6.690834e+03 -4.390370e+03 2.585704e+04
-1.969246e+09 -1.769347e+09 -1.929353e+09 -6.095279e+03 -4.116769e+03 4.343985e+04
-3.379472e+09 -3.179597e+09 -3.339622e+09 -1.645894e+04 -7.752241e+03 2.848438e+04
-2.357578e+09 -2.157680e+09 -2.317697e+09 -6.299470e+03 -1.912496e+03 3.811488e+04
-1.759008e+09 -1.558962e+09 -1.718955e+09 -1.327392e+04 -1.190830e+05 4.802816e+04
-3.168955e+09 -2.968967e+09 -3.128926e+09 -3.466529e+05 1.446397e+05 -6.214576e+04
-1.589056e+09 -1.389024e+09 -1.548990e+09 -4.998070e+03 -1.050046e+05 2.943056e+04
-2.251649e+09 -2.051517e+09 -2.211664e+09 -5.134650e+04 -6.930022e+04 3.638269e+04
-2.250336e+09 -2.050217e+09 -2.210364e+09 -6.770203e+04 -1.175722e+05 5.088343e+04
-2.852321e+09 -2.652189e+09 -2.812372e+09 -5.140967e+04 -6.556277e+04 3.413185e+04
-3.390729e+09 -3.190488e+09 -3.350793e+09 -1.202803e+05 -9.222828e+04 5.554974e+04
-1.748557e+09 -1.548465e+09 -1.708402e+09 -2.911853e+04 -1.332572e+05 1.992744e+04
-2.360542e+09 -2.160370e+09 -2.320502e+09 -6.247750e+04 -1.031330e+05 1.762960e+04
-3.568013e+09 -3.367543e+09 -3.527938e+09 -1.644291e+05 -1.173138e+05 4.789420e+04
-3.162772e+09 -2.962526e+09 -3.122777e+09 -1.212611e+05 -1.020942e+05 4.218647e+04
-2.911550e+09 -2.711300e+09 -2.871387e+09 -2.236747e+05 1.667147e+04 -2.851797e+04
-2.968836e+09 -2.768686e+09 -2.928715e+09 -2.286877e+05 7.074705e+04 -1.177786e+04
-2.233168e+09 -2.032949e+09 -2.193035e+09 -1.237114e+05 1.625958e+05 -8.037970e+04
-1.831242e+09 -1.631085e+09 -1.791194e+09 -6.889360e+04 1.327584e+05 -6.340828e+04
-3.571217e+09 -3.370983e+09 -3.531277e+09 -1.270708e+05 -9.679782e+04 5.853951e+04
-1.579267e+09 -1.379244e+09 -1.539186e+09 -1.025686e+04 -1.250557e+05 5.636373e+04
-2.983176e+09 -2.783006e+09 -2.943203e+09 -9.674887e+04 1.001460e+05 -5.429677e+04
-1.979995e+09 -1.779904e+09 -1.940000e+09 -7.611727e+04 -1.284379e+05 8.200291e+04
-2.207854e+09 -2.007802e+09 -2.167753e+09 -1.249881e+05 -1.222283e+05 1.373484e+05
-3.268535e+09 -3.068340e+09 -3.228555e+09 -2.359176e+05 1.136576e+05 -4.501554e+04
-3.471966e+09 -3.272074e+09 -3.431988e+09 3.790292e+05 -5.136602e+03 -6.846555e+04
-1.569748e+09 -1.369698e+09 -1.529769e+09 -3.516684e+03 -1.607275e+05 4.355181e+04
-3.104569e+09 -2.904285e+09 -3.064155e+09 3.060995e+05 1.698169e+04 6.223784e+04
-3.217866e+09 -3.017771e+09 -3.177066e+09 4.716859e+05 6.116395e+04 1.198986e+05
-1.611273e+09 -1.411259e+09 -1.571283e+09 -1.468339e+04 -1.036500e+05 9.540393e+04
-2.826864e+09 -2.626766e+09 -2.785932e+09 4.719155e+05 3.346609e+04 3.494465e+04
-2.875562e+09 -2.675751e+09 -2.835559e+09 4.112828e+05 9.382922e+04 2.647564e+04
-2.640478e+09 -2.440423e+09 -2.600230e+09 3.956317e+05 2.234828e+05 3.125156e+04
-1.598785e+09 -1.398801e+09 -1.558764e+09 -4.039511e+03 1.046514e+05 -1.049956e+05
-3.279422e+09 -3.079340e+09 -3.239510e+09 -2.307074e+05 7.087779e+04 -4.791730e+04
-3.068091e+09 -2.868048e+09 -3.028224e+09 -1.787243e+05 7.338685e+04 -5.293626e+04
-1.590204e+09 -1.390212e+09 -1.550249e+09 -1.736994e+04 -3.866320e+04 4.398287e+04
-2.669776e+09 -2.469628e+09 -2.629832e+09 -1.705006e+05 -7.141435e+04 9.148570e+04
-1.595692e+09 -1.395721e+09 -1.555727e+09 -1.596499e+04 -6.321069e+04 1.049696e+05
-2.201419e+09 -2.001373e+09 -2.161475e+09 -5.805020e+04 -7.463672e+04 4.739803e+04
-1.698555e+09 -1.498591e+09 -1.658607e+09 -1.670821e+04 -4.258885e+04 8.844488e+04
-1.776732e+09 -1.576740e+09 -1.736771e+09 -3.596554e+04 1.224561e+05 -8.601898e+04
-2.794810e+09 -2.594817e+09 -2.754874e+09 -1.281513e+05 8.778011e+04 -1.141071e+05
-1.909122e+09 -1.709078e+09 -1.869238e+09 -1.094501e+05 1.005715e+05 -8.594741e+04
-3.214101e+09 -3.014052e+09 -3.174221e+09 -1.086100e+05 -6.263962e+04 4.788369e+04
-2.645466e+09 -2.445378e+09 -2.605585e+09 -1.523987e+05 1.194065e+05 -7.552940e+04
-2.889129e+09 -2.689128e+09 -2.849156e+09 -1.741202e+05 1.004960e+05 -1.039269e+05
-1.851480e+09 -1.651464e+09 -1.811477e+09 -3.839908e+04 1.025134e+05 -8.051837e+04
-3.023746e+09 -2.823825e+09 -2.983858e+09 3.535302e+04 1.317091e+04 2.836471e+04
-2.798354e+09 -2.598440e+09 -2.758469e+09 2.613752e+04 1.219274e+04 3.298696e+04
-1.601211e+09 -1.401228e+09 -1.561221e+09 -1.672376e+04 -6.093967e+04 1.184778e+05
-1.804810e+09 -1.604877e+09 -1.764894e+09 2.114085e+04 1.758992e+04 3.746750e+04
-2.787895e+09 -2.587971e+09 -2.747991e+09 1.995851e+04 7.681367e+03 1.988717e+04
-1.549151e+09 -1.349181e+09 -1.509223e+09 -3.305462e+02 -2.000091e+05 7.546982e+04
-2.560707e+09 -2.360677e+09 -2.520784e+09 -5.518749e+04 -5.641174e+04 5.060451e+04
-2.023324e+09 -1.823271e+09 -1.983360e+09 1.280984e+05 1.480887e+05 1.089580e+05
-1.589049e+09 -1.389023e+09 -1.548985e+09 -5.024966e+03 -1.308336e+05 7.723349e+04
-2.683945e+09 -2.484021e+09 -2.644044e+09 1.788740e+04 6.983426e+03 2.267416e+04
-3.589785e+09 -3.389459e+09 -3.549817e+09 -1.254516e+05 -1.136301e+05 4.766734e+04
-1.595553e+09 -1.395522e+09 -1.555560e+09 -3.676100e+03 -9.017843e+04 4.744227e+04
-1.982428e+09 -1.782505e+09 -1.942518e+09 1.903202e+04 1.146214e+04 2.682717e+04
-1.938595e+09 -1.738333e+09 -1.898564e+09 8.943540e+04 -1.173554e+05 -6.361302e+04
-1.601646e+09 -1.401701e+09 -1.561715e+09 1.423370e+04 2.093701e+04 5.459223e+04
-3.215343e+09 -3.015439e+09 -3.175473e+09 2.935800e+04 9.598726e+03 2.895355e+04
-1.594074e+09 -1.394077e+09 -1.554084e+09 -1.559762e+04 -1.070510e+05 1.193185e+05
-3.385491e+09 -3.185605e+09 -3.345636e+09 1.868633e+04 9.393207e+03 2.498919e+04
-1.580842e+09 -1.380873e+09 -1.540807e+09 -1.539984e+04 2.886544e+04 -5.808549e+04
-3.408497e+09 -3.208598e+09 -3.368632e+09 2.810458e+04 6.468489e+03 2.923225e+04
-2.809750e+09 -2.609849e+09 -2.769869e+09 3.666463e+03 2.196817e+03 2.561757e+04
-3.634655e+09 -3.434968e+09 -3.594989e+09 -1.043150e+05 -2.523657e+04 7.682929e+04
-1.630432e+09 -1.430431e+09 -1.590347e+09 -9.545663e+03 -3.036667e+04 1.200870e+05
-3.470258e+09 -3.270371e+09 -3.430383e+09 3.549328e+03 2.136485e+03 2.081355e+04
-2.435531e+09 -2.235624e+09 -2.395643e+09 1.648094e+04 7.820365e+03 3.439915e+04
-3.610523e+09 -3.410390e+09 -3.570619e+09 -1.264675e+05 -7.247723e+04 5.017365e+04
-2.094875e+09 -1.894970e+09 -2.054975e+09 1.221400e+04 4.375254e+03 2.919188e+04
-3.047988e+09 -2.848037e+09 -3.008079e+09 -2.241934e+04 -8.181664e+03 1.725124e+04
-3.084876e+09 -2.884930e+09 -3.044964e+09 -2.430465e+04 -1.221933e+04 1.415151e+04
-3.080372e+09 -2.880627e+09 -3.040656e+09 -8.608192e+04 -4.546016e+04 1.159206e+05
-3.202372e+09 -3.002374e+09 -3.162488e+09 -7.261099e+04 -4.920001e+04 4.871862e+04
-3.579585e+09 -3.379637e+09 -3.539689e+09 -3.768497e+04 -1.265844e+04 1.770939e+04
-2.687974e+09 -2.488024e+09 -2.648052e+09 -1.550549e+04 -7.945683e+03 1.206374e+04
-2.059661e+09 -1.859706e+09 -2.019733e+09 -1.885959e+04 -9.740795e+03 1.688577e+04
-3.634728e+09 -3.434987e+09 -3.595006e+09 -7.922704e+04 -2.215114e+04 9.078336e+04
-1.791679e+09 -1.591723e+09 -1.751746e+09 -1.050863e+04 -8.160471e+03 1.136195e+04
-1.876224e+09 -1.676036e+09 -1.836212e+09 -6.900475e+04 -1.568343e+05 8.502612e+04
-1.879172e+09 -1.679211e+09 -1.839237e+09 -1.260784e+04 -6.442318e+03 9.070359e+03
-1.676426e+09 -1.476485e+09 -1.636492e+09 -1.021109e+04 -3.058786e+04 9.317061e+04
-1.601186e+09 -1.401221e+09 -1.561177e+09 -1.612778e+04 -8.112101e+04 8.932604e+04
-2.461852e+09 -2.261998e+09 -2.422003e+09 2.637980e+04 1.867006e+04 1.144214e+05
-3.156496e+09 -2.956698e+09 -3.116729e+09 3.231501e+04 1.566929e+04 6.470241e+04
-3.152380e+09 -2.952917e+09 -3.112258e+09 -2.493419e+05 2.023186e+04 4.254147e+04
-2.012896e+09 -1.813555e+09 -1.972811e+09 -1.516449e+03 -1.213405e+05 4.475118e+05
-1.595314e+09 -1.395341e+09 -1.553763e+09 -2.544964e+04 -2.967886e+04 1.000930e+06
-1.684411e+09 -1.484507e+09 -1.644337e+09 3.599933e+04 -1.722094e+04 -7.223128e+04
-2.428469e+09 -2.228588e+09 -2.388610e+09 3.194743e+04 2.633339e+04 9.295499e+04
-2.782446e+09 -2.582647e+09 -2.742664e+09 2.741110e+04 1.370074e+04 8.137725e+04
-2.254180e+09 -2.054506e+09 -2.214421e+09 -1.933088e+05 1.672069e+05 -1.033599e+05
-3.185780e+09 -2.985935e+09 -3.145962e+09 3.475414e+04 9.988322e+03 5.535725e+04
-2.844985e+09 -2.645129e+09 -2.805151e+09 2.722920e+04 1.907663e+04 5.206553e+04
-3.200385e+09 -3.000621e+09 -3.160637e+09 5.630925e+04 3.296919e+04 7.995489e+04
-2.058649e+09 -1.858744e+09 -2.018759e+09 2.480791e+04 1.445005e+04 5.384983e+04
-3.391550e+09 -3.191778e+09 -3.351804e+09 8.310925e+04 2.639665e+04 8.189675e+04
-2.500421e+09 -2.300148e+09 -2.460192e+09 2.940795e+05 -1.907072e+05 -3.356900e+04
-3.188999e+09 -2.989219e+09 -3.149235e+09 7.319577e+04 2.123281e+04 8.816715e+04
-3.046944e+09 -2.847110e+09 -3.006670e+09 -3.475101e+05 1.047223e+04 2.582936e+04
-1.577433e+09 -1.377552e+09 -1.537471e+09 -1.496757e+04 -6.881639e+04 -1.451803e+05
-3.360492e+09 -3.160560e+09 -3.320360e+09 -4.221010e+05 -4.293423e+04 -7.344683e+04
-3.242519e+09 -3.042684e+09 -3.201739e+09 -4.839989e+05 2.379098e+05 -7.027706e+04
-2.454134e+09 -2.253957e+09 -2.413643e+09 -2.755102e+05 2.236906e+04 7.731795e+03
-2.238564e+09 -2.037707e+09 -2.197610e+09 -1.246484e+05 2.750290e+05 -1.146191e+05
-3.604291e+09 -3.404362e+09 -3.564391e+09 1.929693e+04 3.773878e+03 1.318659e+04
-3.105952e+09 -2.905749e+09 -3.065411e+09 -3.405001e+05 7.505434e+04 -9.440526e+03
-2.529874e+09 -2.329815e+09 -2.486005e+09 -9.276812e+05 1.778690e+06 -8.117453e+05
-3.335052e+09 -3.134309e+09 -3.294120e+09 -2.133878e+05 1.371216e+05 -2.406325e+04
-2.654854e+09 -2.454216e+09 -2.614452e+09 -1.120253e+05 1.762291e+05 5.552147e+04
-2.171323e+09 -1.971147e+09 -2.131264e+09 -1.303139e+05 -1.263829e+05 5.054051e+03
-3.177297e+09 -2.977320e+09 -3.137357e+09 1.177776e+04 2.859676e+03 2.583572e+03
-2.035855e+09 -1.835909e+09 -1.995931e+09 2.316301e+04 1.109542e+04 1.837403e+04
-3.400709e+09 -3.200064e+09 -3.360462e+09 -2.123887e+05 -9.408512e+04 3.877206e+04
-3.312340e+09 -3.111886e+09 -3.271809e+09 -3.098846e+05 2.279789e+04 2.134781e+04
-2.081086e+09 -1.880646e+09 -2.040847e+09 -2.206010e+04 -1.670467e+05 4.521424e+04
-2.805557e+09 -2.605077e+09 -2.765295e+09 -9.505494e+04 -1.814496e+05 8.266392e+04
-2.018463e+09 -1.818438e+09 -1.978526e+09 -4.727562e+04 -5.320725e+04 3.635448e+04
-2.743406e+09 -2.543412e+09 -2.703510e+09 -5.728570e+04 -5.612219e+04 4.912902e+04
-2.794463e+09 -2.594458e+09 -2.754573e+09 -8.839803e+04 -5.290125e+04 4.792040e+04
-1.689101e+09 -1.489127e+09 -1.649159e+09 8.848253e+03 3.331791e+03 3.213568e+03
-3.411325e+09 -3.211337e+09 -3.371465e+09 -9.893124e+04 -6.245396e+04 4.685317e+04
-3.340420e+09 -3.140460e+09 -3.300493e+09 1.402966e+04 5.028148e+03 4.649516e+03
-2.850239e+09 -2.650205e+09 -2.810333e+09 -9.342032e+04 -7.586447e+04 5.911905e+04
-3.234658e+09 -3.034626e+09 -3.194773e+09 -9.310115e+04 -6.871057e+04 5.666958e+04
-2.175090e+09 -1.975069e+09 -2.135151e+09 1.782958e+05 1.026931e+05 1.095137e+05
-3.179214e+09 -2.979410e+09 -3.139071e+09 3.471097e+05 1.645711e+04 8.578412e+03
-1.578068e+09 -1.378127e+09 -1.538144e+09 1.153302e+04 6.663053e+03 2.361423e+04
-3.275054e+09 -3.075163e+09 -3.235280e+09 2.588350e+05 7.383465e+04 1.069130e+05
-3.170719e+09 -2.971191e+09 -3.130941e+09 2.265776e+05 5.376398e+04 9.165362e+04
-1.599244e+09 -1.399286e+09 -1.559312e+09 1.681786e+04 1.569582e+04 2.478070e+04
-2.544502e+09 -2.344790e+09 -2.504697e+09 1.763058e+05 5.423381e+04 3.156806e+04
-2.216768e+09 -2.016805e+09 -2.176834e+09 1.244448e+04 3.689228e+03 5.537219e+03
-1.566343e+09 -1.366369e+09 -1.526219e+09 -1.096237e+04 -1.224063e+04 1.627488e+05
-3.426874e+09 -3.227254e+09 -3.386910e+09 3.416423e+05 -3.768034e+04 7.661993e+04
-2.694319e+09 -2.494583e+09 -2.654537e+09 2.754577e+05 3.206961e+04 5.133939e+04
-1.600528e+09 -1.400572e+09 -1.560595e+09 1.332664e+04 7.134543e+03 1.805989e+04
-3.315793e+09 -3.115829e+09 -3.275881e+09 3.723051e+05 6.724416e+04 4.627339e+04
-3.366487e+09 -3.166649e+09 -3.326322e+09 3.936962e+05 1.303721e+03 -2.702447e+04
-2.651950e+09 -2.451268e+09 -2.611438e+09 -1.993746e+05 1.569043e+05 2.995386e+04
-1.688584e+09 -1.488629e+09 -1.648570e+09 -8.743376e+03 -2.488165e+04 1.616571e+05
-3.556667e+09 -3.357546e+09 -3.516847e+09 -1.014254e+04 -4.736787e+03 -1.470880e+03
-3.046816e+09 -2.846272e+09 -3.006160e+09 -2.360393e+05 1.969502e+05 -1.797809e+05
-2.413135e+09 -2.213377e+09 -2.358438e+09 2.020138e+05 -1.796258e+06 4.683144e+06
-2.751506e+09 -2.551889e+09 -2.711854e+09 -4.896315e+04 -2.128850e+04 1.178337e+05
-1.574234e+09 -1.374246e+09 -1.534185e+09 9.564456e+03 1.022417e+05 1.234161e+05
-2.934420e+09 -2.734697e+09 -2.894688e+09 -3.598176e+04 -1.198422e+04 8.577951e+04
-3.429020e+09 -3.229628e+09 -3.389497e+09 -1.199370e+03 9.206472e+03 1.327128e+05
-2.492386e+09 -2.292214e+09 -2.452398e+09 7.652898e+03 1.052503e+05 6.676497e+03
-1.579576e+09 -1.379553e+09 -1.539568e+09 4.609616e+03 -1.603448e+05 -2.567260e+04
-2.437644e+09 -2.237757e+09 -2.397810e+09 8.981442e+04 4.469611e+04 9.658748e+04
-1.565263e+09 -1.365309e+09 -1.525249e+09 -2.798348e+03 3.377715e+03 1.982805e+05
-2.169511e+09 -1.970042e+09 -2.129732e+09 -1.283105e+05 -5.241796e+04 8.368835e+04
-2.500085e+09 -2.300630e+09 -2.459979e+09 8.054888e+04 -1.209940e+04 2.255148e+04
-3.158055e+09 -2.957901e+09 -3.118108e+09 -7.489797e+04 8.250224e+04 -3.301810e+04
-2.532918e+09 -2.332785e+09 -2.492933e+09 -4.137046e+04 9.933110e+04 -5.399934e+04
-2.090486e+09 -1.890285e+09 -2.050497e+09 -9.199376e+04 1.423631e+05 -9.073734e+04
-1.578501e+09 -1.378390e+09 -1.532590e+09 -1.342517e+05 -2.814025e+06 -1.809333e+06
-2.572255e+09 -2.372084e+09 -2.532280e+09 -9.223901e+04 9.119380e+04 -4.295490e+04
-3.295451e+09 -3.095184e+09 -3.255412e+09 -2.194437e+05 1.067147e+05 -7.620292e+04
-3.008513e+09 -2.808438e+09 -2.968607e+09 -7.379598e+04 1.056903e+05 -7.513806e+04
-2.474180e+09 -2.274051e+09 -2.434261e+09 -8.614457e+04 9.447237e+04 -4.825840e+04
-2.174740e+09 -1.974589e+09 -2.134731e+09 -6.553432e+04 1.365900e+05 -8.337293e+04
-3.586691e+09 -3.386583e+09 -3.544907e+09 6.939514e+05 -3.406265e+05 -4.827030e+05
-2.776493e+09 -2.577045e+09 -2.736497e+09 -3.907629e+04 -7.475434e+04 4.865102e+02
-3.606030e+09 -3.405415e+09 -3.561166e+09 -1.002985e+06 1.234845e+06 -8.113635e+05
-3.147940e+09 -2.948479e+09 -3.107986e+09 -3.258703e+05 -5.335662e+04 5.343089e+04
-1.736854e+09 -1.536888e+09 -1.696579e+09 -5.498438e+04 1.803772e+04 -4.611477e+04
-1.581383e+09 -1.381312e+09 -1.541123e+09 2.681380e+04 -2.177187e+05 -2.614294e+05
-2.734492e+09 -2.534105e+09 -2.694060e+09 2.510360e+05 5.874896e+04 8.319915e+04
-2.956387e+09 -2.755792e+09 -2.915398e+09 1.685689e+05 -2.188138e+05 -1.126033e+05
-3.579851e+09 -3.379426e+09 -3.539750e+09 9.859163e+04 1.477984e+05 2.097726e+04
-1.623181e+09 -1.423247e+09 -1.582537e+09 -2.369889e+03 -1.166479e+05 1.971374e+05
-2.511527e+09 -2.310945e+09 -2.471188e+09 1.139295e+05 1.636000e+04 -7.964471e+03
-1.885003e+09 -1.684831e+09 -1.844712e+09 2.516424e+05 -3.359630e+05 -7.669145e+04
-2.321454e+09 -2.121127e+09 -2.281043e+09 1.146617e+05 8.961265e+04 7.736509e+04
-1.606268e+09 -1.406246e+09 -1.566282e+09 9.119708e+03 1.393588e+05 9.758571e+04
-2.667428e+09 -2.467522e+09 -2.627542e+09 1.675795e+04 4.630411e+03 2.939878e+04
-1.566141e+09 -1.366087e+09 -1.526153e+09 1.298843e+04 6.444230e+04 2.486442e+04
-2.004755e+09 -1.804837e+09 -1.964848e+09 1.527337e+04 8.546246e+03 3.190900e+04
-1.805895e+09 -1.605959e+09 -1.765974e+09 1.354805e+04 6.810085e+03 2.522373e+04
-1.590073e+09 -1.390018e+09 -1.550075e+09 5.639679e+03 1.234411e+05 3.504070e+04
-3.594499e+09 -3.394259e+09 -3.554535e+09 6.885727e+04 6.738755e+04 2.369681e+04
-3.603874e+09 -3.404056e+09 -3.564115e+09 9.455762e+04 3.367940e+04 7.664002e+04
-2.861134e+09 -2.661142e+09 -2.821189e+09 1.573008e+04 7.526702e+03 7.554044e+03
-2.860615e+09 -2.660715e+09 -2.820731e+09 1.020444e+04 4.419404e+03 2.696450e+04
-1.922972e+09 -1.723051e+09 -1.883059e+09 2.025524e+03 4.797053e+03 1.978130e+04
-1.698361e+09 -1.498290e+09 -1.658365e+09 2.650501e+03 6.670401e+04 -1.531367e+04
-2.519865e+09 -2.319643e+09 -2.479756e+09 -2.530675e+05 -2.772039e+04 -8.991433e+02
-2.843248e+09 -2.643399e+09 -2.803428e+09 5.288826e+04 2.583318e+04 8.219657e+04
-1.852688e+09 -1.652488e+09 -1.812047e+09 1.470767e+04 1.401843e+05 -2.154214e+05
-3.593251e+09 -3.393360e+09 -3.553384e+09 2.573875e+04 8.100660e+03 1.980282e+04
-1.852834e+09 -1.652844e+09 -1.812194e+09 -1.178918e+05 2.231817e+05 -1.814268e+05
-2.265822e+09 -2.065668e+09 -2.225244e+09 -2.508124e+05 8.174020e+04 7.508103e+04
-2.760070e+09 -2.559579e+09 -2.718220e+09 -4.388896e+05 5.358140e+05 -5.219052e+05
-2.560769e+09 -2.360431e+09 -2.520263e+09 -3.503422e+05 -2.795609e+03 -3.855305e+04
-3.132870e+09 -2.932403e+09 -3.092418e+09 -2.215936e+05 -4.295089e+04 3.657925e+04
-3.230468e+09 -3.032127e+09 -3.188010e+09 -3.678476e+05 -3.242089e+05 1.444872e+06
-1.595142e+09 -1.395080e+09 -1.553348e+09 -6.449389e+04 3.241801e+05 9.013503e+05
-3.573925e+09 -3.375576e+09 -3.532250e+09 1.777721e+05 1.507743e+05 6.348268e+05
-2.110719e+09 -1.910537e+09 -2.070579e+09 -2.256695e+05 -6.701434e+04 -1.371384e+04
-1.881929e+09 -1.681689e+09 -1.841644e+09 -7.676076e+03 1.446914e+04 5.652517e+04
-1.890972e+09 -1.690804e+09 -1.850875e+09 -2.604006e+05 4.151310e+04 8.474705e+04
-3.555820e+09 -3.355198e+09 -3.514593e+09 5.126907e+05 -4.459872e+05 -2.934619e+05
-1.993642e+09 -1.794795e+09 -1.953033e+09 -4.344575e+05 -2.768401e+05 1.571424e+06
-3.164650e+09 -2.964556e+09 -3.124619e+09 -3.081708e+05 6.640374e+04 -4.858183e+04
-1.635954e+09 -1.435949e+09 -1.595647e+09 -1.179138e+03 7.005006e+04 1.587128e+05
-1.898110e+09 -1.697864e+09 -1.858071e+09 -1.444198e+05 9.740707e+03 3.772055e+03
-3.540991e+09 -3.340383e+09 -3.500704e+09 -2.436772e+05 1.134835e+05 -1.453315e+04
-2.050664e+09 -1.850510e+09 -2.010670e+09 -5.728596e+04 1.345352e+05 -5.787401e+04
-3.602924e+09 -3.402987e+09 -3.563038e+09 4.018660e+04 1.152171e+04 1.804216e+04
-1.798460e+09 -1.598318e+09 -1.758412e+09 -3.625767e+04 1.501215e+05 -6.456176e+04
-1.882743e+09 -1.682639e+09 -1.842540e+09 -3.541943e+03 1.021137e+05 -5.719436e+04
-2.664939e+09 -2.464835e+09 -2.625022e+09 -1.659011e+05 1.134949e+05 -9.132636e+04
-3.609737e+09 -3.409786e+09 -3.569824e+09 2.098095e+04 5.029439e+03 8.780558e+03
-1.840550e+09 -1.640465e+09 -1.800599e+09 -7.888352e+04 1.426653e+05 -9.036544e+04
-3.199465e+09 -2.999649e+09 -3.159690e+09 6.664405e+04 3.659082e+04 7.358226e+04
-3.550675e+09 -3.350705e+09 -3.510805e+09 7.934065e+04 3.305454e+04 4.053308e+04
-3.586178e+09 -3.386032e+09 -3.546239e+09 6.662191e+04 5.742126e+04 2.388123e+04
-2.988796e+09 -2.788643e+09 -2.948833e+09 3.272635e+04 5.387178e+04 1.788942e+04
-2.069129e+09 -1.869237e+09 -2.029258e+09 7.323996e+04 5.330480e+04 1.250990e+05
-3.280569e+09 -3.080798e+09 -3.240836e+09 1.305988e+05 4.567484e+04 9.575112e+04
-2.975248e+09 -2.775457e+09 -2.935473e+09 9.502960e+04 3.649433e+04 1.138819e+05
-2.577744e+09 -2.377937e+09 -2.537937e+09 6.235642e+04 3.207344e+04 1.103615e+05
-2.065791e+09 -1.865918e+09 -2.025928e+09 5.986331e+04 6.272306e+04 1.165803e+05
-1.656805e+09 -1.456853e+09 -1.616875e+09 1.205877e+04 5.940031e+03 1.086435e+04
-1.578479e+09 -1.378440e+09 -1.538473e+09 1.128912e+04 1.033118e+05 -6.144667e+02
-3.135970e+09 -2.936006e+09 -3.096041e+09 1.527845e+04 4.053680e+03 8.306129e+03
-1.593378e+09 -1.393399e+09 -1.553261e+09 1.382701e+04 -9.307085e+04 -2.938897e+04
-2.767628e+09 -2.568607e+09 -2.727565e+09 -2.479819e+05 -9.810249e+04 4.532095e+05
-3.419927e+09 -3.221088e+09 -3.380041e+09 -6.873304e+04 -1.101981e+04 2.089112e+05
-1.698220e+09 -1.498139e+09 -1.658226e+09 -1.140283e+03 6.879146e+04 -7.166762e+03
-3.391642e+09 -3.192986e+09 -3.350673e+09 -1.493292e+04 -3.464152e+04 7.415970e+05
-3.216086e+09 -3.016331e+09 -3.176210e+09 1.894345e+05 -1.289525e+04 -3.797439e+04
-1.564814e+09 -1.364839e+09 -1.524869e+09 1.781381e+04 1.368461e+04 2.051670e+04
-1.615718e+09 -1.415688e+09 -1.575724e+09 1.562510e+04 1.028291e+05 7.965737e+04
-2.669244e+09 -2.469129e+09 -2.629271e+09 4.264777e+04 8.313029e+04 2.653479e+04
-3.074544e+09 -2.874399e+09 -3.034578e+09 4.588217e+04 4.870929e+04 1.641430e+04
-3.594157e+09 -3.395340e+09 -3.551102e+09 -6.327007e+05 -8.156432e+05 1.039026e+06
-2.761658e+09 -2.561971e+09 -2.721827e+09 3.583826e+05 9.999361e+03 1.063705e+05
-2.579128e+09 -2.378950e+09 -2.539124e+09 1.029896e+05 1.131605e+05 4.858874e+04
-2.193122e+09 -1.993574e+09 -2.152558e+09 3.365345e+05 2.862962e+05 4.206879e+05
-3.440929e+09 -3.241145e+09 -3.400424e+09 4.340424e+05 4.683291e+04 1.837098e+05
-1.581390e+09 -1.381328e+09 -1.541073e+09 6.741093e+03 -2.689986e+04 2.972532e+04
-3.486183e+09 -3.286208e+09 -3.446239e+09 8.383340e+03 7.154439e+02 1.202452e+03
-2.607780e+09 -2.408262e+09 -2.567575e+09 1.695397e+05 1.025379e+05 -7.447210e+04
-3.330129e+09 -3.130657e+09 -3.290312e+09 3.735800e+05 -3.028239e+04 -2.864066e+04
-3.156991e+09 -2.956800e+09 -3.116584e+09 3.528572e+05 4.009396e+04 -1.126911e+04
-3.350645e+09 -3.150896e+09 -3.310750e+09 3.789153e+05 -3.732692e+04 6.833599e+04
-1.568057e+09 -1.368030e+09 -1.527882e+09 8.807344e+03 1.411120e+05 1.736029e+04
-3.472552e+09 -3.272604e+09 -3.432631e+09 1.488281e+04 2.175537e+03 6.333911e+03
-1.590082e+09 -1.390055e+09 -1.550078e+09 7.352177e+03 9.443477e+04 3.486602e+04
-1.868966e+09 -1.669019e+09 -1.829040e+09 1.437336e+04 6.260971e+03 1.344793e+04
-1.924884e+09 -1.724786e+09 -1.882114e+09 -5.988365e+03 -6.274589e+06 -1.854863e+05
-3.046048e+09 -2.846403e+09 -3.006151e+09 3.259181e+05 -1.318049e+04 3.248929e+04
-2.925027e+09 -2.725221e+09 -2.885209e+09 1.722269e+05 -6.411635e+04 6.850733e+02
-2.226650e+09 -2.026907e+09 -2.186747e+09 2.420070e+05 -7.823238e+04 -1.162924e+05
-3.500256e+09 -3.300434e+09 -3.460499e+09 2.498903e+05 -8.174630e+04 -7.042399e+04
-2.054350e+09 -1.854196e+09 -2.014331e+09 1.413734e+04 7.938873e+04 1.531622e+04
-2.639745e+09 -2.439729e+09 -2.599805e+09 3.761574e+04 3.209020e+04 2.228505e+04
-2.450897e+09 -2.250874e+09 -2.410972e+09 5.223325e+04 5.236199e+04 5.031758e+04
-1.670722e+09 -1.470785e+09 -1.630797e+09 1.030737e+04 4.099194e+03 1.435558e+04
-3.161377e+09 -2.961384e+09 -3.121484e+09 6.606117e+04 3.799567e+04 4.170811e+04
-2.212790e+09 -2.012872e+09 -2.172881e+09 6.528226e+03 2.377818e+03 1.646465e+04
-2.766084e+09 -2.566087e+09 -2.726180e+09 6.505214e+04 5.390882e+04 4.735578e+04
-2.106214e+09 -1.906313e+09 -2.066315e+09 -1.321743e+03 6.856552e+02 2.617964e+04
-3.423570e+09 -3.223696e+09 -3.383720e+09 1.366773e+04 4.600689e+03 2.852510e+04
-2.998842e+09 -2.798858e+09 -2.958934e+09 5.130922e+04 2.856291e+04 3.357293e+04
-2.666228e+09 -2.467608e+09 -2.624258e+09 3.422730e+05 1.491992e+05 -1.128059e+06
-3.224816e+09 -3.024747e+09 -3.184868e+09 4.034226e+04 3.552742e+04 1.595814e+04
-1.856934e+09 -1.657016e+09 -1.816950e+09 -1.142090e+04 -5.807128e+04 1.257981e+05
-1.823977e+09 -1.623967e+09 -1.784009e+09 2.362174e+04 4.833125e+04 3.857953e+04
-2.572816e+09 -2.372894e+09 -2.532915e+09 1.925333e+04 6.733407e+03 3.070558e+04
-3.036539e+09 -2.836522e+09 -2.996613e+09 5.275232e+04 3.541965e+04 2.436589e+04
-2.853611e+09 -2.653625e+09 -2.813711e+09 5.476244e+04 3.104539e+04 3.322837e+04
-3.108631e+09 -2.908689e+09 -3.068719e+09 1.563678e+04 5.669462e+03 1.457628e+04
-2.892626e+09 -2.692641e+09 -2.852719e+09 4.434888e+04 2.595543e+04 3.264354e+04
-3.077553e+09 -2.877480e+09 -3.037679e+09 1.426006e+05 -6.897037e+04 -5.841146e+04
-2.995180e+09 -2.794993e+09 -2.955173e+09 1.418696e+05 -8.347939e+04 -8.392154e+04
-2.571328e+09 -2.371192e+09 -2.531401e+09 8.462124e+04 -1.099772e+05 -6.131771e+04
-1.892842e+09 -1.692784e+09 -1.852760e+09 2.253797e+04 -1.409432e+05 -7.619967e+04
-2.228363e+09 -2.028231e+09 -2.188367e+09 1.332022e+05 -1.329705e+05 -8.449479e+04
-1.679631e+09 -1.479669e+09 -1.639692e+09 -7.228687e+03 -3.372071e+03 5.354532e+03
-2.635334e+09 -2.435371e+09 -2.595400e+09 1.215265e+04 3.908250e+03 6.147689e+03
-2.868986e+09 -2.669013e+09 -2.829046e+09 8.858305e+03 1.950522e+03 3.330065e+03
-2.541201e+09 -2.341222e+09 -2.501260e+09 1.199586e+04 4.750342e+03 6.395772e+03
-2.186567e+09 -1.986598e+09 -2.146627e+09 1.043243e+04 2.876148e+03 3.380055e+03
-3.605980e+09 -3.405987e+09 -3.566092e+09 -6.352860e+04 -2.984920e+04 3.211802e+04
-2.645522e+09 -2.445567e+09 -2.605617e+09 -4.409212e+04 -2.248498e+04 3.617910e+04
-1.577797e+09 -1.377798e+09 -1.537825e+09 -1.858686e+04 -8.119885e+04 8.391273e+04
-2.062032e+09 -1.862055e+09 -2.022088e+09 1.273693e+04 4.618449e+03 4.556466e+03
-1.907644e+09 -1.707666e+09 -1.867702e+09 1.475700e+04 4.289186e+03 6.827374e+03
-2.388535e+09 -2.188569e+09 -2.348602e+09 1.472306e+04 7.624072e+03 8.331001e+03
-3.196168e+09 -2.996103e+09 -3.156265e+09 -7.385721e+04 -4.906827e+04 3.070133e+04
-3.390780e+09 -3.190687e+09 -3.350907e+09 -1.497284e+05 -6.697028e+04 6.479661e+04
-2.485129e+09 -2.285159e+09 -2.445193e+09 1.396375e+04 4.510416e+03 8.448288e+03
-3.088002e+09 -2.888029e+09 -3.048076e+09 1.900760e+04 7.843915e+03 1.050522e+04
-3.063993e+09 -2.864018e+09 -3.024055e+09 1.490792e+04 4.418252e+03 5.886444e+03
-2.889366e+09 -2.689406e+09 -2.849433e+09 -9.332665e+03 -3.206684e+03 5.153007e+03
-2.252375e+09 -2.052916e+09 -2.212389e+09 5.427992e+04 -6.580448e+04 6.847363e+04
-1.590215e+09 -1.390215e+09 -1.550253e+09 -1.524931e+04 -3.837763e+04 4.387099e+04
-1.758669e+09 -1.558622e+09 -1.718636e+09 -9.885933e+03 1.248594e+05 -5.247433e+04
-1.698158e+09 -1.498158e+09 -1.658200e+09 -1.604654e+04 -2.447049e+04 2.361445e+04
-3.409127e+09 -3.208977e+09 -3.369183e+09 -8.670998e+04 7.085432e+04 -3.529091e+04
-2.523506e+09 -2.323370e+09 -2.483559e+09 -5.346769e+04 8.166539e+04 -3.068148e+04
-3.315206e+09 -3.114935e+09 -3.275217e+09 -8.089860e+04 -1.118168e+05 2.781876e+04
-2.635651e+09 -2.435497e+09 -2.595659e+09 -7.277481e+04 -1.487603e+05 4.477494e+04
-1.569737e+09 -1.369700e+09 -1.529718e+09 4.421159e+03 -1.242067e+05 4.746660e+04
-1.899719e+09 -1.699663e+09 -1.859717e+09 -5.466296e+03 7.979589e+04 -4.361048e+04
-2.454344e+09 -2.254280e+09 -2.414353e+09 -9.546880e+04 1.133048e+05 -7.279879e+04
-1.760434e+09 -1.560360e+09 -1.720495e+09 -4.869221e+04 1.145420e+05 -6.768098e+04
-2.932488e+09 -2.732548e+09 -2.892571e+09 -1.148814e+04 -4.285921e+03 9.876306e+03
-2.713574e+09 -2.513647e+09 -2.673676e+09 -2.201743e+04 -7.887459e+03 2.566695e+04
-2.805074e+09 -2.605131e+09 -2.765163e+09 -1.875992e+04 -5.991329e+03 1.600510e+04
-2.323344e+09 -2.123408e+09 -2.283428e+09 -1.306547e+04 -5.080733e+03 1.280314e+04
-2.086124e+09 -1.886190e+09 -2.046207e+09 -1.526914e+04 -7.021078e+03 1.786482e+04
-1.680298e+09 -1.480246e+09 -1.640312e+09 -1.249467e+04 -9.891756e+04 4.490829e+04
-3.425229e+09 -3.225298e+09 -3.385331e+09 -2.200571e+04 -9.194860e+03 1.221307e+04
-2.710219e+09 -2.510286e+09 -2.670314e+09 -2.137887e+04 -1.209294e+04 2.117578e+04
-2.993933e+09 -2.794015e+09 -2.954039e+09 -1.626754e+04 -6.782087e+03 2.005047e+04
-1.855374e+09 -1.655293e+09 -1.815412e+09 -5.976984e+04 -9.428186e+04 2.733739e+04
-1.571872e+09 -1.371857e+09 -1.531820e+09 7.853506e+02 -1.611086e+05 1.532300e+04
-2.021496e+09 -1.821556e+09 -1.981572e+09 -8.398671e+03 -6.153575e+03 1.106964e+04
-3.103614e+09 -2.903226e+09 -3.063511e+09 -4.053895e+04 -9.901241e+04 2.490144e+03
-2.071122e+09 -1.871210e+09 -2.031220e+09 -1.676016e+04 -9.812882e+03 3.155736e+04
-2.924005e+09 -2.724068e+09 -2.884096e+09 -1.315311e+04 -6.523030e+03 1.417567e+04
-2.896474e+09 -2.696590e+09 -2.856616e+09 2.330013e+04 8.996959e+03 4.498269e+04
-1.601834e+09 -1.401873e+09 -1.561899e+09 -1.369297e+04 -1.542119e+04 2.386105e+04
-1.847760e+09 -1.647832e+09 -1.807842e+09 -1.309150e+04 -5.979680e+03 2.621126e+04
-3.190099e+09 -2.990143e+09 -3.150172e+09 -1.253830e+04 -2.214713e+03 5.553867e+03
-2.461379e+09 -2.261425e+09 -2.421453e+09 -1.602370e+04 -9.340298e+03 1.433694e+04
-2.387102e+09 -2.187510e+09 -2.344068e+09 -4.258941e+05 -1.028137e+06 2.096853e+06
-2.800715e+09 -2.601652e+09 -2.759241e+09 -7.625805e+05 -7.832266e+05 7.125875e+05
-1.776232e+09 -1.576103e+09 -1.736314e+09 -1.339514e+05 -1.370219e+06 1.419554e+06
-3.182080e+09 -2.983712e+09 -3.136295e+09 -8.172096e+05 -1.718215e+06 2.474566e+06
-2.529931e+09 -2.328919e+09 -2.480634e+09 -9.382710e+05 -3.836425e+06 1.547222e+06
-1.982335e+09 -1.782121e+09 -1.943467e+09 -3.176460e+05 -2.546048e+06 4.094430e+06
-1.565441e+09 -1.365522e+09 -1.525524e+09 -7.205309e+02 -1.188831e+03 2.793327e+04
-2.348997e+09 -2.150300e+09 -2.300943e+09 -6.715002e+05 -2.157793e+06 4.183692e+06
-3.500420e+09 -3.300522e+09 -3.460538e+09 -8.068085e+03 -1.833030e+03 1.422878e+04
-1.766448e+09 -1.566053e+09 -1.724585e+09 2.225270e+05 -4.201915e+06 3.091510e+06
-2.155304e+09 -1.955398e+09 -2.115401e+09 -2.384749e+03 -3.251301e+03 2.396541e+04
-3.500461e+09 -3.300554e+09 -3.460572e+09 -1.160324e+04 -2.362080e+03 1.310853e+04
-3.416283e+09 -3.216417e+09 -3.376447e+09 -1.924907e+04 -4.499493e+03 3.581909e+04
-3.052607e+09 -2.853293e+09 -3.013002e+09 -1.066401e+05 7.693361e+03 1.157531e+05
-3.485958e+09 -3.286482e+09 -3.446142e+09 3.023310e+05 -3.276412e+04 -9.638126e+04
-2.558797e+09 -2.358896e+09 -2.518914e+09 -8.703232e+03 -5.511232e+03 3.475080e+04
-1.915483e+09 -1.715549e+09 -1.875568e+09 -1.277580e+04 -1.785043e+04 4.240115e+04
-2.001559e+09 -1.801664e+09 -1.961663e+09 -9.486654e+03 -4.617853e+03 4.317755e+04
-2.639975e+09 -2.440106e+09 -2.600122e+09 -1.296604e+04 -1.093847e+04 4.935424e+04
-2.591868e+09 -2.391844e+09 -2.551945e+09 -9.187681e+04 -6.408818e+04 6.723367e+04
-3.012970e+09 -2.812930e+09 -2.973070e+09 -1.273408e+05 -8.181783e+04 8.463705e+04
-3.380882e+09 -3.180900e+09 -3.341055e+09 -1.508971e+05 -6.361703e+04 6.300751e+04
-3.153835e+09 -2.953834e+09 -3.113961e+09 -1.004706e+05 -5.876634e+04 7.200966e+04
-3.360709e+09 -3.160682e+09 -3.320843e+09 -1.170731e+05 -4.767796e+04 5.954412e+04
-2.773733e+09 -2.573710e+09 -2.733826e+09 -7.326076e+04 -7.520384e+04 5.487733e+04
-1.709424e+09 -1.509394e+09 -1.669461e+09 -1.771540e+04 -6.115014e+04 4.362009e+04
-1.582590e+09 -1.382430e+09 -1.541369e+09 -1.196498e+04 -4.833620e+05 7.712225e+05
-2.087531e+09 -1.887475e+09 -2.047573e+09 -5.259578e+04 -7.050566e+04 4.188606e+04
-1.664224e+09 -1.464186e+09 -1.624252e+09 -1.591824e+04 -7.902207e+04 4.577120e+04
-2.843217e+09 -2.643123e+09 -2.803289e+09 -1.079696e+05 -9.248085e+04 6.143836e+04
-3.236788e+09 -3.036696e+09 -3.196881e+09 -1.076181e+05 -8.461880e+04 5.916237e+04
-3.497309e+09 -3.296451e+09 -3.456863e+09 5.071423e+04 -7.888293e+04 -1.182021e+04
-1.573852e+09 -1.373872e+09 -1.533900e+09 -1.897254e+04 -3.468630e+04 4.417841e+04
-2.904645e+09 -2.704588e+09 -2.864712e+09 -4.284813e+04 -4.325343e+04 3.201943e+04
-3.487249e+09 -3.287349e+09 -3.447368e+09 -1.219539e+04 -3.219316e+03 1.807883e+04
-1.594560e+09 -1.394587e+09 -1.554618e+09 -1.442321e+04 -1.438954e+04 1.984510e+04
-2.535030e+09 -2.334976e+09 -2.495058e+09 1.836546e+05 9.187088e+04 6.912628e+04
-2.740562e+09 -2.540452e+09 -2.700618e+09 2.547998e+05 6.636918e+04 1.060116e+04
-2.179738e+09 -1.979792e+09 -2.139756e+09 1.740333e+05 1.691973e+04 7.408459e+04
-3.416390e+09 -3.216214e+09 -3.376453e+09 2.837753e+05 9.422107e+04 6.930828e+04
-2.583498e+09 -2.383369e+09 -2.543525e+09 2.599779e+04 8.844411e+04 2.800820e+04
-3.405020e+09 -3.204967e+09 -3.365177e+09 2.471521e+05 9.800519e+04 9.133666e+04
-2.437509e+09 -2.237467e+09 -2.397538e+09 1.273454e+05 1.027743e+05 5.074564e+04
-1.583803e+09 -1.383748e+09 -1.543804e+09 4.041598e+03 7.918790e+04 2.882524e+04
-3.201019e+09 -3.001692e+09 -3.160431e+09 3.894840e+05 2.992475e+05 3.414027e+05
-2.664336e+09 -2.465017e+09 -2.624132e+09 1.079155e+05 2.580340e+04 -1.289866e+04
-2.088153e+09 -1.888784e+09 -2.048469e+09 6.837326e+04 6.695424e+04 -5.227388e+04
-2.082258e+09 -1.882031e+09 -2.042182e+09 -3.808763e+04 -1.591446e+05 4.866912e+04
-1.779898e+09 -1.579878e+09 -1.739778e+09 -4.307605e+04 -1.047249e+05 5.826271e+04
-3.608097e+09 -3.409009e+09 -3.567100e+09 -4.321425e+05 -1.184129e+05 4.867384e+05
-1.666175e+09 -1.466203e+09 -1.626239e+09 2.052211e+04 2.051366e+04 2.855733e+04
-2.763362e+09 -2.563170e+09 -2.723429e+09 -1.511821e+05 -1.709923e+05 8.171134e+04
-2.681061e+09 -2.480878e+09 -2.641094e+09 6.160549e+04 1.192790e+05 2.962526e+04
-3.586182e+09 -3.386011e+09 -3.546234e+09 5.271810e+04 6.644258e+04 2.524001e+04
-1.583800e+09 -1.383735e+09 -1.543807e+09 7.617499e+03 8.779950e+04 2.788717e+04
-3.271100e+09 -3.070964e+09 -3.231139e+09 4.445597e+04 4.954801e+04 1.445770e+04
-1.778240e+09 -1.578048e+09 -1.738225e+09 -3.548703e+04 -1.484710e+05 6.346913e+04
-2.559234e+09 -2.359060e+09 -2.519212e+09 -7.781920e+04 -9.647836e+04 4.982476e+04
-3.609058e+09 -3.409182e+09 -3.568439e+09 -5.728394e+05 -2.234317e+05 1.151135e+05
-1.961150e+09 -1.760986e+09 -1.921105e+09 -6.251488e+04 -1.548551e+05 4.944359e+04
-2.183742e+09 -1.983764e+09 -2.143808e+09 -2.276569e+04 -1.681569e+04 1.972884e+04
-2.515546e+09 -2.315580e+09 -2.475634e+09 -3.559086e+04 -2.395990e+04 3.259014e+04
-3.090743e+09 -2.890802e+09 -3.050876e+09 -6.196298e+04 -3.047266e+04 4.725075e+04
-3.179441e+09 -2.979518e+09 -3.139610e+09 -8.265565e+04 -3.712334e+04 4.671507e+04
-2.686869e+09 -2.487453e+09 -2.646627e+09 -8.249704e+04 3.493476e+04 7.062590e+04
-2.577123e+09 -2.377157e+09 -2.537217e+09 -5.844265e+04 -3.900709e+04 5.162780e+04
-3.182377e+09 -2.982400e+09 -3.142498e+09 -6.787415e+04 -3.812024e+04 4.050842e+04
-2.801047e+09 -2.601115e+09 -2.761204e+09 -8.182596e+04 -5.811522e+04 7.726998e+04
-2.988977e+09 -2.789026e+09 -2.949112e+09 -7.452397e+04 -4.661785e+04 6.507563e+04
-2.640537e+09 -2.440524e+09 -2.599885e+09 3.886715e+05 1.161249e+05 1.751142e+05
-3.075805e+09 -2.876575e+09 -3.035800e+09 8.900751e+04 -1.698765e+02 1.121474e+05
-2.559701e+09 -2.359724e+09 -2.519799e+09 -7.048203e+04 -6.831902e+04 6.442082e+04
-2.173554e+09 -1.973564e+09 -2.133626e+09 -5.780901e+04 -5.874808e+04 5.658987e+04
-1.812412e+09 -1.612447e+09 -1.772500e+09 -4.665937e+04 -5.464640e+04 6.988276e+04
-2.783523e+09 -2.583546e+09 -2.743630e+09 -6.762986e+04 -3.642405e+04 4.186590e+04
-1.579097e+09 -1.379122e+09 -1.539159e+09 -1.646381e+04 -2.199704e+04 2.823674e+04
-1.890597e+09 -1.690667e+09 -1.850682e+09 -1.289979e+04 -6.558997e+03 1.956259e+04
-2.590285e+09 -2.390264e+09 -2.550368e+09 -6.466428e+04 -4.121416e+04 4.843989e+04
-2.101026e+09 -1.901320e+09 -2.061201e+09 -2.434447e+03 3.774760e+04 1.875353e+05
-1.812262e+09 -1.612542e+09 -1.771540e+09 -2.118765e+04 1.387026e+04 2.975025e+05
-1.693849e+09 -1.493903e+09 -1.653924e+09 -1.341261e+04 -1.391847e+04 3.300057e+04
-1.594552e+09 -1.394585e+09 -1.554616e+09 -1.299299e+04 -1.430585e+04 2.006010e+04
-2.448636e+09 -2.248848e+09 -2.408799e+09 4.643002e+04 2.648328e+04 1.640785e+05
-3.475851e+09 -3.275758e+09 -3.435926e+09 -7.224653e+04 -4.529844e+04 2.742248e+04
-3.403803e+09 -3.204219e+09 -3.364110e+09 4.924960e+04 2.490340e+04 1.003401e+05
-3.110192e+09 -2.910266e+09 -3.070293e+09 -1.961836e+04 -5.972411e+03 1.783582e+04
-2.961315e+09 -2.761605e+09 -2.921412e+09 1.800995e+05 7.100507e+04 5.686343e+04
-2.017507e+09 -1.817832e+09 -1.977686e+09 1.691543e+05 9.628474e+04 4.570686e+04
-1.579107e+09 -1.379123e+09 -1.539160e+09 -1.700451e+04 -2.306114e+04 2.709201e+04
-3.616457e+09 -3.416511e+09 -3.576546e+09 -2.096656e+04 -4.774966e+03 1.096639e+04
-2.804103e+09 -2.604495e+09 -2.764408e+09 5.395122e+04 1.215976e+04 1.499028e+05
-3.436070e+09 -3.237015e+09 -3.395184e+09 -3.870137e+05 -1.476066e+05 5.347044e+05
-2.783867e+09 -2.583913e+09 -2.743958e+09 -2.964830e+04 -1.472169e+04 1.994004e+04
-1.642342e+09 -1.442367e+09 -1.601921e+09 1.119884e+04 2.909849e+04 3.336135e+05
-1.970372e+09 -1.771464e+09 -1.928258e+09 -1.515137e+05 -9.577397e+05 4.946211e+06
-2.589218e+09 -2.390325e+09 -2.546830e+09 -3.727840e+05 -5.273508e+05 2.548475e+06
-2.670413e+09 -2.470453e+09 -2.630490e+09 -1.951074e+04 -1.028726e+04 1.325725e+04
-1.927879e+09 -1.727904e+09 -1.887937e+09 -1.192915e+04 -7.956004e+03 1.115077e+04
-3.342104e+09 -3.141912e+09 -3.302161e+09 8.800707e+04 8.557626e+04 3.254339e+04
-2.600534e+09 -2.400571e+09 -2.560610e+09 -2.145982e+04 -1.333694e+04 1.915261e+04
-3.080516e+09 -2.880243e+09 -3.040482e+09 -2.642059e+05 -1.745431e+04 5.059527e+04
-2.173271e+09 -1.973323e+09 -2.133346e+09 -1.486180e+04 -5.539409e+03 1.360277e+04
-2.444366e+09 -2.244416e+09 -2.404460e+09 -3.177242e+04 -1.984371e+04 3.250996e+04
-3.306569e+09 -3.106642e+09 -3.266686e+09 -3.139921e+04 -1.327316e+04 2.502452e+04
-1.583804e+09 -1.383760e+09 -1.543801e+09 1.280327e+04 8.081996e+04 2.092299e+04
-2.866889e+09 -2.666941e+09 -2.826993e+09 -3.110004e+04 -1.936648e+04 3.367371e+04
-2.441436e+09 -2.241652e+09 -2.401667e+09 5.991134e+04 3.343971e+04 1.023870e+05
-2.510330e+09 -2.310160e+09 -2.470371e+09 9.103017e+04 1.446549e+05 5.198242e+04
-2.556010e+09 -2.356209e+09 -2.516237e+09 8.846962e+04 1.729460e+04 9.718829e+04
-3.598046e+09 -3.397893e+09 -3.558123e+09 9.690705e+04 6.943630e+04 3.311681e+04
-1.569817e+09 -1.369858e+09 -1.529859e+09 1.473120e+04 4.839011e+04 1.062975e+05
-2.157465e+09 -1.957352e+09 -2.117378e+09 -6.179103e+04 -1.449769e+05 7.578338e+04
-1.973522e+09 -1.773408e+09 -1.933509e+09 -7.372048e+04 -1.212198e+05 6.646609e+04
-2.171156e+09 -1.970936e+09 -2.131071e+09 -6.335463e+04 -1.657865e+05 1.013015e+05
-2.481659e+09 -2.281478e+09 -2.441605e+09 -7.160703e+04 -8.561219e+04 4.581581e+04
-1.575030e+09 -1.375091e+09 -1.535094e+09 9.196200e+03 2.222794e+04 7.504398e+04
-2.712482e+09 -2.512146e+09 -2.672345e+09 -2.872567e+05 1.358942e+04 -6.645201e+04
-3.064818e+09 -2.864583e+09 -3.024750e+09 -1.859546e+05 -6.320545e+04 1.461919e+04
-1.606260e+09 -1.406244e+09 -1.566250e+09 1.118050e+04 1.038451e+05 9.689655e+04
-1.635503e+09 -1.435373e+09 -1.594125e+09 -6.620245e+03 -6.593412e+05 -6.283087e+05
-1.591752e+09 -1.391454e+09 -1.548541e+09 -5.823601e+04 -5.498254e+05 2.849948e+06
-3.360787e+09 -3.160360e+09 -3.320747e+09 -1.697645e+05 -1.274279e+05 3.712726e+04
-3.595696e+09 -3.395399e+09 -3.555719e+09 5.485832e+04 1.042731e+05 2.463536e+04
-3.364049e+09 -3.163810e+09 -3.324044e+09 -1.586967e+05 -7.759413e+04 3.894307e+04
-3.032075e+09 -2.831983e+09 -2.992155e+09 1.090670e+05 7.636358e+04 5.866903e+04
-2.428587e+09 -2.228553e+09 -2.388655e+09 9.480972e+04 8.870281e+04 6.911052e+04
-3.035599e+09 -2.835521e+09 -2.995705e+09 1.535550e+05 8.383969e+04 5.925415e+04
-3.417250e+09 -3.217216e+09 -3.377367e+09 -1.217555e+05 -7.510749e+04 4.962861e+04
-3.182572e+09 -2.982567e+09 -3.142693e+09 1.583118e+05 7.048720e+04 9.118333e+04
-2.625216e+09 -2.424804e+09 -2.584778e+09 3.735625e+05 -1.561844e+05 2.739914e+04
-3.603155e+09 -3.403802e+09 -3.563214e+09 3.854709e+05 4.319482e+04 -8.069757e+03
-2.960457e+09 -2.760717e+09 -2.920703e+09 -4.914236e+04 -1.305556e+04 1.020452e+05
-1.573436e+09 -1.373399e+09 -1.533422e+09 2.772696e+03 1.415711e+05 5.778413e+04
-2.399484e+09 -2.199466e+09 -2.359528e+09 1.083423e+05 8.543595e+04 8.821228e+04
-2.850487e+09 -2.650881e+09 -2.810796e+09 1.357906e+04 1.167797e+04 1.607934e+05
-1.986217e+09 -1.786078e+09 -1.946179e+09 -2.421988e+04 -9.933410e+04 -4.084191e+04
-2.000161e+09 -1.800065e+09 -1.960186e+09 -7.257572e+04 -1.187300e+05 2.226999e+04
-2.487426e+09 -2.287721e+09 -2.447608e+09 -2.215103e+05 2.855468e+03 5.246757e+04
-3.412483e+09 -3.212960e+09 -3.372794e+09 -1.169965e+04 -1.336572e+04 7.900869e+04
-1.559676e+09 -1.359658e+09 -1.519557e+09 -1.322709e+04 -1.547644e+05 -5.888039e+03
-2.524569e+09 -2.324954e+09 -2.484859e+09 2.530056e+04 1.302196e+04 6.796979e+04
-2.438190e+09 -2.238137e+09 -2.398251e+09 -6.929436e+04 -9.926251e+04 7.863650e+04
-1.602840e+09 -1.402866e+09 -1.562589e+09 4.191981e+04 -4.504416e+03 4.084259e+03
-3.226803e+09 -3.027201e+09 -3.187078e+09 5.776445e+04 -2.464697e+03 8.192086e+04
-1.608993e+09 -1.408960e+09 -1.568611e+09 -1.642452e+04 -7.620801e+03 3.762788e+04
-3.178257e+09 -2.978097e+09 -3.138253e+09 2.309933e+05 -3.585189e+04 -4.033473e+04
-3.293376e+09 -3.093335e+09 -3.253495e+09 1.478431e+05 -6.706483e+04 -4.492287e+04
-2.820734e+09 -2.620642e+09 -2.780733e+09 2.742037e+05 -1.641923e+04 -4.916389e+03
-3.463275e+09 -3.261640e+09 -3.420128e+09 -2.874466e+05 -9.116403e+05 -1.816407e+05
-3.124020e+09 -2.923956e+09 -3.084101e+09 7.694524e+04 -7.598342e+04 -4.670164e+04
-1.582418e+09 -1.382319e+09 -1.541339e+09 6.521211e+04 -5.133645e+05 7.259239e+05
-2.593189e+09 -2.394252e+09 -2.546983e+09 6.242325e+05 1.848588e+06 2.973362e+06
-2.859723e+09 -2.660176e+09 -2.819726e+09 -1.325715e+05 3.471983e+04 3.032608e+04
-2.885817e+09 -2.685714e+09 -2.845886e+09 6.659148e+04 -7.803390e+04 -4.858242e+04
-1.574673e+09 -1.374951e+09 -1.531490e+09 -2.082499e+05 -2.421991e+06 -2.012251e+06
-3.390329e+09 -3.190209e+09 -3.350463e+09 2.059126e+05 -9.798421e+04 -5.299741e+04
-3.210319e+09 -3.010084e+09 -3.170117e+09 2.347774e+05 -2.925729e+04 -1.185502e+04
-2.617019e+09 -2.417632e+09 -2.576703e+09 -1.224558e+05 -1.374886e+05 1.488079e+04
-1.634918e+09 -1.434866e+09 -1.594908e+09 2.709166e+03 1.335663e+05 -2.493222e+04
-2.174869e+09 -1.975454e+09 -2.134672e+09 -2.340668e+05 1.652680e+05 1.781276e+05
-3.449626e+09 -3.250675e+09 -3.409862e+09 -2.161406e+05 -5.318700e+04 1.430721e+05
-3.130184e+09 -2.931172e+09 -3.089566e+09 -5.184005e+05 -1.077823e+05 5.904636e+05
-2.570970e+09 -2.371475e+09 -2.530608e+09 -4.665148e+05 -3.119307e+05 4.732316e+05
-2.845479e+09 -2.645186e+09 -2.805194e+09 -4.477187e+05 -2.078647e+05 8.807181e+04
-2.488539e+09 -2.288751e+09 -2.448142e+09 -4.078941e+05 -2.378360e+05 4.895568e+05
-3.414260e+09 -3.214315e+09 -3.373434e+09 -5.501234e+05 -2.057329e+05 1.768636e+05
-3.595522e+09 -3.395425e+09 -3.555617e+09 1.120287e+05 5.093438e+04 3.466654e+04
-2.843092e+09 -2.644236e+09 -2.802245e+09 -5.118634e+05 -5.345021e+05 1.136822e+06
-3.215292e+09 -3.015340e+09 -3.175380e+09 2.527215e+04 8.864919e+03 1.540477e+04
-2.087842e+09 -1.888550e+09 -2.047435e+09 -2.953400e+05 -3.205312e+05 7.337315e+05
-2.737062e+09 -2.537786e+09 -2.695371e+09 -4.155768e+05 -2.374089e+05 7.169208e+05
-2.732448e+09 -2.533036e+09 -2.692194e+09 -4.509025e+05 -3.067655e+05 4.514571e+05
-3.130728e+09 -2.931440e+09 -3.090207e+09 -4.790314e+05 -3.378868e+05 5.860840e+05
-2.503732e+09 -2.303954e+09 -2.463959e+09 -8.085062e+04 -5.143086e+04 1.144123e+05
-2.784766e+09 -2.584878e+09 -2.744939e+09 -1.351539e+05 -1.001117e+05 1.186069e+05
-2.856881e+09 -2.657144e+09 -2.817038e+09 -1.289116e+05 -5.484815e+04 5.020213e+04
-3.031651e+09 -2.831834e+09 -2.991883e+09 -5.833883e+04 -3.687265e+04 8.190606e+04
-2.322796e+09 -2.122764e+09 -2.282857e+09 -4.577668e+04 -5.361232e+04 3.865868e+04
-1.823765e+09 -1.623834e+09 -1.783852e+09 2.255609e+04 1.725398e+04 3.509900e+04
-3.579220e+09 -3.379260e+09 -3.539387e+09 1.555505e+05 6.570543e+04 8.520437e+04
-2.579416e+09 -2.379485e+09 -2.539508e+09 2.098184e+04 7.964054e+03 2.648893e+04
-3.599670e+09 -3.399825e+09 -3.559897e+09 -1.319245e+05 -5.817312e+04 7.746034e+04
-2.016821e+09 -1.816793e+09 -1.976878e+09 -7.379071e+04 -6.890603e+04 5.528458e+04
-2.569219e+09 -2.369274e+09 -2.529352e+09 -1.092775e+05 -6.083502e+04 9.059190e+04
-2.604150e+09 -2.404234e+09 -2.564296e+09 -7.334434e+04 -6.156163e+04 8.695481e+04
-3.597777e+09 -3.397883e+09 -3.557929e+09 3.626701e+04 1.247411e+04 3.113091e+04
-3.014437e+09 -2.814491e+09 -2.974588e+09 -1.110437e+05 -5.505795e+04 6.034722e+04
-2.806632e+09 -2.606244e+09 -2.766571e+09 -4.313269e+04 9.867830e+04 -2.256028e+04
-1.977844e+09 -1.777678e+09 -1.937845e+09 -3.474189e+04 1.507471e+05 -3.512848e+04
-1.974027e+09 -1.773894e+09 -1.934015e+09 -3.130816e+04 1.143071e+05 -4.059327e+04
-3.075849e+09 -2.875598e+09 -3.035850e+09 -8.584299e+04 1.301698e+05 -4.968537e+04
-1.706173e+09 -1.506206e+09 -1.666117e+09 1.614672e+04 -3.328694e+03 1.320209e+05
-3.543037e+09 -3.341732e+09 -3.495526e+09 2.742979e+05 -1.493554e+06 1.323184e+04
-3.432290e+09 -3.232351e+09 -3.392386e+09 2.443047e+04 7.350569e+03 1.258944e+04
-3.598731e+09 -3.398936e+09 -3.558984e+09 7.817855e+04 2.553572e+04 6.015527e+04
-3.331053e+09 -3.130858e+09 -3.291080e+09 -4.463166e+04 7.865689e+04 -3.203271e+04
-1.581759e+09 -1.381800e+09 -1.541797e+09 7.068140e+03 4.353200e+04 9.840662e+04
-3.309141e+09 -3.109286e+09 -3.269371e+09 -1.152481e+05 -3.945204e+04 8.519459e+04
-3.593406e+09 -3.391955e+09 -3.551250e+09 9.963374e+04 -4.633502e+05 -4.990603e+04
-1.782358e+09 -1.582382e+09 -1.742421e+09 -3.467077e+04 -4.987806e+04 7.174367e+04
-1.745572e+09 -1.545589e+09 -1.705623e+09 -3.305560e+04 -3.322119e+04 5.231279e+04
-2.344656e+09 -2.144703e+09 -2.304752e+09 -4.952165e+04 -4.375493e+04 6.858074e+04
-3.215014e+09 -3.015089e+09 -3.175193e+09 -1.393589e+05 -3.793011e+04 6.974152e+04
-3.583222e+09 -3.383305e+09 -3.543377e+09 7.602712e+04 2.031634e+04 3.564655e+04
-2.885572e+09 -2.685615e+09 -2.845642e+09 1.140742e+04 3.646072e+03 7.053505e+03
-2.014902e+09 -1.814961e+09 -1.974978e+09 1.553988e+04 6.043827e+03 1.368405e+04
-3.583213e+09 -3.383275e+09 -3.543367e+09 7.556761e+04 2.545529e+04 3.558251e+04
-3.578448e+09 -3.378705e+09 -3.538764e+09 1.482698e+05 2.538916e+04 8.972699e+04
-3.595567e+09 -3.395717e+09 -3.555791e+09 8.742713e+04 3.273284e+04 5.931663e+04
-3.009063e+09 -2.809112e+09 -2.969144e+09 1.750571e+04 4.282395e+03 1.129010e+04
-1.596570e+09 -1.396841e+09 -1.554468e+09 -8.931516e+04 -3.405297e+06 -3.981410e+05
-2.094813e+09 -1.894868e+09 -2.054888e+09 1.546455e+04 5.541111e+03 1.389515e+04
-1.568835e+09 -1.368801e+09 -1.528645e+09 5.702723e+03 -1.293199e+05 9.819808e+04
-1.795449e+09 -1.595543e+09 -1.752662e+09 -1.368086e+05 -2.109995e+06 2.452693e+06
-2.855775e+09 -2.655832e+09 -2.815865e+09 2.287184e+04 8.667116e+03 1.714222e+04
-1.992801e+09 -1.792841e+09 -1.952875e+09 2.096798e+04 1.301750e+04 2.093050e+04
-3.578481e+09 -3.378401e+09 -3.536318e+09 -6.817860e+05 -7.773418e+05 4.987372e+05
-2.343968e+09 -2.144059e+09 -2.303041e+09 7.557451e+05 -7.069542e+05 -5.289493e+05
-2.015543e+09 -1.815591e+09 -1.975616e+09 2.099864e+04 9.228374e+03 1.854427e+04
-3.251440e+09 -3.051318e+09 -3.210772e+09 4.674090e+05 -1.396442e+05 -1.577067e+05
-2.749126e+09 -2.549058e+09 -2.709200e+09 6.035292e+04 6.322872e+04 4.185354e+04
-1.838064e+09 -1.638019e+09 -1.798081e+09 1.529201e+04 4.665597e+04 3.601831e+04
-1.652074e+09 -1.452072e+09 -1.611884e+09 1.226796e+04 1.109975e+05 5.130729e+04
-2.692536e+09 -2.492522e+09 -2.652596e+09 3.279645e+04 2.936167e+04 2.263625e+04
-3.403185e+09 -3.203103e+09 -3.363257e+09 6.377814e+04 3.080759e+04 2.600406e+04
-3.252606e+09 -3.052590e+09 -3.212699e+09 6.572830e+04 4.335042e+04 3.229163e+04
-1.697364e+09 -1.497300e+09 -1.656757e+09 5.991610e+04 -4.298992e+05 -1.020702e+05
-2.064627e+09 -1.864585e+09 -2.024664e+09 2.942220e+04 3.580156e+04 2.545135e+04
-3.088214e+09 -2.888166e+09 -3.048276e+09 4.409906e+04 2.697021e+04 1.678753e+04
-3.594371e+09 -3.393832e+09 -3.554185e+09 2.392467e+05 6.336395e+04 2.830889e+04
-2.563604e+09 -2.363569e+09 -2.523653e+09 2.782419e+04 3.214612e+04 2.362314e+04
-3.617790e+09 -3.417618e+09 -3.577729e+09 3.552031e+05 4.957376e+04 5.169657e+04
-3.597656e+09 -3.397601e+09 -3.557728e+09 4.514952e+04 3.160778e+04 2.331153e+04
-3.076781e+09 -2.877568e+09 -3.032254e+09 9.425532e+05 -1.386801e+06 -2.594376e+06
-2.999900e+09 -2.800942e+09 -2.953346e+09 4.638983e+05 2.283810e+05 -3.910001e+06
-2.764982e+09 -2.564831e+09 -2.725032e+09 -7.241249e+04 7.303798e+04 -3.934595e+04
-3.126800e+09 -2.926640e+09 -3.086850e+09 -5.248097e+04 6.373841e+04 -2.737256e+04
-1.756468e+09 -1.556235e+09 -1.716115e+09 7.810235e+04 -2.404075e+04 -1.895057e+04
-1.782290e+09 -1.582220e+09 -1.742277e+09 1.141948e+01 8.530332e+04 -3.709380e+04
-3.207888e+09 -3.007861e+09 -3.167986e+09 1.817116e+05 5.623770e+04 5.842990e+04
-2.339517e+09 -2.139566e+09 -2.299625e+09 9.374122e+04 6.020623e+04 8.530392e+04
-3.380452e+09 -3.179928e+09 -3.340235e+09 7.716570e+04 8.419489e+04 -2.979133e+04
-1.559648e+09 -1.359632e+09 -1.518791e+09 -6.540069e+04 -1.159649e+06 -1.255166e+05
-1.588532e+09 -1.388636e+09 -1.547814e+09 2.489021e+04 -9.769482e+05 -4.457474e+04
-2.081821e+09 -1.881486e+09 -2.041300e+09 1.101818e+05 8.791087e+04 3.039348e+03
-2.558971e+09 -2.359247e+09 -2.519166e+09 7.442365e+03 2.848294e+04 1.383026e+05
-3.556356e+09 -3.355208e+09 -3.514039e+09 6.245515e+05 -3.961681e+05 -1.314410e+05
-1.579802e+09 -1.379187e+09 -1.537131e+09 -2.329950e+05 -8.866310e+05 -3.233870e+06
-3.616699e+09 -3.417709e+09 -3.576289e+09 -1.892799e+05 1.519248e+05 -1.099064e+05
-2.167754e+09 -1.967886e+09 -2.127865e+09 7.426830e+04 5.414620e+04 1.483983e+05
-3.073860e+09 -2.874012e+09 -3.034065e+09 9.639561e+04 5.481960e+04 9.366337e+04
-1.565243e+09 -1.365204e+09 -1.524828e+09 -9.119821e+03 -1.619218e+05 6.586493e+03
-2.300274e+09 -2.100129e+09 -2.259263e+09 3.122169e+05 -1.818550e+05 -3.351688e+05
-3.049937e+09 -2.850113e+09 -3.010147e+09 1.173736e+05 5.166589e+04 9.666343e+04
-3.283362e+09 -3.083616e+09 -3.243591e+09 1.631423e+05 3.422791e+04 7.319885e+04
-3.616975e+09 -3.418044e+09 -3.576643e+09 -3.654367e+05 -2.336834e+04 -2.587629e+05
-1.586172e+09 -1.386203e+09 -1.546204e+09 -9.164061e+03 -2.050827e+04 8.623045e+04
-3.597231e+09 -3.395673e+09 -3.552192e+09 1.957939e+05 1.192285e+06 -1.545919e+05
-3.392804e+09 -3.192872e+09 -3.352995e+09 -1.334105e+05 -5.808249e+04 8.399129e+04
-3.287828e+09 -3.088706e+09 -3.247776e+09 -2.856162e+05 1.070982e+05 -2.930676e+05
-3.405367e+09 -3.205390e+09 -3.365447e+09 2.821697e+04 1.077124e+04 1.146930e+04
-3.400746e+09 -3.200777e+09 -3.360837e+09 3.320457e+04 1.827866e+04 1.477628e+04
-2.701770e+09 -2.501799e+09 -2.661840e+09 2.465954e+04 9.248542e+03 1.463366e+04
-3.588187e+09 -3.388559e+09 -3.548541e+09 1.165292e+05 1.821003e+04 9.993329e+04
-3.066045e+09 -2.866080e+09 -3.026138e+09 2.931245e+04 1.569714e+04 2.266614e+04
-2.151421e+09 -1.951309e+09 -2.111439e+09 5.863937e+04 9.408802e+04 4.176604e+04
-1.775110e+09 -1.575000e+09 -1.735046e+09 -8.964083e+03 1.167403e+05 3.844071e+04
-3.591497e+09 -3.392900e+09 -3.550650e+09 -8.558214e+04 -1.157183e+05 -5.571651e+05
-3.206116e+09 -3.006808e+09 -3.166608e+09 -1.366258e+05 3.026661e+04 9.998342e+03
-1.950168e+09 -1.750507e+09 -1.910345e+09 -1.131923e+05 -1.260860e+04 -3.539035e+04
-1.975515e+09 -1.775350e+09 -1.935457e+09 7.407098e+04 1.823253e+05 6.332704e+04
-1.957235e+09 -1.757055e+09 -1.917199e+09 6.086161e+04 1.018275e+05 4.335203e+04
-1.778198e+09 -1.578035e+09 -1.738075e+09 -2.859188e+04 1.338489e+05 6.231947e+04
-3.497937e+09 -3.298797e+09 -3.458404e+09 1.194868e+05 -1.822627e+04 2.778045e+04
-1.990255e+09 -1.790118e+09 -1.950244e+09 7.355613e+04 8.802032e+04 5.398299e+04
-3.383738e+09 -3.183760e+09 -3.343855e+09 -1.717523e+05 -5.897592e+04 7.336158e+04
-3.205952e+09 -3.006020e+09 -3.166097e+09 -1.623492e+05 -7.462171e+04 7.690608e+04
-3.271627e+09 -3.072510e+09 -3.231919e+09 -3.407148e+05 3.704869e+04 1.946325e+05
-3.610399e+09 -3.410098e+09 -3.570394e+09 -5.808947e+04 9.080414e+04 -1.874168e+04
-3.255054e+09 -3.055514e+09 -3.215248e+09 -4.088977e+05 6.993439e+04 6.407970e+04
-1.997874e+09 -1.797904e+09 -1.957958e+09 -4.506437e+04 -5.479812e+04 7.022575e+04
-2.455640e+09 -2.255561e+09 -2.415629e+09 -1.363014e+05 1.063467e+05 -6.758864e+04
-1.563466e+09 -1.363375e+09 -1.523216e+09 -3.619958e+03 -8.379706e+04 -8.106771e+04
-3.608246e+09 -3.408434e+09 -3.568168e+09 -4.573576e+05 -2.851614e+03 -5.429467e+04
-2.742543e+09 -2.542541e+09 -2.702647e+09 -9.971898e+04 -6.600382e+04 7.563999e+04
-2.567269e+09 -2.367278e+09 -2.527395e+09 -9.303231e+04 -6.750731e+04 7.670027e+04
-1.965909e+09 -1.765940e+09 -1.925996e+09 -7.820302e+04 -6.621684e+04 7.311765e+04
-2.519072e+09 -2.319165e+09 -2.479120e+09 -1.491116e+05 8.024431e+04 -1.258765e+05
-2.243853e+09 -2.043981e+09 -2.203975e+09 -7.084966e+04 -7.126494e+04 1.290458e+05
-1.780097e+09 -1.580464e+09 -1.739660e+09 -2.424248e+04 2.900163e+04 3.032373e+05
-1.979243e+09 -1.779962e+09 -1.938988e+09 1.024862e+05 1.647712e+05 4.801361e+05
-2.219176e+09 -2.019208e+09 -2.179245e+09 -1.189576e+05 1.092716e+05 -7.621461e+04
-2.314022e+09 -2.114712e+09 -2.274392e+09 1.519499e+04 2.347967e+05 -7.717818e+04
-3.608172e+09 -3.408567e+09 -3.568120e+09 -4.178774e+05 7.964115e+04 1.518994e+04
-1.635978e+09 -1.435956e+09 -1.595728e+09 -1.279303e+02 -1.296563e+05 3.909131e+04
-1.670094e+09 -1.470041e+09 -1.630102e+09 9.437880e+03 8.860088e+04 1.800003e+04
-1.673879e+09 -1.473808e+09 -1.633886e+09 6.729561e+03 6.459176e+04 6.219996e+03
-2.564838e+09 -2.366881e+09 -2.516345e+09 1.208714e+05 -4.960967e+05 5.367736e+06
-3.211525e+09 -3.011517e+09 -3.171682e+09 -1.118827e+05 6.943686e+04 -4.200142e+04
-3.236017e+09 -3.037123e+09 -3.194253e+09 -4.823183e+05 -5.967484e+05 1.472601e+06
-2.259114e+09 -2.059607e+09 -2.219407e+09 -1.496632e+05 1.386559e+05 -7.493289e+04
-3.315176e+09 -3.115054e+09 -3.275281e+09 -9.069939e+04 6.362033e+04 -3.410365e+04
-1.610680e+09 -1.410682e+09 -1.570713e+09 -1.761819e+04 -5.476437e+04 6.838818e+04
-2.178980e+09 -1.979665e+09 -2.139227e+09 -6.850478e+04 4.272398e+04 7.732744e+04
-2.254969e+09 -2.055600e+09 -2.215283e+09 -7.243408e+04 3.571372e+04 -8.954019e+03
-2.577975e+09 -2.378786e+09 -2.538197e+09 5.871904e+04 -6.471197e+04 4.135966e+04
-2.404275e+09 -2.204136e+09 -2.364312e+09 7.281706e+04 7.954440e+04 5.014932e+04
-2.133905e+09 -1.933792e+09 -2.093909e+09 5.173453e+04 9.331654e+04 3.567934e+04
-2.538084e+09 -2.337972e+09 -2.498113e+09 6.179377e+04 7.631807e+04 3.303872e+04
-2.559092e+09 -2.358989e+09 -2.519124e+09 6.802857e+04 7.667810e+04 3.979335e+04
-2.171870e+09 -1.971740e+09 -2.131864e+09 1.062023e+04 6.774019e+04 2.880397e+03
-2.140274e+09 -1.940200e+09 -2.100311e+09 4.249729e+04 6.537747e+04 2.870850e+04
-3.500309e+09 -3.300093e+09 -3.460337e+09 -2.968292e+04 5.115659e+04 -1.086059e+04
-2.045660e+09 -1.845572e+09 -2.005679e+09 9.413526e+04 7.650052e+04 4.636851e+04
-3.146252e+09 -2.946109e+09 -3.106309e+09 1.269113e+05 7.782130e+04 4.898907e+04
-2.157875e+09 -1.957825e+09 -2.117928e+09 7.518103e+04 8.200333e+04 5.946263e+04
-3.596105e+09 -3.395575e+09 -3.554950e+09 -5.653353e+05 -3.402597e+05 1.462891e+05
-2.980800e+09 -2.780606e+09 -2.940828e+09 1.302993e+04 5.882973e+04 4.464368e+03
-2.825221e+09 -2.625004e+09 -2.785239e+09 -5.152302e+04 1.100330e+05 -3.148550e+04
-2.570226e+09 -2.370189e+09 -2.530295e+09 7.726426e+04 6.660496e+04 5.536492e+04
-3.036430e+09 -2.836150e+09 -2.994817e+09 -6.894718e+05 -8.994641e+05 6.318706e+05
-2.113813e+09 -1.913596e+09 -2.073634e+09 -2.801958e+05 4.333257e+04 -2.489958e+04
-2.069755e+09 -1.869902e+09 -2.029676e+09 -3.567720e+05 -3.131536e+04 3.082172e+05
-2.574211e+09 -2.373549e+09 -2.533362e+09 -3.398235e+05 -3.137742e+05 2.237733e+05
-1.793923e+09 -1.593585e+09 -1.753538e+09 -9.710094e+04 -1.649985e+05 7.079840e+04
-2.215996e+09 -2.016175e+09 -2.176155e+09 2.093888e+04 -2.402310e+03 9.627112e+04
-3.476063e+09 -3.275938e+09 -3.436110e+09 5.126700e+04 3.790731e+04 1.652693e+04
-2.439875e+09 -2.240128e+09 -2.400077e+09 3.047732e+04 -2.684018e+03 1.173587e+05
-1.748243e+09 -1.548306e+09 -1.708258e+09 4.096708e+03 4.493326e+04 1.246563e+05
-2.367878e+09 -2.168044e+09 -2.328062e+09 3.892294e+04 3.772141e+04 1.379704e+05
-2.586171e+09 -2.386384e+09 -2.546383e+09 2.497565e+04 3.617573e+04 1.199381e+05
-1.599334e+09 -1.399324e+09 -1.559365e+09 -1.327460e+04 -5.714630e+04 4.954625e+04
-2.043865e+09 -1.843689e+09 -2.003861e+09 -2.923614e+04 1.459315e+05 -5.840913e+04
-1.824960e+09 -1.624818e+09 -1.784956e+09 -1.222559e+04 1.473088e+05 -4.107653e+04
-3.049203e+09 -2.848937e+09 -3.009208e+09 -1.799856e+04 1.151029e+05 -1.360281e+04
-3.499679e+09 -3.299832e+09 -3.459878e+09 -5.142221e+04 -1.785565e+04 5.375224e+04
-2.636783e+09 -2.436615e+09 -2.596800e+09 -2.987915e+03 9.952919e+04 -7.247666e+03
-3.329915e+09 -3.129629e+09 -3.289932e+09 -2.802583e+04 7.710565e+04 -1.436286e+04
-2.807997e+09 -2.607735e+09 -2.767991e+09 -3.699730e+03 8.754395e+04 -4.078760e+03
-3.403391e+09 -3.203083e+09 -3.363396e+09 1.755750e+04 9.753934e+04 -8.710684e+03
-2.658120e+09 -2.457880e+09 -2.618110e+09 -2.923409e+04 9.409280e+04 -2.965820e+03
-2.020752e+09 -1.820541e+09 -1.980670e+09 5.141647e+03 1.945685e+05 2.282302e+04
-2.996680e+09 -2.796782e+09 -2.956803e+09 -1.991797e+03 1.563360e+03 2.349815e+04
-1.685302e+09 -1.485379e+09 -1.645388e+09 -6.532371e+03 -4.327472e+03 2.127111e+04
-3.470158e+09 -3.270268e+09 -3.430283e+09 -7.462863e+03 -2.218858e+03 1.947684e+04
-2.647973e+09 -2.447798e+09 -2.607980e+09 -8.280414e+03 1.007588e+05 -5.025901e+03
-2.633654e+09 -2.433849e+09 -2.593850e+09 2.856656e+04 2.298012e+03 9.579156e+04
-3.607571e+09 -3.406964e+09 -3.567144e+09 3.265299e+05 -1.150885e+05 -1.405964e+04
-3.191750e+09 -2.991243e+09 -3.151453e+09 -8.814666e+04 -6.078718e+04 1.713094e+04
-2.606390e+09 -2.406687e+09 -2.566693e+09 2.038217e+04 1.529043e+04 1.484462e+05
-1.714901e+09 -1.514838e+09 -1.674901e+09 -1.454764e+03 -1.409225e+05 9.380068e+03
-1.571863e+09 -1.371832e+09 -1.531799e+09 1.443695e+04 -1.735114e+05 3.481677e+03
-3.503414e+09 -3.302544e+09 -3.462580e+09 2.989245e+05 7.684419e+04 -4.345569e+04
-2.795782e+09 -2.596064e+09 -2.756067e+09 3.293876e+04 1.613756e+04 1.552456e+05
-3.559880e+09 -3.359196e+09 -3.519408e+09 2.303809e+05 1.127186e+05 1.161047e+04
-3.591872e+09 -3.390709e+09 -3.550078e+09 2.045140e+05 2.028913e+05 6.658113e+04
-2.413654e+09 -2.213801e+09 -2.373806e+09 2.970937e+04 1.784001e+04 1.076440e+05
-3.549981e+09 -3.349314e+09 -3.509688e+09 1.105567e+04 1.391481e+05 -2.132758e+03
-2.021497e+09 -1.821548e+09 -1.981414e+09 -2.204139e+05 -3.155192e+04 -9.239348e+04
-1.635454e+09 -1.435172e+09 -1.594123e+09 -3.275270e+04 -1.501436e+06 -5.809486e+05
-2.821390e+09 -2.621627e+09 -2.781637e+09 5.649952e+04 2.967119e+04 8.745257e+04
-3.387348e+09 -3.187634e+09 -3.347619e+09 5.586063e+04 1.790466e+04 8.471761e+04
-2.278406e+09 -2.080148e+09 -2.233920e+09 -2.912533e+05 2.557143e+05 -2.249151e+06
-3.511718e+09 -3.312659e+09 -3.471600e+09 3.473866e+05 -1.103207e+05 2.819124e+04
-3.402914e+09 -3.203179e+09 -3.363213e+09 5.900007e+04 2.596056e+04 7.858666e+04
-3.482882e+09 -3.282683e+09 -3.442880e+09 -2.789101e+05 -1.025954e+05 1.043957e+05
-2.414343e+09 -2.214315e+09 -2.374421e+09 -7.416777e+04 -6.628512e+04 5.998245e+04
-3.407924e+09 -3.207744e+09 -3.365192e+09 -9.968621e+05 1.200736e+06 -1.237075e+06
-2.770142e+09 -2.570427e+09 -2.730410e+09 5.347111e+04 2.022088e+04 1.341093e+05
-1.988169e+09 -1.788164e+09 -1.948243e+09 4.819467e+04 -5.313774e+04 -2.949924e+04
-1.988209e+09 -1.788087e+09 -1.948235e+09 3.380718e+04 -5.600984e+04 -2.639892e+04
-1.568859e+09 -1.368794e+09 -1.528765e+09 -3.312345e+03 5.446589e+04 1.495344e+04
-3.183608e+09 -2.983510e+09 -3.143718e+09 8.214090e+04 -6.964730e+04 -4.091823e+04
-1.982384e+09 -1.782328e+09 -1.942397e+09 1.172308e+04 -7.572813e+04 -4.749259e+04
-2.275209e+09 -2.075113e+09 -2.235240e+09 4.258393e+04 -6.659904e+04 -2.898309e+04
-2.517853e+09 -2.317475e+09 -2.477796e+09 -2.007298e+05 -8.821638e+02 5.962742e+04
-2.248986e+09 -2.049945e+09 -2.208744e+09 -1.849268e+05 3.569915e+05 -2.512728e+05
-2.224098e+09 -2.024016e+09 -2.184162e+09 6.660771e+04 -1.043822e+05 -6.610591e+04
-2.765852e+09 -2.566419e+09 -2.726060e+09 5.511016e+05 -1.368390e+03 4.215012e+05
-3.468182e+09 -3.268575e+09 -3.427277e+09 -6.101797e+05 1.270370e+05 -1.997399e+04
-3.622962e+09 -3.421732e+09 -3.581103e+09 -3.171546e+05 5.241993e+05 -8.023560e+04
-1.792110e+09 -1.592536e+09 -1.752211e+09 1.165433e+05 1.805196e+05 2.335835e+05
-1.981164e+09 -1.781713e+09 -1.941012e+09 1.394687e+05 -8.124849e+04 2.751172e+05
-2.391563e+09 -2.192119e+09 -2.351457e+09 2.968208e+05 9.909199e+04 2.711496e+05
-2.660385e+09 -2.461369e+09 -2.619958e+09 -3.753962e+05 -1.366741e+05 -8.195129e+05
-3.294430e+09 -3.095006e+09 -3.254033e+09 -4.675404e+05 1.523160e+04 -2.587192e+05
-3.578411e+09 -3.378715e+09 -3.538750e+09 1.166148e+05 3.546932e+04 7.577861e+04
-3.128472e+09 -2.927878e+09 -3.088127e+09 -3.555832e+04 -5.019462e+03 -4.638146e+04
-2.954387e+09 -2.754765e+09 -2.914603e+09 -1.450936e+05 -2.098915e+03 8.175874e+04
-2.865621e+09 -2.665747e+09 -2.825773e+09 -1.817377e+05 -7.821347e+04 1.249459e+05
-3.549909e+09 -3.349127e+09 -3.509567e+09 -4.273739e+02 -4.432573e+03 1.133458e+04
-2.618563e+09 -2.419071e+09 -2.578144e+09 -3.088044e+05 9.418323e+04 -1.980124e+05
-2.097942e+09 -1.898282e+09 -2.057851e+09 -2.913714e+05 2.041198e+05 1.865586e+04
-1.585536e+09 -1.385522e+09 -1.545254e+09 1.331086e+04 1.985786e+03 6.990784e+04
-1.953350e+09 -1.753285e+09 -1.913343e+09 -3.140589e+05 1.627580e+04 -1.078913e+05
-2.748132e+09 -2.548070e+09 -2.708209e+09 8.432695e+04 6.474932e+04 5.570233e+04
-3.331631e+09 -3.131394e+09 -3.291254e+09 -3.386099e+05 4.316554e+03 -4.031603e+04
-2.728468e+09 -2.528395e+09 -2.688532e+09 7.997713e+04 6.152882e+04 3.708409e+04
-3.272396e+09 -3.072747e+09 -3.232285e+09 -3.410481e+05 4.856351e+04 5.204373e+04
-1.532895e+09 -1.332860e+09 -1.492545e+09 -2.603712e+04 7.248854e+04 7.943382e+04
-1.589848e+09 -1.389869e+09 -1.549682e+09 1.000345e+04 -8.191581e+04 1.538287e+05
-2.832836e+09 -2.632794e+09 -2.792935e+09 8.988455e+04 6.408267e+04 5.171120e+04
-2.750612e+09 -2.550523e+09 -2.710679e+09 7.047231e+04 6.452159e+04 4.043373e+04
-2.639290e+09 -2.439177e+09 -2.599362e+09 -9.177698e+04 -7.578540e+04 5.955983e+04
-1.589823e+09 -1.389857e+09 -1.549649e+09 1.151928e+04 -7.134055e+04 2.861074e+04
-3.344279e+09 -3.144198e+09 -3.304374e+09 8.501266e+04 5.914641e+04 3.061820e+04
-1.630413e+09 -1.430426e+09 -1.590330e+09 -3.586307e+03 -9.257029e+04 6.923847e+04
-3.407162e+09 -3.207127e+09 -3.367301e+09 1.203306e+05 6.211848e+04 4.452715e+04
-3.322181e+09 -3.122074e+09 -3.282247e+09 8.654704e+04 6.621306e+04 4.733503e+04
-2.421345e+09 -2.221603e+09 -2.381599e+09 -2.316242e+05 1.829411e+04 -3.133427e+04
-2.965964e+09 -2.766432e+09 -2.926054e+09 1.565795e+05 2.481020e+04 1.007192e+05
-2.042273e+09 -1.842726e+09 -2.002589e+09 2.910196e+04 -1.198990e+05 5.217372e+04
-3.239756e+09 -3.040075e+09 -3.199994e+09 -1.104375e+05 -2.631691e+04 9.266008e+04
-1.595703e+09 -1.395742e+09 -1.555740e+09 -9.422364e+03 -4.473684e+04 9.087467e+04
-1.856431e+09 -1.656520e+09 -1.816525e+09 -4.511029e+03 -3.372769e+03 2.644099e+04
-3.262915e+09 -3.063714e+09 -3.223275e+09 5.133640e+04 1.474196e+04 1.129735e+05
-1.583882e+09 -1.383935e+09 -1.543951e+09 -1.118631e+04 -9.948811e+03 2.249525e+04
-2.618008e+09 -2.418073e+09 -2.578100e+09 -1.626799e+04 -7.202408e+03 1.837259e+04
-2.963822e+09 -2.764449e+09 -2.924065e+09 2.423089e+04 1.162770e+03 1.555525e+04
-3.129770e+09 -2.930266e+09 -3.090020e+09 2.858294e+02 1.359901e+04 1.321263e+05
-1.583291e+09 -1.383317e+09 -1.539745e+09 -1.808652e+05 3.180368e+06 -8.281193e+04
-3.634887e+09 -3.435062e+09 -3.594689e+09 3.999625e+05 -5.606296e+04 -2.466110e+04
-2.606625e+09 -2.405199e+09 -2.554246e+09 -6.670041e+05 3.749217e+06 -9.366255e+05
-3.403292e+09 -3.203596e+09 -3.361321e+09 -6.336861e+05 -2.503638e+05 7.557779e+05
-1.744665e+09 -1.544789e+09 -1.704792e+09 6.711821e+04 4.593808e+04 1.250625e+05
-2.428306e+09 -2.227869e+09 -2.376754e+09 9.956423e+05 -4.564211e+06 -2.915911e+06
-2.043374e+09 -1.843556e+09 -2.003537e+09 4.596675e+04 6.095165e+04 1.321701e+05
-3.031408e+09 -2.831902e+09 -2.991666e+09 7.414670e+04 8.408223e+03 9.960472e+04
-3.507609e+09 -3.308247e+09 -3.467983e+09 2.073994e+05 3.022284e+04 7.217591e+04
-3.291384e+09 -3.091138e+09 -3.251285e+09 -2.831939e+05 -2.107283e+04 -4.600110e+04
-1.951742e+09 -1.753059e+09 -1.908684e+09 -6.903132e+05 -1.790982e+06 3.724961e+06
-1.577268e+09 -1.377304e+09 -1.536747e+09 -1.782036e+04 8.611409e+04 2.813899e+05
-1.595404e+09 -1.395425e+09 -1.553805e+09 -7.963357e+04 -5.166039e+05 7.034002e+05
-1.581126e+09 -1.380861e+09 -1.536732e+09 5.181646e+04 -3.033102e+05 3.233204e+06
-1.614379e+09 -1.414339e+09 -1.574307e+09 5.991046e+04 1.492163e+05 1.206984e+05
-3.399523e+09 -3.201179e+09 -3.355942e+09 3.241668e+05 5.686672e+04 1.497568e+06
-2.541293e+09 -2.339803e+09 -2.498822e+09 -2.416636e+05 1.213511e+06 -1.279750e+05
-3.634813e+09 -3.435279e+09 -3.594995e+09 4.170522e+05 -6.898118e+04 3.316243e+04
-2.513442e+09 -2.313134e+09 -2.463175e+09 -9.790408e+05 3.398563e+06 -4.122892e+06
-3.149855e+09 -2.949520e+09 -3.109724e+09 -1.651654e+05 -5.463952e+04 4.098082e+04
-1.891465e+09 -1.691418e+09 -1.851412e+09 -3.637251e+04 -1.305341e+05 3.011504e+04
-1.781423e+09 -1.581220e+09 -1.741411e+09 -4.742802e+04 -1.557770e+05 8.113214e+04
-3.000624e+09 -2.800240e+09 -2.959707e+09 -3.361060e+05 1.152187e+05 -1.195198e+05
-1.684212e+09 -1.484236e+09 -1.644266e+09 7.260246e+03 1.607384e+03 2.062532e+03
-3.587618e+09 -3.388002e+09 -3.547924e+09 -3.111747e+05 -4.844323e+04 1.193997e+05
-2.022519e+09 -1.822625e+09 -1.982631e+09 -1.610326e+05 -9.646644e+04 8.084759e+04
-2.479595e+09 -2.279480e+09 -2.439439e+09 -1.872394e+05 -1.110258e+05 1.598210e+05
-3.472724e+09 -3.272788e+09 -3.432813e+09 1.588213e+04 2.632719e+03 8.438399e+03
-3.217325e+09 -3.016570e+09 -3.176384e+09 -2.372242e+05 5.723062e+04 6.915792e+04
-3.120689e+09 -2.920348e+09 -3.080335e+09 -2.704742e+05 3.244384e+04 -7.016737e+04
-1.693712e+09 -1.493580e+09 -1.652839e+09 -1.219705e+05 1.146704e+05 -2.246899e+05
-1.913655e+09 -1.713315e+09 -1.873360e+09 -5.066893e+03 -1.683769e+05 -7.304891e+04
-3.167234e+09 -2.967063e+09 -3.127302e+09 -9.131849e+04 -7.846752e+04 3.251601e+04
-1.610053e+09 -1.410118e+09 -1.570118e+09 1.265320e+04 2.417522e+04 1.052219e+05
-3.603861e+09 -3.404108e+09 -3.564140e+09 9.005665e+04 1.952384e+04 7.568776e+04
-1.566855e+09 -1.366893e+09 -1.526927e+09 1.417681e+04 2.915066e+04 7.583604e+04
-2.076601e+09 -1.876503e+09 -2.036620e+09 -5.304199e+04 -8.363180e+04 4.080140e+04
-1.575034e+09 -1.375094e+09 -1.535098e+09 1.426254e+04 2.358873e+04 6.987785e+04
-3.532941e+09 -3.333147e+09 -3.493170e+09 4.791565e+04 1.217255e+04 5.881827e+04
-2.173051e+09 -1.972955e+09 -2.133088e+09 -6.317087e+04 -9.168593e+04 5.079102e+04
-3.138414e+09 -2.938207e+09 -3.098430e+09 9.756479e+04 1.017946e+05 5.005527e+04
-2.139838e+09 -1.939731e+09 -2.099835e+09 -2.982829e+04 -1.208756e+05 5.138622e+04
-2.604985e+09 -2.404791e+09 -2.565030e+09 -9.890382e+04 -9.437973e+04 5.863360e+04
-2.778736e+09 -2.578562e+09 -2.738766e+09 -1.210017e+05 -1.090457e+05 6.740297e+04
-3.586166e+09 -3.385991e+09 -3.546227e+09 8.413512e+04 5.399794e+04 2.316828e+04
-2.256797e+09 -2.056694e+09 -2.216807e+09 3.333453e+04 -8.995410e+04 -4.897707e+04
-2.309194e+09 -2.109117e+09 -2.269226e+09 3.039772e+04 5.483226e+04 3.159689e+04
-2.719477e+09 -2.519199e+09 -2.679473e+09 9.547378e+04 -1.048459e+05 -4.360184e+04
-1.858305e+09 -1.658223e+09 -1.818288e+09 2.445551e+04 -1.337223e+05 -3.138470e+04
-2.261702e+09 -2.061576e+09 -2.221732e+09 1.061953e+05 -1.245475e+05 -5.986468e+04
-3.178132e+09 -2.978005e+09 -3.138222e+09 8.204852e+04 -7.016939e+04 -2.728340e+04
-3.244681e+09 -3.044554e+09 -3.204742e+09 7.201509e+04 -7.565447e+04 -4.293522e+04
-2.737781e+09 -2.537145e+09 -2.697597e+09 1.411360e+05 1.133754e+05 -6.258580e+04
-1.736549e+09 -1.536508e+09 -1.696316e+09 7.617537e+04 4.948100e+04 7.687547e+04
-1.580563e+09 -1.380659e+09 -1.536775e+09 3.412226e+05 -2.806689e+06 1.775458e+06
-3.363163e+09 -3.162590e+09 -3.322743e+09 1.587527e+05 6.939858e+04 -1.574730e+04
-2.664997e+09 -2.463486e+09 -2.621648e+09 -4.657454e+05 -2.172017e+06 1.110178e+06
-3.628559e+09 -3.427913e+09 -3.584250e+09 -4.476881e+05 -1.434542e+06 8.164353e+05
-3.543635e+09 -3.342185e+09 -3.495990e+09 -8.140450e+04 -1.750230e+06 -2.262684e+05
-1.596126e+09 -1.396119e+09 -1.553185e+09 1.366705e+05 -2.878357e+06 2.640874e+05
-1.601634e+09 -1.401610e+09 -1.559273e+09 3.439834e+04 -2.445259e+06 2.399602e+06
-1.782152e+09 -1.582134e+09 -1.741859e+09 1.074069e+05 -1.106789e+05 2.266605e+04
-3.324400e+09 -3.123750e+09 -3.283789e+09 3.059383e+05 6.806496e+04 -7.077485e+04
-1.662614e+09 -1.462615e+09 -1.622545e+09 -1.014605e+04 1.422840e+05 -4.141812e+04
-1.660232e+09 -1.460503e+09 -1.620173e+09 1.196155e+05 -3.496160e+06 5.037596e+05
-3.628178e+09 -3.427351e+09 -3.584143e+09 -7.229618e+05 -8.764634e+05 5.392013e+05
-3.346020e+09 -3.144943e+09 -3.300296e+09 3.795558e+05 -1.363807e+06 -9.463617e+05
-2.944831e+09 -2.744566e+09 -2.902714e+09 6.226935e+05 -8.423165e+05 -5.204437e+05
-3.412092e+09 -3.213716e+09 -3.369726e+09 2.225553e+05 -1.116253e+05 -1.507640e+06
-3.201252e+09 -3.001589e+09 -3.161534e+09 6.193995e+04 4.556191e+04 9.305151e+04
-3.586382e+09 -3.386595e+09 -3.544831e+09 6.244235e+05 -2.174015e+05 -1.397845e+05
-1.567901e+09 -1.367869e+09 -1.527499e+09 3.729948e+04 -3.795267e+05 -3.514615e+05
-1.581762e+09 -1.381790e+09 -1.541789e+09 1.222795e+04 5.453884e+04 9.583220e+04
-1.569823e+09 -1.369852e+09 -1.529825e+09 7.742322e+03 5.787657e+04 1.227763e+05
-2.586420e+09 -2.386224e+09 -2.546138e+09 1.788493e+05 5.315841e+04 6.773724e+04
-2.709306e+09 -2.508873e+09 -2.669075e+09 1.966144e+05 1.380375e+05 2.491692e+04
-3.142188e+09 -2.941769e+09 -3.101796e+09 2.636371e+05 -3.404738e+04 -9.232778e+03
-3.024462e+09 -2.822673e+09 -2.977486e+09 -7.076193e+05 3.498255e+06 -1.098770e+06
-1.569822e+09 -1.369850e+09 -1.529833e+09 5.059905e+03 4.130048e+04 1.298906e+05
-1.605230e+09 -1.405207e+09 -1.565171e+09 1.497672e+04 1.608571e+05 9.345471e+04
-3.591042e+09 -3.390139e+09 -3.550485e+09 -1.519891e+05 -1.473405e+04 1.736924e+04
-1.574439e+09 -1.374465e+09 -1.534492e+09 1.905764e+04 3.362960e+04 4.868721e+04
-3.419931e+09 -3.218696e+09 -3.377750e+09 -2.923566e+05 5.628985e+05 -2.056517e+05
-2.820615e+09 -2.620708e+09 -2.780757e+09 4.486333e+04 2.163431e+04 4.462890e+04
-1.672769e+09 -1.472794e+09 -1.632757e+09 1.340808e+04 1.742384e+04 9.325961e+04
-3.558764e+09 -3.358895e+09 -3.518981e+09 1.542416e+05 3.862057e+04 7.506414e+04
-2.451327e+09 -2.251440e+09 -2.411434e+09 9.502624e+04 7.053496e+04 1.045572e+05
-1.791390e+09 -1.591506e+09 -1.751510e+09 2.834036e+04 3.067624e+04 9.975853e+04
-1.813800e+09 -1.613299e+09 -1.770409e+09 2.921151e+05 3.488966e+06 1.378413e+06
-3.147126e+09 -2.945073e+09 -3.101665e+09 6.354500e+05 3.089758e+06 2.072051e+06
-2.359991e+09 -2.160009e+09 -2.320071e+09 8.053073e+04 8.238573e+04 9.340231e+04
-2.449618e+09 -2.248560e+09 -2.406691e+09 1.906603e+05 1.079946e+06 7.002125e+05
-3.032843e+09 -2.832411e+09 -2.992055e+09 3.391506e+05 -1.418743e+05 -2.923307e+03
-3.602544e+09 -3.402607e+09 -3.562666e+09 4.889425e+04 1.444757e+04 2.406758e+04
-2.023512e+09 -1.823427e+09 -1.983540e+09 2.774599e+04 5.262981e+04 3.170266e+04
-3.598791e+09 -3.398800e+09 -3.558963e+09 1.362371e+05 5.810574e+04 5.726674e+04
-1.534722e+09 -1.334746e+09 -1.494775e+09 1.639541e+04 8.997121e+03 1.286727e+04
-3.373489e+09 -3.173136e+09 -3.333183e+09 3.248765e+05 -9.266136e+04 1.859849e+04
-2.373565e+09 -2.173612e+09 -2.333665e+09 4.229837e+04 3.275581e+04 4.900350e+04
-2.498365e+09 -2.298052e+09 -2.458081e+09 2.043690e+05 -4.928154e+04 2.326719e+04
-1.849213e+09 -1.649182e+09 -1.809172e+09 2.784970e+04 -1.747392e+05 -2.971286e+04
-1.564811e+09 -1.364832e+09 -1.524865e+09 1.650605e+04 1.572971e+04 1.992723e+04
-1.674063e+09 -1.474065e+09 -1.634107e+09 1.420787e+04 9.436984e+03 8.708981e+03
-2.692749e+09 -2.492471e+09 -2.652705e+09 6.274748e+04 -1.054312e+05 -2.546929e+04
-1.594666e+09 -1.394852e+09 -1.554229e+09 5.300742e+04 -7.716721e+05 -6.336572e+05
-3.089550e+09 -2.889205e+09 -3.049468e+09 5.221211e+04 -1.618376e+05 -4.016260e+04
-2.074902e+09 -1.874627e+09 -2.034875e+09 7.104815e+04 -1.269592e+05 -2.279369e+04
-2.013600e+09 -1.813595e+09 -1.973667e+09 7.722776e+04 7.280223e+04 6.959406e+04
-3.543083e+09 -3.342978e+09 -3.502846e+09 5.206331e+05 -4.785934e+04 8.037005e+04
-1.572196e+09 -1.372225e+09 -1.532121e+09 9.708576e+03 8.678197e+04 1.020368e+05
-1.797398e+09 -1.597298e+09 -1.757363e+09 3.932718e+04 -1.260813e+05 -2.411549e+04
-2.624845e+09 -2.423949e+09 -2.583948e+09 -3.395091e+04 1.440168e+04 -1.344723e+05
-1.683711e+09 -1.483758e+09 -1.643726e+09 1.187957e+04 2.892861e+04 1.496694e+05
-2.846099e+09 -2.646609e+09 -2.806359e+09 -1.266999e+04 1.944969e+04 -3.452406e+04
-3.065242e+09 -2.864810e+09 -3.025078e+09 2.621277e+04 -9.469580e+04 -1.934460e+04
-3.192989e+09 -2.992590e+09 -3.152881e+09 -2.649170e+03 -1.165655e+05 -1.094341e+04
-1.672757e+09 -1.472773e+09 -1.632673e+09 2.502345e+04 9.450321e+04 6.406782e+04
-1.594784e+09 -1.394830e+09 -1.554324e+09 1.585728e+03 -2.105694e+04 -1.786390e+05
-1.577263e+09 -1.377320e+09 -1.537213e+09 1.029693e+04 9.269878e+04 9.254699e+04
-2.578721e+09 -2.378729e+09 -2.538781e+09 9.412393e+04 8.709513e+04 8.434120e+04
-2.432259e+09 -2.232321e+09 -2.392358e+09 2.807390e+04 2.163590e+04 3.649110e+04
-3.564854e+09 -3.364416e+09 -3.524659e+09 2.967902e+05 1.124786e+05 2.588941e+04
-2.633605e+09 -2.433491e+09 -2.593673e+09 1.387755e+05 1.033036e+05 6.155034e+04
-1.890381e+09 -1.690252e+09 -1.849870e+09 1.223471e+05 -1.032369e+05 -1.506622e+05
-2.060611e+09 -1.860776e+09 -2.020786e+09 8.689217e+04 3.821472e+04 1.283161e+05
-1.589197e+09 -1.389166e+09 -1.549016e+09 -5.935553e+03 -1.488126e+05 -8.677820e+04
-1.995284e+09 -1.795382e+09 -1.955397e+09 4.721888e+04 3.789902e+04 7.590264e+04
-2.134950e+09 -1.935020e+09 -2.095056e+09 5.772919e+04 5.708665e+04 8.428383e+04
-3.599582e+09 -3.399179e+09 -3.559080e+09 3.883102e+05 3.635694e+04 7.728581e+04
-1.588935e+09 -1.388972e+09 -1.548984e+09 1.555097e+04 3.783023e+04 6.178963e+04
-1.589208e+09 -1.389212e+09 -1.549062e+09 -2.608439e+03 1.566069e+05 4.340395e+04
-3.213909e+09 -3.014027e+09 -3.174078e+09 5.713835e+04 2.347635e+04 5.734545e+04
-3.368130e+09 -3.168305e+09 -3.328434e+09 1.907414e+05 5.443575e+04 7.108406e+04
-1.758848e+09 -1.558872e+09 -1.718946e+09 8.371602e+04 8.601178e+04 1.227839e+05
-1.875820e+09 -1.675917e+09 -1.835913e+09 4.749182e+04 6.188746e+04 1.232385e+05
-2.417192e+09 -2.217123e+09 -2.377243e+09 -7.417561e+04 -8.387584e+04 5.499528e+04
-1.925655e+09 -1.725588e+09 -1.885693e+09 -3.451693e+04 -6.169225e+04 4.618312e+04
-3.055020e+09 -2.854836e+09 -3.015054e+09 -8.211128e+04 -8.401634e+04 2.658663e+04
-2.986818e+09 -2.786688e+09 -2.946869e+09 -5.699423e+04 -8.034830e+04 3.619080e+04
-1.860424e+09 -1.660495e+09 -1.820508e+09 1.261547e+04 6.031700e+03 1.704381e+04
-3.613581e+09 -3.414243e+09 -3.574021e+09 6.642002e+04 -4.736330e+03 1.173146e+05
-2.100797e+09 -1.900874e+09 -2.060884e+09 1.349961e+04 3.840322e+03 1.717955e+04
-3.279688e+09 -3.079745e+09 -3.239804e+09 4.818959e+04 1.808195e+04 2.371115e+04
-1.784788e+09 -1.584802e+09 -1.744784e+09 -3.706093e+04 -1.144857e+05 6.251798e+04
-1.569749e+09 -1.369692e+09 -1.529735e+09 -5.193121e+03 -1.160954e+05 2.395590e+04
-2.556796e+09 -2.356469e+09 -2.516788e+09 -1.026381e+05 -1.777909e+05 5.623596e+04
-2.635575e+09 -2.435285e+09 -2.595511e+09 -2.503200e+04 -1.637507e+05 -2.036623e+03
-2.284912e+09 -2.084955e+09 -2.244979e+09 1.165786e+04 2.625107e+03 5.113477e+03
-3.584551e+09 -3.384598e+09 -3.544647e+09 3.070210e+04 9.531365e+03 1.510998e+04
-1.959666e+09 -1.759729e+09 -1.919742e+09 9.582953e+03 3.087149e+03 1.463641e+04
-3.327010e+09 -3.126566e+09 -3.286974e+09 -5.370123e+04 -1.293229e+05 1.454878e+04
-1.982575e+09 -1.782291e+09 -1.942467e+09 -5.052343e+04 -2.015202e+05 3.304371e+04
-3.366789e+09 -3.166430e+09 -3.326709e+09 -1.345872e+05 -7.827550e+04 2.518152e+04
-2.974299e+09 -2.774371e+09 -2.934392e+09 1.300723e+04 4.688529e+03 1.448137e+04
-2.082372e+09 -1.882172e+09 -2.042349e+09 -4.240216e+04 -1.123372e+05 3.826255e+04
-2.924813e+09 -2.724807e+09 -2.884927e+09 -2.202734e+05 4.405964e+04 -4.212799e+04
-1.960098e+09 -1.760003e+09 -1.920153e+09 -1.423205e+05 1.660055e+05 -6.524961e+04
-1.977678e+09 -1.777763e+09 -1.937770e+09 -1.034669e+03 2.891249e+03 2.109971e+04
-2.050939e+09 -1.850880e+09 -2.010956e+09 -1.173430e+05 1.653677e+05 -7.751331e+04
-1.698350e+09 -1.498428e+09 -1.658435e+09 -1.632627e+03 -1.299469e+03 1.883576e+04
-2.187053e+09 -1.986845e+09 -2.147028e+09 -1.349038e+05 1.295858e+05 -6.523055e+04
-2.145033e+09 -1.944868e+09 -2.105097e+09 -1.145620e+05 1.294949e+05 -5.113813e+04
-1.674146e+09 -1.474103e+09 -1.634156e+09 -8.856448e+03 -9.038176e+04 2.358826e+04
-3.409905e+09 -3.209859e+09 -3.369933e+09 -2.805585e+05 7.369178e+04 -4.103160e+04
-2.070960e+09 -1.871005e+09 -2.031027e+09 -1.868759e+05 2.022622e+05 -1.079124e+05
-2.558312e+09 -2.358113e+09 -2.518309e+09 2.666662e+04 -1.442181e+05 -1.709956e+04
-2.974283e+09 -2.774290e+09 -2.934380e+09 -9.693175e+04 7.547630e+04 -6.220106e+04
-3.383795e+09 -3.183697e+09 -3.343835e+09 -2.037240e+05 7.158659e+04 -4.936452e+04
-2.008043e+09 -1.808057e+09 -1.968100e+09 -2.007986e+04 -1.791208e+04 1.525507e+04
-2.007935e+09 -1.807949e+09 -1.967990e+09 -1.989629e+04 -2.992832e+04 2.040818e+04
-2.619955e+09 -2.419945e+09 -2.580031e+09 -4.358478e+04 -4.002566e+04 3.987414e+04
-3.552943e+09 -3.353021e+09 -3.513159e+09 2.624422e+05 -7.332399e+04 -8.115385e+04
-1.801116e+09 -1.601143e+09 -1.761172e+09 -2.407043e+04 -5.158930e+04 4.909520e+04
-1.775664e+09 -1.575684e+09 -1.735710e+09 -2.122407e+04 -3.662060e+04 4.302742e+04
-1.695199e+09 -1.495213e+09 -1.655014e+09 2.387732e+04 -6.880307e+04 5.680596e+04
-2.785434e+09 -2.585459e+09 -2.745534e+09 -5.405742e+04 -3.585039e+04 3.991270e+04
-1.592320e+09 -1.392287e+09 -1.552316e+09 2.126054e+03 -9.922005e+04 -2.327883e+04
-2.637767e+09 -2.437816e+09 -2.597842e+09 -1.132816e+04 -4.829177e+03 9.358437e+03
-3.427204e+09 -3.227254e+09 -3.387291e+09 -2.085640e+04 -6.822817e+03 1.127216e+04
-2.196436e+09 -1.996207e+09 -2.156390e+09 1.438069e+04 -1.539077e+05 -1.201669e+04
-2.760470e+09 -2.560071e+09 -2.720376e+09 -1.245572e+05 -1.839785e+05 4.666776e+04
-3.627897e+09 -3.427881e+09 -3.587870e+09 3.177806e+05 -9.923785e+04 -5.853196e+04
-3.513161e+09 -3.313220e+09 -3.473251e+09 -1.433141e+04 -4.212286e+03 7.813574e+03
-3.410515e+09 -3.210588e+09 -3.370629e+09 -2.780201e+04 -8.639743e+03 1.890917e+04
-2.467073e+09 -2.267123e+09 -2.427158e+09 -2.095188e+04 -9.697388e+03 2.471741e+04
-1.674148e+09 -1.474094e+09 -1.634145e+09 -3.534808e+03 -9.139904e+04 -1.505141e+04
-3.606077e+09 -3.405549e+09 -3.565963e+09 -1.681811e+04 -1.147561e+05 1.431640e+04
-3.049523e+09 -2.849176e+09 -3.009515e+09 -1.325720e+04 -8.652932e+04 1.705668e+03
-1.799879e+09 -1.599788e+09 -1.759802e+09 6.266891e+04 -1.657756e+05 -7.140663e+04
-2.955928e+09 -2.755886e+09 -2.916021e+09 8.429507e+04 6.571311e+04 5.166678e+04
-3.138001e+09 -2.937861e+09 -3.098068e+09 1.042485e+05 8.038324e+04 5.450220e+04
-1.763121e+09 -1.563180e+09 -1.723191e+09 3.450912e+04 4.807218e+04 1.106106e+05
-1.862109e+09 -1.662213e+09 -1.822141e+09 -5.761401e+03 4.803122e+04 1.369001e+05
-1.587244e+09 -1.387305e+09 -1.547317e+09 1.428602e+04 1.119556e+04 3.849972e+04
-2.803591e+09 -2.603683e+09 -2.763702e+09 6.001338e+03 3.099105e+03 2.488091e+04
-1.853087e+09 -1.653168e+09 -1.813174e+09 5.245830e+03 3.357246e+03 3.813341e+04
-2.651342e+09 -2.451570e+09 -2.611572e+09 8.007561e+04 3.779237e+04 8.219484e+04
-3.162014e+09 -2.962310e+09 -3.122304e+09 2.493614e+04 1.622817e+04 7.806938e+04
-3.362949e+09 -3.163283e+09 -3.323245e+09 2.131879e+04 -9.254406e+02 7.909399e+04
-3.393183e+09 -3.193566e+09 -3.353548e+09 7.064701e+04 3.087694e+04 9.772764e+04
-3.161751e+09 -2.962078e+09 -3.122029e+09 5.721580e+03 -2.260662e+03 8.456318e+04
-3.500292e+09 -3.300403e+09 -3.460415e+09 -1.805692e+03 -2.316059e+03 1.692175e+04
-3.292712e+09 -3.092807e+09 -3.252836e+09 -2.535476e+04 -5.479354e+03 2.254909e+04
-2.798961e+09 -2.599065e+09 -2.759089e+09 2.222206e+04 1.152941e+04 3.809308e+04
-3.593067e+09 -3.393169e+09 -3.553223e+09 5.479993e+04 1.429740e+04 3.194088e+04
-3.201517e+09 -3.001312e+09 -3.161539e+09 -4.920513e+04 -7.174403e+04 2.014550e+04
-3.201751e+09 -3.001827e+09 -3.161851e+09 -1.723923e+04 -2.230880e+03 1.354797e+04
-3.492159e+09 -3.292235e+09 -3.452260e+09 -1.742827e+04 -4.729935e+03 1.247601e+04
-3.113828e+09 -2.913905e+09 -3.073945e+09 -2.284471e+04 -1.040511e+04 2.712059e+04
-1.889347e+09 -1.689418e+09 -1.849435e+09 -1.649730e+04 -1.279944e+04 2.585810e+04
-2.373623e+09 -2.173581e+09 -2.333687e+09 -9.424699e+04 1.192050e+05 -8.153759e+04
-2.601880e+09 -2.401809e+09 -2.561944e+09 -7.277778e+04 1.105731e+05 -6.202380e+04
-3.300851e+09 -3.100649e+09 -3.260554e+09 -3.987703e+05 -5.972673e+04 5.160254e+04
-1.604673e+09 -1.404658e+09 -1.564703e+09 -1.311999e+04 -8.025350e+04 6.540161e+04
-1.780902e+09 -1.580937e+09 -1.740965e+09 -2.066279e+04 -3.560889e+04 3.876469e+04
-2.002478e+09 -1.802472e+09 -1.962544e+09 -3.887821e+04 -3.770182e+04 3.057259e+04
-3.087620e+09 -2.887491e+09 -3.047665e+09 -1.701225e+05 1.038256e+05 -5.832981e+04
-3.283525e+09 -3.083318e+09 -3.243596e+09 -1.776029e+05 1.176318e+05 -5.940607e+04
-3.185109e+09 -2.985014e+09 -3.145264e+09 -1.800551e+05 1.233283e+05 -7.158300e+04
-2.715422e+09 -2.515365e+09 -2.675480e+09 -7.208437e+04 -9.161067e+04 5.314097e+04
-1.983975e+09 -1.784062e+09 -1.943978e+09 -2.205426e+04 8.884519e+04 -7.228628e+04
-3.579647e+09 -3.379569e+09 -3.539804e+09 -1.828472e+05 7.420598e+04 -6.101963e+04
-2.346305e+09 -2.146341e+09 -2.306389e+09 -2.639651e+04 -2.002766e+04 2.879829e+04
-3.159300e+09 -2.959336e+09 -3.119406e+09 -4.017676e+04 -2.234706e+04 3.331187e+04
-2.335259e+09 -2.135259e+09 -2.295325e+09 -2.985716e+04 -2.983683e+04 2.910445e+04
-3.203823e+09 -3.003795e+09 -3.163896e+09 -3.989296e+04 -3.191998e+04 3.187287e+04
-1.532843e+09 -1.332807e+09 -1.492335e+09 9.743874e+03 7.860131e+04 -1.507702e+05
-3.517662e+09 -3.317667e+09 -3.477750e+09 -3.921982e+04 -2.027801e+04 1.963633e+04
-2.080021e+09 -1.880050e+09 -2.040089e+09 -2.386021e+04 -1.664100e+04 2.093836e+04
-1.675531e+09 -1.475511e+09 -1.635291e+09 -3.256580e+04 1.692457e+04 -1.694878e+05
-3.613095e+09 -3.413230e+09 -3.573294e+09 -1.966162e+05 -7.157776e+04 1.031729e+05
-3.621499e+09 -3.422613e+09 -3.581734e+09 -1.431966e+05 7.126441e+02 2.205296e+05
-2.228814e+09 -2.028149e+09 -2.188315e+09 1.031437e+05 6.391065e+04 9.908050e+04
-3.311535e+09 -3.111555e+09 -3.271619e+09 -2.873669e+04 -1.488554e+04 1.980492e+04
-3.393124e+09 -3.193123e+09 -3.353198e+09 3.548188e+04 1.604401e+04 1.808642e+04
-2.793108e+09 -2.593119e+09 -2.753182e+09 3.656437e+04 2.043117e+04 2.159501e+04
-2.908456e+09 -2.708876e+09 -2.868523e+09 -3.434838e+05 -3.507056e+04 7.416898e+04
-1.601796e+09 -1.401760e+09 -1.560245e+09 -5.361164e+04 -8.110988e+05 2.665041e+05
-2.088719e+09 -1.889081e+09 -2.048789e+09 -2.611799e+05 1.256482e+05 7.698955e+04
-3.579711e+09 -3.379588e+09 -3.539823e+09 -2.277259e+05 8.555673e+04 -5.437220e+04
-3.499585e+09 -3.299957e+09 -3.459898e+09 -2.706491e+05 5.316540e+04 -7.972663e+04
-1.990732e+09 -1.790732e+09 -1.950779e+09 2.477620e+04 1.800131e+04 1.503148e+04
-2.075472e+09 -1.875465e+09 -2.035519e+09 2.133666e+04 1.676420e+04 1.537597e+04
-2.378596e+09 -2.178745e+09 -2.337235e+09 -4.650825e+05 -2.014443e+06 1.416145e+06
-3.093407e+09 -2.893397e+09 -3.053471e+09 2.954629e+04 1.436538e+04 1.257113e+04
-2.007920e+09 -1.808013e+09 -1.968010e+09 -8.391448e+04 8.321422e+04 -9.821358e+04
-2.131767e+09 -1.931715e+09 -2.091806e+09 4.054675e+04 5.746123e+04 2.685632e+04
-3.498784e+09 -3.299553e+09 -3.459148e+09 -2.567216e+05 1.325759e+04 1.771336e+04
-1.790881e+09 -1.590865e+09 -1.750899e+09 2.569583e+04 7.257622e+04 4.224866e+04
-2.005485e+09 -1.805795e+09 -1.965522e+09 4.195311e+04 -1.964109e+04 -1.144708e+04
-3.556755e+09 -3.357795e+09 -3.516904e+09 4.924242e+04 -2.362899e+03 -1.190275e+04
-1.602873e+09 -1.402857e+09 -1.562524e+09 3.143060e+03 -1.897405e+04 8.177474e+04
-3.201918e+09 -3.001682e+09 -3.161920e+09 -2.751522e+04 -7.461891e+04 1.246766e+04
-1.803353e+09 -1.603310e+09 -1.763358e+09 2.111939e+04 6.827275e+04 5.470952e+04
-1.696546e+09 -1.496693e+09 -1.656487e+09 2.393862e+03 7.418552e+04 3.550309e+04
-1.697319e+09 -1.497417e+09 -1.657311e+09 1.606959e+04 -5.417234e+04 5.506324e+04
-2.429212e+09 -2.229206e+09 -2.389274e+09 2.879633e+04 2.674361e+04 2.925808e+04
-1.970155e+09 -1.770424e+09 -1.926114e+09 7.174667e+05 2.088817e+06 4.599473e+06
-2.483483e+09 -2.283248e+09 -2.443421e+09 3.323224e+04 -1.433392e+05 -1.536361e+04
-2.597862e+09 -2.397873e+09 -2.557926e+09 2.532878e+04 1.761364e+04 1.547942e+04
-3.005627e+09 -2.805651e+09 -2.965716e+09 -2.783996e+04 -1.525807e+04 1.822040e+04
-1.683127e+09 -1.483148e+09 -1.643186e+09 -1.340596e+04 -1.390250e+04 1.793232e+04
-3.193919e+09 -2.993604e+09 -3.153909e+09 -1.077645e+04 -8.984023e+04 -5.148956e+03
-2.884857e+09 -2.684824e+09 -2.844932e+09 4.624514e+04 3.510504e+04 3.599501e+04
-2.960960e+09 -2.760991e+09 -2.921050e+09 3.616828e+04 1.787935e+04 2.572073e+04
-1.765749e+09 -1.565768e+09 -1.725804e+09 2.201704e+04 1.950804e+04 1.982501e+04
-2.318119e+09 -2.118152e+09 -2.278202e+09 -2.756934e+04 -3.014689e+04 3.677846e+04
-1.915644e+09 -1.715559e+09 -1.875669e+09 3.740904e+04 9.320680e+04 6.449336e+04
-2.130566e+09 -1.930515e+09 -2.090615e+09 5.840880e+04 8.274349e+04 5.863279e+04
-2.286248e+09 -2.086026e+09 -2.246222e+09 -1.377558e+04 -9.950407e+04 8.327102e+03
-3.596167e+09 -3.395934e+09 -3.556005e+09 4.162725e+05 3.669688e+04 8.506581e+03
-1.598862e+09 -1.398865e+09 -1.558908e+09 2.034673e+04 3.581934e+04 3.940110e+04
-2.682815e+09 -2.482836e+09 -2.642891e+09 3.653552e+04 2.302045e+04 2.178368e+04
-2.369513e+09 -2.169631e+09 -2.329655e+09 5.058330e+04 3.836558e+04 1.130386e+05
-3.403672e+09 -3.203667e+09 -3.363760e+09 4.657632e+04 2.200999e+04 2.004174e+04
-3.606251e+09 -3.406125e+09 -3.566341e+09 1.676760e+05 7.853622e+04 6.437407e+04
-3.604369e+09 -3.404162e+09 -3.564423e+09 1.403886e+05 9.651420e+04 4.780284e+04
-3.389407e+09 -3.189419e+09 -3.349502e+09 4.974724e+04 1.819494e+04 2.265735e+04
-1.699513e+09 -1.499484e+09 -1.659526e+09 -1.037200e+04 7.570311e+04 -4.692468e+04
-3.605955e+09 -3.406567e+09 -3.566431e+09 -9.477595e+04 -2.888943e+04 1.351459e+05
-2.980710e+09 -2.780797e+09 -2.940816e+09 1.104434e+04 3.224180e+03 1.565845e+04
-2.480744e+09 -2.280727e+09 -2.440807e+09 4.008306e+04 3.249688e+04 2.387779e+04
-3.610806e+09 -3.411042e+09 -3.571072e+09 -5.473487e+03 -3.087919e+03 6.734384e+04
-2.492920e+09 -2.292933e+09 -2.452992e+09 3.575887e+04 2.385925e+04 2.712534e+04
-2.870401e+09 -2.670520e+09 -2.830536e+09 8.856023e+03 2.098465e+03 3.178897e+04
-3.152194e+09 -2.952054e+09 -3.112255e+09 -6.185517e+04 8.833506e+04 -3.693522e+04
-1.586138e+09 -1.386182e+09 -1.546149e+09 -1.066656e+04 -2.744057e+04 1.755287e+05
-3.574710e+09 -3.374828e+09 -3.534858e+09 -1.714637e+04 -5.108215e+03 2.787250e+04
-1.597772e+09 -1.397842e+09 -1.557847e+09 -8.710541e+03 -9.916540e+03 5.023033e+04
-1.551117e+09 -1.351137e+09 -1.511108e+09 -1.148099e+02 -4.720218e+04 1.638286e+05
-2.647012e+09 -2.447023e+09 -2.603056e+09 1.029378e+06 -1.733709e+06 -1.417845e+06
-3.610818e+09 -3.411076e+09 -3.571083e+09 2.130141e+03 -2.095602e+03 6.737277e+04
-1.630098e+09 -1.430162e+09 -1.590166e+09 -8.554116e+03 -1.619410e+04 8.088679e+04
-3.540108e+09 -3.340511e+09 -3.500507e+09 -7.548031e+04 -2.572474e+04 1.112151e+05
-2.079340e+09 -1.879359e+09 -2.037868e+09 7.764770e+05 -8.289354e+05 -1.632825e+06
-1.847110e+09 -1.646912e+09 -1.803512e+09 -3.221811e+05 -6.279638e+05 -2.405701e+06
-3.220017e+09 -3.020186e+09 -3.180208e+09 -9.408756e+03 -4.422471e+03 5.896142e+04
-1.891769e+09 -1.692170e+09 -1.850272e+09 3.612598e+05 -9.390513e+05 -1.488530e+06
-1.948096e+09 -1.747848e+09 -1.905493e+09 3.902618e+05 -1.064829e+06 -9.793804e+05
-1.591084e+09 -1.391239e+09 -1.550685e+09 2.760365e+04 2.241764e+05 1.947569e+05
-3.240207e+09 -3.041112e+09 -3.199476e+09 3.757872e+05 -1.081433e+05 -6.730912e+05
-2.091081e+09 -1.892267e+09 -2.049635e+09 -9.222285e+04 3.415859e+05 -1.343956e+06
-2.122858e+09 -1.923068e+09 -2.077644e+09 6.381084e+04 -2.314975e+06 -2.324753e+06
-1.614441e+09 -1.414436e+09 -1.574280e+09 7.883705e+03 -1.345781e+05 -7.796318e+04
-3.284369e+09 -3.084091e+09 -3.244163e+09 3.526552e+05 -6.700931e+04 -5.287368e+04
-2.185621e+09 -1.985190e+09 -2.145405e+09 -2.260880e+05 -8.399066e+03 -5.391972e+04
-3.411735e+09 -3.211430e+09 -3.370923e+09 4.754458e+05 7.919802e+04 1.571384e+05
-3.167107e+09 -2.967436e+09 -3.125976e+09 6.355418e+05 7.093273e+05 1.023461e+06
-3.600226e+09 -3.400648e+09 -3.557780e+09 7.033202e+05 2.569711e+05 9.454478e+05
-1.590052e+09 -1.389835e+09 -1.547562e+09 -1.315509e+05 1.128056e+06 2.851790e+06
-3.163718e+09 -2.963974e+09 -3.122367e+09 6.106415e+05 3.525643e+05 3.770706e+05
-3.600304e+09 -3.400358e+09 -3.557895e+09 7.272210e+05 7.993132e+05 6.480439e+05
-3.403266e+09 -3.202741e+09 -3.362108e+09 5.440189e+05 3.627120e+05 1.804074e+05
-3.183740e+09 -2.983609e+09 -3.139776e+09 8.810525e+05 1.791811e+06 1.705512e+06
-3.286009e+09 -3.086080e+09 -3.246101e+09 1.503829e+04 2.666338e+03 1.293099e+04
-3.606146e+09 -3.406275e+09 -3.566317e+09 3.288402e+04 9.866111e+03 3.362892e+04
-3.124261e+09 -2.924360e+09 -3.084376e+09 1.231829e+04 2.829458e+02 1.843651e+04
-2.867537e+09 -2.667629e+09 -2.827644e+09 3.872215e+03 5.584177e+02 1.964706e+04
-1.874802e+09 -1.674888e+09 -1.834892e+09 4.004503e+03 -4.439588e+02 2.110690e+04
-3.604808e+09 -3.404987e+09 -3.565029e+09 4.713351e+04 1.458166e+04 4.990494e+04
-2.573122e+09 -2.373221e+09 -2.533237e+09 -1.587316e+03 -7.926290e+02 3.121417e+04
-2.761493e+09 -2.561689e+09 -2.720053e+09 5.901502e+05 4.586772e+05 7.974237e+05
-2.186077e+09 -1.986550e+09 -2.145589e+09 2.414261e+05 3.255083e+05 3.572133e+05
-3.614192e+09 -3.414472e+09 -3.574418e+09 3.925083e+05 4.250052e+04 2.920265e+04
-3.589842e+09 -3.390148e+09 -3.550173e+09 4.232467e+04 1.309932e+04 8.748019e+04
-3.184695e+09 -2.984588e+09 -3.142176e+09 8.329644e+05 8.579595e+05 7.284328e+05
-1.794518e+09 -1.594263e+09 -1.753616e+09 1.297696e+05 4.182612e+05 3.193174e+05
-3.375876e+09 -3.176173e+09 -3.336193e+09 1.000631e+05 3.568624e+04 8.566346e+04
-1.566832e+09 -1.366861e+09 -1.526816e+09 9.071396e+03 1.929135e+04 1.225349e+05
-3.197758e+09 -2.997640e+09 -3.157789e+09 -2.247661e+04 3.116569e+04 -2.341545e+04
-2.185986e+09 -1.986003e+09 -2.146061e+09 -5.312066e+04 -5.887932e+04 5.640778e+04
-3.410500e+09 -3.210486e+09 -3.370657e+09 1.326700e+05 6.137347e+04 6.140277e+04
-1.833421e+09 -1.633407e+09 -1.793514e+09 7.754411e+04 1.097593e+05 8.506527e+04
-2.719490e+09 -2.519457e+09 -2.679555e+09 2.260775e+05 5.232445e+04 7.325877e+04
-2.811240e+09 -2.611235e+09 -2.771350e+09 -1.120222e+05 -8.073509e+04 7.477804e+04
-1.674080e+09 -1.474062e+09 -1.634115e+09 1.599394e+04 2.115339e+04 1.591943e+04
-1.580155e+09 -1.380149e+09 -1.540177e+09 1.998943e+04 6.677514e+04 5.881190e+04
-3.597625e+09 -3.397582e+09 -3.557717e+09 7.477569e+04 2.449437e+04 1.913538e+04
-2.571040e+09 -2.370929e+09 -2.531110e+09 9.980875e+04 1.134531e+05 7.966569e+04
-1.800612e+09 -1.600660e+09 -1.760649e+09 -3.573253e+04 -9.681671e+04 8.425119e+04
-2.586877e+09 -2.386957e+09 -2.546993e+09 -9.192319e+04 -6.155609e+04 8.070445e+04
-1.603385e+09 -1.403371e+09 -1.563416e+09 2.216006e+04 6.555905e+04 5.881291e+04
-1.800041e+09 -1.600072e+09 -1.760079e+09 -3.182781e+04 -7.490683e+04 7.836719e+04
-2.006227e+09 -1.806210e+09 -1.966263e+09 -7.876995e+04 -1.051588e+05 1.028959e+05
-2.659777e+09 -2.459541e+09 -2.619707e+09 -3.128910e+04 1.442229e+05 -2.040943e+04
-3.380708e+09 -3.180390e+09 -3.340695e+09 -1.545145e+04 8.483306e+04 1.160710e+04
-2.642906e+09 -2.442893e+09 -2.602962e+09 3.128631e+04 2.567046e+04 2.427682e+04
-3.595600e+09 -3.395723e+09 -3.555800e+09 1.038998e+05 3.488806e+04 5.573108e+04
-2.608727e+09 -2.408457e+09 -2.568663e+09 2.414086e+04 8.532726e+04 -8.718938e+02
-3.019357e+09 -2.819024e+09 -2.979294e+09 2.566039e+04 1.364789e+05 -1.269717e+03
-2.764618e+09 -2.564342e+09 -2.724566e+09 2.193888e+04 1.275566e+05 1.652091e+03
-1.566357e+09 -1.366428e+09 -1.526451e+09 -4.685153e+03 6.541361e+03 7.270322e+04
-3.371722e+09 -3.171879e+09 -3.331975e+09 1.246561e+05 4.452357e+04 7.695707e+04
-1.872560e+09 -1.672628e+09 -1.832589e+09 1.415250e+04 5.648600e+04 1.168474e+05
-1.565282e+09 -1.365246e+09 -1.524974e+09 -1.287335e+04 4.081062e+04 -8.088374e+04
-3.048722e+09 -2.848448e+09 -3.008716e+09 -3.798670e+04 9.717696e+04 -1.815876e+04
-3.591461e+09 -3.391141e+09 -3.545180e+09 4.683528e+05 1.760355e+06 1.198641e+06
-2.385588e+09 -2.185856e+09 -2.345818e+09 -2.680481e+04 1.330397e+04 9.086538e+04
-3.494315e+09 -3.293555e+09 -3.453022e+09 -5.173307e+05 2.920147e+05 -8.651782e+04
-2.660717e+09 -2.460153e+09 -2.620309e+09 -2.294899e+05 1.915005e+05 -1.824839e+05
-3.580488e+09 -3.381680e+09 -3.536399e+09 5.702248e+05 7.320908e+05 1.204525e+06
-2.507333e+09 -2.307524e+09 -2.467538e+09 -8.897854e+03 -7.352468e+03 7.772478e+04
-2.000508e+09 -1.801560e+09 -1.960782e+09 -9.238803e+04 -5.583464e+05 1.642721e+06
-3.593821e+09 -3.394947e+09 -3.550939e+09 -4.086222e+05 -2.598268e+05 1.323499e+06
-2.120018e+09 -1.920186e+09 -2.080162e+09 -2.131891e+04 -1.262855e+04 9.788238e+04
-2.560419e+09 -2.360451e+09 -2.520494e+09 -1.945209e+04 -1.285355e+04 1.732375e+04
-1.783169e+09 -1.583848e+09 -1.740668e+09 -1.950354e+05 2.316446e+06 4.824062e+06
-1.710115e+09 -1.510262e+09 -1.669805e+09 1.006308e+04 -2.654587e+05 -3.135372e+05
-2.879251e+09 -2.679272e+09 -2.839319e+09 -1.952623e+04 -1.109863e+04 1.276964e+04
-1.843384e+09 -1.643928e+09 -1.800226e+09 1.934411e+05 -5.704991e+05 -3.221855e+06
-1.574468e+09 -1.374977e+09 -1.531509e+09 -4.627166e+05 -2.269840e+06 -2.017598e+06
-2.396832e+09 -2.196873e+09 -2.356909e+09 -1.990377e+04 -1.462570e+04 2.051136e+04
-3.210000e+09 -3.010168e+09 -3.170285e+09 -1.882640e+05 8.584086e+04 -5.328625e+04
-1.565515e+09 -1.365516e+09 -1.525450e+09 1.605370e+04 2.319314e+05 3.503673e+02
-1.567593e+09 -1.367532e+09 -1.527592e+09 5.229704e+03 7.511129e+04 -2.507636e+04
-2.718414e+09 -2.518448e+09 -2.678495e+09 -2.691072e+04 -1.500787e+04 1.863837e+04
-3.585028e+09 -3.384663e+09 -3.544999e+09 5.479030e+03 1.060469e+05 9.772152e+02
-3.515818e+09 -3.315078e+09 -3.475104e+09 2.982564e+05 5.881308e+03 3.603030e+04
-3.500237e+09 -3.300257e+09 -3.460313e+09 -2.835273e+04 -1.097422e+04 1.187610e+04
-3.499274e+09 -3.298979e+09 -3.458510e+09 5.868946e+05 -4.490139e+04 -1.313237e+05
-1.766087e+09 -1.566042e+09 -1.726165e+09 1.036416e+05 1.131539e+05 5.511958e+04
-3.056635e+09 -2.856608e+09 -3.016728e+09 6.564693e+04 3.993930e+04 3.418506e+04
-3.396096e+09 -3.196146e+09 -3.356199e+09 -3.128895e+04 -1.243885e+04 1.617435e+04
-3.201032e+09 -3.001071e+09 -3.161128e+09 -3.322999e+04 -1.352294e+04 2.078936e+04
-2.494651e+09 -2.294967e+09 -2.441440e+09 8.841976e+03 -1.729358e+06 -2.925720e+06
-3.331493e+09 -3.132302e+09 -3.283480e+09 -4.365686e+05 -7.821695e+04 -2.227481e+06
-2.191519e+09 -1.992004e+09 -2.151498e+09 -3.080144e+05 3.781179e+04 -1.877395e+05
-2.583347e+09 -2.384020e+09 -2.532452e+09 1.262935e+05 -6.979105e+05 -4.272120e+06
-1.681060e+09 -1.481040e+09 -1.641006e+09 1.165384e+04 -6.579457e+04 1.979333e+04
-3.523109e+09 -3.322745e+09 -3.482696e+09 -4.451783e+05 -5.917508e+04 -2.139416e+04
-3.386501e+09 -3.186461e+09 -3.338780e+09 -1.016440e+06 3.061224e+06 -1.963697e+06
-2.745662e+09 -2.545499e+09 -2.701636e+09 -1.200970e+06 1.049132e+06 -2.638374e+06
-3.209281e+09 -3.009178e+09 -3.169360e+09 -5.683301e+04 4.860617e+04 -2.456428e+04
-2.512620e+09 -2.313010e+09 -2.472815e+09 -2.937438e+05 -3.319970e+04 -7.516450e+03
-3.477156e+09 -3.277647e+09 -3.437026e+09 -4.281696e+05 -7.969975e+04 5.829101e+04
-2.168571e+09 -1.968576e+09 -2.128622e+09 1.833872e+04 1.063924e+04 1.061277e+04
-1.792418e+09 -1.592429e+09 -1.752468e+09 1.765343e+04 1.413926e+04 1.296976e+04
-2.503847e+09 -2.303859e+09 -2.463908e+09 2.215060e+04 1.257222e+04 1.327952e+04
-3.024059e+09 -2.824234e+09 -2.984262e+09 -1.867789e+05 5.519320e+04 -3.596883e+04
-1.967670e+09 -1.767703e+09 -1.927732e+09 1.723385e+04 7.458120e+03 1.167101e+04
-2.688083e+09 -2.488101e+09 -2.648151e+09 2.011654e+04 1.287733e+04 1.224236e+04
-2.048898e+09 -1.848923e+09 -2.008957e+09 1.502617e+04 9.740635e+03 1.329288e+04
-3.585651e+09 -3.385218e+09 -3.545621e+09 5.685370e+04 9.650273e+04 8.250529e+03
-2.601741e+09 -2.401880e+09 -2.561918e+09 7.349223e+04 3.651320e+04 8.688003e+04
-3.500247e+09 -3.300363e+09 -3.460476e+09 -2.363448e+05 9.156768e+04 -7.605488e+04
-3.275770e+09 -3.076121e+09 -3.236114e+09 1.999654e+05 4.735277e+04 1.254189e+05
-3.207657e+09 -3.008185e+09 -3.168107e+09 -2.152131e+05 4.567518e+04 -4.127332e+04
-2.013911e+09 -1.814060e+09 -1.974055e+09 3.071962e+04 2.255248e+04 1.122695e+05
-2.664762e+09 -2.465022e+09 -2.624995e+09 2.090334e+03 -1.303257e+04 1.489515e+05
-1.788270e+09 -1.588342e+09 -1.748358e+09 2.569970e+04 2.026645e+04 6.336596e+04
-1.969784e+09 -1.769939e+09 -1.929925e+09 3.570102e+04 2.526657e+04 1.093421e+05
-1.674100e+09 -1.474063e+09 -1.634123e+09 1.390790e+04 4.099428e+04 1.949788e+04
-1.865000e+09 -1.665100e+09 -1.825124e+09 7.644848e+04 5.325238e+04 1.447425e+05
-3.282891e+09 -3.083212e+09 -3.243154e+09 9.544821e+04 3.677300e+04 1.057862e+05
-2.167378e+09 -1.967366e+09 -2.127420e+09 2.214902e+04 1.707420e+04 1.212490e+04
-3.038210e+09 -2.838224e+09 -2.998285e+09 -2.877143e+04 -1.494322e+04 1.855754e+04
-2.156309e+09 -1.956282e+09 -2.116346e+09 2.500291e+04 2.419595e+04 1.560712e+04
-3.418789e+09 -3.218823e+09 -3.378886e+09 -3.505779e+04 -1.198255e+04 1.963545e+04
-1.592505e+09 -1.392542e+09 -1.552568e+09 1.257757e+04 6.437381e+03 1.190339e+04
-1.963401e+09 -1.763437e+09 -1.923468e+09 -2.571249e+04 -1.745058e+04 2.291761e+04
-3.301589e+09 -3.101623e+09 -3.261675e+09 -2.862629e+04 -1.220750e+04 1.146992e+04
-1.785266e+09 -1.585296e+09 -1.745333e+09 -2.297307e+04 -1.691867e+04 2.168955e+04
-1.994930e+09 -1.794883e+09 -1.954953e+09 -1.699552e+04 -5.821562e+04 4.264952e+04
-1.986137e+09 -1.786179e+09 -1.946210e+09 -2.421780e+04 -1.641433e+04 2.440811e+04
-2.061463e+09 -1.861516e+09 -2.021545e+09 -3.037809e+04 -2.095983e+04 3.804190e+04
-1.907322e+09 -1.707367e+09 -1.867391e+09 -1.838843e+04 -1.385337e+04 3.018713e+04
-2.953340e+09 -2.753213e+09 -2.913376e+09 -2.479574e+04 4.920080e+04 -1.859840e+04
-2.507833e+09 -2.307336e+09 -2.467400e+09 3.517611e+04 1.583801e+05 -6.109768e+03
-2.562451e+09 -2.362071e+09 -2.522407e+09 1.003454e+05 1.598578e+05 2.438306e+04
-2.364252e+09 -2.163977e+09 -2.324038e+09 4.967229e+04 7.906730e+04 8.212348e+03
-3.350425e+09 -3.149837e+09 -3.310200e+09 7.726917e+04 1.483713e+05 8.874807e+03
-3.189708e+09 -2.989239e+09 -3.149567e+09 3.457505e+04 6.424753e+04 -3.181116e+03
-1.938970e+09 -1.738719e+09 -1.898852e+09 1.631655e+04 6.354447e+04 -4.460543e+03
-2.895386e+09 -2.695363e+09 -2.855491e+09 -9.236526e+04 9.178596e+04 -3.816822e+04
-2.884089e+09 -2.683998e+09 -2.844132e+09 -2.394503e+04 4.563752e+04 -1.815609e+04
-1.744976e+09 -1.544997e+09 -1.705031e+09 1.501335e+04 1.018374e+04 1.133918e+04
-1.568908e+09 -1.368862e+09 -1.528900e+09 -7.156043e+03 1.195668e+05 -3.361994e+04
-1.675438e+09 -1.475373e+09 -1.635447e+09 -5.404683e+03 5.002084e+04 -2.084843e+04
-3.078485e+09 -2.878498e+09 -3.038551e+09 2.154179e+04 9.795541e+03 9.424665e+03
-2.093544e+09 -1.893563e+09 -2.053610e+09 3.545440e+04 2.787705e+04 3.426115e+04
-1.584602e+09 -1.384619e+09 -1.544644e+09 2.613517e+04 5.809777e+04 7.006885e+04
-2.225331e+09 -2.025358e+09 -2.185393e+09 1.947408e+04 1.016547e+04 1.380891e+04
-3.319414e+09 -3.119441e+09 -3.279489e+09 2.348151e+04 8.305132e+03 1.188479e+04
-3.283321e+09 -3.083085e+09 -3.243321e+09 -1.209946e+05 1.190133e+05 -4.265213e+04
-3.176094e+09 -2.976103e+09 -3.136158e+09 2.236127e+04 7.770257e+03 7.069948e+03
-3.268429e+09 -3.068308e+09 -3.228466e+09 -3.170962e+04 4.588474e+04 -1.497099e+04
-2.072661e+09 -1.872693e+09 -2.032732e+09 -3.773635e+04 -2.506299e+04 4.671591e+04
-3.192830e+09 -2.992841e+09 -3.152916e+09 3.655676e+04 1.994884e+04 2.124639e+04
-3.594413e+09 -3.394401e+09 -3.554476e+09 2.997283e+04 1.492428e+04 1.287629e+04
-2.910804e+09 -2.710353e+09 -2.869064e+09 5.588759e+05 -7.996199e+05 -2.410166e+05
-2.053047e+09 -1.852198e+09 -2.012187e+09 -1.920577e+05 -4.666514e+05 2.250912e+05
-2.021533e+09 -1.821585e+09 -1.981607e+09 -1.346415e+04 -2.843706e+03 1.059039e+04
-1.669897e+09 -1.469934e+09 -1.629960e+09 -1.653823e+04 -2.628598e+04 4.510699e+04
-1.931952e+09 -1.731732e+09 -1.891883e+09 -1.827951e+04 -1.576938e+05 -1.399910e+03
-1.768412e+09 -1.568075e+09 -1.727653e+09 1.597929e+05 -9.501969e+05 -2.133547e+05
-2.966999e+09 -2.765501e+09 -2.923382e+09 1.982453e+05 -1.204698e+06 -2.440210e+05
-1.921154e+09 -1.721248e+09 -1.881267e+09 -1.881493e+04 -1.855378e+04 5.361229e+04
-3.233250e+09 -3.032707e+09 -3.191393e+09 5.467834e+05 -1.524186e+05 -4.757507e+05
-3.264189e+09 -3.063511e+09 -3.222821e+09 5.417129e+05 -3.715913e+05 -2.523784e+05
-3.231864e+09 -3.030891e+09 -3.190531e+09 1.978271e+05 -9.630562e+04 -8.020664e+04
-1.981881e+09 -1.782100e+09 -1.942074e+09 -2.176644e+04 -3.182783e+04 1.243685e+05
-2.024838e+09 -1.824941e+09 -1.984946e+09 1.967928e+03 4.058941e+02 4.606566e+04
-1.906712e+09 -1.706773e+09 -1.866791e+09 -1.334663e+04 -6.681709e+03 1.603494e+04
-2.200158e+09 -1.999649e+09 -2.158819e+09 1.753767e+05 -2.146537e+05 2.310752e+05
-1.697994e+09 -1.498073e+09 -1.657998e+09 1.828623e+04 -7.355855e+04 -1.811184e+03
-2.234794e+09 -2.033434e+09 -2.192655e+09 2.530052e+05 -1.436291e+06 2.480825e+05
-3.506444e+09 -3.306729e+09 -3.466642e+09 2.981655e+05 -5.185010e+04 -9.368032e+04
-2.821178e+09 -2.620734e+09 -2.780943e+09 5.129583e+04 -6.341086e+04 1.214151e+04
-2.505071e+09 -2.304407e+09 -2.464198e+09 2.526705e+05 -2.813789e+05 -3.010440e+04
-3.422939e+09 -3.222392e+09 -3.382285e+09 4.041858e+05 1.579618e+05 4.862637e+04
-2.461922e+09 -2.262486e+09 -2.421789e+09 -1.723896e+05 1.793169e+05 -1.380249e+05
-2.073919e+09 -1.874489e+09 -2.034104e+09 3.339580e+04 6.609647e+04 -7.641750e+03
-2.190253e+09 -1.990892e+09 -2.149499e+09 -6.046749e+04 1.603486e+05 -9.612970e+04
-2.968838e+09 -2.769559e+09 -2.928919e+09 5.610385e+04 2.873563e+04 -1.944309e+05
-1.579261e+09 -1.379283e+09 -1.539214e+09 1.728090e+04 -9.810585e+04 8.984839e+03
-3.286297e+09 -3.086976e+09 -3.246651e+09 9.501819e+04 1.852480e+04 1.371099e+04
-3.093243e+09 -2.894222e+09 -3.053090e+09 9.921929e+04 -3.411882e+04 -1.295476e+05
-2.590421e+09 -2.391109e+09 -2.550265e+09 -3.563820e+05 5.450045e+05 -8.442356e+05
-1.556426e+09 -1.356431e+09 -1.516374e+09 -8.762951e+03 -5.123624e+04 1.643772e+05
-1.978595e+09 -1.778804e+09 -1.938721e+09 -1.523759e+05 -7.046682e+04 1.707656e+05
-3.507691e+09 -3.308231e+09 -3.468031e+09 2.568240e+05 3.410392e+03 1.129832e+05
-2.128284e+09 -1.928805e+09 -2.088256e+09 -3.341229e+04 2.685376e+04 -6.141426e+04
-3.178970e+09 -2.978637e+09 -3.128282e+09 -6.114047e+05 -1.795795e+06 2.852634e+06
-3.332984e+09 -3.133961e+09 -3.293098e+09 4.345576e+04 1.214221e+04 -2.005461e+05
-3.577463e+09 -3.377016e+09 -3.523668e+09 -2.587073e+05 1.939275e+06 -1.601518e+05
-2.860997e+09 -2.661429e+09 -2.821280e+09 -2.302460e+04 6.466780e+03 1.647710e+05
-2.824143e+09 -2.624955e+09 -2.784403e+09 -9.861796e+04 9.486296e+04 -3.247023e+05
-1.698159e+09 -1.498162e+09 -1.658205e+09 -1.433437e+04 -2.171202e+04 2.052748e+04
-3.594702e+09 -3.394104e+09 -3.554519e+09 -1.669761e+05 -1.265445e+05 9.872896e+03
-2.335365e+09 -2.135370e+09 -2.295424e+09 -2.769891e+04 -2.094048e+04 2.190174e+04
-3.239403e+09 -3.039575e+09 -3.199077e+09 -4.345039e+05 -2.015212e+05 2.445576e+05
-3.607475e+09 -3.407523e+09 -3.567576e+09 -3.215145e+04 -9.982732e+03 1.548121e+04
-2.459671e+09 -2.259787e+09 -2.419335e+09 -2.529050e+05 2.974815e+04 9.843739e+04
-3.565740e+09 -3.365769e+09 -3.525864e+09 -6.150924e+04 -2.590425e+04 2.930949e+04
-1.851397e+09 -1.651469e+09 -1.811241e+09 -1.417480e+05 -3.764569e+04 7.870239e+03
-3.436149e+09 -3.236653e+09 -3.396052e+09 -4.109966e+05 -6.715544e+04 9.917216e+04
-2.140129e+09 -1.940349e+09 -2.100366e+09 -2.060915e+05 2.408188e+04 -1.489325e+05
-3.196853e+09 -2.996656e+09 -3.156716e+09 2.672524e+05 2.896899e+04 4.378839e+04
-1.805818e+09 -1.605858e+09 -1.765928e+09 1.452694e+05 9.136125e+04 6.474595e+04
-3.292993e+09 -3.092960e+09 -3.252961e+09 2.478066e+05 6.794733e+04 6.292617e+04
-3.501424e+09 -3.301332e+09 -3.461536e+09 -9.653983e+04 6.367309e+04 -4.103006e+04
-2.357413e+09 -2.157251e+09 -2.317285e+09 1.206337e+05 1.743241e+05 5.899071e+04
-2.353507e+09 -2.153340e+09 -2.313346e+09 1.415936e+05 6.143119e+04 5.785767e+04
-2.580166e+09 -2.380216e+09 -2.540257e+09 -2.768656e+04 -1.655535e+04 2.177284e+04
-3.015587e+09 -2.815631e+09 -2.975663e+09 -1.237930e+04 -5.809714e+03 7.305167e+03
-1.764565e+09 -1.564570e+09 -1.724613e+09 -2.868840e+04 -2.691532e+04 3.601002e+04
-3.601729e+09 -3.401768e+09 -3.561809e+09 -2.399514e+04 -5.951273e+03 1.026996e+04
-2.879738e+09 -2.679819e+09 -2.839860e+09 -2.880298e+04 -1.612106e+04 4.361088e+04
-3.206862e+09 -3.006904e+09 -3.166950e+09 -2.342789e+04 -9.845963e+03 1.377083e+04
-1.818558e+09 -1.618435e+09 -1.778472e+09 9.265353e+03 1.117006e+05 7.121744e+04
-2.793440e+09 -2.593221e+09 -2.753420e+09 1.435183e+05 1.452410e+05 9.066028e+04
-3.189451e+09 -2.989230e+09 -3.149459e+09 1.356028e+05 7.301697e+04 4.893958e+04
-3.159029e+09 -2.958846e+09 -3.119085e+09 8.849504e+04 7.006961e+04 3.631752e+04
-3.611466e+09 -3.411652e+09 -3.571692e+09 -4.135578e+04 -7.933273e+03 4.634257e+04
-2.618694e+09 -2.418387e+09 -2.578638e+09 7.271001e+04 1.099751e+05 4.938696e+04
-2.767848e+09 -2.568024e+09 -2.728033e+09 -7.213851e+04 -2.453326e+04 8.532720e+04
-3.016540e+09 -2.816377e+09 -2.976572e+09 -2.146573e+04 8.219096e+04 -1.394435e+04
-3.566980e+09 -3.367225e+09 -3.527229e+09 -2.330397e+04 -6.789357e+03 6.716304e+04
-2.511493e+09 -2.311434e+09 -2.471558e+09 -5.656164e+04 -7.572705e+04 5.350622e+04
-1.869319e+09 -1.668598e+09 -1.827016e+09 1.216632e+05 -2.580899e+06 -6.803873e+05
-2.628574e+09 -2.428571e+09 -2.588658e+09 -8.987482e+04 -8.453356e+04 6.568519e+04
-2.004922e+09 -1.804902e+09 -1.964971e+09 -5.911784e+04 -7.767461e+04 6.907240e+04
-1.591847e+09 -1.391234e+09 -1.548532e+09 -6.330120e+04 -4.791971e+05 2.918777e+06
-3.028846e+09 -2.827627e+09 -2.986353e+09 9.418935e+04 -8.056670e+05 -4.137260e+04
-2.111156e+09 -1.910059e+09 -2.065235e+09 -6.342150e+05 -4.818921e+06 2.451578e+06
-1.815564e+09 -1.615593e+09 -1.775613e+09 -2.884653e+04 -7.247165e+04 5.662127e+04
-3.132620e+09 -2.932172e+09 -3.084070e+09 -3.375310e+05 -3.513011e+06 1.528717e+06
-1.811774e+09 -1.611783e+09 -1.771799e+09 -2.897990e+04 -9.162938e+04 6.083354e+04
-2.568604e+09 -2.369155e+09 -2.524888e+09 -7.940933e+05 -1.301155e+06 1.951065e+06
-2.034570e+09 -1.834517e+09 -1.994608e+09 -6.940929e+04 -1.017464e+05 7.816321e+04
-3.205449e+09 -3.005279e+09 -3.161804e+09 -9.671337e+05 -2.472984e+06 1.345933e+06
-2.543629e+09 -2.343728e+09 -2.503741e+09 -4.488069e+03 -2.565596e+03 3.125220e+04
-3.499595e+09 -3.299985e+09 -3.459901e+09 2.666183e+05 -6.979548e+04 -4.873177e+04
-3.411587e+09 -3.211731e+09 -3.371754e+09 -8.073724e+03 -6.093787e+02 3.548958e+04
-3.211047e+09 -3.010776e+09 -3.171019e+09 1.989003e+05 -8.534333e+04 -5.092535e+04
-3.601641e+09 -3.402503e+09 -3.561719e+09 3.361948e+05 8.818345e+03 1.464558e+05
-3.601675e+09 -3.402502e+09 -3.561679e+09 2.255003e+05 1.999608e+04 -4.035059e+04
-3.498854e+09 -3.299493e+09 -3.459254e+09 2.440810e+05 -4.918720e+04 -2.540811e+04
-1.843240e+09 -1.643363e+09 -1.803370e+09 8.622754e+02 1.382207e+03 6.930654e+04
-2.131131e+09 -1.931245e+09 -2.091252e+09 9.375972e+03 4.054340e+03 4.735576e+04
-2.394257e+09 -2.194377e+09 -2.354400e+09 -6.070049e+03 -7.270755e+03 7.629398e+04
-2.847349e+09 -2.647516e+09 -2.807525e+09 -8.950031e+03 1.446696e+03 5.777625e+04
-3.025422e+09 -2.825545e+09 -2.985558e+09 3.333279e+03 1.675637e+03 2.993257e+04
-2.009018e+09 -1.809124e+09 -1.969123e+09 -3.834258e+03 -5.012867e+02 4.609774e+04
-3.583920e+09 -3.384830e+09 -3.543175e+09 5.466612e+05 3.146368e+05 3.163723e+05
-1.822904e+09 -1.622912e+09 -1.783017e+09 1.028007e+05 1.337739e+05 1.019240e+05
-2.636532e+09 -2.436438e+09 -2.596504e+09 1.422119e+05 8.015537e+04 6.612905e+04
-2.770818e+09 -2.570515e+09 -2.730739e+09 1.977901e+05 6.116103e+04 3.613625e+04
-3.363550e+09 -3.163200e+09 -3.323356e+09 2.127497e+05 8.583604e+04 2.842167e+04
-2.813018e+09 -2.612824e+09 -2.772965e+09 2.664563e+05 2.653042e+04 4.402743e+04
-3.419564e+09 -3.219379e+09 -3.379669e+09 1.796637e+05 8.989037e+04 5.492495e+04
-3.143142e+09 -2.943616e+09 -3.091248e+09 -8.669812e+05 1.818640e+06 -2.314336e+06
-3.030481e+09 -2.830379e+09 -2.990555e+09 -4.571809e+04 5.637053e+04 -3.211805e+04
-1.583271e+09 -1.383541e+09 -1.540636e+09 -1.597558e+05 3.569648e+06 8.113889e+05
-2.073451e+09 -1.873436e+09 -2.033503e+09 3.785146e+04 4.102744e+04 3.219900e+04
-3.539775e+09 -3.338604e+09 -3.490190e+09 4.555397e+05 1.845923e+06 -9.595041e+03
-2.225741e+09 -2.024090e+09 -2.179327e+09 -1.622130e+05 5.159730e+06 4.478786e+05
-1.582973e+09 -1.383175e+09 -1.541615e+09 2.973870e+04 1.267968e+06 6.361989e+05
-1.830580e+09 -1.630571e+09 -1.790658e+09 6.354990e+04 8.726034e+04 7.039955e+04
-1.590091e+09 -1.390130e+09 -1.548340e+09 -1.256680e+05 -8.136282e+04 1.285430e+06
-1.568342e+09 -1.368331e+09 -1.528373e+09 1.912468e+04 4.402161e+04 4.202344e+04
-1.986279e+09 -1.786997e+09 -1.945706e+09 5.681241e+05 9.632468e+05 9.832250e+05
-1.858933e+09 -1.658933e+09 -1.819013e+09 5.356040e+04 6.136740e+04 4.875318e+04
-3.575585e+09 -3.374802e+09 -3.532083e+09 7.912056e+05 8.019881e+05 5.216387e+05
-1.942967e+09 -1.742899e+09 -1.902992e+09 4.842730e+04 9.167292e+04 6.563556e+04
-3.548502e+09 -3.349861e+09 -3.502518e+09 -1.793806e+05 5.261809e+05 -1.553818e+06
-2.535723e+09 -2.335671e+09 -2.495806e+09 7.506328e+04 6.269550e+04 4.203779e+04
-2.184804e+09 -1.984893e+09 -2.144898e+09 -1.274153e+03 -3.799201e+01 1.928670e+04
-2.996699e+09 -2.797944e+09 -2.950113e+09 6.132519e+04 -1.422915e+06 -3.652337e+06
-1.978334e+09 -1.778422e+09 -1.938430e+09 -5.131181e+03 -2.151074e+03 1.689519e+04
-2.913847e+09 -2.713109e+09 -2.860546e+09 4.752563e+05 -1.261232e+06 -4.042881e+06
-2.918041e+09 -2.718249e+09 -2.876999e+09 4.510584e+05 -2.698003e+05 -1.090206e+05
-3.216345e+09 -3.016481e+09 -3.176510e+09 -8.238611e+03 -4.873878e+03 3.578934e+04
-2.918106e+09 -2.718209e+09 -2.878225e+09 3.633311e+03 6.309928e+02 2.523626e+04
-2.275295e+09 -2.075385e+09 -2.235390e+09 -6.719313e+03 -3.727016e+03 1.590387e+04
-1.781022e+09 -1.581121e+09 -1.741125e+09 -3.134130e+03 -3.807127e+03 4.445808e+04
-1.796875e+09 -1.596955e+09 -1.756962e+09 -1.619266e+03 7.839468e+02 3.496896e+04
-3.019974e+09 -2.819874e+09 -2.980031e+09 4.503295e+04 5.609040e+04 3.004203e+04
-1.674116e+09 -1.474064e+09 -1.634129e+09 1.236884e+04 4.659586e+04 2.063198e+04
-3.594516e+09 -3.394318e+09 -3.554550e+09 5.139923e+04 7.029353e+04 2.124568e+04
-2.293761e+09 -2.094060e+09 -2.253495e+09 2.913277e+05 -1.172922e+05 -3.033975e+04
-1.823722e+09 -1.623924e+09 -1.783887e+09 1.846629e+05 9.135933e+04 4.772799e+04
-2.044161e+09 -1.844164e+09 -2.004090e+09 2.817369e+05 1.636968e+05 6.958210e+04
-2.454001e+09 -2.253995e+09 -2.413885e+09 2.767713e+05 2.027150e+05 1.976598e+05
-1.670767e+09 -1.470820e+09 -1.630837e+09 1.085725e+04 3.599061e+03 1.021599e+04
-2.316919e+09 -2.117174e+09 -2.276688e+09 2.258419e+05 3.827241e+04 -2.668721e+04
-2.666199e+09 -2.464071e+09 -2.620090e+09 6.394326e+05 -3.235731e+06 -5.084117e+05
-3.224801e+09 -3.024709e+09 -3.184870e+09 6.045042e+04 4.611082e+04 1.716801e+04
-2.034574e+09 -1.834533e+09 -1.994610e+09 3.648305e+04 3.606491e+04 2.538677e+04
-2.467139e+09 -2.266212e+09 -2.424997e+09 -6.082060e+05 -8.240932e+05 2.724649e+05
-1.779809e+09 -1.579614e+09 -1.739015e+09 -1.645818e+05 -4.342143e+05 -1.697795e+05
-1.670723e+09 -1.470782e+09 -1.630798e+09 1.013643e+04 3.597292e+03 1.311047e+04
-1.995789e+09 -1.795403e+09 -1.954166e+09 -3.538404e+05 -5.736952e+05 6.617741e+04
-3.054002e+09 -2.853629e+09 -3.012266e+09 -5.239268e+05 -3.066664e+05 3.346340e+05
-1.959791e+09 -1.759753e+09 -1.919811e+09 1.566656e+04 4.419412e+04 1.848323e+04
-3.539793e+09 -3.339682e+09 -3.499856e+09 5.824304e+04 4.633189e+04 2.697559e+04
-3.141951e+09 -2.941829e+09 -3.102010e+09 6.460902e+04 5.235944e+04 2.961099e+04
-1.588390e+09 -1.388351e+09 -1.548401e+09 1.706834e+04 6.811685e+04 3.745523e+04
-1.806763e+09 -1.606601e+09 -1.766624e+09 1.730840e+04 1.193465e+05 1.041032e+05
-3.539786e+09 -3.339659e+09 -3.499849e+09 7.488863e+04 4.753210e+04 2.696942e+04
-1.998207e+09 -1.798194e+09 -1.958236e+09 1.063079e+05 7.604027e+04 4.610738e+04
-1.566151e+09 -1.366121e+09 -1.526163e+09 1.193688e+04 6.150529e+04 2.470701e+04
-1.851723e+09 -1.651646e+09 -1.811723e+09 7.752795e+03 5.794045e+04 1.871466e+04
-3.214784e+09 -3.012688e+09 -3.170251e+09 -2.346987e+05 -2.744425e+06 7.299821e+05
-2.133682e+09 -1.932701e+09 -2.092315e+09 -9.733987e+03 -1.390638e+06 -1.594969e+05
-2.107979e+09 -1.907935e+09 -2.067923e+09 1.733464e+05 1.121876e+05 8.112791e+04
-3.581233e+09 -3.381193e+09 -3.534169e+09 -8.164561e+05 -9.276106e+05 1.431978e+06
-2.073335e+09 -1.872729e+09 -2.027162e+09 2.638800e+05 -5.634558e+06 -8.949572e+05
-3.209541e+09 -3.008329e+09 -3.168006e+09 2.995378e+05 -6.742762e+05 -1.143683e+05
-2.050158e+09 -1.850211e+09 -2.010247e+09 1.039463e+05 1.301729e+05 1.600163e+05
-3.394392e+09 -3.194312e+09 -3.354439e+09 1.771411e+05 7.118295e+04 6.458579e+04
-2.466043e+09 -2.266029e+09 -2.426074e+09 1.419692e+05 9.051547e+04 8.265703e+04
-1.596024e+09 -1.396018e+09 -1.556063e+09 1.883861e+04 2.311387e+04 1.909992e+04
-2.006836e+09 -1.806904e+09 -1.966920e+09 2.071559e+04 1.103625e+04 2.293037e+04
-1.895558e+09 -1.695474e+09 -1.855401e+09 8.117553e+04 7.391422e+04 6.898301e+04
-3.601296e+09 -3.401418e+09 -3.561472e+09 6.525567e+04 1.812169e+04 4.361342e+04
-1.780423e+09 -1.580538e+09 -1.740496e+09 5.776061e+04 7.241456e+04 9.468431e+04
-2.606487e+09 -2.406784e+09 -2.566704e+09 -3.245168e+03 -1.080072e+04 9.566750e+04
-2.683018e+09 -2.483298e+09 -2.642819e+09 -3.194446e+05 -8.066315e+04 9.412022e+04
-2.964467e+09 -2.764460e+09 -2.924523e+09 2.181306e+04 1.127736e+04 1.050132e+04
-1.599343e+09 -1.399386e+09 -1.559408e+09 1.995189e+04 1.927178e+04 4.474276e+04
-3.380806e+09 -3.180408e+09 -3.340671e+09 1.150767e+05 8.115396e+04 5.753081e+03
-2.170543e+09 -1.970381e+09 -2.130533e+09 -1.696308e+05 1.504970e+05 -9.863238e+04
-3.282466e+09 -3.082433e+09 -3.242495e+09 -3.663353e+05 6.237883e+04 -3.160821e+04
-3.577459e+09 -3.377137e+09 -3.537441e+09 1.308879e+05 1.169004e+05 3.663004e+04
-1.628941e+09 -1.428911e+09 -1.588901e+09 9.854116e+03 1.274928e+05 4.543403e+03
-2.666815e+09 -2.466617e+09 -2.626792e+09 3.754096e+04 1.298633e+05 1.851632e+04
-2.344269e+09 -2.144088e+09 -2.304233e+09 6.095042e+04 8.659043e+04 4.270170e+04
-3.403122e+09 -3.202851e+09 -3.363060e+09 1.269895e+05 8.636508e+04 3.922310e+04
-3.230012e+09 -3.029858e+09 -3.190056e+09 1.969425e+05 5.563888e+04 4.113069e+04
-3.577435e+09 -3.377059e+09 -3.537416e+09 1.729367e+05 8.311622e+04 3.557318e+04
-2.310945e+09 -2.110675e+09 -2.270770e+09 -1.883109e+05 1.554695e+05 -9.190437e+04
-3.140838e+09 -2.940695e+09 -3.100895e+09 6.951141e+04 8.261338e+04 3.604759e+04
-2.076202e+09 -1.876204e+09 -2.036258e+09 -2.597881e+05 -2.852469e+04 -6.681935e+04
-3.095345e+09 -2.895407e+09 -3.055250e+09 -3.548850e+05 -1.390565e+05 8.505805e+03
-1.921689e+09 -1.721566e+09 -1.881705e+09 3.720441e+04 9.298496e+04 4.048099e+04
-2.016743e+09 -1.817072e+09 -1.976089e+09 1.392019e+05 2.587099e+04 -4.088118e+05
-3.598040e+09 -3.397872e+09 -3.558116e+09 1.186402e+05 6.149899e+04 3.211635e+04
-3.408382e+09 -3.208368e+09 -3.368450e+09 3.235665e+04 1.595768e+04 1.717568e+04
-2.623140e+09 -2.423196e+09 -2.582783e+09 3.801077e+05 -1.090488e+04 -3.674021e+04
-1.602447e+09 -1.402481e+09 -1.562509e+09 1.033495e+04 4.365014e+03 5.106637e+03
-2.987508e+09 -2.788086e+09 -2.947468e+09 3.074327e+05 -8.088753e+04 -1.121801e+05
-1.592509e+09 -1.392547e+09 -1.552569e+09 1.559744e+04 9.567556e+03 1.524021e+04
-3.320525e+09 -3.121780e+09 -3.279700e+09 3.167338e+05 -1.208416e+05 -5.143251e+05
-3.004849e+09 -2.803855e+09 -2.962301e+09 6.726648e+05 -1.381435e+06 -9.884280e+05
-2.538350e+09 -2.337782e+09 -2.494017e+09 6.749508e+05 -1.355784e+06 -1.552014e+06
-3.141403e+09 -2.941081e+09 -3.092169e+09 7.381580e+05 2.918543e+06 1.723526e+06
-2.762325e+09 -2.563717e+09 -2.710084e+09 4.996303e+05 6.237251e+05 3.291137e+06
-2.575834e+09 -2.375781e+09 -2.527590e+09 4.318017e+05 3.573043e+06 2.560868e+06
-1.807422e+09 -1.607382e+09 -1.767437e+09 4.236673e+04 9.567797e+04 8.830862e+04
-3.517609e+09 -3.317483e+09 -3.477703e+09 1.331088e+05 7.558590e+04 4.410126e+04
-1.593141e+09 -1.393120e+09 -1.553108e+09 5.755628e+03 1.716065e+05 7.464407e+04
-3.183384e+09 -2.985260e+09 -3.141255e+09 4.312107e+05 2.443275e+05 1.749230e+06
-2.449201e+09 -2.249182e+09 -2.409283e+09 7.216713e+04 7.162384e+04 5.425843e+04
-1.588375e+09 -1.388344e+09 -1.548388e+09 1.387847e+04 7.248631e+04 4.450451e+04
-3.390188e+09 -3.190959e+09 -3.347165e+09 7.578293e+05 9.774630e+05 1.392638e+06
-1.593132e+09 -1.393094e+09 -1.553094e+09 1.016766e+04 9.598673e+04 7.450376e+04
-3.411428e+09 -3.211238e+09 -3.371464e+09 1.006607e+05 6.645133e+04 3.919520e+04
-2.398511e+09 -2.199070e+09 -2.353557e+09 4.471744e+05 2.342455e+06 2.822496e+06
-3.198213e+09 -3.000261e+09 -3.153545e+09 -5.465333e+04 9.312801e+05 2.661066e+06
-3.279439e+09 -3.079431e+09 -3.239498e+09 2.685399e+04 1.301581e+04 8.483436e+03
-2.802282e+09 -2.604431e+09 -2.759275e+09 -1.105028e+05 9.481100e+05 2.172704e+06
-2.906604e+09 -2.706617e+09 -2.866474e+09 3.498687e+05 -7.233798e+04 -1.000069e+05
-1.910490e+09 -1.710663e+09 -1.870275e+09 9.536208e+04 1.737044e+05 1.525228e+05
-3.612599e+09 -3.411934e+09 -3.571918e+09 -3.683189e+05 -2.193916e+04 2.600765e+04
-2.310223e+09 -2.110486e+09 -2.270331e+09 2.094532e+05 -6.925337e+04 -1.743712e+05
-2.567333e+09 -2.366960e+09 -2.527290e+09 4.597088e+04 -9.658791e+04 -1.988745e+03
-1.559766e+09 -1.359757e+09 -1.519131e+09 3.912936e+03 -2.757152e+05 -1.887445e+05
-1.596875e+09 -1.397008e+09 -1.555693e+09 -2.187391e+05 -8.045214e+05 -4.954269e+05
-1.906757e+09 -1.706556e+09 -1.866109e+09 5.088096e+04 -2.712442e+05 6.705168e+04
-1.896569e+09 -1.696628e+09 -1.856645e+09 1.010004e+04 4.638396e+03 1.268353e+04
-3.586521e+09 -3.386560e+09 -3.546601e+09 2.330556e+04 5.210961e+03 6.558898e+03
-3.415189e+09 -3.214744e+09 -3.375132e+09 2.599531e+04 -1.032308e+05 -1.453092e+04
-2.610790e+09 -2.410562e+09 -2.570764e+09 2.075448e+04 -1.370693e+05 -2.115574e+04
-3.416364e+09 -3.215873e+09 -3.376318e+09 2.184745e+04 -1.284901e+05 -2.807849e+03
-2.967766e+09 -2.767834e+09 -2.927858e+09 1.409329e+04 3.576295e+03 1.263564e+04
-1.805891e+09 -1.605834e+09 -1.765934e+09 -8.316190e+04 -9.725135e+04 1.074265e+05
-2.392794e+09 -2.192778e+09 -2.352823e+09 -1.105465e+05 -7.167674e+04 1.014789e+05
-2.387367e+09 -2.187326e+09 -2.347411e+09 -9.490209e+04 -1.084736e+05 1.025802e+05
-1.780606e+09 -1.580684e+09 -1.740632e+09 -4.426445e+04 -1.035927e+05 1.030919e+05
-3.276533e+09 -3.076290e+09 -3.236554e+09 -2.385996e+05 -1.095222e+05 6.542033e+04
-1.797842e+09 -1.597712e+09 -1.757847e+09 -6.009524e+04 -9.895154e+04 8.605697e+04
-1.602913e+09 -1.402861e+09 -1.562535e+09 1.015565e+04 -5.780587e+04 -2.728501e+04
-3.583895e+09 -3.383486e+09 -3.543805e+09 -2.196383e+05 -9.160382e+04 3.813449e+04
-2.709788e+09 -2.509748e+09 -2.669910e+09 -2.088438e+05 -8.109386e+04 5.518935e+04
-2.048970e+09 -1.849037e+09 -2.009050e+09 1.513172e+04 5.701448e+03 1.531210e+04
-2.218333e+09 -2.018289e+09 -2.178336e+09 -1.797395e+05 -7.238640e+04 6.282300e+04
-2.570889e+09 -2.370862e+09 -2.530947e+09 -3.153678e+05 -4.261625e+03 -1.923104e+04
-2.702527e+09 -2.502368e+09 -2.662434e+09 -3.685385e+05 4.746424e+03 2.274676e+04
-1.674153e+09 -1.474109e+09 -1.634173e+09 -1.533503e+04 -6.684819e+04 3.920350e+04
-1.878048e+09 -1.677901e+09 -1.838057e+09 -1.048011e+05 -1.214783e+05 7.550369e+04
-3.075996e+09 -2.875880e+09 -3.036036e+09 -1.618466e+05 -7.215756e+04 3.676038e+04
-3.315690e+09 -3.115215e+09 -3.275557e+09 -8.671801e+04 -7.577203e+04 2.376695e+04
-3.019691e+09 -2.820564e+09 -2.979724e+09 -2.607831e+05 5.260176e+04 -2.593267e+05
-2.185007e+09 -1.985410e+09 -2.144968e+09 -2.516888e+05 3.815049e+04 -1.208535e+05
-2.025483e+09 -1.825474e+09 -1.985531e+09 -2.414915e+04 -2.430957e+04 3.068826e+04
-3.069540e+09 -2.869786e+09 -3.029453e+09 -2.671278e+05 8.685700e+04 -3.485356e+04
-3.348607e+09 -3.149661e+09 -3.308390e+09 -1.703669e+05 4.616554e+04 -8.438985e+04
-3.478198e+09 -3.277575e+09 -3.438019e+09 7.565531e+04 -1.238238e+05 -1.007610e+04
-1.796206e+09 -1.596452e+09 -1.755774e+09 4.930464e+04 3.757154e+04 -4.281047e+04
-2.886919e+09 -2.686687e+09 -2.846933e+09 -1.393195e+04 -7.998441e+04 7.532442e+03
-1.674150e+09 -1.474084e+09 -1.634152e+09 -3.930889e+03 -9.816341e+04 1.333180e+04
-2.557595e+09 -2.357591e+09 -2.517648e+09 2.005643e+04 1.485078e+04 1.461007e+04
-1.783094e+09 -1.583102e+09 -1.743148e+09 2.464174e+04 1.903882e+04 1.835940e+04
-1.766611e+09 -1.566669e+09 -1.726686e+09 1.370481e+04 6.715885e+03 2.150782e+04
-3.205080e+09 -3.005104e+09 -3.165162e+09 3.003688e+04 1.361560e+04 1.737215e+04
-2.814065e+09 -2.614059e+09 -2.774126e+09 3.556638e+04 2.224772e+04 1.824378e+04
-1.775067e+09 -1.575080e+09 -1.735116e+09 2.029392e+04 1.237743e+04 1.635825e+04
-3.594401e+09 -3.394402e+09 -3.554476e+09 3.082094e+04 1.229402e+04 1.183950e+04
-1.881936e+09 -1.682004e+09 -1.842016e+09 -9.751877e+03 -7.129005e+03 2.364646e+04
-1.784289e+09 -1.584340e+09 -1.744359e+09 -1.315193e+04 -8.620784e+03 2.487217e+04
-2.915459e+09 -2.715542e+09 -2.875576e+09 -2.119537e+04 -8.541896e+03 3.196145e+04
-3.499647e+09 -3.299755e+09 -3.459769e+09 7.907825e+02 -3.608917e+02 1.699488e+04
-3.200065e+09 -3.000195e+09 -3.160224e+09 -1.707926e+04 -7.672844e+03 3.343654e+04
-3.341247e+09 -3.141171e+09 -3.301269e+09 2.099338e+05 -6.392591e+04 -5.327249e+04
-3.305039e+09 -3.105129e+09 -3.265161e+09 -2.449245e+04 -1.074185e+04 2.756083e+04
-3.019497e+09 -2.819207e+09 -2.979235e+09 2.272944e+05 9.938863e+03 -2.976510e+04
-1.704840e+09 -1.504882e+09 -1.664815e+09 3.173748e+04 -2.272349e+04 -7.646645e+04
-1.991692e+09 -1.791770e+09 -1.951779e+09 -4.251644e+03 -5.559731e+03 1.635713e+04
-2.894285e+09 -2.694359e+09 -2.854385e+09 -1.264542e+04 -7.443870e+03 1.824330e+04
-2.301935e+09 -2.102013e+09 -2.262024e+09 -1.016093e+04 -3.081187e+03 1.382884e+04
-2.902595e+09 -2.702673e+09 -2.862693e+09 -1.021039e+04 -3.936399e+03 1.613941e+04
-3.483479e+09 -3.283569e+09 -3.443593e+09 -1.534053e+04 -4.368099e+03 1.690994e+04
-2.001837e+09 -1.801811e+09 -1.961872e+09 -1.740790e+04 -4.380866e+04 3.594132e+04
-3.553002e+09 -3.353049e+09 -3.513135e+09 2.123940e+05 -1.053117e+05 -7.671237e+04
-3.038526e+09 -2.838487e+09 -2.998616e+09 -6.318789e+04 -4.776330e+04 3.762975e+04
-1.610684e+09 -1.410697e+09 -1.570714e+09 -1.491011e+04 -4.994355e+04 6.899663e+04
-1.574106e+09 -1.374135e+09 -1.534164e+09 1.199597e+04 4.920488e+03 7.768349e+03
-2.204294e+09 -2.004289e+09 -2.164357e+09 -4.389503e+04 -3.546572e+04 3.200891e+04
-2.618311e+09 -2.418435e+09 -2.578332e+09 -1.582672e+05 1.489094e+05 -9.783205e+04
-2.412641e+09 -2.212380e+09 -2.372537e+09 -9.691737e+04 8.698954e+04 2.409834e+04
-3.500449e+09 -3.300249e+09 -3.460479e+09 3.888464e+04 5.122909e+04 1.234669e+04
-2.978526e+09 -2.778576e+09 -2.938683e+09 -9.976977e+04 -4.741666e+04 6.158246e+04
-3.186267e+09 -2.986292e+09 -3.146326e+09 8.902758e+03 1.872951e+03 2.396834e+03
-3.179377e+09 -2.979089e+09 -3.139296e+09 1.536250e+05 1.095908e+05 4.162232e+04
-2.692974e+09 -2.493008e+09 -2.653048e+09 2.141289e+04 9.147298e+03 1.421065e+04
-2.449564e+09 -2.249397e+09 -2.409571e+09 3.196447e+04 1.269619e+05 1.655269e+04
-2.789372e+09 -2.589053e+09 -2.749257e+09 8.985426e+04 -8.316076e+04 -2.906793e+04
-2.647304e+09 -2.446927e+09 -2.607319e+09 1.312099e+05 -1.587630e+05 -6.820030e+04
-3.025746e+09 -2.825144e+09 -2.985146e+09 9.346237e+04 1.384798e+04 -2.038573e+04
-1.887035e+09 -1.687349e+09 -1.847096e+09 1.588740e+05 -5.264075e+03 1.066731e+05
-2.950488e+09 -2.749886e+09 -2.910188e+09 1.053944e+05 -2.382419e+04 -7.628491e+03
-2.680481e+09 -2.480091e+09 -2.640313e+09 -6.100241e+04 -1.909314e+05 3.944350e+04
-3.511535e+09 -3.311294e+09 -3.471544e+09 -2.500699e+04 7.652603e+04 -1.197013e+04
-3.111610e+09 -2.912384e+09 -3.072009e+09 -5.297051e+04 -4.518064e+04 1.424158e+05
-1.591001e+09 -1.391139e+09 -1.550569e+09 -8.075488e+03 -3.390721e+04 3.542445e+05
-1.582722e+09 -1.382742e+09 -1.540597e+09 -4.502748e+04 6.117211e+05 1.654344e+06
-1.567587e+09 -1.367515e+09 -1.527584e+09 2.601960e+03 8.592547e+04 -2.544188e+04
-3.499505e+09 -3.299972e+09 -3.459820e+09 -3.114643e+05 4.923685e+03 -2.682233e+04
-1.598792e+09 -1.398792e+09 -1.558714e+09 2.382861e+04 1.156326e+05 -5.755154e+04
-1.698490e+09 -1.498511e+09 -1.658472e+09 -2.896397e+02 8.637548e+04 -4.732564e+04
-3.289891e+09 -3.089845e+09 -3.249991e+09 -1.212737e+05 7.129620e+04 -4.942497e+04
-1.877506e+09 -1.677399e+09 -1.837493e+09 1.624815e+04 7.585722e+04 -1.712534e+04
-1.830303e+09 -1.630727e+09 -1.790505e+09 -1.040789e+05 -9.408426e+04 6.657201e+05
-1.587234e+09 -1.387295e+09 -1.546420e+09 2.540485e+04 -4.842935e+05 3.255266e+05
-1.578189e+09 -1.378156e+09 -1.538171e+09 9.530049e+03 1.210959e+05 -4.998254e+04
-2.872217e+09 -2.673364e+09 -2.832615e+09 -1.198689e+05 1.444215e+05 3.729176e+05
-2.854802e+09 -2.655110e+09 -2.814880e+09 -1.779113e+05 8.131177e+04 -6.425610e+04
-1.697971e+09 -1.498017e+09 -1.657951e+09 -1.768744e+04 -1.532466e+04 -4.992322e+04
-2.435785e+09 -2.235653e+09 -2.395808e+09 -2.409766e+04 8.663292e+04 -2.242893e+04
-1.836703e+09 -1.636582e+09 -1.796678e+09 -6.079614e+04 1.593589e+05 -2.238437e+04
-3.220785e+09 -3.020580e+09 -3.180797e+09 2.415026e+03 6.576645e+04 -1.690284e+04
-3.586844e+09 -3.386632e+09 -3.546879e+09 -4.307911e+04 6.854227e+04 -2.003042e+04
-3.101038e+09 -2.901143e+09 -3.061158e+09 3.876103e+03 2.057143e+03 2.708637e+04
-1.780097e+09 -1.580139e+09 -1.740171e+09 2.739474e+04 2.634817e+04 4.081278e+04
-3.104210e+09 -2.904242e+09 -3.064286e+09 2.185897e+04 7.935572e+03 1.060998e+04
-2.583539e+09 -2.383618e+09 -2.543640e+09 1.705204e+04 7.440713e+03 2.183554e+04
-2.739063e+09 -2.539087e+09 -2.699133e+09 2.414652e+04 1.156955e+04 1.325718e+04
-3.284415e+09 -3.084550e+09 -3.244574e+09 9.762257e+03 1.867296e+03 4.056127e+04
-3.178971e+09 -2.979075e+09 -3.139089e+09 6.515725e+03 -1.529592e+03 1.990360e+04
-3.606977e+09 -3.407114e+09 -3.567134e+09 1.226189e+04 1.095458e+03 3.395380e+04
-2.973096e+09 -2.773130e+09 -2.933160e+09 1.052405e+04 2.761824e+03 4.380893e+03
-2.572364e+09 -2.372400e+09 -2.532438e+09 2.182959e+04 8.443389e+03 1.536153e+04
-1.565450e+09 -1.365526e+09 -1.525532e+09 -2.528113e+02 -1.412183e+03 3.355167e+04
-1.900576e+09 -1.700603e+09 -1.860636e+09 1.927775e+04 1.091449e+04 1.523236e+04
-2.032021e+09 -1.832052e+09 -1.992088e+09 2.412670e+04 1.601122e+04 2.217346e+04
-1.778248e+09 -1.578279e+09 -1.738309e+09 1.373979e+04 6.487813e+03 1.054248e+04
-3.112017e+09 -2.912068e+09 -3.072157e+09 6.404190e+04 3.896461e+04 5.163615e+04
-3.608896e+09 -3.408929e+09 -3.568962e+09 1.131052e+04 2.190771e+03 2.887990e+03
-3.597771e+09 -3.397891e+09 -3.557929e+09 4.072420e+04 1.334880e+04 3.073313e+04
-2.643640e+09 -2.443700e+09 -2.603729e+09 2.059232e+04 6.867166e+03 1.717125e+04
-2.131596e+09 -1.932053e+09 -2.088191e+09 -2.723663e+05 2.156657e+06 -5.651419e+06
-2.619841e+09 -2.419923e+09 -2.579954e+09 2.710570e+04 1.383593e+04 3.268845e+04
-3.066249e+09 -2.866529e+09 -3.024342e+09 -9.441615e+05 9.197683e+05 -1.434938e+06
-3.584359e+09 -3.384437e+09 -3.544473e+09 2.521784e+04 7.265169e+03 1.890008e+04
-3.593256e+09 -3.393353e+09 -3.553384e+09 2.234192e+04 7.136640e+03 2.082195e+04
-3.584354e+09 -3.384443e+09 -3.544474e+09 2.840601e+04 8.231685e+03 1.839219e+04
-3.604836e+09 -3.404980e+09 -3.565032e+09 5.216974e+04 1.799209e+04 4.369953e+04
-1.788190e+09 -1.588222e+09 -1.748251e+09 1.228444e+04 4.609371e+03 6.031293e+03
-3.593084e+09 -3.393175e+09 -3.553228e+09 4.386163e+04 1.382762e+04 3.001459e+04
-3.362435e+09 -3.163621e+09 -3.317827e+09 -7.622154e+05 1.448056e+06 -1.920270e+06
-2.202787e+09 -2.002915e+09 -2.162968e+09 -1.562523e+05 1.425079e+05 -7.896946e+04
-3.595677e+09 -3.395810e+09 -3.555839e+09 -1.126058e+04 -4.013699e+03 3.118229e+04
-1.576582e+09 -1.376656e+09 -1.536665e+09 -3.073599e+03 -4.623340e+03 3.499604e+04
-3.383349e+09 -3.183484e+09 -3.343509e+09 -1.062333e+04 -3.182476e+03 3.038608e+04
-2.864225e+09 -2.664362e+09 -2.824380e+09 -1.401199e+04 -5.075278e+03 5.019961e+04
-3.220629e+09 -3.020788e+09 -3.180822e+09 -1.361475e+04 -3.436436e+03 5.885546e+04
-3.587912e+09 -3.387774e+09 -3.548007e+09 -1.541255e+05 9.970422e+04 -4.013619e+04
-3.137049e+09 -2.937229e+09 -3.097257e+09 1.434670e+04 7.944650e+03 5.326923e+04
-3.601022e+09 -3.401041e+09 -3.561108e+09 3.706319e+04 1.025180e+04 1.171184e+04
-3.185101e+09 -2.985070e+09 -3.145243e+09 -1.938878e+05 7.738743e+04 -5.059064e+04
-3.603786e+09 -3.403783e+09 -3.563456e+09 -5.221879e+05 3.806309e+04 3.933871e+04
-2.387044e+09 -2.187084e+09 -2.347122e+09 2.117889e+04 1.271531e+04 1.761991e+04
-1.583316e+09 -1.383306e+09 -1.543090e+09 -4.732292e+03 9.475471e+04 6.275559e+03
-3.603710e+09 -3.403503e+09 -3.563426e+09 -4.653449e+05 -1.055074e+04 5.670376e+02
-1.959937e+09 -1.759976e+09 -1.920010e+09 2.694413e+04 2.366628e+04 2.836722e+04
-3.622121e+09 -3.421634e+09 -3.582004e+09 -2.071359e+05 1.016599e+05 -8.020507e+04
-3.579674e+09 -3.379497e+09 -3.539796e+09 -2.045293e+05 8.723383e+04 -5.472537e+04
-2.818330e+09 -2.618385e+09 -2.778427e+09 3.096225e+04 1.318489e+04 2.380802e+04
-2.059511e+09 -1.859529e+09 -2.019574e+09 3.024339e+04 2.072321e+04 2.534531e+04
-1.883092e+09 -1.683102e+09 -1.843148e+09 2.527113e+04 2.372713e+04 3.180716e+04
-2.075314e+09 -1.874221e+09 -2.032950e+09 -4.857102e+05 -5.050885e+05 -1.094568e+05
-3.072185e+09 -2.872217e+09 -3.032274e+09 3.191324e+04 1.572616e+04 2.292924e+04
-2.617304e+09 -2.417420e+09 -2.577432e+09 -1.310372e+05 -5.439200e+04 7.001504e+04
-3.565148e+09 -3.365217e+09 -3.524617e+09 -4.865158e+05 -3.139184e+04 4.097991e+04
-2.654813e+09 -2.454848e+09 -2.614890e+09 2.544589e+04 1.269881e+04 1.789185e+04
-2.814675e+09 -2.614699e+09 -2.774749e+09 2.996511e+04 1.266598e+04 1.606635e+04
-1.754226e+09 -1.554258e+09 -1.714286e+09 1.830033e+04 1.317626e+04 1.599459e+04
-2.025472e+09 -1.825471e+09 -1.985528e+09 -2.377248e+04 -2.433931e+04 2.733284e+04
-2.377877e+09 -2.177931e+09 -2.337814e+09 -1.552365e+05 -1.072280e+05 7.841515e+04
-3.594605e+09 -3.394002e+09 -3.554473e+09 -9.874892e+04 -1.155014e+05 3.128512e+04
-2.637618e+09 -2.437575e+09 -2.597735e+09 1.107212e+05 8.337562e+04 7.528838e+04
-2.669662e+09 -2.469223e+09 -2.629529e+09 2.419491e+04 -9.355702e+04 -2.262690e+04
-1.670494e+09 -1.470532e+09 -1.630556e+09 9.972034e+03 3.241863e+03 5.871192e+03
-2.836197e+09 -2.636185e+09 -2.796297e+09 9.538942e+04 7.144501e+04 5.087910e+04
-3.149845e+09 -2.949770e+09 -3.109919e+09 5.797293e+04 4.828550e+04 3.003845e+04
-3.129186e+09 -2.929113e+09 -3.089270e+09 8.216617e+04 5.728357e+04 4.175877e+04
-2.269853e+09 -2.068547e+09 -2.224032e+09 1.868554e+04 2.882818e+06 -9.423834e+05
-3.565109e+09 -3.365165e+09 -3.524746e+09 -5.568789e+05 4.023047e+04 -1.325016e+05
-1.580144e+09 -1.380136e+09 -1.540143e+09 2.174177e+04 1.054127e+05 1.092195e+05
-1.790869e+09 -1.590826e+09 -1.750887e+09 2.913935e+04 7.687484e+04 4.261492e+04
-2.639091e+09 -2.439159e+09 -2.599194e+09 3.080447e+04 1.508286e+04 2.730176e+04
-3.151330e+09 -2.951242e+09 -3.111412e+09 7.003791e+04 6.853023e+04 4.247225e+04
-1.574436e+09 -1.374454e+09 -1.534491e+09 2.124264e+04 3.442215e+04 4.813894e+04
-2.155141e+09 -1.955035e+09 -2.115178e+09 8.459348e+04 1.057027e+05 6.205745e+04
-1.937788e+09 -1.737728e+09 -1.897816e+09 2.703016e+04 6.291673e+04 3.174627e+04
-3.332870e+09 -3.132765e+09 -3.292958e+09 1.382696e+05 7.114775e+04 4.219285e+04
-2.602512e+09 -2.402475e+09 -2.562640e+09 1.476702e+05 9.190927e+04 8.799199e+04
-3.104531e+09 -2.904543e+09 -3.064599e+09 2.459330e+04 1.210248e+04 1.201573e+04
-2.404050e+09 -2.204060e+09 -2.364112e+09 2.434064e+04 1.630125e+04 1.633271e+04
-1.644049e+09 -1.444031e+09 -1.604080e+09 1.893272e+04 5.025294e+04 4.057191e+04
-1.817855e+09 -1.617836e+09 -1.777886e+09 1.916126e+04 3.103851e+04 2.626383e+04
-2.818873e+09 -2.618853e+09 -2.778996e+09 1.207805e+05 6.890105e+04 6.823601e+04
-3.602658e+09 -3.402604e+09 -3.562784e+09 1.192986e+05 6.481129e+04 5.095246e+04
-3.604969e+09 -3.404958e+09 -3.565052e+09 4.746736e+04 2.140514e+04 1.624169e+04
-2.631665e+09 -2.431723e+09 -2.591756e+09 2.114283e+04 1.044156e+04 2.264354e+04
-2.037972e+09 -1.837932e+09 -1.998011e+09 4.115653e+04 5.943026e+04 4.280663e+04
-3.133838e+09 -2.933776e+09 -3.093935e+09 8.943495e+04 7.666072e+04 5.720897e+04
-1.589322e+09 -1.389337e+09 -1.549374e+09 1.846984e+04 2.175822e+04 2.351717e+04
-1.598037e+09 -1.397964e+09 -1.558048e+09 4.478821e+03 1.065703e+05 -8.244343e+03
-3.594402e+09 -3.394407e+09 -3.554477e+09 3.716441e+04 1.349199e+04 1.187836e+04
-3.255342e+09 -3.055049e+09 -3.215315e+09 -2.030823e+04 1.099410e+05 -1.318228e+04
-2.372465e+09 -2.172294e+09 -2.332476e+09 7.351398e+03 8.927881e+04 6.483004e+03
-1.583861e+09 -1.383908e+09 -1.543921e+09 1.623792e+04 3.234936e+04 6.387848e+04
-1.594686e+09 -1.394691e+09 -1.554718e+09 2.242896e+04 8.348879e+04 8.251566e+04
-2.015201e+09 -1.815295e+09 -1.975314e+09 4.212850e+04 2.381575e+04 6.866944e+04
-3.199082e+09 -2.998821e+09 -3.159096e+09 -2.323218e+03 7.283825e+04 9.203375e+02
-1.788044e+09 -1.587929e+09 -1.748033e+09 -3.690115e+04 1.091658e+05 -5.158976e+03
-2.239438e+09 -2.039015e+09 -2.199197e+09 -2.532577e+05 2.585050e+03 -4.532507e+04
-3.497565e+09 -3.296591e+09 -3.456953e+09 -3.947661e+04 -7.644064e+04 -7.081144e+03
-1.712149e+09 -1.512102e+09 -1.671649e+09 -4.100734e+04 1.569369e+05 -3.919076e+04
-3.404830e+09 -3.204485e+09 -3.364544e+09 3.685063e+05 1.035712e+05 -4.349582e+04
-3.611665e+09 -3.410989e+09 -3.571311e+09 -2.268091e+05 -7.701612e+04 6.500959e+04
-1.917520e+09 -1.717504e+09 -1.877568e+09 -2.962192e+04 -2.715421e+04 3.110904e+04
-3.368076e+09 -3.167678e+09 -3.327989e+09 2.691329e+05 1.015215e+05 4.769852e+04
-2.174803e+09 -1.974695e+09 -2.134833e+09 -1.503566e+05 -8.996728e+04 4.433789e+04
-3.585909e+09 -3.386192e+09 -3.546000e+09 -4.223970e+05 6.671215e+03 -4.691561e+04
-2.722742e+09 -2.522554e+09 -2.682757e+09 1.033633e+05 1.485141e+05 4.562626e+04
-3.603845e+09 -3.404049e+09 -3.564107e+09 1.156461e+05 3.430736e+04 6.697064e+04
-2.929075e+09 -2.729383e+09 -2.888776e+09 -3.551192e+05 3.608534e+05 -3.107946e+05
-2.457974e+09 -2.258124e+09 -2.417907e+09 -1.381170e+05 -7.618649e+04 7.676524e+04
-2.824147e+09 -2.624153e+09 -2.784257e+09 9.104351e+04 4.795272e+04 4.850300e+04
-3.599371e+09 -3.399238e+09 -3.559318e+09 -4.046677e+05 -6.331355e+04 9.352952e+03
-2.137790e+09 -1.937841e+09 -2.097897e+09 6.846100e+04 4.924473e+04 8.459376e+04
-2.406104e+09 -2.206121e+09 -2.366204e+09 6.273444e+04 6.438181e+04 6.631756e+04
-2.775985e+09 -2.576001e+09 -2.736098e+09 8.011106e+04 5.229000e+04 5.046620e+04
-3.599796e+09 -3.399157e+09 -3.559123e+09 4.109579e+05 -1.653237e+04 -2.708510e+04
-1.764866e+09 -1.564914e+09 -1.724878e+09 2.621098e+04 7.931344e+04 9.922777e+04
-1.963607e+09 -1.763417e+09 -1.923516e+09 9.655966e+04 6.634909e+04 7.705535e+04
-3.614420e+09 -3.414547e+09 -3.574517e+09 4.281666e+05 2.268062e+04 9.375766e+04
-1.652083e+09 -1.452112e+09 -1.611916e+09 1.058693e+04 -1.836097e+04 1.075542e+05
-3.266367e+09 -3.066910e+09 -3.226607e+09 3.247255e+05 9.813937e+04 -5.692093e+03
-3.419785e+09 -3.219672e+09 -3.379843e+09 1.959369e+05 7.488292e+04 5.838526e+04
-2.773118e+09 -2.573315e+09 -2.732665e+09 6.286173e+05 2.501323e+05 2.922220e+05
-2.831599e+09 -2.631531e+09 -2.791672e+09 2.067907e+05 9.551056e+04 7.353426e+04
-1.805246e+09 -1.605214e+09 -1.765302e+09 8.138927e+04 1.305721e+05 6.944296e+04
-2.135030e+09 -1.935063e+09 -2.094715e+09 2.245657e+05 5.672312e+04 7.865354e+04
-2.654570e+09 -2.454614e+09 -2.614694e+09 1.734387e+05 6.380262e+04 7.662553e+04
-3.461325e+09 -3.261951e+09 -3.421467e+09 -3.316968e+05 -1.743902e+04 1.079866e+05
-2.560604e+09 -2.360326e+09 -2.520025e+09 2.331592e+05 -5.294066e+04 7.895957e+03
-2.470206e+09 -2.269570e+09 -2.428734e+09 2.353951e+05 5.489060e+05 -1.208783e+05
-1.694271e+09 -1.494304e+09 -1.654267e+09 -1.292963e+04 -3.423511e+04 1.473051e+05
-1.573837e+09 -1.373871e+09 -1.533898e+09 -1.807531e+04 -3.314035e+04 4.498574e+04
-1.556453e+09 -1.356420e+09 -1.516298e+09 -6.405823e+03 -3.116635e+04 -9.701935e+04
-2.127193e+09 -1.927134e+09 -2.087178e+09 -2.065543e+05 -7.255117e+04 6.210951e+04
-1.650430e+09 -1.450457e+09 -1.610324e+09 -1.130584e+04 -6.319380e+04 6.190244e+04
-3.427678e+09 -3.227071e+09 -3.386929e+09 2.944639e+05 2.464702e+04 5.536160e+04
-3.500314e+09 -3.300519e+09 -3.460577e+09 -1.209545e+05 -2.611385e+04 6.848801e+04
-2.733419e+09 -2.534435e+09 -2.693271e+09 -2.527478e+05 1.029726e+05 -4.629302e+05
-3.134374e+09 -2.933413e+09 -3.093391e+09 7.320104e+04 1.516835e+05 -1.164230e+05
-3.319838e+09 -3.119211e+09 -3.278989e+09 2.549726e+05 -5.062726e+03 -3.192424e+04
-3.594994e+09 -3.394947e+09 -3.555118e+09 -2.932814e+05 1.243219e+05 -6.203626e+04
-1.776437e+09 -1.576365e+09 -1.736466e+09 7.282125e+04 1.348298e+05 3.559173e+04
-3.621941e+09 -3.421574e+09 -3.581933e+09 -2.234923e+05 9.609964e+04 -4.020626e+04
-1.861941e+09 -1.661834e+09 -1.821943e+09 3.407624e+04 7.973959e+04 6.572259e+03
-1.766530e+09 -1.566428e+09 -1.726524e+09 5.049807e+04 1.194226e+05 2.826456e+03
-3.271564e+09 -3.071335e+09 -3.231570e+09 4.308708e+03 6.428434e+04 1.112787e+04
-1.697972e+09 -1.498046e+09 -1.657998e+09 -1.097398e+04 7.002648e+04 -2.235755e+03
-3.027849e+09 -2.827651e+09 -2.987876e+09 -4.594198e+03 5.963041e+04 -2.910113e+03
-2.578946e+09 -2.378721e+09 -2.538927e+09 2.604002e+04 1.238385e+05 1.252334e+03
-3.582080e+09 -3.381885e+09 -3.542131e+09 -7.127899e+04 5.712466e+04 -2.171009e+04
-2.419987e+09 -2.219765e+09 -2.379920e+09 -2.804123e+04 1.410314e+05 -3.578440e+04
-3.080101e+09 -2.879876e+09 -3.040134e+09 4.435580e+04 7.201357e+04 1.513848e+04
-3.586772e+09 -3.386443e+09 -3.546777e+09 2.113189e+04 6.816439e+04 2.897998e+03
-2.429074e+09 -2.228885e+09 -2.389051e+09 -8.433345e+03 1.342090e+05 8.674971e+02
-3.381350e+09 -3.181065e+09 -3.341355e+09 6.394422e+04 1.031407e+05 2.307384e+03
-1.698373e+09 -1.498302e+09 -1.658379e+09 3.654190e+03 7.205397e+04 8.157478e+02
-3.586802e+09 -3.386547e+09 -3.546805e+09 1.679817e+04 7.633144e+04 2.479983e+03
-2.676165e+09 -2.476135e+09 -2.636233e+09 5.876760e+04 5.813514e+04 4.376878e+04
-3.411614e+09 -3.211582e+09 -3.371691e+09 4.123816e+04 2.363088e+04 2.215195e+04
-2.655339e+09 -2.455268e+09 -2.615408e+09 5.782382e+04 6.071993e+04 4.526587e+04
-1.828897e+09 -1.628895e+09 -1.788949e+09 2.942271e+04 2.833506e+04 2.267780e+04
-3.591705e+09 -3.391003e+09 -3.551413e+09 1.642591e+05 4.648016e+04 8.494302e+03
-1.674009e+09 -1.473939e+09 -1.634013e+09 -2.409230e+03 5.492414e+04 -2.005975e+04
-1.582510e+09 -1.382477e+09 -1.542497e+09 8.394629e+03 1.043373e+05 -5.683817e+04
-1.801217e+09 -1.601191e+09 -1.761255e+09 3.052777e+04 3.416244e+04 3.000136e+04
-3.096640e+09 -2.896617e+09 -3.056706e+09 3.595847e+04 2.060493e+04 1.554991e+04
-1.870650e+09 -1.670614e+09 -1.830675e+09 1.497917e+04 2.868635e+04 2.162211e+04
-1.584957e+09 -1.384932e+09 -1.544989e+09 1.559270e+04 3.064450e+04 2.529722e+04
-3.616460e+09 -3.416512e+09 -3.576548e+09 -1.630706e+04 -3.701455e+03 9.251985e+03
-2.663030e+09 -2.463093e+09 -2.623125e+09 -2.205865e+04 -8.569450e+03 1.892790e+04
-1.979544e+09 -1.779585e+09 -1.939609e+09 -8.665545e+03 -2.137955e+03 3.851535e+03
-2.632052e+09 -2.432088e+09 -2.592124e+09 -1.292848e+04 -6.499626e+03 1.298258e+04
-2.655648e+09 -2.455425e+09 -2.615647e+09 -8.301993e+04 1.055311e+05 -3.843304e+04
-3.324968e+09 -3.125016e+09 -3.285045e+09 -1.235623e+04 -5.262527e+03 6.047771e+03
-2.133121e+09 -1.933159e+09 -2.093185e+09 -1.357228e+04 -7.580476e+03 7.910145e+03
-2.211625e+09 -2.011673e+09 -2.171694e+09 -1.064682e+04 -2.998073e+03 7.558898e+03
-1.902467e+09 -1.702517e+09 -1.862536e+09 -9.321257e+03 -5.285772e+03 8.526898e+03
-2.134557e+09 -1.934432e+09 -2.094580e+09 4.814103e+04 9.696993e+04 4.113767e+04
-1.698514e+09 -1.498586e+09 -1.658596e+09 -6.629727e+03 -3.410822e+03 1.596260e+04
-1.851796e+09 -1.651738e+09 -1.811825e+09 3.414722e+04 5.414251e+04 2.138226e+04
-2.547940e+09 -2.347831e+09 -2.507996e+09 5.397453e+04 8.474069e+04 4.451072e+04
-2.118134e+09 -1.918077e+09 -2.078169e+09 4.584985e+04 9.642909e+04 6.872269e+04
-1.768691e+09 -1.568596e+09 -1.728673e+09 -4.713469e+03 8.189407e+04 4.194011e+04
-2.597021e+09 -2.396932e+09 -2.557059e+09 4.188896e+04 7.051451e+04 3.012064e+04
-1.868176e+09 -1.668207e+09 -1.828249e+09 3.318817e+04 2.862847e+04 3.580191e+04
-1.995464e+09 -1.795542e+09 -1.955554e+09 -1.243969e+04 -1.823476e+03 1.843183e+04
-2.724524e+09 -2.524571e+09 -2.684656e+09 7.364734e+04 6.110938e+04 6.794185e+04
-3.410224e+09 -3.210205e+09 -3.370332e+09 9.380225e+04 4.860557e+04 5.163169e+04
-3.308980e+09 -3.109011e+09 -3.269044e+09 1.213280e+04 3.364547e+03 3.293589e+03
-2.025168e+09 -1.825128e+09 -1.985234e+09 9.553353e+04 1.140371e+05 8.265056e+04
-2.797407e+09 -2.597006e+09 -2.757321e+09 -3.624619e+03 -1.224333e+05 -4.773730e+03
-3.601472e+09 -3.400987e+09 -3.561428e+09 2.049489e+04 -1.295217e+05 -4.223848e+02
-1.573158e+09 -1.373167e+09 -1.533183e+09 2.055917e+04 7.207920e+04 8.896009e+04
-3.221907e+09 -3.021896e+09 -3.182018e+09 9.548663e+04 4.856948e+04 4.787034e+04
-3.606085e+09 -3.406010e+09 -3.566255e+09 2.074811e+05 -1.047106e+05 -8.695176e+04
-3.156359e+09 -2.956424e+09 -3.116527e+09 1.117213e+05 6.572119e+04 9.361955e+04
-3.108960e+09 -2.908851e+09 -3.069037e+09 -9.267549e+04 -6.408277e+04 3.452251e+04
-3.313625e+09 -3.112843e+09 -3.273264e+09 7.597241e+04 -1.186821e+05 6.910012e+03
-3.606971e+09 -3.407115e+09 -3.567133e+09 2.594284e+03 3.152945e+02 3.135997e+04
-3.009790e+09 -2.809706e+09 -2.969872e+09 -7.328753e+04 -6.138423e+04 3.725948e+04
-3.467882e+09 -3.268642e+09 -3.428264e+09 -1.570834e+05 1.766841e+04 7.433791e+04
-3.433815e+09 -3.233681e+09 -3.393916e+09 -1.198220e+05 -6.740051e+04 5.157788e+04
-3.512104e+09 -3.311694e+09 -3.472087e+09 -8.438247e+04 -1.250103e+05 3.281420e+04
-3.497340e+09 -3.296540e+09 -3.456921e+09 -7.632656e+04 -5.686287e+04 -8.624762e+03
-2.236263e+09 -2.036092e+09 -2.196259e+09 -4.355200e+04 -1.146406e+05 4.441628e+04
-2.278247e+09 -2.078011e+09 -2.238220e+09 8.673793e+03 -9.578668e+04 -1.992920e+03
-1.898263e+09 -1.698084e+09 -1.858275e+09 -5.015405e+03 -1.221527e+05 1.007107e+04
-1.714536e+09 -1.514472e+09 -1.674536e+09 -1.261099e+04 -1.331186e+05 2.349023e+04
-3.567875e+09 -3.367167e+09 -3.527622e+09 -5.706730e+04 -1.199083e+05 -1.686926e+04
-3.159566e+09 -2.959237e+09 -3.119526e+09 -1.420405e+05 -8.527441e+04 1.748123e+04
-2.181472e+09 -1.981292e+09 -2.141463e+09 -3.902343e+04 -1.415367e+05 3.241378e+04
-3.590408e+09 -3.390197e+09 -3.550476e+09 -2.238704e+05 -7.509098e+04 4.999641e+04
-3.409951e+09 -3.209843e+09 -3.370021e+09 -1.488674e+05 -8.628770e+04 4.938542e+04
-3.390346e+09 -3.190412e+09 -3.350458e+09 -3.527802e+04 -1.246289e+04 2.055142e+04
-1.698151e+09 -1.498162e+09 -1.658203e+09 -1.448713e+04 -2.087756e+04 1.922646e+04
-3.040998e+09 -2.840322e+09 -3.000283e+09 -9.505431e+04 1.854053e+05 1.803043e+04
-2.002140e+09 -1.802258e+09 -1.962283e+09 -3.439449e+04 -3.141192e+04 6.807987e+04
-3.475894e+09 -3.275922e+09 -3.435966e+09 -2.046032e+04 -7.583272e+03 7.809288e+03
-3.075148e+09 -2.874984e+09 -3.035134e+09 -1.641369e+05 -1.090074e+05 7.750742e+04
-3.607492e+09 -3.407526e+09 -3.567581e+09 -3.431476e+04 -1.036854e+04 1.562673e+04
-3.207097e+09 -3.007091e+09 -3.167165e+09 3.568595e+04 1.746685e+04 1.719935e+04
-3.604980e+09 -3.404951e+09 -3.565053e+09 3.759923e+04 2.263579e+04 1.786870e+04
-3.194330e+09 -2.994354e+09 -3.154411e+09 -2.716457e+04 -1.128456e+04 1.197447e+04
-3.043847e+09 -2.843819e+09 -3.003922e+09 4.738274e+04 3.306317e+04 3.110463e+04
-3.061860e+09 -2.861820e+09 -3.021943e+09 6.716042e+04 5.037150e+04 4.009950e+04
-3.404289e+09 -3.204288e+09 -3.364388e+09 5.688925e+04 2.933124e+04 2.311173e+04
-3.604968e+09 -3.404953e+09 -3.565051e+09 3.945444e+04 2.042957e+04 1.580203e+04
-1.589329e+09 -1.389328e+09 -1.549373e+09 1.809694e+04 2.225999e+04 2.412732e+04
-2.747730e+09 -2.547518e+09 -2.707744e+09 6.139902e+04 1.220807e+05 3.159820e+04
-2.730655e+09 -2.530419e+09 -2.690666e+09 7.896916e+04 1.001359e+05 2.891900e+04
-3.325112e+09 -3.124830e+09 -3.285092e+09 8.585622e+04 8.137409e+04 3.294535e+04
-3.137269e+09 -2.937112e+09 -3.097315e+09 5.712442e+04 6.103404e+04 3.014039e+04
-1.601827e+09 -1.401875e+09 -1.561896e+09 -1.586973e+04 -1.580265e+04 2.672688e+04
-2.028808e+09 -1.828943e+09 -1.988934e+09 -5.429879e+03 -4.035421e+03 6.623764e+04
-3.279615e+09 -3.079798e+09 -3.239817e+09 3.100291e+03 2.415027e+03 5.571101e+04
-1.619783e+09 -1.419861e+09 -1.579867e+09 2.747418e+03 -4.473349e+01 3.705854e+04
-3.611439e+09 -3.411658e+09 -3.571686e+09 -2.947281e+04 -8.989235e+03 4.177139e+04
-2.954735e+09 -2.755033e+09 -2.914995e+09 -5.259241e+04 -9.965857e+03 8.886449e+04
-3.333849e+09 -3.133665e+09 -3.293876e+09 5.190448e+04 6.766365e+04 3.221992e+04
-1.551098e+09 -1.351139e+09 -1.511086e+09 3.916253e+03 -5.936433e+04 1.491257e+05
-1.795371e+09 -1.595301e+09 -1.755031e+09 -5.352139e+04 2.934305e+03 1.532384e+04
-1.933221e+09 -1.732854e+09 -1.892317e+09 -1.362761e+05 1.099069e+05 4.618453e+04
-2.008275e+09 -1.808021e+09 -1.967669e+09 -2.903173e+04 5.252355e+04 3.640814e+04
-1.604748e+09 -1.404810e+09 -1.564793e+09 9.923737e+02 -2.048427e+04 1.298165e+05
-2.031924e+09 -1.832063e+09 -1.992066e+09 -2.332718e+04 -1.558850e+04 9.828104e+04
-3.226342e+09 -3.025736e+09 -3.185373e+09 -3.368050e+05 1.033440e+05 -1.838354e+05
-3.611493e+09 -3.411652e+09 -3.571697e+09 -2.366068e+04 -1.018627e+04 4.639618e+04
-2.513323e+09 -2.313572e+09 -2.473559e+09 1.350408e+03 -2.950811e+03 1.506267e+05
-1.616363e+09 -1.416438e+09 -1.576441e+09 -1.181052e+03 -6.220873e+02 5.733628e+04
-3.614723e+09 -3.414863e+09 -3.574902e+09 -3.019247e+04 -1.162197e+04 4.020180e+04
-2.288342e+09 -2.088431e+09 -2.248438e+09 -4.608144e+03 -1.903619e+03 1.666999e+04
-3.611497e+09 -3.411675e+09 -3.571703e+09 -2.159072e+04 -1.103195e+04 4.613445e+04
-1.573942e+09 -1.374004e+09 -1.534004e+09 -4.729074e+03 -8.090720e+03 8.412582e+04
-3.204797e+09 -3.004599e+09 -3.163579e+09 -4.930041e+05 2.325289e+05 -2.445889e+05
-2.494593e+09 -2.293958e+09 -2.441816e+09 -3.621875e+04 3.066770e+06 -3.271209e+05
-2.118812e+09 -1.918010e+09 -2.072669e+09 3.594229e+05 5.965537e+06 4.931733e+05
-1.997478e+09 -1.798029e+09 -1.952106e+09 4.124603e+05 2.229617e+06 2.356193e+06
-3.575021e+09 -3.373949e+09 -3.531802e+09 4.119162e+05 1.046808e+06 4.042686e+05
-1.793964e+09 -1.594626e+09 -1.749697e+09 5.482172e+04 5.899342e+05 2.781610e+06
-3.048859e+09 -2.847971e+09 -3.007530e+09 -1.751579e+05 6.266966e+05 -1.654095e+05
-3.346226e+09 -3.144989e+09 -3.304453e+09 -1.874642e+05 6.089046e+05 -1.535536e+05
-2.016304e+09 -1.815851e+09 -1.975256e+09 -3.595594e+04 2.644842e+05 -7.601717e+04
-1.934535e+09 -1.733961e+09 -1.894105e+09 -7.491370e+04 3.445849e+05 -6.008722e+04
-3.494655e+09 -3.294631e+09 -3.454759e+09 -6.584266e+04 -3.627267e+04 2.988361e+04
-2.813138e+09 -2.613189e+09 -2.773064e+09 2.776206e+05 -6.211365e+04 -6.096021e+04
-1.698572e+09 -1.498589e+09 -1.658570e+09 2.174076e+04 -8.933008e+04 -5.736472e+04
-2.671551e+09 -2.471744e+09 -2.631528e+09 2.575537e+05 -1.205385e+05 -4.835986e+04
-3.187035e+09 -2.986946e+09 -3.147106e+09 -1.505803e+05 -1.043919e+05 8.143980e+04
-1.788693e+09 -1.588645e+09 -1.748727e+09 -4.214798e+04 -6.132673e+04 6.209546e+04
-3.003113e+09 -2.803105e+09 -2.963236e+09 -1.191090e+05 -9.537930e+04 8.203199e+04
-1.598043e+09 -1.397992e+09 -1.558048e+09 2.947456e+03 8.453101e+04 -8.022722e+03
-3.609481e+09 -3.409151e+09 -3.569491e+09 -1.092613e+04 7.317117e+04 -6.182545e+03
-2.558126e+09 -2.357901e+09 -2.518108e+09 -3.523563e+03 9.536868e+04 5.718572e+03
-2.594417e+09 -2.394396e+09 -2.554465e+09 -1.059498e+05 -1.125997e+05 7.375235e+04
-2.627421e+09 -2.427357e+09 -2.587297e+09 -2.064370e+05 -1.365271e+05 9.126577e+04
-2.989257e+09 -2.789248e+09 -2.949390e+09 -1.880228e+05 -7.301596e+04 7.955579e+04
-3.206706e+09 -3.007516e+09 -3.164403e+09 -7.514240e+05 -8.975126e+05 1.057085e+06
-3.411208e+09 -3.212667e+09 -3.368902e+09 -3.439929e+05 -3.057917e+05 1.375817e+06
-3.609511e+09 -3.409256e+09 -3.569519e+09 -5.209902e+03 7.800901e+04 -5.439383e+03
-1.886447e+09 -1.686338e+09 -1.846445e+09 -1.827613e+04 8.220508e+04 5.418963e+03
-2.329204e+09 -2.129037e+09 -2.289200e+09 -1.256704e+04 6.355472e+04 -1.038752e+04
-3.192376e+09 -2.992661e+09 -3.152636e+09 5.466801e+04 1.213246e+04 8.207562e+04
-3.413097e+09 -3.214416e+09 -3.370128e+09 -3.942434e+05 -2.790275e+05 1.384549e+06
-3.418849e+09 -3.219756e+09 -3.376251e+09 -8.235579e+05 -9.285894e+05 1.097273e+06
-2.555869e+09 -2.357208e+09 -2.508394e+09 -7.458721e+05 -1.693229e+06 4.364282e+06
-3.406974e+09 -3.209027e+09 -3.360391e+09 -1.602178e+05 -1.614807e+05 2.999884e+06
-2.556360e+09 -2.355898e+09 -2.504011e+09 -2.133089e+05 -1.251179e+06 2.636558e+06
-1.832205e+09 -1.632612e+09 -1.790876e+09 -7.399351e+03 2.204241e+05 -1.001931e+06
-3.461418e+09 -3.262270e+09 -3.421567e+09 -2.775200e+05 -8.423640e+04 1.087950e+05
-3.379725e+09 -3.180215e+09 -3.331919e+09 -7.236133e+05 -1.652521e+06 1.874911e+06
-1.989945e+09 -1.790049e+09 -1.948175e+09 -4.704404e+05 -1.758162e+06 1.181092e+06
-3.589900e+09 -3.390830e+09 -3.541036e+09 -2.968819e+05 -1.238995e+06 1.710691e+06
-3.406007e+09 -3.206120e+09 -3.366181e+09 6.452537e+04 1.879317e+04 5.169732e+04
-2.423759e+09 -2.223854e+09 -2.383894e+09 4.137381e+04 2.921174e+04 7.757383e+04
-1.812598e+09 -1.612658e+09 -1.772677e+09 2.347863e+04 1.919204e+04 4.915510e+04
-1.801957e+09 -1.602029e+09 -1.762048e+09 3.694807e+04 3.009136e+04 7.541163e+04
-2.005978e+09 -1.806061e+09 -1.966077e+09 2.365157e+04 1.582462e+04 4.216699e+04
-2.006366e+09 -1.806476e+09 -1.966486e+09 3.163236e+04 2.664036e+04 6.563410e+04
-1.694660e+09 -1.494797e+09 -1.654129e+09 -7.413263e+03 5.168750e+04 -4.024769e+05
-1.976098e+09 -1.775929e+09 -1.936087e+09 7.918778e+03 7.816100e+04 -1.839774e+03
-1.962727e+09 -1.762556e+09 -1.922698e+09 2.094892e+04 1.461501e+05 8.671996e+03
-3.181465e+09 -2.981276e+09 -3.141479e+09 7.452911e+03 6.543735e+04 1.847679e+04
-1.584657e+09 -1.384610e+09 -1.544661e+09 -1.099527e+03 1.465332e+05 1.911024e+04
-1.907958e+09 -1.707840e+09 -1.867957e+09 3.207529e+04 8.431650e+04 -5.968095e+03
-3.175289e+09 -2.975014e+09 -3.135273e+09 2.196853e+04 1.195742e+05 1.061305e+04
-2.400934e+09 -2.200713e+09 -2.360892e+09 3.893278e+04 1.579569e+05 3.566312e+04
-3.390272e+09 -3.189969e+09 -3.350279e+09 4.646798e+04 1.046215e+05 2.338906e+04
-3.374363e+09 -3.173989e+09 -3.334321e+09 9.773107e+04 1.339821e+05 2.761794e+04
-2.145973e+09 -1.946012e+09 -2.106049e+09 3.501809e+04 2.685315e+04 3.331130e+04
-1.770594e+09 -1.570665e+09 -1.730681e+09 3.347578e+04 4.908930e+04 6.204560e+04
-3.225557e+09 -3.025168e+09 -3.185429e+09 5.188036e+04 1.415837e+05 -4.713619e+03
-3.364653e+09 -3.164749e+09 -3.324846e+09 1.004660e+05 3.477899e+04 5.301199e+04
-3.379529e+09 -3.179107e+09 -3.339511e+09 2.077020e+04 9.104374e+04 9.375504e+03
-3.542803e+09 -3.342929e+09 -3.502742e+09 5.035011e+05 1.772394e+04 -6.613022e+04
-3.394841e+09 -3.194905e+09 -3.354968e+09 4.432981e+04 2.193195e+04 2.973220e+04
-2.830420e+09 -2.630483e+09 -2.790510e+09 2.292863e+04 8.261075e+03 1.710923e+04
-3.020141e+09 -2.820208e+09 -2.980249e+09 2.573285e+04 9.903968e+03 2.389658e+04
-3.028870e+09 -2.828941e+09 -2.988980e+09 3.070557e+04 1.150633e+04 2.896273e+04
-3.396523e+09 -3.196575e+09 -3.356620e+09 3.219811e+04 1.204171e+04 1.476605e+04
-1.564815e+09 -1.364834e+09 -1.524868e+09 1.801289e+04 1.660398e+04 1.843361e+04
-3.393167e+09 -3.193026e+09 -3.353251e+09 9.557674e+04 6.940811e+04 2.722470e+04
-2.582006e+09 -2.381990e+09 -2.542058e+09 2.417644e+04 2.384183e+04 1.933770e+04
-3.404440e+09 -3.204448e+09 -3.364519e+09 3.526853e+04 1.256421e+04 1.439710e+04
-2.742673e+09 -2.542530e+09 -2.702710e+09 6.887255e+04 8.010227e+04 3.801040e+04
-3.590289e+09 -3.390305e+09 -3.550414e+09 7.077492e+04 3.105897e+04 3.393051e+04
-3.346834e+09 -3.146695e+09 -3.306882e+09 6.357582e+04 5.339091e+04 3.623856e+04
-2.743801e+09 -2.543682e+09 -2.703845e+09 5.769495e+04 8.391594e+04 4.429291e+04
-3.600185e+09 -3.400221e+09 -3.560353e+09 1.025686e+05 4.701757e+04 5.383004e+04
-1.573139e+09 -1.373159e+09 -1.533171e+09 1.872384e+04 7.141908e+04 1.105377e+05
-1.574494e+09 -1.374497e+09 -1.534481e+09 5.538586e+03 3.712317e+04 2.193170e+04
-1.574471e+09 -1.374470e+09 -1.534410e+09 1.818393e+04 2.041135e+05 2.375901e+04
-3.585724e+09 -3.385244e+09 -3.545638e+09 3.943014e+04 9.480298e+04 1.218998e+04
-2.774517e+09 -2.574220e+09 -2.734493e+09 5.113350e+04 9.838787e+04 1.893496e+04
-2.442850e+09 -2.242739e+09 -2.402877e+09 3.141336e+04 7.158064e+04 3.002010e+04
-2.731949e+09 -2.531787e+09 -2.691972e+09 5.613449e+04 7.742581e+04 2.835222e+04
-3.218252e+09 -3.018081e+09 -3.178273e+09 1.491905e+05 9.815449e+04 6.497711e+04
-2.002779e+09 -1.802822e+09 -1.962846e+09 1.010413e+04 4.778704e+03 7.133104e+03
-2.756575e+09 -2.556284e+09 -2.716537e+09 7.817913e+04 1.538062e+05 2.346623e+04
-2.410320e+09 -2.210087e+09 -2.370308e+09 2.846559e+04 8.787886e+04 1.156218e+04
-1.961459e+09 -1.761293e+09 -1.921429e+09 5.362702e+04 1.631366e+05 4.280654e+04
-1.697306e+09 -1.497381e+09 -1.657298e+09 -6.772298e+03 4.936113e+04 5.127606e+04
-1.929497e+09 -1.729202e+09 -1.889191e+09 1.247808e+05 1.404947e+05 1.331900e+05
-3.382043e+09 -3.181757e+09 -3.342072e+09 1.235664e+05 1.101739e+05 3.942164e+04
-3.617775e+09 -3.417547e+09 -3.577735e+09 2.946494e+05 1.111963e+05 6.145669e+04
-1.955189e+09 -1.755003e+09 -1.915002e+09 1.804462e+05 1.130300e+05 1.886229e+04
-2.426991e+09 -2.226869e+09 -2.386992e+09 1.197553e+05 9.911121e+04 6.828017e+04
-3.589690e+09 -3.389364e+09 -3.549653e+09 2.623982e+05 7.361340e+04 4.388866e+04
-1.561521e+09 -1.361499e+09 -1.521377e+09 -1.187863e+04 8.163328e+04 5.649030e+04
-1.982968e+09 -1.782812e+09 -1.942893e+09 1.180282e+05 1.515227e+05 7.317304e+04
-1.561550e+09 -1.361531e+09 -1.521460e+09 -2.184719e+04 2.159663e+05 7.299853e+04
-3.479492e+09 -3.279599e+09 -3.439613e+09 6.020678e+03 1.159835e+03 1.574264e+04
-3.399161e+09 -3.198908e+09 -3.359171e+09 5.341844e+04 7.107436e+04 2.707709e+04
-1.825106e+09 -1.624984e+09 -1.785093e+09 6.078131e+04 1.460975e+05 1.052248e+04
-2.001378e+09 -1.801160e+09 -1.961309e+09 4.232044e+04 1.223746e+05 2.168910e+04
-3.170828e+09 -2.970542e+09 -3.130799e+09 7.913377e+04 1.185619e+05 3.246243e+04
-3.276691e+09 -3.076444e+09 -3.236700e+09 4.714743e+04 7.439723e+04 1.395604e+04
-3.052830e+09 -2.852500e+09 -3.012795e+09 -4.898947e+04 -9.719840e+04 8.256697e+03
-3.292424e+09 -3.092514e+09 -3.252531e+09 1.123274e+04 2.133209e+03 1.565224e+04
-2.632292e+09 -2.432020e+09 -2.592258e+09 -1.483669e+04 -1.603890e+05 7.330920e+03
-1.911931e+09 -1.711741e+09 -1.871936e+09 5.427012e+03 -1.241213e+05 -7.203957e+03
-2.738617e+09 -2.538317e+09 -2.698524e+09 4.529426e+03 -1.538293e+05 -1.003120e+04
-3.317892e+09 -3.117127e+09 -3.277546e+09 -7.598305e+04 -7.537351e+04 -2.001662e+04
-3.234639e+09 -3.034293e+09 -3.194642e+09 -5.996030e+03 -1.096295e+05 2.142043e+03
-2.552540e+09 -2.352459e+09 -2.512211e+09 2.156964e+05 -2.397103e+04 -5.403832e+04
-2.052526e+09 -1.852223e+09 -2.012438e+09 -1.087702e+04 -1.800576e+05 -1.357044e+04
-2.886522e+09 -2.686316e+09 -2.846556e+09 -3.558960e+04 -7.607445e+04 1.845328e+04
-2.326653e+09 -2.126446e+09 -2.286616e+09 -2.416718e+04 -1.461021e+05 2.092108e+04
-1.992593e+09 -1.792443e+09 -1.952571e+09 -5.792700e+04 -1.303367e+05 -1.713930e+03
-1.777014e+09 -1.576956e+09 -1.736914e+09 -2.026478e+04 -1.699233e+05 -1.375013e+04
-1.559655e+09 -1.359645e+09 -1.519553e+09 -4.328208e+03 -1.487386e+05 6.813740e+03
-3.516916e+09 -3.316547e+09 -3.476881e+09 -2.752129e+04 -1.049399e+05 8.478060e+03
-3.512201e+09 -3.311712e+09 -3.472113e+09 -7.450295e+04 -1.250828e+05 2.902018e+04
-3.478175e+09 -3.278111e+09 -3.438305e+09 1.480051e+05 -8.558089e+04 -5.771662e+04
-1.893597e+09 -1.693504e+09 -1.853539e+09 -7.965486e+03 -1.384612e+05 3.821066e+04
-3.585997e+09 -3.386106e+09 -3.546087e+09 -3.226243e+05 -9.639449e+04 1.026312e+05
-3.387584e+09 -3.187545e+09 -3.347672e+09 -1.780655e+05 -8.843837e+04 6.527608e+04
-3.621735e+09 -3.422647e+09 -3.581646e+09 -1.214947e+05 -4.295132e+03 -2.054103e+04
-2.418919e+09 -2.218973e+09 -2.378996e+09 -1.170766e+05 -7.643764e+04 7.919393e+04
-1.610666e+09 -1.410693e+09 -1.570709e+09 -1.317344e+04 -5.071657e+04 6.672789e+04
-2.280693e+09 -2.080613e+09 -2.240732e+09 4.458407e+04 -7.155959e+04 -4.803438e+04
-1.603809e+09 -1.403816e+09 -1.563288e+09 -1.169945e+04 6.830648e+04 1.646807e+05
-2.818066e+09 -2.618139e+09 -2.778204e+09 -1.593983e+05 -8.432414e+04 1.090075e+05
-3.412728e+09 -3.212828e+09 -3.372969e+09 -2.332070e+05 -6.114711e+04 8.764832e+04
-1.860116e+09 -1.660168e+09 -1.820190e+09 -1.668870e+04 -1.137145e+04 1.895390e+04
-3.129178e+09 -2.929210e+09 -3.089253e+09 -1.932550e+04 -7.173951e+03 9.227974e+03
-1.743040e+09 -1.542874e+09 -1.703048e+09 8.346418e+03 -1.569805e+05 1.304614e+04
-2.222623e+09 -2.022651e+09 -2.182689e+09 -1.796383e+04 -9.876251e+03 1.274482e+04
-1.794084e+09 -1.594122e+09 -1.754152e+09 -1.734827e+04 -1.092428e+04 1.496958e+04
-1.581573e+09 -1.381568e+09 -1.540849e+09 8.393587e+04 -3.048809e+05 -1.645217e+05
-3.418241e+09 -3.218281e+09 -3.378327e+09 -2.378855e+04 -7.741079e+03 1.347056e+04
-3.575113e+09 -3.374891e+09 -3.535215e+09 2.054326e+05 -6.445594e+04 -4.611541e+04
-2.584662e+09 -2.384474e+09 -2.544667e+09 -1.337658e+04 9.161332e+04 -5.369367e+03
-3.018819e+09 -2.818381e+09 -2.978710e+09 2.072173e+04 6.725205e+04 -9.522958e+03
-3.178998e+09 -2.978703e+09 -3.139003e+09 5.053612e+04 7.408515e+04 2.383404e+04
-1.958327e+09 -1.758112e+09 -1.918195e+09 6.176993e+04 2.211488e+05 6.043500e+04
-3.437091e+09 -3.236967e+09 -3.396848e+09 3.440626e+05 -5.494374e+04 1.290013e+04
-1.780275e+09 -1.580174e+09 -1.740224e+09 4.401203e+04 1.426591e+05 7.912667e+03
-3.596864e+09 -3.396989e+09 -3.556227e+09 5.477056e+05 2.614548e+04 8.061353e+04
-2.643658e+09 -2.443799e+09 -2.603813e+09 -2.069176e+04 -4.855670e+03 5.940224e+04
-3.014205e+09 -2.813870e+09 -2.974133e+09 4.723866e+04 1.426867e+05 8.479869e+03
-1.830792e+09 -1.630699e+09 -1.790694e+09 -1.222680e+03 1.109017e+05 8.717666e+03
-2.127101e+09 -1.927073e+09 -2.087049e+09 -1.039559e+05 -1.484434e+05 1.058906e+05
-3.406202e+09 -3.206322e+09 -3.366411e+09 -1.641024e+05 -6.881489e+04 8.094325e+04
-2.813449e+09 -2.613533e+09 -2.773550e+09 6.658358e+03 2.932936e+03 1.853204e+04
-2.747679e+09 -2.547776e+09 -2.707797e+09 8.023628e+03 2.823533e+03 2.895111e+04
-3.479237e+09 -3.279325e+09 -3.439344e+09 1.337447e+04 2.724057e+03 1.217800e+04
-2.634081e+09 -2.434148e+09 -2.594183e+09 2.872282e+04 1.744974e+04 3.765557e+04
-1.783414e+09 -1.583338e+09 -1.743440e+09 -6.192981e+04 -8.691572e+04 8.724544e+04
-3.588137e+09 -3.388520e+09 -3.548517e+09 8.307771e+04 2.991144e+04 9.094585e+04
-1.599342e+09 -1.399392e+09 -1.559409e+09 1.579641e+04 2.023097e+04 4.421264e+04
-2.988721e+09 -2.788691e+09 -2.948851e+09 -1.675696e+05 -7.675663e+04 9.063246e+04
-2.556273e+09 -2.356384e+09 -2.516405e+09 1.591077e+04 1.125350e+04 4.940084e+04
-3.583181e+09 -3.383305e+09 -3.543328e+09 2.001798e+04 6.959215e+03 2.719640e+04
-3.583180e+09 -3.383293e+09 -3.543325e+09 2.029218e+04 6.083352e+03 2.719237e+04
-1.785386e+09 -1.585314e+09 -1.745411e+09 4.137892e+04 1.051227e+05 3.358616e+04
-2.399989e+09 -2.199981e+09 -2.360043e+09 -8.335646e+04 -6.262689e+04 7.353539e+04
-2.003425e+09 -1.803407e+09 -1.963470e+09 -8.920086e+04 -8.858561e+04 6.408962e+04
-3.583839e+09 -3.383235e+09 -3.543694e+09 -3.708321e+04 1.308522e+05 -1.766283e+04
-1.574884e+09 -1.374885e+09 -1.534872e+09 1.022503e+04 9.901965e+04 3.801847e+04
-1.762413e+09 -1.562278e+09 -1.722078e+09 1.042209e+04 1.102696e+05 7.613960e+04
-3.516509e+09 -3.316181e+09 -3.476494e+09 -5.833305e+04 -1.016643e+05 1.828994e+04
-2.220019e+09 -2.019781e+09 -2.179971e+09 -1.154879e+04 -1.293203e+05 1.338572e+04
-1.948171e+09 -1.747958e+09 -1.908122e+09 3.243566e+03 -1.576927e+05 -1.530012e+04
-1.793648e+09 -1.593420e+09 -1.753674e+09 -5.754307e+03 -2.080077e+05 1.626271e+04
-3.385855e+09 -3.185912e+09 -3.345904e+09 -2.590540e+05 -3.895164e+04 2.698989e+04
-3.589859e+09 -3.389463e+09 -3.549835e+09 -1.250527e+05 -1.058783e+05 3.184976e+04
-2.547663e+09 -2.347233e+09 -2.507374e+09 9.665783e+04 7.793909e+04 3.346997e+04
-3.423139e+09 -3.222904e+09 -3.382881e+09 3.149717e+05 4.229092e+04 3.981563e+04
-2.493949e+09 -2.293623e+09 -2.453867e+09 -4.821189e+04 -1.877891e+05 3.013516e+04
-2.329703e+09 -2.129491e+09 -2.289642e+09 1.857688e+05 2.470996e+03 -7.929953e+04
-2.550551e+09 -2.350387e+09 -2.510541e+09 -7.668678e+04 -1.110948e+05 4.379536e+04
-2.836057e+09 -2.635975e+09 -2.796121e+09 -4.707325e+04 -5.467436e+04 3.457630e+04
-2.751398e+09 -2.552247e+09 -2.708415e+09 5.537189e+05 3.712059e+05 1.144933e+06
-3.609848e+09 -3.411811e+09 -3.566492e+09 -8.415054e+04 -8.733274e+04 1.254651e+06
-1.754408e+09 -1.554168e+09 -1.714268e+09 9.388670e+04 1.722344e+05 5.025459e+04
-2.194409e+09 -1.993937e+09 -2.153671e+09 3.517999e+05 -2.051351e+05 -1.642468e+05
-3.294825e+09 -3.094623e+09 -3.253735e+09 6.203262e+05 -4.295418e+05 -1.604701e+05
-2.766203e+09 -2.565877e+09 -2.726114e+09 1.112236e+05 1.700598e+05 7.815949e+04
-3.388507e+09 -3.188802e+09 -3.336153e+09 -3.747861e+05 -1.312238e+06 2.929833e+06
-3.609336e+09 -3.410745e+09 -3.566267e+09 2.742459e+05 1.367283e+05 1.372451e+06
-3.133517e+09 -2.934263e+09 -3.092601e+09 -3.986492e+05 -1.941987e+05 3.977699e+05
-2.519669e+09 -2.318900e+09 -2.469591e+09 1.108273e+06 5.436761e+06 1.477180e+06
-2.164227e+09 -1.963778e+09 -2.122973e+09 4.064692e+05 3.758130e+05 4.045659e+05
-1.772339e+09 -1.572162e+09 -1.732214e+09 -5.882773e+04 1.745051e+05 3.453547e+04
-2.548708e+09 -2.348490e+09 -2.508629e+09 7.548124e+04 1.073822e+05 2.990882e+04
-2.565679e+09 -2.365448e+09 -2.525686e+09 8.974166e+04 1.445255e+05 3.638104e+04
-3.003394e+09 -2.804002e+09 -2.963779e+09 1.113364e+05 1.263741e+04 6.244736e+03
-2.107559e+09 -1.907501e+09 -2.067590e+09 1.739409e+05 9.565589e+04 9.389851e+04
-3.351965e+09 -3.151778e+09 -3.312044e+09 1.334145e+05 9.575492e+04 4.499919e+04
-1.580159e+09 -1.380145e+09 -1.540138e+09 1.715033e+04 1.013965e+05 1.211069e+05
-1.691162e+09 -1.491208e+09 -1.651194e+09 1.534955e+04 4.452947e+04 1.245898e+05
-3.384488e+09 -3.184139e+09 -3.344434e+09 4.751435e+04 8.833284e+04 1.431007e+04
-2.539959e+09 -2.339788e+09 -2.499966e+09 1.691555e+04 1.056627e+05 6.669452e+03
-3.047625e+09 -2.845832e+09 -3.001107e+09 -1.198116e+05 3.666795e+06 -9.260423e+05
-1.642380e+09 -1.442403e+09 -1.601980e+09 -3.711796e+03 -2.344721e+05 1.839329e+05
-3.514404e+09 -3.313524e+09 -3.473425e+09 -2.394167e+05 5.626385e+04 -1.125241e+04
-1.695248e+09 -1.495216e+09 -1.654978e+09 1.787749e+04 -7.404284e+04 -3.712720e+04
-1.712171e+09 -1.512051e+09 -1.671645e+09 -4.111196e+04 2.574855e+05 4.049586e+04
-1.760877e+09 -1.560791e+09 -1.720839e+09 8.166267e+04 1.663255e+05 4.893021e+04
-1.773139e+09 -1.573031e+09 -1.732497e+09 2.771560e+05 2.321329e+06 -4.898263e+06
-2.958022e+09 -2.756873e+09 -2.905039e+09 6.886418e+05 -2.610521e+05 -1.163560e+06
-3.139188e+09 -2.938693e+09 -3.099057e+09 7.708721e+04 6.589213e+04 2.302379e+04
-2.401793e+09 -2.201851e+09 -2.348096e+09 3.494482e+05 3.581535e+06 -2.072469e+06
-3.655615e+09 -3.456865e+09 -3.615434e+09 -3.861606e+04 6.457422e+04 -1.198768e+05
-3.383073e+09 -3.182636e+09 -3.342995e+09 1.606955e+05 1.249356e+05 4.477301e+04
-3.090917e+09 -2.891223e+09 -3.051173e+09 8.968552e+04 2.952719e+04 1.089674e+05
-2.581479e+09 -2.381164e+09 -2.541441e+09 9.691653e+04 1.775219e+05 4.856886e+04
-3.169473e+09 -2.969134e+09 -3.129440e+09 1.140153e+05 6.332450e+04 3.749027e+04
-1.574230e+09 -1.374263e+09 -1.534230e+09 1.363095e+04 7.888317e+04 1.204078e+05
-3.595692e+09 -3.395348e+09 -3.555701e+09 9.855577e+04 7.929474e+04 2.268160e+04
-2.977992e+09 -2.778236e+09 -2.938252e+09 1.372029e+05 4.168163e+04 8.683267e+04
-3.355529e+09 -3.155648e+09 -3.315466e+09 4.566390e+05 1.418575e+04 -3.478248e+04
-2.757219e+09 -2.557014e+09 -2.717052e+09 3.586326e+05 4.763367e+04 3.274923e+04
-3.190267e+09 -2.990061e+09 -3.150162e+09 2.268481e+05 1.112417e+05 5.872336e+04
-2.613335e+09 -2.412337e+09 -2.571111e+09 4.239173e+05 -1.058375e+06 -7.444353e+05
-1.569035e+09 -1.369102e+09 -1.529153e+09 4.818541e+04 -6.943195e+04 -1.459199e+05
-2.636206e+09 -2.436321e+09 -2.596295e+09 -1.282000e+05 -4.355499e+04 8.508675e+04
-2.835633e+09 -2.635480e+09 -2.795672e+09 1.677217e+05 1.093396e+05 7.910460e+04
-2.778805e+09 -2.578568e+09 -2.738657e+09 2.912978e+05 5.661740e+04 2.296096e+04
-3.147118e+09 -2.946500e+09 -3.106510e+09 1.560829e+05 -2.108598e+03 -3.855622e+04
-2.256213e+09 -2.056502e+09 -2.216463e+09 -1.350508e+05 -7.803599e+04 1.209089e+05
-3.495856e+09 -3.296221e+09 -3.456215e+09 -1.925798e+05 -3.383815e+04 1.062475e+05
-2.159794e+09 -1.959874e+09 -2.119891e+09 -6.768613e+04 -7.360087e+04 1.411606e+05
-3.618223e+09 -3.418989e+09 -3.577934e+09 -3.314740e+05 2.678164e+04 5.053663e+04
-3.618397e+09 -3.419050e+09 -3.578055e+09 -4.347452e+05 -4.450708e+04 -2.594646e+04
-3.086763e+09 -2.886677e+09 -3.046866e+09 -1.110954e+05 7.513991e+04 -4.845821e+04
-3.609048e+09 -3.409509e+09 -3.568471e+09 -5.673488e+05 5.538967e+04 2.668610e+05
-1.952593e+09 -1.752662e+09 -1.912651e+09 -2.607828e+04 -4.594875e+04 9.724424e+04
-1.582170e+09 -1.382174e+09 -1.542215e+09 1.754746e+04 1.509761e+04 1.427681e+04
-1.783748e+09 -1.583735e+09 -1.743788e+09 -5.768625e+04 -8.314799e+04 1.080224e+05
-2.829681e+09 -2.629631e+09 -2.789778e+09 -1.087709e+05 -6.792712e+04 4.980778e+04
-3.350437e+09 -3.150562e+09 -3.310615e+09 -1.260700e+05 -4.885724e+04 7.037778e+04
-1.570999e+09 -1.371006e+09 -1.531033e+09 -1.280073e+04 -6.938525e+04 7.770570e+04
-1.763523e+09 -1.563557e+09 -1.723584e+09 1.697403e+04 8.098463e+03 1.046959e+04
-2.551582e+09 -2.351646e+09 -2.511691e+09 -4.240704e+04 -2.183473e+04 3.560392e+04
-3.174844e+09 -2.974951e+09 -3.134993e+09 -4.220807e+04 -2.436528e+04 4.238723e+04
-2.990237e+09 -2.790326e+09 -2.950385e+09 -5.578970e+04 -2.539928e+04 5.053572e+04
-1.990584e+09 -1.790642e+09 -1.950663e+09 -2.254503e+04 -3.194313e+04 4.771775e+04
-2.649360e+09 -2.449458e+09 -2.609491e+09 -2.873283e+04 -1.029132e+04 3.886073e+04
-2.279076e+09 -2.079156e+09 -2.239183e+09 -2.885945e+04 -1.636684e+04 4.275080e+04
-3.267055e+09 -3.068077e+09 -3.226358e+09 -1.997147e+05 -2.326431e+05 4.367990e+05
-3.614737e+09 -3.414867e+09 -3.574906e+09 -3.974162e+04 -1.177480e+04 4.310086e+04
-1.611747e+09 -1.411803e+09 -1.571821e+09 -1.509623e+04 -1.131666e+04 3.896365e+04
-3.599736e+09 -3.399812e+09 -3.559848e+09 -2.931128e+04 -7.577019e+03 1.485784e+04
-1.698597e+09 -1.498663e+09 -1.658675e+09 -8.694963e+03 -4.055609e+03 1.396722e+04
-3.022799e+09 -2.823713e+09 -2.981655e+09 -3.136471e+05 -5.025270e+04 -7.482132e+05
-1.820059e+09 -1.620317e+09 -1.779656e+09 -7.552835e+04 1.318765e+05 -4.434494e+03
-1.767313e+09 -1.567417e+09 -1.727434e+09 -3.643797e+04 -4.769776e+04 8.725574e+04
-3.611506e+09 -3.411664e+09 -3.571702e+09 -3.248237e+04 -1.023289e+04 4.731404e+04
-1.711199e+09 -1.511253e+09 -1.671273e+09 -1.033580e+04 -6.116432e+03 1.263778e+04
-2.919376e+09 -2.719445e+09 -2.879485e+09 -3.114498e+04 -1.707436e+04 2.400411e+04
-2.283331e+09 -2.083472e+09 -2.243496e+09 -6.727848e+04 -4.390028e+04 1.117375e+05
-3.215369e+09 -3.015613e+09 -3.175627e+09 2.749191e+05 -1.086185e+05 -6.307578e+04
-2.550753e+09 -2.350847e+09 -2.510882e+09 -5.299118e+04 -4.128699e+04 6.966291e+04
-3.070533e+09 -2.870306e+09 -3.030554e+09 8.506578e+04 -8.060220e+04 -3.082133e+04
-3.202720e+09 -3.002863e+09 -3.162912e+09 -5.209621e+04 -2.315584e+04 5.428433e+04
-1.689886e+09 -1.489835e+09 -1.649904e+09 7.079903e+03 -7.956186e+04 -4.330547e+04
-3.260183e+09 -3.059909e+09 -3.220206e+09 1.539207e+05 -9.990016e+04 -5.161978e+04
-3.362929e+09 -3.162820e+09 -3.322992e+09 3.037613e+05 -1.080655e+05 -8.522211e+04
-3.276611e+09 -3.076739e+09 -3.236803e+09 -7.618943e+04 -3.833472e+04 6.427165e+04
-3.132930e+09 -2.932594e+09 -3.092923e+09 2.327855e+04 -8.319233e+04 -2.942575e+03
-1.995251e+09 -1.795419e+09 -1.955441e+09 -4.875082e+04 -4.657704e+04 9.705111e+04
-1.986604e+09 -1.786659e+09 -1.946654e+09 -2.581759e+04 -3.250275e+04 8.850751e+04
-2.000499e+09 -1.800560e+09 -1.960578e+09 -1.453822e+04 -2.737240e+03 1.332629e+04
-1.810047e+09 -1.609876e+09 -1.769845e+09 1.354799e+04 1.323056e+05 8.662283e+04
-3.593698e+09 -3.393672e+09 -3.553851e+09 2.079109e+05 7.486857e+04 6.642243e+04
-3.213280e+09 -3.013261e+09 -3.173412e+09 1.206838e+05 6.253865e+04 6.643219e+04
-1.681533e+09 -1.481599e+09 -1.641611e+09 -9.703201e+03 -5.997457e+03 2.406719e+04
-3.483457e+09 -3.283562e+09 -3.443586e+09 -2.126024e+04 -4.817819e+03 1.977058e+04
-2.194348e+09 -1.994548e+09 -2.154587e+09 -1.126273e+05 -8.291066e+04 1.311808e+05
-3.591483e+09 -3.391434e+09 -3.551622e+09 2.556460e+05 9.726761e+04 8.325785e+04
-2.756488e+09 -2.556105e+09 -2.716409e+09 -7.958434e+04 1.533347e+05 -3.115886e+04
-3.379879e+09 -3.180056e+09 -3.325704e+09 5.813296e+05 4.611788e+05 5.991129e+05
-2.786558e+09 -2.588453e+09 -2.743372e+09 3.508311e+05 2.416688e+05 1.303291e+06
-3.171779e+09 -2.972248e+09 -3.128299e+09 -9.753504e+05 -1.421212e+06 2.387321e+06
-1.987888e+09 -1.788804e+09 -1.944911e+09 3.275070e+05 2.537839e+06 4.899211e+06
-3.190590e+09 -2.991201e+09 -3.146598e+09 9.983426e+05 8.797969e+05 2.006542e+06
-3.418305e+09 -3.217316e+09 -3.372151e+09 -6.503077e+05 -2.276089e+06 6.521991e+05
-2.772845e+09 -2.573725e+09 -2.719202e+09 -4.173600e+05 -1.110569e+05 2.302979e+06
-3.544319e+09 -3.342937e+09 -3.496175e+09 4.109207e+05 -1.837964e+06 -2.756494e+05
-3.546728e+09 -3.346039e+09 -3.499596e+09 3.621445e+05 -1.709381e+06 -1.336779e+06
-3.572472e+09 -3.373095e+09 -3.522882e+09 -3.573046e+05 1.648508e+06 -1.257597e+06
-1.761729e+09 -1.561560e+09 -1.721641e+09 -1.002028e+05 8.935074e+04 -8.585252e+03
-2.597413e+09 -2.397268e+09 -2.554747e+09 8.497837e+05 7.030532e+05 1.537830e+06
-3.089041e+09 -2.888224e+09 -3.042809e+09 -7.672281e+05 3.563480e+06 -1.620940e+06
-1.984698e+09 -1.784321e+09 -1.944421e+09 -3.986010e+04 1.760022e+05 -1.184799e+04
-3.390287e+09 -3.189473e+09 -3.349431e+09 -2.362372e+05 -1.198636e+05 -3.415870e+04
-3.591227e+09 -3.391914e+09 -3.539303e+09 1.374654e+05 9.103493e+05 1.828718e+06
-3.383716e+09 -3.183093e+09 -3.343331e+09 -9.079751e+04 2.475018e+04 -2.158146e+04
-3.181567e+09 -2.981794e+09 -3.141794e+09 2.079954e+04 5.524510e+03 7.621152e+04
-3.012554e+09 -2.812731e+09 -2.972764e+09 -2.331511e+04 -1.522057e+04 7.895048e+04
-2.148887e+09 -1.949003e+09 -2.109010e+09 -2.398354e+04 -1.803827e+04 5.477119e+04
-3.205189e+09 -3.005197e+09 -3.165359e+09 2.379831e+05 -6.317717e+04 -6.556609e+03
-2.014774e+09 -1.814805e+09 -1.974899e+09 1.594587e+05 -1.294944e+05 -1.321454e+05
-2.017466e+09 -1.817584e+09 -1.977587e+09 -6.262256e+03 -4.288417e+03 6.756879e+04
-3.594493e+09 -3.394541e+09 -3.554629e+09 -6.760061e+04 -2.845593e+04 4.011439e+04
-3.586060e+09 -3.386314e+09 -3.546152e+09 -3.621530e+05 -7.802010e+04 1.093514e+05
-3.262335e+09 -3.062224e+09 -3.222465e+09 1.443798e+05 -9.085233e+04 -6.487038e+04
-2.473134e+09 -2.273310e+09 -2.433068e+09 -3.805708e+05 2.242610e+05 -1.670139e+05
-1.583102e+09 -1.382872e+09 -1.537575e+09 -1.846597e+04 1.751909e+06 3.192672e+06
-3.616856e+09 -3.417498e+09 -3.576640e+09 -4.582975e+05 5.437506e+04 -2.165230e+05
-3.373629e+09 -3.173579e+09 -3.333204e+09 -4.056843e+05 7.537411e+04 8.308772e+03
-2.974358e+09 -2.774955e+09 -2.934254e+09 -3.228681e+05 1.408636e+05 -2.746404e+05
-2.130964e+09 -1.931001e+09 -2.091050e+09 4.540581e+04 4.649628e+04 4.937319e+04
-2.818777e+09 -2.618825e+09 -2.778859e+09 2.538630e+04 8.874192e+03 1.363021e+04
-3.015012e+09 -2.815083e+09 -2.975124e+09 3.161579e+04 1.307446e+04 2.449184e+04
-2.217498e+09 -2.017435e+09 -2.177536e+09 3.739767e+04 4.901830e+04 2.727672e+04
-1.995322e+09 -1.795394e+09 -1.955414e+09 3.656298e+04 2.661882e+04 4.411003e+04
-3.359925e+09 -3.159951e+09 -3.320057e+09 8.367845e+04 3.418956e+04 4.387355e+04
-2.610253e+09 -2.410292e+09 -2.570331e+09 2.378264e+04 1.013346e+04 2.062543e+04
-2.036849e+09 -1.836827e+09 -1.996910e+09 7.135825e+04 8.962524e+04 7.741070e+04
-1.588377e+09 -1.388349e+09 -1.548390e+09 1.741733e+04 6.981199e+04 4.470749e+04
-2.118040e+09 -1.917952e+09 -2.078064e+09 3.879774e+04 5.968204e+04 3.251712e+04
-1.588377e+09 -1.388345e+09 -1.548387e+09 1.529336e+04 7.202911e+04 4.600121e+04
-2.400902e+09 -2.200969e+09 -2.360992e+09 2.094845e+04 9.917382e+03 2.571541e+04
-1.590945e+09 -1.390901e+09 -1.550960e+09 1.301958e+04 8.520661e+04 5.128813e+04
-3.405073e+09 -3.205149e+09 -3.365199e+09 3.101594e+04 1.781738e+04 2.742625e+04
-3.198294e+09 -2.998390e+09 -3.158459e+09 6.020619e+04 2.470863e+04 4.890679e+04
-1.568911e+09 -1.368732e+09 -1.527648e+09 9.762275e+04 -3.979174e+04 -1.525430e+06
-3.605148e+09 -3.405682e+09 -3.561707e+09 -5.483061e+05 5.863420e+05 -1.177600e+06
-1.579698e+09 -1.379567e+09 -1.538996e+09 -4.586843e+04 -8.006730e+05 -8.896474e+05
-3.031883e+09 -2.834056e+09 -2.990292e+09 -1.372604e+05 -3.684517e+05 -2.189286e+06
-1.579423e+09 -1.378836e+09 -1.536455e+09 -7.070008e+04 -3.850039e+05 -2.977031e+06
-3.110882e+09 -2.910268e+09 -3.068531e+09 -9.453076e+05 1.273117e+06 -7.673452e+05
-3.415223e+09 -3.215362e+09 -3.375411e+09 5.580036e+04 2.051045e+04 4.848485e+04
-2.596188e+09 -2.396242e+09 -2.556304e+09 6.993969e+04 3.859955e+04 8.912364e+04
-1.548955e+09 -1.348976e+09 -1.508555e+09 1.708864e+03 2.899561e+05 -1.737762e+05
-2.649335e+09 -2.449555e+09 -2.609487e+09 -2.883821e+05 5.124938e+04 -6.206075e+04
-2.659752e+09 -2.459908e+09 -2.619890e+09 -3.157124e+05 1.037752e+04 1.765612e+03
-3.488024e+09 -3.287814e+09 -3.447852e+09 -3.940487e+05 1.136014e+05 -3.998371e+04
-1.926672e+09 -1.726390e+09 -1.886469e+09 -5.864786e+04 -8.637845e+04 7.318650e+04
-2.356431e+09 -2.156129e+09 -2.316279e+09 -6.661027e+04 -1.552509e+05 9.810054e+04
-3.297435e+09 -3.097082e+09 -3.256881e+09 -4.404288e+05 3.771917e+04 -1.808276e+04
-3.388538e+09 -3.188184e+09 -3.348379e+09 -3.026981e+05 -1.091948e+05 8.479509e+04
-1.587211e+09 -1.387208e+09 -1.546300e+09 1.622520e+04 3.958463e+04 5.825275e+05
-1.931522e+09 -1.731468e+09 -1.891572e+09 -2.308203e+05 1.924319e+04 -8.642268e+03
-3.487932e+09 -3.287589e+09 -3.447779e+09 -3.362946e+05 7.524307e+04 -5.980014e+04
-2.578000e+09 -2.377802e+09 -2.538000e+09 2.261854e+04 -1.382319e+05 -2.672360e+04
-1.581568e+09 -1.381595e+09 -1.540934e+09 8.771642e+04 -6.146439e+05 6.011233e+05
-1.583273e+09 -1.383253e+09 -1.543034e+09 1.543705e+04 -1.903325e+04 -6.191778e+04
-3.476103e+09 -3.275794e+09 -3.436117e+09 5.225928e+04 -7.511462e+04 -1.671193e+04
-1.840119e+09 -1.639981e+09 -1.800121e+09 9.990893e+03 -1.149640e+05 -3.565216e+04
-3.615327e+09 -3.415569e+09 -3.575585e+09 3.304371e+04 6.943366e+03 6.328419e+04
-2.060752e+09 -1.861027e+09 -2.020919e+09 1.216114e+05 -9.194780e+03 1.446188e+05
-3.615328e+09 -3.415540e+09 -3.575581e+09 3.239554e+04 1.227459e+04 5.822268e+04
-3.007614e+09 -2.807361e+09 -2.967614e+09 1.761502e+04 -1.158439e+05 -5.897616e+03
-2.962933e+09 -2.762551e+09 -2.922831e+09 6.034602e+04 -9.989837e+04 -1.560265e+04
-1.706911e+09 -1.506845e+09 -1.666906e+09 -8.073298e+02 -1.465902e+05 -6.208692e+03
-3.134441e+09 -2.934163e+09 -3.094419e+09 9.546633e+04 -1.064605e+05 -3.972982e+04
-1.682157e+09 -1.482177e+09 -1.642214e+09 2.249861e+04 2.661674e+04 3.240129e+04
-1.599345e+09 -1.399393e+09 -1.559410e+09 1.817024e+04 2.041245e+04 4.486237e+04
-3.583223e+09 -3.383301e+09 -3.543376e+09 6.287364e+04 1.823711e+04 3.612837e+04
-3.614275e+09 -3.414185e+09 -3.574396e+09 -1.335203e+05 -5.678686e+04 4.074764e+04
-3.345874e+09 -3.145535e+09 -3.305781e+09 1.152685e+05 -1.133920e+05 -4.285058e+04
-1.965173e+09 -1.765253e+09 -1.925260e+09 -6.260594e+03 -3.966868e+03 2.083585e+04
-1.576585e+09 -1.376660e+09 -1.536665e+09 -5.627298e+03 -5.650670e+03 3.478425e+04
-3.444480e+09 -3.244652e+09 -3.404682e+09 -1.673875e+04 -1.536677e+03 5.091706e+04
-1.674135e+09 -1.474084e+09 -1.634146e+09 -1.003899e+04 -7.627097e+04 3.150878e+04
-3.602273e+09 -3.402298e+09 -3.562372e+09 -4.826307e+04 -1.658699e+04 2.072502e+04
-1.949638e+09 -1.749605e+09 -1.909708e+09 -6.287412e+04 -7.084266e+04 4.024982e+04
-2.492516e+09 -2.292668e+09 -2.452688e+09 1.687141e+04 7.862654e+03 7.402869e+04
-2.407986e+09 -2.208113e+09 -2.368127e+09 -1.099253e+04 -7.443109e+03 7.607623e+04
-2.961351e+09 -2.761507e+09 -2.921542e+09 -3.364611e+04 -2.056930e+04 6.644885e+04
-1.611747e+09 -1.411811e+09 -1.571823e+09 -9.672642e+03 -1.127457e+04 3.981472e+04
-3.236438e+09 -3.036622e+09 -3.196639e+09 -4.414289e+04 -1.336858e+04 7.180686e+04
-1.692736e+09 -1.492721e+09 -1.652780e+09 -1.775196e+04 -4.485896e+04 3.768353e+04
-2.303976e+09 -2.103921e+09 -2.264017e+09 -4.314579e+04 -4.738865e+04 3.465665e+04
-3.610527e+09 -3.410410e+09 -3.570616e+09 -9.457223e+04 -7.398203e+04 3.243415e+04
-2.000565e+09 -1.800434e+09 -1.960562e+09 -5.932087e+04 -1.267987e+05 1.221618e+04
-3.128665e+09 -2.928809e+09 -3.088827e+09 1.194506e+04 3.677533e+00 3.936016e+04
-2.133028e+09 -1.933131e+09 -2.093133e+09 6.157151e+03 3.428531e+03 2.816336e+04
-3.443880e+09 -3.244058e+09 -3.404081e+09 -4.975291e+03 -2.780657e+03 5.537398e+04
-2.266877e+09 -2.066968e+09 -2.226975e+09 4.091517e+03 4.332991e+02 1.679466e+04
-2.494543e+09 -2.294645e+09 -2.454657e+09 -3.091798e+01 -2.091810e+03 3.180185e+04
-2.878922e+09 -2.678678e+09 -2.838941e+09 9.186441e+03 -7.618220e+04 1.444287e+03
-3.382681e+09 -3.182227e+09 -3.342496e+09 -2.173934e+04 -9.813830e+04 1.047462e+04
-1.831960e+09 -1.632039e+09 -1.792040e+09 -3.216207e+03 -1.010856e+03 5.643993e+04
-1.674151e+09 -1.474090e+09 -1.634154e+09 -2.573672e+03 -9.889648e+04 3.544588e+03
-2.088992e+09 -1.888848e+09 -2.049002e+09 4.780466e+04 -1.020365e+05 -2.572932e+04
-2.903497e+09 -2.703405e+09 -2.863620e+09 1.124874e+05 -8.537155e+04 -4.764793e+04
-2.947169e+09 -2.746918e+09 -2.907208e+09 5.707463e+04 -8.018082e+04 -3.115296e+04
-2.547840e+09 -2.347956e+09 -2.507977e+09 9.874125e+03 2.229867e+03 3.689494e+04
-2.733690e+09 -2.533794e+09 -2.693809e+09 5.839896e+03 1.420031e+03 2.806243e+04
-2.655563e+09 -2.455369e+09 -2.615542e+09 7.490233e+04 -1.334759e+05 -5.346392e+04
-1.668319e+09 -1.468399e+09 -1.628407e+09 4.594487e+03 1.446607e+03 2.422534e+04
-2.873801e+09 -2.673660e+09 -2.833853e+09 4.222774e+04 -6.551272e+04 -3.003473e+04
-1.654462e+09 -1.454410e+09 -1.614450e+09 -1.126234e+04 -1.210173e+05 -2.714609e+04
-3.456423e+09 -3.256135e+09 -3.416434e+09 7.734100e+04 -1.006697e+05 -2.864696e+04
-2.909854e+09 -2.709768e+09 -2.869901e+09 3.270559e+04 3.840355e+04 2.161699e+04
-1.630281e+09 -1.430240e+09 -1.590271e+09 -7.343874e+03 -9.342138e+04 -6.090157e+04
-2.201227e+09 -2.001138e+09 -2.161249e+09 3.291321e+04 5.745505e+04 3.202345e+04
-3.401094e+09 -3.201019e+09 -3.361168e+09 6.300450e+04 4.468127e+04 3.241851e+04
-2.975033e+09 -2.775011e+09 -2.935089e+09 2.679652e+04 1.706027e+04 1.352831e+04
-3.596547e+09 -3.396482e+09 -3.556631e+09 7.146759e+04 4.003114e+04 2.493429e+04
-3.431391e+09 -3.231207e+09 -3.391343e+09 2.185595e+05 6.114767e+04 3.775629e+04
-1.674091e+09 -1.474062e+09 -1.634119e+09 1.517250e+04 2.885975e+04 1.863146e+04
-3.596548e+09 -3.396483e+09 -3.556632e+09 5.955612e+04 3.628033e+04 2.412547e+04
-3.539788e+09 -3.339694e+09 -3.499859e+09 5.066383e+04 4.030695e+04 2.728034e+04
-1.757234e+09 -1.557262e+09 -1.717293e+09 -1.966702e+04 -2.206068e+04 2.994340e+04
-3.595528e+09 -3.395447e+09 -3.555623e+09 8.869851e+04 5.580439e+04 3.337345e+04
-1.808018e+09 -1.608054e+09 -1.768082e+09 -1.637009e+04 -1.382536e+04 2.132266e+04
-1.698085e+09 -1.498021e+09 -1.658098e+09 -9.664160e+03 5.459979e+04 -2.501833e+04
-2.466414e+09 -2.266402e+09 -2.426486e+09 -1.353978e+05 1.222094e+05 -9.274619e+04
-3.065680e+09 -2.865362e+09 -3.025661e+09 -1.008158e+05 8.831437e+04 -2.984871e+04
-3.500750e+09 -3.300757e+09 -3.460938e+09 -1.866101e+05 8.523680e+04 -7.147500e+04
-3.501143e+09 -3.301069e+09 -3.461265e+09 -1.343051e+05 8.136592e+04 -5.650041e+04
-2.980980e+09 -2.780817e+09 -2.941015e+09 -2.342000e+04 5.614297e+04 -1.523234e+04
-3.384497e+09 -3.184542e+09 -3.344608e+09 -4.577098e+04 -1.818459e+04 2.422951e+04
-1.779954e+09 -1.579998e+09 -1.740026e+09 -2.145008e+04 -1.810454e+04 2.703695e+04
-2.007551e+09 -1.807592e+09 -1.967618e+09 -2.012627e+04 -1.029409e+04 1.639851e+04
-2.929875e+09 -2.729708e+09 -2.889904e+09 -1.259166e+04 5.730502e+04 -9.725815e+03
-3.540004e+09 -3.339766e+09 -3.500031e+09 -8.480563e+04 8.038195e+04 -2.843256e+04
-1.662618e+09 -1.462634e+09 -1.622556e+09 -1.117714e+04 1.064439e+05 -5.934337e+04
-1.818428e+09 -1.618112e+09 -1.777979e+09 1.446818e+05 4.881294e+04 1.251848e+05
-2.198574e+09 -1.998410e+09 -2.158575e+09 -1.437404e+04 9.515771e+04 -1.346190e+04
-3.464581e+09 -3.264292e+09 -3.424482e+09 -2.734868e+05 1.268590e+05 -7.732714e+04
-2.819833e+09 -2.619875e+09 -2.779944e+09 -1.287988e+05 1.423788e+05 -8.786769e+04
-1.578193e+09 -1.378155e+09 -1.538175e+09 6.746855e+02 1.211395e+05 -5.975040e+04
-2.584109e+09 -2.383408e+09 -2.543103e+09 4.578253e+05 6.859574e+05 3.189084e+05
-1.596049e+09 -1.396001e+09 -1.556053e+09 6.013878e+02 8.384901e+04 -3.849815e+04
-2.347723e+09 -2.147499e+09 -2.307624e+09 5.847605e+04 1.111677e+05 2.414271e+04
-1.598089e+09 -1.398002e+09 -1.557806e+09 2.546862e+04 -3.463766e+04 1.320090e+04
-3.574718e+09 -3.374834e+09 -3.534861e+09 -2.298772e+04 -5.149599e+03 2.791198e+04
-2.827887e+09 -2.628004e+09 -2.788024e+09 -2.553346e+04 -1.127110e+04 4.659469e+04
-3.249283e+09 -3.049421e+09 -3.209443e+09 -1.482977e+04 -3.930660e+03 3.665508e+04
-1.742813e+09 -1.542888e+09 -1.702894e+09 -8.348026e+03 -4.317443e+03 3.287413e+04
-2.061388e+09 -1.861474e+09 -2.021363e+09 4.093449e+04 -5.425752e+04 -8.010717e+04
-1.767181e+09 -1.566821e+09 -1.722349e+09 1.705402e+05 -2.396057e+06 -2.621609e+06
-3.403191e+09 -3.203131e+09 -3.363264e+09 4.965618e+04 3.081188e+04 2.586013e+04
-2.699057e+09 -2.501167e+09 -2.654588e+09 1.118895e+05 1.924217e+05 -3.099322e+06
-3.279437e+09 -3.079437e+09 -3.239499e+09 2.367606e+04 8.996749e+03 1.163581e+04
-2.635903e+09 -2.435889e+09 -2.595993e+09 6.353284e+04 4.749608e+04 4.287242e+04
-1.875108e+09 -1.675553e+09 -1.834984e+09 1.767025e+05 -1.801452e+05 -4.933652e+05
-1.901035e+09 -1.701493e+09 -1.860859e+09 -1.817979e+05 1.566488e+05 -5.001483e+05
-3.045405e+09 -2.845116e+09 -3.005232e+09 -1.865465e+05 9.972846e+04 3.642097e+03
-2.859275e+09 -2.660297e+09 -2.817307e+09 -2.476432e+05 6.043713e+05 -1.183823e+06
-1.584651e+09 -1.384607e+09 -1.544639e+09 1.402836e+03 1.061550e+05 1.860324e+04
-3.472070e+09 -3.271839e+09 -3.432079e+09 3.788709e+04 7.943206e+04 1.360199e+04
-3.339201e+09 -3.140629e+09 -3.298722e+09 -1.726309e+05 1.050604e+05 -4.545575e+05
-1.760156e+09 -1.560643e+09 -1.718457e+09 -2.984504e+04 -2.184740e+05 -1.220893e+06
-1.827946e+09 -1.628589e+09 -1.785970e+09 6.250871e+04 3.536964e+05 -1.464594e+06
-2.952551e+09 -2.752371e+09 -2.912567e+09 2.450133e+04 8.363423e+04 1.243606e+04
-3.071184e+09 -2.872474e+09 -3.030738e+09 -1.187815e+05 1.149672e+05 -5.915467e+05
-3.620240e+09 -3.419815e+09 -3.580230e+09 -5.047570e+04 1.251001e+05 -2.164811e+04
-3.037184e+09 -2.838279e+09 -2.990711e+09 5.691615e+05 3.451378e+05 -3.168746e+06
-1.607353e+09 -1.407294e+09 -1.567345e+09 -1.683823e+02 9.277776e+04 -2.302879e+04
-2.345488e+09 -2.146221e+09 -2.305130e+09 2.732590e+05 1.123094e+05 -2.101144e+05
-2.175734e+09 -1.976718e+09 -2.135277e+09 -2.632486e+05 2.127774e+05 -8.117377e+05
-1.574691e+09 -1.374635e+09 -1.534685e+09 1.939999e+03 7.753800e+04 -2.289680e+04
-3.095934e+09 -2.897031e+09 -3.055540e+09 -1.896957e+05 1.973652e+05 -6.176024e+05
-2.889303e+09 -2.689388e+09 -2.849410e+09 -1.110767e+04 -4.400068e+03 2.130618e+04
-2.525757e+09 -2.325846e+09 -2.485866e+09 -1.900826e+04 -1.071283e+04 2.561087e+04
-1.692079e+09 -1.492133e+09 -1.652157e+09 -1.749231e+04 -2.783087e+04 6.434665e+04
-2.202593e+09 -2.002714e+09 -2.162732e+09 -7.335639e+04 -3.733693e+04 9.584814e+04
-2.923820e+09 -2.723993e+09 -2.884017e+09 -4.297602e+04 -1.625768e+04 7.290774e+04
-3.323430e+09 -3.124852e+09 -3.282975e+09 -1.786711e+04 -5.592230e+04 -7.504405e+05
-3.028672e+09 -2.828856e+09 -2.988883e+09 -2.031195e+04 -1.575761e+04 7.435347e+04
-3.195382e+09 -2.995760e+09 -3.155745e+09 -1.542000e+05 -4.314764e+04 1.121228e+05
-1.685302e+09 -1.485327e+09 -1.645332e+09 -1.219621e+04 -5.910092e+04 1.092970e+05
-3.085849e+09 -2.886130e+09 -3.046125e+09 -9.883899e+03 4.859269e+03 8.293869e+04
-3.369179e+09 -3.170521e+09 -3.324789e+09 1.694325e+05 -3.406896e+05 -1.828575e+06
-3.196618e+09 -2.996812e+09 -3.156822e+09 -7.434292e+04 -3.695644e+04 8.707943e+04
-3.437786e+09 -3.237719e+09 -3.397899e+09 -1.023815e+05 -5.384106e+04 5.012809e+04
-1.560119e+09 -1.360159e+09 -1.520175e+09 -1.450216e+04 -3.479916e+04 7.127704e+04
-2.110885e+09 -1.911876e+09 -2.067499e+09 4.209207e+04 -7.035073e+05 -2.611620e+06
-3.614301e+09 -3.414227e+09 -3.574408e+09 -1.045975e+05 -5.459123e+04 4.618128e+04
-3.587772e+09 -3.388068e+09 -3.547873e+09 -2.462356e+05 -4.912274e+04 1.173725e+05
-2.727907e+09 -2.528051e+09 -2.688090e+09 -6.601340e+04 -2.246102e+04 9.416472e+04
-2.676521e+09 -2.474679e+09 -2.631571e+09 9.224614e+04 3.274227e+06 -9.559240e+05
-3.587764e+09 -3.387755e+09 -3.547940e+09 -1.666390e+05 -5.314702e+04 4.829918e+04
-3.415218e+09 -3.214663e+09 -3.374860e+09 -1.601057e+05 -3.356966e+04 1.529087e+04
-2.672293e+09 -2.472081e+09 -2.632174e+09 -2.173146e+05 -1.166047e+05 7.126882e+04
-2.691188e+09 -2.490289e+09 -2.638042e+09 -2.814397e+05 3.374928e+06 -8.059101e+05
-1.681022e+09 -1.480996e+09 -1.640951e+09 -8.568455e+03 -1.186238e+05 1.102579e+05
-3.599420e+09 -3.399102e+09 -3.559163e+09 -3.256123e+05 -1.032907e+05 3.216657e+04
-2.199913e+09 -2.001475e+09 -2.155452e+09 -4.570338e+05 -1.856000e+05 -5.372937e+06
-1.583717e+09 -1.383693e+09 -1.543705e+09 -4.456285e+03 -1.078700e+05 4.590968e+04
-1.760672e+09 -1.560561e+09 -1.720659e+09 -1.172380e+04 -1.554670e+05 1.841841e+04
-3.590542e+09 -3.390647e+09 -3.550741e+09 -2.689907e+05 -7.953903e+04 8.844429e+04
-3.606238e+09 -3.406072e+09 -3.566330e+09 2.051326e+05 7.777377e+04 5.143297e+04
-1.600327e+09 -1.400329e+09 -1.560278e+09 -9.381405e+03 -8.944456e+04 9.631841e+04
-1.575041e+09 -1.375018e+09 -1.535014e+09 -8.324047e+03 -5.569426e+04 4.330927e+04
-3.263403e+09 -3.064175e+09 -3.221220e+09 -8.921833e+05 4.891977e+05 -1.413605e+06
-3.331815e+09 -3.132829e+09 -3.281612e+09 -1.624850e+05 2.346759e+06 -2.860644e+06
-3.392109e+09 -3.191165e+09 -3.350892e+09 -1.923284e+05 -1.940408e+05 1.496849e+05
-3.612799e+09 -3.412264e+09 -3.572019e+09 -5.030617e+05 -9.890727e+03 2.625276e+04
-2.239460e+09 -2.037387e+09 -2.192270e+09 1.672316e+05 -5.684691e+06 -1.612936e+06
-2.696629e+09 -2.497779e+09 -2.642199e+09 -3.266946e+05 1.423753e+06 -3.019055e+06
-1.659639e+09 -1.460028e+09 -1.618055e+09 1.057371e+05 -9.574616e+05 7.344763e+05
-2.545949e+09 -2.345210e+09 -2.503958e+09 -5.576848e+05 1.106070e+06 -7.794956e+05
-1.958935e+09 -1.758452e+09 -1.914278e+09 -7.079487e+05 4.317245e+06 -2.207791e+06
-1.963045e+09 -1.762778e+09 -1.922800e+09 5.521025e+04 2.211729e+05 3.533509e+03
-2.362553e+09 -2.162375e+09 -2.322500e+09 7.507304e+04 1.095799e+05 1.313771e+04
-2.009809e+09 -1.809680e+09 -1.969706e+09 3.409972e+04 -1.318241e+05 -4.586470e+04
-2.390761e+09 -2.190543e+09 -2.350677e+09 4.695819e+04 1.037959e+05 3.361593e+04
-1.853830e+09 -1.653771e+09 -1.813802e+09 -1.838078e+04 1.289363e+05 -2.170977e+04
-3.589467e+09 -3.389959e+09 -3.549855e+09 7.807908e+03 -2.525136e+04 1.253674e+05
-1.604747e+09 -1.404805e+09 -1.564800e+09 -1.541266e+04 -2.009549e+04 1.205932e+05
-2.421489e+09 -2.221776e+09 -2.381703e+09 -8.744014e+03 -4.681873e+03 1.001713e+05
-3.589472e+09 -3.389944e+09 -3.549849e+09 -5.594642e+04 -3.426463e+03 1.227151e+05
-3.595264e+09 -3.395532e+09 -3.555563e+09 -5.876202e+04 -2.153105e+04 8.255349e+04
-1.784180e+09 -1.584320e+09 -1.744329e+09 -6.486038e+03 -1.353873e+04 1.181620e+05
-1.628941e+09 -1.428888e+09 -1.588923e+09 1.451357e+03 1.999501e+05 5.775957e+03
-3.305566e+09 -3.106103e+09 -3.266024e+09 -1.338375e+05 -4.906526e+04 1.011889e+05
-1.765590e+09 -1.565461e+09 -1.725520e+09 1.166827e+05 1.441347e+05 5.295817e+04
-2.783412e+09 -2.583125e+09 -2.743374e+09 1.530047e+05 1.169682e+05 5.138985e+04
-3.606046e+09 -3.406779e+09 -3.566490e+09 -3.519397e+04 -3.714475e+04 1.358361e+05
-2.384696e+09 -2.184903e+09 -2.344874e+09 1.824243e+04 1.484265e+04 1.232480e+05
-2.544687e+09 -2.344369e+09 -2.504419e+09 1.058849e+05 1.373526e+05 6.004983e+04
-1.992446e+09 -1.792440e+09 -1.952484e+09 -1.116491e+05 -1.099388e+05 1.333959e+05
-3.166798e+09 -2.966496e+09 -3.126709e+09 1.983335e+05 5.769560e+04 4.014495e+04
-3.137187e+09 -2.936559e+09 -3.096934e+09 7.639733e+04 -1.014811e+05 -4.643198e+04
-1.933967e+09 -1.733716e+09 -1.893816e+09 9.672055e+04 1.413078e+05 1.594944e+04
-3.183658e+09 -2.983219e+09 -3.143457e+09 1.192126e+05 1.046448e+05 1.670634e+04
-1.770787e+09 -1.570720e+09 -1.730822e+09 7.659924e+04 1.460003e+05 5.756526e+04
-2.306370e+09 -2.106324e+09 -2.265920e+09 -2.187315e+05 5.974400e+04 -1.366501e+04
-1.770257e+09 -1.570298e+09 -1.729981e+09 -3.105850e+04 -1.196207e+05 1.272502e+05
-1.979066e+09 -1.778904e+09 -1.938974e+09 1.380500e+05 4.010507e+04 7.243291e+04
-1.551108e+09 -1.351142e+09 -1.511143e+09 -1.013333e+04 -4.453605e+04 9.731074e+04
-3.085429e+09 -2.885534e+09 -3.045599e+09 -7.515705e+04 -3.887620e+04 6.912205e+04
-1.981985e+09 -1.782040e+09 -1.942057e+09 -1.554563e+05 -9.480162e+04 8.079343e+04
-1.759058e+09 -1.558898e+09 -1.718799e+09 -2.584234e+04 1.651013e+05 8.827525e+04
-3.163649e+09 -2.963203e+09 -3.123451e+09 1.549493e+05 -8.712535e+03 3.159505e+04
-2.153451e+09 -1.953763e+09 -2.113656e+09 1.300953e+05 1.083569e+05 1.324840e+05
-2.248057e+09 -2.048117e+09 -2.208180e+09 2.316910e+05 1.026987e+05 5.456464e+04
-1.870607e+09 -1.670548e+09 -1.830561e+09 -2.603135e+04 1.226387e+05 -6.820323e+04
-3.583261e+09 -3.383722e+09 -3.542627e+09 5.197865e+05 -9.321821e+04 -3.311705e+05
-2.587806e+09 -2.388149e+09 -2.548089e+09 9.005420e+04 2.486144e+04 8.749513e+04
-2.135341e+09 -1.935233e+09 -2.095361e+09 -3.838005e+04 9.574300e+04 -3.617681e+04
-2.821967e+09 -2.621722e+09 -2.781986e+09 -6.702063e+04 9.588897e+04 -2.135557e+04
-3.593024e+09 -3.392585e+09 -3.540433e+09 4.620339e+04 8.941257e+05 4.375984e+05
-2.612702e+09 -2.412288e+09 -2.553722e+09 4.208618e+05 -3.447806e+06 -2.946871e+06
-3.591933e+09 -3.393613e+09 -3.550904e+09 2.228945e+05 -6.151611e+04 -5.715182e+05
-1.568826e+09 -1.368900e+09 -1.527297e+09 3.898613e+04 2.670408e+05 -1.250193e+06
-2.184690e+09 -1.984335e+09 -2.144492e+09 1.484462e+04 2.048305e+05 -1.992880e+04
-2.021333e+09 -1.821095e+09 -1.981319e+09 -9.435527e+04 1.820411e+05 -2.294654e+04
-2.413557e+09 -2.213910e+09 -2.358791e+09 -6.106276e+04 -4.206589e+06 -1.424254e+06
-1.997683e+09 -1.797372e+09 -1.957633e+09 -4.322368e+04 1.706534e+05 -9.355788e+04
-1.774763e+09 -1.574640e+09 -1.734724e+09 -3.672429e+04 1.411105e+05 -2.789926e+04
-3.051239e+09 -2.852297e+09 -3.009883e+09 5.555371e+05 -6.970544e+05 -1.118850e+06
-1.853817e+09 -1.653732e+09 -1.813789e+09 -1.289699e+04 1.102122e+05 -2.371747e+04
-3.611344e+09 -3.412217e+09 -3.567893e+09 1.762237e+05 -1.168804e+05 -1.514129e+06
-1.652364e+09 -1.452061e+09 -1.610054e+09 9.190967e+04 3.323070e+05 -4.092437e+06
-1.844524e+09 -1.644409e+09 -1.804494e+09 2.804293e+04 1.091850e+05 -1.084753e+04
-3.440728e+09 -3.241203e+09 -3.400374e+09 4.114703e+05 9.202038e+04 1.168999e+05
-1.597980e+09 -1.397911e+09 -1.557384e+09 1.189290e+04 4.796693e+05 3.711990e+05
-3.195097e+09 -2.995527e+09 -3.155233e+09 1.873398e+05 3.617703e+04 -6.950215e+03
-3.500030e+09 -3.299911e+09 -3.460095e+09 -4.759127e+04 4.588863e+04 -2.001366e+04
-2.195996e+09 -1.996491e+09 -2.156367e+09 1.939863e+05 1.461099e+05 -9.823544e+04
-2.302764e+09 -2.103130e+09 -2.262955e+09 1.706477e+05 -8.000428e+04 -7.525527e+04
-3.250219e+09 -3.050382e+09 -3.210084e+09 4.017963e+05 1.294858e+05 9.547754e+04
-2.910871e+09 -2.711137e+09 -2.870934e+09 1.981523e+05 -2.114911e+04 -1.695502e+04
-3.080184e+09 -2.879996e+09 -3.040209e+09 -9.718385e+04 9.919132e+04 -5.306042e+04
-1.630100e+09 -1.430160e+09 -1.590167e+09 -9.083261e+03 -1.680803e+04 7.929840e+04
-3.612222e+09 -3.412067e+09 -3.572286e+09 -9.516485e+04 6.555345e+04 -2.986303e+04
-3.144145e+09 -2.944274e+09 -3.104311e+09 -3.128569e+04 -1.644316e+04 5.034384e+04
-3.499674e+09 -3.299853e+09 -3.459881e+09 -5.393544e+04 -1.845703e+04 5.479191e+04
-3.519929e+09 -3.320278e+09 -3.480248e+09 -1.666092e+04 -8.174983e+03 8.589995e+04
-2.381317e+09 -2.181542e+09 -2.341511e+09 -2.249185e+04 -6.456650e+03 1.481473e+05
-2.323286e+09 -2.123460e+09 -2.283457e+09 -6.686538e+04 -3.365738e+04 1.104675e+05
-3.388751e+09 -3.188508e+09 -3.348809e+09 -1.193295e+05 9.619725e+04 -4.955217e+04
-3.595271e+09 -3.395583e+09 -3.555576e+09 -5.538294e+04 -1.987608e+04 8.131046e+04
-3.062315e+09 -2.862080e+09 -3.022332e+09 3.215086e+04 7.194681e+04 1.353657e+04
-1.604761e+09 -1.404805e+09 -1.564802e+09 -2.850458e+03 -2.461856e+04 1.219352e+05
-2.022090e+09 -1.822352e+09 -1.982268e+09 8.029458e+02 -2.918437e+04 1.706121e+05
-1.709559e+09 -1.509475e+09 -1.669568e+09 -3.848722e+03 9.981830e+04 -1.499406e+04
-2.217722e+09 -2.017580e+09 -2.177715e+09 -1.975692e+03 6.750286e+04 -4.312458e+03
-1.894543e+09 -1.694579e+09 -1.854608e+09 -2.760634e+04 -2.949435e+04 5.049742e+04
-1.674109e+09 -1.474064e+09 -1.634125e+09 1.294535e+04 4.189039e+04 1.852719e+04
-2.220510e+09 -2.020049e+09 -2.180249e+09 1.635685e+04 -2.356341e+05 6.194914e+03
-3.500356e+09 -3.300537e+09 -3.460591e+09 -9.194041e+04 -3.258616e+04 7.361613e+04
-1.796963e+09 -1.596958e+09 -1.757005e+09 1.876792e+04 2.204054e+04 2.100149e+04
-1.799770e+09 -1.599784e+09 -1.759833e+09 3.282868e+04 3.113838e+04 3.263322e+04
-2.905865e+09 -2.705970e+09 -2.866001e+09 -3.209312e+04 -1.804002e+04 4.368045e+04
-2.066238e+09 -1.866283e+09 -2.026318e+09 -3.810215e+04 -3.202008e+04 5.453170e+04
-3.024902e+09 -2.824915e+09 -2.985015e+09 -8.608962e+04 -5.224143e+04 6.231822e+04
-2.454369e+09 -2.254440e+09 -2.414475e+09 -5.948533e+04 -4.133205e+04 6.249251e+04
-1.698650e+09 -1.498708e+09 -1.658723e+09 -9.351945e+03 -3.993458e+03 1.172344e+04
-3.403235e+09 -3.203321e+09 -3.363404e+09 -8.757161e+04 -4.186338e+04 4.899220e+04
-3.176653e+09 -2.976731e+09 -3.136779e+09 -4.079153e+04 -1.451400e+04 3.496845e+04
-3.557884e+09 -3.358203e+09 -3.518217e+09 3.267468e+03 4.164006e+02 9.053600e+04
-2.113948e+09 -1.914150e+09 -2.074137e+09 -7.973195e+03 1.871000e+03 1.086706e+05
-3.491837e+09 -3.291678e+09 -3.451908e+09 8.843618e+04 -6.704884e+04 -4.606815e+04
-3.490048e+09 -3.290582e+09 -3.450499e+09 -2.034498e+05 -9.220568e+03 8.497319e+04
-2.811215e+09 -2.611160e+09 -2.771304e+09 7.284151e+04 -7.770292e+04 -4.825482e+04
-2.930991e+09 -2.730884e+09 -2.891065e+09 5.873672e+04 -8.362773e+04 -3.101356e+04
-3.575121e+09 -3.375008e+09 -3.535253e+09 1.375656e+05 -8.596165e+04 -6.931074e+04
-2.875881e+09 -2.675784e+09 -2.835944e+09 4.243741e+04 -6.407485e+04 -2.997642e+04
-1.976919e+09 -1.776832e+09 -1.936913e+09 3.037134e+03 -7.414643e+04 -3.320363e+04
-1.574156e+09 -1.374134e+09 -1.534108e+09 -1.421450e+04 -1.444070e+05 -6.133730e+04
-2.062109e+09 -1.862254e+09 -2.022245e+09 2.638703e+04 2.144750e+04 1.171460e+05
-2.537821e+09 -2.337653e+09 -2.497818e+09 3.146142e+04 8.277229e+04 3.070453e+04
-3.414427e+09 -3.214654e+09 -3.374667e+09 3.335623e+04 6.703165e+03 6.750785e+04
-2.810004e+09 -2.610227e+09 -2.770243e+09 7.237607e+04 1.755747e+04 9.970075e+04
-3.557918e+09 -3.358258e+09 -3.518238e+09 2.521977e+04 -3.199562e+03 9.274101e+04
-2.526856e+09 -2.326605e+09 -2.486815e+09 7.652109e+03 -1.501326e+05 -1.047062e+04
-1.867371e+09 -1.667210e+09 -1.827303e+09 -5.463067e+04 -1.706235e+05 -3.803380e+04
-1.901862e+09 -1.701660e+09 -1.861707e+09 7.889385e+04 -9.228112e+04 7.414150e+02
-2.409816e+09 -2.209629e+09 -2.369729e+09 6.934188e+04 -1.538099e+05 -2.754011e+04
-2.318917e+09 -2.118609e+09 -2.278560e+09 1.126749e+05 -1.531569e+05 -1.704861e+04
-1.902518e+09 -1.702521e+09 -1.862496e+09 1.105859e+05 -1.249351e+05 -7.724039e+04
-3.605981e+09 -3.405513e+09 -3.565933e+09 -3.917606e+04 -1.141626e+05 1.390014e+04
-3.019557e+09 -2.819035e+09 -2.979488e+09 8.381429e+04 -8.856154e+04 -3.885693e+04
-2.163667e+09 -1.963502e+09 -2.123646e+09 2.081722e+04 -8.759212e+04 -2.068937e+04
-2.736112e+09 -2.535803e+09 -2.696090e+09 2.924486e+04 -1.151439e+05 -1.717190e+04
-3.288656e+09 -3.088214e+09 -3.248466e+09 3.884476e+04 -9.653688e+04 3.578742e+03
-1.577288e+09 -1.377302e+09 -1.537199e+09 3.652690e+03 -1.076330e+05 2.493979e+04
-1.854418e+09 -1.654307e+09 -1.814222e+09 3.407046e+04 -1.923339e+04 -2.583592e+04
-2.879223e+09 -2.678937e+09 -2.839081e+09 9.684209e+04 -1.165262e+05 -5.259139e+04
-2.221410e+09 -2.020849e+09 -2.180795e+09 -1.307664e+05 -7.232326e+04 6.522712e+04
-2.685438e+09 -2.484928e+09 -2.645061e+09 3.206714e+05 2.020682e+04 -3.945385e+03
-3.549827e+09 -3.350225e+09 -3.502798e+09 -2.378837e+05 5.426302e+05 -1.826052e+06
-2.531983e+09 -2.331311e+09 -2.491262e+09 -5.929638e+04 -2.519269e+05 -6.983559e+04
-3.071417e+09 -2.870770e+09 -3.030747e+09 2.491757e+05 -9.593880e+04 -1.345218e+04
-3.374687e+09 -3.173943e+09 -3.329264e+09 9.729647e+05 1.978437e+06 1.233934e+06
-3.181215e+09 -2.980201e+09 -3.136341e+09 9.007964e+05 1.979722e+06 6.920124e+05
-1.907791e+09 -1.707682e+09 -1.867797e+09 -2.609136e+04 8.009759e+04 -6.542797e+03
-1.607348e+09 -1.407280e+09 -1.567336e+09 1.351261e+03 1.164749e+05 -2.272779e+04
-3.378534e+09 -3.177764e+09 -3.337916e+09 1.166964e+05 -1.315825e+04 -1.174339e+05
-3.033525e+09 -2.832610e+09 -2.992230e+09 1.280254e+05 -8.002100e+04 -8.651641e+04
-2.228897e+09 -2.028730e+09 -2.188889e+09 -6.570332e+03 9.416626e+04 -1.543435e+04
-3.609524e+09 -3.409187e+09 -3.569514e+09 -3.356876e+04 8.385028e+04 4.039861e+03
-3.165459e+09 -2.964565e+09 -3.124321e+09 -2.990589e+04 -3.323788e+05 -5.800879e+04
-1.928507e+09 -1.728685e+09 -1.888439e+09 -2.761083e+04 -2.978524e+04 8.604793e+04
-3.467787e+09 -3.268627e+09 -3.428239e+09 -6.212731e+04 -2.418489e+04 5.931428e+04
-3.379770e+09 -3.178633e+09 -3.338273e+09 3.348740e+04 -2.607212e+05 -1.694506e+04
-3.583665e+09 -3.383235e+09 -3.543604e+09 -9.091091e+04 1.051072e+05 -2.578379e+04
-3.476023e+09 -3.275648e+09 -3.436041e+09 1.964072e+05 -1.009599e+05 -6.196343e+04
-1.984951e+09 -1.784975e+09 -1.945006e+09 8.561446e+03 2.109044e+03 2.701182e+03
-3.286616e+09 -3.086644e+09 -3.246681e+09 1.413656e+04 4.511658e+03 5.458987e+03
-2.939623e+09 -2.739639e+09 -2.899680e+09 1.297281e+04 4.538863e+03 5.201596e+03
-1.634922e+09 -1.434857e+09 -1.594907e+09 -2.606229e+03 1.305238e+05 -2.567453e+04
-2.019332e+09 -1.819196e+09 -1.979321e+09 2.362227e+04 8.081187e+04 -1.587203e+04
-3.621982e+09 -3.421701e+09 -3.581898e+09 -1.716091e+05 9.499447e+04 -6.437271e+04
-2.592453e+09 -2.392394e+09 -2.552038e+09 -2.238065e+05 -7.827194e+04 1.772764e+03
-3.266070e+09 -3.065723e+09 -3.226042e+09 -3.839040e+04 9.357356e+04 -1.087372e+04
-3.620351e+09 -3.419857e+09 -3.580264e+09 -2.254134e+04 1.240109e+05 -1.167189e+04
-1.634926e+09 -1.434898e+09 -1.594914e+09 8.307556e+03 1.046419e+05 -2.521832e+04
-3.039055e+09 -2.838869e+09 -2.999079e+09 -1.360871e+04 8.400929e+04 -1.219810e+04
-1.590255e+09 -1.390229e+09 -1.550229e+09 8.948003e+03 1.822115e+05 -5.289077e+03
-2.148120e+09 -1.948137e+09 -2.108171e+09 1.180124e+04 4.500159e+03 3.773712e+03
-1.584610e+09 -1.384624e+09 -1.544641e+09 2.112753e+04 5.293241e+04 6.661963e+04
-1.572208e+09 -1.372228e+09 -1.532144e+09 1.482652e+04 3.176077e+04 1.275255e+05
-3.579861e+09 -3.380033e+09 -3.540158e+09 2.016105e+05 4.909374e+04 7.625904e+04
-3.129464e+09 -2.929488e+09 -3.089534e+09 2.533306e+04 8.664870e+03 1.292342e+04
-3.600120e+09 -3.400208e+09 -3.560332e+09 1.454848e+05 3.338769e+04 4.279207e+04
-2.603919e+09 -2.403997e+09 -2.563819e+09 1.925343e+05 2.109012e+04 1.289422e+05
-3.579157e+09 -3.379267e+09 -3.539373e+09 2.228590e+05 5.717754e+04 6.472782e+04
-2.022639e+09 -1.822657e+09 -1.982693e+09 1.588220e+04 7.551218e+03 6.967005e+03
-1.575554e+09 -1.375570e+09 -1.535607e+09 1.153978e+04 5.029767e+03 6.578699e+03
-3.558718e+09 -3.358863e+09 -3.518963e+09 1.318984e+05 4.100050e+04 7.125818e+04
-2.133711e+09 -1.933584e+09 -2.093707e+09 4.144356e+04 1.087677e+05 4.719234e+04
-3.600197e+09 -3.400265e+09 -3.560367e+09 1.105071e+05 4.298158e+04 5.513394e+04
-3.051919e+09 -2.852016e+09 -3.012073e+09 1.562245e+05 5.925193e+04 7.471914e+04
-2.422432e+09 -2.222321e+09 -2.382452e+09 9.163044e+04 1.541482e+05 8.486713e+04
-1.977682e+09 -1.777766e+09 -1.937796e+09 4.434763e+04 3.703632e+04 7.630130e+04
-2.047045e+09 -1.846936e+09 -2.007055e+09 2.937914e+04 7.474919e+04 2.225166e+04
-2.649938e+09 -2.449824e+09 -2.609810e+09 2.921946e+05 1.951273e+04 5.172175e+04
-3.271226e+09 -3.071091e+09 -3.231263e+09 4.181333e+04 4.379780e+04 2.682723e+04
-2.806434e+09 -2.606231e+09 -2.766418e+09 2.259521e+05 1.091270e+05 5.971103e+04
-1.761493e+09 -1.561445e+09 -1.721508e+09 2.860913e+04 7.656306e+04 2.385505e+04
-1.580149e+09 -1.380147e+09 -1.540147e+09 1.554484e+04 1.099057e+05 1.099269e+05
-1.588806e+09 -1.388781e+09 -1.548785e+09 2.233343e+04 1.231440e+05 1.250671e+05
-3.579137e+09 -3.379191e+09 -3.539361e+09 2.034770e+05 6.240390e+04 7.066493e+04
-1.574239e+09 -1.374258e+09 -1.534210e+09 7.260233e+03 7.294654e+04 1.352646e+05
-2.367549e+09 -2.167356e+09 -2.327468e+09 9.551063e+04 8.321054e+04 6.614338e+04
-1.590948e+09 -1.390912e+09 -1.550961e+09 9.744104e+03 9.226036e+04 5.090170e+04
-1.955531e+09 -1.755403e+09 -1.915520e+09 -1.927410e+04 7.907790e+04 1.405268e+04
-1.866253e+09 -1.666156e+09 -1.826270e+09 5.551886e+04 1.061102e+05 1.640459e+04
-2.123333e+09 -1.923198e+09 -2.083326e+09 4.848152e+04 9.554744e+04 4.591339e+04
-3.208999e+09 -3.009106e+09 -3.169121e+09 -3.069043e+02 -3.388241e+01 1.779842e+04
-1.875438e+09 -1.675526e+09 -1.835529e+09 -8.252474e+03 -1.140876e+03 2.336371e+04
-1.668217e+09 -1.468296e+09 -1.628302e+09 -3.065183e+03 -3.058798e+03 2.220186e+04
-2.514255e+09 -2.314313e+09 -2.474345e+09 -2.326623e+04 -1.265212e+04 2.665665e+04
-1.681528e+09 -1.481598e+09 -1.641609e+09 -8.931388e+03 -6.063045e+03 1.969703e+04
-3.271031e+09 -3.071132e+09 -3.231153e+09 -1.480231e+04 -2.890426e+03 2.435613e+04
-1.932068e+09 -1.731959e+09 -1.892087e+09 3.226195e+04 1.044821e+05 4.115041e+04
-2.875956e+09 -2.676047e+09 -2.836067e+09 -7.392398e+03 -3.826477e+03 2.336661e+04
-3.179512e+09 -2.979613e+09 -3.139631e+09 -9.773747e+03 1.410741e+03 1.974231e+04
-3.196730e+09 -2.996825e+09 -3.156844e+09 -1.435920e+04 4.330712e+02 1.885133e+04
-1.978217e+09 -1.778302e+09 -1.938307e+09 1.804135e+03 -3.467782e+03 1.924562e+04
-3.146775e+09 -2.946569e+09 -3.106801e+09 6.697099e+04 9.126658e+04 3.627458e+04
-2.288642e+09 -2.088726e+09 -2.248736e+09 -1.107466e+04 -3.758543e+03 1.885516e+04
-3.129698e+09 -2.929458e+09 -3.089725e+09 8.382544e+04 7.165997e+04 3.567371e+04
-2.265549e+09 -2.065399e+09 -2.225551e+09 2.058737e+04 6.080276e+04 1.124675e+04
-2.066462e+09 -1.866501e+09 -2.026532e+09 2.483206e+04 1.400007e+04 2.122964e+04
-2.460702e+09 -2.260743e+09 -2.420779e+09 2.520914e+04 1.289011e+04 1.908528e+04
-2.387883e+09 -2.187501e+09 -2.346286e+09 -3.849997e+05 -9.013960e+05 4.714543e+05
-1.940099e+09 -1.740011e+09 -1.900119e+09 4.930116e+04 -9.860368e+04 -3.299578e+04
-2.704306e+09 -2.503499e+09 -2.662196e+09 -6.643398e+05 -8.515130e+05 1.789168e+05
-1.987430e+09 -1.787352e+09 -1.947473e+09 4.704852e+04 -8.882454e+04 -3.730069e+04
-3.417796e+09 -3.217237e+09 -3.376502e+09 -4.753090e+05 -2.739316e+05 1.377206e+05
-3.419884e+09 -3.218505e+09 -3.376764e+09 -6.109746e+05 -1.326568e+06 1.952986e+05
-1.674141e+09 -1.474089e+09 -1.634151e+09 4.832484e+03 -7.771566e+04 -3.248435e+04
-3.091096e+09 -2.889829e+09 -3.048110e+09 -5.574662e+05 -1.288215e+06 2.368366e+05
-3.183461e+09 -2.982579e+09 -3.141572e+09 -3.177714e+05 -5.391956e+05 1.548893e+05
-2.670980e+09 -2.470637e+09 -2.630501e+09 -2.203069e+05 6.154614e+03 1.054533e+04
-1.591290e+09 -1.391265e+09 -1.551279e+09 -5.844827e+03 -1.166802e+05 -6.735834e+04
-2.397820e+09 -2.197962e+09 -2.357969e+09 4.295445e+04 4.451644e+04 1.066971e+05
-2.009503e+09 -1.809639e+09 -1.969641e+09 4.194219e+04 3.402289e+04 8.900850e+04
-3.508917e+09 -3.308539e+09 -3.468880e+09 1.623396e+04 -1.071766e+05 1.108206e+03
-1.796647e+09 -1.596740e+09 -1.756752e+09 4.123424e+04 2.226720e+04 8.680621e+04
-3.579712e+09 -3.379405e+09 -3.539724e+09 1.511646e+05 -1.146128e+05 -3.424580e+04
-2.579015e+09 -2.379177e+09 -2.539201e+09 4.566639e+04 1.839902e+04 9.898496e+04
-3.411723e+09 -3.211836e+09 -3.371882e+09 4.295686e+04 1.217557e+04 3.896162e+04
-2.271834e+09 -2.071856e+09 -2.231888e+09 9.282989e+03 2.202322e+03 1.586256e+03
-1.577791e+09 -1.377820e+09 -1.537849e+09 1.525093e+04 9.451197e+03 1.463093e+04
-3.491072e+09 -3.291096e+09 -3.451133e+09 1.133052e+04 2.639520e+03 2.823276e+03
-1.776927e+09 -1.577008e+09 -1.737018e+09 1.515654e+04 1.054410e+04 3.112513e+04
-3.226726e+09 -3.026845e+09 -3.186873e+09 2.393600e+04 6.949879e+03 3.349411e+04
-3.491073e+09 -3.291101e+09 -3.451135e+09 1.326728e+04 2.484659e+03 2.905379e+03
-3.589698e+09 -3.389386e+09 -3.549668e+09 2.100090e+05 1.153817e+05 4.821065e+04
-2.018071e+09 -1.818146e+09 -1.978164e+09 2.790557e+04 1.639040e+04 4.297127e+04
-3.276375e+09 -3.076416e+09 -3.236489e+09 5.601061e+04 2.566793e+04 3.606543e+04
-2.440062e+09 -2.240086e+09 -2.400122e+09 1.383683e+04 6.154250e+03 5.501886e+03
-2.478093e+09 -2.278199e+09 -2.438216e+09 2.094482e+04 1.334388e+04 3.906084e+04
-2.163172e+09 -1.963192e+09 -2.123227e+09 1.105199e+04 3.613168e+03 4.329320e+03
-3.448992e+09 -3.250092e+09 -3.407117e+09 -6.075025e+05 8.915772e+04 -3.750350e+05
-2.306347e+09 -2.107206e+09 -2.266010e+09 -1.333024e+05 1.552954e+05 -1.967536e+05
-2.521548e+09 -2.321507e+09 -2.481576e+09 7.649605e+04 -9.936884e+04 -5.413530e+04
-3.585623e+09 -3.386446e+09 -3.545889e+09 1.975117e+05 -3.717142e+04 1.049154e+05
-2.657326e+09 -2.457971e+09 -2.616846e+09 -2.575351e+05 7.564659e+02 -1.798315e+05
-2.727012e+09 -2.527094e+09 -2.687111e+09 1.236962e+04 4.765362e+03 2.035358e+04
-3.197816e+09 -2.997908e+09 -3.157931e+09 1.648268e+04 5.502413e+03 2.224458e+04
-2.339347e+09 -2.139740e+09 -2.299566e+09 1.840143e+05 5.224818e+04 1.309016e+05
-2.830592e+09 -2.631374e+09 -2.790798e+09 -1.286321e+05 2.092217e+05 -2.833437e+05
-3.345993e+09 -3.146188e+09 -3.306215e+09 4.644631e+04 1.316381e+04 6.557998e+04
-3.420099e+09 -3.220234e+09 -3.380271e+09 4.017332e+04 1.018737e+04 3.971976e+04
-3.315156e+09 -3.115314e+09 -3.275300e+09 -2.252012e+05 8.191811e+03 -2.797145e+04
-3.577287e+09 -3.376336e+09 -3.536750e+09 -4.410722e+04 4.381964e+04 -8.817964e+04
-2.225797e+09 -2.025624e+09 -2.185787e+09 2.950332e+04 -8.139466e+04 -2.729359e+04
-2.660868e+09 -2.461013e+09 -2.621031e+09 2.264797e+04 8.364217e+03 7.800689e+04
-3.570531e+09 -3.370092e+09 -3.530485e+09 1.194179e+05 -1.119296e+05 -3.725415e+04
-2.365968e+09 -2.166099e+09 -2.326120e+09 2.838169e+04 2.053142e+04 6.566966e+04
-3.145073e+09 -2.945268e+09 -3.105293e+09 4.546368e+04 1.290891e+04 6.585727e+04
-1.616919e+09 -1.416879e+09 -1.576908e+09 1.039455e+04 -1.478504e+04 3.730338e+04
-2.452581e+09 -2.252338e+09 -2.412506e+09 7.300484e+04 -8.275355e+04 -1.356790e+04
-3.357399e+09 -3.157612e+09 -3.317640e+09 3.459795e+04 1.419209e+04 5.837002e+04
-3.443685e+09 -3.243858e+09 -3.403888e+09 2.676147e+04 7.648310e+03 4.951263e+04
-3.607669e+09 -3.406789e+09 -3.567055e+09 1.807878e+05 -4.187545e+04 -7.601846e+04
-3.566433e+09 -3.365987e+09 -3.526349e+09 1.748636e+05 -1.164051e+05 -6.837300e+04
-2.965523e+09 -2.765359e+09 -2.925417e+09 -1.932510e+05 -2.483315e+03 -6.308357e+04
-1.674108e+09 -1.474085e+09 -1.634099e+09 -5.437397e+03 -7.955130e+04 -1.859796e+04
-3.605766e+09 -3.405881e+09 -3.565861e+09 -3.978402e+05 9.261249e+04 -5.240676e+04
-3.425297e+09 -3.225055e+09 -3.384874e+09 -4.760857e+05 -2.190986e+04 3.222303e+04
-3.500666e+09 -3.300677e+09 -3.460859e+09 -2.327429e+05 4.047197e+04 -3.523890e+04
-1.565477e+09 -1.365550e+09 -1.525228e+09 -1.027766e+04 -5.119203e+04 -1.807581e+04
-3.184212e+09 -2.984208e+09 -3.144339e+09 -8.825566e+04 -4.964371e+04 4.682630e+04
-1.782209e+09 -1.581997e+09 -1.740532e+09 -1.211020e+05 -7.569198e+05 3.089672e+05
-3.614487e+09 -3.414465e+09 -3.574605e+09 -8.249103e+04 -4.156112e+04 3.903761e+04
-1.599325e+09 -1.399322e+09 -1.559364e+09 -1.481423e+04 -5.973328e+04 5.394321e+04
-2.162209e+09 -1.962201e+09 -2.122273e+09 -5.598277e+04 -4.889131e+04 6.034135e+04
-3.593912e+09 -3.393799e+09 -3.554035e+09 -1.966728e+05 -6.765930e+04 4.618978e+04
-1.784317e+09 -1.584299e+09 -1.744221e+09 -3.288274e+04 -1.122779e+05 7.526863e+04
-2.136546e+09 -1.936523e+09 -2.096603e+09 -4.984659e+04 -5.445435e+04 3.761752e+04
-1.797270e+09 -1.597229e+09 -1.756911e+09 -1.434193e+05 -1.383612e+05 1.174449e+05
-2.402443e+09 -2.202423e+09 -2.362514e+09 -5.947551e+04 -7.420639e+04 7.265139e+04
-3.587823e+09 -3.387815e+09 -3.547969e+09 -1.274013e+05 -6.010064e+04 5.917797e+04
-3.599651e+09 -3.399758e+09 -3.559878e+09 -1.298216e+05 -5.409879e+04 7.833456e+04
-2.535992e+09 -2.335762e+09 -2.495524e+09 -2.547828e+05 4.416836e+04 2.624021e+04
-2.174642e+09 -1.974643e+09 -2.134709e+09 -5.278630e+04 -4.906368e+04 5.963703e+04
-3.406918e+09 -3.207002e+09 -3.367034e+09 2.180865e+04 1.067585e+04 1.575165e+04
-3.593932e+09 -3.393850e+09 -3.554053e+09 -1.627901e+05 -7.871003e+04 6.537853e+04
-3.613539e+09 -3.413596e+09 -3.573632e+09 1.852416e+04 3.806164e+03 1.018905e+04
-2.692049e+09 -2.492139e+09 -2.652189e+09 -7.625377e+04 -6.195353e+04 8.758860e+04
-1.578473e+09 -1.378421e+09 -1.538467e+09 1.003638e+04 1.476327e+05 -6.109907e+02
-1.789069e+09 -1.589120e+09 -1.749141e+09 1.439077e+04 6.898803e+03 1.888803e+04
-1.786539e+09 -1.586362e+09 -1.746461e+09 8.291129e+04 1.468623e+05 4.988668e+02
-3.100096e+09 -2.900150e+09 -3.060180e+09 1.877222e+04 5.320953e+03 1.231642e+04
-2.034513e+09 -1.834327e+09 -1.994471e+09 -9.442382e+03 1.408830e+05 -8.512859e+03
-3.585688e+09 -3.385342e+09 -3.545658e+09 4.647760e+04 1.138431e+05 8.309991e+03
-3.549831e+09 -3.349255e+09 -3.509644e+09 4.929827e+04 1.410235e+05 1.163521e+04
-3.583965e+09 -3.383314e+09 -3.543731e+09 -9.171009e+04 1.309212e+05 -9.421595e+03
-2.193139e+09 -1.993181e+09 -2.153206e+09 1.550792e+04 4.561569e+03 1.079778e+04
-3.323440e+09 -3.122714e+09 -3.282832e+09 3.325409e+05 5.094634e+04 5.985521e+04
-2.560136e+09 -2.360655e+09 -2.519711e+09 5.276799e+05 2.302559e+05 4.092660e+05
-3.114480e+09 -2.914277e+09 -3.074491e+09 2.812630e+03 8.194509e+04 1.132871e+03
-3.579823e+09 -3.379324e+09 -3.539731e+09 1.347728e+05 1.017868e+05 2.410759e+04
-1.779360e+09 -1.579317e+09 -1.738970e+09 2.441095e+05 4.903094e+05 4.417764e+05
-2.367535e+09 -2.168539e+09 -2.320019e+09 -1.359567e+05 -1.355475e+06 5.310919e+06
-3.590418e+09 -3.390251e+09 -3.550496e+09 -1.881389e+05 -8.817230e+04 6.569954e+04
-2.163512e+09 -1.962962e+09 -2.121648e+09 5.436078e+05 1.993223e+06 1.447061e+06
-1.577696e+09 -1.377664e+09 -1.537683e+09 -6.668738e+03 -1.263410e+05 6.811774e+04
-1.909920e+09 -1.709820e+09 -1.869512e+09 -9.052899e+04 -7.271896e+04 -1.145515e+04
-1.577710e+09 -1.377672e+09 -1.537692e+09 -2.097314e+03 -1.158088e+05 4.777928e+04
-3.583828e+09 -3.383525e+09 -3.543808e+09 -1.930309e+05 -1.136008e+05 6.777159e+04
-3.384324e+09 -3.184177e+09 -3.341622e+09 7.538440e+05 8.140698e+05 6.742751e+05
-3.011319e+09 -2.810157e+09 -2.969842e+09 1.992474e+05 -6.079667e+05 1.688567e+04
-2.009002e+09 -1.808512e+09 -1.968543e+09 1.003623e+05 6.082259e+04 -8.937719e+03
-2.590140e+09 -2.390184e+09 -2.550245e+09 -5.883454e+04 -4.972846e+04 5.023158e+04
-2.091149e+09 -1.891011e+09 -2.050883e+09 2.239365e+05 -3.766451e+04 1.446126e+05
-1.600307e+09 -1.400301e+09 -1.560217e+09 -1.045199e+04 -1.415189e+05 1.097605e+05
-3.567096e+09 -3.367238e+09 -3.527305e+09 -8.417446e+04 -3.888860e+04 5.927514e+04
-1.581286e+09 -1.381180e+09 -1.540654e+09 2.821710e+04 -3.288728e+05 1.145567e+05
-3.612983e+09 -3.413152e+09 -3.573250e+09 -2.477296e+05 -4.962898e+04 5.998637e+04
-2.266893e+09 -2.066639e+09 -2.226815e+09 -1.369933e+05 -1.156025e+05 3.288122e+04
-3.606040e+09 -3.406678e+09 -3.566404e+09 -1.618787e+05 -4.501471e+04 1.364948e+05
-3.541496e+09 -3.341704e+09 -3.501781e+09 -1.729951e+05 -6.298481e+04 1.073171e+05
-2.919473e+09 -2.719027e+09 -2.879296e+09 2.506442e+05 -4.127044e+04 -3.172091e+04
-3.125378e+09 -2.925249e+09 -3.085380e+09 1.690798e+05 -1.064316e+05 -3.985907e+04
-2.023179e+09 -1.822977e+09 -1.983139e+09 4.075098e+04 -1.433495e+05 -4.163733e+04
-2.740648e+09 -2.540958e+09 -2.700890e+09 8.784244e+03 -1.419692e+04 1.520553e+05
-3.615298e+09 -3.415538e+09 -3.575571e+09 1.409222e+04 3.887123e+03 6.712786e+04
-3.598560e+09 -3.399131e+09 -3.559036e+09 9.194730e+04 3.772125e+04 9.792887e+04
-2.152154e+09 -1.952005e+09 -2.112157e+09 4.712868e+04 -9.101994e+04 -4.097950e+04
-2.993001e+09 -2.793288e+09 -2.953152e+09 1.405575e+05 2.124009e+04 1.075807e+05
-1.884085e+09 -1.684229e+09 -1.844061e+09 -6.123794e+03 2.771596e+04 1.159087e+05
-2.247383e+09 -2.047152e+09 -2.207346e+09 3.674620e+04 -9.938003e+04 -3.828928e+04
-2.306357e+09 -2.106273e+09 -2.266380e+09 -2.685017e+04 5.022563e+04 -2.940573e+04
-2.277557e+09 -2.077432e+09 -2.237585e+09 1.045384e+05 -1.199700e+05 -6.202388e+04
-1.700487e+09 -1.500427e+09 -1.660493e+09 9.199070e+02 -1.079106e+05 -3.908735e+04
-1.996408e+09 -1.796368e+09 -1.956447e+09 -2.978029e+04 3.994417e+04 -1.754714e+04
-3.264731e+09 -3.064497e+09 -3.224716e+09 1.368310e+05 -9.961186e+04 -3.816878e+04
-3.251341e+09 -3.050962e+09 -3.211344e+09 1.702546e+05 -1.169687e+05 -5.026986e+04
-2.623131e+09 -2.424630e+09 -2.580340e+09 -4.635540e+05 -4.893663e+05 1.904635e+06
-2.387116e+09 -2.187714e+09 -2.347376e+09 -3.090337e+03 1.134676e+04 1.196059e+04
-1.995236e+09 -1.796603e+09 -1.954798e+09 5.462174e+04 7.499897e+05 1.355177e+06
-2.762655e+09 -2.562341e+09 -2.710199e+09 -6.083191e+05 -1.554986e+06 2.816643e+06
-2.165586e+09 -1.965405e+09 -2.125576e+09 -1.154877e+04 8.487213e+04 -1.585614e+04
-1.582168e+09 -1.382166e+09 -1.542212e+09 1.509022e+04 1.364713e+04 1.443780e+04
-1.753832e+09 -1.553768e+09 -1.713815e+09 3.819091e+02 7.527752e+04 -2.377590e+04
-3.126561e+09 -2.926335e+09 -3.086595e+09 -3.830442e+04 7.000129e+04 -1.301488e+04
-3.613530e+09 -3.413593e+09 -3.573628e+09 2.429423e+04 5.684038e+03 1.234787e+04
-2.538857e+09 -2.338686e+09 -2.498880e+09 -5.781995e+04 1.229879e+05 -4.896209e+04
-1.899361e+09 -1.699371e+09 -1.859412e+09 1.703345e+04 9.635610e+03 1.018736e+04
-2.582459e+09 -2.382261e+09 -2.542473e+09 -6.019126e+04 1.130465e+05 -3.836012e+04
-1.634934e+09 -1.434883e+09 -1.594899e+09 1.624630e+04 1.162559e+05 -1.213293e+04
-2.719213e+09 -2.519085e+09 -2.679250e+09 -3.513700e+04 7.594577e+04 -4.082632e+04
-2.559460e+09 -2.359317e+09 -2.519479e+09 -1.784648e+04 8.368066e+04 -2.295282e+04
-2.153527e+09 -1.953527e+09 -2.113573e+09 1.809520e+04 1.119871e+04 8.911705e+03
-1.861241e+09 -1.661256e+09 -1.821293e+09 1.210377e+04 5.121269e+03 6.077845e+03
-3.511509e+09 -3.311208e+09 -3.471518e+09 -3.788856e+04 6.845862e+04 -1.139994e+04
-2.966618e+09 -2.766552e+09 -2.926668e+09 3.675654e+04 3.109257e+04 1.960037e+04
-1.583701e+09 -1.383686e+09 -1.543690e+09 -7.045233e+03 -1.341380e+05 9.812856e+04
-1.577814e+09 -1.377805e+09 -1.537835e+09 -1.557549e+04 -7.083079e+04 6.333475e+04
-2.923458e+09 -2.723427e+09 -2.883536e+09 -4.713636e+04 -3.681625e+04 2.726474e+04
-3.009747e+09 -2.809695e+09 -2.969852e+09 -1.480669e+05 -6.684278e+04 6.086617e+04
-3.616451e+09 -3.416510e+09 -3.576546e+09 -2.588514e+04 -6.084659e+03 9.269700e+03
-1.993039e+09 -1.792996e+09 -1.953064e+09 -9.884647e+04 -1.395035e+05 1.163642e+05
-3.601722e+09 -3.401794e+09 -3.561842e+09 -3.365797e+04 -1.075252e+04 1.871637e+04
-3.089319e+09 -2.889365e+09 -3.049438e+09 -5.418798e+04 -2.692818e+04 3.355106e+04
-3.180862e+09 -2.980901e+09 -3.140928e+09 -9.298365e+03 -4.325671e+03 2.973412e+03
-2.341806e+09 -2.141833e+09 -2.301879e+09 -3.233902e+04 -3.002046e+04 3.751395e+04
-1.903304e+09 -1.703206e+09 -1.863311e+09 1.932114e+04 -9.954283e+04 -4.322936e+04
-3.327996e+09 -3.127855e+09 -3.288088e+09 1.377945e+05 -9.174364e+04 -4.873928e+04
-1.944736e+09 -1.744682e+09 -1.904778e+09 2.952100e+04 -9.807731e+04 -4.644209e+04
-1.689890e+09 -1.489849e+09 -1.649910e+09 7.813740e+03 -7.383353e+04 -4.302620e+04
-3.623883e+09 -3.424071e+09 -3.584086e+09 -3.325194e+03 -4.056749e+03 4.689714e+04
-3.377978e+09 -3.178213e+09 -3.338214e+09 9.713611e+02 -1.014183e+03 7.468974e+04
-1.850428e+09 -1.650473e+09 -1.810498e+09 -1.595314e+04 -7.009807e+03 1.494426e+04
-1.979549e+09 -1.779583e+09 -1.939610e+09 -9.066090e+03 -2.238303e+03 3.749475e+03
-1.886261e+09 -1.686407e+09 -1.846301e+09 1.031492e+04 -2.421661e+04 1.494061e+05
-1.942674e+09 -1.742707e+09 -1.902742e+09 -2.760072e+04 -2.528006e+04 3.387126e+04
-1.566514e+09 -1.366549e+09 -1.526572e+09 -1.695389e+04 -2.385573e+04 3.263049e+04
-2.515204e+09 -2.315286e+09 -2.475310e+09 -1.655544e+04 -1.043100e+04 2.566099e+04
-3.602255e+09 -3.402295e+09 -3.562367e+09 -4.720511e+04 -1.609493e+04 2.263446e+04
-1.758920e+09 -1.558747e+09 -1.718931e+09 -1.608076e+04 1.397292e+05 -4.464691e+04
-3.371996e+09 -3.171584e+09 -3.331691e+09 -1.927599e+05 6.824428e+04 -2.812691e+04
-1.601832e+09 -1.401873e+09 -1.561897e+09 -1.299390e+04 -1.419012e+04 2.526247e+04
-1.628974e+09 -1.428919e+09 -1.588913e+09 4.500184e+03 1.258179e+05 -2.023400e+03
-2.369039e+09 -2.169083e+09 -2.329130e+09 -2.479462e+04 -1.938967e+04 2.929237e+04
-3.595688e+09 -3.395818e+09 -3.555844e+09 -1.823777e+04 -4.863106e+03 3.021876e+04
-1.976570e+09 -1.776346e+09 -1.936490e+09 -3.864316e+04 8.953046e+04 2.419669e+03
-1.554586e+09 -1.354657e+09 -1.514665e+09 -8.219404e+03 -7.483294e+03 3.035569e+04
-3.583609e+09 -3.383264e+09 -3.543593e+09 -8.974509e+04 1.073745e+05 -3.910195e+04
-2.607865e+09 -2.407944e+09 -2.567971e+09 -2.383475e+04 -8.299062e+03 2.560363e+04
-2.548968e+09 -2.348575e+09 -2.508515e+09 -1.190611e+05 1.584207e+05 -1.831122e+04
-1.584708e+09 -1.384687e+09 -1.544692e+09 8.306357e+03 2.070424e+05 -1.170695e+04
-1.755114e+09 -1.554987e+09 -1.715129e+09 -1.589135e+04 1.092391e+05 -3.853229e+04
-1.696482e+09 -1.496571e+09 -1.656381e+09 -7.310309e+03 -9.999117e+04 5.138771e+04
-2.028390e+09 -1.828194e+09 -1.988251e+09 7.105141e+04 -1.913227e+05 -7.406534e+04
-3.371522e+09 -3.171040e+09 -3.331432e+09 -1.665279e+05 -1.102317e+05 3.758941e+04
-2.984900e+09 -2.784745e+09 -2.944930e+09 3.023978e+04 7.895569e+04 1.518750e+04
-3.291592e+09 -3.091158e+09 -3.251383e+09 3.152641e+05 -9.146958e+04 -8.186434e+04
-2.096024e+09 -1.895862e+09 -2.056019e+09 5.704358e+03 9.783332e+04 -1.086905e+03
-2.375064e+09 -2.175133e+09 -2.335159e+09 1.819484e+04 7.726472e+03 2.912769e+04
-3.591878e+09 -3.391797e+09 -3.545687e+09 6.803781e+05 7.830803e+05 1.699423e+06
-1.805029e+09 -1.605071e+09 -1.765098e+09 2.312971e+04 2.172675e+04 4.137909e+04
-3.386664e+09 -3.186756e+09 -3.346788e+09 2.479792e+04 8.538362e+03 2.185852e+04
-2.499089e+09 -2.299152e+09 -2.459178e+09 1.372217e+04 7.242039e+03 1.769676e+04
-2.622225e+09 -2.421201e+09 -2.580731e+09 1.560384e+05 6.651342e+05 1.895052e+05
-3.220262e+09 -3.020328e+09 -3.180360e+09 2.010541e+04 6.594751e+03 1.666536e+04
-2.822109e+09 -2.622161e+09 -2.782187e+09 1.300175e+04 4.243336e+03 9.089318e+03
-3.366593e+09 -3.167347e+09 -3.325117e+09 6.409977e+05 3.137474e+05 1.144266e+06
-3.412995e+09 -3.213116e+09 -3.373160e+09 3.566960e+04 1.251311e+04 3.454080e+04
-3.173688e+09 -2.974901e+09 -3.132139e+09 6.532525e+05 9.628162e+05 1.615085e+06
-1.777934e+09 -1.578300e+09 -1.738196e+09 -1.099884e+04 6.727865e+04 4.058595e+05
-1.565497e+09 -1.365425e+09 -1.525282e+09 -4.930285e+04 -8.019542e+04 4.699320e+04
-3.596508e+09 -3.397217e+09 -3.556218e+09 4.415852e+05 7.409666e+04 8.920830e+04
-2.407576e+09 -2.207636e+09 -2.367664e+09 1.991529e+04 9.067544e+03 2.515711e+04
-2.072426e+09 -1.872226e+09 -2.032352e+09 3.255946e+04 -1.831285e+05 -5.046350e+04
-2.705712e+09 -2.506197e+09 -2.665547e+09 2.926878e+05 2.468001e+04 5.642562e+04
-2.779276e+09 -2.579247e+09 -2.737559e+09 8.276650e+05 6.046854e+05 4.163980e+05
-2.586528e+09 -2.386562e+09 -2.546593e+09 1.044055e+04 2.867434e+03 4.758025e+03
-2.605210e+09 -2.404919e+09 -2.565199e+09 6.412058e+04 -1.237840e+05 -5.084472e+04
-3.289797e+09 -3.089496e+09 -3.249812e+09 5.562917e+04 -9.279928e+04 -4.893904e+03
-1.972480e+09 -1.772509e+09 -1.932538e+09 8.932321e+03 2.906338e+03 2.865090e+03
-3.522507e+09 -3.322553e+09 -3.482585e+09 1.670032e+04 3.745778e+03 6.277831e+03
-1.878014e+09 -1.677872e+09 -1.837976e+09 -4.842524e+04 -1.202494e+05 -1.868769e+04
-3.604806e+09 -3.404459e+09 -3.564793e+09 4.712421e+04 -1.036424e+05 -1.533559e+04
-2.027013e+09 -1.826772e+09 -1.986880e+09 -8.326542e+03 1.982578e+05 -2.620628e+04
-3.584989e+09 -3.384535e+09 -3.544956e+09 1.052352e+04 7.784015e+04 6.114422e+02
-1.592314e+09 -1.392267e+09 -1.552307e+09 3.511241e+03 -1.541405e+05 -2.677748e+04
-3.578027e+09 -3.376951e+09 -3.537139e+09 1.344539e+05 -1.226517e+05 -3.466401e+04
-1.988296e+09 -1.788055e+09 -1.948225e+09 7.887493e+02 2.167990e+05 -4.281954e+03
-2.586129e+09 -2.385797e+09 -2.545930e+09 -9.064136e+04 6.800515e+04 -2.321961e+04
-2.145273e+09 -1.944670e+09 -2.104788e+09 1.193913e+05 -5.595064e+04 -5.419778e+04
-2.978374e+09 -2.777958e+09 -2.938296e+09 3.211302e+04 7.449277e+04 -3.169933e+03
-3.044111e+09 -2.844116e+09 -3.003491e+09 3.842546e+05 -1.023692e+05 -1.056526e+05
-1.952156e+09 -1.751819e+09 -1.911894e+09 1.112530e+05 1.556790e+05 6.344231e+04
-1.561571e+09 -1.361483e+09 -1.521460e+09 1.159452e+04 4.263593e+04 -3.355023e+04
-3.492204e+09 -3.292205e+09 -3.452306e+09 3.522849e+05 8.103000e+04 5.331258e+04
-2.829810e+09 -2.629638e+09 -2.789857e+09 1.474645e+05 8.114506e+04 4.046815e+04
-2.583567e+09 -2.383407e+09 -2.543625e+09 2.043781e+05 1.035144e+05 4.075767e+04
-3.119787e+09 -2.919773e+09 -3.079804e+09 2.290612e+05 4.900621e+04 7.279605e+04
-1.590266e+09 -1.390251e+09 -1.550259e+09 -8.087936e+02 8.288597e+04 -2.567989e+03
-3.136854e+09 -2.936432e+09 -3.096534e+09 1.935665e+05 1.053073e+05 9.102433e+03
-3.124453e+09 -2.924316e+09 -3.084377e+09 2.841937e+05 6.909573e+04 4.774807e+04
-3.511558e+09 -3.312415e+09 -3.471663e+09 2.125960e+05 -1.365039e+04 -7.097553e+04
-3.600192e+09 -3.400291e+09 -3.560319e+09 -2.706189e+04 -9.102053e+03 2.094513e+04
-3.511343e+09 -3.311278e+09 -3.471438e+09 -7.883284e+04 -4.580747e+04 3.404004e+04
-3.055829e+09 -2.854562e+09 -3.013416e+09 -2.316367e+05 -9.070790e+05 4.124869e+05
-3.318156e+09 -3.118144e+09 -3.278262e+09 -7.077032e+04 -4.484152e+04 2.901991e+04
-1.903640e+09 -1.703603e+09 -1.863684e+09 -3.102002e+04 -4.737942e+04 3.971883e+04
-2.270659e+09 -2.070601e+09 -2.230715e+09 -5.496360e+04 -7.337393e+04 4.688535e+04
-3.388892e+09 -3.188928e+09 -3.348981e+09 3.210140e+04 1.140003e+04 1.748151e+04
-2.207481e+09 -2.008384e+09 -2.167214e+09 2.265459e+04 -5.128361e+04 -6.553664e+05
-1.582420e+09 -1.382394e+09 -1.542448e+09 1.717172e+04 4.391287e+04 3.025007e+04
-1.598629e+09 -1.398642e+09 -1.558679e+09 1.679092e+04 1.304155e+04 1.529457e+04
-3.476026e+09 -3.276028e+09 -3.436084e+09 2.254161e+04 6.951981e+03 6.206571e+03
-1.867854e+09 -1.667850e+09 -1.827897e+09 1.517407e+04 1.324686e+04 1.297563e+04
-3.415823e+09 -3.215400e+09 -3.373089e+09 -7.940191e+05 -8.104208e+05 8.344585e+05
-1.534721e+09 -1.334741e+09 -1.494775e+09 1.414998e+04 9.093682e+03 1.144228e+04
-3.597641e+09 -3.397605e+09 -3.557726e+09 4.809027e+04 2.848983e+04 2.110215e+04
-3.104520e+09 -2.904552e+09 -3.064588e+09 1.393753e+04 4.711705e+03 6.109300e+03
-1.974793e+09 -1.774799e+09 -1.934841e+09 1.441548e+04 8.469253e+03 9.005296e+03
-1.534721e+09 -1.334742e+09 -1.494771e+09 1.286312e+04 8.240828e+03 9.078330e+03
-2.797370e+09 -2.597911e+09 -2.756925e+09 -4.591275e+05 -3.032191e+05 4.288285e+05
-2.039922e+09 -1.840109e+09 -2.000010e+09 4.965803e+04 6.599005e+04 1.823217e+05
-1.787618e+09 -1.587307e+09 -1.747168e+09 -1.904109e+04 -7.978478e+04 2.423457e+05
-3.502425e+09 -3.302205e+09 -3.462482e+09 9.318721e+04 -9.224210e+04 -2.915402e+04
-2.451974e+09 -2.252111e+09 -2.410276e+09 -3.449384e+05 -3.784691e+05 6.484018e+05
-2.826473e+09 -2.626302e+09 -2.786508e+09 2.929024e+04 -7.383028e+04 -2.522250e+04
-3.476110e+09 -3.275772e+09 -3.436117e+09 2.622267e+04 -7.701904e+04 -7.283950e+03
-2.974797e+09 -2.774535e+09 -2.934830e+09 2.841363e+04 -8.036154e+04 -1.482871e+04
-3.399925e+09 -3.200020e+09 -3.360071e+09 4.129108e+04 1.377877e+04 3.378678e+04
-3.193926e+09 -2.993666e+09 -3.153919e+09 -1.216562e+03 -7.613055e+04 7.672211e+02
-1.593542e+09 -1.393523e+09 -1.553490e+09 -2.081773e+03 -1.687929e+05 -1.397904e+04
-2.000599e+09 -1.800467e+09 -1.960573e+09 3.404110e+04 -1.224669e+05 6.438362e+03
-3.604758e+09 -3.404299e+09 -3.564742e+09 7.131265e+04 -7.942981e+04 -1.382696e+04
-2.421873e+09 -2.221955e+09 -2.381986e+09 2.376909e+04 1.395579e+04 4.439585e+04
-2.136368e+09 -1.936404e+09 -2.096438e+09 2.982933e+04 1.831335e+04 2.567177e+04
-1.782374e+09 -1.582443e+09 -1.742460e+09 1.728726e+04 1.033953e+04 2.599349e+04
-2.542198e+09 -2.342640e+09 -2.502323e+09 1.242620e+05 -9.449838e+02 1.991095e+05
-1.589332e+09 -1.389339e+09 -1.549376e+09 1.916383e+04 2.228099e+04 2.402261e+04
-1.777953e+09 -1.578034e+09 -1.738044e+09 -1.240081e+04 -1.051756e+04 3.359760e+04
-2.384132e+09 -2.184127e+09 -2.344208e+09 4.472897e+04 4.249024e+04 4.246591e+04
-2.293623e+09 -2.093698e+09 -2.253712e+09 -1.253629e+04 -5.999564e+03 1.642328e+04
-1.774953e+09 -1.574984e+09 -1.735019e+09 3.676614e+04 3.807416e+04 6.105451e+04
-3.478211e+09 -3.278427e+09 -3.438468e+09 -7.251428e+04 -2.860401e+04 7.386985e+04
-3.236012e+09 -3.036075e+09 -3.196117e+09 -2.158853e+04 -8.850866e+03 1.871326e+04
-1.588760e+09 -1.388821e+09 -1.548834e+09 -1.324346e+04 -8.981029e+03 2.726346e+04
-2.555032e+09 -2.355141e+09 -2.515163e+09 -2.176073e+04 -1.112902e+04 4.157188e+04
-2.459885e+09 -2.259902e+09 -2.419956e+09 3.213562e+04 1.888427e+04 2.247011e+04
-3.208112e+09 -3.008168e+09 -3.168220e+09 3.139622e+04 1.403848e+04 1.684183e+04
-3.342938e+09 -3.142982e+09 -3.303081e+09 7.443478e+04 3.143475e+04 4.611310e+04
-1.588763e+09 -1.388818e+09 -1.548834e+09 -1.100363e+04 -8.113127e+03 2.650371e+04
-1.563431e+09 -1.363383e+09 -1.523257e+09 1.368379e+04 9.307379e+04 8.414262e+04
-2.437012e+09 -2.237041e+09 -2.397085e+09 2.555933e+04 1.423631e+04 1.914009e+04
-2.188726e+09 -1.988389e+09 -2.148631e+09 8.539478e+04 -1.247852e+05 -4.524568e+04
-2.404354e+09 -2.204102e+09 -2.364275e+09 9.360084e+04 -9.399773e+04 -4.455458e+04
-1.756773e+09 -1.556633e+09 -1.716460e+09 8.829418e+03 1.682890e+05 -1.771547e+04
-3.584573e+09 -3.384450e+09 -3.544654e+09 -2.915088e+05 -6.417684e+04 5.472752e+04
-3.325600e+09 -3.125714e+09 -3.285752e+09 -3.116796e+05 -7.033383e+04 1.570238e+05
-1.600300e+09 -1.400313e+09 -1.560236e+09 -7.590045e+03 -8.977242e+04 1.552115e+05
-1.812956e+09 -1.613053e+09 -1.773095e+09 -8.155714e+04 -8.492122e+04 1.057215e+05
-3.585479e+09 -3.386265e+09 -3.545880e+09 8.693078e+04 1.064948e+04 9.962629e+04
-3.610713e+09 -3.411527e+09 -3.566963e+09 7.244571e+05 -2.225897e+05 -9.803701e+05
-3.051768e+09 -2.849793e+09 -3.007543e+09 -3.672973e+05 -2.616902e+06 1.172247e+06
-2.620772e+09 -2.421806e+09 -2.577670e+09 -9.177429e+05 1.059487e+06 -1.837048e+06
-3.584034e+09 -3.384062e+09 -3.544214e+09 -1.911777e+05 -5.391456e+04 8.203584e+04
-2.731610e+09 -2.532802e+09 -2.689394e+09 2.790127e+05 -2.295561e+05 -1.242699e+06
-1.908347e+09 -1.708644e+09 -1.868191e+09 3.384039e+05 -8.042460e+05 -1.279010e+06
-3.485261e+09 -3.285709e+09 -3.445658e+09 1.588705e+05 4.389813e+04 1.052464e+05
-2.766097e+09 -2.566273e+09 -2.726282e+09 4.604903e+04 2.461881e+04 1.013962e+05
-3.589875e+09 -3.390189e+09 -3.550190e+09 6.412908e+04 1.224411e+04 8.781964e+04
-1.769268e+09 -1.569290e+09 -1.729359e+09 6.173611e+04 6.532165e+04 9.271061e+04
-1.590362e+09 -1.390002e+09 -1.547676e+09 -2.470229e+04 1.109987e+06 2.883803e+06
-3.293324e+09 -3.093760e+09 -3.253698e+09 1.376654e+05 4.434495e+04 1.134502e+05
-3.008966e+09 -2.807550e+09 -2.967438e+09 1.220169e+05 8.470549e+05 2.095131e+05
-2.141273e+09 -1.941413e+09 -2.101358e+09 2.030651e+05 1.175563e+05 1.383795e+05
-3.597885e+09 -3.396009e+09 -3.552392e+09 -1.955063e+05 1.372299e+06 -6.521346e+04
-1.906529e+09 -1.706272e+09 -1.866467e+09 -1.366638e+05 -8.387767e+04 5.835812e+03
-3.249830e+09 -3.048513e+09 -3.207254e+09 -3.991974e+05 5.897864e+05 -2.577611e+05
-3.493453e+09 -3.292443e+09 -3.449636e+09 -4.715095e+05 1.216052e+06 -4.664322e+05
-3.492886e+09 -3.293130e+09 -3.453168e+09 1.885360e+05 4.891018e+04 8.916712e+04
-3.614313e+09 -3.414549e+09 -3.574342e+09 3.131274e+05 5.948973e+04 9.741647e+04
-3.063517e+09 -2.863569e+09 -3.023624e+09 1.786964e+05 5.279000e+04 8.866046e+04
-2.511055e+09 -2.311296e+09 -2.471284e+09 1.613983e+05 1.593018e+03 6.439765e+04
-2.218208e+09 -2.017113e+09 -2.176636e+09 8.525479e+04 -5.676535e+05 -5.597865e+04
-3.026634e+09 -2.826742e+09 -2.986775e+09 -2.930276e+04 -1.822347e+04 4.267663e+04
-2.503598e+09 -2.303073e+09 -2.463511e+09 2.573539e+04 1.183434e+05 2.325718e+04
-2.455180e+09 -2.254164e+09 -2.414080e+09 -2.674134e+05 -8.761952e+05 3.455496e+05
-2.822883e+09 -2.621324e+09 -2.780384e+09 1.351188e+05 -2.390396e+06 -1.695427e+05
-1.697823e+09 -1.497881e+09 -1.657901e+09 -1.457050e+04 -1.996558e+04 6.146481e+04
-3.187713e+09 -2.987904e+09 -3.147964e+09 -7.706600e+04 -3.146138e+04 8.066003e+04
-2.896601e+09 -2.696737e+09 -2.856772e+09 -4.718166e+04 -2.274414e+04 6.699148e+04
-3.541526e+09 -3.341807e+09 -3.501811e+09 -1.626137e+05 -5.965012e+04 1.072643e+05
-3.490186e+09 -3.290606e+09 -3.450515e+09 -1.591310e+05 -4.900407e+04 1.153307e+05
-2.153625e+09 -1.953813e+09 -2.113840e+09 -8.272190e+04 -7.395664e+04 1.223846e+05
-2.394202e+09 -2.193758e+09 -2.353080e+09 -2.825333e+05 -2.870608e+05 2.146560e+05
-3.216977e+09 -3.016464e+09 -3.175941e+09 -3.848409e+05 -1.978079e+05 9.025838e+04
-1.605231e+09 -1.405223e+09 -1.565160e+09 2.144973e+04 6.948271e+04 9.188740e+04
-1.690503e+09 -1.490481e+09 -1.650383e+09 1.419749e+04 1.016005e+05 5.067639e+04
-1.956827e+09 -1.756300e+09 -1.916194e+09 -7.356777e+04 5.318677e+04 9.839772e+04
-2.343416e+09 -2.142852e+09 -2.302798e+09 -6.326782e+04 -2.072714e+05 1.708559e+05
-2.143473e+09 -1.943020e+09 -2.102876e+09 2.394409e+05 1.685905e+05 -1.361031e+05
-2.757096e+09 -2.556227e+09 -2.716205e+09 -3.252157e+04 -5.004366e+04 -5.426457e+04
-3.363960e+09 -3.163019e+09 -3.323260e+09 -6.164015e+04 -9.867253e+04 4.047785e+04
-2.064770e+09 -1.864778e+09 -2.024778e+09 1.204426e+05 1.255325e+05 1.736998e+05
-2.476625e+09 -2.276759e+09 -2.435947e+09 4.074829e+05 -2.933858e+05 -2.802599e+05
-3.591506e+09 -3.391524e+09 -3.551634e+09 2.848369e+05 7.393190e+04 7.778937e+04
-1.593450e+09 -1.393454e+09 -1.553416e+09 1.351205e+03 1.234910e+05 1.521855e+05
-3.404745e+09 -3.205004e+09 -3.364982e+09 2.764751e+05 6.585500e+04 7.496098e+04
-3.605115e+09 -3.405072e+09 -3.560888e+09 -5.405881e+05 1.187481e+06 -8.088342e+05
-2.929586e+09 -2.730018e+09 -2.887761e+09 -6.531157e+05 6.165677e+05 -6.773056e+05
-3.283571e+09 -3.084198e+09 -3.243786e+09 -9.071581e+04 -3.278235e+04 1.184668e+05
-2.024920e+09 -1.826289e+09 -1.979247e+09 -1.153830e+05 6.987031e+05 -5.894098e+06
-3.555748e+09 -3.354649e+09 -3.513770e+09 3.074635e+05 -4.299195e+05 -9.885159e+04
-1.814373e+09 -1.614028e+09 -1.773366e+09 -3.798804e+03 -3.818981e+05 -2.875070e+05
-3.357555e+09 -3.156465e+09 -3.315796e+09 1.971875e+05 -3.677699e+05 1.342157e+05
-2.462957e+09 -2.263025e+09 -2.423046e+09 1.552674e+04 6.841891e+03 1.737124e+04
-3.430493e+09 -3.230044e+09 -3.389150e+09 -6.126698e+05 1.773726e+05 -2.081954e+05
-2.149367e+09 -1.949438e+09 -2.109453e+09 1.175144e+04 5.011889e+03 1.718123e+04
-3.500040e+09 -3.299939e+09 -3.460101e+09 -3.654803e+04 4.207445e+04 -2.150066e+04
-3.044137e+09 -2.844257e+09 -3.004284e+09 2.030395e+04 2.159820e+03 3.640143e+04
-2.469950e+09 -2.270049e+09 -2.430066e+09 1.399128e+04 6.682669e+03 3.428415e+04
-2.913726e+09 -2.713661e+09 -2.873809e+09 -4.858707e+04 6.768561e+04 -3.287828e+04
-2.076817e+09 -1.875805e+09 -2.032150e+09 -6.513867e+05 3.858375e+06 -2.398957e+06
-2.181931e+09 -1.981670e+09 -2.140234e+09 5.039071e+05 1.755554e+06 1.877576e+06
-3.299963e+09 -3.098548e+09 -3.255847e+09 -3.573527e+05 1.188687e+06 -1.658916e+05
-3.514847e+09 -3.313592e+09 -3.473612e+09 -2.233030e+05 9.167911e+04 -1.579109e+05
-3.588824e+09 -3.387236e+09 -3.545630e+09 -5.595451e+04 4.034644e+05 1.949166e+05
-1.699272e+09 -1.499250e+09 -1.659284e+09 -6.858051e+03 9.389131e+04 -6.251929e+04
-2.155436e+09 -1.954665e+09 -2.114633e+09 -1.627656e+04 3.526442e+05 1.534265e+05
-1.760836e+09 -1.560609e+09 -1.720818e+09 5.086497e+04 1.449532e+05 4.950780e+04
-2.532171e+09 -2.331865e+09 -2.492125e+09 1.873343e+05 8.176636e+04 2.877820e+04
-3.412773e+09 -3.212346e+09 -3.372756e+09 -5.352403e+04 1.262975e+05 -2.050504e+04
-2.602838e+09 -2.401980e+09 -2.561687e+09 2.172853e+05 -3.763100e+05 -1.056587e+05
-1.642531e+09 -1.442597e+09 -1.601975e+09 2.745051e+04 -6.047852e+05 9.479932e+04
-3.178699e+09 -2.978431e+09 -3.138615e+09 3.050346e+05 -3.634629e+04 -7.425597e+04
-3.500185e+09 -3.299945e+09 -3.460200e+09 -1.278490e+04 5.385140e+04 -5.979813e+03
-3.318614e+09 -3.118388e+09 -3.278625e+09 1.161191e+04 6.753390e+04 -1.347962e+04
-3.591735e+09 -3.391126e+09 -3.551418e+09 1.147226e+05 1.402332e+05 2.316939e+03
-2.144136e+09 -1.943898e+09 -2.103624e+09 6.299472e+04 -4.106885e+04 8.651531e+04
-2.649721e+09 -2.449495e+09 -2.609726e+09 2.559012e+04 9.125582e+04 6.490626e+03
-1.576527e+09 -1.376453e+09 -1.536531e+09 4.469630e+03 1.044701e+05 8.874301e+03
-3.336778e+09 -3.135987e+09 -3.296192e+09 9.406197e+04 -4.675692e+04 1.461329e+05
-1.698497e+09 -1.498437e+09 -1.658508e+09 7.956766e+03 6.244925e+04 1.749100e+04
-1.670089e+09 -1.470021e+09 -1.630100e+09 9.750622e+03 9.977951e+04 1.796275e+04
-1.868115e+09 -1.668064e+09 -1.828130e+09 1.444538e+04 4.058255e+04 2.521082e+04
-3.411607e+09 -3.211565e+09 -3.371686e+09 5.341391e+04 2.380810e+04 2.252826e+04
-3.380886e+09 -3.179603e+09 -3.336693e+09 4.607731e+05 1.080894e+06 6.950552e+05
-3.182384e+09 -2.983114e+09 -3.135980e+09 3.814415e+05 2.152477e+06 3.278333e+06
-1.981407e+09 -1.781533e+09 -1.938826e+09 7.363489e+05 6.008594e+05 1.095430e+06
-2.402819e+09 -2.202812e+09 -2.349259e+09 1.689959e+05 4.165635e+06 -1.558407e+05
-3.359648e+09 -3.159528e+09 -3.308135e+09 -6.017146e+05 1.686656e+06 -2.437864e+06
-3.193520e+09 -2.993606e+09 -3.153646e+09 2.639798e+04 7.948571e+03 2.920637e+04
-2.967709e+09 -2.767666e+09 -2.927763e+09 3.062978e+04 2.460700e+04 1.736686e+04
-3.593163e+09 -3.391960e+09 -3.551481e+09 -1.088358e+05 -2.330290e+05 -7.447533e+04
-1.679632e+09 -1.479672e+09 -1.639697e+09 -1.013799e+04 -3.917543e+03 6.923819e+03
-1.675434e+09 -1.475466e+09 -1.635494e+09 -9.726241e+03 -4.806013e+03 6.376949e+03
-2.029263e+09 -1.829329e+09 -1.989349e+09 2.485608e+04 1.606334e+04 3.606243e+04
-3.601719e+09 -3.401764e+09 -3.561806e+09 -2.149907e+04 -6.112689e+03 9.901813e+03
-1.697515e+09 -1.497560e+09 -1.657581e+09 -8.599353e+03 -3.326249e+03 6.529677e+03
-2.178980e+09 -1.979039e+09 -2.139056e+09 1.261324e+04 2.269605e+03 1.064505e+04
-2.563356e+09 -2.363427e+09 -2.523449e+09 1.204984e+04 6.149164e+03 1.556382e+04
-1.896607e+09 -1.696663e+09 -1.856682e+09 1.481190e+04 3.192334e+03 1.169181e+04
-2.013511e+09 -1.813571e+09 -1.973592e+09 1.977534e+04 9.542885e+03 2.298125e+04
-2.824780e+09 -2.624701e+09 -2.784873e+09 6.042832e+04 -7.905611e+04 -4.293531e+04
-1.630249e+09 -1.430229e+09 -1.590261e+09 5.200684e+03 -9.438493e+04 -6.293039e+04
-1.680935e+09 -1.480905e+09 -1.640959e+09 7.767412e+03 -8.000867e+04 -5.066416e+04
-1.824967e+09 -1.625028e+09 -1.785048e+09 1.899806e+04 1.062787e+04 2.183431e+04
-3.202444e+09 -3.002661e+09 -3.162682e+09 6.473374e+03 5.903595e+03 7.591010e+04
-3.375929e+09 -3.176000e+09 -3.336096e+09 -9.704726e+04 -3.474170e+04 5.972822e+04
-2.665273e+09 -2.465470e+09 -2.625468e+09 1.398461e+03 1.054676e+04 9.262006e+04
-2.121329e+09 -1.921460e+09 -2.081464e+09 4.748682e+03 4.095651e+03 6.727387e+04
-1.593857e+09 -1.393911e+09 -1.553929e+09 1.465338e+04 1.167172e+04 3.317111e+04
-3.613523e+09 -3.413593e+09 -3.573628e+09 2.911458e+04 7.170513e+03 1.148751e+04
-1.992581e+09 -1.792445e+09 -1.952566e+09 5.392760e+04 -1.201459e+05 -6.898322e+03
-3.611236e+09 -3.410557e+09 -3.570638e+09 3.827239e+05 9.324645e+04 9.231423e+04
-2.216764e+09 -2.016535e+09 -2.176724e+09 -1.093083e+04 -1.273924e+05 1.105055e+03
-3.389631e+09 -3.189453e+09 -3.349678e+09 5.100268e+04 6.715460e+04 2.923616e+04
-3.478354e+09 -3.277644e+09 -3.438069e+09 2.982845e+04 -1.268167e+05 -1.323307e+04
-3.303886e+09 -3.103718e+09 -3.263930e+09 5.886624e+04 6.478167e+04 9.340594e+03
-3.020210e+09 -2.819889e+09 -2.980135e+09 7.686828e+04 -1.473098e+05 -3.337689e+04
-1.812118e+09 -1.612196e+09 -1.772210e+09 -1.666535e+04 -1.088125e+04 3.102403e+04
-1.611751e+09 -1.411811e+09 -1.571823e+09 -1.247514e+04 -1.217882e+04 3.944268e+04
-2.568224e+09 -2.368060e+09 -2.528244e+09 7.994433e+03 1.060083e+05 6.899500e+03
-2.224887e+09 -2.024977e+09 -2.185002e+09 -2.911864e+04 -1.799285e+04 4.642611e+04
-2.963553e+09 -2.763649e+09 -2.923673e+09 -1.544347e+04 -5.094440e+03 2.470448e+04
-2.179399e+09 -1.979294e+09 -2.139405e+09 2.525478e+04 5.800928e+04 1.553528e+04
-2.533173e+09 -2.333070e+09 -2.493208e+09 3.368502e+04 7.168675e+04 2.925364e+04
-3.495766e+09 -3.295861e+09 -3.455905e+09 -4.391236e+04 -1.269112e+04 2.513357e+04
-2.067045e+09 -1.866920e+09 -2.027050e+09 3.371123e+04 8.462291e+04 1.746068e+04
-1.869323e+09 -1.669243e+09 -1.829348e+09 4.436246e+04 6.824163e+04 2.026312e+04
-1.566512e+09 -1.366550e+09 -1.526572e+09 -1.739360e+04 -2.265056e+04 3.504283e+04
-2.102818e+09 -1.902877e+09 -2.062899e+09 -2.462017e+04 -1.068558e+04 2.151197e+04
-2.112117e+09 -1.912840e+09 -2.066666e+09 7.289195e+05 -2.948754e+06 -5.154379e+06
-1.566507e+09 -1.366544e+09 -1.526569e+09 -1.367516e+04 -2.389072e+04 3.297841e+04
-1.573851e+09 -1.373872e+09 -1.533899e+09 -1.884471e+04 -3.501697e+04 4.502175e+04
-3.342653e+09 -3.141322e+09 -3.290867e+09 -1.186727e+05 -3.829918e+06 -1.060216e+06
-2.071859e+09 -1.870367e+09 -2.024760e+09 3.029254e+05 -5.704218e+06 -1.566997e+06
-3.113133e+09 -2.914423e+09 -3.061276e+09 -3.364844e+05 1.537585e+06 -3.539289e+06
-2.835309e+09 -2.634430e+09 -2.792355e+09 2.359530e+05 -1.555279e+06 2.733833e+05
-2.435261e+09 -2.234499e+09 -2.391768e+09 5.603951e+05 -1.845181e+06 -5.463120e+05
-3.054138e+09 -2.853189e+09 -3.002407e+09 -2.851833e+05 -3.979815e+06 -6.720077e+05
-2.221261e+09 -2.020493e+09 -2.177018e+09 -1.230678e+05 -1.877946e+06 -8.822422e+05
-1.760630e+09 -1.560883e+09 -1.720525e+09 -4.006198e+05 -3.805808e+06 -3.409074e+06
-2.032431e+09 -1.831593e+09 -1.990268e+09 6.229525e+05 -1.672775e+06 -4.308997e+05
-3.358465e+09 -3.157040e+09 -3.314722e+09 5.862777e+05 -1.439540e+06 -5.845816e+05
-1.573432e+09 -1.373383e+09 -1.533436e+09 1.689758e+04 1.401350e+05 6.894365e+04
-3.538684e+09 -3.338475e+09 -3.498724e+09 8.917202e+04 8.844381e+04 3.350708e+04
-3.139943e+09 -2.939321e+09 -3.099166e+09 2.070208e+05 -2.371345e+04 5.215621e+03
-2.023841e+09 -1.825043e+09 -1.982132e+09 -1.710389e+04 6.072256e+04 -9.199381e+05
-3.600150e+09 -3.399944e+09 -3.559762e+09 4.070751e+05 -8.527595e+04 -4.963363e+04
-3.634818e+09 -3.435127e+09 -3.594770e+09 4.676697e+05 7.660502e+04 1.900992e+04
-2.469485e+09 -2.269228e+09 -2.415324e+09 -2.896166e+05 -3.731005e+06 -1.023978e+06
-2.203770e+09 -2.004612e+09 -2.158444e+09 5.302136e+05 -8.964103e+05 -2.162076e+06
-2.163044e+09 -1.962930e+09 -2.123043e+09 -1.632273e+04 6.184813e+04 -1.461239e+04
-1.853123e+09 -1.653033e+09 -1.813132e+09 -2.588135e+04 6.642147e+04 -2.180120e+04
-3.591916e+09 -3.391635e+09 -3.551954e+09 -1.367720e+05 1.148073e+05 -2.319728e+04
-3.593997e+09 -3.393220e+09 -3.549468e+09 2.804166e+05 -1.323932e+06 -4.505248e+05
-3.586822e+09 -3.386559e+09 -3.546858e+09 -5.968021e+04 6.427003e+04 -2.051167e+04
-1.870969e+09 -1.670905e+09 -1.830934e+09 -2.141241e+04 1.377950e+05 -5.197399e+04
-1.906652e+09 -1.706890e+09 -1.865887e+09 2.224089e+05 -6.168115e+05 -3.835792e+05
-2.083507e+09 -1.883427e+09 -2.042377e+09 2.834765e+05 -1.167096e+05 -1.984086e+05
-3.502226e+09 -3.302671e+09 -3.459733e+09 7.299384e+05 -6.653444e+05 -6.688209e+05
-3.059376e+09 -2.859646e+09 -3.014385e+09 1.130432e+06 -2.097520e+06 -1.894383e+06
-1.614197e+09 -1.414253e+09 -1.574270e+09 1.153230e+04 5.668386e+03 1.357691e+04
-1.592504e+09 -1.392546e+09 -1.552569e+09 1.350360e+04 8.996472e+03 1.300878e+04
-1.792744e+09 -1.592802e+09 -1.752817e+09 1.758801e+04 1.233369e+04 3.472823e+04
-3.435704e+09 -3.235811e+09 -3.395825e+09 1.008935e+04 3.716693e+03 1.910951e+04
-2.806420e+09 -2.606655e+09 -2.766633e+09 2.463443e+04 9.483985e+03 1.111796e+05
-1.574427e+09 -1.374462e+09 -1.534489e+09 2.528638e+04 3.220545e+04 4.841552e+04
-2.397347e+09 -2.197456e+09 -2.357465e+09 -4.078435e+03 -1.360752e+03 3.763264e+04
-3.192994e+09 -2.993079e+09 -3.153102e+09 -1.716156e+04 1.089510e+02 1.780256e+04
-1.690206e+09 -1.490268e+09 -1.650284e+09 -1.026806e+04 -6.142784e+03 1.578114e+04
-1.991770e+09 -1.791840e+09 -1.951854e+09 -1.462632e+04 -3.587243e+03 1.664621e+04
-2.000452e+09 -1.800520e+09 -1.960533e+09 -7.286481e+03 -6.359211e+03 1.349971e+04
-2.625376e+09 -2.425327e+09 -2.585457e+09 -6.416758e+04 -7.924794e+04 5.822881e+04
-2.637209e+09 -2.437146e+09 -2.597285e+09 -7.815276e+04 -5.695948e+04 5.402742e+04
-3.151028e+09 -2.950926e+09 -3.111078e+09 -4.465918e+04 -5.683014e+04 3.877256e+04
-3.655521e+09 -3.456495e+09 -3.615376e+09 1.055176e+05 5.184704e+04 -6.984859e+04
-1.949952e+09 -1.749884e+09 -1.909957e+09 -1.105017e+04 -7.117791e+04 4.230467e+04
-3.434431e+09 -3.234585e+09 -3.394620e+09 2.607144e+04 1.066094e+04 4.278229e+04
-3.411493e+09 -3.211615e+09 -3.371643e+09 2.293414e+04 5.780619e+03 3.353379e+04
-3.295576e+09 -3.095466e+09 -3.255663e+09 -9.994530e+04 -7.204109e+04 2.938099e+04
-3.476077e+09 -3.275863e+09 -3.436121e+09 -7.770888e+04 -6.914687e+04 2.786293e+04
-2.612554e+09 -2.412599e+09 -2.572631e+09 1.727540e+04 6.035493e+03 1.353856e+04
-3.218912e+09 -3.018976e+09 -3.179015e+09 2.376845e+04 1.009761e+04 2.438498e+04
-2.733817e+09 -2.533876e+09 -2.693901e+09 1.546548e+04 5.713915e+03 1.341736e+04
-3.588363e+09 -3.389496e+09 -3.548152e+09 1.045089e+05 -3.126341e+03 1.519001e+05
-3.397698e+09 -3.197768e+09 -3.357800e+09 2.045877e+04 3.306796e+03 1.693546e+04
-3.421712e+09 -3.221756e+09 -3.381805e+09 2.519560e+04 7.694241e+03 1.845470e+04
-1.799460e+09 -1.599479e+09 -1.757986e+09 2.590407e+05 2.966811e+05 5.335446e+05
-3.290005e+09 -3.089984e+09 -3.250066e+09 3.297580e+04 1.956503e+04 1.076322e+04
-1.993385e+09 -1.793722e+09 -1.953396e+09 1.242167e+04 5.594831e+04 -2.085542e+04
-2.903462e+09 -2.703815e+09 -2.863692e+09 1.692485e+05 -5.734317e+04 5.874890e+04
-2.353418e+09 -2.154137e+09 -2.312632e+09 5.719667e+05 9.198621e+05 1.111969e+06
-1.589376e+09 -1.389528e+09 -1.548452e+09 4.104072e+04 1.834712e+05 6.581177e+05
-1.899061e+09 -1.699458e+09 -1.859374e+09 9.031635e+04 5.914028e+03 -1.965286e+03
-3.005648e+09 -2.806184e+09 -2.965718e+09 2.215680e+05 4.388487e+04 5.173254e+04
-2.079047e+09 -1.879382e+09 -2.039156e+09 -1.441291e+05 5.364455e+04 3.061411e+04
-2.208085e+09 -2.008607e+09 -2.168500e+09 1.392638e+05 -1.022867e+05 -4.465296e+03
-3.611462e+09 -3.411675e+09 -3.571696e+09 -4.468310e+04 -7.091570e+03 4.454069e+04
-1.621294e+09 -1.421284e+09 -1.581333e+09 1.866712e+04 3.207721e+04 2.776934e+04
-3.282681e+09 -3.082638e+09 -3.242740e+09 3.901791e+04 2.803393e+04 1.471236e+04
-3.252560e+09 -3.052745e+09 -3.212760e+09 -4.056690e+04 -1.456038e+04 6.817453e+04
-1.986169e+09 -1.786416e+09 -1.946354e+09 -2.482846e+04 -4.405536e+03 1.539895e+05
-2.844439e+09 -2.644606e+09 -2.804658e+09 -1.031160e+05 -4.864750e+04 8.334841e+04
-2.019429e+09 -1.819315e+09 -1.979447e+09 -4.349339e+04 8.264284e+04 -9.043803e+03
-1.603964e+09 -1.404036e+09 -1.564042e+09 -2.388873e+03 -4.360725e+03 5.470546e+04
-3.296051e+09 -3.095830e+09 -3.256066e+09 3.079303e+04 6.737114e+04 -4.918438e+03
-1.955986e+09 -1.755821e+09 -1.915995e+09 -1.269760e+04 8.776853e+04 -1.474592e+04
-1.789469e+09 -1.589583e+09 -1.749588e+09 -5.336901e+03 -6.875748e+03 6.694563e+04
-3.500333e+09 -3.300093e+09 -3.460351e+09 5.970112e+03 5.443521e+04 -6.950145e+02
-1.871743e+09 -1.671630e+09 -1.831718e+09 -9.719191e+03 1.037247e+05 1.954212e+04
-2.525150e+09 -2.325317e+09 -2.485304e+09 -2.300289e+04 -1.337173e+04 9.802964e+04
-3.318761e+09 -3.118532e+09 -3.278772e+09 -1.590286e+04 6.569061e+04 4.958984e+03
-1.576539e+09 -1.376498e+09 -1.536535e+09 4.634080e+03 8.665807e+04 8.845337e+03
-2.174893e+09 -1.974733e+09 -2.134889e+09 -2.811977e+04 8.577482e+04 -1.087379e+04
-3.296172e+09 -3.096384e+09 -3.256387e+09 -2.349968e+04 -6.643901e+03 7.880498e+04
-2.653928e+09 -2.453549e+09 -2.613863e+09 -2.303118e+04 9.800320e+04 -2.243115e+04
-2.975750e+09 -2.775530e+09 -2.935754e+09 -1.100944e+04 1.100376e+05 -2.174135e+04
-3.321943e+09 -3.122005e+09 -3.282036e+09 -1.881240e+04 -4.379748e+03 1.521727e+04
-3.519906e+09 -3.320218e+09 -3.480229e+09 -3.105037e+04 -9.493305e+03 8.646780e+04
-1.630105e+09 -1.430167e+09 -1.590170e+09 -5.531770e+03 -1.438780e+04 7.825735e+04
-1.592128e+09 -1.392175e+09 -1.552197e+09 -9.494751e+03 -6.462741e+03 9.057872e+03
-3.385363e+09 -3.185440e+09 -3.345509e+09 6.335768e+04 1.518643e+04 3.683000e+04
-3.600197e+09 -3.400285e+09 -3.560319e+09 -2.404726e+04 -8.136655e+03 1.933277e+04
-3.193080e+09 -2.993163e+09 -3.153184e+09 -8.859365e+03 -8.103043e+03 1.516791e+04
-3.599746e+09 -3.399815e+09 -3.559851e+09 -2.251346e+04 -7.032353e+03 1.369366e+04
-2.969837e+09 -2.770409e+09 -2.929936e+09 2.338051e+05 -3.221855e+04 -1.588532e+05
-1.921412e+09 -1.721430e+09 -1.881465e+09 1.975849e+04 1.250797e+04 1.267462e+04
-2.002678e+09 -1.802717e+09 -1.962744e+09 1.235629e+04 2.506245e+03 6.359124e+03
-3.510990e+09 -3.311079e+09 -3.471139e+09 -6.251249e+04 -2.444149e+04 3.637865e+04
-3.115356e+09 -2.915425e+09 -3.075470e+09 -2.410521e+04 -1.060709e+04 2.515215e+04
-1.884584e+09 -1.684619e+09 -1.844646e+09 1.035073e+04 4.069993e+03 4.862113e+03
-2.049973e+09 -1.850019e+09 -2.010045e+09 -1.609599e+04 -8.490969e+03 1.410937e+04
-1.646661e+09 -1.446707e+09 -1.606728e+09 -1.165929e+04 -9.747397e+03 1.716338e+04
-3.601726e+09 -3.401804e+09 -3.561845e+09 -3.546767e+04 -1.081426e+04 1.851503e+04
-1.693850e+09 -1.493908e+09 -1.653925e+09 -1.256228e+04 -1.565953e+04 3.406925e+04
-1.779956e+09 -1.580009e+09 -1.740029e+09 -2.154784e+04 -1.795524e+04 2.707585e+04
-3.204084e+09 -3.004130e+09 -3.164161e+09 1.600804e+04 2.462424e+03 7.236300e+03
-1.590219e+09 -1.390227e+09 -1.550256e+09 -2.122910e+04 -3.724356e+04 4.578946e+04
-2.089756e+09 -1.889823e+09 -2.049842e+09 -1.853483e+04 -1.152184e+04 2.841084e+04
-1.554585e+09 -1.354656e+09 -1.514665e+09 -7.340879e+03 -5.493872e+03 3.135495e+04
-1.585861e+09 -1.385851e+09 -1.545771e+09 9.518416e+03 8.053650e+04 2.285937e+03
-1.585847e+09 -1.385871e+09 -1.545743e+09 -6.752141e+03 1.056628e+05 5.171766e+04
-2.526340e+09 -2.325979e+09 -2.486024e+09 4.934850e+04 5.899571e+04 2.970302e+04
-1.877054e+09 -1.677091e+09 -1.837119e+09 1.714945e+04 1.989054e+04 2.698749e+04
-1.771972e+09 -1.571895e+09 -1.731790e+09 2.636527e+04 6.621836e+04 8.163931e+03
-3.581130e+09 -3.381487e+09 -3.541438e+09 2.108025e+05 4.223012e+04 1.239915e+05
-3.567088e+09 -3.367201e+09 -3.527295e+09 -8.974259e+04 -3.444827e+04 5.638026e+04
-3.603293e+09 -3.403815e+09 -3.563180e+09 3.637724e+05 9.889097e+04 7.867040e+04
-3.581052e+09 -3.381450e+09 -3.541403e+09 2.793239e+05 3.463505e+04 5.501902e+04
-3.038895e+09 -2.839759e+09 -2.998999e+09 6.708759e+04 2.610041e+04 -1.686713e+05
-2.836268e+09 -2.636645e+09 -2.794879e+09 6.691991e+05 -5.935833e+05 -1.131135e+06
-2.246167e+09 -2.046186e+09 -2.206227e+09 1.981848e+04 1.051763e+04 1.087668e+04
-2.882111e+09 -2.682170e+09 -2.841103e+09 -4.457312e+05 1.840046e+05 -2.592481e+05
-3.501382e+09 -3.301278e+09 -3.461508e+09 -1.226276e+05 5.119257e+04 -2.959773e+04
-3.500295e+09 -3.300195e+09 -3.460368e+09 -6.359374e+04 4.834580e+04 -2.551298e+04
-1.574680e+09 -1.374629e+09 -1.534679e+09 -1.159169e+03 8.049031e+04 -2.822575e+04
-3.244269e+09 -3.044326e+09 -3.204370e+09 2.290573e+04 9.770634e+03 1.861495e+04
-3.159935e+09 -2.960105e+09 -3.120148e+09 3.873054e+04 1.857101e+04 6.090056e+04
-3.268444e+09 -3.068460e+09 -3.228508e+09 1.807744e+04 5.316021e+03 7.763177e+03
-3.568362e+09 -3.368382e+09 -3.528428e+09 1.721466e+04 5.891590e+03 5.190722e+03
-3.477218e+09 -3.277237e+09 -3.437274e+09 1.235904e+04 2.674626e+03 2.175547e+03
-1.679630e+09 -1.479667e+09 -1.639695e+09 -8.765564e+03 -4.556650e+03 6.853314e+03
-3.603824e+09 -3.404090e+09 -3.564128e+09 6.523636e+04 2.280024e+04 7.341249e+04
-3.346890e+09 -3.147067e+09 -3.307106e+09 4.090111e+04 1.686953e+04 5.551781e+04
-1.842603e+09 -1.642630e+09 -1.802668e+09 2.446278e+04 1.580702e+04 2.440179e+04
-3.414526e+09 -3.214582e+09 -3.374639e+09 3.835569e+04 1.356434e+04 2.444056e+04
-2.408958e+09 -2.209057e+09 -2.369090e+09 4.592931e+04 4.396120e+04 9.093048e+04
-1.583863e+09 -1.383910e+09 -1.543922e+09 1.728975e+04 3.212898e+04 6.399920e+04
-3.604826e+09 -3.404995e+09 -3.565034e+09 5.950884e+04 1.377780e+04 4.871578e+04
-1.849649e+09 -1.649930e+09 -1.808507e+09 -2.065810e+05 -4.752810e+05 8.455104e+05
-1.852370e+09 -1.651877e+09 -1.811989e+09 -6.680491e+04 -3.570570e+05 4.872914e+03
-2.346032e+09 -2.146553e+09 -2.304078e+09 -3.549173e+05 -5.139845e+05 5.586896e+05
-1.781578e+09 -1.581637e+09 -1.741336e+09 -1.806789e+05 -9.085679e+04 5.996024e+05
-1.841856e+09 -1.641889e+09 -1.801918e+09 -1.284796e+04 -8.124374e+03 1.197703e+04
-3.377072e+09 -3.177093e+09 -3.337171e+09 -4.195628e+04 -2.259320e+04 2.864109e+04
-3.601726e+09 -3.401762e+09 -3.561806e+09 -1.968138e+04 -7.425299e+03 7.520344e+03
-3.226773e+09 -3.026784e+09 -3.186854e+09 -3.480142e+04 -2.123820e+04 1.567155e+04
-3.084850e+09 -2.884901e+09 -3.044941e+09 -2.018586e+04 -9.238920e+03 1.280634e+04
-3.481599e+09 -3.281638e+09 -3.441670e+09 -1.538470e+04 -2.798101e+03 5.704983e+03
-3.605978e+09 -3.405980e+09 -3.566089e+09 -5.196219e+04 -3.164171e+04 2.447197e+04
-3.468318e+09 -3.268488e+09 -3.428518e+09 1.578876e+04 5.301267e+03 4.472973e+04
-1.565452e+09 -1.365531e+09 -1.525534e+09 -1.837372e+03 -2.192356e+03 3.314213e+04
-2.108222e+09 -1.908236e+09 -2.068287e+09 -2.945827e+04 -2.769639e+04 2.927375e+04
-3.018815e+09 -2.818797e+09 -2.978895e+09 -4.340649e+04 -3.635910e+04 3.104323e+04
-3.169589e+09 -2.968981e+09 -3.129143e+09 -8.925094e+04 1.532325e+04 3.390186e+04
-3.267249e+09 -3.067356e+09 -3.227377e+09 -1.609313e+04 -9.329296e+03 2.287274e+04
-2.160839e+09 -1.960617e+09 -2.120639e+09 -1.754098e+05 7.962451e+04 2.822209e+04
-2.391025e+09 -2.190697e+09 -2.350874e+09 -4.821264e+04 1.170420e+05 -2.898417e+04
-3.546749e+09 -3.346845e+09 -3.499422e+09 4.306508e+05 -7.072985e+05 -1.872091e+06
-2.501061e+09 -2.299825e+09 -2.457889e+09 7.004481e+05 -2.604887e+06 -1.486286e+06
-3.305358e+09 -3.105329e+09 -3.262026e+09 8.888536e+05 -7.465083e+05 -9.649919e+05
-3.046668e+09 -2.845599e+09 -3.004528e+09 -2.968056e+05 4.944514e+05 -1.821718e+05
-2.140571e+09 -1.939394e+09 -2.095462e+09 -6.695855e+05 -4.210471e+06 3.988419e+05
-2.269505e+09 -2.070609e+09 -2.227968e+09 -4.768866e+05 2.524132e+05 -1.978846e+06
-1.757604e+09 -1.557288e+09 -1.717453e+09 -3.628899e+04 4.867386e+04 3.711721e+04
-1.597971e+09 -1.397965e+09 -1.557263e+09 3.832763e+04 3.591221e+05 3.799048e+05
-3.583733e+09 -3.384856e+09 -3.543206e+09 4.013129e+05 -8.180994e+03 4.677392e+05
-3.178053e+09 -2.977115e+09 -3.136980e+09 -1.510210e+05 -2.742145e+05 1.591856e+05
-1.790804e+09 -1.591352e+09 -1.750037e+09 1.864840e+05 3.199474e+05 1.168656e+06
-1.612822e+09 -1.412872e+09 -1.572892e+09 1.751370e+04 1.434487e+04 2.962963e+04
-3.578289e+09 -3.377117e+09 -3.537348e+09 3.925196e+04 -5.746744e+04 9.553696e+04
-2.432585e+09 -2.232667e+09 -2.392688e+09 1.280721e+04 8.697563e+03 3.141241e+04
-3.176068e+09 -2.975400e+09 -3.135402e+09 -1.692978e+05 -4.210143e+04 -6.529997e+03
-1.600527e+09 -1.400576e+09 -1.560596e+09 1.428753e+04 8.816928e+03 1.852443e+04
-1.608435e+09 -1.408425e+09 -1.568365e+09 -2.717394e+03 1.011722e+05 -8.141432e+04
-1.803379e+09 -1.603418e+09 -1.763448e+09 2.256840e+04 1.105088e+04 2.147194e+04
-3.519043e+09 -3.319775e+09 -3.477698e+09 4.622332e+05 -5.741093e+04 -4.065603e+05
-1.717285e+09 -1.517480e+09 -1.676516e+09 1.901723e+04 -6.300757e+04 -8.206407e+05
-2.121274e+09 -1.920897e+09 -2.081015e+09 -2.195216e+04 1.572341e+04 -2.160971e+03
-1.577053e+09 -1.377070e+09 -1.536491e+09 -1.040643e+04 7.007434e+04 -2.423942e+05
-2.606600e+09 -2.407726e+09 -2.565665e+09 1.764997e+05 -2.080504e+05 -3.807419e+05
-2.719014e+09 -2.518889e+09 -2.679090e+09 -7.431580e+04 7.485000e+04 -3.066204e+04
-2.996723e+09 -2.796357e+09 -2.956531e+09 -1.039335e+05 8.627257e+04 -3.965202e+04
-3.581763e+09 -3.381233e+09 -3.541692e+09 -1.376845e+05 1.141069e+05 -4.396495e+04
-3.591874e+09 -3.391567e+09 -3.551914e+09 -1.098949e+05 9.225965e+04 -3.786053e+04
-2.699181e+09 -2.498454e+09 -2.658598e+09 5.322736e+03 1.249976e+05 2.542720e+04
-2.125072e+09 -1.924768e+09 -2.084921e+09 1.594595e+04 6.849568e+04 2.624556e+04
-1.756770e+09 -1.556617e+09 -1.716404e+09 3.610538e+04 -1.436587e+05 4.534749e+04
-1.867840e+09 -1.667843e+09 -1.827888e+09 1.843921e+04 1.137809e+04 1.031811e+04
-1.675454e+09 -1.475392e+09 -1.635469e+09 4.970294e+03 -7.017147e+04 -3.172725e+04
-3.578058e+09 -3.377143e+09 -3.537076e+09 1.079077e+05 7.309605e+04 -3.389940e+04
-2.754832e+09 -2.554631e+09 -2.714871e+09 -5.596807e+04 1.127033e+05 -3.695078e+04
-3.188799e+09 -2.988613e+09 -3.148828e+09 4.258366e+04 -7.044674e+04 -3.751781e+04
-1.689880e+09 -1.489827e+09 -1.649901e+09 1.107771e+04 -7.911105e+04 -4.356817e+04
-1.574102e+09 -1.374135e+09 -1.534162e+09 1.355057e+04 6.486006e+03 9.535143e+03
-3.363902e+09 -3.163930e+09 -3.323973e+09 1.892439e+04 5.823676e+03 6.565338e+03
-3.612203e+09 -3.412043e+09 -3.572277e+09 -8.064058e+04 6.939497e+04 -2.889185e+04
-1.577790e+09 -1.377822e+09 -1.537849e+09 1.613803e+04 1.212647e+04 1.618314e+04
-3.295297e+09 -3.095353e+09 -3.255383e+09 1.978152e+04 -3.801944e+02 1.174755e+04
-2.712362e+09 -2.512198e+09 -2.672388e+09 -5.237983e+04 7.674645e+04 -2.812371e+04
-2.648342e+09 -2.448212e+09 -2.608368e+09 -3.390579e+04 7.839588e+04 -2.282806e+04
-1.861650e+09 -1.661572e+09 -1.821669e+09 -2.385318e+04 5.822892e+04 -2.128593e+04
-2.481877e+09 -2.281638e+09 -2.441819e+09 -8.404248e+04 1.424520e+05 -4.550337e+04
-1.574674e+09 -1.374607e+09 -1.534677e+09 -3.531169e+03 8.221809e+04 -2.736202e+04
-2.625087e+09 -2.424827e+09 -2.585087e+09 1.089863e+05 -1.212431e+05 -3.382412e+04
-3.140351e+09 -2.940403e+09 -3.100431e+09 1.266343e+04 5.662700e+03 8.547195e+03
-3.563850e+09 -3.363874e+09 -3.523991e+09 -9.758469e+04 -4.510988e+04 5.150031e+04
-1.966361e+09 -1.766387e+09 -1.926422e+09 -3.235886e+04 -3.670216e+04 4.312328e+04
-3.605948e+09 -3.405958e+09 -3.566078e+09 -8.291330e+04 -3.038045e+04 3.250155e+04
-1.579111e+09 -1.379123e+09 -1.539158e+09 -1.670271e+04 -2.473869e+04 2.891907e+04
-3.570469e+09 -3.370105e+09 -3.530474e+09 1.093390e+05 -1.149465e+05 -4.201037e+04
-3.627814e+09 -3.427808e+09 -3.587872e+09 3.813070e+05 -2.545375e+04 -2.726104e+04
-2.311599e+09 -2.111711e+09 -2.271736e+09 -4.087587e+04 -3.083969e+04 7.255531e+04
-1.625900e+09 -1.425864e+09 -1.585743e+09 -2.338842e+04 -1.803476e+05 -1.737644e+04
-3.602942e+09 -3.402994e+09 -3.563044e+09 3.255826e+04 1.008403e+04 1.539908e+04
-2.399165e+09 -2.198960e+09 -2.359081e+09 5.021977e+04 -1.353414e+05 -5.235546e+04
-3.595315e+09 -3.395343e+09 -3.555401e+09 2.654100e+04 1.040574e+04 1.136280e+04
-1.790949e+09 -1.590794e+09 -1.750857e+09 3.909481e+03 -1.484415e+05 -5.281182e+04
-3.609728e+09 -3.409780e+09 -3.569821e+09 2.722640e+04 6.203350e+03 1.008832e+04
-2.260473e+09 -2.060481e+09 -2.220522e+09 1.584428e+04 6.395039e+03 6.001735e+03
-1.612823e+09 -1.412868e+09 -1.572891e+09 1.654475e+04 1.228933e+04 2.919041e+04
-3.425505e+09 -3.225568e+09 -3.385610e+09 2.768199e+04 8.944342e+03 1.868287e+04
-2.863199e+09 -2.663357e+09 -2.823380e+09 2.906673e+04 2.397488e+03 6.626771e+04
-3.239627e+09 -3.039756e+09 -3.199774e+09 9.700018e+03 6.358084e+03 2.948956e+04
-3.484083e+09 -3.284133e+09 -3.444195e+09 5.307489e+04 2.230421e+04 2.718242e+04
-2.202932e+09 -2.003023e+09 -2.163034e+09 6.279807e+03 2.288529e+03 2.244517e+04
-1.587356e+09 -1.387411e+09 -1.546980e+09 2.466573e+04 1.042314e+05 8.192008e+04
-2.607721e+09 -2.407809e+09 -2.567827e+09 1.609727e+04 8.323803e+03 2.427228e+04
-1.587248e+09 -1.387310e+09 -1.547320e+09 1.179763e+04 1.260176e+04 3.953352e+04
-1.579597e+09 -1.379586e+09 -1.539422e+09 -3.933345e+03 1.777516e+05 -1.461563e+04
-1.587339e+09 -1.387421e+09 -1.546959e+09 4.552489e+04 -6.047016e+04 3.786863e+04
-3.606140e+09 -3.406287e+09 -3.566319e+09 3.717659e+04 1.256180e+04 3.155378e+04
-1.776818e+09 -1.576560e+09 -1.736573e+09 -2.702715e+04 -8.926101e+05 4.912602e+06
-2.397666e+09 -2.197748e+09 -2.357772e+09 1.471538e+04 7.458736e+03 3.543561e+04
-1.807634e+09 -1.607467e+09 -1.767403e+09 8.137831e+03 9.366033e+04 -2.367770e+04
-3.590461e+09 -3.389570e+09 -3.549299e+09 -2.883074e+05 3.324450e+03 -3.099354e+04
-2.103526e+09 -1.903626e+09 -2.063686e+09 -1.457178e+05 6.664950e+04 -1.165525e+05
-1.578513e+09 -1.378477e+09 -1.538439e+09 1.587339e+04 1.058845e+05 -5.516814e+04
-1.669898e+09 -1.469943e+09 -1.629963e+09 -1.495022e+04 -2.318529e+04 4.545431e+04
-2.940562e+09 -2.740666e+09 -2.900694e+09 -2.741577e+04 -1.072579e+04 3.552589e+04
-2.105291e+09 -1.905376e+09 -2.065390e+09 -1.557522e+04 -1.002337e+04 3.158117e+04
-2.387938e+09 -2.187493e+09 -2.347508e+09 -6.895885e+04 -4.823678e+04 -5.406147e+04
-3.495754e+09 -3.295869e+09 -3.455904e+09 -3.514157e+04 -1.395463e+04 2.950447e+04
-3.493947e+09 -3.294074e+09 -3.454125e+09 -6.567018e+04 -2.165124e+04 4.751695e+04
-3.471779e+09 -3.271883e+09 -3.431935e+09 -5.560895e+04 -1.682515e+04 3.475922e+04
-2.359680e+09 -2.159710e+09 -2.319772e+09 -7.773491e+04 -7.113299e+04 8.155657e+04
-3.230319e+09 -3.030039e+09 -3.189394e+09 -4.421351e+05 -2.829262e+05 1.539249e+05
-2.842374e+09 -2.642292e+09 -2.801989e+09 -5.179934e+05 -8.935462e+04 1.148057e+05
-2.647834e+09 -2.448053e+09 -2.608071e+09 -4.179251e+04 -2.283222e+04 9.525918e+04
-3.134086e+09 -2.934723e+09 -3.093231e+09 -3.114737e+05 -3.192796e+05 3.977579e+05
-1.848899e+09 -1.648873e+09 -1.807867e+09 -1.419731e+05 -3.838966e+05 2.402101e+05
-2.653872e+09 -2.454006e+09 -2.614029e+09 -5.225343e+03 -5.760772e+03 5.201323e+04
-2.468513e+09 -2.268692e+09 -2.428200e+09 -2.568267e+05 -1.947093e+05 9.826422e+04
-2.149837e+09 -1.949766e+09 -2.109872e+09 -6.390581e+04 1.097660e+05 -6.023361e+04
-2.631091e+09 -2.431191e+09 -2.591234e+09 3.921841e+04 2.549208e+04 4.836942e+04
-1.873031e+09 -1.672972e+09 -1.832907e+09 -4.637808e+04 1.229359e+05 -6.050241e+04
-2.549778e+09 -2.349631e+09 -2.509765e+09 -1.533973e+05 8.563165e+04 -4.781856e+04
-1.615330e+09 -1.415392e+09 -1.575395e+09 -8.349490e+02 3.424415e+03 8.631899e+04
-1.718172e+09 -1.518252e+09 -1.678252e+09 -1.171278e+03 -6.124693e+03 9.819356e+04
-3.029234e+09 -2.830410e+09 -2.988894e+09 4.982024e+04 4.310695e+03 -7.474190e+05
-3.311815e+09 -3.112334e+09 -3.270805e+09 5.425300e+05 -3.037019e+05 -3.220872e+05
-1.839911e+09 -1.639131e+09 -1.796363e+09 1.552163e+05 -1.317190e+06 -6.485531e+06
-2.481697e+09 -2.280969e+09 -2.440473e+09 4.616327e+05 -5.906102e+05 -2.787121e+05
-2.977479e+09 -2.777423e+09 -2.937351e+09 -3.132954e+05 -1.087546e+05 6.682277e+04
-2.680155e+09 -2.480067e+09 -2.640250e+09 -1.049884e+05 9.967111e+04 -5.856953e+04
-2.313050e+09 -2.112985e+09 -2.273090e+09 -4.884666e+04 7.585867e+04 -4.219225e+04
-2.907026e+09 -2.706942e+09 -2.867078e+09 -2.708844e+04 4.664982e+04 -2.432324e+04
-2.594712e+09 -2.394640e+09 -2.554784e+09 -5.807176e+04 1.115369e+05 -5.328858e+04
-2.006765e+09 -1.806981e+09 -1.966855e+09 -8.398633e+04 7.746453e+04 -8.287394e+04
-2.619043e+09 -2.420025e+09 -2.578227e+09 -3.817579e+05 -3.882326e+05 1.181241e+06
-1.582494e+09 -1.382472e+09 -1.542497e+09 -4.277557e+03 1.013230e+05 -6.307672e+04
-2.575248e+09 -2.375110e+09 -2.535333e+09 -1.984865e+05 3.427954e+04 -3.294361e+04
-3.264008e+09 -3.063997e+09 -3.224182e+09 -1.709527e+05 9.709162e+04 -8.948449e+04
-1.980103e+09 -1.780006e+09 -1.940128e+09 5.102714e+04 7.803116e+04 1.411908e+04
-2.143591e+09 -1.943428e+09 -2.103576e+09 1.292283e+04 9.424140e+04 1.473120e+04
-1.889876e+09 -1.690087e+09 -1.849729e+09 -7.108394e+04 2.100377e+03 8.085697e+04
-2.023104e+09 -1.822992e+09 -1.983105e+09 9.136485e+04 1.470475e+05 8.470973e+04
-3.071268e+09 -2.871015e+09 -3.031262e+09 3.762998e+04 7.470732e+04 1.262860e+04
-3.475843e+09 -3.275608e+09 -3.435857e+09 2.254466e+04 5.592845e+04 6.304155e+03
-2.799210e+09 -2.599581e+09 -2.759195e+09 -1.908792e+05 -6.302030e+04 1.207104e+04
-2.585148e+09 -2.386030e+09 -2.544525e+09 2.092475e+05 -1.259644e+04 4.322756e+05
-1.965926e+09 -1.765868e+09 -1.925985e+09 -6.857541e+04 -8.618397e+04 4.233956e+04
-1.697305e+09 -1.497375e+09 -1.657256e+09 -1.473172e+04 -6.252949e+04 -1.421579e+04
-1.655193e+09 -1.455280e+09 -1.614500e+09 -5.639591e+04 -8.295123e+05 9.125722e+05
-1.619779e+09 -1.419855e+09 -1.579865e+09 5.345898e+03 5.763365e+02 3.741330e+04
-3.635131e+09 -3.435307e+09 -3.595336e+09 2.795958e+03 1.188538e+03 4.638304e+04
-3.635144e+09 -3.435328e+09 -3.595343e+09 1.100702e+04 1.831876e+03 4.632346e+04
-3.578582e+09 -3.378719e+09 -3.538745e+09 -2.689862e+03 -1.812736e+03 2.951802e+04
-2.572776e+09 -2.373301e+09 -2.531254e+09 -3.033114e+05 -6.690872e+05 7.206406e+05
-1.597769e+09 -1.397839e+09 -1.557846e+09 -6.599244e+03 -9.423515e+03 5.027764e+04
-3.623872e+09 -3.424048e+09 -3.584078e+09 -1.048679e+04 -2.756464e+03 4.625564e+04
-3.255843e+09 -3.055988e+09 -3.216008e+09 -4.447706e+03 -1.485375e+03 3.669427e+04
-2.967189e+09 -2.767291e+09 -2.927311e+09 -7.228244e+03 -4.017749e+03 2.384713e+04
-1.892740e+09 -1.692870e+09 -1.852793e+09 -9.470175e+04 4.794443e+04 -9.135971e+04
-3.070580e+09 -2.870820e+09 -3.030803e+09 8.601190e+04 5.493383e+04 9.827412e+04
-1.603843e+09 -1.403845e+09 -1.563436e+09 -4.485931e+03 -1.748869e+05 1.336385e+04
-2.456829e+09 -2.256819e+09 -2.416898e+09 4.280589e+04 4.501225e+04 3.946359e+04
-3.116128e+09 -2.916327e+09 -3.076354e+09 -6.190608e+03 -4.178151e+03 8.234446e+04
-2.666396e+09 -2.466502e+09 -2.626524e+09 1.918737e+04 1.427275e+04 4.015043e+04
-1.944678e+09 -1.744879e+09 -1.904773e+09 -1.208792e+05 2.485070e+04 -6.054095e+04
-1.616357e+09 -1.416432e+09 -1.576438e+09 2.547327e+03 -6.562403e+02 5.690539e+04
-2.405600e+09 -2.205737e+09 -2.365748e+09 -4.086176e+03 -5.788896e+03 7.667286e+04
-3.296631e+09 -3.096798e+09 -3.256828e+09 1.990651e+04 5.068341e+03 4.570220e+04
-3.394640e+09 -3.194779e+09 -3.354800e+09 1.765365e+03 -3.280518e+03 3.109305e+04
-3.615119e+09 -3.415983e+09 -3.573543e+09 -5.331948e+05 -3.771429e+05 4.072054e+05
-3.244980e+09 -3.044777e+09 -3.203424e+09 -7.730600e+05 -9.807794e+05 5.993429e+05
-2.959428e+09 -2.759373e+09 -2.919553e+09 1.335872e+05 7.788576e+04 5.596288e+04
-2.143982e+09 -1.943803e+09 -2.103962e+09 1.575549e+04 -8.818013e+04 -1.069902e+04
-1.881709e+09 -1.681692e+09 -1.841746e+09 1.693359e+04 1.996276e+04 1.697626e+04
-1.615710e+09 -1.415687e+09 -1.575716e+09 1.638534e+04 9.709089e+04 9.110559e+04
-1.600663e+09 -1.400641e+09 -1.560653e+09 1.404615e+04 9.961912e+04 6.341389e+04
-3.594399e+09 -3.393922e+09 -3.554220e+09 1.800394e+05 1.360816e+05 3.097459e+04
-1.607163e+09 -1.407132e+09 -1.567099e+09 -1.891737e+04 -1.060145e+05 -8.531506e+04
-3.244346e+09 -3.043692e+09 -3.204133e+09 1.226392e+05 -1.276713e+05 -1.193284e+05
-3.607426e+09 -3.406738e+09 -3.567045e+09 2.302744e+05 -6.446142e+04 -4.118313e+04
-1.593537e+09 -1.393507e+09 -1.553476e+09 -1.107962e+04 -1.789083e+05 2.046311e+03
-3.010545e+09 -2.810195e+09 -2.970405e+09 2.315849e+05 -1.100383e+05 -3.249405e+03
-1.574141e+09 -1.374112e+09 -1.534109e+09 1.685056e+03 -1.434410e+05 -5.254354e+04
-3.578591e+09 -3.378734e+09 -3.538751e+09 -8.518582e+03 -3.668852e+02 3.031071e+04
-1.573946e+09 -1.374012e+09 -1.534008e+09 -2.529593e+03 -5.703434e+03 8.307339e+04
-1.585858e+09 -1.385847e+09 -1.545816e+09 -2.618370e+03 2.200586e+05 5.064631e+04
-3.287973e+09 -3.088079e+09 -3.248099e+09 -2.493345e+03 -1.663792e+03 2.305742e+04
-2.055033e+09 -1.855151e+09 -2.015155e+09 -1.404717e+04 -1.179965e+04 6.434380e+04
-1.560120e+09 -1.360152e+09 -1.520165e+09 -1.606581e+04 -4.142506e+04 7.374276e+04
-1.573442e+09 -1.373423e+09 -1.533426e+09 1.965553e+03 9.104466e+04 5.780575e+04
-2.675537e+09 -2.475596e+09 -2.635654e+09 -5.922316e+04 -3.971758e+04 4.512332e+04
-3.604356e+09 -3.404122e+09 -3.564406e+09 1.810825e+05 7.743608e+04 4.338816e+04
-3.599714e+09 -3.399799e+09 -3.559888e+09 -1.003911e+05 -4.086782e+04 6.588030e+04
-3.589695e+09 -3.389699e+09 -3.549791e+09 4.721452e+04 2.026624e+04 1.942424e+04
-2.689439e+09 -2.489554e+09 -2.647881e+09 -8.542564e+05 8.135675e+05 -1.273479e+06
-3.573169e+09 -3.374274e+09 -3.520832e+09 1.079222e+05 -1.622584e+05 -1.688763e+06
-2.915808e+09 -2.715944e+09 -2.875995e+09 -9.136736e+04 -4.645873e+04 8.881309e+04
-3.593861e+09 -3.393883e+09 -3.551735e+09 -8.263737e+05 4.825764e+05 -1.804518e+05
-3.616636e+09 -3.418006e+09 -3.576226e+09 -3.062751e+05 5.899823e+04 -5.741511e+05
-3.145569e+09 -2.945689e+09 -3.099542e+09 -1.098852e+06 1.484787e+06 -3.007165e+06
-2.689137e+09 -2.488792e+09 -2.645513e+09 -7.672558e+05 2.872148e+06 -1.570262e+06
-3.601040e+09 -3.401056e+09 -3.561115e+09 2.727919e+04 9.163764e+03 9.535922e+03
-1.946933e+09 -1.747028e+09 -1.902601e+09 -1.563392e+05 1.842441e+06 -2.775606e+06
-1.587304e+09 -1.386770e+09 -1.543157e+09 3.236406e+05 1.137868e+06 -3.071592e+06
-1.751954e+09 -1.551995e+09 -1.712021e+09 -2.442983e+04 -2.725462e+04 3.684482e+04
-3.380753e+09 -3.180764e+09 -3.340866e+09 -6.126739e+04 -2.798801e+04 3.648384e+04
-1.989225e+09 -1.789124e+09 -1.948880e+09 3.250311e+05 5.401007e+05 3.085648e+05
-1.582416e+09 -1.382381e+09 -1.542444e+09 1.457073e+04 4.352662e+04 3.030234e+04
-2.464112e+09 -2.264073e+09 -2.424181e+09 5.424779e+04 6.556884e+04 4.662475e+04
-3.602680e+09 -3.402142e+09 -3.561439e+09 5.719028e+05 4.005053e+05 2.051235e+05
-3.591533e+09 -3.391336e+09 -3.549763e+09 7.206048e+05 2.443995e+05 3.251780e+05
-3.345318e+09 -3.145233e+09 -3.305393e+09 5.349034e+04 4.189857e+04 2.952238e+04
-1.840557e+09 -1.640542e+09 -1.800609e+09 3.718786e+04 4.161503e+04 3.141043e+04
-1.644047e+09 -1.444023e+09 -1.604078e+09 1.715892e+04 5.005908e+04 4.054877e+04
-1.584419e+09 -1.384385e+09 -1.543571e+09 7.121952e+04 3.898949e+05 5.647858e+05
-3.500123e+09 -3.300105e+09 -3.460206e+09 -5.059489e+04 -2.538290e+04 2.114532e+04
-2.786162e+09 -2.584976e+09 -2.744528e+09 3.895162e+05 6.577795e+05 -1.630367e+03
-1.562468e+09 -1.362441e+09 -1.522436e+09 3.470600e+03 -1.069671e+05 -5.126262e+04
-2.147223e+09 -1.947125e+09 -2.107230e+09 -1.799168e+04 5.202263e+04 -2.043936e+04
-1.860255e+09 -1.660140e+09 -1.820237e+09 1.561360e+04 6.815940e+04 -2.193934e+04
-1.674119e+09 -1.474102e+09 -1.634090e+09 -1.541633e+04 -1.629025e+05 -8.507688e+04
-1.996425e+09 -1.796322e+09 -1.956441e+09 -2.167290e+04 4.129310e+04 -1.618524e+04
-1.985102e+09 -1.785020e+09 -1.945103e+09 -6.625569e+01 5.265415e+04 -2.407538e+04
-3.607454e+09 -3.406853e+09 -3.566980e+09 1.635855e+05 -1.130857e+05 -1.713595e+04
-2.204905e+09 -2.004728e+09 -2.164907e+09 -1.078403e+05 1.516317e+05 -6.144261e+04
-3.219788e+09 -3.019760e+09 -3.179870e+09 -4.874573e+04 -3.978684e+04 2.405626e+04
-2.204325e+09 -2.004251e+09 -2.164362e+09 -6.391873e+04 8.684528e+04 -6.201430e+04
-3.429475e+09 -3.229450e+09 -3.389585e+09 -7.881523e+04 -3.552844e+04 4.356737e+04
-2.005377e+09 -1.805643e+09 -1.965372e+09 -3.274924e+04 4.263110e+04 -2.453824e+04
-2.008024e+09 -1.807961e+09 -1.968040e+09 -1.037119e+04 5.619536e+04 -3.200881e+04
-1.768848e+09 -1.568608e+09 -1.728403e+09 8.549832e+04 -7.277889e+03 -4.038912e+04
-3.271729e+09 -3.071572e+09 -3.231763e+09 -3.208182e+04 5.264381e+04 -1.138798e+04
-2.266621e+09 -2.066657e+09 -2.226682e+09 -9.956709e+03 -3.180956e+03 3.476434e+03
-1.929375e+09 -1.729407e+09 -1.889437e+09 -1.284065e+04 -6.258249e+03 7.986345e+03
-3.580099e+09 -3.379665e+09 -3.539902e+09 -2.777899e+05 -8.523517e+04 6.612066e+04
-3.122469e+09 -2.922207e+09 -3.082064e+09 -4.012197e+05 -9.805281e+04 1.077251e+05
-2.294696e+09 -2.094680e+09 -2.254754e+09 -9.467964e+04 1.114731e+05 -6.955670e+04
-3.599471e+09 -3.399209e+09 -3.559279e+09 -3.943611e+05 -1.715141e+04 6.236806e+04
-3.594959e+09 -3.394804e+09 -3.555067e+09 -2.748377e+05 9.306966e+04 -7.179554e+04
-2.527328e+09 -2.327322e+09 -2.487466e+09 -1.891332e+05 -8.743897e+04 7.588744e+04
-2.128127e+09 -1.927938e+09 -2.087771e+09 -1.304751e+05 -9.307616e+04 1.187320e+05
-1.611261e+09 -1.411227e+09 -1.571014e+09 -4.713829e+03 5.210868e+04 5.457811e+04
-3.596283e+09 -3.396048e+09 -3.555153e+09 -6.640010e+05 -1.479521e+05 2.370038e+05
-2.689619e+09 -2.489744e+09 -2.649776e+09 -3.026429e+05 -2.737236e+04 -1.206875e+04
-1.692020e+09 -1.491891e+09 -1.651406e+09 -2.741505e+04 2.749088e+05 -1.414915e+05
-3.541137e+09 -3.340592e+09 -3.500789e+09 -3.394565e+05 9.089649e+04 -2.952805e+04
-1.830749e+09 -1.630837e+09 -1.790720e+09 -9.955920e+04 4.454637e+04 -3.559085e+04
-1.686062e+09 -1.486052e+09 -1.645865e+09 -5.894618e+03 4.228994e+04 8.617375e+02
-1.578510e+09 -1.378473e+09 -1.538494e+09 -1.060607e+04 1.432758e+05 -5.355454e+04
-1.787839e+09 -1.587736e+09 -1.747792e+09 4.596929e+03 1.026337e+05 -2.158783e+04
-1.598630e+09 -1.398644e+09 -1.558679e+09 1.517947e+04 1.104415e+04 1.176035e+04
-1.578509e+09 -1.378481e+09 -1.538433e+09 4.249668e+03 1.139167e+05 -1.371504e+04
-3.340849e+09 -3.140198e+09 -3.300522e+09 -2.155167e+05 1.320412e+05 -2.659657e+04
-3.494302e+09 -3.293480e+09 -3.453050e+09 -3.620123e+05 1.371369e+03 -7.768425e+04
-2.415072e+09 -2.214858e+09 -2.374321e+09 -2.902480e+05 -2.856533e+05 2.474857e+05
-1.686089e+09 -1.486052e+09 -1.645837e+09 -6.227831e+03 4.303566e+04 -7.097347e+04
-2.230813e+09 -2.030230e+09 -2.190313e+09 -1.424240e+05 -1.005637e+05 8.918986e+04
-1.548958e+09 -1.348953e+09 -1.508471e+09 -2.428537e+04 2.697238e+05 -1.291433e+05
-2.555763e+09 -2.355927e+09 -2.515900e+09 -2.256358e+05 6.977160e+03 -5.012342e+04
-2.039359e+09 -1.839236e+09 -1.999353e+09 -2.204447e+04 7.812959e+04 -2.553509e+04
-3.523229e+09 -3.322685e+09 -3.482686e+09 -4.050676e+05 -9.287825e+03 5.479311e+04
-3.207503e+09 -3.006693e+09 -3.165620e+09 -7.287635e+05 -9.536284e+05 8.718928e+05
-2.573221e+09 -2.372850e+09 -2.533135e+09 -1.236423e+05 9.993746e+04 -2.762751e+04
-3.262372e+09 -3.062466e+09 -3.222625e+09 2.329631e+05 -8.917971e+04 -7.939140e+04
-1.950560e+09 -1.750608e+09 -1.910636e+09 9.377003e+04 9.237911e+04 1.290715e+05
-2.082948e+09 -1.882989e+09 -2.043014e+09 -1.303313e+04 -4.839952e+03 9.387747e+03
-2.136729e+09 -1.936695e+09 -2.096798e+09 7.746463e+04 -1.026442e+05 -6.923231e+04
-1.592134e+09 -1.392177e+09 -1.552199e+09 -1.112197e+04 -6.282944e+03 1.164026e+04
-2.371007e+09 -2.170848e+09 -2.330976e+09 -3.494689e+04 1.400364e+05 -1.747249e+04
-1.698691e+09 -1.498742e+09 -1.658760e+09 -9.051580e+03 -3.958450e+03 9.381799e+03
-3.222798e+09 -3.022862e+09 -3.182889e+09 -1.652762e+04 -2.701261e+03 1.053493e+04
-3.315105e+09 -3.115109e+09 -3.275206e+09 -5.601111e+04 -3.258593e+04 1.870702e+04
-3.147428e+09 -2.947487e+09 -3.107519e+09 -1.824719e+04 -6.246487e+03 1.481995e+04
-3.367360e+09 -3.167385e+09 -3.327504e+09 -9.073537e+04 -3.907058e+04 5.645190e+04
-3.602272e+09 -3.402293e+09 -3.562373e+09 -3.954976e+04 -1.608887e+04 1.655158e+04
-3.289825e+09 -3.089515e+09 -3.249817e+09 2.454196e+04 -8.565285e+04 -2.324766e+04
-2.936028e+09 -2.736032e+09 -2.896099e+09 -2.796189e+04 -1.763731e+04 1.820025e+04
-2.693788e+09 -2.493812e+09 -2.653871e+09 -3.820461e+04 -2.311394e+04 2.808028e+04
-3.378848e+09 -3.178888e+09 -3.338985e+09 -7.322044e+04 -4.712581e+04 4.058935e+04
-1.574104e+09 -1.374129e+09 -1.534163e+09 1.127494e+04 5.653659e+03 7.299078e+03
-1.874842e+09 -1.674868e+09 -1.834900e+09 1.223122e+04 4.418357e+03 5.639286e+03
-1.993040e+09 -1.793055e+09 -1.953094e+09 -1.466934e+04 -1.432631e+04 1.604990e+04
-1.889314e+09 -1.689339e+09 -1.849373e+09 -1.601778e+04 -1.317371e+04 1.839934e+04
-1.968676e+09 -1.768703e+09 -1.928741e+09 -1.803010e+04 -1.069744e+04 1.194924e+04
-3.169999e+09 -2.970024e+09 -3.130072e+09 -1.924645e+04 -1.008475e+04 1.309630e+04
-1.988638e+09 -1.788631e+09 -1.948699e+09 5.244195e+04 6.227976e+04 5.499830e+04
-1.593772e+09 -1.393780e+09 -1.553815e+09 2.266724e+04 5.322717e+04 5.521295e+04
-1.893323e+09 -1.693318e+09 -1.853327e+09 -1.399486e+04 8.671810e+04 -6.823501e+04
-1.893502e+09 -1.693435e+09 -1.853549e+09 -4.811679e+04 8.520357e+04 -5.302545e+04
-2.167962e+09 -1.967995e+09 -2.128022e+09 1.016644e+04 1.982438e+03 4.306599e+03
-3.608890e+09 -3.408926e+09 -3.568960e+09 1.480977e+04 3.151128e+03 4.127336e+03
-3.500025e+09 -3.299899e+09 -3.460092e+09 -6.473039e+04 4.615802e+04 -1.726938e+04
-2.088279e+09 -1.888310e+09 -2.048340e+09 1.694523e+04 9.923921e+03 8.157417e+03
-2.619966e+09 -2.420015e+09 -2.580058e+09 2.959291e+04 1.812152e+04 3.181297e+04
-3.197745e+09 -2.997673e+09 -3.157793e+09 -2.805418e+04 3.964704e+04 -1.485256e+04
-1.875586e+09 -1.675662e+09 -1.834051e+09 -2.736411e+04 4.666051e+06 -1.621132e+06
-3.406146e+09 -3.205887e+09 -3.366159e+09 -3.825041e+04 7.744075e+04 -2.194235e+04
-3.590678e+09 -3.390709e+09 -3.550787e+09 5.159054e+04 1.485566e+04 1.810770e+04
-2.700380e+09 -2.500377e+09 -2.660441e+09 2.678204e+04 2.134842e+04 1.850933e+04
-2.479542e+09 -2.279534e+09 -2.439596e+09 2.205000e+04 1.576464e+04 1.798256e+04
-3.058165e+09 -2.858109e+09 -3.018238e+09 5.584493e+04 4.807210e+04 3.813673e+04
-2.741629e+09 -2.539730e+09 -2.695180e+09 8.181004e+05 2.697680e+06 1.347439e+06
-3.597641e+09 -3.397606e+09 -3.557726e+09 5.875450e+04 3.114448e+04 2.085334e+04
-2.215583e+09 -2.015493e+09 -2.175615e+09 -3.345049e+04 6.977004e+04 -3.609925e+04
-3.543876e+09 -3.343633e+09 -3.503929e+09 1.206006e+05 -9.102704e+04 -4.909846e+04
-3.394426e+09 -3.192568e+09 -3.350630e+09 -4.071817e+04 1.491888e+06 -1.635615e+05
-2.661775e+09 -2.461514e+09 -2.621743e+09 3.746686e+04 -9.806728e+04 -4.680983e+03
-2.589616e+09 -2.388216e+09 -2.545697e+09 5.080900e+05 1.911417e+06 4.031377e+05
-2.955144e+09 -2.754923e+09 -2.915163e+09 4.252811e+04 -1.134641e+05 -3.444722e+04
-1.698282e+09 -1.498298e+09 -1.658336e+09 -1.402463e+04 -1.544233e+04 1.419805e+04
-3.485077e+09 -3.285107e+09 -3.445162e+09 -2.745568e+04 -1.032957e+04 1.169172e+04
-3.107434e+09 -2.907451e+09 -3.067529e+09 -4.654226e+04 -2.536500e+04 2.487403e+04
-1.827492e+09 -1.627398e+09 -1.787515e+09 -4.871053e+04 -8.043784e+04 6.823633e+04
-1.806512e+09 -1.606560e+09 -1.766518e+09 -3.947059e+04 -1.167597e+05 8.521657e+04
-1.588938e+09 -1.388968e+09 -1.548984e+09 1.738937e+04 3.644319e+04 6.265430e+04
-1.760516e+09 -1.560343e+09 -1.720508e+09 -2.854338e+04 -1.730450e+05 4.809337e+04
-1.584612e+09 -1.384632e+09 -1.544643e+09 2.081394e+04 5.279287e+04 6.624280e+04
-3.610516e+09 -3.410349e+09 -3.570607e+09 -1.548379e+05 -6.808251e+04 4.355393e+04
-2.977417e+09 -2.777309e+09 -2.937462e+09 -3.473030e+04 4.812131e+04 -1.590994e+04
-3.571239e+09 -3.370952e+09 -3.531280e+09 -1.503917e+05 -9.592351e+04 4.441457e+04
-2.756885e+09 -2.556957e+09 -2.717013e+09 6.765989e+04 3.899784e+04 6.385877e+04
-2.751892e+09 -2.551961e+09 -2.712042e+09 1.076962e+05 4.877990e+04 6.009524e+04
-1.971047e+09 -1.771067e+09 -1.931125e+09 7.947040e+04 6.568104e+04 7.917124e+04
-2.058924e+09 -1.858884e+09 -2.018965e+09 5.188432e+04 5.536778e+04 4.301739e+04
-1.881213e+09 -1.680975e+09 -1.841198e+09 1.393608e+04 -1.805248e+05 -9.647177e+03
-3.601565e+09 -3.401031e+09 -3.561458e+09 4.896810e+04 -1.333281e+05 6.647818e+03
-1.847515e+09 -1.647415e+09 -1.807342e+09 1.719751e+04 -1.482842e+05 -2.776265e+04
-2.500695e+09 -2.300719e+09 -2.460789e+09 5.277775e+04 4.310959e+04 6.121649e+04
-3.195768e+09 -2.995851e+09 -3.155912e+09 4.999283e+04 2.545456e+04 4.831668e+04
-2.630069e+09 -2.430248e+09 -2.590267e+09 5.037758e+04 3.118400e+04 8.840257e+04
-3.094571e+09 -2.893981e+09 -3.054193e+09 -4.196811e+04 -3.327638e+04 -2.577889e+04
-1.794775e+09 -1.594851e+09 -1.754873e+09 3.139231e+04 2.466802e+04 4.978468e+04
-1.571871e+09 -1.371856e+09 -1.531820e+09 2.661211e+02 -1.610815e+05 1.520758e+04
-1.573132e+09 -1.373172e+09 -1.533158e+09 1.552803e+04 7.557798e+04 1.025286e+05
-1.789326e+09 -1.589435e+09 -1.748950e+09 -4.019793e+05 -5.181684e+05 1.785723e+06
-2.737446e+09 -2.537201e+09 -2.696881e+09 -3.270272e+05 -4.048736e+04 2.009994e+04
-3.199463e+09 -2.999618e+09 -3.159673e+09 8.067972e+04 2.971320e+04 8.152149e+04
-3.588512e+09 -3.389882e+09 -3.548256e+09 7.179076e+03 -1.272181e+04 1.580367e+05
-1.655486e+09 -1.455414e+09 -1.614650e+09 3.448568e+04 -2.395718e+05 1.787179e+05
-1.577282e+09 -1.377333e+09 -1.536667e+09 1.030790e+04 -5.466915e+04 3.577097e+05
-3.590514e+09 -3.390553e+09 -3.550715e+09 -2.411583e+05 -9.282916e+04 8.982919e+04
-3.530526e+09 -3.330477e+09 -3.490545e+09 -3.380752e+05 -7.440031e+04 1.022030e+05
-2.723402e+09 -2.523213e+09 -2.683397e+09 2.964511e+03 9.911917e+04 -4.587774e+03
-1.568915e+09 -1.368876e+09 -1.528904e+09 3.176597e+03 1.266040e+05 -4.866843e+04
-1.689106e+09 -1.489115e+09 -1.649157e+09 1.388453e+04 8.571961e+03 9.643237e+03
-3.324189e+09 -3.124159e+09 -3.284206e+09 -2.577269e+05 -7.848610e+04 8.873536e+04
-3.203320e+09 -3.003243e+09 -3.163394e+09 -4.915815e+04 6.402016e+04 -3.307462e+04
-1.596045e+09 -1.395988e+09 -1.556049e+09 1.653557e+03 8.821483e+04 -3.748244e+04
-1.698366e+09 -1.498328e+09 -1.658392e+09 -8.657497e+03 6.113886e+04 -3.307226e+04
-2.609499e+09 -2.410444e+09 -2.568596e+09 3.826625e+04 -6.276157e+04 -4.471636e+05
-3.595739e+09 -3.396190e+09 -3.556116e+09 7.352360e+04 8.196030e+03 1.142341e+05
-1.674007e+09 -1.473945e+09 -1.634017e+09 1.145843e+04 5.444730e+04 1.757900e+04
-1.893863e+09 -1.693768e+09 -1.853856e+09 -3.509840e+03 7.051307e+04 2.042624e+04
-2.946004e+09 -2.746801e+09 -2.905451e+09 2.552226e+05 -8.184522e+04 -6.301521e+05
-2.175468e+09 -1.975323e+09 -2.135474e+09 2.985058e+04 8.978263e+04 1.887726e+04
-3.595719e+09 -3.395434e+09 -3.555728e+09 7.922797e+04 9.648648e+04 2.328357e+04
-3.603483e+09 -3.403985e+09 -3.563319e+09 5.059332e+05 4.395694e+04 -1.241121e+04
-1.603966e+09 -1.404040e+09 -1.564042e+09 -3.811353e+03 -5.245319e+03 5.408718e+04
-3.356985e+09 -3.157287e+09 -3.317301e+09 3.172056e+04 1.048417e+04 9.167270e+04
-1.782362e+09 -1.582267e+09 -1.742062e+09 1.548775e+05 9.699247e+03 -2.262389e+04
-1.577203e+09 -1.377240e+09 -1.536949e+09 5.261819e+01 -2.383194e+05 -1.265258e+05
-2.115723e+09 -1.916102e+09 -2.070372e+09 3.396259e+05 -2.902410e+06 -5.190273e+06
-2.577937e+09 -2.378440e+09 -2.524292e+09 1.268938e+05 -6.481144e+05 -4.939106e+06
-2.407312e+09 -2.207886e+09 -2.354152e+09 2.169640e+05 7.767290e+05 -5.057310e+06
-2.397606e+09 -2.197241e+09 -2.343967e+09 7.516398e+04 6.164096e+05 -3.983500e+06
-3.611449e+09 -3.412750e+09 -3.567704e+09 3.119829e+05 -6.503052e+05 -1.216970e+06
-1.576898e+09 -1.376951e+09 -1.536971e+09 1.268284e+04 6.716812e+03 2.070560e+04
-1.939219e+09 -1.739272e+09 -1.899291e+09 1.048738e+04 5.531104e+03 9.470924e+03
-3.602790e+09 -3.402283e+09 -3.561662e+09 5.370268e+05 5.538594e+04 2.157848e+04
-3.123728e+09 -2.922894e+09 -3.082520e+09 2.964369e+05 4.219112e+05 6.251561e+04
-1.698928e+09 -1.498934e+09 -1.658926e+09 -1.095038e+04 9.083496e+04 -6.244416e+04
-3.596800e+09 -3.397097e+09 -3.556331e+09 6.150515e+05 2.677146e+05 1.885743e+05
-1.566467e+09 -1.366453e+09 -1.526412e+09 1.934386e+04 1.412498e+05 -8.658989e+04
-3.112093e+09 -2.911967e+09 -3.072182e+09 -7.839678e+04 6.670925e+04 -3.754822e+04
-1.566446e+09 -1.366443e+09 -1.526394e+09 -7.179968e+03 1.525099e+05 -9.981029e+04
-3.059388e+09 -2.859018e+09 -3.019040e+09 -3.089572e+05 -1.340578e+05 7.580737e+04
-1.673483e+09 -1.473465e+09 -1.633477e+09 -8.660717e+03 9.892203e+04 -8.235725e+04
-2.869285e+09 -2.668626e+09 -2.828766e+09 4.210552e+05 1.290799e+05 1.898537e+05
-2.194179e+09 -1.994178e+09 -2.154282e+09 -1.257102e+05 8.649880e+04 -9.587040e+04
-3.587879e+09 -3.387663e+09 -3.547971e+09 -1.346428e+05 8.629196e+04 -4.386178e+04
-3.292346e+09 -3.092388e+09 -3.252422e+09 -1.577460e+04 -6.220531e+03 7.863220e+03
-2.963097e+09 -2.762488e+09 -2.922851e+09 -1.742894e+05 7.104595e+04 1.452253e+04
-3.599984e+09 -3.399829e+09 -3.559676e+09 5.050217e+05 1.063826e+05 6.422108e+04
-2.282617e+09 -2.082567e+09 -2.242686e+09 -7.928769e+04 1.098168e+05 -8.317394e+04
-2.064936e+09 -1.864866e+09 -2.024967e+09 -7.706576e+04 1.360484e+05 -6.868156e+04
-1.584704e+09 -1.384696e+09 -1.544636e+09 2.748289e+04 2.483509e+04 1.474801e+04
-2.599754e+09 -2.399256e+09 -2.558622e+09 -2.959795e+05 -2.997449e+05 1.632137e+05
-1.799722e+09 -1.599630e+09 -1.759045e+09 -2.654982e+04 -9.935055e+04 -1.463588e+03
-3.590956e+09 -3.390241e+09 -3.550496e+09 -1.550886e+05 9.427496e+04 -8.228571e+04
-2.048031e+09 -1.848067e+09 -2.008098e+09 -1.732495e+04 -1.043075e+04 1.498379e+04
-1.901286e+09 -1.701331e+09 -1.861354e+09 -1.110884e+04 -4.183173e+03 7.879821e+03
-1.674058e+09 -1.474069e+09 -1.634107e+09 1.208022e+04 6.023745e+03 5.993261e+03
-3.156823e+09 -2.956632e+09 -3.116849e+09 5.251772e+04 7.165450e+04 6.571458e+03
-3.216674e+09 -3.016735e+09 -3.176791e+09 3.329595e+04 1.890641e+04 2.908212e+04
-3.176522e+09 -2.976637e+09 -3.136697e+09 8.188674e+04 4.171640e+04 6.854699e+04
-1.594680e+09 -1.394672e+09 -1.554713e+09 2.310721e+04 8.154657e+04 8.228105e+04
-1.604687e+09 -1.404662e+09 -1.564706e+09 -1.015024e+04 -7.399800e+04 5.351351e+04
-3.023978e+09 -2.824096e+09 -2.984119e+09 -1.881415e+05 -7.166080e+04 1.246696e+05
-1.594081e+09 -1.394082e+09 -1.554088e+09 -1.270680e+04 -8.343764e+04 7.105087e+04
-3.482845e+09 -3.282747e+09 -3.442940e+09 9.808980e+04 -7.016726e+04 -4.536254e+04
-2.811746e+09 -2.611743e+09 -2.771878e+09 -1.406063e+05 -7.476792e+04 6.328624e+04
-1.993782e+09 -1.793923e+09 -1.953916e+09 1.890515e+05 -1.389124e+05 -1.243888e+05
-3.156316e+09 -2.956822e+09 -3.115034e+09 5.096382e+05 2.008635e+05 5.722185e+05
-3.194312e+09 -2.994759e+09 -3.154585e+09 2.825846e+05 -1.324764e+05 -3.675306e+04
-3.187674e+09 -2.987863e+09 -3.147918e+09 3.364954e+05 2.385467e+04 -1.790643e+04
-2.872493e+09 -2.672515e+09 -2.832549e+09 9.233274e+03 2.499385e+03 3.004848e+03
-3.586529e+09 -3.386564e+09 -3.546603e+09 1.793486e+04 4.262485e+03 6.640659e+03
-1.930563e+09 -1.730803e+09 -1.890748e+09 1.304910e+05 -3.579203e+04 -4.167324e+04
-2.417054e+09 -2.216578e+09 -2.365104e+09 -1.969650e+05 2.086079e+06 3.987924e+06
-2.812866e+09 -2.613480e+09 -2.746927e+09 -4.758556e+04 5.973749e+05 -1.193175e+06
-3.491074e+09 -3.291086e+09 -3.451137e+09 1.755961e+04 5.488570e+03 5.721764e+03
-3.491066e+09 -3.291078e+09 -3.451133e+09 2.269326e+04 7.090741e+03 7.204032e+03
-3.374365e+09 -3.173910e+09 -3.320615e+09 1.307653e+05 -1.706539e+05 -1.200989e+06
-2.815602e+09 -2.615632e+09 -2.775670e+09 -1.396459e+04 -6.413460e+03 9.236966e+03
-3.432890e+09 -3.233847e+09 -3.391706e+09 -4.530761e+05 -8.761373e+04 5.113147e+05
-3.618225e+09 -3.419360e+09 -3.577963e+09 -3.252792e+05 -1.169004e+05 1.454845e+05
-2.138996e+09 -1.939484e+09 -2.099090e+09 -2.183777e+05 -2.451239e+05 8.905624e+04
-2.580411e+09 -2.380439e+09 -2.540487e+09 2.773487e+04 1.537575e+04 1.840995e+04
-2.437034e+09 -2.236863e+09 -2.397005e+09 -2.903197e+04 1.358592e+05 -4.264735e+04
-2.575265e+09 -2.375283e+09 -2.535317e+09 -1.267421e+05 -1.030864e+05 9.031276e+04
-1.873433e+09 -1.673513e+09 -1.833311e+09 -1.109721e+05 -1.062957e+05 1.043935e+05
-2.269738e+09 -2.069552e+09 -2.229663e+09 -1.045373e+05 -1.567755e+05 9.439509e+04
-1.575039e+09 -1.375024e+09 -1.535025e+09 -8.489324e+03 -1.276803e+05 1.304542e+05
-3.043882e+09 -2.843705e+09 -3.003949e+09 8.827827e+04 -7.959934e+04 -1.918791e+04
-3.003646e+09 -2.803646e+09 -2.963782e+09 1.324180e+05 -7.214865e+04 -5.184292e+04
-3.220626e+09 -3.020421e+09 -3.180651e+09 -3.720262e+04 6.842893e+04 -4.794535e+03
-3.582089e+09 -3.381920e+09 -3.542141e+09 -5.318080e+04 5.748597e+04 -2.270185e+04
-3.575190e+09 -3.375026e+09 -3.535260e+09 1.548297e+05 -9.576751e+04 -6.199643e+04
-3.308188e+09 -3.107743e+09 -3.267249e+09 4.216141e+05 -1.860520e+05 -5.136615e+03
-3.518817e+09 -3.320197e+09 -3.477794e+09 4.395407e+05 -2.744943e+05 -5.759289e+05
-3.565361e+09 -3.365205e+09 -3.524841e+09 -5.701675e+05 1.188182e+05 3.435608e+04
-1.710157e+09 -1.510097e+09 -1.670124e+09 -7.626291e+03 -1.377908e+05 3.487581e+04
-3.516457e+09 -3.316175e+09 -3.476478e+09 -6.091025e+04 -1.012695e+05 2.865426e+04
-2.670512e+09 -2.470399e+09 -2.630541e+09 -7.731733e+04 -1.114204e+05 5.341086e+04
-2.911404e+09 -2.711473e+09 -2.871494e+09 -1.155187e+04 -4.288147e+03 1.246147e+04
-3.500547e+09 -3.300630e+09 -3.460650e+09 -1.387613e+04 -2.442926e+03 1.088811e+04
-2.033813e+09 -1.833656e+09 -1.993771e+09 6.775873e+04 -1.691931e+05 -5.510197e+04
-1.560116e+09 -1.360149e+09 -1.520166e+09 -1.364367e+04 -4.210766e+04 7.170506e+04
-1.709087e+09 -1.509126e+09 -1.669153e+09 -1.951224e+04 -3.307861e+04 5.174968e+04
-3.594440e+09 -3.394501e+09 -3.554608e+09 -9.319945e+04 -3.467614e+04 4.609722e+04
-2.295932e+09 -2.096068e+09 -2.256078e+09 -4.779583e+04 -2.893148e+04 7.275053e+04
-1.593787e+09 -1.393783e+09 -1.553820e+09 2.425683e+04 5.184084e+04 5.818072e+04
-2.827134e+09 -2.627219e+09 -2.787301e+09 -1.341992e+05 -8.579640e+04 1.243799e+05
-3.218545e+09 -3.018501e+09 -3.178654e+09 9.002183e+04 4.735025e+04 4.162846e+04
-3.602310e+09 -3.402315e+09 -3.562442e+09 1.059386e+05 4.408112e+04 3.992912e+04
-1.993345e+09 -1.793356e+09 -1.953402e+09 2.439221e+04 1.892887e+04 1.811778e+04
-1.611296e+09 -1.411262e+09 -1.571110e+09 1.651704e+04 7.001356e+04 -7.014568e+04
-1.568332e+09 -1.368327e+09 -1.528368e+09 2.104370e+04 4.268508e+04 3.877043e+04
-1.579587e+09 -1.379527e+09 -1.539440e+09 -1.334993e+04 -1.123853e+05 7.275964e+03
-1.579586e+09 -1.379548e+09 -1.539310e+09 -6.001158e+03 1.455757e+05 2.813637e+04
-3.602339e+09 -3.402296e+09 -3.562446e+09 9.201144e+04 4.637394e+04 4.841328e+04
-3.219447e+09 -3.019452e+09 -3.179582e+09 9.121371e+04 5.173788e+04 6.025554e+04
-1.994565e+09 -1.794084e+09 -1.954039e+09 -2.864430e+05 -8.376341e+04 1.461100e+05
-3.257309e+09 -3.057278e+09 -3.217402e+09 7.769757e+04 4.416822e+04 3.065876e+04
-3.584612e+09 -3.384527e+09 -3.544703e+09 -2.443477e+05 -9.338625e+04 8.818060e+04
-1.780402e+09 -1.580400e+09 -1.740467e+09 8.027401e+04 8.642672e+04 8.570245e+04
-1.611295e+09 -1.411277e+09 -1.571299e+09 -4.780288e+03 -8.485821e+04 6.181422e+04
-2.027666e+09 -1.827544e+09 -1.987657e+09 1.195048e+05 9.269224e+04 7.012016e+04
-3.376049e+09 -3.175756e+09 -3.336078e+09 1.964873e+05 1.130557e+05 5.290450e+04
-3.071528e+09 -2.871566e+09 -3.031609e+09 -2.110231e+04 -1.166561e+04 1.135431e+04
-3.613501e+09 -3.414125e+09 -3.573976e+09 1.319435e+04 2.837696e+03 1.140473e+05
-2.619912e+09 -2.420396e+09 -2.579822e+09 1.304041e+05 -7.210732e+04 -3.325695e+03
-3.309302e+09 -3.110063e+09 -3.269567e+09 1.901897e+05 -1.382628e+05 4.617999e+04
-1.564385e+09 -1.364450e+09 -1.524086e+09 3.724423e+03 -5.630736e+04 1.497554e+04
-2.170140e+09 -1.970287e+09 -2.130283e+09 1.062106e+05 6.586398e+04 1.172676e+05
-2.003175e+09 -1.803154e+09 -1.963190e+09 -1.321894e+04 8.103852e+04 -4.468247e+04
-1.684452e+09 -1.484519e+09 -1.644351e+09 4.760794e+04 -1.450746e+04 2.221448e+05
-3.407860e+09 -3.208563e+09 -3.367941e+09 3.771099e+05 1.052384e+04 6.984786e+04
-3.594568e+09 -3.393759e+09 -3.549674e+09 6.482734e+05 -9.007473e+05 -6.840268e+05
-2.954614e+09 -2.752489e+09 -2.911093e+09 3.342058e+05 -1.652556e+06 -9.004215e+05
-3.202252e+09 -3.001742e+09 -3.160262e+09 5.768661e+05 -5.681767e+05 -1.084218e+05
-1.862432e+09 -1.662450e+09 -1.822485e+09 1.133679e+04 4.368162e+03 4.368049e+03
-1.700511e+09 -1.500303e+09 -1.658708e+09 1.402809e+05 -6.307777e+05 -1.364235e+06
-3.254592e+09 -3.054611e+09 -3.214652e+09 1.313984e+04 3.992873e+03 4.812561e+03
-3.228023e+09 -3.028467e+09 -3.188313e+09 -2.363035e+04 -7.039214e+03 9.511967e+04
-1.870615e+09 -1.670597e+09 -1.830659e+09 2.645407e+04 2.525937e+04 1.861886e+04
-1.674071e+09 -1.474064e+09 -1.634111e+09 1.498773e+04 1.423527e+04 1.227229e+04
-2.161970e+09 -1.961984e+09 -2.122025e+09 1.466010e+04 6.216269e+03 6.801151e+03
-2.492875e+09 -2.292856e+09 -2.452930e+09 2.726937e+04 2.359333e+04 2.202154e+04
-3.595680e+09 -3.396114e+09 -3.556087e+09 3.351474e+04 8.434404e+03 1.109475e+05
-1.584960e+09 -1.384943e+09 -1.544992e+09 1.875668e+04 3.147739e+04 2.531441e+04
-1.779492e+09 -1.579356e+09 -1.738722e+09 2.977913e+05 1.314637e+06 1.289523e+06
-1.860771e+09 -1.660726e+09 -1.820566e+09 -9.668394e+04 6.893626e+04 -1.440050e+04
-3.111701e+09 -2.911297e+09 -3.071247e+09 2.935479e+05 6.556703e+04 5.371538e+04
-2.486492e+09 -2.286583e+09 -2.446530e+09 -2.338153e+05 8.686202e+04 -6.574992e+04
-3.382111e+09 -3.181060e+09 -3.340276e+09 -3.747207e+05 -5.977108e+05 -5.255068e+04
-3.605735e+09 -3.405705e+09 -3.565891e+09 -3.629082e+05 6.620931e+04 -8.569069e+04
-1.793552e+09 -1.593574e+09 -1.753611e+09 -7.026364e+04 1.078218e+05 -9.338987e+04
-1.566470e+09 -1.366425e+09 -1.526402e+09 1.762489e+04 1.589548e+05 -7.765015e+04
-1.598789e+09 -1.398763e+09 -1.558682e+09 2.123201e+04 6.782873e+04 -8.307552e+04
-1.908823e+09 -1.708956e+09 -1.868806e+09 -1.038009e+04 5.772688e+04 -7.476534e+04
-1.792713e+09 -1.592793e+09 -1.752481e+09 2.409274e+05 3.065601e+05 4.860229e+05
-1.625914e+09 -1.425829e+09 -1.585805e+09 -1.999151e+04 -4.166578e+04 -6.496384e+04
-2.877594e+09 -2.677275e+09 -2.837484e+09 6.317103e+04 -8.801462e+04 3.426272e+03
-1.580416e+09 -1.380395e+09 -1.539780e+09 -4.385982e+04 -3.547530e+05 -4.013631e+04
-2.319038e+09 -2.118813e+09 -2.278988e+09 -9.108491e+03 -1.558484e+05 -3.554474e+02
-3.582865e+09 -3.381639e+09 -3.540259e+09 -4.591231e+05 -9.304727e+05 3.285610e+05
-3.476044e+09 -3.275747e+09 -3.436064e+09 2.299617e+05 -1.285234e+05 -3.171682e+04
-2.620727e+09 -2.419326e+09 -2.579058e+09 3.593641e+04 -8.447484e+05 -2.573572e+05
-1.833712e+09 -1.633438e+09 -1.793518e+09 4.609521e+04 8.900786e+04 4.652702e+04
-3.526057e+09 -3.325760e+09 -3.486015e+09 2.898165e+05 -9.333066e+04 -7.890695e+04
-3.525902e+09 -3.325715e+09 -3.485972e+09 2.992284e+05 -9.463118e+04 -7.159909e+04
-2.225307e+09 -2.025361e+09 -2.185384e+09 -1.291181e+04 -4.603772e+03 9.916832e+03
-3.264685e+09 -3.063149e+09 -3.221684e+09 -6.141671e+04 -8.539384e+05 -8.988293e+04
-2.867280e+09 -2.667316e+09 -2.827346e+09 -9.967067e+03 -3.326592e+03 5.349328e+03
-1.988790e+09 -1.788833e+09 -1.948856e+09 -8.809627e+03 -4.393322e+03 5.635482e+03
-1.673933e+09 -1.473957e+09 -1.633989e+09 -1.180715e+04 -8.832982e+03 1.039878e+04
-3.180862e+09 -2.980900e+09 -3.140927e+09 -8.977319e+03 -1.978757e+03 5.360350e+03
-3.288146e+09 -3.088182e+09 -3.248220e+09 -1.492314e+04 -6.135161e+03 8.341597e+03
-1.587910e+09 -1.387945e+09 -1.547972e+09 -1.234083e+04 -8.895719e+03 1.244256e+04
-1.966706e+09 -1.766739e+09 -1.926767e+09 -9.717889e+03 -4.519809e+03 6.255011e+03
-3.168012e+09 -2.968049e+09 -3.128083e+09 -1.370340e+04 -3.954369e+03 5.548445e+03
-3.481603e+09 -3.281641e+09 -3.441672e+09 -9.258128e+03 -2.205826e+03 2.940321e+03
-3.477400e+09 -3.277434e+09 -3.437468e+09 -1.457532e+04 -4.156535e+03 4.797856e+03
-3.117832e+09 -2.917877e+09 -3.077907e+09 -1.571986e+04 -5.734461e+03 8.473327e+03
-3.048334e+09 -2.848389e+09 -3.008410e+09 -1.404676e+04 -4.160041e+03 8.846186e+03
-1.642310e+09 -1.442340e+09 -1.602373e+09 -1.128629e+04 -8.191496e+03 1.172307e+04
-2.100103e+09 -1.900115e+09 -2.060153e+09 6.041165e+04 -9.468375e+04 -9.410932e+04
-2.163343e+09 -1.963338e+09 -2.123361e+09 6.785720e+04 -9.452366e+04 -9.258290e+04
-1.963685e+09 -1.763637e+09 -1.923643e+09 5.902176e+04 -1.387049e+05 -1.197285e+05
-1.843372e+09 -1.643405e+09 -1.803384e+09 2.482464e+04 -9.514073e+04 -8.124204e+04
-1.718375e+09 -1.518388e+09 -1.678375e+09 7.328987e+03 -1.129882e+05 -7.671279e+04
-1.499704e+09 -1.299714e+09 -1.459674e+09 -4.551934e+03 -1.200125e+05 -9.398613e+04
-2.123725e+09 -1.923724e+09 -2.083783e+09 5.808531e+04 -1.130513e+05 -1.047674e+05
-2.186961e+09 -1.986949e+09 -2.146994e+09 6.984308e+04 -1.116876e+05 -9.774330e+04
-2.349815e+09 -2.149762e+09 -2.309874e+09 9.498058e+04 -9.718803e+04 -7.465419e+04
-1.876008e+09 -1.676009e+09 -1.836065e+09 5.423535e+04 -1.075939e+05 -7.888432e+04
-1.751000e+09 -1.550962e+09 -1.711058e+09 4.543463e+04 -1.029565e+05 -8.000475e+04
-2.038849e+09 -1.838776e+09 -1.998924e+09 7.097663e+04 -1.027591e+05 -6.376031e+04
-1.543899e+09 -1.343931e+09 -1.503908e+09 2.371441e+04 -9.723428e+04 -6.907564e+04
-1.854821e+09 -1.654847e+09 -1.814868e+09 4.019362e+04 -1.059566e+05 -8.022900e+04
-1.975103e+09 -1.775178e+09 -1.935170e+09 4.853215e+04 -9.650341e+04 -1.028950e+05
-1.749376e+09 -1.549365e+09 -1.709395e+09 3.785001e+03 -9.373904e+04 -6.623934e+04
-1.605464e+09 -1.405453e+09 -1.565456e+09 -2.292435e+03 -9.642105e+04 -7.473399e+04
-1.893275e+09 -1.693274e+09 -1.853308e+09 2.403595e+04 -1.014041e+05 -7.617965e+04
-1.749371e+09 -1.549364e+09 -1.709390e+09 3.202942e+03 -9.048259e+04 -7.062842e+04
-1.461527e+09 -1.261505e+09 -1.421523e+09 -7.421424e+03 -1.010154e+05 -7.289821e+04
-1.461510e+09 -1.261523e+09 -1.421523e+09 1.858129e+03 -9.919955e+04 -7.584712e+04
-1.605413e+09 -1.405431e+09 -1.565427e+09 1.398865e+04 -1.102321e+05 -9.494444e+04
-1.893305e+09 -1.693287e+09 -1.853324e+09 1.707571e+04 -9.649029e+04 -6.491973e+04
-1.958057e+09 -1.758134e+09 -1.918143e+09 7.965839e+03 2.168423e+03 1.705030e+04
-1.823083e+09 -1.623158e+09 -1.783169e+09 7.605132e+03 2.152034e+03 1.649497e+04
-1.533257e+09 -1.333331e+09 -1.493338e+09 5.637867e+03 2.499390e+03 1.449900e+04
-2.084923e+09 -1.884998e+09 -2.045011e+09 8.215044e+03 2.728674e+03 1.599895e+04
-2.173811e+09 -1.973889e+09 -2.133900e+09 8.407855e+03 3.498004e+03 1.703664e+04
-2.345383e+09 -2.145460e+09 -2.305472e+09 1.016548e+04 2.022336e+03 1.483467e+04
-1.490955e+09 -1.291027e+09 -1.451037e+09 1.003243e+04 5.020547e+03 1.893627e+04
-1.724759e+09 -1.524830e+09 -1.684843e+09 1.005612e+04 5.276185e+03 1.932578e+04
-1.842122e+09 -1.642199e+09 -1.802210e+09 8.397662e+03 6.062159e+03 1.803972e+04
-1.532820e+09 -1.332888e+09 -1.492896e+09 8.395718e+03 4.109538e+03 1.479252e+04
-1.532819e+09 -1.332884e+09 -1.492895e+09 8.887171e+03 3.599775e+03 1.462252e+04
-1.821763e+09 -1.621829e+09 -1.781841e+09 8.437318e+03 4.341164e+03 1.497091e+04
-1.977098e+09 -1.777175e+09 -1.937187e+09 8.529631e+03 4.004647e+03 1.838273e+04
-2.164314e+09 -1.964393e+09 -2.124404e+09 8.173375e+03 4.281747e+03 1.750268e+04
-2.075427e+09 -1.875503e+09 -2.035516e+09 7.774210e+03 3.556145e+03 1.648972e+04
-1.883983e+09 -1.684061e+09 -1.844070e+09 8.966265e+03 4.525225e+03 1.670369e+04
-1.766614e+09 -1.566688e+09 -1.726698e+09 1.358841e+04 2.383046e+03 1.585684e+04
-2.055558e+09 -1.855630e+09 -2.015644e+09 1.310779e+04 2.970701e+03 1.616349e+04
-1.948642e+09 -1.748723e+09 -1.908731e+09 9.755745e+03 4.488515e+03 2.182763e+04
-2.091449e+09 -1.891529e+09 -2.051540e+09 1.043069e+04 4.595965e+03 2.248324e+04
-2.213977e+09 -2.014062e+09 -2.174074e+09 1.133225e+04 5.588817e+03 2.460853e+04
-1.854515e+09 -1.654594e+09 -1.814612e+09 8.657134e+03 3.658089e+03 3.099876e+04
-1.734770e+09 -1.534846e+09 -1.694861e+09 8.361232e+03 6.725680e+03 2.932226e+04
-1.506946e+09 -1.307021e+09 -1.467028e+09 5.969316e+03 5.636907e+03 2.631725e+04
-1.857649e+09 -1.657728e+09 -1.817737e+09 8.262274e+03 4.159549e+03 2.319676e+04
-1.752357e+09 -1.552436e+09 -1.712443e+09 7.175908e+03 4.947204e+03 2.485413e+04
-1.980175e+09 -1.780260e+09 -1.940271e+09 1.022237e+04 5.150009e+03 2.444931e+04
-1.739058e+09 -1.539131e+09 -1.699140e+09 5.825845e+03 3.229759e+03 2.285392e+04
-1.633763e+09 -1.433838e+09 -1.593847e+09 4.584196e+03 5.537560e+03 2.092656e+04
-1.633766e+09 -1.433841e+09 -1.593849e+09 5.825403e+03 4.582993e+03 2.229723e+04
-1.508097e+09 -1.308166e+09 -1.468174e+09 8.459527e+03 8.071000e+03 3.270766e+04
-1.735922e+09 -1.535994e+09 -1.696006e+09 1.026538e+04 9.271731e+03 3.047222e+04
-1.854513e+09 -1.654592e+09 -1.814603e+09 9.229603e+03 1.078115e+04 2.898500e+04
-1.609548e+09 -1.409622e+09 -1.569630e+09 1.005022e+04 4.825600e+03 2.239624e+04
-1.843353e+09 -1.643427e+09 -1.803438e+09 1.017087e+04 5.388057e+03 2.153751e+04
-1.968557e+09 -1.768644e+09 -1.928654e+09 1.008237e+04 7.072663e+03 2.307320e+04
-1.874025e+09 -1.674102e+09 -1.834112e+09 8.875533e+03 2.300915e+03 2.088947e+04
-2.058556e+09 -1.858636e+09 -2.018645e+09 9.223763e+03 2.533175e+03 1.832114e+04
-1.923582e+09 -1.723660e+09 -1.883670e+09 9.608009e+03 2.953833e+03 1.795245e+04
-1.965019e+09 -1.765099e+09 -1.925109e+09 7.585449e+03 4.471236e+03 1.973914e+04
-2.292359e+09 -2.092441e+09 -2.252451e+09 8.650390e+03 3.711872e+03 1.828073e+04
-2.107827e+09 -1.907907e+09 -2.067919e+09 8.115989e+03 4.054093e+03 2.054269e+04
-1.676279e+09 -1.476348e+09 -1.636361e+09 9.384881e+03 6.543029e+03 2.904682e+04
-1.567051e+09 -1.367121e+09 -1.527129e+09 8.683381e+03 6.717447e+03 2.688055e+04
-1.567044e+09 -1.367116e+09 -1.527124e+09 1.140394e+04 4.195919e+03 2.307661e+04
-1.794874e+09 -1.594948e+09 -1.754959e+09 9.081472e+03 7.854028e+03 2.854854e+04
-1.448454e+09 -1.248522e+09 -1.408533e+09 9.266288e+03 6.114058e+03 2.779349e+04
-1.448453e+09 -1.248521e+09 -1.408533e+09 1.049862e+04 6.078504e+03 2.733418e+04
-1.794868e+09 -1.594946e+09 -1.754956e+09 1.015975e+04 7.020405e+03 2.621271e+04
-1.676279e+09 -1.476349e+09 -1.636360e+09 1.021814e+04 5.969351e+03 2.849413e+04
-1.940946e+09 -1.741035e+09 -1.901042e+09 1.320074e+04 6.321258e+03 3.727256e+04
-2.085148e+09 -1.885245e+09 -2.045255e+09 1.065631e+04 8.046980e+03 4.342579e+04
-2.196785e+09 -1.996884e+09 -2.156894e+09 1.392077e+04 6.851605e+03 3.793613e+04
-1.627881e+09 -1.427957e+09 -1.587963e+09 1.101398e+04 9.085149e+03 3.555264e+04
-1.855707e+09 -1.655785e+09 -1.815794e+09 1.263412e+04 1.047798e+04 3.324041e+04
-1.934844e+09 -1.734924e+09 -1.894933e+09 1.115995e+04 1.120600e+04 3.453232e+04
-1.824767e+09 -1.624850e+09 -1.784858e+09 1.022170e+04 5.181871e+03 3.695019e+04
-1.969214e+09 -1.769302e+09 -1.929310e+09 1.208875e+04 5.134551e+03 3.742715e+04
-1.849471e+09 -1.649557e+09 -1.809565e+09 1.051652e+04 5.760609e+03 3.419517e+04
-1.508155e+09 -1.308222e+09 -1.468227e+09 9.764642e+03 9.617238e+03 4.099116e+04
-1.508154e+09 -1.308218e+09 -1.468226e+09 9.968735e+03 1.007925e+04 4.104292e+04
-1.707040e+09 -1.507104e+09 -1.667113e+09 1.126496e+04 1.202702e+04 3.949080e+04
-1.705030e+09 -1.505108e+09 -1.665115e+09 5.361054e+03 4.142069e+03 3.789997e+04
-1.621657e+09 -1.421734e+09 -1.581742e+09 4.834278e+03 6.578642e+03 3.681696e+04
-1.621658e+09 -1.421737e+09 -1.581743e+09 4.247394e+03 6.583777e+03 3.678656e+04
-1.821206e+09 -1.621292e+09 -1.781298e+09 7.653627e+03 5.428323e+03 3.937312e+04
-1.737833e+09 -1.537919e+09 -1.697922e+09 7.096536e+03 7.680337e+03 4.157760e+04
-1.965403e+09 -1.765499e+09 -1.925510e+09 1.112668e+04 6.782911e+03 4.276595e+04
-1.971649e+09 -1.771734e+09 -1.931746e+09 1.458406e+04 8.541185e+03 4.807671e+04
-2.162414e+09 -1.962509e+09 -2.122523e+09 1.568732e+04 7.991464e+03 4.334486e+04
-2.083282e+09 -1.883371e+09 -2.043383e+09 1.935753e+04 6.860724e+03 3.943853e+04
-1.851895e+09 -1.651986e+09 -1.811995e+09 1.425107e+04 8.730022e+03 4.385271e+04
-1.735727e+09 -1.535805e+09 -1.695812e+09 1.663351e+04 7.138660e+03 4.558388e+04
-1.934608e+09 -1.734687e+09 -1.894702e+09 1.457786e+04 8.767020e+03 4.594556e+04
-1.504545e+09 -1.304617e+09 -1.464619e+09 4.172016e+03 9.319746e+03 4.292824e+04
-1.732122e+09 -1.532199e+09 -1.692212e+09 9.038577e+03 9.281806e+03 4.943549e+04
-1.832497e+09 -1.632583e+09 -1.792593e+09 8.101397e+03 5.556960e+03 4.861155e+04
-1.832494e+09 -1.632577e+09 -1.792588e+09 1.059647e+04 1.164177e+04 4.922328e+04
-1.716320e+09 -1.516393e+09 -1.676404e+09 1.336210e+04 1.017950e+04 4.943687e+04
-1.488738e+09 -1.288809e+09 -1.448812e+09 1.045227e+04 9.464392e+03 5.340886e+04
-1.648186e+09 -1.448266e+09 -1.608272e+09 1.353578e+04 1.222279e+04 5.378025e+04
-1.875752e+09 -1.675844e+09 -1.835855e+09 1.795507e+04 1.271349e+04 5.356278e+04
-2.045780e+09 -1.845876e+09 -2.005886e+09 1.711552e+04 1.633825e+04 5.431277e+04
-2.042911e+09 -1.843012e+09 -2.003023e+09 2.051526e+04 9.813112e+03 5.443626e+04
-2.285251e+09 -2.085364e+09 -2.245382e+09 2.039318e+04 1.394583e+04 6.605758e+04
-2.388483e+09 -2.188598e+09 -2.348618e+09 2.596736e+04 1.454639e+04 6.354805e+04
-1.826671e+09 -1.626775e+09 -1.786772e+09 1.880496e+04 1.428472e+04 7.170960e+04
-1.729040e+09 -1.529124e+09 -1.689124e+09 2.143208e+04 1.371416e+04 7.291058e+04
-1.915682e+09 -1.715781e+09 -1.875777e+09 1.585799e+04 1.839487e+04 7.973324e+04
-2.003982e+09 -1.804094e+09 -1.964097e+09 1.578597e+04 1.056518e+04 5.355311e+04
-2.181694e+09 -1.981807e+09 -2.141813e+09 1.856461e+04 9.996431e+03 5.827514e+04
-2.403886e+09 -2.204008e+09 -2.364018e+09 1.720787e+04 1.278298e+04 6.431726e+04
-2.171762e+09 -1.971861e+09 -2.131879e+09 2.109769e+04 1.393236e+04 7.091669e+04
-2.191247e+09 -1.991350e+09 -2.151364e+09 2.119402e+04 1.284559e+04 7.140265e+04
-2.347559e+09 -2.147670e+09 -2.307689e+09 2.973722e+04 1.296999e+04 6.643332e+04
-1.993829e+09 -1.793941e+09 -1.953949e+09 2.171362e+04 1.225656e+04 7.189212e+04
-2.258385e+09 -2.058506e+09 -2.218516e+09 2.088278e+04 1.509700e+04 7.334984e+04
-2.238908e+09 -2.039023e+09 -2.199034e+09 2.184027e+04 1.618773e+04 7.169548e+04
-2.000284e+09 -1.800398e+09 -1.960405e+09 2.162258e+04 1.204205e+04 7.146645e+04
-2.402910e+09 -2.203039e+09 -2.363047e+09 1.560080e+04 1.492852e+04 6.535438e+04
-2.180705e+09 -1.980832e+09 -2.140837e+09 1.935887e+04 1.019020e+04 5.872462e+04
-1.833118e+09 -1.633225e+09 -1.793233e+09 1.888119e+04 7.516151e+03 7.261887e+04
-2.013549e+09 -1.813665e+09 -1.973669e+09 7.620692e+03 6.503989e+03 6.453318e+04
-1.893016e+09 -1.693132e+09 -1.853137e+09 9.731245e+03 8.909668e+03 6.580230e+04
-1.661876e+09 -1.461961e+09 -1.621968e+09 1.384869e+04 1.177899e+04 5.691249e+04
-2.004837e+09 -1.804940e+09 -1.964949e+09 1.862703e+04 1.654938e+04 5.349785e+04
-1.848521e+09 -1.648618e+09 -1.808622e+09 1.209334e+04 1.613215e+04 5.765649e+04
-1.502455e+09 -1.302511e+09 -1.462514e+09 8.354223e+03 1.877632e+04 6.782092e+04
-1.502454e+09 -1.302511e+09 -1.462512e+09 1.044951e+04 1.693748e+04 6.705716e+04
-1.689100e+09 -1.489171e+09 -1.649168e+09 5.832946e+03 2.253778e+04 7.224147e+04
-1.821795e+09 -1.621884e+09 -1.781883e+09 6.030265e+03 1.294523e+04 8.156942e+04
-1.724172e+09 -1.524236e+09 -1.684238e+09 9.839585e+03 1.250597e+04 8.314398e+04
-1.497560e+09 -1.297624e+09 -1.457618e+09 8.382262e+03 1.225224e+04 8.436331e+04
-1.497551e+09 -1.297624e+09 -1.457618e+09 5.652338e+03 1.518564e+04 7.789818e+04
-1.724169e+09 -1.524239e+09 -1.684237e+09 6.533930e+03 1.362161e+04 8.147779e+04
-1.821813e+09 -1.621885e+09 -1.781888e+09 2.111841e+04 1.283796e+04 8.595965e+04
-1.786987e+09 -1.587067e+09 -1.747069e+09 3.687918e+03 4.842654e+03 6.248059e+04
-1.666456e+09 -1.466528e+09 -1.626538e+09 3.056783e+03 8.401307e+03 6.054648e+04
-1.666457e+09 -1.466535e+09 -1.626540e+09 4.480941e+03 6.690130e+03 6.032283e+04
-1.836822e+09 -1.636923e+09 -1.796927e+09 1.189562e+04 6.847253e+03 5.580998e+04
-1.894017e+09 -1.694108e+09 -1.854115e+09 1.284635e+04 7.141464e+03 5.509078e+04
-2.014543e+09 -1.814640e+09 -1.974645e+09 1.586394e+04 5.723173e+03 5.922611e+04
-1.953798e+09 -1.753917e+09 -1.913905e+09 1.818861e+04 1.167347e+04 8.349157e+04
-2.071568e+09 -1.871685e+09 -2.031679e+09 1.349349e+04 8.083534e+03 7.451932e+04
-2.183512e+09 -1.983664e+09 -2.143672e+09 1.687489e+04 1.025534e+04 9.128881e+04
-1.504509e+09 -1.304583e+09 -1.464570e+09 -8.547659e+02 1.519688e+04 8.692711e+04
-1.730025e+09 -1.530113e+09 -1.690114e+09 9.110002e+03 1.260953e+04 1.015822e+05
-1.835064e+09 -1.635150e+09 -1.795158e+09 9.029222e+03 8.523664e+03 1.050713e+05
-1.840297e+09 -1.640374e+09 -1.800372e+09 2.961983e+04 1.330442e+04 8.576518e+04
-1.956588e+09 -1.756712e+09 -1.916724e+09 2.768600e+04 1.807441e+04 9.623491e+04
-1.840474e+09 -1.640581e+09 -1.800586e+09 3.987377e+04 1.292499e+04 9.233148e+04
-1.611086e+09 -1.411180e+09 -1.571165e+09 8.027481e+03 9.977776e+03 8.219859e+04
-1.955454e+09 -1.755557e+09 -1.915548e+09 4.384360e+03 6.626361e+03 7.687240e+04
-1.837699e+09 -1.637793e+09 -1.797781e+09 7.776014e+03 1.041850e+04 8.348473e+04
-1.675732e+09 -1.475795e+09 -1.635794e+09 1.278540e+04 1.435501e+04 7.840950e+04
-1.558308e+09 -1.358364e+09 -1.518366e+09 1.164535e+04 1.605739e+04 8.016015e+04
-1.558306e+09 -1.358364e+09 -1.518362e+09 1.164398e+04 1.415133e+04 7.775020e+04
-1.784918e+09 -1.584974e+09 -1.744978e+09 1.221505e+04 1.263522e+04 7.640266e+04
-1.449122e+09 -1.249186e+09 -1.409181e+09 9.515619e+03 1.739470e+04 7.768314e+04
-1.449120e+09 -1.249181e+09 -1.409180e+09 1.322771e+04 1.270585e+04 7.724946e+04
-1.784923e+09 -1.584977e+09 -1.744977e+09 1.011359e+04 1.396112e+04 7.828360e+04
-1.675733e+09 -1.475797e+09 -1.635799e+09 1.103569e+04 1.766280e+04 7.911186e+04
-1.835066e+09 -1.635158e+09 -1.795160e+09 8.481964e+03 1.695909e+04 1.056925e+05
-1.718947e+09 -1.519027e+09 -1.679022e+09 1.469707e+04 1.260263e+04 1.075255e+05
-1.493430e+09 -1.293498e+09 -1.453471e+09 2.643031e+03 1.145804e+04 1.253351e+05
-1.501924e+09 -1.301997e+09 -1.461990e+09 9.623340e+01 9.392756e+03 9.111896e+04
-1.501926e+09 -1.301996e+09 -1.461992e+09 -4.095960e+03 6.023433e+03 8.946818e+04
-1.728869e+09 -1.528945e+09 -1.688940e+09 -5.801895e+03 2.754588e+03 8.670232e+04
-1.618026e+09 -1.418123e+09 -1.578122e+09 3.589499e+03 1.173669e+04 9.522866e+04
-1.956914e+09 -1.757048e+09 -1.917057e+09 1.133579e+04 5.032358e+03 9.228117e+04
-1.844977e+09 -1.645076e+09 -1.805072e+09 -9.230514e+02 6.524123e+03 8.859276e+04
-1.755602e+09 -1.555703e+09 -1.715637e+09 1.601420e+04 1.695511e+04 1.356760e+05
-1.921685e+09 -1.721794e+09 -1.881724e+09 6.098298e+03 1.219595e+04 1.309113e+05
-1.801220e+09 -1.601315e+09 -1.761245e+09 8.306179e+03 1.287014e+04 1.243089e+05
-1.635150e+09 -1.435214e+09 -1.595158e+09 1.425060e+03 1.981709e+04 1.233445e+05
-1.566828e+09 -1.366875e+09 -1.526822e+09 5.159872e+03 3.109286e+04 1.224660e+05
-1.566829e+09 -1.366877e+09 -1.526824e+09 4.206576e+03 2.732368e+04 1.219572e+05
-1.740126e+09 -1.540240e+09 -1.700210e+09 5.512206e+03 1.800215e+04 1.287887e+05
-1.671797e+09 -1.471906e+09 -1.631885e+09 1.058478e+04 1.821342e+04 1.297690e+05
-1.897286e+09 -1.697425e+09 -1.857423e+09 2.465454e+04 1.897193e+04 1.180750e+05
-1.839371e+09 -1.639499e+09 -1.799500e+09 1.542768e+04 4.605789e+03 1.118893e+05
-1.734339e+09 -1.534470e+09 -1.694457e+09 2.346188e+04 8.331748e+03 1.153028e+05
-1.968738e+09 -1.768861e+09 -1.928862e+09 4.710486e+04 1.111374e+04 1.405052e+05
-1.508902e+09 -1.308942e+09 -1.468916e+09 1.768776e+03 1.657768e+04 1.052468e+05
-1.743276e+09 -1.543331e+09 -1.703289e+09 1.212692e+04 2.130624e+04 1.289953e+05
-1.851318e+09 -1.651402e+09 -1.811361e+09 6.734890e+02 1.606746e+04 1.264570e+05
-1.851327e+09 -1.651418e+09 -1.811365e+09 1.580249e+04 2.590184e+03 1.275377e+05
-1.730856e+09 -1.530939e+09 -1.690890e+09 2.109843e+04 6.640143e+03 1.207634e+05
-1.496494e+09 -1.296546e+09 -1.456483e+09 -1.440685e+03 4.587223e+03 1.633592e+05
-1.508868e+09 -1.308955e+09 -1.468940e+09 -4.682296e+03 6.655832e+03 1.331725e+05
-1.508859e+09 -1.308937e+09 -1.468931e+09 3.380526e+03 1.266587e+04 1.393659e+05
-1.743279e+09 -1.543347e+09 -1.703351e+09 1.342175e+04 1.041033e+04 1.621512e+05
-1.860593e+09 -1.660731e+09 -1.820687e+09 2.403453e+04 1.673067e+04 1.476858e+05
-2.017780e+09 -1.817943e+09 -1.977923e+09 1.943537e+04 1.016405e+04 1.152736e+05
-2.147125e+09 -1.947308e+09 -2.107282e+09 2.402230e+04 4.621002e+03 1.357087e+05
-1.753970e+09 -1.554076e+09 -1.713937e+09 1.476820e+04 1.443320e+04 1.671339e+05
-1.920723e+09 -1.720856e+09 -1.880720e+09 -4.555049e+03 4.443760e+03 1.486167e+05
-1.799977e+09 -1.600061e+09 -1.759925e+09 2.061591e+03 7.022350e+03 1.341672e+05
-1.497674e+09 -1.297705e+09 -1.457616e+09 7.928795e+03 -3.060387e+03 1.763548e+05
-1.731238e+09 -1.531304e+09 -1.691219e+09 3.289889e+04 -2.719991e+03 1.262465e+05
-1.852005e+09 -1.652101e+09 -1.812006e+09 1.508478e+04 -1.230534e+04 1.454265e+05
-1.861957e+09 -1.662141e+09 -1.822057e+09 2.204443e+04 9.703335e+03 1.879834e+05
-2.029487e+09 -1.829704e+09 -1.989661e+09 9.497010e+03 4.763765e+03 1.307210e+05
-2.154989e+09 -1.955249e+09 -2.115208e+09 1.647531e+04 -1.350731e+04 1.725072e+05
-1.762611e+09 -1.562764e+09 -1.722738e+09 -5.828929e+03 -2.917195e+03 1.389719e+05
-1.688669e+09 -1.488791e+09 -1.648778e+09 -2.254817e+03 7.458666e+03 1.415744e+05
-1.922202e+09 -1.722401e+09 -1.882396e+09 1.237665e+04 -7.638999e+03 1.730016e+05
-1.870655e+09 -1.670838e+09 -1.830804e+09 1.524477e+04 -9.506847e+02 1.213703e+05
-2.156596e+09 -1.956837e+09 -2.116808e+09 1.863845e+04 3.534566e+03 1.655954e+05
-2.031124e+09 -1.831314e+09 -1.991292e+09 1.904367e+04 1.712693e+04 1.140525e+05
-1.641888e+09 -1.441965e+09 -1.601911e+09 -9.760565e+03 -8.485403e+03 1.372989e+05
-1.567951e+09 -1.367997e+09 -1.527960e+09 9.227166e+02 -1.321787e+04 1.317967e+05
-1.567957e+09 -1.367993e+09 -1.527961e+09 -1.882464e+04 -6.535766e+03 1.336518e+05
-1.852002e+09 -1.652099e+09 -1.812016e+09 3.112624e+02 1.798222e+04 1.436729e+05
-1.742804e+09 -1.542877e+09 -1.702801e+09 1.302275e+04 9.667834e+03 1.586835e+05
-1.509252e+09 -1.309268e+09 -1.469202e+09 -1.312889e+04 1.912608e+04 1.017110e+05
-1.633209e+09 -1.433256e+09 -1.593142e+09 -6.007836e+03 1.352668e+04 1.442238e+05
-1.566363e+09 -1.366368e+09 -1.526255e+09 3.931651e+03 4.805075e+04 1.395435e+05
-1.566371e+09 -1.366390e+09 -1.526266e+09 1.247745e+03 3.566685e+04 1.381217e+05
-1.741172e+09 -1.541314e+09 -1.701258e+09 -1.157460e+03 1.056587e+04 1.620472e+05
-1.674307e+09 -1.474454e+09 -1.634415e+09 1.112678e+04 1.746408e+04 1.680026e+05
-1.908634e+09 -1.708839e+09 -1.868811e+09 2.872284e+04 2.147113e+04 1.425890e+05
-1.749912e+09 -1.550032e+09 -1.709972e+09 9.718825e+03 -7.068150e+03 1.241972e+05
-1.910347e+09 -1.710490e+09 -1.870427e+09 -2.560025e+03 -2.180560e+03 1.305078e+05
-1.802336e+09 -1.602435e+09 -1.762372e+09 4.039755e+03 -1.002602e+03 1.261353e+05
-1.551334e+09 -1.351379e+09 -1.511235e+09 2.761306e+04 6.014482e+04 8.858618e+04
-1.551324e+09 -1.351368e+09 -1.511206e+09 3.123240e+04 2.754283e+04 8.421921e+04
-1.852634e+09 -1.652712e+09 -1.812512e+09 3.887616e+04 4.028706e+04 8.513432e+04
-1.660425e+09 -1.460601e+09 -1.620557e+09 2.511975e+04 1.486320e+04 1.591354e+05
-1.893975e+09 -1.694200e+09 -1.854165e+09 4.504379e+04 1.891573e+04 1.221657e+05
-2.086010e+09 -1.886270e+09 -2.046145e+09 3.594470e+03 6.746290e+03 1.711390e+05
-2.031964e+09 -1.832255e+09 -1.992144e+09 1.898487e+04 2.392807e+04 1.239393e+05
-2.200761e+09 -2.001104e+09 -2.160933e+09 -3.742461e+00 -3.734239e+04 1.675116e+05
-2.364089e+09 -2.164486e+09 -2.324214e+09 4.884566e+02 3.873879e+03 2.007483e+05
-1.849192e+09 -1.649367e+09 -1.809258e+09 -6.719784e+03 -4.222753e+03 1.417625e+05
-1.740015e+09 -1.540161e+09 -1.700052e+09 1.298544e+04 -1.534629e+04 1.611181e+05
-1.960664e+09 -1.760849e+09 -1.920689e+09 -1.440849e+04 -1.302148e+04 1.223446e+05
-1.987090e+09 -1.787309e+09 -1.947236e+09 7.964582e+02 -9.172516e+02 1.241663e+05
-2.098532e+09 -1.898785e+09 -2.058664e+09 -1.610337e+04 -1.262335e+04 1.005705e+05
-2.258465e+09 -2.058792e+09 -2.218658e+09 -3.141834e+04 -4.624192e+04 1.740886e+05
-2.055231e+09 -1.855493e+09 -2.015230e+09 -9.277489e+03 -6.621718e+04 1.064649e+05
-2.195157e+09 -1.995577e+09 -2.155340e+09 6.231453e+03 -3.645701e+04 1.090838e+05
-2.014031e+09 -1.814333e+09 -1.974078e+09 -1.846033e+04 -4.177708e+02 1.224193e+05
-2.092858e+09 -1.893169e+09 -2.052910e+09 -2.970884e+03 -4.231453e+04 9.677339e+04
-2.232800e+09 -2.033263e+09 -2.193028e+09 -7.035249e+03 -9.983027e+03 1.219840e+05
-2.408320e+09 -2.208846e+09 -2.368536e+09 -8.081749e+03 1.382302e+04 6.417482e+04
-1.526334e+09 -1.326369e+09 -1.486291e+09 -8.549031e+03 9.421351e+03 8.626927e+04
-1.804395e+09 -1.604520e+09 -1.764362e+09 -1.432616e+04 -2.828921e+04 1.166471e+05
-1.929490e+09 -1.729764e+09 -1.889596e+09 -5.617277e+04 -6.172914e+03 9.347945e+04
-1.644247e+09 -1.444388e+09 -1.604370e+09 -2.465600e+04 4.800491e+03 1.727908e+05
-2.024856e+09 -1.825155e+09 -1.985077e+09 -3.492606e+04 -3.952595e+04 1.821665e+05
-1.864930e+09 -1.665105e+09 -1.825067e+09 -4.816322e+04 -1.811995e+04 1.327291e+05
-1.506459e+09 -1.306509e+09 -1.466442e+09 -5.735708e+03 -2.671608e+04 1.770787e+05
-1.506440e+09 -1.306468e+09 -1.466393e+09 -9.463445e+03 8.380692e+03 1.786452e+05
-1.727106e+09 -1.527184e+09 -1.687089e+09 -2.759759e+04 -1.425375e+04 1.471634e+05
-1.676946e+09 -1.477151e+09 -1.636936e+09 6.078863e+04 4.379471e+04 1.034815e+05
-2.130480e+09 -1.930819e+09 -2.090522e+09 8.245210e+04 1.853719e+04 1.353185e+05
-1.954855e+09 -1.755145e+09 -1.914936e+09 3.247721e+04 2.812129e+04 1.569480e+05
-1.888829e+09 -1.689058e+09 -1.848826e+09 2.407167e+04 -2.585472e+03 1.515649e+05
-1.791997e+09 -1.592226e+09 -1.751989e+09 3.675968e+03 2.453357e+03 1.528455e+05
-1.514081e+09 -1.314221e+09 -1.473974e+09 2.387378e+04 1.496694e+04 1.170997e+05
-1.629925e+09 -1.430195e+09 -1.590160e+09 -5.949080e+04 1.410095e+04 1.296470e+05
-1.861699e+09 -1.661965e+09 -1.821914e+09 -5.416422e+04 2.777434e+04 1.411061e+05
-2.023142e+09 -1.823504e+09 -1.983466e+09 -9.583168e+04 -9.639513e+03 6.687413e+04
-1.879632e+09 -1.679935e+09 -1.839678e+09 -1.756396e+03 -2.017382e+04 8.460559e+04
-2.014280e+09 -1.814738e+09 -1.974521e+09 -9.402844e+04 4.457767e+03 3.016098e+04
-1.897718e+09 -1.698182e+09 -1.857952e+09 -8.477247e+04 1.954753e+04 1.510195e+04
-1.851633e+09 -1.651648e+09 -1.811188e+09 1.442647e+04 -1.691424e+05 -2.212893e+04
-1.735087e+09 -1.535073e+09 -1.694680e+09 1.096026e+04 -9.222711e+04 -1.053477e+05
-1.503360e+09 -1.303328e+09 -1.462875e+09 -3.132745e+04 -7.296958e+04 -4.940773e+04
-1.734539e+09 -1.534591e+09 -1.694476e+09 -4.229439e+04 -1.251328e+04 9.801186e+04
-1.581743e+09 -1.381825e+09 -1.541712e+09 -4.775541e+04 -1.347126e+04 1.155530e+05
-1.456470e+09 -1.256525e+09 -1.416356e+09 -2.220218e+04 -4.776817e+04 1.061412e+05
-1.456457e+09 -1.256488e+09 -1.416329e+09 -2.504074e+04 9.818420e+03 1.131209e+05
-1.859589e+09 -1.659832e+09 -1.819718e+09 -2.522165e+04 -1.854799e+04 8.336572e+04
-1.734549e+09 -1.534612e+09 -1.694499e+09 -9.868832e+03 -3.093380e+04 1.107729e+05
-1.581648e+09 -1.381743e+09 -1.541580e+09 -1.652076e+04 2.926670e+04 1.688787e+05
-1.859759e+09 -1.659878e+09 -1.819740e+09 -5.536489e+04 -6.595633e+03 8.640502e+04
-1.504995e+09 -1.304964e+09 -1.464711e+09 -9.260747e+03 1.067680e+04 2.928992e+03
-1.736702e+09 -1.536699e+09 -1.696340e+09 8.715966e+03 3.399934e+04 6.158665e+04
-1.851596e+09 -1.651656e+09 -1.811017e+09 1.891689e+04 1.553124e+05 -9.979303e+04
-2.004810e+09 -1.805208e+09 -1.964931e+09 -3.387368e+04 -2.453313e+04 5.923693e+04
-2.301212e+09 -2.101790e+09 -2.261526e+09 -3.713715e+04 -1.191468e+05 3.198006e+04
-2.139776e+09 -1.940261e+09 -2.099991e+09 1.390322e+04 -8.854429e+04 1.114301e+05
-1.736684e+09 -1.536738e+09 -1.696309e+09 -8.104789e+03 -8.447665e+04 3.281361e+04
-1.620147e+09 -1.420168e+09 -1.579858e+09 -5.612962e+03 3.078962e+04 -2.313284e+04
-1.620120e+09 -1.420220e+09 -1.579724e+09 2.116655e+04 -1.396822e+04 -5.449930e+04
-1.849481e+09 -1.649688e+09 -1.809004e+09 -2.791024e+04 4.103499e+04 -1.370717e+05
-1.734579e+09 -1.534724e+09 -1.694282e+09 -4.262979e+04 -6.221549e+04 3.716094e+04
-2.006090e+09 -1.806335e+09 -1.965742e+09 -1.157789e+05 -5.705809e+04 -9.272383e+04
-1.892533e+09 -1.692745e+09 -1.852492e+09 -1.711423e+05 3.764276e+04 -1.464486e+05
-1.777917e+09 -1.578238e+09 -1.738003e+09 -8.048295e+04 7.802764e+04 -8.532580e+04
-2.015980e+09 -1.816397e+09 -1.976108e+09 -1.244794e+05 4.245564e+04 -6.826942e+04
-1.502686e+09 -1.302725e+09 -1.462473e+09 3.964589e+04 -3.768292e+04 6.795209e+04
-1.659932e+09 -1.459961e+09 -1.619612e+09 -4.816647e+04 7.564868e+04 -8.859273e+03
-1.774351e+09 -1.574427e+09 -1.734012e+09 -1.074915e+05 5.213219e+03 -1.672611e+04
-1.856066e+09 -1.656254e+09 -1.815444e+09 -6.512118e+04 3.063987e+04 -2.835296e+05
-1.737584e+09 -1.537901e+09 -1.697128e+09 -9.718066e+04 9.825464e+04 -3.395165e+05
-1.499669e+09 -1.299924e+09 -1.459384e+09 -1.420687e+05 1.610058e+05 -2.103375e+05
-1.506658e+09 -1.306653e+09 -1.466189e+09 -9.221069e+04 1.085184e+05 -2.345690e+05
-1.744692e+09 -1.544787e+09 -1.704179e+09 -8.667991e+04 7.633887e+04 -1.648264e+05
-1.856022e+09 -1.656157e+09 -1.815390e+09 -1.176361e+05 2.025420e+05 -2.992487e+05
-1.859550e+09 -1.659853e+09 -1.819137e+09 -3.795658e+04 1.292637e+05 -2.292902e+05
-1.741231e+09 -1.541622e+09 -1.701029e+09 -1.111839e+05 2.944584e+05 -2.192139e+05
-1.973009e+09 -1.773443e+09 -1.932737e+09 -7.184523e+04 2.785648e+05 -2.581735e+05
-2.324358e+09 -2.124847e+09 -2.284345e+09 -1.846720e+05 -5.514365e+04 -1.618424e+05
-1.930677e+09 -1.731102e+09 -1.890536e+09 -5.164633e+04 -7.487287e+03 -1.101240e+05
-2.054357e+09 -1.854770e+09 -2.014289e+09 -9.237238e+04 -1.233222e+04 -1.129133e+05
-2.167775e+09 -1.968215e+09 -2.127545e+09 -1.347800e+05 -3.109434e+04 -7.721162e+04
-2.087381e+09 -1.887674e+09 -2.047232e+09 -1.719390e+05 -6.206215e+04 -1.871888e+05
-2.210929e+09 -2.011340e+09 -2.170890e+09 -2.103617e+05 -9.969561e+04 -1.122295e+05
-2.044299e+09 -1.844576e+09 -2.003945e+09 -8.498924e+04 -3.461105e+03 -1.618565e+05
-2.200673e+09 -2.001131e+09 -2.160638e+09 -1.813196e+05 -5.616216e+04 -1.881636e+05
-1.503219e+09 -1.303310e+09 -1.463496e+09 -1.113388e+04 1.142330e+05 -4.390410e+05
-1.503162e+09 -1.303362e+09 -1.463195e+09 -1.964781e+04 -1.954929e+04 -4.578813e+05
-1.735095e+09 -1.535243e+09 -1.695398e+09 -1.749880e+02 1.996898e+04 -5.407315e+05
-1.619932e+09 -1.420416e+09 -1.580269e+09 -2.484531e+05 1.405350e+05 -5.099963e+05
-1.857908e+09 -1.658390e+09 -1.817905e+09 -1.982546e+05 6.987520e+04 -6.154450e+05
-2.005554e+09 -1.806086e+09 -1.965493e+09 -2.352956e+05 2.297451e+04 -5.365361e+05
-1.508571e+09 -1.308461e+09 -1.467974e+09 -1.942994e+05 6.297964e+05 -1.156236e+06
-1.507980e+09 -1.308162e+09 -1.465776e+09 -1.183996e+05 9.013461e+04 -1.318935e+06
-1.767433e+09 -1.567612e+09 -1.725436e+09 -5.096354e+04 2.069135e+05 -1.449262e+06
-1.871440e+09 -1.671674e+09 -1.830832e+09 -1.695221e+05 1.629545e+05 -3.101398e+05
-1.760128e+09 -1.560355e+09 -1.719668e+09 -1.235651e+05 8.233824e+03 -1.813822e+05
-2.038138e+09 -1.838510e+09 -1.997397e+09 -1.885017e+05 8.680820e+04 -3.309589e+05
-1.991609e+09 -1.792104e+09 -1.951626e+09 -2.809920e+05 3.930004e+05 -6.703429e+05
-2.158351e+09 -1.958772e+09 -2.117923e+09 -3.400275e+05 3.572411e+05 -7.216587e+05
-2.283678e+09 -2.084311e+09 -2.243426e+09 -3.772223e+05 4.240994e+05 -5.956154e+05
-2.009968e+09 -1.810145e+09 -1.968972e+09 -2.147352e+05 4.975833e+05 -7.339921e+05
-2.177782e+09 -1.978208e+09 -2.137547e+09 -2.966039e+05 4.262817e+05 -4.941769e+05
-2.052550e+09 -1.852721e+09 -2.012109e+09 -3.131895e+05 3.637361e+05 -5.995980e+05
-1.522033e+09 -1.322007e+09 -1.481765e+09 -4.301351e+04 -1.707487e+04 -9.451490e+04
-1.521984e+09 -1.321978e+09 -1.481578e+09 -4.729889e+04 2.491810e+05 -5.967156e+04
-1.800086e+09 -1.600184e+09 -1.759705e+09 -1.129982e+05 2.366411e+05 -1.729870e+05
-1.508628e+09 -1.309004e+09 -1.468823e+09 -1.308828e+05 1.215764e+06 -8.984917e+05
-1.767712e+09 -1.567886e+09 -1.726559e+09 -1.478778e+04 1.298058e+06 -4.829897e+05
-1.878024e+09 -1.678119e+09 -1.837061e+09 -1.249201e+05 3.828999e+05 -6.256446e+05
-1.932074e+09 -1.732032e+09 -1.891727e+09 -2.884257e+05 4.083041e+05 -6.394751e+05
-1.800206e+09 -1.600184e+09 -1.759595e+09 -1.124825e+05 2.699495e+05 -4.685903e+05
-1.521874e+09 -1.321920e+09 -1.481423e+09 -3.364265e+04 2.728224e+05 -3.920160e+05
-1.803148e+09 -1.603123e+09 -1.762046e+09 -2.184655e+05 8.645775e+05 -5.590388e+05
-1.944573e+09 -1.744534e+09 -1.903996e+09 -3.072595e+05 4.957305e+05 -2.659950e+05
-1.851432e+09 -1.651711e+09 -1.811176e+09 -2.132791e+05 4.697315e+05 -3.084311e+05
-1.866197e+09 -1.666225e+09 -1.825346e+09 -3.455892e+05 4.169242e+05 -1.084686e+06
-1.955813e+09 -1.755853e+09 -1.915142e+09 -4.871330e+05 1.023595e+06 -1.629847e+06
-1.847337e+09 -1.647544e+09 -1.806570e+09 -2.845062e+05 1.336717e+06 -1.646853e+06
-1.799255e+09 -1.599173e+09 -1.758695e+09 -2.472255e+05 5.250535e+05 -4.310583e+05
-1.851093e+09 -1.651003e+09 -1.810195e+09 -2.268553e+05 1.714426e+05 -1.884152e+05
-1.772781e+09 -1.572765e+09 -1.732094e+09 -1.363800e+05 4.611382e+05 -5.289249e+04
-1.928143e+09 -1.728246e+09 -1.887141e+09 -3.769465e+05 1.549791e+06 -7.856391e+05
-2.059934e+09 -1.860214e+09 -2.019157e+09 -4.020044e+05 1.571494e+06 -8.607300e+05
-1.959021e+09 -1.759027e+09 -1.918053e+09 -3.770527e+05 1.552217e+06 -1.000343e+06
-1.931348e+09 -1.731430e+09 -1.890591e+09 -3.120912e+05 4.770910e+05 -5.447225e+05
-2.116820e+09 -1.916905e+09 -2.076142e+09 -4.528317e+05 4.940869e+05 -4.380045e+05
-2.129363e+09 -1.929578e+09 -2.088454e+09 -3.486325e+05 2.797111e+05 -2.172431e+05
-1.610892e+09 -1.410888e+09 -1.570506e+09 -1.307169e+05 2.491476e+05 -2.761184e+05
-1.532842e+09 -1.332817e+09 -1.492513e+09 -4.068571e+04 3.294979e+05 -4.182783e+05
-1.533028e+09 -1.332981e+09 -1.493158e+09 -4.060456e+04 6.234969e+05 -3.772417e+05
-1.876465e+09 -1.676571e+09 -1.836095e+09 -2.818530e+05 5.514025e+05 -5.102220e+05
-1.811143e+09 -1.611184e+09 -1.770487e+09 -1.637378e+05 2.933054e+05 -4.460306e+05
-1.889048e+09 -1.689325e+09 -1.848589e+09 -2.050719e+05 2.815282e+05 -3.709627e+05
-1.929085e+09 -1.729260e+09 -1.887531e+09 -3.890852e+05 8.114912e+05 -1.559512e+06
-2.179569e+09 -1.980015e+09 -2.138570e+09 -6.278946e+05 9.111561e+05 -1.739018e+06
-2.089508e+09 -1.890067e+09 -2.048011e+09 -4.744282e+05 9.358747e+05 -1.416887e+06
-1.850501e+09 -1.650331e+09 -1.809223e+09 -2.865755e+05 8.790916e+05 -6.208639e+05
-1.751827e+09 -1.551538e+09 -1.710866e+09 -2.292965e+05 5.023838e+05 -5.393711e+05
-1.528165e+09 -1.328008e+09 -1.487592e+09 -2.402263e+04 2.628347e+05 -4.619766e+05
-1.952702e+09 -1.752913e+09 -1.911332e+09 -3.559533e+05 3.868672e+05 -6.108067e+05
-2.113409e+09 -1.913651e+09 -2.071836e+09 -5.139098e+05 5.250834e+05 -4.791657e+05
-2.281358e+09 -2.081777e+09 -2.240575e+09 -6.011417e+05 4.056231e+05 -3.652053e+05
-1.696563e+09 -1.496308e+09 -1.654209e+09 -5.208885e+03 5.460892e+05 -2.007638e+06
-1.587498e+09 -1.387357e+09 -1.543780e+09 6.192681e+04 2.835309e+06 -2.651427e+06
-1.587203e+09 -1.387148e+09 -1.542882e+09 1.991666e+05 8.976450e+05 -2.903709e+06
-1.935278e+09 -1.735400e+09 -1.894061e+09 -2.828281e+05 7.655501e+05 -6.889089e+05
-2.262264e+09 -2.062404e+09 -2.221629e+09 -4.332418e+05 5.349873e+05 -4.428911e+05
-2.076662e+09 -1.876708e+09 -2.035859e+09 -3.819544e+05 3.994627e+05 -4.759358e+05
-1.479881e+09 -1.279645e+09 -1.439597e+09 4.047096e+05 3.130027e+06 -2.364940e+06
-1.679202e+09 -1.479629e+09 -1.635669e+09 3.678853e+04 2.473309e+06 -2.821874e+06
-1.788025e+09 -1.588518e+09 -1.746037e+09 -1.895804e+05 1.715106e+06 -5.396367e+05
-1.994903e+09 -1.794310e+09 -1.953692e+09 -4.561581e+05 6.976553e+05 -7.526881e+05
-2.208735e+09 -2.008316e+09 -2.166606e+09 -3.815002e+05 5.501375e+05 -1.057213e+06
-2.282360e+09 -2.081723e+09 -2.240521e+09 -4.640658e+05 6.723181e+05 -6.936206e+05
-1.969153e+09 -1.768504e+09 -1.928244e+09 -3.232341e+05 9.348230e+05 -2.899772e+05
-2.103153e+09 -1.902176e+09 -2.061545e+09 -2.601603e+05 1.031338e+06 -2.439300e+05
-2.291901e+09 -2.090910e+09 -2.250085e+09 -2.743420e+05 9.607899e+05 -1.996767e+05
-1.970583e+09 -1.770387e+09 -1.928383e+09 -6.974769e+05 1.635617e+06 -2.611446e+05
-2.254726e+09 -2.054548e+09 -2.211635e+09 -7.922237e+05 1.564557e+06 -8.778373e+05
-2.181809e+09 -1.981651e+09 -2.139143e+09 -8.228602e+05 1.589474e+06 -7.870508e+05
-1.631257e+09 -1.430327e+09 -1.589084e+09 5.952044e+04 3.111254e+06 -1.989388e+06
-1.830402e+09 -1.630168e+09 -1.784884e+09 -2.201400e+05 2.776835e+06 -1.960381e+06
-2.042519e+09 -1.841584e+09 -1.995986e+09 -1.825360e+05 2.625419e+06 -1.950793e+06
-1.974751e+09 -1.774626e+09 -1.931183e+09 -3.426333e+04 1.828447e+06 -1.000381e+06
-2.053706e+09 -1.853300e+09 -2.009718e+09 -1.648752e+05 1.780610e+06 -1.891470e+05
-1.920414e+09 -1.720008e+09 -1.876823e+09 -4.648467e+05 3.846090e+06 -1.142563e+06
-1.965321e+09 -1.764343e+09 -1.923365e+09 -9.736258e+03 9.643787e+05 -1.175928e+05
-2.080939e+09 -1.879976e+09 -2.039638e+09 -1.165396e+05 9.924775e+05 -1.385831e+05
-1.965859e+09 -1.765125e+09 -1.925458e+09 -1.319715e+05 1.212377e+06 -4.536632e+05
-2.008558e+09 -1.807556e+09 -1.966458e+09 -2.546983e+05 1.105046e+06 -4.976901e+05
-2.276376e+09 -2.075077e+09 -2.233892e+09 -2.656920e+05 9.557840e+05 9.233151e+04
-2.197335e+09 -1.996323e+09 -2.155137e+09 -2.772549e+05 1.048265e+06 -4.523847e+05
-1.818609e+09 -1.618079e+09 -1.777429e+09 -2.071635e+05 8.195749e+05 -2.752477e+05
-1.729901e+09 -1.529739e+09 -1.688856e+09 -9.296709e+04 6.776723e+05 -3.018049e+05
-1.952671e+09 -1.751842e+09 -1.910785e+09 -1.163704e+05 9.831013e+05 -2.411827e+05
-1.704124e+09 -1.503886e+09 -1.663297e+09 -1.804510e+05 8.778511e+05 -4.502151e+05
-1.615608e+09 -1.415518e+09 -1.574688e+09 -6.640308e+04 6.369581e+05 -3.443726e+05
-1.615581e+09 -1.415571e+09 -1.574682e+09 4.642340e+04 7.122941e+05 -3.269972e+05
-1.776388e+09 -1.576637e+09 -1.733321e+09 2.541182e+05 3.597579e+06 -1.325912e+06
-1.624384e+09 -1.425012e+09 -1.582575e+09 3.764656e+03 2.754679e+06 -1.095965e+06
-1.624807e+09 -1.424702e+09 -1.584512e+09 2.219368e+05 3.534314e+06 -3.353991e+05
-1.926772e+09 -1.727292e+09 -1.883494e+09 3.234978e+05 3.140290e+06 -6.278328e+05
-1.473498e+09 -1.274107e+09 -1.431067e+09 4.285820e+03 3.211298e+06 -1.257847e+06
-1.473276e+09 -1.273298e+09 -1.430857e+09 2.597601e+04 3.583092e+06 -1.191468e+06
-1.927338e+09 -1.727227e+09 -1.883837e+09 2.379652e+05 3.432126e+06 -2.393053e+05
-1.776375e+09 -1.576430e+09 -1.733325e+09 -1.154149e+04 3.642832e+06 -1.239310e+06
-1.844167e+09 -1.643907e+09 -1.802910e+09 -3.488683e+05 6.666118e+05 -5.835555e+05
-1.979173e+09 -1.778899e+09 -1.937470e+09 -4.274507e+05 7.313644e+05 -6.104608e+05
-1.755773e+09 -1.555437e+09 -1.714531e+09 -2.263476e+05 5.640641e+05 -3.172410e+05
-1.832565e+09 -1.632101e+09 -1.791538e+09 -1.951240e+05 8.335753e+05 -1.750900e+05
-1.725029e+09 -1.524588e+09 -1.683869e+09 -4.731142e+04 8.207091e+05 -1.634017e+05
-1.502427e+09 -1.302494e+09 -1.461983e+09 8.551174e+04 5.431080e+05 -9.414121e+03
-1.494891e+09 -1.294369e+09 -1.453406e+09 2.101245e+04 3.405517e+06 -1.337754e+06
-1.723214e+09 -1.523340e+09 -1.679149e+09 -1.115872e+05 3.434387e+06 -1.795575e+06
-1.857563e+09 -1.657375e+09 -1.814824e+09 1.237858e+05 2.346431e+06 -1.839075e+05
-1.967383e+09 -1.766736e+09 -1.925810e+09 -2.665185e+04 1.022256e+06 -4.936393e+04
-2.083107e+09 -1.882340e+09 -2.041984e+09 -6.283856e+04 9.996841e+05 -9.951003e+04
-1.960324e+09 -1.759697e+09 -1.919080e+09 -8.499139e+04 8.615193e+05 -1.400076e+05
-1.825064e+09 -1.624656e+09 -1.783792e+09 -1.567743e+04 9.482222e+05 -1.451893e+05
-1.718139e+09 -1.517975e+09 -1.676460e+09 4.918239e+04 8.960086e+05 2.795017e+05
-1.496089e+09 -1.296179e+09 -1.455432e+09 3.778352e+04 4.937591e+05 2.303953e+05
-1.677452e+09 -1.477416e+09 -1.636499e+09 3.147361e+04 6.639045e+05 -2.754024e+05
-1.562878e+09 -1.362711e+09 -1.521892e+09 -5.563079e+02 7.219773e+05 -1.858600e+05
-1.562863e+09 -1.362955e+09 -1.522166e+09 9.356216e+03 5.331686e+05 -2.525808e+05
-1.785123e+09 -1.585079e+09 -1.744203e+09 -3.334438e+04 7.222239e+05 -3.451871e+05
-1.455127e+09 -1.255009e+09 -1.414206e+09 6.436430e+03 7.782780e+05 -1.997208e+05
-1.455125e+09 -1.255140e+09 -1.414171e+09 7.455386e+04 6.029487e+05 -2.348504e+05
-1.785154e+09 -1.585118e+09 -1.744193e+09 -5.715735e+04 8.007574e+05 -2.621755e+05
-1.677441e+09 -1.477429e+09 -1.636435e+09 1.005270e+04 8.024733e+05 -2.779667e+05
-1.494216e+09 -1.294763e+09 -1.451739e+09 -1.533031e+05 2.181560e+06 6.338817e+05
-1.495199e+09 -1.295166e+09 -1.455648e+09 -2.900459e+05 4.055584e+06 6.844998e+05
-1.723833e+09 -1.524148e+09 -1.682135e+09 -5.356048e+04 4.116838e+06 1.050763e+06
-1.494583e+09 -1.294467e+09 -1.452844e+09 -9.997271e+04 1.313044e+06 -5.590959e+04
-1.723831e+09 -1.523810e+09 -1.682391e+09 -2.387182e+03 1.497695e+06 -4.679775e+04
-1.859292e+09 -1.659133e+09 -1.818343e+09 -8.415358e+04 7.736444e+05 7.051744e+04
-1.950300e+09 -1.749416e+09 -1.909191e+09 9.761613e+04 8.121167e+05 5.743932e+05
-2.076357e+09 -1.875527e+09 -2.034823e+09 1.786720e+05 8.794284e+05 5.160609e+05
-2.187799e+09 -1.986748e+09 -2.146106e+09 1.750685e+05 7.585759e+05 6.580852e+05
-1.934040e+09 -1.733644e+09 -1.893637e+09 1.293423e+05 2.905021e+05 6.176074e+04
-2.083413e+09 -1.882767e+09 -2.042995e+09 1.118220e+05 3.627358e+05 1.835785e+05
-1.977113e+09 -1.776701e+09 -1.936901e+09 1.261714e+05 5.511341e+05 6.814559e+03
-1.804401e+09 -1.604020e+09 -1.763285e+09 5.593722e+04 5.762097e+05 1.143368e+05
-1.716846e+09 -1.516615e+09 -1.675815e+09 4.394190e+03 1.842783e+05 1.324947e+04
-1.962930e+09 -1.762531e+09 -1.921902e+09 1.348302e+05 3.203535e+05 4.744791e+04
-1.859013e+09 -1.658711e+09 -1.818664e+09 4.410410e+04 2.746094e+05 1.270306e+05
-1.742063e+09 -1.541895e+09 -1.701744e+09 5.262955e+04 2.778683e+05 1.053609e+05
-1.495825e+09 -1.295918e+09 -1.455415e+09 -1.329533e+04 1.673459e+05 1.695448e+05
-1.938554e+09 -1.737989e+09 -1.898300e+09 3.749593e+04 9.182958e+05 7.901686e+04
-2.196338e+09 -1.995547e+09 -2.156012e+09 -5.198940e+04 8.928392e+05 -2.905575e+05
-2.073330e+09 -1.872615e+09 -2.032439e+09 -3.724506e+04 8.725930e+05 -2.313952e+05
-1.696483e+09 -1.496382e+09 -1.655719e+09 2.163882e+04 5.710111e+05 6.409338e+04
-1.608888e+09 -1.408947e+09 -1.568144e+09 6.886587e+04 6.991586e+05 1.022643e+04
-1.608944e+09 -1.408995e+09 -1.568276e+09 2.377271e+04 2.044428e+05 -5.922741e+04
-1.485242e+09 -1.284924e+09 -1.444490e+09 5.595622e+04 4.595378e+05 1.860584e+05
-1.698955e+09 -1.498658e+09 -1.657905e+09 2.066464e+04 4.288909e+05 1.537166e+05
-1.816942e+09 -1.616778e+09 -1.775883e+09 8.089838e+04 5.294184e+05 3.832014e+04
-1.855631e+09 -1.655279e+09 -1.813578e+09 2.166782e+05 8.596645e+05 4.321233e+05
-1.831530e+09 -1.630917e+09 -1.789088e+09 2.000238e+05 1.574907e+06 9.268815e+04
-1.966905e+09 -1.766192e+09 -1.924735e+09 1.382298e+05 7.538873e+05 4.599381e+05
-1.719964e+09 -1.519971e+09 -1.678983e+09 -3.696688e+04 9.725969e+05 8.147024e+05
-1.601972e+09 -1.401883e+09 -1.560962e+09 -3.471887e+04 1.157392e+06 7.586880e+05
-1.602155e+09 -1.401936e+09 -1.561438e+09 -1.333210e+05 1.700502e+06 9.216659e+05
-1.803036e+09 -1.602680e+09 -1.762347e+09 4.288637e+04 7.034638e+05 2.144397e+05
-1.937961e+09 -1.737369e+09 -1.896885e+09 5.851426e+03 8.102500e+05 -1.885397e+05
-1.831471e+09 -1.631244e+09 -1.790411e+09 -1.990097e+04 5.356182e+05 -4.597940e+04
-1.922275e+09 -1.721658e+09 -1.880857e+09 6.669226e+04 3.609519e+05 1.420672e+05
-2.080950e+09 -1.880354e+09 -2.040075e+09 1.915284e+05 4.860586e+05 -3.359745e+04
-2.187071e+09 -1.986410e+09 -2.145931e+09 2.473742e+05 3.706410e+05 -1.277537e+05
-1.599664e+09 -1.399330e+09 -1.558954e+09 1.897892e+05 5.246848e+05 7.725900e+04
-1.813321e+09 -1.613070e+09 -1.772289e+09 1.798007e+05 5.256131e+05 1.266307e+05
-1.912645e+09 -1.712456e+09 -1.871262e+09 2.873105e+05 4.590046e+05 2.643090e+05
-1.873921e+09 -1.673912e+09 -1.833369e+09 6.727967e+04 7.782668e+04 1.189638e+05
-1.751427e+09 -1.551497e+09 -1.710955e+09 3.158085e+04 7.699673e+04 1.291674e+05
-1.505341e+09 -1.305409e+09 -1.465063e+09 1.942216e+03 -2.618594e+03 4.757236e+04
-1.475794e+09 -1.275666e+09 -1.435358e+09 3.239275e+04 7.420606e+04 1.321953e+05
-1.672015e+09 -1.471920e+09 -1.631563e+09 6.770516e+04 4.748064e+04 6.942309e+04
-1.786454e+09 -1.586404e+09 -1.745821e+09 1.803757e+05 8.268786e+04 -1.244557e+04
-1.930395e+09 -1.729952e+09 -1.889645e+09 1.890842e+05 2.409669e+05 3.178261e+05
-2.079651e+09 -1.879242e+09 -2.039323e+09 2.375515e+05 2.952976e+05 3.709364e+05
-2.159118e+09 -1.958681e+09 -2.118441e+09 3.394435e+05 3.419683e+05 3.945571e+05
-1.642017e+09 -1.441847e+09 -1.601238e+09 1.338012e+05 6.744947e+05 3.847775e+05
-1.560007e+09 -1.359951e+09 -1.519338e+09 1.621866e+04 4.564372e+05 3.034930e+05
-1.560155e+09 -1.359935e+09 -1.520187e+09 1.160988e+05 5.339242e+05 4.463827e+05
-1.756291e+09 -1.556286e+09 -1.715642e+09 1.627411e+05 5.909870e+05 4.516428e+05
-1.445831e+09 -1.245791e+09 -1.405482e+09 1.997598e+04 3.284155e+05 3.675757e+05
-1.445696e+09 -1.245429e+09 -1.405262e+09 4.738218e+04 6.949833e+05 3.807855e+05
-1.756496e+09 -1.556263e+09 -1.715579e+09 1.629269e+05 5.220785e+05 3.921465e+05
-1.641982e+09 -1.441775e+09 -1.601200e+09 3.255802e+04 5.507556e+05 3.941914e+05
-1.908823e+09 -1.708645e+09 -1.868252e+09 2.086437e+05 1.353231e+05 3.675873e+04
-2.067698e+09 -1.867413e+09 -2.026858e+09 2.310872e+05 1.659597e+05 6.888635e+04
-1.988227e+09 -1.787959e+09 -1.947690e+09 1.373827e+05 1.203594e+05 6.861084e+04
-1.505289e+09 -1.305385e+09 -1.465052e+09 -4.771994e+04 -7.959623e+03 3.104117e+04
-1.751510e+09 -1.551479e+09 -1.710957e+09 -5.811421e+04 1.065248e+05 -3.224002e+04
-1.634521e+09 -1.434600e+09 -1.593998e+09 -3.547730e+04 1.063069e+05 -7.094802e+04
-1.890700e+09 -1.690451e+09 -1.850529e+09 1.312363e+05 -9.493715e+04 -1.966874e+04
-1.768269e+09 -1.568113e+09 -1.728124e+09 8.174708e+04 -4.742224e+04 -5.027441e+04
-2.053132e+09 -1.852778e+09 -2.013045e+09 1.143699e+05 -1.915688e+04 -9.063599e+03
-1.488458e+09 -1.288373e+09 -1.448238e+09 7.403814e+03 -1.078832e+05 7.021014e+03
-1.708637e+09 -1.508554e+09 -1.668435e+09 4.631267e+04 -1.409041e+05 -3.657454e+04
-1.832152e+09 -1.632175e+09 -1.791922e+09 9.481438e+04 -7.419748e+04 -1.259611e+05
-1.599228e+09 -1.399222e+09 -1.559066e+09 1.198057e+05 1.314555e+05 -3.149171e+04
-1.795514e+09 -1.595486e+09 -1.755263e+09 1.533228e+05 9.795714e+04 -9.086993e+04
-1.928211e+09 -1.728374e+09 -1.888017e+09 1.967428e+05 1.010388e+05 -1.944973e+04
-1.918059e+09 -1.717888e+09 -1.877636e+09 2.155588e+05 1.265018e+05 -5.586790e+04
-2.076741e+09 -1.876584e+09 -2.036146e+09 2.635224e+05 1.679561e+05 1.253199e+05
-2.174617e+09 -1.974443e+09 -2.133985e+09 2.972439e+05 2.606328e+05 1.166540e+05
-1.938480e+09 -1.738457e+09 -1.898346e+09 7.286624e+04 -4.531326e+04 -9.367283e+03
-1.806863e+09 -1.606905e+09 -1.766784e+09 4.547001e+04 -4.577559e+04 -1.708584e+03
-1.522057e+09 -1.322112e+09 -1.481930e+09 -6.915454e+03 -9.138372e+04 -4.812187e+04
-1.670435e+09 -1.470351e+09 -1.630219e+09 2.903554e+04 2.129874e+05 1.366669e+05
-1.573644e+09 -1.373662e+09 -1.533343e+09 6.553350e+03 1.219389e+05 5.700206e+04
-1.573679e+09 -1.373617e+09 -1.533625e+09 5.340076e+04 1.581416e+05 1.167871e+05
-1.793925e+09 -1.593968e+09 -1.753745e+09 6.020882e+04 2.168158e+05 1.265276e+05
-1.450214e+09 -1.250166e+09 -1.410104e+09 8.620466e+03 3.697776e+04 1.115746e+05
-1.450203e+09 -1.250107e+09 -1.410114e+09 1.039072e+04 2.407452e+05 1.389034e+05
-1.793920e+09 -1.593918e+09 -1.753626e+09 6.593352e+04 1.496156e+05 3.478313e+04
-1.670417e+09 -1.470334e+09 -1.630145e+09 6.381425e+03 1.059493e+05 1.365522e+05
-2.014217e+09 -1.813899e+09 -1.973790e+09 1.577211e+05 -1.546934e+05 -2.207935e+03
-2.176750e+09 -1.976463e+09 -2.136569e+09 1.956810e+05 -7.435263e+04 1.900758e+04
-2.263364e+09 -2.063052e+09 -2.223028e+09 2.404158e+05 -1.057788e+05 -2.856755e+04
-1.963691e+09 -1.763600e+09 -1.923495e+09 1.301423e+05 -6.086820e+04 -8.571969e+04
-2.148669e+09 -1.948480e+09 -2.108368e+09 1.503838e+05 -5.096709e+04 -3.323793e+04
-2.061957e+09 -1.861846e+09 -2.021848e+09 1.050761e+05 -3.689513e+04 -2.265653e+04
-1.522042e+09 -1.322108e+09 -1.481927e+09 -3.670286e+03 -9.080045e+04 -5.280401e+04
-1.806961e+09 -1.606915e+09 -1.766778e+09 3.534851e+04 -2.552018e+04 -7.042909e+04
-1.522009e+09 -1.322092e+09 -1.481732e+09 2.227792e+04 -4.605549e+04 -1.384492e+05
-2.098768e+09 -1.898655e+09 -2.058565e+09 1.178131e+05 -1.510100e+05 -4.956293e+04
-2.302850e+09 -2.102736e+09 -2.262898e+09 1.902263e+05 -1.060796e+05 -3.350050e+04
-2.400871e+09 -2.200713e+09 -2.360827e+09 2.220489e+05 -1.376605e+05 -7.523361e+04
-1.956144e+09 -1.756054e+09 -1.916101e+09 1.159769e+05 -1.036616e+05 -1.036483e+05
-1.824549e+09 -1.624478e+09 -1.784538e+09 6.814066e+04 -1.368835e+05 -9.116132e+04
-2.160169e+09 -1.959891e+09 -2.120193e+09 1.633760e+05 -1.379388e+05 -4.476942e+04
-1.531116e+09 -1.331072e+09 -1.491016e+09 7.454173e+03 -3.056849e+04 -1.594554e+04
-1.531153e+09 -1.331080e+09 -1.491157e+09 2.836127e+03 2.249723e+03 4.583922e+02
-1.780472e+09 -1.580461e+09 -1.740480e+09 -5.144055e+03 4.578092e+04 3.084898e+04
-1.960565e+09 -1.760507e+09 -1.920634e+09 7.893334e+04 -8.382100e+04 -8.954484e+04
-2.110385e+09 -1.910236e+09 -2.070310e+09 7.358650e+04 -1.356758e+05 -7.624082e+04
-1.992736e+09 -1.792682e+09 -1.952719e+09 6.424250e+04 -1.565693e+05 -1.077582e+05
-1.488012e+09 -1.288005e+09 -1.447928e+09 -3.048142e+04 -1.233218e+05 -1.093487e+05
-1.706599e+09 -1.506560e+09 -1.666642e+09 4.432559e+04 -8.272197e+04 -7.325220e+04
-1.817867e+09 -1.617829e+09 -1.777906e+09 4.667067e+04 -1.032894e+05 -5.262432e+04
-1.630985e+09 -1.431045e+09 -1.591021e+09 1.014314e+05 -5.883073e+04 -1.090305e+05
-1.851250e+09 -1.651265e+09 -1.811271e+09 1.226383e+05 -8.557353e+04 -1.556985e+05
-2.000388e+09 -1.800592e+09 -1.960516e+09 1.347517e+05 -5.561657e+04 -1.095536e+05
-1.881460e+09 -1.681414e+09 -1.841427e+09 5.669403e+04 -1.394747e+05 -1.159642e+05
-1.780402e+09 -1.580381e+09 -1.740345e+09 1.627997e+04 -1.281116e+05 -1.169993e+05
-1.531103e+09 -1.331035e+09 -1.490882e+09 -5.736534e+03 -1.552592e+05 -1.009708e+05
-1.639280e+09 -1.439308e+09 -1.599216e+09 2.533448e+04 -1.545673e+05 -1.224627e+05
-1.857890e+09 -1.657889e+09 -1.817944e+09 8.854006e+04 -1.220278e+05 -8.254711e+04
-2.094047e+09 -1.894059e+09 -2.054041e+09 1.081654e+05 -1.072127e+05 -9.963060e+04
-1.539744e+09 -1.339760e+09 -1.499649e+09 -1.726846e+04 -1.698182e+05 -8.011757e+04
-1.875457e+09 -1.675349e+09 -1.835358e+09 3.013676e+04 -1.283090e+05 -4.954311e+04
-1.539717e+09 -1.339770e+09 -1.499598e+09 -5.130055e+03 -1.477093e+05 -1.272480e+05
-1.982890e+09 -1.782792e+09 -1.942817e+09 1.500711e+05 -6.148624e+04 -1.591589e+05
-2.167744e+09 -1.967629e+09 -2.127631e+09 1.834224e+05 -4.642263e+04 -7.164532e+04
-2.285463e+09 -2.085392e+09 -2.245365e+09 2.101155e+05 2.047333e+04 -2.687277e+04
-2.000595e+09 -1.800545e+09 -1.960620e+09 1.206849e+05 -1.235302e+05 -1.086136e+05
-2.334781e+09 -2.134647e+09 -2.294612e+09 1.356885e+05 -1.740914e+05 -1.276491e+05
-2.236711e+09 -2.036648e+09 -2.196649e+09 1.196928e+05 -1.500840e+05 -9.578702e+04
-2.012150e+09 -1.812138e+09 -1.972155e+09 7.688885e+04 -1.162759e+05 -1.244906e+05
-2.211768e+09 -2.011784e+09 -2.171839e+09 1.071153e+05 -8.780901e+04 -1.064037e+05
-2.454183e+09 -2.254206e+09 -2.414255e+09 1.332785e+05 -1.229835e+05 -1.470805e+05
-1.669920e+09 -1.469894e+09 -1.629868e+09 -2.188306e+04 -1.157308e+05 -8.291928e+04
-1.562480e+09 -1.362462e+09 -1.522417e+09 -1.431819e+04 -1.174507e+05 -7.612087e+04
-1.562511e+09 -1.362482e+09 -1.522440e+09 -2.609272e+04 -1.252027e+05 -8.909496e+04
-1.781197e+09 -1.581164e+09 -1.741141e+09 -1.886357e+04 -1.221679e+05 -7.435591e+04
-1.451231e+09 -1.251206e+09 -1.411205e+09 -1.337539e+04 -1.016430e+05 -8.649619e+04
-1.451236e+09 -1.251220e+09 -1.411197e+09 -2.477678e+04 -1.227854e+05 -8.731975e+04
-1.781196e+09 -1.581164e+09 -1.741142e+09 -1.846438e+04 -1.127988e+05 -5.605003e+04
-1.669919e+09 -1.469893e+09 -1.629865e+09 -1.994677e+04 -1.018428e+05 -8.240946e+04
-1.561945e+09 -1.361981e+09 -1.521900e+09 -9.398254e+03 -7.535331e+04 -9.265503e+04
-1.561916e+09 -1.361890e+09 -1.521889e+09 2.532437e+04 -6.973892e+04 -1.035205e+05
-1.924697e+09 -1.724714e+09 -1.884690e+09 1.490509e+04 -5.468477e+04 -8.531383e+04
-1.993019e+09 -1.793109e+09 -1.953148e+09 1.010100e+05 -1.010960e+05 -1.245837e+05
-1.872706e+09 -1.672739e+09 -1.832812e+09 1.063121e+05 -1.285801e+05 -1.145265e+05
-2.235490e+09 -2.035485e+09 -2.195580e+09 1.200941e+05 -1.472886e+05 -1.243553e+05
-2.023483e+09 -1.823500e+09 -1.983540e+09 1.240601e+05 -1.298012e+05 -1.233889e+05
-2.141012e+09 -1.941015e+09 -2.101101e+09 1.612156e+05 -8.989633e+04 -6.916270e+04
-2.392548e+09 -2.192546e+09 -2.352632e+09 1.619269e+05 -8.767510e+04 -7.468523e+04
-1.912205e+09 -1.712217e+09 -1.872246e+09 1.178496e+05 -1.119908e+05 -1.291832e+05
-2.173826e+09 -1.974006e+09 -2.133955e+09 8.885355e+04 -6.762179e+04 -1.046601e+05
-1.811075e+09 -1.611155e+09 -1.771152e+09 9.474474e+04 -9.546875e+04 -1.301719e+05
-1.518701e+09 -1.318695e+09 -1.478678e+09 1.290209e+04 -1.023420e+05 -8.634966e+04
-1.528266e+09 -1.328298e+09 -1.488264e+09 4.436337e+03 -8.980825e+04 -7.689531e+04
-1.580742e+09 -1.380735e+09 -1.540749e+09 3.136756e+04 -9.577757e+04 -8.444996e+04
-1.596950e+09 -1.396962e+09 -1.556971e+09 3.218567e+04 -9.508432e+04 -8.419316e+04
-1.752420e+09 -1.552428e+09 -1.712437e+09 3.152942e+04 -8.880520e+04 -8.163934e+04
-1.799683e+09 -1.599693e+09 -1.759696e+09 3.826940e+04 -9.392491e+04 -7.959006e+04
-1.705731e+09 -1.505726e+09 -1.665735e+09 3.176481e+04 -1.019281e+05 -8.289046e+04
-1.449960e+09 -1.249950e+09 -1.409955e+09 -1.416146e+03 -1.006305e+05 -8.216364e+04
-1.450524e+09 -1.250513e+09 -1.410527e+09 -6.625178e+02 -8.583943e+04 -8.339094e+04
-1.449964e+09 -1.249953e+09 -1.409963e+09 -2.292639e+03 -1.046863e+05 -8.554605e+04
-1.512009e+09 -1.312017e+09 -1.472031e+09 1.319759e+04 -8.761359e+04 -7.832476e+04
-1.637004e+09 -1.437021e+09 -1.597024e+09 1.657378e+04 -9.093218e+04 -7.687797e+04
-1.574939e+09 -1.374925e+09 -1.534951e+09 8.008905e+03 -9.100441e+04 -7.948039e+04
-1.449962e+09 -1.249952e+09 -1.409954e+09 -2.043123e+03 -9.965498e+04 -8.809552e+04
-1.600201e+09 -1.400194e+09 -1.560210e+09 2.612671e+04 -8.830059e+04 -7.387378e+04
-1.755665e+09 -1.555665e+09 -1.715686e+09 2.730363e+04 -9.850239e+04 -8.605103e+04
-1.802930e+09 -1.602936e+09 -1.762943e+09 3.502605e+04 -1.026451e+05 -8.462148e+04
-1.884770e+09 -1.684748e+09 -1.844803e+09 5.592596e+04 -8.886649e+04 -6.865771e+04
-1.522461e+09 -1.322439e+09 -1.482487e+09 1.849341e+04 -8.188965e+04 -8.027278e+04
-1.647450e+09 -1.447464e+09 -1.607487e+09 2.551093e+04 -9.478865e+04 -8.346132e+04
-1.585364e+09 -1.385324e+09 -1.545398e+09 3.093024e+04 -8.987454e+04 -8.157270e+04
-1.729289e+09 -1.529233e+09 -1.689332e+09 4.607069e+04 -9.115623e+04 -7.264727e+04
-1.457181e+09 -1.257181e+09 -1.417168e+09 3.888629e+03 -1.043278e+05 -8.921122e+04
-1.466190e+09 -1.266200e+09 -1.426186e+09 5.872055e+02 -8.464021e+04 -7.760698e+04
-1.534867e+09 -1.334904e+09 -1.494899e+09 2.384516e+04 -9.538839e+04 -9.012420e+04
-1.466178e+09 -1.266191e+09 -1.426188e+09 8.578733e+03 -8.208419e+04 -7.869888e+04
-1.466175e+09 -1.266199e+09 -1.426176e+09 8.847454e+03 -8.704722e+04 -7.372813e+04
-1.621636e+09 -1.421654e+09 -1.581653e+09 1.724474e+04 -9.359922e+04 -7.862953e+04
-1.690337e+09 -1.490390e+09 -1.650372e+09 2.300168e+04 -9.168891e+04 -8.723656e+04
-1.460427e+09 -1.260432e+09 -1.420410e+09 -1.043998e+04 -8.927685e+04 -8.761455e+04
-1.568924e+09 -1.368913e+09 -1.528915e+09 -5.787392e+03 -9.188646e+04 -7.797408e+04
-1.496968e+09 -1.296956e+09 -1.456950e+09 -6.292725e+03 -9.275340e+04 -8.180916e+04
-1.640866e+09 -1.440864e+09 -1.600872e+09 9.083021e+03 -9.379531e+04 -8.011903e+04
-1.568921e+09 -1.368914e+09 -1.528915e+09 -6.224379e+03 -9.218729e+04 -7.867188e+04
-1.424995e+09 -1.224983e+09 -1.384977e+09 -1.047951e+04 -9.640576e+04 -7.771152e+04
-1.424991e+09 -1.224990e+09 -1.384977e+09 -6.797812e+03 -9.335472e+04 -8.272342e+04
-1.496941e+09 -1.296944e+09 -1.456930e+09 1.568151e+02 -9.835158e+04 -9.410591e+04
-1.640889e+09 -1.440874e+09 -1.600880e+09 2.905007e+03 -9.274982e+04 -7.715400e+04
-1.442395e+09 -1.242467e+09 -1.402474e+09 7.282096e+03 2.970757e+03 1.529126e+04
-1.460800e+09 -1.260872e+09 -1.420879e+09 6.998651e+03 2.719290e+03 1.364301e+04
-1.514849e+09 -1.314923e+09 -1.474930e+09 7.325509e+03 2.961680e+03 1.445196e+04
-1.460800e+09 -1.260873e+09 -1.420879e+09 6.943499e+03 2.604522e+03 1.368937e+04
-1.460800e+09 -1.260873e+09 -1.420879e+09 6.331985e+03 2.462000e+03 1.342692e+04
-1.605712e+09 -1.405786e+09 -1.565795e+09 7.431986e+03 2.366912e+03 1.442959e+04
-1.659764e+09 -1.459838e+09 -1.619846e+09 7.622192e+03 2.174362e+03 1.477228e+04
-1.594651e+09 -1.394723e+09 -1.554731e+09 7.484409e+03 2.467679e+03 1.335457e+04
-1.739565e+09 -1.539638e+09 -1.699648e+09 7.538566e+03 2.739635e+03 1.437484e+04
-1.784477e+09 -1.584551e+09 -1.744560e+09 7.450932e+03 2.942292e+03 1.507011e+04
-1.867331e+09 -1.667405e+09 -1.827415e+09 8.118240e+03 2.345224e+03 1.420674e+04
-1.432135e+09 -1.232206e+09 -1.392214e+09 8.213037e+03 3.543096e+03 1.611020e+04
-1.449962e+09 -1.250031e+09 -1.410039e+09 8.478596e+03 2.813995e+03 1.449081e+04
-1.432134e+09 -1.232205e+09 -1.392213e+09 8.796578e+03 3.263088e+03 1.587485e+04
-1.493749e+09 -1.293821e+09 -1.453829e+09 9.067907e+03 2.992920e+03 1.485623e+04
-1.611118e+09 -1.411192e+09 -1.571201e+09 7.946964e+03 3.918658e+03 1.556155e+04
-1.549507e+09 -1.349576e+09 -1.509585e+09 9.322795e+03 3.264042e+03 1.651807e+04
-1.432136e+09 -1.232205e+09 -1.392214e+09 9.940158e+03 3.232741e+03 1.500990e+04
-1.460582e+09 -1.260649e+09 -1.420658e+09 7.894671e+03 3.327409e+03 1.390122e+04
-1.460583e+09 -1.260650e+09 -1.420658e+09 8.734188e+03 3.075996e+03 1.378221e+04
-1.460583e+09 -1.260648e+09 -1.420658e+09 8.232440e+03 3.325485e+03 1.413108e+04
-1.605055e+09 -1.405121e+09 -1.565131e+09 7.839177e+03 3.964539e+03 1.469662e+04
-1.486186e+09 -1.286258e+09 -1.446265e+09 7.253515e+03 3.366239e+03 1.517879e+04
-1.522416e+09 -1.322489e+09 -1.482496e+09 6.347273e+03 2.811485e+03 1.396748e+04
-1.547801e+09 -1.347874e+09 -1.507881e+09 7.891084e+03 2.882039e+03 1.444763e+04
-1.576466e+09 -1.376539e+09 -1.536547e+09 7.224864e+03 2.881592e+03 1.440925e+04
-1.721381e+09 -1.521454e+09 -1.681464e+09 7.262693e+03 2.997192e+03 1.454692e+04
-1.766292e+09 -1.566367e+09 -1.726376e+09 7.348011e+03 3.185006e+03 1.521177e+04
-1.665170e+09 -1.465244e+09 -1.625253e+09 7.899147e+03 3.106884e+03 1.558167e+04
-1.522197e+09 -1.322267e+09 -1.482275e+09 8.957414e+03 2.546245e+03 1.416329e+04
-1.639563e+09 -1.439637e+09 -1.599645e+09 8.024581e+03 3.539340e+03 1.506540e+04
-1.577948e+09 -1.378019e+09 -1.538028e+09 1.155605e+04 1.866315e+03 1.436715e+04
-1.722421e+09 -1.522491e+09 -1.682501e+09 1.027979e+04 2.682606e+03 1.523894e+04
-1.451818e+09 -1.251890e+09 -1.411897e+09 7.584741e+03 3.388486e+03 1.741981e+04
-1.444569e+09 -1.244641e+09 -1.404648e+09 7.545367e+03 3.842087e+03 1.957814e+04
-1.451818e+09 -1.251891e+09 -1.411897e+09 7.296998e+03 3.348110e+03 1.747632e+04
-1.508038e+09 -1.308113e+09 -1.468120e+09 7.790369e+03 3.853231e+03 1.848240e+04
-1.643013e+09 -1.443089e+09 -1.603097e+09 7.831381e+03 3.093171e+03 1.851971e+04
-1.586791e+09 -1.386865e+09 -1.546874e+09 7.539887e+03 3.059816e+03 1.848744e+04
-1.451817e+09 -1.251891e+09 -1.411897e+09 6.330715e+03 3.231429e+03 1.700729e+04
-1.445542e+09 -1.245614e+09 -1.405621e+09 8.464901e+03 3.895156e+03 1.819651e+04
-1.427560e+09 -1.227632e+09 -1.387639e+09 8.288360e+03 4.870086e+03 2.067689e+04
-1.484752e+09 -1.284826e+09 -1.444833e+09 9.019319e+03 4.286432e+03 1.889583e+04
-1.427559e+09 -1.227630e+09 -1.387639e+09 8.791980e+03 4.512073e+03 2.043625e+04
-1.427559e+09 -1.227630e+09 -1.387640e+09 8.890141e+03 5.083753e+03 2.003967e+04
-1.530170e+09 -1.330241e+09 -1.490250e+09 8.621300e+03 5.408181e+03 2.038804e+04
-1.587361e+09 -1.387437e+09 -1.547445e+09 8.013927e+03 6.004184e+03 1.880427e+04
-1.509014e+09 -1.309087e+09 -1.469094e+09 7.246955e+03 3.580133e+03 1.746408e+04
-1.483781e+09 -1.283855e+09 -1.443861e+09 7.161672e+03 4.654201e+03 1.933273e+04
-1.565234e+09 -1.365309e+09 -1.525316e+09 7.819003e+03 3.816263e+03 1.844961e+04
-1.540975e+09 -1.341049e+09 -1.501057e+09 8.413201e+03 3.882543e+03 1.839142e+04
-1.643585e+09 -1.443660e+09 -1.603670e+09 8.348339e+03 4.611546e+03 1.941620e+04
-1.739345e+09 -1.539422e+09 -1.699431e+09 8.097915e+03 4.498621e+03 1.859129e+04
-1.700210e+09 -1.500285e+09 -1.660295e+09 7.814708e+03 3.859897e+03 1.835683e+04
-1.534086e+09 -1.334163e+09 -1.494167e+09 8.953745e+03 4.495296e+03 2.268437e+04
-1.636696e+09 -1.436774e+09 -1.596780e+09 9.061710e+03 4.385654e+03 2.229982e+04
-1.702776e+09 -1.502853e+09 -1.662860e+09 9.249391e+03 4.677691e+03 2.268075e+04
-1.772366e+09 -1.572446e+09 -1.732453e+09 9.613158e+03 5.376323e+03 2.415541e+04
-1.437593e+09 -1.237666e+09 -1.397672e+09 7.175999e+03 5.840734e+03 2.711139e+04
-1.445875e+09 -1.245948e+09 -1.405952e+09 6.783490e+03 5.326154e+03 2.427245e+04
-1.495115e+09 -1.295191e+09 -1.455196e+09 7.618978e+03 5.601812e+03 2.518606e+04
-1.445874e+09 -1.245948e+09 -1.405952e+09 7.009128e+03 5.083777e+03 2.462574e+04
-1.445874e+09 -1.245948e+09 -1.405953e+09 6.578312e+03 4.943634e+03 2.412273e+04
-1.564470e+09 -1.364545e+09 -1.524554e+09 7.984355e+03 5.719745e+03 2.638049e+04
-1.613714e+09 -1.413790e+09 -1.573798e+09 8.286807e+03 5.388931e+03 2.659892e+04
-1.494874e+09 -1.294951e+09 -1.454955e+09 7.616782e+03 5.004957e+03 2.295089e+04
-1.600168e+09 -1.400244e+09 -1.560250e+09 7.835703e+03 4.451729e+03 2.322395e+04
-1.551164e+09 -1.351240e+09 -1.511245e+09 7.321937e+03 4.647597e+03 2.357918e+04
-1.669757e+09 -1.469836e+09 -1.629844e+09 8.923444e+03 4.979727e+03 2.419709e+04
-1.437353e+09 -1.237426e+09 -1.397430e+09 5.984612e+03 4.257502e+03 2.172900e+04
-1.542646e+09 -1.342719e+09 -1.502725e+09 6.220649e+03 3.797962e+03 2.244400e+04
-1.493639e+09 -1.293713e+09 -1.453719e+09 5.094042e+03 4.749660e+03 2.129160e+04
-1.493642e+09 -1.293715e+09 -1.453721e+09 6.001389e+03 4.164193e+03 2.221696e+04
-1.437594e+09 -1.237666e+09 -1.397672e+09 8.419104e+03 6.519925e+03 2.744016e+04
-1.445877e+09 -1.245947e+09 -1.405953e+09 8.628841e+03 5.758706e+03 2.454353e+04
-1.437594e+09 -1.237665e+09 -1.397671e+09 8.816965e+03 6.306125e+03 2.726657e+04
-1.495116e+09 -1.295190e+09 -1.455195e+09 9.011860e+03 6.198504e+03 2.556717e+04
-1.613714e+09 -1.413790e+09 -1.573797e+09 8.428454e+03 7.947798e+03 2.578429e+04
-1.556193e+09 -1.356264e+09 -1.516271e+09 9.341154e+03 6.830491e+03 2.665366e+04
-1.437595e+09 -1.237665e+09 -1.397673e+09 9.581386e+03 6.546029e+03 2.630328e+04
-1.485082e+09 -1.285157e+09 -1.445162e+09 8.597932e+03 5.130785e+03 2.261141e+04
-1.485083e+09 -1.285155e+09 -1.445162e+09 8.630112e+03 4.804387e+03 2.212079e+04
-1.587693e+09 -1.387766e+09 -1.547775e+09 8.741553e+03 5.610911e+03 2.185507e+04
-1.667071e+09 -1.467151e+09 -1.627158e+09 8.711194e+03 6.480654e+03 2.310002e+04
-1.493571e+09 -1.293646e+09 -1.453652e+09 8.791279e+03 3.483912e+03 2.135242e+04
-1.598863e+09 -1.398939e+09 -1.558946e+09 8.389611e+03 3.098144e+03 2.119401e+04
-1.684829e+09 -1.484908e+09 -1.644914e+09 7.744588e+03 3.229703e+03 2.040985e+04
-1.628607e+09 -1.428685e+09 -1.588691e+09 8.738531e+03 3.969402e+03 2.013496e+04
-1.532781e+09 -1.332858e+09 -1.492864e+09 7.148198e+03 4.044898e+03 2.170181e+04
-1.635392e+09 -1.435469e+09 -1.595476e+09 7.487503e+03 4.748674e+03 2.057625e+04
-1.787438e+09 -1.587518e+09 -1.747526e+09 7.576215e+03 4.379798e+03 1.980952e+04
-1.701472e+09 -1.501549e+09 -1.661558e+09 7.752340e+03 4.303354e+03 2.106033e+04
-1.445877e+09 -1.245946e+09 -1.405952e+09 8.871797e+03 5.062455e+03 2.415999e+04
-1.538357e+09 -1.338425e+09 -1.498435e+09 8.940380e+03 5.614685e+03 2.642603e+04
-1.477285e+09 -1.277355e+09 -1.437362e+09 8.367001e+03 5.927256e+03 2.461017e+04
-1.477281e+09 -1.277352e+09 -1.437359e+09 1.001938e+04 4.282635e+03 2.282112e+04
-1.595881e+09 -1.395953e+09 -1.555962e+09 8.551785e+03 6.526374e+03 2.638533e+04
-1.419760e+09 -1.219829e+09 -1.379836e+09 9.468118e+03 5.281791e+03 2.547744e+04
-1.419759e+09 -1.219827e+09 -1.379836e+09 9.433685e+03 5.403176e+03 2.557996e+04
-1.595877e+09 -1.395952e+09 -1.555959e+09 9.367229e+03 6.097637e+03 2.478687e+04
-1.538357e+09 -1.338426e+09 -1.498434e+09 9.862450e+03 5.412025e+03 2.575335e+04
-1.447608e+09 -1.247681e+09 -1.407685e+09 7.390634e+03 6.437578e+03 3.048425e+04
-1.441510e+09 -1.241582e+09 -1.401586e+09 8.132968e+03 7.191140e+03 3.374965e+04
-1.447606e+09 -1.247681e+09 -1.407685e+09 7.976427e+03 6.087808e+03 3.129242e+04
-1.500760e+09 -1.300837e+09 -1.460840e+09 8.753541e+03 6.615389e+03 3.198599e+04
-1.620507e+09 -1.420582e+09 -1.580591e+09 9.662333e+03 6.028021e+03 3.416777e+04
-1.567348e+09 -1.367423e+09 -1.527431e+09 8.694479e+03 7.157212e+03 3.248386e+04
-1.447605e+09 -1.247680e+09 -1.407684e+09 7.142766e+03 6.244190e+03 2.997265e+04
-1.447609e+09 -1.247680e+09 -1.407684e+09 8.870756e+03 7.335862e+03 3.072315e+04
-1.441511e+09 -1.241581e+09 -1.401585e+09 8.982874e+03 8.092255e+03 3.376445e+04
-1.500760e+09 -1.300835e+09 -1.460839e+09 9.261113e+03 7.686367e+03 3.191592e+04
-1.441511e+09 -1.241580e+09 -1.401585e+09 9.192200e+03 7.935496e+03 3.381978e+04
-1.441510e+09 -1.241580e+09 -1.401586e+09 8.740814e+03 8.048465e+03 3.384564e+04
-1.561254e+09 -1.361325e+09 -1.521331e+09 9.181813e+03 8.783167e+03 3.279777e+04
-1.620504e+09 -1.420581e+09 -1.580586e+09 8.427091e+03 9.243733e+03 3.222772e+04
-1.522938e+09 -1.323019e+09 -1.483020e+09 1.250433e+04 6.757161e+03 3.746070e+04
-1.606312e+09 -1.406393e+09 -1.566396e+09 1.252833e+04 6.072995e+03 3.745587e+04
-1.689665e+09 -1.489751e+09 -1.649755e+09 1.170237e+04 7.460927e+03 4.228498e+04
-1.760796e+09 -1.560884e+09 -1.720889e+09 1.356612e+04 6.551303e+03 3.796294e+04
-1.502730e+09 -1.302804e+09 -1.462806e+09 1.028961e+04 8.625685e+03 3.544541e+04
-1.502730e+09 -1.302802e+09 -1.462806e+09 1.046597e+04 8.696198e+03 3.591069e+04
-1.622473e+09 -1.422547e+09 -1.582552e+09 1.090244e+04 9.396684e+03 3.490350e+04
-1.689107e+09 -1.489185e+09 -1.649189e+09 9.582606e+03 1.041302e+04 3.626701e+04
-1.474332e+09 -1.274411e+09 -1.434413e+09 1.059611e+04 5.803054e+03 3.674761e+04
-1.557705e+09 -1.357785e+09 -1.517788e+09 1.064340e+04 5.216580e+03 3.689985e+04
-1.644619e+09 -1.444701e+09 -1.604705e+09 1.104721e+04 5.341948e+03 3.727944e+04
-1.591459e+09 -1.391543e+09 -1.551546e+09 1.036423e+04 5.732065e+03 3.561197e+04
-1.449585e+09 -1.249651e+09 -1.409654e+09 9.819876e+03 9.154246e+03 3.816327e+04
-1.449586e+09 -1.249652e+09 -1.409654e+09 1.047442e+04 8.122377e+03 3.868236e+04
-1.449585e+09 -1.249649e+09 -1.409654e+09 9.766166e+03 9.346951e+03 3.899414e+04
-1.569377e+09 -1.369445e+09 -1.529449e+09 8.922713e+03 1.108480e+04 4.006023e+04
-1.421180e+09 -1.221256e+09 -1.381258e+09 8.438803e+03 5.574843e+03 3.809094e+04
-1.504553e+09 -1.304629e+09 -1.464633e+09 7.975573e+03 4.749215e+03 3.777235e+04
-1.471724e+09 -1.271801e+09 -1.431805e+09 6.306820e+03 5.571755e+03 3.755980e+04
-1.471724e+09 -1.271802e+09 -1.431805e+09 6.218920e+03 5.793421e+03 3.759339e+04
-1.469783e+09 -1.269863e+09 -1.429864e+09 1.009265e+04 6.571796e+03 3.963729e+04
-1.553156e+09 -1.353237e+09 -1.513239e+09 9.594350e+03 5.652767e+03 3.928982e+04
-1.520331e+09 -1.320410e+09 -1.480411e+09 8.182915e+03 6.725049e+03 3.937237e+04
-1.636509e+09 -1.436593e+09 -1.596598e+09 1.107531e+04 6.875245e+03 4.246829e+04
-1.551336e+09 -1.351415e+09 -1.511417e+09 1.280296e+04 6.735117e+03 3.746811e+04
-1.667524e+09 -1.467602e+09 -1.627607e+09 1.338671e+04 7.517419e+03 4.301302e+04
-1.805286e+09 -1.605372e+09 -1.765378e+09 1.444073e+04 7.725980e+03 4.074452e+04
-1.738655e+09 -1.538735e+09 -1.698741e+09 1.551360e+04 6.511441e+03 3.836098e+04
-1.498189e+09 -1.298261e+09 -1.458263e+09 1.175417e+04 7.419320e+03 3.932833e+04
-1.614360e+09 -1.414443e+09 -1.574447e+09 1.300870e+04 7.689789e+03 4.014222e+04
-1.565764e+09 -1.365837e+09 -1.525840e+09 1.424644e+04 6.746165e+03 4.089943e+04
-1.685554e+09 -1.485631e+09 -1.645637e+09 1.295457e+04 8.423180e+03 4.266619e+04
-1.445853e+09 -1.245926e+09 -1.405927e+09 7.816583e+03 8.245407e+03 4.619887e+04
-1.436964e+09 -1.237037e+09 -1.397040e+09 8.941493e+03 7.284958e+03 4.148552e+04
-1.494452e+09 -1.294532e+09 -1.454532e+09 7.898169e+03 8.068166e+03 4.392861e+04
-1.436967e+09 -1.237040e+09 -1.397041e+09 7.090754e+03 7.233139e+03 4.113373e+04
-1.436966e+09 -1.237039e+09 -1.397039e+09 6.203957e+03 7.966950e+03 4.029725e+04
-1.553148e+09 -1.353223e+09 -1.513228e+09 8.514333e+03 7.888278e+03 4.397736e+04
-1.610640e+09 -1.410719e+09 -1.570723e+09 8.521980e+03 6.457230e+03 4.538581e+04
-1.445856e+09 -1.245926e+09 -1.405927e+09 1.055121e+04 7.946658e+03 4.557968e+04
-1.436967e+09 -1.237038e+09 -1.397041e+09 1.125414e+04 7.572059e+03 4.008181e+04
-1.445854e+09 -1.245925e+09 -1.405927e+09 1.136877e+04 7.906199e+03 4.498650e+04
-1.494454e+09 -1.294531e+09 -1.454532e+09 1.130945e+04 7.786777e+03 4.258886e+04
-1.610642e+09 -1.410719e+09 -1.570725e+09 1.031010e+04 9.603434e+03 4.424763e+04
-1.562039e+09 -1.362111e+09 -1.522116e+09 1.244466e+04 8.527071e+03 4.327112e+04
-1.445855e+09 -1.245925e+09 -1.405927e+09 1.151645e+04 8.119937e+03 4.496170e+04
-1.431358e+09 -1.231431e+09 -1.391430e+09 7.072257e+03 9.526053e+03 4.967517e+04
-1.428573e+09 -1.228646e+09 -1.388642e+09 7.659006e+03 9.934637e+03 5.173507e+04
-1.431358e+09 -1.231433e+09 -1.391431e+09 6.796101e+03 8.961587e+03 4.998048e+04
-1.471564e+09 -1.271642e+09 -1.431639e+09 7.768573e+03 9.674636e+03 5.139412e+04
-1.571942e+09 -1.372021e+09 -1.532022e+09 8.593711e+03 8.953572e+03 5.310640e+04
-1.531732e+09 -1.331808e+09 -1.491809e+09 7.673238e+03 1.022289e+04 5.227190e+04
-1.431356e+09 -1.231431e+09 -1.391428e+09 6.033794e+03 1.014743e+04 4.878094e+04
-1.431361e+09 -1.231430e+09 -1.391431e+09 9.647167e+03 9.374961e+03 4.972145e+04
-1.428576e+09 -1.228645e+09 -1.388643e+09 1.026400e+04 1.011062e+04 5.410816e+04
-1.471562e+09 -1.271637e+09 -1.431638e+09 1.026550e+04 9.987400e+03 5.225391e+04
-1.428576e+09 -1.228644e+09 -1.388643e+09 1.025461e+04 1.036182e+04 5.431622e+04
-1.428575e+09 -1.228642e+09 -1.388641e+09 9.944685e+03 9.310612e+03 5.477478e+04
-1.528952e+09 -1.329020e+09 -1.489024e+09 1.139936e+04 1.029273e+04 5.283197e+04
-1.571941e+09 -1.372016e+09 -1.532019e+09 9.420472e+03 1.093272e+04 5.342774e+04
-1.502885e+09 -1.302960e+09 -1.462961e+09 1.073831e+04 1.102269e+04 5.551804e+04
-1.502886e+09 -1.302958e+09 -1.462961e+09 1.096211e+04 1.078341e+04 5.517130e+04
-1.603253e+09 -1.403333e+09 -1.563338e+09 1.339167e+04 1.133817e+04 5.483507e+04
-1.722503e+09 -1.522586e+09 -1.682590e+09 1.207230e+04 1.373778e+04 5.593509e+04
-1.585938e+09 -1.386014e+09 -1.546016e+09 1.399011e+04 1.040311e+04 5.921088e+04
-1.686303e+09 -1.486388e+09 -1.646392e+09 1.545805e+04 9.831436e+03 5.571453e+04
-1.813254e+09 -1.613344e+09 -1.773353e+09 1.537992e+04 1.295604e+04 6.256347e+04
-1.889657e+09 -1.689748e+09 -1.849757e+09 1.905932e+04 1.228386e+04 6.082061e+04
-1.483087e+09 -1.283157e+09 -1.443148e+09 1.273737e+04 1.301156e+04 6.451328e+04
-1.580717e+09 -1.380804e+09 -1.540798e+09 1.527205e+04 1.203257e+04 6.441742e+04
-1.543880e+09 -1.343952e+09 -1.503945e+09 1.732448e+04 1.099253e+04 6.568536e+04
-1.657949e+09 -1.458030e+09 -1.618024e+09 1.435656e+04 1.488774e+04 7.098458e+04
-1.565190e+09 -1.365274e+09 -1.525270e+09 1.466813e+04 1.124292e+04 5.766171e+04
-1.665553e+09 -1.465648e+09 -1.625647e+09 1.322370e+04 1.090239e+04 5.582360e+04
-1.745875e+09 -1.545970e+09 -1.705969e+09 1.590627e+04 1.019626e+04 5.967816e+04
-1.859468e+09 -1.659566e+09 -1.819567e+09 1.563525e+04 1.224911e+04 6.161292e+04
-1.603585e+09 -1.403660e+09 -1.563662e+09 1.639473e+04 1.062139e+04 6.235821e+04
-1.770749e+09 -1.570828e+09 -1.730837e+09 1.645699e+04 1.267980e+04 6.526701e+04
-1.801769e+09 -1.601852e+09 -1.761859e+09 1.579173e+04 1.204355e+04 6.614545e+04
-1.903360e+09 -1.703448e+09 -1.863457e+09 2.167526e+04 1.161152e+04 6.311274e+04
-1.566126e+09 -1.366207e+09 -1.526204e+09 1.503376e+04 1.048905e+04 6.318068e+04
-1.663764e+09 -1.463856e+09 -1.623856e+09 1.872393e+04 1.062323e+04 6.864793e+04
-1.825090e+09 -1.625189e+09 -1.785192e+09 1.931562e+04 1.336482e+04 6.876945e+04
-1.794075e+09 -1.594168e+09 -1.754172e+09 1.976398e+04 1.371231e+04 6.674780e+04
-1.561837e+09 -1.361924e+09 -1.521917e+09 1.271830e+04 1.235793e+04 6.163434e+04
-1.659479e+09 -1.459573e+09 -1.619571e+09 1.936667e+04 1.199459e+04 6.787800e+04
-1.856739e+09 -1.656842e+09 -1.816843e+09 1.479255e+04 1.344356e+04 6.378740e+04
-1.743142e+09 -1.543244e+09 -1.703242e+09 1.581587e+04 1.063757e+04 6.155477e+04
-1.478786e+09 -1.278868e+09 -1.438863e+09 8.473955e+03 1.026140e+04 6.293745e+04
-1.576429e+09 -1.376518e+09 -1.536517e+09 1.391300e+04 1.008610e+04 6.875240e+04
-1.660096e+09 -1.460191e+09 -1.620189e+09 9.221444e+03 8.719473e+03 6.444728e+04
-1.606526e+09 -1.406619e+09 -1.566616e+09 8.202412e+03 1.073537e+04 6.517981e+04
-1.520531e+09 -1.320608e+09 -1.480608e+09 1.315297e+04 1.052868e+04 5.865579e+04
-1.520530e+09 -1.320605e+09 -1.480608e+09 1.211134e+04 1.030983e+04 5.873695e+04
-1.736194e+09 -1.536282e+09 -1.696285e+09 1.473409e+04 1.341403e+04 5.634205e+04
-1.634601e+09 -1.434684e+09 -1.594686e+09 1.075369e+04 1.365289e+04 5.940088e+04
-1.446234e+09 -1.246294e+09 -1.406291e+09 1.062583e+04 1.375350e+04 6.247590e+04
-1.446237e+09 -1.246294e+09 -1.406292e+09 1.294301e+04 1.303529e+04 6.320412e+04
-1.446238e+09 -1.246293e+09 -1.406292e+09 9.980130e+03 1.333389e+04 6.426858e+04
-1.560311e+09 -1.360374e+09 -1.520372e+09 7.251483e+03 1.740639e+04 6.752977e+04
-1.435799e+09 -1.235861e+09 -1.395856e+09 1.170363e+04 1.022039e+04 6.857324e+04
-1.425231e+09 -1.225297e+09 -1.385290e+09 1.218854e+04 1.142750e+04 6.525921e+04
-1.435799e+09 -1.235862e+09 -1.395859e+09 1.168439e+04 1.209620e+04 6.989198e+04
-1.472643e+09 -1.272716e+09 -1.432712e+09 1.197198e+04 1.178619e+04 6.712328e+04
-1.570297e+09 -1.370371e+09 -1.530368e+09 1.085809e+04 1.244234e+04 6.877109e+04
-1.533454e+09 -1.333515e+09 -1.493512e+09 1.339200e+04 1.092988e+04 6.909504e+04
-1.435799e+09 -1.235860e+09 -1.395852e+09 1.298387e+04 1.026190e+04 6.885018e+04
-1.435792e+09 -1.235862e+09 -1.395855e+09 6.426752e+03 1.204751e+04 6.741672e+04
-1.425225e+09 -1.225298e+09 -1.385288e+09 6.719551e+03 1.222907e+04 6.383559e+04
-1.435788e+09 -1.235862e+09 -1.395856e+09 6.854082e+03 1.164389e+04 6.878246e+04
-1.472640e+09 -1.272718e+09 -1.432712e+09 9.990693e+03 1.127368e+04 6.713219e+04
-1.435785e+09 -1.235859e+09 -1.395848e+09 5.498278e+03 1.332701e+04 6.598984e+04
-1.533440e+09 -1.333515e+09 -1.493508e+09 5.640258e+03 1.296295e+04 6.698663e+04
-1.570297e+09 -1.370373e+09 -1.530369e+09 1.068818e+04 1.103289e+04 6.938469e+04
-1.441936e+09 -1.242012e+09 -1.402008e+09 6.480999e+03 9.590243e+03 6.084341e+04
-1.562469e+09 -1.362544e+09 -1.522543e+09 7.244680e+03 7.766200e+03 6.214336e+04
-1.508894e+09 -1.308968e+09 -1.468969e+09 4.818893e+03 9.281567e+03 6.148413e+04
-1.508895e+09 -1.308971e+09 -1.468970e+09 4.702437e+03 9.632436e+03 6.156305e+04
-1.482136e+09 -1.282217e+09 -1.442214e+09 1.149539e+04 8.629089e+03 5.947309e+04
-1.582503e+09 -1.382592e+09 -1.542592e+09 1.049904e+04 8.502376e+03 5.685581e+04
-1.609255e+09 -1.409341e+09 -1.569341e+09 1.231460e+04 8.632196e+03 5.853905e+04
-1.662828e+09 -1.462915e+09 -1.622915e+09 1.393420e+04 7.804605e+03 6.017833e+04
-1.437544e+09 -1.237602e+09 -1.397600e+09 9.727563e+03 1.145137e+04 7.535642e+04
-1.429604e+09 -1.229662e+09 -1.389660e+09 1.121655e+04 1.620719e+04 8.044321e+04
-1.478755e+09 -1.278817e+09 -1.438815e+09 1.126627e+04 1.293839e+04 7.739808e+04
-1.429606e+09 -1.229661e+09 -1.389658e+09 1.013017e+04 1.435504e+04 8.009013e+04
-1.429605e+09 -1.229657e+09 -1.389654e+09 9.542055e+03 1.261698e+04 8.062228e+04
-1.538789e+09 -1.338841e+09 -1.498843e+09 9.610422e+03 1.269693e+04 8.162642e+04
-1.587936e+09 -1.388000e+09 -1.547999e+09 7.895666e+03 1.331227e+04 8.237797e+04
-1.437539e+09 -1.237605e+09 -1.397600e+09 6.115352e+03 1.170334e+04 7.667344e+04
-1.429601e+09 -1.229666e+09 -1.389661e+09 7.840449e+03 1.438083e+04 7.898687e+04
-1.437536e+09 -1.237605e+09 -1.397598e+09 7.087491e+03 1.203158e+04 7.861643e+04
-1.478756e+09 -1.278824e+09 -1.438817e+09 8.843831e+03 1.352250e+04 7.716456e+04
-1.587938e+09 -1.388007e+09 -1.548001e+09 1.195441e+04 1.281453e+04 8.283772e+04
-1.546713e+09 -1.346785e+09 -1.506782e+09 7.739495e+03 1.356802e+04 8.030818e+04
-1.437534e+09 -1.237605e+09 -1.397597e+09 5.321908e+03 1.198361e+04 7.651645e+04
-1.536708e+09 -1.336804e+09 -1.496790e+09 1.686867e+04 1.541455e+04 9.312894e+04
-1.645889e+09 -1.445986e+09 -1.605973e+09 1.757329e+04 1.457695e+04 8.778333e+04
-1.718220e+09 -1.518318e+09 -1.678308e+09 1.603408e+04 1.152354e+04 8.489241e+04
-1.781584e+09 -1.581702e+09 -1.741698e+09 1.774885e+04 1.389164e+04 9.748050e+04
-1.447633e+09 -1.247695e+09 -1.407679e+09 7.860814e+03 1.209996e+04 1.011053e+05
-1.442780e+09 -1.242849e+09 -1.402831e+09 7.665638e+03 1.664859e+04 9.641366e+04
-1.502003e+09 -1.302083e+09 -1.462070e+09 6.389196e+03 1.237704e+04 9.838048e+04
-1.442783e+09 -1.242848e+09 -1.402835e+09 7.475564e+03 1.278811e+04 9.289374e+04
-1.442779e+09 -1.242847e+09 -1.402827e+09 6.161259e+03 1.624254e+04 9.003955e+04
-1.558906e+09 -1.358981e+09 -1.518967e+09 1.137935e+04 1.474235e+04 9.844029e+04
-1.618141e+09 -1.418218e+09 -1.578207e+09 9.014109e+03 1.247589e+04 1.008255e+05
-1.483988e+09 -1.284059e+09 -1.444051e+09 2.036663e+04 1.576215e+04 8.976035e+04
-1.593177e+09 -1.393242e+09 -1.553237e+09 2.279948e+04 1.486978e+04 8.327852e+04
-1.668058e+09 -1.468153e+09 -1.628156e+09 2.120783e+04 1.783242e+04 9.469906e+04
-1.613680e+09 -1.413763e+09 -1.573760e+09 2.773981e+04 1.522112e+04 9.035383e+04
-1.482335e+09 -1.282416e+09 -1.442402e+09 1.140290e+04 1.094713e+04 8.792078e+04
-1.591511e+09 -1.391597e+09 -1.551583e+09 9.652669e+03 1.204926e+04 8.732985e+04
-1.550290e+09 -1.350379e+09 -1.510365e+09 9.992257e+03 1.197519e+04 8.609342e+04
-1.663835e+09 -1.463927e+09 -1.623915e+09 9.701897e+03 9.178135e+03 8.566739e+04
-1.429610e+09 -1.229665e+09 -1.389664e+09 1.359149e+04 1.793471e+04 7.768272e+04
-1.526765e+09 -1.326819e+09 -1.486820e+09 1.221597e+04 1.418418e+04 7.992064e+04
-1.458799e+09 -1.258853e+09 -1.418854e+09 1.139337e+04 1.591744e+04 7.988716e+04
-1.458799e+09 -1.258852e+09 -1.418851e+09 1.132315e+04 1.410401e+04 7.834518e+04
-1.567982e+09 -1.368034e+09 -1.528038e+09 1.132152e+04 1.316660e+04 7.899103e+04
-1.417584e+09 -1.217642e+09 -1.377637e+09 1.261904e+04 1.605062e+04 7.941297e+04
-1.417582e+09 -1.217636e+09 -1.377636e+09 1.249842e+04 1.321863e+04 7.906144e+04
-1.567981e+09 -1.368036e+09 -1.528036e+09 1.058868e+04 1.385856e+04 8.066373e+04
-1.526767e+09 -1.326824e+09 -1.486824e+09 1.328521e+04 1.704983e+04 7.924349e+04
-1.447636e+09 -1.247691e+09 -1.407677e+09 1.164799e+04 8.189328e+03 1.011443e+05
-1.442783e+09 -1.242843e+09 -1.402823e+09 1.198014e+04 1.067195e+04 9.519264e+04
-1.447637e+09 -1.247695e+09 -1.407686e+09 1.269423e+04 1.199624e+04 1.017507e+05
-1.502006e+09 -1.302081e+09 -1.462071e+09 1.199763e+04 1.199868e+04 9.567628e+04
-1.618141e+09 -1.418217e+09 -1.578207e+09 9.163312e+03 1.289135e+04 1.006366e+05
-1.563760e+09 -1.363826e+09 -1.523809e+09 1.415123e+04 9.839868e+03 9.873122e+04
-1.447630e+09 -1.247691e+09 -1.407671e+09 1.060886e+04 9.348165e+03 1.067104e+05
-1.441132e+09 -1.241201e+09 -1.401188e+09 5.234005e+03 1.043240e+04 9.250513e+04
-1.441127e+09 -1.241198e+09 -1.401186e+09 1.385175e+03 1.050747e+04 9.289328e+04
-1.441127e+09 -1.241199e+09 -1.401187e+09 2.411314e+03 9.606941e+03 9.312680e+04
-1.554671e+09 -1.354746e+09 -1.514736e+09 1.608184e+03 7.152398e+03 9.208882e+04
-1.495498e+09 -1.295588e+09 -1.455575e+09 1.010046e+04 1.488174e+04 9.987627e+04
-1.495500e+09 -1.295588e+09 -1.455576e+09 7.892797e+03 1.438508e+04 9.847234e+04
-1.672407e+09 -1.472517e+09 -1.632512e+09 1.320818e+04 1.108466e+04 1.004891e+05
-1.609048e+09 -1.409138e+09 -1.569127e+09 5.716916e+03 1.062672e+04 9.469820e+04
-1.434031e+09 -1.234086e+09 -1.394071e+09 5.218326e+03 1.133111e+04 1.068068e+05
-1.435006e+09 -1.235062e+09 -1.395035e+09 7.809675e+03 1.199753e+04 1.117676e+05
-1.434022e+09 -1.234090e+09 -1.394071e+09 8.566265e+03 8.875870e+03 1.099786e+05
-1.480619e+09 -1.280692e+09 -1.440676e+09 9.337262e+03 9.603712e+03 1.104949e+05
-1.585654e+09 -1.385727e+09 -1.545712e+09 8.989338e+03 1.103462e+04 1.099122e+05
-1.539050e+09 -1.339121e+09 -1.499105e+09 8.619932e+03 1.243063e+04 1.088845e+05
-1.434015e+09 -1.234084e+09 -1.394057e+09 6.011478e+03 1.252380e+04 1.049608e+05
-1.434035e+09 -1.234085e+09 -1.394072e+09 8.745073e+03 9.363283e+03 1.076074e+05
-1.435009e+09 -1.235060e+09 -1.395041e+09 8.742164e+03 8.874503e+03 1.146015e+05
-1.480616e+09 -1.280684e+09 -1.440674e+09 7.402810e+03 9.434445e+03 1.100709e+05
-1.435015e+09 -1.235058e+09 -1.395045e+09 6.892418e+03 1.123966e+04 1.178344e+05
-1.435008e+09 -1.235058e+09 -1.395029e+09 5.392787e+03 6.374552e+03 1.227531e+05
-1.540035e+09 -1.340093e+09 -1.500079e+09 1.324080e+04 7.570683e+03 1.103511e+05
-1.585653e+09 -1.385723e+09 -1.545711e+09 7.747668e+03 1.066208e+04 1.096163e+05
-1.469726e+09 -1.269786e+09 -1.429746e+09 1.922512e+04 8.535691e+03 1.152388e+05
-1.538042e+09 -1.338112e+09 -1.498062e+09 1.861456e+04 1.331832e+04 1.226076e+05
-1.630895e+09 -1.430980e+09 -1.590933e+09 1.674300e+04 1.041344e+04 1.225483e+05
-1.577208e+09 -1.377284e+09 -1.537240e+09 1.830498e+04 1.133854e+04 1.177793e+05
-1.416042e+09 -1.216077e+09 -1.376048e+09 1.303005e+04 1.177442e+04 1.073733e+05
-1.484359e+09 -1.284405e+09 -1.444366e+09 9.304503e+03 1.479916e+04 1.150525e+05
-1.456742e+09 -1.256783e+09 -1.416747e+09 9.697413e+03 2.053812e+04 1.125398e+05
-1.456740e+09 -1.256778e+09 -1.416742e+09 8.235905e+03 1.328349e+04 1.122166e+05
-1.462611e+09 -1.262674e+09 -1.422658e+09 1.078491e+04 1.060935e+04 1.144614e+05
-1.530921e+09 -1.331001e+09 -1.490974e+09 8.305088e+03 1.283620e+04 1.217364e+05
-1.503302e+09 -1.303375e+09 -1.463353e+09 9.531617e+03 1.002126e+04 1.210649e+05
-1.608323e+09 -1.408409e+09 -1.568402e+09 1.659086e+04 1.202434e+04 1.129131e+05
-1.488683e+09 -1.288762e+09 -1.448732e+09 1.814836e+04 8.653820e+03 1.272202e+05
-1.593698e+09 -1.393796e+09 -1.553779e+09 1.458352e+04 6.079829e+03 1.171641e+05
-1.547097e+09 -1.347192e+09 -1.507174e+09 1.781265e+04 7.093757e+03 1.197633e+05
-1.667586e+09 -1.467674e+09 -1.627659e+09 2.858023e+04 1.004822e+04 1.364322e+05
-1.449352e+09 -1.249388e+09 -1.409352e+09 1.066668e+04 9.577876e+03 1.269126e+05
-1.442123e+09 -1.242169e+09 -1.402139e+09 1.113146e+04 1.310013e+04 1.184573e+05
-1.503016e+09 -1.303080e+09 -1.463052e+09 1.042044e+04 8.515987e+03 1.282937e+05
-1.442127e+09 -1.242171e+09 -1.402150e+09 1.103933e+04 8.619312e+03 1.143355e+05
-1.442121e+09 -1.242166e+09 -1.402134e+09 1.050747e+04 1.497556e+04 1.111038e+05
-1.562597e+09 -1.362648e+09 -1.522615e+09 1.526465e+04 1.641998e+04 1.214166e+05
-1.623498e+09 -1.423561e+09 -1.583531e+09 8.423891e+03 1.173089e+04 1.260277e+05
-1.449352e+09 -1.249388e+09 -1.409349e+09 1.106219e+04 5.115735e+03 1.288565e+05
-1.442123e+09 -1.242166e+09 -1.402130e+09 1.341977e+04 6.105666e+03 1.202752e+05
-1.449349e+09 -1.249388e+09 -1.409354e+09 1.365973e+04 8.066608e+03 1.289850e+05
-1.503018e+09 -1.303081e+09 -1.463051e+09 1.310773e+04 7.246380e+03 1.278487e+05
-1.623503e+09 -1.423569e+09 -1.583531e+09 1.449640e+04 7.216250e+03 1.263111e+05
-1.569812e+09 -1.369871e+09 -1.529838e+09 1.722669e+04 8.995692e+03 1.214745e+05
-1.449340e+09 -1.249387e+09 -1.409344e+09 8.541129e+03 7.382525e+03 1.378074e+05
-1.442103e+09 -1.242165e+09 -1.402141e+09 8.390017e+03 1.185304e+04 1.373089e+05
-1.442097e+09 -1.242166e+09 -1.402149e+09 1.236595e+03 7.496669e+03 1.323195e+05
-1.442090e+09 -1.242159e+09 -1.402136e+09 7.487139e+03 1.302211e+04 1.381418e+05
-1.562586e+09 -1.362649e+09 -1.522638e+09 1.135445e+04 1.268993e+04 1.488345e+05
-1.516309e+09 -1.316385e+09 -1.476352e+09 2.232250e+04 9.189183e+03 1.265784e+05
-1.584621e+09 -1.384710e+09 -1.544669e+09 2.305584e+04 1.378194e+04 1.335826e+05
-1.662026e+09 -1.462131e+09 -1.622107e+09 2.195405e+04 9.934230e+03 1.160842e+05
-1.735885e+09 -1.536006e+09 -1.695979e+09 2.575028e+04 9.056166e+03 1.360376e+05
-1.436814e+09 -1.236849e+09 -1.396801e+09 9.275046e+03 5.797063e+03 1.350495e+05
-1.434205e+09 -1.234238e+09 -1.394178e+09 1.438983e+04 6.210231e+03 1.364398e+05
-1.436805e+09 -1.236851e+09 -1.396801e+09 1.296005e+04 3.674970e+03 1.377124e+05
-1.482555e+09 -1.282616e+09 -1.442574e+09 1.369080e+04 5.048743e+03 1.349536e+05
-1.590623e+09 -1.390684e+09 -1.550627e+09 1.126673e+04 9.349567e+03 1.304853e+05
-1.544872e+09 -1.344920e+09 -1.504870e+09 1.347706e+04 7.334200e+03 1.376775e+05
-1.436798e+09 -1.236843e+09 -1.396783e+09 1.121766e+04 9.189098e+03 1.340851e+05
-1.436814e+09 -1.236846e+09 -1.396799e+09 9.729098e+03 1.891412e+03 1.366804e+05
-1.434206e+09 -1.234230e+09 -1.394184e+09 1.387839e+04 5.277197e+02 1.401516e+05
-1.482552e+09 -1.282608e+09 -1.442572e+09 8.615898e+03 3.065862e+03 1.345164e+05
-1.434218e+09 -1.234237e+09 -1.394195e+09 8.576082e+03 5.298094e+03 1.461663e+05
-1.434199e+09 -1.234225e+09 -1.394147e+09 4.499364e+03 -8.674971e+03 1.580731e+05
-1.542258e+09 -1.342298e+09 -1.502246e+09 1.758444e+04 -6.726606e+03 1.343045e+05
-1.590622e+09 -1.390678e+09 -1.550630e+09 1.122480e+04 -1.155836e+03 1.316118e+05
-1.466721e+09 -1.266758e+09 -1.426670e+09 3.264551e+04 8.955382e+03 1.289363e+05
-1.533555e+09 -1.333606e+09 -1.493506e+09 2.768013e+04 1.304499e+04 1.409680e+05
-1.628562e+09 -1.428644e+09 -1.588554e+09 2.223661e+04 8.634242e+03 1.382682e+05
-1.576091e+09 -1.376146e+09 -1.536063e+09 2.714472e+04 1.102046e+04 1.271078e+05
-1.441790e+09 -1.241797e+09 -1.401727e+09 1.840479e+04 4.023440e+02 1.441268e+05
-1.440960e+09 -1.240978e+09 -1.400896e+09 2.721182e+04 5.139752e+03 1.355324e+05
-1.441781e+09 -1.241803e+09 -1.401732e+09 2.334303e+04 5.804287e+03 1.413655e+05
-1.494244e+09 -1.294299e+09 -1.454235e+09 2.283118e+04 4.483288e+03 1.395666e+05
-1.615058e+09 -1.415117e+09 -1.575040e+09 2.177798e+04 3.189377e+03 1.428229e+05
-1.562583e+09 -1.362617e+09 -1.522549e+09 2.760390e+04 5.870008e+03 1.312209e+05
-1.441775e+09 -1.241799e+09 -1.401724e+09 2.074939e+04 3.732699e+03 1.457588e+05
-1.512446e+09 -1.312521e+09 -1.472461e+09 3.347887e+04 7.314788e+03 1.491186e+05
-1.579268e+09 -1.379365e+09 -1.539288e+09 2.874102e+04 9.434389e+03 1.635047e+05
-1.661547e+09 -1.461667e+09 -1.621613e+09 2.319799e+04 5.294506e+03 1.322063e+05
-1.736553e+09 -1.536707e+09 -1.696655e+09 2.736373e+04 9.376157e+02 1.676986e+05
-1.471811e+09 -1.271893e+09 -1.431846e+09 2.293031e+04 1.282854e+04 1.551948e+05
-1.545748e+09 -1.345843e+09 -1.505801e+09 1.246266e+04 8.467001e+03 1.439143e+05
-1.514822e+09 -1.314914e+09 -1.474874e+09 1.603369e+04 1.239222e+04 1.465977e+05
-1.635601e+09 -1.435726e+09 -1.595693e+09 2.651394e+04 7.699513e+03 1.690352e+05
-1.517569e+09 -1.317661e+09 -1.477600e+09 2.692406e+04 7.942269e+03 1.481964e+05
-1.591501e+09 -1.391609e+09 -1.551556e+09 2.281096e+04 4.265605e+03 1.347634e+05
-1.743669e+09 -1.543811e+09 -1.703763e+09 3.162456e+04 6.734401e+03 1.630634e+05
-1.668666e+09 -1.468773e+09 -1.628727e+09 2.598843e+04 1.001375e+04 1.246651e+05
-1.419345e+09 -1.219391e+09 -1.379328e+09 1.880490e+04 8.289249e+03 1.585875e+05
-1.493283e+09 -1.293342e+09 -1.453283e+09 8.363448e+03 3.885879e+03 1.469756e+05
-1.462366e+09 -1.262414e+09 -1.422359e+09 1.111772e+04 -5.136411e+03 1.502085e+05
-1.462365e+09 -1.262413e+09 -1.422353e+09 8.553688e+03 5.357065e+03 1.510414e+05
-1.441792e+09 -1.241808e+09 -1.401731e+09 1.857736e+04 5.407073e+03 1.423819e+05
-1.440961e+09 -1.240984e+09 -1.400905e+09 2.561082e+04 1.553985e+04 1.318095e+05
-1.494237e+09 -1.294300e+09 -1.454234e+09 1.481370e+04 5.539135e+03 1.409958e+05
-1.440978e+09 -1.240991e+09 -1.400923e+09 2.020942e+04 8.190236e+03 1.216811e+05
-1.440966e+09 -1.240979e+09 -1.400895e+09 1.694056e+04 1.727816e+04 1.147721e+05
-1.561762e+09 -1.361798e+09 -1.521722e+09 2.833808e+04 1.207438e+04 1.405734e+05
-1.615053e+09 -1.415112e+09 -1.575041e+09 1.582009e+04 9.784864e+03 1.416658e+05
-1.414241e+09 -1.214242e+09 -1.374176e+09 2.296943e+04 7.859175e+03 1.147169e+05
-1.481074e+09 -1.281089e+09 -1.441010e+09 1.618179e+04 1.064433e+04 1.279547e+05
-1.455299e+09 -1.255297e+09 -1.415233e+09 1.682090e+04 2.644788e+04 1.207179e+05
-1.455299e+09 -1.255307e+09 -1.415219e+09 1.090848e+04 5.084071e+03 1.200223e+05
-1.459951e+09 -1.260002e+09 -1.419971e+09 1.837820e+04 5.420732e+03 1.320280e+05
-1.526768e+09 -1.326843e+09 -1.486796e+09 1.056053e+04 5.294917e+03 1.482712e+05
-1.500991e+09 -1.301063e+09 -1.461011e+09 1.104045e+04 -9.362014e+02 1.446572e+05
-1.609035e+09 -1.409133e+09 -1.569107e+09 2.320138e+04 2.166191e+03 1.289065e+05
-1.465102e+09 -1.265160e+09 -1.425084e+09 2.137807e+04 3.591610e+03 1.511584e+05
-1.539030e+09 -1.339107e+09 -1.499039e+09 1.735431e+04 -1.755523e+01 1.387178e+05
-1.616161e+09 -1.416258e+09 -1.576191e+09 1.552719e+04 2.112827e+03 1.392848e+05
-1.570422e+09 -1.370499e+09 -1.530435e+09 1.793188e+04 5.077324e+02 1.468144e+05
-1.448207e+09 -1.248219e+09 -1.408147e+09 1.550957e+04 -3.597001e+03 1.483209e+05
-1.433996e+09 -1.234011e+09 -1.393936e+09 1.596179e+04 -7.644849e+03 1.484904e+05
-1.493708e+09 -1.293762e+09 -1.453710e+09 1.050729e+04 -3.616636e+03 1.469220e+05
-1.434009e+09 -1.234017e+09 -1.393948e+09 1.140850e+04 -1.193459e+03 1.554510e+05
-1.433985e+09 -1.233993e+09 -1.393872e+09 1.050233e+04 -2.542265e+04 1.670206e+05
-1.543217e+09 -1.343242e+09 -1.503162e+09 2.226994e+04 -1.590194e+04 1.470783e+05
-1.602941e+09 -1.402996e+09 -1.562912e+09 1.519172e+04 -1.434567e+04 1.488857e+05
-1.448200e+09 -1.248225e+09 -1.408145e+09 9.209359e+03 1.978062e+03 1.449108e+05
-1.433989e+09 -1.234024e+09 -1.393926e+09 1.105002e+04 -5.740155e+02 1.406396e+05
-1.448195e+09 -1.248233e+09 -1.408150e+09 1.098648e+04 -3.128130e+03 1.474179e+05
-1.493711e+09 -1.293780e+09 -1.453712e+09 9.871878e+03 -2.147592e+03 1.456721e+05
-1.602934e+09 -1.402999e+09 -1.562902e+09 7.201051e+03 1.086658e+04 1.413368e+05
-1.557407e+09 -1.357455e+09 -1.517373e+09 1.368582e+04 4.228087e+03 1.557199e+05
-1.448182e+09 -1.248219e+09 -1.408128e+09 5.780552e+03 5.109953e+03 1.396644e+05
-1.462238e+09 -1.262257e+09 -1.422148e+09 3.703776e+04 9.265540e+03 1.217953e+05
-1.462233e+09 -1.262268e+09 -1.422150e+09 3.207848e+04 4.148162e+04 1.075139e+05
-1.462215e+09 -1.262240e+09 -1.422098e+09 3.353040e+04 -6.158172e+03 1.025313e+05
-1.625142e+09 -1.425202e+09 -1.585044e+09 2.840820e+04 1.112595e+04 1.104318e+05
-1.507697e+09 -1.307800e+09 -1.467755e+09 2.873307e+04 5.968169e+03 1.462830e+05
-1.507697e+09 -1.307794e+09 -1.467730e+09 2.342741e+04 -9.207724e+03 1.422371e+05
-1.616899e+09 -1.417026e+09 -1.576988e+09 3.920315e+04 -5.859773e+03 1.173639e+05
-1.734243e+09 -1.534419e+09 -1.694340e+09 1.131844e+04 3.852121e+02 1.531810e+05
-1.571714e+09 -1.371870e+09 -1.531740e+09 3.091658e+04 8.922581e+03 1.464549e+05
-1.680925e+09 -1.481105e+09 -1.640992e+09 2.686822e+04 1.670870e+04 1.184967e+05
-1.773287e+09 -1.573498e+09 -1.733372e+09 2.316418e+04 -7.492126e+03 1.509456e+05
-1.872190e+09 -1.672439e+09 -1.832261e+09 2.662763e+04 1.697358e+04 1.710558e+05
-1.491488e+09 -1.291550e+09 -1.451435e+09 1.014252e+04 -1.192805e+04 1.479483e+05
-1.600640e+09 -1.400769e+09 -1.560659e+09 4.964634e+03 -6.621076e+03 1.439854e+05
-1.555140e+09 -1.355238e+09 -1.515136e+09 1.593739e+04 -1.359083e+04 1.637873e+05
-1.673155e+09 -1.473272e+09 -1.633151e+09 4.813850e+03 -1.200144e+04 1.401366e+05
-1.555403e+09 -1.355531e+09 -1.515419e+09 1.297244e+04 -9.636091e+03 1.681638e+05
-1.664637e+09 -1.464775e+09 -1.624676e+09 1.709459e+04 -1.440096e+03 1.355955e+05
-1.737129e+09 -1.537275e+09 -1.697174e+09 1.239528e+04 -9.270228e+03 1.258923e+05
-1.817494e+09 -1.617691e+09 -1.777584e+09 1.697423e+03 -2.604873e+04 1.728081e+05
-1.517559e+09 -1.317664e+09 -1.477523e+09 -2.254300e+04 -8.906136e+03 1.498352e+05
-1.511157e+09 -1.311247e+09 -1.471112e+09 -9.919193e+03 -9.431363e+01 1.501229e+05
-1.576248e+09 -1.376413e+09 -1.536252e+09 -2.792617e+03 -3.678298e+03 1.099749e+05
-1.578000e+09 -1.378144e+09 -1.538000e+09 6.373593e+03 -1.424884e+04 1.471443e+05
-1.715938e+09 -1.516079e+09 -1.675918e+09 8.367487e+03 -2.819401e+04 1.247186e+05
-1.777547e+09 -1.577762e+09 -1.737614e+09 5.094003e+03 -1.610907e+04 1.415279e+05
-1.701940e+09 -1.502107e+09 -1.661918e+09 -5.817469e+03 4.189025e+03 1.425584e+05
-1.584891e+09 -1.385060e+09 -1.544895e+09 2.102271e+04 9.010606e+03 1.085683e+05
-1.722838e+09 -1.523017e+09 -1.682856e+09 1.830791e+04 -1.184438e+04 1.172127e+05
-1.784445e+09 -1.584700e+09 -1.744550e+09 1.014311e+04 -2.902418e+02 1.398687e+05
-1.888573e+09 -1.688869e+09 -1.848645e+09 1.505499e+04 1.540842e+04 1.009001e+05
-1.455309e+09 -1.255356e+09 -1.415243e+09 1.624851e+04 -8.563995e+03 1.183355e+05
-1.452446e+09 -1.252485e+09 -1.412387e+09 2.358254e+04 9.572942e+03 1.208051e+05
-1.519254e+09 -1.319351e+09 -1.479263e+09 1.026479e+04 -8.585172e+03 1.310739e+05
-1.452450e+09 -1.252490e+09 -1.412395e+09 2.278221e+04 -1.362948e+03 1.125339e+05
-1.452429e+09 -1.252468e+09 -1.412360e+09 1.399626e+04 1.872529e+04 1.004898e+05
-1.590373e+09 -1.390443e+09 -1.550329e+09 1.382862e+04 -6.334932e+02 1.085499e+05
-1.657174e+09 -1.457312e+09 -1.617192e+09 -4.471426e+03 -1.432776e+03 1.146377e+05
-1.509861e+09 -1.309971e+09 -1.469913e+09 9.410910e+03 7.678946e+03 1.756596e+05
-1.509857e+09 -1.309962e+09 -1.469904e+09 2.421214e+03 1.486064e+04 1.726050e+05
-1.708270e+09 -1.508455e+09 -1.668395e+09 -2.130367e+03 -4.188754e+03 1.824774e+05
-1.627908e+09 -1.428021e+09 -1.587984e+09 -1.066496e+04 2.610962e+03 1.509315e+05
-1.445941e+09 -1.245984e+09 -1.405902e+09 1.343761e+04 7.431817e+03 1.662075e+05
-1.445934e+09 -1.245976e+09 -1.405904e+09 6.996032e+03 -1.384194e+04 1.752818e+05
-1.445922e+09 -1.245963e+09 -1.405863e+09 5.195935e+03 1.280386e+04 1.777852e+05
-1.563963e+09 -1.364021e+09 -1.523942e+09 -5.551716e+03 -1.051363e+03 1.654193e+05
-1.520956e+09 -1.321061e+09 -1.480896e+09 4.735114e+04 1.752805e+04 1.412792e+05
-1.520946e+09 -1.321068e+09 -1.480907e+09 4.736072e+04 3.511116e+04 1.169932e+05
-1.750742e+09 -1.550958e+09 -1.710722e+09 6.475790e+04 1.872763e+04 1.422851e+05
-1.646555e+09 -1.446734e+09 -1.606569e+09 3.006910e+04 2.656474e+04 1.588732e+05
-1.450724e+09 -1.250772e+09 -1.410642e+09 2.118136e+04 -1.846037e+03 1.714324e+05
-1.447197e+09 -1.247238e+09 -1.407109e+09 3.102820e+04 8.038102e+03 1.714101e+05
-1.509425e+09 -1.309529e+09 -1.469376e+09 4.500434e+04 2.213220e+03 1.365420e+05
-1.447171e+09 -1.247223e+09 -1.407078e+09 2.271531e+04 1.377381e+04 1.347213e+05
-1.635089e+09 -1.435237e+09 -1.595054e+09 1.712969e+04 -3.536589e+03 1.608452e+05
-1.572787e+09 -1.372927e+09 -1.532755e+09 1.709496e+04 1.561448e+04 1.654204e+05
-1.447180e+09 -1.247256e+09 -1.407087e+09 2.663448e+04 2.095271e+04 1.357359e+05
-1.479214e+09 -1.279314e+09 -1.439149e+09 -2.347421e+04 -1.540193e+04 1.498317e+05
-1.484055e+09 -1.284133e+09 -1.443943e+09 -1.295655e+04 -2.577454e+04 1.281497e+05
-1.538418e+09 -1.338588e+09 -1.498419e+09 -1.443127e+04 -2.754181e+04 1.457639e+05
-1.532225e+09 -1.332371e+09 -1.492211e+09 -1.729123e+04 -1.052154e+04 1.216993e+05
-1.629051e+09 -1.429212e+09 -1.589006e+09 -1.561719e+04 -3.823191e+03 1.332754e+05
-1.717855e+09 -1.518103e+09 -1.677909e+09 -1.752407e+04 -2.804962e+04 1.135188e+05
-1.663662e+09 -1.463852e+09 -1.623671e+09 -1.072535e+04 -4.083632e+04 9.659999e+04
-1.431001e+09 -1.231059e+09 -1.390933e+09 -3.869085e+03 -2.026301e+04 1.172386e+05
-1.447673e+09 -1.247716e+09 -1.407568e+09 -5.507373e+03 -1.740780e+04 1.138914e+05
-1.430993e+09 -1.231051e+09 -1.390931e+09 1.135534e+03 -1.529614e+04 1.208261e+05
-1.490177e+09 -1.290306e+09 -1.450216e+09 -9.300538e+03 -2.118172e+04 1.398476e+05
-1.615406e+09 -1.415577e+09 -1.575458e+09 -5.080531e+04 -8.090101e+03 1.070214e+05
-1.556280e+09 -1.356339e+09 -1.516222e+09 -2.901225e+03 -2.318582e+04 1.185875e+05
-1.430990e+09 -1.231034e+09 -1.390919e+09 2.241549e+03 -6.941015e+03 1.203551e+05
-1.436643e+09 -1.236702e+09 -1.396550e+09 3.280983e+03 -1.206854e+04 1.551256e+05
-1.424787e+09 -1.224832e+09 -1.384677e+09 -7.307462e+03 -2.519295e+04 1.394409e+05
-1.472940e+09 -1.273067e+09 -1.432928e+09 -1.398349e+04 -9.671535e+03 1.224671e+05
-1.424788e+09 -1.224848e+09 -1.384691e+09 -7.281671e+03 -1.161955e+04 1.466565e+05
-1.424740e+09 -1.224835e+09 -1.384585e+09 -2.219338e+04 -3.233702e+04 1.834522e+05
-1.521571e+09 -1.321697e+09 -1.481508e+09 -4.441966e+03 -1.591798e+04 1.449543e+05
-1.569772e+09 -1.369923e+09 -1.529733e+09 -1.460050e+04 -9.863463e+03 1.331720e+05
-1.497898e+09 -1.298076e+09 -1.457983e+09 -3.478463e+04 2.088689e+04 1.442718e+05
-1.497907e+09 -1.298066e+09 -1.457971e+09 -4.163444e+04 2.955834e+04 1.343272e+05
-1.614457e+09 -1.414644e+09 -1.574559e+09 -2.990530e+04 2.020397e+04 1.715681e+05
-1.689222e+09 -1.489504e+09 -1.649466e+09 -7.343009e+04 -1.562102e+03 1.154019e+05
-1.475090e+09 -1.275217e+09 -1.435109e+09 -4.192651e+04 -4.648860e+04 1.501644e+05
-1.475064e+09 -1.275234e+09 -1.435052e+09 -5.004048e+04 -4.697915e+04 1.768195e+05
-1.571919e+09 -1.372102e+09 -1.531915e+09 -2.289925e+04 -2.463917e+04 9.886168e+04
-1.651857e+09 -1.452168e+09 -1.612019e+09 -9.617828e+04 -4.463345e+04 1.468724e+05
-1.448927e+09 -1.248899e+09 -1.408687e+09 1.005259e+04 -1.958341e+04 -3.865582e+03
-1.438851e+09 -1.238828e+09 -1.398596e+09 1.261686e+04 -2.888948e+04 4.603705e+04
-1.448922e+09 -1.248910e+09 -1.408680e+09 9.380476e+03 -1.937448e+04 -9.711175e+03
-1.499323e+09 -1.299339e+09 -1.459170e+09 1.012840e+04 -2.535551e+04 2.340278e+04
-1.615814e+09 -1.415831e+09 -1.575523e+09 -7.430247e+03 -9.554933e+04 6.546105e+04
-1.565448e+09 -1.365454e+09 -1.525200e+09 1.690485e+03 -3.880553e+04 -3.351920e+02
-1.448890e+09 -1.248893e+09 -1.408636e+09 -7.165588e+03 -3.083993e+04 1.404026e+04
-1.447674e+09 -1.247709e+09 -1.407564e+09 -5.333627e+03 2.996348e+04 1.501706e+05
-1.547990e+09 -1.348031e+09 -1.507918e+09 -3.319864e+04 1.276809e+04 1.183988e+05
-1.481982e+09 -1.282050e+09 -1.441933e+09 -3.540162e+04 4.187076e+03 1.402284e+05
-1.422723e+09 -1.222762e+09 -1.382603e+09 -7.373030e+03 -2.476972e+04 1.296174e+05
-1.422713e+09 -1.222741e+09 -1.382573e+09 -1.394875e+04 2.948314e+04 1.353937e+05
-1.607087e+09 -1.407278e+09 -1.567167e+09 -2.203562e+04 4.623522e+03 1.171069e+05
-1.547998e+09 -1.348055e+09 -1.507940e+09 2.987610e+03 -4.689260e+03 1.327846e+05
-1.481897e+09 -1.281987e+09 -1.441807e+09 -1.107376e+04 3.825900e+04 1.910582e+05
-1.607209e+09 -1.407303e+09 -1.567179e+09 -4.639305e+04 1.724397e+04 1.107873e+05
-1.448936e+09 -1.248908e+09 -1.408689e+09 1.694769e+04 -3.151069e+02 -1.222693e+04
-1.438864e+09 -1.238838e+09 -1.398586e+09 2.667004e+04 9.120294e+03 3.086246e+04
-1.499321e+09 -1.299328e+09 -1.459160e+09 1.074196e+04 3.736109e+02 1.054272e+04
-1.438891e+09 -1.238838e+09 -1.398626e+09 2.214678e+04 5.836394e+03 1.044748e+04
-1.438872e+09 -1.238823e+09 -1.398553e+09 2.386049e+04 1.740682e+04 4.059301e+03
-1.555409e+09 -1.355394e+09 -1.515103e+09 3.753830e+04 8.399858e+03 5.362172e+04
-1.615861e+09 -1.415859e+09 -1.575528e+09 2.728561e+04 4.769355e+04 -6.403920e+03
-1.534312e+09 -1.334491e+09 -1.494359e+09 -5.919532e+04 -3.395768e+04 1.297148e+05
-1.631156e+09 -1.431360e+09 -1.591160e+09 -3.753991e+04 8.702235e+01 7.445478e+04
-1.786070e+09 -1.586442e+09 -1.746296e+09 -4.520941e+04 -6.321367e+04 9.727708e+04
-1.711286e+09 -1.511560e+09 -1.671344e+09 -1.744290e+04 -3.048680e+04 1.418246e+05
-1.438823e+09 -1.238831e+09 -1.398565e+09 1.975841e+04 -5.423851e+04 2.144773e+04
-1.535856e+09 -1.335919e+09 -1.495580e+09 -1.041770e+04 -3.889077e+04 1.823743e+04
-1.469728e+09 -1.269755e+09 -1.429499e+09 -5.100659e+02 -4.900912e+04 4.427732e+04
-1.586253e+09 -1.386309e+09 -1.546022e+09 -1.781654e+03 -4.445771e+04 8.032741e+04
-1.535873e+09 -1.335914e+09 -1.495653e+09 1.634814e+03 -1.756942e+04 5.795355e+03
-1.469691e+09 -1.269752e+09 -1.429389e+09 -7.103688e+03 -4.324621e+04 1.650486e+04
-1.586256e+09 -1.386299e+09 -1.545934e+09 -1.409814e+04 -6.991602e+04 4.041521e+04
-1.419291e+09 -1.219314e+09 -1.379018e+09 -2.970186e+03 1.090878e+04 1.791329e+04
-1.419263e+09 -1.219319e+09 -1.378898e+09 1.753240e+03 -5.664520e+04 6.012175e+03
-1.436955e+09 -1.236923e+09 -1.396709e+09 2.294981e+04 2.432384e+04 -7.173826e+04
-1.441871e+09 -1.241857e+09 -1.401718e+09 5.387608e+04 7.779132e+04 -1.319519e+05
-1.490433e+09 -1.290441e+09 -1.450289e+09 2.681548e+04 3.439838e+04 -1.369955e+05
-1.441922e+09 -1.241883e+09 -1.401679e+09 1.659835e+04 5.145367e+04 -1.343602e+05
-1.441901e+09 -1.241823e+09 -1.401578e+09 2.517712e+04 -7.584361e+03 -1.214853e+05
-1.556865e+09 -1.356810e+09 -1.516549e+09 4.557815e+04 -1.715526e+04 -1.655666e+05
-1.605389e+09 -1.405402e+09 -1.565101e+09 4.485318e+04 -2.044090e+04 -1.584459e+05
-1.436952e+09 -1.236959e+09 -1.396716e+09 1.805723e+04 2.441392e+04 -7.319190e+04
-1.441876e+09 -1.241950e+09 -1.401736e+09 5.049884e+04 5.769526e+04 -1.456723e+05
-1.436891e+09 -1.236952e+09 -1.396643e+09 3.323029e+04 5.467462e+04 -3.034709e+04
-1.490450e+09 -1.290503e+09 -1.450284e+09 4.331139e+04 6.719639e+04 -1.373640e+05
-1.605352e+09 -1.405410e+09 -1.564957e+09 2.425984e+04 1.363689e+05 -1.832144e+05
-1.551940e+09 -1.351998e+09 -1.511792e+09 1.959048e+04 3.300829e+04 -5.226580e+04
-1.436921e+09 -1.237002e+09 -1.396791e+09 2.117390e+04 1.626855e+04 -3.811105e+04
-1.500902e+09 -1.301116e+09 -1.460594e+09 1.713982e+04 1.327029e+05 -4.258235e+04
-1.615862e+09 -1.416099e+09 -1.575492e+09 1.250985e+04 9.510693e+04 -1.447839e+05
-1.562422e+09 -1.362661e+09 -1.522250e+09 4.008899e+03 2.482664e+04 1.093069e+04
-1.676716e+09 -1.476999e+09 -1.636439e+09 -2.218664e+04 4.776562e+04 -5.357145e+04
-1.498119e+09 -1.298321e+09 -1.457977e+09 -1.086316e+04 1.124593e+05 -6.435352e+04
-1.612535e+09 -1.412779e+09 -1.572469e+09 -6.588030e+04 4.768246e+04 -1.026850e+05
-1.553318e+09 -1.353578e+09 -1.513295e+09 -1.582120e+03 9.500979e+04 -5.660426e+04
-1.671644e+09 -1.471963e+09 -1.631606e+09 -2.729125e+04 7.699266e+04 -2.449038e+04
-1.447368e+09 -1.247484e+09 -1.407058e+09 4.844560e+04 1.408244e+05 -3.073577e+04
-1.447393e+09 -1.247494e+09 -1.407201e+09 3.366471e+04 2.442701e+04 1.913849e+04
-1.502644e+09 -1.302749e+09 -1.462355e+09 3.176187e+04 1.023252e+05 -3.706033e+03
-1.561768e+09 -1.361924e+09 -1.521466e+09 -1.387559e+04 5.670568e+04 -8.756818e+03
-1.447224e+09 -1.247359e+09 -1.406830e+09 -2.953798e+04 1.287752e+05 -2.720549e+05
-1.439161e+09 -1.239297e+09 -1.398816e+09 1.899208e+04 1.567415e+05 -1.910982e+05
-1.447181e+09 -1.247349e+09 -1.406803e+09 -1.153392e+04 1.240528e+05 -2.941799e+05
-1.498116e+09 -1.298256e+09 -1.457808e+09 -2.310216e+04 1.246199e+05 -2.034869e+05
-1.616403e+09 -1.416545e+09 -1.575918e+09 -1.845250e+04 7.447033e+04 -2.110704e+05
-1.565469e+09 -1.365724e+09 -1.525199e+09 -4.528314e+04 1.560009e+05 -2.721551e+05
-1.447142e+09 -1.247363e+09 -1.406854e+09 -5.859519e+04 1.470707e+05 -2.339061e+05
-1.447236e+09 -1.247345e+09 -1.406809e+09 -1.328923e+04 7.609246e+04 -2.519276e+05
-1.439153e+09 -1.239237e+09 -1.398742e+09 3.230938e+04 1.057993e+05 -1.846635e+05
-1.498096e+09 -1.298221e+09 -1.457760e+09 -2.718732e+04 7.888973e+04 -1.960242e+05
-1.439208e+09 -1.239275e+09 -1.398766e+09 4.282653e+03 1.000632e+05 -1.948745e+05
-1.439214e+09 -1.239233e+09 -1.398774e+09 8.685802e+03 1.089570e+05 -1.801842e+05
-1.557546e+09 -1.357617e+09 -1.517058e+09 2.916396e+03 8.575866e+04 -1.501619e+05
-1.616391e+09 -1.416514e+09 -1.575925e+09 -3.549025e+04 1.474747e+05 -2.227139e+05
-1.492598e+09 -1.292871e+09 -1.452296e+09 3.676656e+04 1.924229e+05 -2.507073e+05
-1.610868e+09 -1.411139e+09 -1.570521e+09 -1.234244e+04 1.248127e+05 -2.010026e+05
-1.560050e+09 -1.360417e+09 -1.519963e+09 -4.451113e+04 2.721839e+05 -2.336882e+05
-1.675041e+09 -1.475432e+09 -1.634828e+09 -6.747730e+03 2.472681e+05 -2.733031e+05
-1.551664e+09 -1.351961e+09 -1.511463e+09 2.252561e+04 1.147558e+05 -7.128080e+04
-1.829494e+09 -1.629917e+09 -1.789384e+09 -5.267233e+04 2.497238e+04 -8.640865e+04
-1.645324e+09 -1.445619e+09 -1.605088e+09 1.665087e+04 7.174385e+04 -7.132829e+04
-1.704526e+09 -1.504849e+09 -1.664358e+09 -2.196498e+04 6.162552e+04 -7.128943e+04
-1.768648e+09 -1.569014e+09 -1.728351e+09 -2.943416e+04 5.924935e+04 -7.569166e+04
-1.706166e+09 -1.506436e+09 -1.665980e+09 -6.558946e+04 6.700361e+03 -8.368942e+04
-1.765345e+09 -1.565717e+09 -1.725220e+09 -6.772166e+04 -1.022668e+04 -4.377890e+04
-1.709470e+09 -1.509779e+09 -1.669140e+09 -1.382854e+04 7.154939e+04 -1.187413e+05
-1.770244e+09 -1.570652e+09 -1.730138e+09 -5.095597e+04 3.015040e+04 -1.068621e+05
-1.441799e+09 -1.241851e+09 -1.401723e+09 9.021841e+04 1.049691e+05 -3.811449e+05
-1.441762e+09 -1.241826e+09 -1.401888e+09 1.341332e+04 1.998318e+05 -3.821647e+05
-1.441654e+09 -1.241767e+09 -1.401537e+09 5.629599e+04 2.647900e+04 -4.349726e+05
-1.556802e+09 -1.356926e+09 -1.516975e+09 6.273487e+04 1.145450e+05 -4.729681e+05
-1.435395e+09 -1.235494e+09 -1.394920e+09 -8.147192e+04 6.976724e+04 -2.942128e+05
-1.435021e+09 -1.235052e+09 -1.394590e+09 -7.742444e+04 4.775796e+04 -3.550294e+05
-1.482198e+09 -1.282331e+09 -1.441834e+09 -9.322290e+04 6.864971e+04 -3.461130e+05
-1.435058e+09 -1.235151e+09 -1.394638e+09 -1.024293e+05 7.834796e+04 -3.407761e+05
-1.434956e+09 -1.235100e+09 -1.394308e+09 -1.074137e+05 -2.834793e+04 -2.718245e+05
-1.546395e+09 -1.346575e+09 -1.505878e+09 -6.974846e+04 -2.026140e+04 -3.256071e+05
-1.593627e+09 -1.393781e+09 -1.553123e+09 -6.150083e+04 3.240690e+04 -3.883825e+05
-1.435424e+09 -1.235546e+09 -1.394939e+09 -6.238619e+04 7.832543e+04 -2.982486e+05
-1.435053e+09 -1.235167e+09 -1.394553e+09 -4.402657e+04 7.047459e+04 -3.700676e+05
-1.435404e+09 -1.235520e+09 -1.394894e+09 -5.672155e+04 1.011079e+05 -2.815198e+05
-1.482203e+09 -1.282358e+09 -1.441825e+09 -7.930960e+04 9.432503e+04 -3.431614e+05
-1.593594e+09 -1.393728e+09 -1.553033e+09 -1.095795e+05 1.628850e+05 -3.996721e+05
-1.546914e+09 -1.347027e+09 -1.506428e+09 -6.869958e+04 7.821742e+04 -2.913632e+05
-1.435431e+09 -1.235554e+09 -1.394993e+09 -5.873919e+04 7.549804e+04 -2.759524e+05
-1.494929e+09 -1.295170e+09 -1.454945e+09 -1.794698e+05 1.050283e+04 -4.849387e+05
-1.494902e+09 -1.295253e+09 -1.454761e+09 -1.884307e+05 -4.900914e+04 -4.612731e+05
-1.606386e+09 -1.406739e+09 -1.566309e+09 -1.498392e+05 -4.518828e+04 -5.466923e+05
-1.679946e+09 -1.480318e+09 -1.640043e+09 -2.122330e+05 -3.333226e+04 -5.324722e+05
-1.448303e+09 -1.248240e+09 -1.407302e+09 1.017473e+04 -1.218793e+05 -7.014407e+05
-1.448469e+09 -1.248393e+09 -1.407721e+09 4.418099e+04 1.956927e+05 -8.583454e+05
-1.448182e+09 -1.248189e+09 -1.406634e+09 -3.661810e+03 -1.599332e+05 -8.496582e+05
-1.568482e+09 -1.368406e+09 -1.526833e+09 -6.945674e+04 -2.985072e+05 -7.670558e+05
-1.495971e+09 -1.296138e+09 -1.455260e+09 -7.458204e+04 1.019359e+05 -3.218245e+05
-1.607318e+09 -1.407561e+09 -1.566756e+09 -1.404551e+05 1.564028e+05 -3.519367e+05
-1.560661e+09 -1.360910e+09 -1.520179e+09 -8.073058e+04 5.260051e+04 -2.538021e+05
-1.694252e+09 -1.494537e+09 -1.653573e+09 -1.276373e+05 1.307904e+05 -3.593112e+05
-1.555771e+09 -1.356154e+09 -1.515511e+09 -2.016035e+05 2.105219e+05 -5.928058e+05
-1.667290e+09 -1.467702e+09 -1.627179e+09 -2.056800e+05 2.866991e+05 -6.375737e+05
-1.754187e+09 -1.554557e+09 -1.713761e+09 -2.315982e+05 2.915968e+05 -6.600785e+05
-1.813604e+09 -1.614081e+09 -1.773529e+09 -2.851916e+05 3.260859e+05 -6.202091e+05
-1.501243e+09 -1.301356e+09 -1.460833e+09 -1.430541e+05 2.472579e+05 -6.097577e+05
-1.509128e+09 -1.309201e+09 -1.468726e+09 -1.437578e+05 1.455384e+05 -5.217178e+05
-1.561389e+09 -1.361511e+09 -1.520851e+09 -1.725287e+05 2.230663e+05 -6.437814e+05
-1.569907e+09 -1.370009e+09 -1.529387e+09 -1.860937e+05 1.589308e+05 -4.637676e+05
-1.703655e+09 -1.503757e+09 -1.663126e+09 -1.849333e+05 2.217410e+05 -5.724949e+05
-1.762963e+09 -1.563227e+09 -1.722802e+09 -2.451008e+05 2.272813e+05 -5.681201e+05
-1.681805e+09 -1.481946e+09 -1.641259e+09 -1.785897e+05 2.059374e+05 -5.557220e+05
-1.449173e+09 -1.249215e+09 -1.408703e+09 -1.547672e+04 1.558836e+05 -2.368208e+05
-1.449199e+09 -1.249227e+09 -1.408828e+09 -2.437501e+04 3.131352e+04 -1.817054e+05
-1.449149e+09 -1.249189e+09 -1.408627e+09 -3.848746e+04 2.228859e+05 -1.608853e+05
-1.582905e+09 -1.382979e+09 -1.542540e+09 -7.550902e+04 1.833217e+05 -2.029022e+05
-1.440555e+09 -1.240637e+09 -1.399809e+09 -6.105748e+03 3.546536e+05 -5.726163e+05
-1.448323e+09 -1.248376e+09 -1.407579e+09 3.598462e+04 2.419199e+05 -4.705936e+05
-1.500705e+09 -1.300825e+09 -1.459878e+09 -3.228795e+04 3.184639e+05 -6.026287e+05
-1.448229e+09 -1.248362e+09 -1.407625e+09 1.615913e+04 2.493608e+05 -6.261228e+05
-1.621072e+09 -1.421238e+09 -1.580315e+09 -9.717591e+04 3.222259e+05 -5.746265e+05
-1.568630e+09 -1.368808e+09 -1.527851e+09 6.709098e+04 3.845957e+05 -5.637625e+05
-1.448400e+09 -1.248519e+09 -1.407883e+09 9.561713e+04 4.264772e+05 -7.309426e+05
-1.448929e+09 -1.248959e+09 -1.408429e+09 -2.961238e+04 2.588066e+05 -6.811924e+05
-1.449175e+09 -1.249212e+09 -1.408687e+09 -1.053339e+04 1.866013e+05 -6.276787e+05
-1.509918e+09 -1.309941e+09 -1.469479e+09 -6.821602e+04 2.619707e+05 -5.753571e+05
-1.449127e+09 -1.249135e+09 -1.408533e+09 -3.720677e+03 3.241631e+05 -5.269466e+05
-1.449140e+09 -1.249188e+09 -1.408612e+09 -1.345048e+04 2.493057e+05 -5.014748e+05
-1.582964e+09 -1.382970e+09 -1.542401e+09 -4.580562e+04 2.414980e+05 -5.570962e+05
-1.643562e+09 -1.443542e+09 -1.603178e+09 -1.700422e+05 2.824083e+05 -6.240836e+05
-1.516220e+09 -1.316286e+09 -1.475600e+09 -1.461261e+05 3.426659e+05 -6.755869e+05
-1.499411e+09 -1.299402e+09 -1.458729e+09 -1.180972e+05 4.877562e+05 -7.277615e+05
-1.578953e+09 -1.379020e+09 -1.538255e+09 -1.671945e+05 3.725269e+05 -6.221815e+05
-1.560054e+09 -1.360051e+09 -1.519262e+09 -1.547535e+05 4.780759e+05 -7.583052e+05
-1.670201e+09 -1.470262e+09 -1.629378e+09 -1.460685e+05 5.715079e+05 -6.906092e+05
-1.753642e+09 -1.553871e+09 -1.713198e+09 -1.756146e+05 4.876163e+05 -7.213966e+05
-1.711130e+09 -1.511190e+09 -1.670463e+09 -1.549495e+05 4.193686e+05 -7.219668e+05
-1.448677e+09 -1.248565e+09 -1.407956e+09 -1.048224e+05 4.202567e+05 -6.753513e+05
-1.436759e+09 -1.236486e+09 -1.396227e+09 -1.058712e+05 4.591874e+05 -6.241041e+05
-1.497322e+09 -1.297186e+09 -1.456595e+09 -1.070086e+05 4.229058e+05 -7.271104e+05
-1.436840e+09 -1.236661e+09 -1.396284e+09 -1.619098e+05 4.825628e+05 -6.184913e+05
-1.436777e+09 -1.236729e+09 -1.396310e+09 -2.248370e+05 5.181114e+05 -5.792414e+05
-1.546836e+09 -1.346812e+09 -1.506132e+09 -2.130191e+05 4.598493e+05 -6.500784e+05
-1.607521e+09 -1.407592e+09 -1.566781e+09 -1.345072e+05 4.618861e+05 -6.757620e+05
-1.455731e+09 -1.255718e+09 -1.415058e+09 -5.529565e+04 3.659236e+05 -7.405097e+05
-1.450916e+09 -1.250824e+09 -1.410159e+09 -3.276431e+04 4.907945e+05 -7.538570e+05
-1.455643e+09 -1.255624e+09 -1.414929e+09 -2.187091e+04 5.148067e+05 -6.248583e+05
-1.518419e+09 -1.318385e+09 -1.477793e+09 -5.604271e+04 4.949899e+05 -6.951167e+05
-1.650512e+09 -1.450425e+09 -1.609935e+09 -1.398709e+05 5.008296e+05 -7.543992e+05
-1.587961e+09 -1.387907e+09 -1.547306e+09 -3.873788e+04 3.853867e+05 -6.354006e+05
-1.455731e+09 -1.255770e+09 -1.415138e+09 -9.289936e+02 3.732548e+05 -5.654970e+05
-1.475877e+09 -1.275846e+09 -1.435385e+09 -1.009423e+05 6.834829e+05 -8.089455e+05
-1.574682e+09 -1.374570e+09 -1.533829e+09 -1.453588e+05 8.083473e+05 -7.191566e+05
-1.627133e+09 -1.427089e+09 -1.586466e+09 -1.492727e+05 6.725531e+05 -6.360733e+05
-1.579393e+09 -1.379486e+09 -1.538824e+09 -9.490146e+04 7.140812e+05 -5.846913e+05
-1.488707e+09 -1.288390e+09 -1.448344e+09 -2.396621e+05 4.673203e+05 -1.145199e+06
-1.488749e+09 -1.288647e+09 -1.448431e+09 -3.168435e+05 5.335589e+05 -1.095295e+06
-1.598772e+09 -1.398688e+09 -1.558029e+09 -3.039479e+05 4.508502e+05 -1.108780e+06
-1.658740e+09 -1.458478e+09 -1.617995e+09 -3.709696e+05 4.094043e+05 -1.130827e+06
-1.480571e+09 -1.280495e+09 -1.439936e+09 -6.949122e+04 6.675218e+05 -5.452547e+05
-1.573342e+09 -1.373243e+09 -1.532595e+09 -1.416979e+05 6.746880e+05 -5.909478e+05
-1.603875e+09 -1.403789e+09 -1.563079e+09 -1.887377e+05 3.797659e+05 -4.227222e+05
-1.558719e+09 -1.358827e+09 -1.517976e+09 -1.040134e+05 6.815344e+05 -1.960328e+05
-1.477461e+09 -1.277238e+09 -1.436806e+09 -1.396179e+04 1.178829e+06 -9.788211e+05
-1.480196e+09 -1.279709e+09 -1.439384e+09 -2.570375e+04 8.614712e+05 -9.835309e+05
-1.529205e+09 -1.328883e+09 -1.488198e+09 -3.783236e+04 8.809475e+05 -1.113957e+06
-1.527131e+09 -1.326743e+09 -1.486086e+09 -8.796696e+04 8.748136e+05 -9.382227e+05
-1.625967e+09 -1.425591e+09 -1.585187e+09 -1.281979e+05 1.031325e+06 -9.951728e+05
-1.694191e+09 -1.493976e+09 -1.653884e+09 -1.376252e+05 1.026036e+06 -1.141387e+06
-1.638006e+09 -1.437688e+09 -1.597531e+09 -2.818243e+04 9.306977e+05 -1.104621e+06
-1.543327e+09 -1.343327e+09 -1.502464e+09 -1.409238e+05 5.847679e+05 -5.994475e+05
-1.636014e+09 -1.436012e+09 -1.595056e+09 -1.711912e+05 5.712429e+05 -6.795499e+05
-1.720558e+09 -1.520597e+09 -1.679801e+09 -2.547343e+05 6.024941e+05 -5.352441e+05
-1.736040e+09 -1.536164e+09 -1.695315e+09 -2.486117e+05 4.759115e+05 -4.250573e+05
-1.433133e+09 -1.232982e+09 -1.392453e+09 -7.705156e+03 7.280898e+05 -6.076620e+05
-1.511215e+09 -1.311148e+09 -1.470602e+09 -1.128798e+05 4.561362e+05 -4.819223e+05
-1.466439e+09 -1.266397e+09 -1.425808e+09 -1.238894e+04 5.318927e+05 -5.798723e+05
-1.466542e+09 -1.266490e+09 -1.426205e+09 1.841907e+04 8.334837e+05 -5.533217e+05
-1.495935e+09 -1.295772e+09 -1.454999e+09 -9.018066e+04 6.092055e+05 -6.826253e+05
-1.627816e+09 -1.427857e+09 -1.587202e+09 -1.545374e+05 6.306243e+05 -6.050374e+05
-1.598691e+09 -1.398571e+09 -1.557907e+09 -8.097035e+04 5.043215e+05 -5.557270e+05
-1.643314e+09 -1.443431e+09 -1.602745e+09 -1.539693e+05 4.945745e+05 -5.117593e+05
-1.528665e+09 -1.328546e+09 -1.487413e+09 -2.438115e+05 8.775006e+05 -1.279311e+06
-1.627542e+09 -1.427458e+09 -1.586520e+09 -2.571158e+05 8.024856e+05 -1.362178e+06
-1.757542e+09 -1.557672e+09 -1.716618e+09 -3.656194e+05 9.067176e+05 -1.322327e+06
-1.697466e+09 -1.497624e+09 -1.656335e+09 -3.253328e+05 9.275898e+05 -1.232126e+06
-1.435003e+09 -1.234922e+09 -1.393878e+09 9.120372e+04 7.689118e+05 -8.043876e+05
-1.428585e+09 -1.228350e+09 -1.387706e+09 1.171220e+05 5.572739e+05 -8.481012e+05
-1.435105e+09 -1.234956e+09 -1.393917e+09 1.045764e+05 7.638203e+05 -7.447127e+05
-1.475446e+09 -1.275199e+09 -1.434115e+09 6.674663e+04 6.955215e+05 -7.650418e+05
-1.435264e+09 -1.235118e+09 -1.394479e+09 9.685152e+04 5.905050e+05 -6.748441e+05
-1.533976e+09 -1.333825e+09 -1.493029e+09 2.701717e+04 6.954671e+05 -7.371033e+05
-1.574193e+09 -1.373901e+09 -1.533192e+09 -3.816693e+04 7.754471e+05 -7.621702e+05
-1.539688e+09 -1.339757e+09 -1.499037e+09 -2.066413e+05 4.340423e+05 -7.318463e+05
-1.638348e+09 -1.438361e+09 -1.597147e+09 -2.042573e+05 3.928236e+05 -7.076255e+05
-1.708562e+09 -1.508632e+09 -1.667567e+09 -3.120108e+05 6.157315e+05 -5.321737e+05
-1.791939e+09 -1.592229e+09 -1.751281e+09 -3.197875e+05 5.237753e+05 -5.862517e+05
-1.439952e+09 -1.239424e+09 -1.398034e+09 1.692252e+05 -3.998569e+04 -1.449187e+06
-1.440341e+09 -1.239835e+09 -1.399470e+09 1.184206e+05 1.236578e+06 -1.793043e+06
-1.439432e+09 -1.239103e+09 -1.396186e+09 6.522473e+04 9.541184e+04 -1.897936e+06
-1.548242e+09 -1.347932e+09 -1.505333e+09 1.204978e+05 2.384313e+05 -2.013898e+06
-1.538703e+09 -1.338713e+09 -1.498116e+09 -1.749138e+05 6.914929e+05 -7.948549e+05
-1.637419e+09 -1.437386e+09 -1.596431e+09 -1.904231e+05 6.990815e+05 -8.060920e+05
-1.774538e+09 -1.574619e+09 -1.734050e+09 -2.216080e+05 7.206890e+05 -6.954846e+05
-1.689856e+09 -1.489872e+09 -1.649032e+09 -1.971717e+05 5.944726e+05 -7.342321e+05
-1.430583e+09 -1.230567e+09 -1.389520e+09 1.171072e+05 1.310743e+06 -1.029831e+06
-1.439970e+09 -1.239755e+09 -1.398328e+09 2.055591e+05 9.172070e+05 -9.436094e+05
-1.482298e+09 -1.282093e+09 -1.440805e+09 9.349081e+04 9.308614e+05 -1.186842e+06
-1.439678e+09 -1.239705e+09 -1.398332e+09 2.081776e+05 8.816760e+05 -1.022013e+06
-1.591114e+09 -1.391004e+09 -1.550118e+09 1.419380e+05 1.133288e+06 -1.341546e+06
-1.548735e+09 -1.348576e+09 -1.507634e+09 3.265747e+05 2.013626e+06 -1.473517e+06
-1.440147e+09 -1.240160e+09 -1.399639e+09 2.755943e+05 1.862166e+06 -1.481394e+06
-1.503248e+09 -1.303164e+09 -1.462428e+09 -1.291034e+05 1.180956e+06 -7.781433e+05
-1.498788e+09 -1.298773e+09 -1.457612e+09 -2.641990e+04 1.345723e+06 -7.658134e+05
-1.574060e+09 -1.373929e+09 -1.532829e+09 -2.089374e+05 1.227692e+06 -6.886966e+05
-1.552760e+09 -1.352588e+09 -1.511364e+09 -9.155598e+04 1.300832e+06 -8.124978e+05
-1.644245e+09 -1.444051e+09 -1.602885e+09 -1.725831e+05 1.198019e+06 -6.919307e+05
-1.743888e+09 -1.543831e+09 -1.702974e+09 -3.185021e+05 1.390166e+06 -7.675973e+05
-1.713952e+09 -1.513907e+09 -1.672828e+09 -2.081584e+05 1.403509e+06 -7.668686e+05
-1.449569e+09 -1.249616e+09 -1.408262e+09 2.936801e+04 9.671753e+05 -7.217383e+05
-1.458824e+09 -1.258945e+09 -1.417571e+09 2.530203e+04 9.357599e+05 -5.821300e+05
-1.449585e+09 -1.249649e+09 -1.408086e+09 -1.805960e+04 1.051105e+06 -6.602288e+05
-1.520368e+09 -1.320448e+09 -1.479040e+09 -9.227522e+04 9.704949e+05 -7.059098e+05
-1.660091e+09 -1.459906e+09 -1.618837e+09 -1.830347e+05 1.074874e+06 -7.704379e+05
-1.589590e+09 -1.389427e+09 -1.548287e+09 -5.003498e+04 6.949094e+05 -4.657823e+05
-1.449766e+09 -1.249649e+09 -1.408722e+09 -1.975362e+04 6.436530e+05 -4.431409e+05
-1.441898e+09 -1.242108e+09 -1.400353e+09 1.595215e+05 1.408584e+06 -8.194999e+05
-1.427827e+09 -1.228410e+09 -1.385251e+09 1.928310e+05 1.339682e+06 -8.709391e+05
-1.481902e+09 -1.282096e+09 -1.440024e+09 7.074743e+04 1.402911e+06 -6.357550e+05
-1.427670e+09 -1.227880e+09 -1.385473e+09 3.778168e+05 1.112394e+06 -1.020250e+06
-1.428411e+09 -1.228850e+09 -1.387931e+09 3.794983e+05 2.358493e+06 -1.515253e+06
-1.519473e+09 -1.319823e+09 -1.477203e+09 2.840286e+05 1.664623e+06 -1.784614e+06
-1.573329e+09 -1.373406e+09 -1.531462e+09 -6.823758e+04 1.292537e+06 -5.386680e+05
-1.569731e+09 -1.369580e+09 -1.528085e+09 -3.163911e+05 7.735494e+05 -5.417218e+05
-1.658501e+09 -1.458144e+09 -1.617182e+09 -3.438155e+05 8.410640e+05 -6.444911e+05
-1.767795e+09 -1.567392e+09 -1.725942e+09 -3.379171e+05 6.741408e+05 -6.673325e+05
-1.838023e+09 -1.637575e+09 -1.796111e+09 -4.292381e+05 7.995196e+05 -6.428311e+05
-1.545317e+09 -1.345012e+09 -1.503690e+09 -1.657543e+05 8.791125e+05 -3.729200e+05
-1.634071e+09 -1.433729e+09 -1.592960e+09 -2.380686e+05 9.516460e+05 -3.984742e+05
-1.707243e+09 -1.506785e+09 -1.665908e+09 -2.175311e+05 1.001971e+06 -4.405840e+05
-1.811244e+09 -1.610678e+09 -1.769546e+09 -2.159649e+05 7.782747e+05 -3.820494e+05
-1.568487e+09 -1.368291e+09 -1.526554e+09 -2.539659e+05 1.183162e+06 -4.464228e+05
-1.660206e+09 -1.459966e+09 -1.618331e+09 -3.723746e+05 1.207262e+06 -2.537886e+05
-1.841072e+09 -1.640694e+09 -1.799055e+09 -5.265349e+05 1.388760e+06 -4.644304e+05
-1.770743e+09 -1.570458e+09 -1.728595e+09 -4.353961e+05 1.260917e+06 -5.758266e+05
-1.497854e+09 -1.298171e+09 -1.455091e+09 2.160732e+05 1.394818e+06 -1.031484e+06
-1.498335e+09 -1.298489e+09 -1.456826e+09 1.930686e+05 2.266918e+06 -1.425882e+06
-1.589315e+09 -1.389489e+09 -1.545951e+09 6.508596e+04 1.806955e+06 -1.347727e+06
-1.700336e+09 -1.500109e+09 -1.656268e+09 1.276033e+05 1.735766e+06 -1.375496e+06
-1.522979e+09 -1.323081e+09 -1.480557e+09 -1.430256e+05 1.377249e+06 -9.047567e+05
-1.673628e+09 -1.473635e+09 -1.631003e+09 -1.084433e+05 1.300540e+06 -9.058866e+05
-1.737226e+09 -1.536968e+09 -1.694225e+09 -8.707451e+04 1.280181e+06 -6.647281e+05
-1.671531e+09 -1.471307e+09 -1.628936e+09 -3.341672e+05 2.050572e+06 -1.143087e+06
-1.498612e+09 -1.298447e+09 -1.457576e+09 5.845673e+03 1.108646e+06 -4.732823e+05
-1.499766e+09 -1.299617e+09 -1.458547e+09 -2.689052e+04 9.116777e+05 -5.521298e+05
-1.564227e+09 -1.363773e+09 -1.522759e+09 -1.557546e+04 1.024389e+06 -3.941712e+05
-1.555692e+09 -1.355351e+09 -1.514334e+09 -4.396009e+04 1.029168e+06 -4.205615e+05
-1.670025e+09 -1.469634e+09 -1.629272e+09 -9.299561e+04 1.145996e+06 -4.239575e+05
-1.756534e+09 -1.555971e+09 -1.715338e+09 -1.478594e+05 1.029181e+06 -2.644625e+05
-1.697072e+09 -1.496587e+09 -1.655233e+09 -2.527731e+04 1.015431e+06 -4.647501e+05
-1.569844e+09 -1.369345e+09 -1.527935e+09 -1.227351e+05 9.076385e+05 -4.348389e+05
-1.684017e+09 -1.483458e+09 -1.642472e+09 -2.016539e+05 1.057457e+06 -6.149006e+05
-1.851499e+09 -1.650619e+09 -1.809314e+09 -2.285404e+05 8.415750e+05 -3.253729e+05
-1.787900e+09 -1.587272e+09 -1.746056e+09 -2.843585e+05 8.406230e+05 -4.782034e+05
-1.475893e+09 -1.275775e+09 -1.434354e+09 -4.489531e+04 1.071236e+06 -4.663177e+05
-1.564455e+09 -1.364214e+09 -1.523296e+09 -1.925120e+05 9.889590e+05 -4.028950e+05
-1.523394e+09 -1.323313e+09 -1.482333e+09 -1.066858e+05 8.300935e+05 -4.132815e+05
-1.637635e+09 -1.437313e+09 -1.596159e+09 -1.459982e+05 9.758245e+05 -4.385023e+05
-1.429194e+09 -1.229280e+09 -1.387933e+09 5.250738e+03 1.105715e+06 -5.082822e+05
-1.517813e+09 -1.317772e+09 -1.476919e+09 -1.162959e+05 1.046664e+06 -5.148461e+05
-1.476877e+09 -1.276683e+09 -1.435844e+09 7.374726e+03 8.073562e+05 -4.144340e+05
-1.476931e+09 -1.276868e+09 -1.435872e+09 -2.021287e+04 8.610671e+05 -4.089714e+05
-1.457331e+09 -1.258214e+09 -1.415097e+09 -1.871039e+04 1.526020e+06 -7.018225e+05
-1.581123e+09 -1.381832e+09 -1.538866e+09 1.758183e+04 2.413766e+06 -9.623131e+05
-1.500413e+09 -1.301200e+09 -1.458751e+09 -2.700865e+04 1.918512e+06 -8.616029e+05
-1.500753e+09 -1.301455e+09 -1.459991e+09 6.211657e+03 2.570776e+06 -3.703818e+05
-1.650660e+09 -1.451511e+09 -1.608209e+09 6.561867e+04 2.179711e+06 -5.856519e+05
-1.430514e+09 -1.231145e+09 -1.388614e+09 -9.470909e+04 2.177826e+06 -9.571897e+05
-1.430547e+09 -1.231324e+09 -1.388654e+09 -6.499686e+04 2.534194e+06 -8.952152e+05
-1.651003e+09 -1.451462e+09 -1.608307e+09 -1.376592e+04 2.245865e+06 -4.888437e+05
-1.581094e+09 -1.381694e+09 -1.538778e+09 -1.604818e+05 2.328774e+06 -9.148661e+05
-1.500088e+09 -1.300156e+09 -1.458617e+09 -9.055748e+04 9.566118e+05 -6.111899e+05
-1.588691e+09 -1.388612e+09 -1.547524e+09 -2.043548e+05 9.359741e+05 -6.184499e+05
-1.687504e+09 -1.487274e+09 -1.646090e+09 -3.201860e+05 1.029437e+06 -8.238517e+05
-1.616974e+09 -1.416825e+09 -1.575539e+09 -1.929268e+05 6.488962e+05 -5.200137e+05
-1.443757e+09 -1.243906e+09 -1.402704e+09 -1.460117e+04 1.127648e+06 -3.947209e+05
-1.434460e+09 -1.234625e+09 -1.393292e+09 -2.135571e+04 1.041354e+06 -5.008639e+05
-1.490461e+09 -1.290400e+09 -1.449056e+09 7.927505e+03 1.126609e+06 -4.310229e+05
-1.434438e+09 -1.234578e+09 -1.393323e+09 3.814181e+03 1.134347e+06 -4.283517e+05
-1.434683e+09 -1.234755e+09 -1.394099e+09 1.720619e+04 7.184257e+05 -2.215210e+05
-1.548810e+09 -1.348668e+09 -1.507772e+09 -1.751422e+04 9.068530e+05 -2.539533e+05
-1.604571e+09 -1.404278e+09 -1.563527e+09 -1.006163e+05 9.759711e+05 -3.617738e+05
-1.442521e+09 -1.242864e+09 -1.400395e+09 7.910890e+04 1.654452e+06 -8.235432e+05
-1.453201e+09 -1.253523e+09 -1.411447e+09 3.282191e+04 1.630915e+06 -9.205593e+05
-1.442567e+09 -1.242836e+09 -1.400366e+09 4.615366e+04 1.624292e+06 -8.125916e+05
-1.508466e+09 -1.308536e+09 -1.466548e+09 -3.602032e+04 1.742645e+06 -4.688712e+05
-1.641469e+09 -1.441532e+09 -1.599444e+09 5.050566e+04 1.736146e+06 -5.419340e+05
-1.575320e+09 -1.375648e+09 -1.532985e+09 -1.150617e+05 2.099499e+06 -1.412864e+06
-1.442978e+09 -1.243003e+09 -1.402196e+09 -5.929140e+04 2.264569e+06 -1.115628e+06
-1.515407e+09 -1.315119e+09 -1.474284e+09 -5.439045e+04 1.100493e+06 -2.692096e+05
-1.488849e+09 -1.288356e+09 -1.447989e+09 -1.841120e+03 9.792141e+05 -1.157995e+05
-1.567550e+09 -1.367105e+09 -1.526310e+09 -2.078214e+04 1.134561e+06 -2.205182e+05
-1.554890e+09 -1.354230e+09 -1.513893e+09 -4.717249e+04 1.008871e+06 7.481916e+04
-1.661699e+09 -1.460948e+09 -1.620316e+09 -3.642166e+04 1.082230e+06 -1.406499e+05
-1.720931e+09 -1.520158e+09 -1.679764e+09 -2.506020e+04 1.043597e+06 -6.738074e+04
-1.675637e+09 -1.475154e+09 -1.635062e+09 -1.952538e+04 1.262405e+06 -3.457631e+05
-1.449743e+09 -1.249818e+09 -1.408577e+09 8.500801e+03 1.166823e+06 -2.400000e+05
-1.440289e+09 -1.240292e+09 -1.399560e+09 3.076007e+04 1.165057e+06 -1.100083e+05
-1.449710e+09 -1.249716e+09 -1.408536e+09 3.515490e+04 1.139543e+06 -2.557364e+05
-1.501889e+09 -1.301772e+09 -1.460517e+09 6.116172e+04 1.140721e+06 -1.901492e+05
-1.609620e+09 -1.409264e+09 -1.568562e+09 -5.148162e+04 1.023224e+06 -1.788498e+05
-1.557735e+09 -1.357479e+09 -1.516628e+09 5.154476e+04 9.913234e+05 -1.631329e+05
-1.449889e+09 -1.249886e+09 -1.409002e+09 6.983101e+04 8.638024e+05 -1.174214e+05
-1.453519e+09 -1.253857e+09 -1.411338e+09 4.667648e+04 1.510677e+06 -5.881654e+05
-1.436346e+09 -1.236659e+09 -1.393549e+09 1.802789e+05 1.238133e+06 -4.550140e+05
-1.502545e+09 -1.302694e+09 -1.460172e+09 -3.727150e+04 1.610714e+06 -1.866159e+05
-1.436594e+09 -1.236688e+09 -1.393903e+09 9.652243e+04 1.314405e+06 -2.754539e+05
-1.437107e+09 -1.237218e+09 -1.395368e+09 1.605274e+05 2.141496e+06 -6.660646e+05
-1.542917e+09 -1.343262e+09 -1.498975e+09 1.736444e+05 1.869294e+06 -1.091944e+06
-1.609537e+09 -1.409578e+09 -1.566825e+09 1.491148e+05 1.472336e+06 -2.113097e+05
-1.505232e+09 -1.304915e+09 -1.464428e+09 -4.291473e+04 9.904385e+05 -8.121724e+04
-1.488809e+09 -1.288390e+09 -1.448025e+09 -4.213369e+04 1.011674e+06 -9.652315e+04
-1.557407e+09 -1.356960e+09 -1.516379e+09 -5.411289e+04 9.832421e+05 -1.162493e+05
-1.558957e+09 -1.358391e+09 -1.517913e+09 -2.191226e+04 1.063176e+06 -9.499853e+04
-1.665196e+09 -1.464687e+09 -1.624190e+09 -4.563664e+04 1.060722e+06 -7.219219e+04
-1.724907e+09 -1.524349e+09 -1.683947e+09 -1.651896e+04 1.051959e+06 -7.651497e+04
-1.665708e+09 -1.465153e+09 -1.624528e+09 -3.061526e+04 1.100043e+06 -1.159227e+05
-1.435142e+09 -1.235148e+09 -1.394256e+09 -6.924592e+04 9.150210e+05 2.675071e+04
-1.440061e+09 -1.240116e+09 -1.399174e+09 -6.146499e+04 9.349710e+05 4.031814e+04
-1.487341e+09 -1.287203e+09 -1.446236e+09 -6.725511e+04 9.232160e+05 -2.273409e+04
-1.440054e+09 -1.240087e+09 -1.399162e+09 -5.513889e+04 9.440679e+05 4.138489e+04
-1.440256e+09 -1.240373e+09 -1.399751e+09 -3.592118e+04 6.883457e+05 1.385465e+05
-1.547707e+09 -1.347689e+09 -1.506556e+09 2.027847e+04 9.902444e+05 2.547518e+05
-1.595093e+09 -1.394762e+09 -1.553924e+09 -5.209146e+04 1.021811e+06 1.497926e+04
-1.440179e+09 -1.240122e+09 -1.399026e+09 1.066868e+04 9.430429e+05 -2.494105e+05
-1.527794e+09 -1.327722e+09 -1.486615e+09 2.591780e+03 8.572308e+05 -2.673757e+05
-1.471997e+09 -1.271866e+09 -1.430952e+09 1.413715e+03 9.108369e+05 -2.158988e+05
-1.472138e+09 -1.272109e+09 -1.431243e+09 -7.373796e+04 7.405236e+05 -3.775137e+05
-1.579723e+09 -1.379564e+09 -1.538454e+09 -6.141606e+04 9.676809e+05 -3.673255e+05
-1.420057e+09 -1.219999e+09 -1.379030e+09 4.636403e+04 9.746958e+05 -2.468241e+05
-1.420037e+09 -1.220007e+09 -1.378891e+09 1.429129e+04 8.131092e+05 -2.592145e+05
-1.579690e+09 -1.379624e+09 -1.538553e+09 -8.262153e+04 1.028972e+06 -2.894765e+05
-1.527802e+09 -1.327770e+09 -1.486607e+09 3.039472e+04 9.771191e+05 -2.647435e+05
-1.436407e+09 -1.237085e+09 -1.394676e+09 -4.301100e+04 1.562876e+06 2.370410e+05
-1.436303e+09 -1.236919e+09 -1.394595e+09 -1.130960e+05 1.523237e+06 2.641068e+05
-1.437014e+09 -1.237749e+09 -1.396869e+09 -1.262189e+05 2.586171e+06 2.548469e+05
-1.542984e+09 -1.343731e+09 -1.500517e+09 -5.862060e+04 2.232845e+06 6.315963e+05
-1.458102e+09 -1.258093e+09 -1.417193e+09 -6.217694e+04 1.040456e+06 -1.870385e+05
-1.436673e+09 -1.236808e+09 -1.395428e+09 -6.675090e+03 9.123271e+05 -2.819382e+05
-1.506749e+09 -1.306557e+09 -1.465817e+09 -2.192830e+04 9.941417e+05 -2.126227e+05
-1.436545e+09 -1.236688e+09 -1.395098e+09 -8.127818e+04 8.573048e+05 -5.169658e+04
-1.613586e+09 -1.413406e+09 -1.572597e+09 6.016108e+03 9.446727e+05 -1.885672e+05
-1.543425e+09 -1.343509e+09 -1.501853e+09 2.789999e+03 1.230043e+06 -1.794261e+05
-1.436537e+09 -1.236687e+09 -1.395157e+09 -1.029812e+05 1.045033e+06 -1.330483e+05
-1.501172e+09 -1.301009e+09 -1.460580e+09 4.506075e+03 7.799296e+05 3.385186e+04
-1.503436e+09 -1.303289e+09 -1.462825e+09 1.750372e+03 8.467359e+05 1.831712e+05
-1.553794e+09 -1.353484e+09 -1.513092e+09 5.081412e+04 8.381251e+05 1.288137e+04
-1.568828e+09 -1.368524e+09 -1.528070e+09 3.302613e+04 7.570965e+05 1.302389e+05
-1.704335e+09 -1.504043e+09 -1.663882e+09 4.478314e+04 6.906854e+05 1.811213e+05
-1.747973e+09 -1.547539e+09 -1.707373e+09 -2.173659e+04 8.279928e+05 9.075526e+04
-1.660302e+09 -1.459922e+09 -1.619726e+09 5.409462e+04 9.251066e+05 6.532414e+04
-1.435763e+09 -1.235861e+09 -1.395098e+09 -7.020149e+03 8.430564e+05 1.241244e+05
-1.440658e+09 -1.240731e+09 -1.399975e+09 -1.429200e+04 7.920086e+05 2.608606e+05
-1.435754e+09 -1.235841e+09 -1.395111e+09 3.031785e+03 8.014727e+05 9.170676e+04
-1.488477e+09 -1.288418e+09 -1.447644e+09 1.749134e+04 8.097574e+05 2.748629e+04
-1.594921e+09 -1.394685e+09 -1.554173e+09 4.597937e+04 8.282781e+05 6.446526e+04
-1.542160e+09 -1.342180e+09 -1.501474e+09 3.900885e+04 7.528442e+05 2.185474e+05
-1.435836e+09 -1.235989e+09 -1.395400e+09 -2.383102e+03 5.718910e+05 1.815503e+05
-1.453526e+09 -1.253490e+09 -1.412907e+09 -1.690101e+03 9.725664e+05 -5.877532e+04
-1.450838e+09 -1.250939e+09 -1.410108e+09 -1.520917e+04 1.001084e+06 6.905444e+04
-1.516316e+09 -1.316194e+09 -1.475414e+09 5.340931e+04 9.885587e+05 7.727073e+04
-1.450742e+09 -1.250778e+09 -1.410049e+09 4.660394e+04 9.856562e+05 6.040865e+04
-1.450886e+09 -1.250760e+09 -1.410510e+09 5.709701e+04 1.219221e+06 -8.674933e+04
-1.586322e+09 -1.386115e+09 -1.545664e+09 -2.327203e+04 1.169412e+06 -1.593288e+04
-1.651709e+09 -1.451548e+09 -1.611008e+09 6.844403e+03 1.079348e+06 8.109595e+04
-1.548727e+09 -1.348291e+09 -1.507799e+09 -2.864709e+04 7.501079e+05 4.191594e+05
-1.636444e+09 -1.435935e+09 -1.595551e+09 -2.775958e+04 8.029818e+05 4.654475e+05
-1.715023e+09 -1.514479e+09 -1.673748e+09 2.268384e+04 8.219613e+05 3.820854e+05
-1.792324e+09 -1.591587e+09 -1.751033e+09 8.004543e+04 6.598742e+05 5.115795e+05
-1.497834e+09 -1.297527e+09 -1.457064e+09 -4.634166e+04 3.518352e+05 1.774556e+05
-1.488866e+09 -1.288749e+09 -1.447914e+09 -8.170135e+04 4.015638e+05 3.000664e+05
-1.556150e+09 -1.355762e+09 -1.515268e+09 -8.047210e+03 3.295036e+05 1.700140e+05
-1.543298e+09 -1.343095e+09 -1.502536e+09 2.153675e+04 4.196532e+05 8.352059e+04
-1.650958e+09 -1.450663e+09 -1.610393e+09 8.767432e+03 5.020848e+05 1.731670e+05
-1.726439e+09 -1.525916e+09 -1.685469e+09 1.498994e+03 3.433006e+05 2.189047e+05
-1.674071e+09 -1.473678e+09 -1.633078e+09 -7.302180e+03 3.631198e+05 1.250106e+05
-1.470166e+09 -1.270131e+09 -1.429244e+09 -5.347271e+04 5.907012e+05 1.653444e+05
-1.557887e+09 -1.357705e+09 -1.516924e+09 -7.067844e+04 6.318950e+05 1.944088e+05
-1.518640e+09 -1.318573e+09 -1.477819e+09 -9.127510e+04 3.345498e+05 1.790131e+05
-1.626141e+09 -1.425893e+09 -1.585332e+09 -1.234260e+04 4.556960e+05 1.619049e+05
-1.442540e+09 -1.242522e+09 -1.401964e+09 -8.932811e+04 5.075434e+05 1.997701e+05
-1.430766e+09 -1.230826e+09 -1.390210e+09 -1.160484e+05 6.195199e+05 3.060784e+05
-1.485131e+09 -1.285052e+09 -1.444403e+09 -2.750347e+04 4.866327e+05 1.290169e+05
-1.430700e+09 -1.230701e+09 -1.390052e+09 -9.240240e+04 4.368181e+05 1.717320e+05
-1.430800e+09 -1.230888e+09 -1.390273e+09 -6.567491e+04 3.036935e+05 2.225167e+05
-1.538272e+09 -1.338186e+09 -1.497745e+09 9.180374e+02 4.482806e+05 2.224139e+05
-1.592701e+09 -1.392407e+09 -1.552060e+09 -1.209064e+04 4.559516e+05 1.943715e+05
-1.542888e+09 -1.342642e+09 -1.502398e+09 4.788519e+03 7.930029e+05 9.431783e+04
-1.630553e+09 -1.430268e+09 -1.590089e+09 2.511711e+04 8.586387e+05 1.318375e+05
-1.726618e+09 -1.526227e+09 -1.686137e+09 7.639743e+04 7.453608e+05 1.845762e+05
-1.770312e+09 -1.569823e+09 -1.729720e+09 7.097756e+03 8.358632e+05 6.372779e+04
-1.427503e+09 -1.227601e+09 -1.386803e+09 -2.996150e+04 6.112553e+05 5.560295e+04
-1.515183e+09 -1.315169e+09 -1.474460e+09 -2.679799e+04 6.637724e+05 8.169235e+04
-1.475840e+09 -1.276039e+09 -1.435156e+09 -3.330634e+04 6.590007e+05 7.618190e+04
-1.475877e+09 -1.276030e+09 -1.435364e+09 -2.317255e+03 3.781799e+05 4.583018e+04
-1.443486e+09 -1.243393e+09 -1.402636e+09 -6.468181e+04 4.255741e+05 9.480060e+04
-1.446245e+09 -1.246209e+09 -1.405288e+09 -1.414897e+05 6.344607e+05 1.869543e+05
-1.443605e+09 -1.243466e+09 -1.402776e+09 -1.034192e+05 6.469253e+05 2.840884e+05
-1.501820e+09 -1.301622e+09 -1.460716e+09 -8.846312e+04 6.574965e+05 1.213052e+05
-1.619746e+09 -1.419567e+09 -1.578494e+09 -4.836925e+04 6.065363e+05 8.865413e+04
-1.561442e+09 -1.361174e+09 -1.520187e+09 -1.383654e+05 4.618902e+05 3.024264e+05
-1.443480e+09 -1.243143e+09 -1.402355e+09 -9.763737e+04 4.252850e+05 3.179481e+05
-1.509326e+09 -1.309212e+09 -1.468259e+09 3.354569e+04 1.001575e+06 1.923718e+05
-1.627391e+09 -1.427185e+09 -1.585865e+09 1.489640e+05 8.164818e+05 2.888245e+05
-1.569244e+09 -1.368753e+09 -1.528163e+09 1.356838e+05 1.202656e+06 3.150665e+05
-1.704575e+09 -1.504050e+09 -1.663093e+09 7.087308e+04 1.112701e+06 3.330077e+05
-1.446540e+09 -1.246585e+09 -1.406215e+09 -1.719890e+05 1.096967e+06 5.466543e+05
-1.564411e+09 -1.364455e+09 -1.523581e+09 -7.536980e+04 9.286100e+05 5.086099e+05
-1.506104e+09 -1.305971e+09 -1.465209e+09 -9.194228e+04 7.880224e+05 5.433841e+05
-1.506373e+09 -1.306112e+09 -1.466170e+09 -1.060849e+05 1.315372e+06 6.919554e+05
-1.480066e+09 -1.280026e+09 -1.439486e+09 4.896612e+03 7.611205e+05 1.931197e+05
-1.567735e+09 -1.367579e+09 -1.527156e+09 2.225455e+04 7.974697e+05 2.196330e+05
-1.634959e+09 -1.434702e+09 -1.594163e+09 5.969582e+04 8.608836e+05 1.043762e+05
-1.582418e+09 -1.382396e+09 -1.541678e+09 -5.330133e+04 6.841239e+05 1.446395e+05
-1.528379e+09 -1.328116e+09 -1.487101e+09 -3.344462e+04 3.942894e+05 2.195452e+05
-1.616094e+09 -1.415769e+09 -1.574812e+09 -4.352567e+04 4.641072e+05 2.634512e+05
-1.684481e+09 -1.484065e+09 -1.643669e+09 3.483736e+04 5.029442e+05 7.778099e+04
-1.759737e+09 -1.559204e+09 -1.718476e+09 6.969598e+04 3.061108e+05 2.461815e+03
-1.511469e+09 -1.311147e+09 -1.470981e+09 -1.174767e+04 2.828836e+05 1.465877e+05
-1.478768e+09 -1.278522e+09 -1.438478e+09 1.350681e+03 3.529844e+05 1.322137e+05
-1.562451e+09 -1.362159e+09 -1.522099e+09 5.825769e+04 3.318645e+05 5.789950e+04
-1.539209e+09 -1.339012e+09 -1.498905e+09 7.909765e+04 2.793161e+05 1.083346e+05
-1.636246e+09 -1.436022e+09 -1.595903e+09 8.072501e+04 2.628513e+05 8.274179e+04
-1.713718e+09 -1.513344e+09 -1.673427e+09 6.624215e+04 3.567478e+05 1.731858e+05
-1.679444e+09 -1.479175e+09 -1.639306e+09 7.125407e+04 4.470628e+05 9.893835e+04
-1.451055e+09 -1.251036e+09 -1.410682e+09 -2.060620e+04 4.067660e+05 1.647928e+05
-1.439253e+09 -1.239251e+09 -1.398998e+09 -3.032815e+03 4.115287e+05 1.670287e+05
-1.451052e+09 -1.251028e+09 -1.410699e+09 -1.467246e+04 3.141147e+05 9.360694e+04
-1.501979e+09 -1.301984e+09 -1.461617e+09 5.214370e+04 3.534383e+05 1.212589e+05
-1.618916e+09 -1.418730e+09 -1.578636e+09 6.693809e+04 3.284348e+05 1.729420e+05
-1.567891e+09 -1.367818e+09 -1.527634e+09 6.537124e+04 3.858349e+05 1.054542e+05
-1.451059e+09 -1.251100e+09 -1.410717e+09 -1.584056e+04 2.986292e+05 8.606566e+04
-1.448675e+09 -1.248651e+09 -1.408083e+09 -1.241058e+04 3.301954e+05 5.671059e+04
-1.427800e+09 -1.227827e+09 -1.387397e+09 1.691066e+04 2.621645e+05 5.887251e+04
-1.488202e+09 -1.288192e+09 -1.447600e+09 3.842464e+04 3.583728e+05 6.964408e+04
-1.427782e+09 -1.227776e+09 -1.387318e+09 2.073630e+04 3.661326e+05 1.414547e+05
-1.427814e+09 -1.227720e+09 -1.387420e+09 2.480089e+04 4.056226e+05 9.964027e+04
-1.524729e+09 -1.324644e+09 -1.484087e+09 2.224839e+04 3.487933e+05 4.510029e+04
-1.585229e+09 -1.385165e+09 -1.544584e+09 5.470811e+04 3.311737e+05 6.163881e+04
-1.487398e+09 -1.287398e+09 -1.446770e+09 1.070179e+05 3.182217e+05 1.603019e+05
-1.487451e+09 -1.287349e+09 -1.447011e+09 1.071171e+05 4.665802e+05 1.049520e+05
-1.584351e+09 -1.384226e+09 -1.543646e+09 1.085567e+05 3.836734e+05 9.211313e+04
-1.659234e+09 -1.459115e+09 -1.618316e+09 2.056061e+05 3.616231e+05 1.713165e+05
-1.449853e+09 -1.249834e+09 -1.409387e+09 -1.573779e+04 1.083098e+05 1.090821e+05
-1.439266e+09 -1.239244e+09 -1.398655e+09 -4.287418e+04 1.889319e+05 1.608669e+05
-1.500865e+09 -1.300806e+09 -1.460362e+09 -2.772156e+04 1.092639e+05 9.219171e+04
-1.439338e+09 -1.239314e+09 -1.398936e+09 -3.526027e+04 1.021459e+05 9.503923e+04
-1.439367e+09 -1.239423e+09 -1.398997e+09 -2.915352e+04 5.807260e+04 9.366402e+04
-1.556152e+09 -1.356189e+09 -1.515621e+09 7.489733e+03 1.574100e+05 1.705164e+05
-1.617799e+09 -1.417682e+09 -1.577186e+09 1.355665e+04 1.612213e+05 1.185079e+05
-1.438466e+09 -1.238418e+09 -1.398054e+09 -2.117290e+04 8.058184e+04 1.485621e+04
-1.447952e+09 -1.247881e+09 -1.407508e+09 -5.955467e+04 1.550303e+05 2.426968e+04
-1.438457e+09 -1.238382e+09 -1.397980e+09 -2.579673e+04 2.088884e+05 9.925837e+04
-1.498036e+09 -1.297975e+09 -1.457533e+09 3.102329e+03 1.910472e+05 6.976855e+04
-1.612418e+09 -1.412322e+09 -1.571767e+09 6.950308e+04 9.192882e+04 1.019814e+05
-1.552668e+09 -1.352578e+09 -1.512084e+09 -1.233068e+04 1.188900e+05 7.278321e+04
-1.438418e+09 -1.238272e+09 -1.397872e+09 -2.862971e+04 1.298071e+05 1.228151e+05
-1.538470e+09 -1.338176e+09 -1.497973e+09 7.630154e+04 3.080094e+05 2.954745e+05
-1.635504e+09 -1.435220e+09 -1.595105e+09 1.126103e+05 1.971722e+05 2.886248e+05
-1.712828e+09 -1.512514e+09 -1.672472e+09 1.606836e+05 3.331585e+05 3.578567e+05
-1.776302e+09 -1.575870e+09 -1.735705e+09 1.819843e+05 3.167963e+05 3.322959e+05
-1.447838e+09 -1.247829e+09 -1.407263e+09 -4.018768e+04 3.827144e+05 1.920280e+05
-1.535369e+09 -1.335265e+09 -1.494747e+09 3.047182e+04 5.402257e+05 2.466156e+05
-1.480620e+09 -1.280635e+09 -1.440015e+09 -1.313597e+04 3.748294e+05 1.944526e+05
-1.480727e+09 -1.280615e+09 -1.440483e+09 2.372343e+04 4.852918e+05 3.071201e+05
-1.594974e+09 -1.394969e+09 -1.554385e+09 6.778212e+04 5.118851e+05 2.707531e+05
-1.421089e+09 -1.221065e+09 -1.380705e+09 -2.582213e+04 2.913755e+05 2.500001e+05
-1.421043e+09 -1.220926e+09 -1.380643e+09 -2.509333e+04 5.764090e+05 2.582349e+05
-1.595044e+09 -1.394928e+09 -1.554278e+09 4.335368e+04 4.268146e+05 2.104541e+05
-1.535329e+09 -1.335223e+09 -1.494664e+09 -3.502209e+04 4.102630e+05 2.693227e+05
-1.500018e+09 -1.299841e+09 -1.459508e+09 3.568302e+04 1.288104e+05 7.158620e+04
-1.498949e+09 -1.298711e+09 -1.458383e+09 -2.239609e+03 2.257817e+05 7.462055e+04
-1.559622e+09 -1.359404e+09 -1.519147e+09 6.579272e+04 1.818741e+05 1.591564e+05
-1.560478e+09 -1.360217e+09 -1.520040e+09 2.538795e+04 2.363719e+05 3.882658e+04
-1.677408e+09 -1.477133e+09 -1.636912e+09 2.879743e+04 2.335301e+05 8.357589e+04
-1.740759e+09 -1.540427e+09 -1.699842e+09 7.975394e+04 2.212083e+05 1.196371e+05
-1.673872e+09 -1.473633e+09 -1.633132e+09 7.628571e+04 1.834739e+05 1.122381e+05
-1.439208e+09 -1.239244e+09 -1.398706e+09 -3.769731e+04 2.029831e+05 2.185207e+03
-1.536235e+09 -1.336302e+09 -1.495785e+09 -3.050382e+04 1.420180e+05 -2.093440e+04
-1.470246e+09 -1.270286e+09 -1.429769e+09 -2.693939e+04 1.782585e+05 1.797559e+04
-1.470390e+09 -1.270446e+09 -1.430087e+09 -6.474939e+04 6.720881e+04 -9.410274e+04
-1.587199e+09 -1.387214e+09 -1.546709e+09 -3.959318e+04 1.696788e+05 -3.643054e+04
-1.419342e+09 -1.219414e+09 -1.379023e+09 -3.490226e+04 2.685289e+05 -6.450624e+03
-1.419332e+09 -1.219432e+09 -1.378962e+09 -3.759369e+04 1.023958e+05 -2.860111e+04
-1.587298e+09 -1.387275e+09 -1.546788e+09 -6.997938e+04 2.208039e+05 7.563844e+04
-1.536218e+09 -1.336297e+09 -1.495717e+09 -4.848983e+04 2.421322e+05 -2.629442e+04
-1.453397e+09 -1.253387e+09 -1.413010e+09 7.837762e+03 7.139409e+04 1.121186e+05
-1.448754e+09 -1.248727e+09 -1.408435e+09 -2.370601e+04 1.755066e+04 2.963231e+04
-1.453466e+09 -1.253406e+09 -1.413175e+09 4.443022e+03 1.990780e+03 4.028775e+04
-1.513896e+09 -1.313819e+09 -1.473530e+09 1.497772e+04 9.563065e+03 5.964400e+04
-1.636242e+09 -1.436174e+09 -1.595798e+09 4.792316e+04 3.899144e+04 9.970613e+04
-1.575740e+09 -1.375720e+09 -1.535334e+09 1.777606e+04 5.980185e+04 7.482908e+04
-1.453448e+09 -1.253417e+09 -1.413136e+09 -1.792147e+03 1.795311e+04 2.294048e+04
-1.441004e+09 -1.240997e+09 -1.400753e+09 -1.020885e+04 3.986818e+04 -8.017863e+03
-1.427747e+09 -1.227744e+09 -1.387570e+09 -1.325979e+04 1.422308e+04 -3.725612e+04
-1.480304e+09 -1.280331e+09 -1.440069e+09 3.047663e+04 6.656285e+04 9.682992e+03
-1.427711e+09 -1.227696e+09 -1.387437e+09 -1.448819e+04 1.051869e+05 2.135081e+04
-1.427717e+09 -1.227663e+09 -1.387401e+09 2.044142e+02 7.088787e+04 2.672301e+04
-1.515105e+09 -1.315059e+09 -1.474859e+09 3.552198e+04 6.389161e+04 -1.673398e+03
-1.567812e+09 -1.367766e+09 -1.527512e+09 8.478757e+04 5.440434e+04 -6.881249e+03
-1.506114e+09 -1.305981e+09 -1.465710e+09 6.349159e+04 1.042223e+05 5.821101e+04
-1.488174e+09 -1.288124e+09 -1.447809e+09 3.525779e+04 6.991871e+04 5.585495e+03
-1.566535e+09 -1.366402e+09 -1.526180e+09 9.778663e+04 1.340996e+05 4.588015e+04
-1.540741e+09 -1.340692e+09 -1.500459e+09 9.177740e+04 1.037098e+05 8.574354e+04
-1.628223e+09 -1.428128e+09 -1.587877e+09 1.098084e+05 9.267795e+04 2.654147e+04
-1.711334e+09 -1.511160e+09 -1.670833e+09 1.238343e+05 1.083518e+05 8.650522e+04
-1.688883e+09 -1.488753e+09 -1.648479e+09 9.199447e+04 1.205738e+05 8.208771e+04
-1.507530e+09 -1.307411e+09 -1.467458e+09 2.719728e+04 -2.338385e+04 -3.730765e+04
-1.629987e+09 -1.429863e+09 -1.589709e+09 1.028867e+05 -1.684340e+04 -8.171608e+04
-1.569500e+09 -1.369356e+09 -1.529307e+09 4.985923e+04 -7.352906e+04 -6.202198e+04
-1.703139e+09 -1.502872e+09 -1.663017e+09 7.762166e+04 -6.569062e+04 -2.771242e+04
-1.443229e+09 -1.243234e+09 -1.403063e+09 -1.315112e+04 -7.192014e+04 -8.565436e+04
-1.452234e+09 -1.252227e+09 -1.412001e+09 -3.669438e+04 -5.327688e+04 -6.488227e+04
-1.443249e+09 -1.243235e+09 -1.403086e+09 -1.909627e+04 -5.585892e+03 -3.773317e+04
-1.507068e+09 -1.307078e+09 -1.466880e+09 5.452143e+03 -1.954602e+04 -8.069192e+04
-1.630602e+09 -1.430585e+09 -1.590319e+09 4.203793e+04 -6.072016e+04 -8.252027e+04
-1.566673e+09 -1.366646e+09 -1.526422e+09 -6.282985e+02 -6.659184e+04 -7.142798e+04
-1.443228e+09 -1.243179e+09 -1.403017e+09 -1.819734e+04 -4.436520e+04 -3.059355e+04
-1.491525e+09 -1.291565e+09 -1.451272e+09 4.041986e+04 5.430050e+04 4.262966e+04
-1.491570e+09 -1.291561e+09 -1.451372e+09 4.710518e+04 1.152272e+05 -6.860278e+03
-1.578986e+09 -1.378931e+09 -1.538791e+09 7.490107e+04 7.290199e+04 -5.860149e+04
-1.663092e+09 -1.463154e+09 -1.622889e+09 1.322095e+05 8.028016e+04 7.365456e+03
-1.552080e+09 -1.351993e+09 -1.511632e+09 8.562456e+04 1.163684e+05 1.006945e+04
-1.639534e+09 -1.439396e+09 -1.599211e+09 1.167645e+05 8.624299e+04 -4.592155e+04
-1.722544e+09 -1.522393e+09 -1.682119e+09 1.399785e+05 1.065534e+05 4.798416e+04
-1.785625e+09 -1.585469e+09 -1.745109e+09 1.764152e+05 1.685944e+05 4.905212e+04
-1.461881e+09 -1.261857e+09 -1.421744e+09 -9.703595e+03 -4.140202e+04 -1.399061e+04
-1.447136e+09 -1.247110e+09 -1.406919e+09 -2.571730e+04 -3.443781e+04 6.021123e+03
-1.520595e+09 -1.320597e+09 -1.480479e+09 1.171865e+04 -4.373794e+04 -2.166712e+04
-1.447148e+09 -1.247121e+09 -1.406995e+09 -1.865328e+04 -8.432584e+04 -3.134717e+04
-1.447160e+09 -1.247163e+09 -1.407013e+09 -1.367411e+04 -9.708496e+04 -2.794347e+04
-1.580724e+09 -1.380702e+09 -1.540582e+09 2.917844e+04 -3.416653e+04 1.826880e+04
-1.654262e+09 -1.454188e+09 -1.614103e+09 4.040558e+04 -2.020293e+04 -1.485920e+04
-1.452205e+09 -1.252210e+09 -1.411921e+09 -3.485799e+04 7.709176e+04 2.849251e+04
-1.546251e+09 -1.346234e+09 -1.505989e+09 6.200069e+01 1.532619e+05 4.140094e+04
-1.486610e+09 -1.286643e+09 -1.446329e+09 -1.263076e+04 1.002500e+05 1.515648e+04
-1.486626e+09 -1.286598e+09 -1.446448e+09 1.143336e+04 1.204221e+05 5.336926e+04
-1.610130e+09 -1.410164e+09 -1.569874e+09 2.446930e+04 1.577262e+05 3.634011e+04
-1.422756e+09 -1.222756e+09 -1.382556e+09 -2.288474e+04 5.728327e+04 3.452250e+04
-1.422749e+09 -1.222718e+09 -1.382564e+09 -1.716543e+04 1.631116e+05 4.847353e+04
-1.610158e+09 -1.410146e+09 -1.569837e+09 1.848522e+04 1.246570e+05 7.553051e+03
-1.546237e+09 -1.346206e+09 -1.505944e+09 -2.395921e+04 1.007096e+05 4.596844e+04
-1.571503e+09 -1.371299e+09 -1.531217e+09 7.321288e+04 -6.583325e+04 8.656418e+03
-1.693793e+09 -1.493592e+09 -1.653264e+09 7.970709e+04 -1.378707e+05 5.771098e+04
-1.767098e+09 -1.566864e+09 -1.726899e+09 1.480787e+05 -5.723655e+04 -1.552367e+04
-1.831866e+09 -1.631555e+09 -1.791477e+09 1.591984e+05 -1.150738e+05 -3.708802e+04
-1.516753e+09 -1.316632e+09 -1.476559e+09 2.809786e+04 -6.860904e+04 -4.241417e+04
-1.511025e+09 -1.310909e+09 -1.470774e+09 -2.014745e+03 -6.309986e+04 -2.884365e+04
-1.580611e+09 -1.380478e+09 -1.540456e+09 5.693298e+04 -6.940278e+04 -1.414545e+04
-1.584475e+09 -1.384377e+09 -1.544385e+09 4.284647e+04 -3.977982e+04 -5.748535e+04
-1.718127e+09 -1.518015e+09 -1.677995e+09 3.988590e+04 -1.882938e+04 -2.119586e+04
-1.782933e+09 -1.582752e+09 -1.742602e+09 6.601859e+04 -4.629981e+04 -4.305047e+04
-1.704102e+09 -1.503961e+09 -1.663849e+09 6.582695e+04 -6.570043e+04 -3.798855e+04
-1.447113e+09 -1.247114e+09 -1.406952e+09 -1.724302e+04 -2.594960e+04 -7.881697e+04
-1.447143e+09 -1.247161e+09 -1.407018e+09 -9.201185e+03 -9.448882e+04 -4.860597e+04
-1.580783e+09 -1.380713e+09 -1.540604e+09 1.420385e+04 -2.066432e+04 -6.854922e+04
-1.447105e+09 -1.247145e+09 -1.406852e+09 1.029060e+04 -6.097254e+04 -1.193650e+05
-1.446359e+09 -1.246352e+09 -1.406268e+09 -1.057216e+04 -8.004576e+04 -9.797676e+04
-1.433396e+09 -1.233382e+09 -1.393342e+09 -9.042846e+03 -7.981264e+04 -1.049636e+05
-1.491258e+09 -1.291293e+09 -1.451217e+09 1.718180e+04 -6.293605e+04 -9.678511e+04
-1.433387e+09 -1.233372e+09 -1.393301e+09 -1.119998e+04 -3.873710e+04 -7.647182e+04
-1.433382e+09 -1.233343e+09 -1.393267e+09 -6.490805e+03 -6.973338e+04 -6.723836e+04
-1.533371e+09 -1.333339e+09 -1.493306e+09 2.556374e+04 -8.117210e+04 -9.428936e+04
-1.591326e+09 -1.391312e+09 -1.551244e+09 4.790880e+04 -8.097836e+04 -1.051451e+05
-1.444414e+09 -1.244386e+09 -1.404304e+09 -4.693932e+03 -5.109614e+04 -4.049548e+04
-1.451872e+09 -1.251832e+09 -1.411784e+09 -6.900112e+03 -6.731843e+04 -7.855303e+04
-1.444426e+09 -1.244390e+09 -1.404351e+09 -1.942414e+03 -8.844697e+04 -7.068314e+04
-1.507861e+09 -1.307829e+09 -1.467783e+09 1.681352e+04 -7.407698e+04 -6.764895e+04
-1.639398e+09 -1.439373e+09 -1.599281e+09 3.420579e+04 -6.528369e+04 -4.925821e+04
-1.575930e+09 -1.375904e+09 -1.535831e+09 1.484009e+04 -6.125476e+04 -5.578390e+04
-1.444418e+09 -1.244387e+09 -1.404313e+09 4.697860e+02 -7.426578e+04 -7.728283e+04
-1.502388e+09 -1.302293e+09 -1.462246e+09 2.697748e+04 -5.585457e+04 -6.013045e+04
-1.496844e+09 -1.296797e+09 -1.456741e+09 1.154292e+04 -6.027837e+04 -8.099419e+04
-1.565779e+09 -1.365719e+09 -1.525713e+09 5.921210e+04 -3.559381e+04 -6.838124e+04
-1.554702e+09 -1.354677e+09 -1.514671e+09 5.394041e+04 -4.972415e+04 -5.365377e+04
-1.654757e+09 -1.454704e+09 -1.614673e+09 6.213588e+04 -6.548704e+04 -8.792325e+04
-1.741401e+09 -1.541301e+09 -1.701237e+09 7.519278e+04 -5.768787e+04 -5.604888e+04
-1.697315e+09 -1.497251e+09 -1.657215e+09 6.075279e+04 -4.533041e+04 -5.292649e+04
-1.586603e+09 -1.386551e+09 -1.546537e+09 6.297043e+04 -6.109888e+04 -6.113594e+04
-1.718123e+09 -1.518075e+09 -1.677990e+09 6.818863e+04 -9.585339e+04 -5.841123e+04
-1.805974e+09 -1.605898e+09 -1.765955e+09 1.038141e+05 -8.855726e+04 -4.649517e+04
-1.887482e+09 -1.687383e+09 -1.847385e+09 1.172278e+05 -9.307584e+04 -6.799832e+04
-1.513011e+09 -1.312963e+09 -1.473007e+09 2.567777e+04 -7.539986e+04 -8.007262e+04
-1.644572e+09 -1.444533e+09 -1.604529e+09 6.094129e+04 -8.578821e+04 -9.924736e+04
-1.581106e+09 -1.381025e+09 -1.541077e+09 4.040844e+04 -9.369600e+04 -9.343325e+04
-1.732412e+09 -1.532288e+09 -1.692410e+09 7.088769e+04 -9.793778e+04 -6.813231e+04
-1.462008e+09 -1.262000e+09 -1.421981e+09 -2.874960e+04 8.949387e+02 -3.521660e+04
-1.461998e+09 -1.261989e+09 -1.421914e+09 -1.873861e+04 -3.073257e+04 -3.063374e+04
-1.462034e+09 -1.262005e+09 -1.422052e+09 -1.946243e+04 6.949796e+03 -1.930195e+04
-1.604698e+09 -1.404709e+09 -1.564695e+09 -1.655299e+04 3.334330e+04 -1.083029e+04
-1.524440e+09 -1.324373e+09 -1.484336e+09 2.688355e+03 -1.145475e+05 -7.576716e+04
-1.503838e+09 -1.303785e+09 -1.463728e+09 -1.264479e+04 -1.075197e+05 -7.698106e+04
-1.597964e+09 -1.397918e+09 -1.557919e+09 2.272967e+04 -1.233406e+05 -8.097161e+04
-1.571703e+09 -1.371695e+09 -1.531687e+09 2.055593e+04 -1.000314e+05 -1.120850e+05
-1.671270e+09 -1.471234e+09 -1.631249e+09 2.548054e+04 -9.778480e+04 -8.919716e+04
-1.772124e+09 -1.572062e+09 -1.731974e+09 3.102609e+04 -1.144558e+05 -9.361558e+04
-1.740595e+09 -1.540548e+09 -1.700471e+09 2.263178e+04 -1.174471e+05 -9.464351e+04
-1.456400e+09 -1.256371e+09 -1.416349e+09 -2.038791e+04 -8.781762e+04 -6.812634e+04
-1.430279e+09 -1.230248e+09 -1.390246e+09 -2.969467e+04 -7.586017e+04 -7.009303e+04
-1.498135e+09 -1.298149e+09 -1.458114e+09 -3.580222e+03 -9.800026e+04 -8.931935e+04
-1.430269e+09 -1.230235e+09 -1.390200e+09 -3.161412e+04 -1.158213e+05 -9.975472e+04
-1.430269e+09 -1.230246e+09 -1.390194e+09 -3.044933e+04 -1.146615e+05 -1.027269e+05
-1.529758e+09 -1.329732e+09 -1.489732e+09 -7.267326e+02 -9.810603e+04 -8.021274e+04
-1.597704e+09 -1.397674e+09 -1.557661e+09 1.244759e+04 -9.964829e+04 -7.279334e+04
-1.506871e+09 -1.306925e+09 -1.466868e+09 4.947959e+04 -4.097726e+04 -7.691615e+04
-1.506885e+09 -1.306915e+09 -1.466891e+09 5.078728e+04 -2.886035e+04 -9.189783e+04
-1.606919e+09 -1.406898e+09 -1.566912e+09 7.271573e+04 -6.774343e+04 -1.394387e+05
-1.704531e+09 -1.504657e+09 -1.664589e+09 9.890106e+04 -5.074147e+04 -9.889504e+04
-1.456476e+09 -1.256464e+09 -1.416392e+09 -2.593169e+04 -1.060941e+05 -9.559298e+04
-1.462003e+09 -1.262000e+09 -1.421907e+09 -4.079022e+04 -8.571547e+04 -9.807870e+04
-1.530008e+09 -1.329992e+09 -1.489968e+09 -1.546158e+03 -1.029322e+05 -9.772269e+04
-1.462017e+09 -1.262001e+09 -1.421900e+09 -3.221526e+04 -8.221906e+04 -8.923387e+04
-1.672668e+09 -1.472648e+09 -1.632562e+09 1.430054e+04 -1.339254e+05 -9.365969e+04
-1.604661e+09 -1.404644e+09 -1.564550e+09 -1.697639e+04 -8.871026e+04 -8.653939e+04
-1.462002e+09 -1.261974e+09 -1.421849e+09 -3.131027e+04 -1.072768e+05 -8.224540e+04
-1.491398e+09 -1.291388e+09 -1.451306e+09 8.967633e+03 -1.113841e+05 -1.164596e+05
-1.491414e+09 -1.291414e+09 -1.451350e+09 6.203775e+03 -1.507834e+05 -1.150328e+05
-1.590919e+09 -1.390888e+09 -1.550896e+09 3.290607e+04 -1.157145e+05 -8.179567e+04
-1.700429e+09 -1.500418e+09 -1.660346e+09 5.470049e+04 -9.881634e+04 -1.185948e+05
-1.449609e+09 -1.249590e+09 -1.409511e+09 -1.397278e+04 -1.223829e+05 -1.182060e+05
-1.449615e+09 -1.249609e+09 -1.409534e+09 -1.487994e+04 -1.619020e+05 -1.013256e+05
-1.600933e+09 -1.400866e+09 -1.560804e+09 3.690443e+03 -1.172909e+05 -1.020128e+05
-1.449605e+09 -1.249597e+09 -1.409479e+09 -1.146681e+04 -1.371674e+05 -1.385797e+05
-1.570376e+09 -1.370344e+09 -1.530296e+09 6.009529e+04 -1.991134e+04 -7.318263e+04
-1.670408e+09 -1.470338e+09 -1.630357e+09 8.455079e+04 -6.196840e+04 -1.302296e+05
-1.757016e+09 -1.556922e+09 -1.716915e+09 1.008793e+05 -5.110295e+04 -8.365804e+04
-1.836221e+09 -1.636147e+09 -1.796114e+09 1.198302e+05 -2.800677e+03 -6.657877e+04
-1.564976e+09 -1.364971e+09 -1.524835e+09 2.928066e+04 -1.179120e+05 -1.256867e+05
-1.664517e+09 -1.464489e+09 -1.624492e+09 5.245279e+04 -1.000024e+05 -1.017686e+05
-1.855502e+09 -1.655428e+09 -1.815274e+09 7.066398e+04 -1.414148e+05 -1.295015e+05
-1.773980e+09 -1.573938e+09 -1.733827e+09 6.050632e+04 -1.386215e+05 -1.103072e+05
-1.484010e+09 -1.283992e+09 -1.443964e+09 8.010211e+03 -1.172116e+05 -8.707378e+04
-1.491733e+09 -1.291709e+09 -1.451660e+09 9.338170e+03 -1.010179e+05 -9.772895e+04
-1.540029e+09 -1.340026e+09 -1.500017e+09 2.659699e+04 -1.190371e+05 -9.060679e+04
-1.542105e+09 -1.342059e+09 -1.502064e+09 2.507728e+04 -1.159867e+05 -1.006785e+05
-1.653363e+09 -1.453320e+09 -1.613295e+09 2.690606e+04 -1.268391e+05 -9.825829e+04
-1.726492e+09 -1.526462e+09 -1.686437e+09 3.747511e+04 -1.067783e+05 -9.744936e+04
-1.660349e+09 -1.460344e+09 -1.620340e+09 2.774136e+04 -1.130209e+05 -9.732909e+04
-1.438844e+09 -1.238831e+09 -1.398811e+09 -3.628178e+03 -1.151760e+05 -8.303716e+04
-1.435639e+09 -1.235628e+09 -1.395567e+09 -1.142349e+04 -1.138552e+05 -7.852649e+04
-1.486023e+09 -1.286016e+09 -1.445996e+09 -8.504458e+02 -1.157014e+05 -8.323450e+04
-1.435648e+09 -1.235633e+09 -1.395612e+09 -7.793523e+03 -1.264849e+05 -8.887752e+04
-1.435644e+09 -1.235650e+09 -1.395603e+09 -9.556952e+03 -1.285532e+05 -9.619591e+04
-1.546888e+09 -1.346899e+09 -1.506847e+09 -5.572485e+02 -1.187699e+05 -7.588010e+04
-1.597293e+09 -1.397298e+09 -1.557244e+09 7.112741e+03 -1.143528e+05 -8.208907e+04
-1.433616e+09 -1.233590e+09 -1.393584e+09 -1.561581e+02 -1.207269e+05 -8.691371e+04
-1.444533e+09 -1.244498e+09 -1.404479e+09 -3.101186e+03 -1.238812e+05 -8.862274e+04
-1.433610e+09 -1.233591e+09 -1.393593e+09 4.592646e+03 -1.071397e+05 -7.940838e+04
-1.489639e+09 -1.289639e+09 -1.449628e+09 1.647882e+04 -1.170647e+05 -9.447809e+04
-1.609964e+09 -1.409971e+09 -1.569956e+09 2.176807e+04 -1.094182e+05 -9.899614e+04
-1.553926e+09 -1.353900e+09 -1.513901e+09 1.452082e+04 -1.195310e+05 -7.851723e+04
-1.433605e+09 -1.233581e+09 -1.393550e+09 1.122480e+04 -1.223358e+05 -7.935513e+04
-1.476439e+09 -1.276372e+09 -1.436365e+09 3.673726e+03 -1.193135e+05 -8.624552e+04
-1.475949e+09 -1.275869e+09 -1.435875e+09 1.693814e+04 -1.105785e+05 -7.571399e+04
-1.523565e+09 -1.323526e+09 -1.483549e+09 3.145906e+04 -1.230012e+05 -1.059446e+05
-1.519899e+09 -1.319870e+09 -1.479891e+09 3.570696e+04 -1.375935e+05 -9.061032e+04
-1.620995e+09 -1.420965e+09 -1.580969e+09 3.638199e+04 -1.407656e+05 -9.906717e+04
-1.692044e+09 -1.491919e+09 -1.651950e+09 4.231739e+04 -1.170179e+05 -6.875912e+04
-1.634837e+09 -1.434796e+09 -1.594822e+09 2.996294e+04 -9.345377e+04 -5.850258e+04
-1.432432e+09 -1.232412e+09 -1.392404e+09 -1.307370e+04 -9.305084e+04 -6.405649e+04
-1.435642e+09 -1.235631e+09 -1.395613e+09 -7.930505e+03 -8.612305e+04 -5.660492e+04
-1.432423e+09 -1.232402e+09 -1.392376e+09 -1.249427e+04 -1.151806e+05 -8.077823e+04
-1.479564e+09 -1.279580e+09 -1.439558e+09 4.185329e+03 -1.024385e+05 -7.294245e+04
-1.590837e+09 -1.390807e+09 -1.550819e+09 2.653835e+04 -9.384580e+04 -5.489765e+04
-1.543626e+09 -1.343623e+09 -1.503624e+09 2.067272e+04 -8.443363e+04 -6.572186e+04
-1.432415e+09 -1.232414e+09 -1.392357e+09 -1.538056e+04 -1.030253e+05 -9.122968e+04
-1.432460e+09 -1.232430e+09 -1.392406e+09 -1.490754e+04 -1.223028e+05 -9.357680e+04
-1.428740e+09 -1.228718e+09 -1.388687e+09 -3.183967e+03 -1.283859e+05 -1.084320e+05
-1.472736e+09 -1.272714e+09 -1.432692e+09 3.269121e+03 -1.195794e+05 -9.731892e+04
-1.428750e+09 -1.228717e+09 -1.388691e+09 -7.701481e+03 -1.086278e+05 -9.380912e+04
-1.428742e+09 -1.228711e+09 -1.388665e+09 -8.353225e+03 -1.187661e+05 -8.825210e+04
-1.529833e+09 -1.329798e+09 -1.489776e+09 1.824543e+03 -1.280819e+05 -9.749571e+04
-1.573832e+09 -1.373809e+09 -1.533778e+09 6.947381e+03 -1.244965e+05 -1.028466e+05
-1.562696e+09 -1.362678e+09 -1.522639e+09 3.672932e+04 -1.137585e+05 -1.156297e+05
-1.673970e+09 -1.473951e+09 -1.633929e+09 4.073158e+04 -1.140914e+05 -9.889831e+04
-1.747095e+09 -1.547078e+09 -1.707066e+09 5.493080e+04 -9.751759e+04 -9.961988e+04
-1.864468e+09 -1.664457e+09 -1.824435e+09 7.176923e+04 -1.140021e+05 -1.319055e+05
-1.435636e+09 -1.235627e+09 -1.395566e+09 -1.363988e+04 -1.141274e+05 -7.748327e+04
-1.531076e+09 -1.331073e+09 -1.491014e+09 -1.325981e+04 -1.209578e+05 -7.783688e+04
-1.466991e+09 -1.266985e+09 -1.426922e+09 -1.084601e+04 -1.173218e+05 -7.524049e+04
-1.467021e+09 -1.267007e+09 -1.426960e+09 -1.947846e+04 -1.298599e+05 -9.212344e+04
-1.578272e+09 -1.378259e+09 -1.538204e+09 -1.237099e+04 -1.217144e+05 -7.458499e+04
-1.419812e+09 -1.219811e+09 -1.379770e+09 -1.397851e+04 -1.019237e+05 -7.846021e+04
-1.419812e+09 -1.219814e+09 -1.379764e+09 -1.656015e+04 -1.257186e+05 -8.163643e+04
-1.578289e+09 -1.378266e+09 -1.538212e+09 -1.617577e+04 -1.128430e+05 -5.942415e+04
-1.531074e+09 -1.331070e+09 -1.491006e+09 -1.718328e+04 -1.069026e+05 -7.820360e+04
-1.459484e+09 -1.259447e+09 -1.419418e+09 -5.854797e+03 -9.316729e+04 -9.760926e+04
-1.459487e+09 -1.259465e+09 -1.419420e+09 -3.005741e+03 -1.031763e+05 -9.185492e+04
-1.459489e+09 -1.259451e+09 -1.419436e+09 -8.278274e+03 -8.645578e+04 -8.800750e+04
-1.632968e+09 -1.432933e+09 -1.592897e+09 3.921243e+02 -8.487697e+04 -9.312919e+04
-1.515495e+09 -1.315490e+09 -1.475490e+09 2.576009e+04 -1.168423e+05 -1.016311e+05
-1.635775e+09 -1.435805e+09 -1.595812e+09 4.769667e+04 -1.046905e+05 -1.074404e+05
-1.579724e+09 -1.379713e+09 -1.539736e+09 4.917427e+04 -1.260461e+05 -9.591423e+04
-1.753202e+09 -1.553184e+09 -1.713210e+09 5.934728e+04 -1.263122e+05 -1.052802e+05
-1.546963e+09 -1.346904e+09 -1.506892e+09 4.891419e+04 -1.020720e+05 -7.516827e+04
-1.648021e+09 -1.447999e+09 -1.607990e+09 6.429069e+04 -1.360910e+05 -1.077293e+05
-1.718943e+09 -1.518917e+09 -1.678937e+09 9.556591e+04 -9.565463e+04 -5.905632e+04
-1.845260e+09 -1.645211e+09 -1.805227e+09 9.937092e+04 -9.429115e+04 -8.480028e+04
-1.499735e+09 -1.299722e+09 -1.459692e+09 2.623539e+04 -1.083188e+05 -1.048712e+05
-1.499740e+09 -1.299724e+09 -1.459703e+09 1.983318e+04 -9.980472e+04 -1.007567e+05
-1.600811e+09 -1.400784e+09 -1.560785e+09 3.849352e+04 -1.243489e+05 -1.159869e+05
-1.734002e+09 -1.534024e+09 -1.693975e+09 5.222185e+04 -1.026434e+05 -1.093947e+05
-1.545493e+09 -1.345479e+09 -1.505487e+09 2.810788e+04 -1.046614e+05 -8.485154e+04
-1.665798e+09 -1.465783e+09 -1.625790e+09 3.381374e+04 -1.212404e+05 -1.112889e+05
-1.731937e+09 -1.531896e+09 -1.691900e+09 4.448761e+04 -1.152472e+05 -1.008234e+05
-1.806535e+09 -1.606482e+09 -1.766530e+09 5.649702e+04 -1.063643e+05 -8.803707e+04
-1.563829e+09 -1.363820e+09 -1.523824e+09 3.058062e+04 -1.046333e+05 -8.307563e+04
-1.684117e+09 -1.484122e+09 -1.644124e+09 3.806414e+04 -1.218928e+05 -1.106086e+05
-1.763917e+09 -1.563934e+09 -1.723970e+09 5.881056e+04 -1.087594e+05 -8.906578e+04
-1.857889e+09 -1.657903e+09 -1.817941e+09 6.274933e+04 -1.048113e+05 -9.451844e+04
-1.438844e+09 -1.238826e+09 -1.398822e+09 -7.924929e+02 -1.187349e+05 -8.695565e+04
-1.550114e+09 -1.350114e+09 -1.510076e+09 5.620600e+03 -1.209519e+05 -8.837679e+04
-1.499716e+09 -1.299711e+09 -1.459683e+09 -3.211166e+03 -1.236889e+05 -8.703233e+04
-1.499714e+09 -1.299703e+09 -1.459687e+09 6.863871e+02 -1.243083e+05 -8.475417e+04
-1.500321e+09 -1.300330e+09 -1.460334e+09 1.407336e+04 -1.010188e+05 -7.617913e+04
-1.611599e+09 -1.411611e+09 -1.571597e+09 2.331944e+04 -9.827188e+04 -7.770203e+04
-1.561212e+09 -1.361215e+09 -1.521216e+09 1.736538e+04 -1.001119e+05 -8.127060e+04
-1.686198e+09 -1.486197e+09 -1.646221e+09 2.421871e+04 -9.649162e+04 -7.293126e+04
-1.502305e+09 -1.302307e+09 -1.462314e+09 2.061169e+04 -1.069090e+05 -8.696408e+04
-1.502307e+09 -1.302308e+09 -1.462311e+09 3.215827e+04 -1.084077e+05 -9.618292e+04
-1.622609e+09 -1.422598e+09 -1.582613e+09 4.028162e+04 -1.259262e+05 -1.078179e+05
-1.732882e+09 -1.532945e+09 -1.692953e+09 4.464117e+04 -1.004797e+05 -1.010368e+05
-1.457170e+09 -1.257159e+09 -1.417162e+09 1.117975e+04 -1.018366e+05 -8.720369e+04
-1.583095e+09 -1.383115e+09 -1.543129e+09 1.847184e+04 -8.484952e+04 -7.538198e+04
-1.496371e+09 -1.296399e+09 -1.456377e+09 9.900748e+03 -8.645018e+04 -8.433504e+04
-1.427646e+09 -1.227659e+09 -1.387658e+09 7.783411e+03 -8.945020e+04 -8.101101e+04
-1.427632e+09 -1.227633e+09 -1.387648e+09 2.769845e+04 -9.416905e+04 -8.964401e+04
-1.651794e+09 -1.451840e+09 -1.611834e+09 2.904319e+04 -8.805278e+04 -8.921917e+04
-1.583092e+09 -1.383111e+09 -1.543121e+09 2.129497e+04 -8.936573e+04 -7.720030e+04
-1.496323e+09 -1.296340e+09 -1.456332e+09 3.735258e+04 -1.112011e+05 -1.107832e+05
-1.651808e+09 -1.451855e+09 -1.611854e+09 2.344023e+04 -7.994023e+04 -8.211364e+04
-1.442395e+09 -1.242468e+09 -1.402474e+09 7.195433e+03 2.743127e+03 1.536534e+04
-1.587309e+09 -1.387382e+09 -1.547389e+09 6.649010e+03 2.679945e+03 1.500540e+04
-1.533257e+09 -1.333330e+09 -1.493337e+09 6.329669e+03 3.343699e+03 1.471769e+04
-1.533257e+09 -1.333331e+09 -1.493338e+09 6.085412e+03 2.599300e+03 1.456945e+04
-1.505866e+09 -1.305941e+09 -1.465948e+09 7.804314e+03 3.378944e+03 1.604046e+04
-1.650779e+09 -1.450855e+09 -1.610862e+09 7.150648e+03 3.270236e+03 1.574293e+04
-1.596728e+09 -1.396804e+09 -1.556810e+09 6.742390e+03 3.213538e+03 1.555208e+04
-1.731701e+09 -1.531778e+09 -1.691787e+09 7.898122e+03 3.086285e+03 1.681363e+04
-1.489329e+09 -1.289402e+09 -1.449409e+09 8.452744e+03 3.721271e+03 1.695068e+04
-1.489330e+09 -1.289401e+09 -1.449409e+09 9.963967e+03 3.261229e+03 1.599515e+04
-1.606700e+09 -1.406771e+09 -1.566781e+09 9.563671e+03 3.309127e+03 1.693334e+04
-1.665515e+09 -1.465592e+09 -1.625600e+09 9.329353e+03 4.397501e+03 1.774001e+04
-1.445542e+09 -1.245612e+09 -1.405621e+09 8.750955e+03 3.576646e+03 1.794454e+04
-1.522304e+09 -1.322375e+09 -1.482385e+09 9.221894e+03 4.382549e+03 1.957249e+04
-1.476892e+09 -1.276964e+09 -1.436971e+09 8.631036e+03 4.125187e+03 1.800879e+04
-1.419695e+09 -1.219766e+09 -1.379775e+09 8.996133e+03 4.220484e+03 1.849003e+04
-1.419695e+09 -1.219765e+09 -1.379774e+09 1.038109e+04 3.737114e+03 1.808730e+04
-1.579496e+09 -1.379572e+09 -1.539580e+09 9.739696e+03 4.139497e+03 1.822217e+04
-1.522304e+09 -1.322375e+09 -1.482385e+09 1.003825e+04 3.931382e+03 1.920595e+04
-1.476888e+09 -1.276960e+09 -1.436968e+09 1.079083e+04 2.805739e+03 1.581586e+04
-1.579498e+09 -1.379572e+09 -1.539581e+09 8.977854e+03 4.561593e+03 1.917613e+04
-1.549656e+09 -1.349731e+09 -1.509738e+09 7.760712e+03 3.494824e+03 1.586084e+04
-1.667027e+09 -1.467101e+09 -1.627109e+09 7.727421e+03 3.323658e+03 1.603230e+04
-1.768149e+09 -1.568224e+09 -1.728232e+09 7.106349e+03 3.479882e+03 1.542381e+04
-1.849071e+09 -1.649147e+09 -1.809157e+09 7.814317e+03 3.533943e+03 1.660760e+04
-1.552802e+09 -1.352876e+09 -1.512883e+09 7.904501e+03 3.208733e+03 1.653750e+04
-1.670172e+09 -1.470246e+09 -1.630254e+09 7.918018e+03 3.020726e+03 1.677255e+04
-1.761355e+09 -1.561430e+09 -1.721440e+09 8.497051e+03 3.282459e+03 1.716837e+04
-1.800490e+09 -1.600567e+09 -1.760576e+09 8.730693e+03 3.593709e+03 1.762144e+04
-1.570717e+09 -1.370303e+09 -1.529853e+09 -5.559824e+04 9.939323e+05 -1.258553e+05
-1.678500e+09 -1.477984e+09 -1.637404e+09 -4.166873e+04 1.095936e+06 -3.092592e+04
-1.766867e+09 -1.566310e+09 -1.725749e+09 -3.153940e+04 1.094508e+06 -1.122683e+05
-1.808281e+09 -1.607666e+09 -1.767147e+09 -2.575427e+04 1.057516e+06 -1.093468e+05
-1.548356e+09 -1.348067e+09 -1.507459e+09 -4.404396e+04 7.854996e+05 -1.395297e+05
-1.656117e+09 -1.455726e+09 -1.614938e+09 -3.515640e+04 8.993869e+05 -5.212306e+04
-1.715774e+09 -1.515250e+09 -1.674916e+09 -5.524114e+04 8.960286e+05 -2.365629e+05
-1.803371e+09 -1.602788e+09 -1.762318e+09 -8.843380e+04 7.645786e+05 -1.801696e+05
-1.435175e+09 -1.235257e+09 -1.394433e+09 -7.114096e+04 7.980546e+05 -4.242543e+04
-1.542964e+09 -1.342798e+09 -1.501948e+09 1.815792e+03 9.626289e+05 3.132853e+04
-1.495849e+09 -1.296051e+09 -1.454914e+09 -5.709119e+04 7.585466e+05 1.321481e+05
-1.495890e+09 -1.296016e+09 -1.455124e+09 -5.401240e+04 6.495967e+05 1.133023e+05
-1.482920e+09 -1.282926e+09 -1.442065e+09 -1.234395e+03 8.585129e+05 -6.739823e+04
-1.590844e+09 -1.390511e+09 -1.549729e+09 1.184278e+04 9.872061e+05 -9.418763e+04
-1.543934e+09 -1.343810e+09 -1.503083e+09 -7.692673e+04 6.170908e+05 -9.810063e+04
-1.650317e+09 -1.450064e+09 -1.609299e+09 -6.176749e+04 7.614385e+05 -1.076473e+05
-1.458103e+09 -1.258063e+09 -1.417055e+09 -5.167580e+04 1.024063e+06 3.305526e+04
-1.458123e+09 -1.258045e+09 -1.417117e+09 -4.968688e+04 1.100759e+06 -5.792583e+03
-1.494639e+09 -1.294710e+09 -1.452851e+09 -5.983256e+04 1.179198e+06 1.087027e+04
-1.564832e+09 -1.364604e+09 -1.523738e+09 -4.788023e+04 8.583328e+05 -2.258881e+04
-1.523577e+09 -1.323421e+09 -1.482872e+09 -1.680913e+04 9.057621e+05 -8.184491e+04
-1.658963e+09 -1.458817e+09 -1.618194e+09 8.323012e+03 9.076641e+05 -6.887964e+04
-1.593572e+09 -1.393342e+09 -1.552855e+09 -1.129456e+04 1.020471e+06 -1.113438e+05
-1.700327e+09 -1.500071e+09 -1.659507e+09 -9.884451e+03 9.191505e+05 -1.039987e+05
-1.539105e+09 -1.339017e+09 -1.498116e+09 -1.480661e+05 1.175716e+06 -9.617777e+05
-1.647680e+09 -1.447608e+09 -1.606567e+09 -1.736601e+05 1.217631e+06 -8.711823e+05
-1.703841e+09 -1.503768e+09 -1.662800e+09 -2.770846e+05 1.340906e+06 -9.645849e+05
-1.796687e+09 -1.596638e+09 -1.755295e+09 -3.318769e+05 1.321806e+06 -1.065042e+06
-1.545705e+09 -1.345738e+09 -1.504816e+09 -1.951435e+05 1.153269e+06 -8.503591e+05
-1.654315e+09 -1.454358e+09 -1.613340e+09 -2.214097e+05 1.210080e+06 -7.761217e+05
-1.751903e+09 -1.551725e+09 -1.710471e+09 -2.676780e+05 1.272223e+06 -8.807531e+05
-1.781809e+09 -1.581693e+09 -1.740615e+09 -3.862340e+05 1.260714e+06 -9.381308e+05
-1.496595e+09 -1.296599e+09 -1.454982e+09 -4.161352e+04 8.259583e+05 -7.521882e+05
-1.496788e+09 -1.296770e+09 -1.455476e+09 -2.057593e+04 6.694846e+05 -5.769027e+05
-1.688418e+09 -1.488523e+09 -1.646938e+09 -1.366785e+05 7.512306e+05 -6.968526e+05
-1.595508e+09 -1.395425e+09 -1.554066e+09 -7.841731e+04 8.251848e+05 -5.996970e+05
-1.449622e+09 -1.249626e+09 -1.408259e+09 2.325524e+04 9.612085e+05 -6.586607e+05
-1.449761e+09 -1.249760e+09 -1.408621e+09 5.003120e+04 7.313092e+05 -5.456317e+05
-1.449780e+09 -1.249673e+09 -1.408765e+09 3.830434e+04 6.599057e+05 -5.708643e+05
-1.589425e+09 -1.389388e+09 -1.548070e+09 1.872186e+03 7.403182e+05 -6.950030e+05
-1.484291e+09 -1.284329e+09 -1.443004e+09 -2.531515e+04 1.286273e+06 -8.348947e+05
-1.592889e+09 -1.393026e+09 -1.551571e+09 -7.170763e+04 1.309797e+06 -7.794845e+05
-1.641947e+09 -1.441956e+09 -1.600633e+09 -2.078371e+05 1.240421e+06 -7.162754e+05
-1.588333e+09 -1.388413e+09 -1.546915e+09 -2.751299e+03 2.058543e+06 -8.478541e+05
-1.441834e+09 -1.241657e+09 -1.400172e+09 1.864061e+05 1.078468e+06 -9.866704e+05
-1.533220e+09 -1.332901e+09 -1.491450e+09 7.351715e+04 8.932766e+05 -8.844947e+05
-1.479471e+09 -1.279924e+09 -1.437004e+09 2.238289e+05 2.177894e+06 -1.504466e+06
-1.479016e+09 -1.278895e+09 -1.436325e+09 4.931584e+05 1.446210e+06 -1.626234e+06
-1.437593e+09 -1.237667e+09 -1.397672e+09 7.064233e+03 5.285010e+03 2.759043e+04
-1.556191e+09 -1.356265e+09 -1.516271e+09 6.668210e+03 5.536532e+03 2.712056e+04
-1.506946e+09 -1.307021e+09 -1.467025e+09 6.209665e+03 6.254050e+03 2.636230e+04
-1.506946e+09 -1.307022e+09 -1.467027e+09 6.907513e+03 5.239462e+03 2.721228e+04
-1.496845e+09 -1.296923e+09 -1.456926e+09 8.093883e+03 6.096279e+03 2.900890e+04
-1.615443e+09 -1.415521e+09 -1.575525e+09 7.524312e+03 5.839973e+03 2.830573e+04
-1.566199e+09 -1.366277e+09 -1.526281e+09 7.980174e+03 5.829823e+03 2.906545e+04
-1.685941e+09 -1.486020e+09 -1.646027e+09 9.293057e+03 6.421120e+03 3.086219e+04
-1.496846e+09 -1.296920e+09 -1.456925e+09 8.689852e+03 6.760584e+03 2.921317e+04
-1.496847e+09 -1.296920e+09 -1.456926e+09 9.645177e+03 6.602449e+03 2.819537e+04
-1.615445e+09 -1.415518e+09 -1.575525e+09 9.663573e+03 6.979150e+03 2.815461e+04
-1.685940e+09 -1.486019e+09 -1.646025e+09 8.643428e+03 7.998876e+03 3.020520e+04
-1.447610e+09 -1.247679e+09 -1.407684e+09 8.698304e+03 6.872583e+03 3.053263e+04
-1.539442e+09 -1.339512e+09 -1.499519e+09 8.696871e+03 7.887421e+03 3.258336e+04
-1.478955e+09 -1.279025e+09 -1.439031e+09 8.215777e+03 7.637193e+03 3.087598e+04
-1.419699e+09 -1.219768e+09 -1.379774e+09 8.921598e+03 7.868112e+03 3.148880e+04
-1.419699e+09 -1.219767e+09 -1.379774e+09 9.665720e+03 7.630288e+03 3.119060e+04
-1.598692e+09 -1.398768e+09 -1.558773e+09 9.217581e+03 7.852565e+03 3.148815e+04
-1.539442e+09 -1.339512e+09 -1.499519e+09 9.614231e+03 7.622761e+03 3.203380e+04
-1.478951e+09 -1.279022e+09 -1.439028e+09 1.021013e+04 6.403648e+03 2.836792e+04
-1.598695e+09 -1.398769e+09 -1.558775e+09 8.311776e+03 8.165530e+03 3.271447e+04
-1.488845e+09 -1.288923e+09 -1.448922e+09 7.437079e+03 9.061112e+03 4.716420e+04
-1.488844e+09 -1.288924e+09 -1.448921e+09 7.173441e+03 9.053535e+03 4.685537e+04
-1.589221e+09 -1.389301e+09 -1.549303e+09 9.113099e+03 9.785229e+03 5.183668e+04
-1.662404e+09 -1.462489e+09 -1.622492e+09 6.758637e+03 9.009716e+03 4.692167e+04
-1.445855e+09 -1.245928e+09 -1.405928e+09 6.328502e+03 8.409762e+03 4.607484e+04
-1.535556e+09 -1.335629e+09 -1.495631e+09 4.689030e+03 8.549276e+03 4.331112e+04
-1.476864e+09 -1.276939e+09 -1.436938e+09 5.072876e+03 8.077285e+03 4.471946e+04
-1.419370e+09 -1.219441e+09 -1.379444e+09 5.403267e+03 8.398739e+03 4.396919e+04
-1.419371e+09 -1.219446e+09 -1.379445e+09 5.393266e+03 7.341899e+03 4.406853e+04
-1.593046e+09 -1.393124e+09 -1.553124e+09 5.561823e+03 8.218510e+03 4.516306e+04
-1.535556e+09 -1.335629e+09 -1.495630e+09 5.226512e+03 8.993894e+03 4.377606e+04
-1.476862e+09 -1.276938e+09 -1.436935e+09 5.884414e+03 8.322910e+03 4.695155e+04
-1.593049e+09 -1.393125e+09 -1.553126e+09 4.654665e+03 7.480200e+03 4.387883e+04
-1.431358e+09 -1.231427e+09 -1.391429e+09 1.118471e+04 8.557475e+03 4.823452e+04
-1.531733e+09 -1.331807e+09 -1.491809e+09 8.564781e+03 1.048015e+04 5.265529e+04
-1.488740e+09 -1.288810e+09 -1.448812e+09 1.181135e+04 9.012304e+03 5.170156e+04
-1.488740e+09 -1.288810e+09 -1.448813e+09 1.206055e+04 9.406666e+03 5.156186e+04
-1.488847e+09 -1.288921e+09 -1.448922e+09 1.119463e+04 8.346620e+03 4.671834e+04
-1.589220e+09 -1.389300e+09 -1.549302e+09 8.159018e+03 1.028965e+04 5.144260e+04
-1.546217e+09 -1.346299e+09 -1.506301e+09 1.235880e+04 8.917912e+03 4.694100e+04
-1.662403e+09 -1.462486e+09 -1.622491e+09 1.242209e+04 9.757729e+03 4.724195e+04
-1.437540e+09 -1.237601e+09 -1.397599e+09 1.125726e+04 1.140510e+04 7.382350e+04
-1.546718e+09 -1.346786e+09 -1.506782e+09 7.240879e+03 1.391617e+04 8.155411e+04
-1.497565e+09 -1.297623e+09 -1.457623e+09 1.251472e+04 1.245919e+04 7.876516e+04
-1.497566e+09 -1.297626e+09 -1.457625e+09 1.222350e+04 1.361464e+04 7.902013e+04
-1.484943e+09 -1.285017e+09 -1.445016e+09 1.156318e+04 1.086538e+04 7.174717e+04
-1.594122e+09 -1.394202e+09 -1.554199e+09 9.142783e+03 1.298215e+04 7.639413e+04
-1.544960e+09 -1.345039e+09 -1.505039e+09 1.338098e+04 1.197771e+04 7.247084e+04
-1.642612e+09 -1.442692e+09 -1.602695e+09 1.502893e+04 1.170366e+04 6.989570e+04
-1.437533e+09 -1.237603e+09 -1.397598e+09 5.965379e+03 1.165222e+04 7.592645e+04
-1.437530e+09 -1.237603e+09 -1.397599e+09 3.436841e+03 1.088984e+04 7.271915e+04
-1.437528e+09 -1.237603e+09 -1.397596e+09 5.946156e+03 1.162557e+04 7.548844e+04
-1.546714e+09 -1.346785e+09 -1.506784e+09 7.422334e+03 1.373081e+04 8.120823e+04
-1.484943e+09 -1.285019e+09 -1.445016e+09 1.128695e+04 1.110813e+04 7.178663e+04
-1.484939e+09 -1.285019e+09 -1.445016e+09 9.299425e+03 1.034148e+04 6.818458e+04
-1.594127e+09 -1.394201e+09 -1.554202e+09 1.164221e+04 1.290848e+04 7.913745e+04
-1.642609e+09 -1.442693e+09 -1.602695e+09 1.221082e+04 1.036761e+04 6.980040e+04
-1.493247e+09 -1.293321e+09 -1.453309e+09 6.452112e+03 9.582321e+03 1.017320e+05
-1.493246e+09 -1.293324e+09 -1.453304e+09 9.389275e+03 9.164160e+03 1.057065e+05
-1.598282e+09 -1.398360e+09 -1.558349e+09 1.237058e+04 1.094814e+04 1.122972e+05
-1.668771e+09 -1.468859e+09 -1.628854e+09 5.788249e+03 1.010036e+04 1.016115e+05
-1.447634e+09 -1.247694e+09 -1.407681e+09 8.148041e+03 1.007613e+04 9.930505e+04
-1.534557e+09 -1.334625e+09 -1.494616e+09 7.283803e+03 1.161014e+04 9.511650e+04
-1.477667e+09 -1.277730e+09 -1.437715e+09 6.462571e+03 9.604770e+03 9.748836e+04
-1.418426e+09 -1.218489e+09 -1.378476e+09 5.301476e+03 1.064819e+04 9.754655e+04
-1.418424e+09 -1.218492e+09 -1.378476e+09 1.100188e+04 1.054696e+04 1.007642e+05
-1.593790e+09 -1.393863e+09 -1.553852e+09 5.078743e+03 1.095314e+04 9.864778e+04
-1.534557e+09 -1.334626e+09 -1.494614e+09 7.408221e+03 1.268119e+04 9.534816e+04
-1.477656e+09 -1.277728e+09 -1.437706e+09 1.023114e+04 9.305681e+03 1.063589e+05
-1.593792e+09 -1.393863e+09 -1.553855e+09 5.372708e+03 1.030265e+04 9.653885e+04
-1.434034e+09 -1.234085e+09 -1.394074e+09 9.768639e+03 1.037451e+04 1.074316e+05
-1.539066e+09 -1.339123e+09 -1.499114e+09 5.017038e+03 1.226711e+04 1.146057e+05
-1.493438e+09 -1.293489e+09 -1.453479e+09 1.019939e+04 9.171386e+03 1.135910e+05
-1.493441e+09 -1.293494e+09 -1.453485e+09 8.969883e+03 1.198277e+04 1.146280e+05
-1.493249e+09 -1.293319e+09 -1.453309e+09 1.085192e+04 8.645313e+03 1.009371e+05
-1.598279e+09 -1.398357e+09 -1.558348e+09 4.867002e+03 1.090916e+04 1.100456e+05
-1.552637e+09 -1.352722e+09 -1.512710e+09 9.799983e+03 1.052667e+04 1.037346e+05
-1.668770e+09 -1.468858e+09 -1.628854e+09 1.164295e+04 1.212809e+04 1.013313e+05
-1.497695e+09 -1.297762e+09 -1.457728e+09 7.494610e+03 5.429120e+03 1.327184e+05
-1.497694e+09 -1.297761e+09 -1.457719e+09 1.168593e+04 7.254552e+03 1.375552e+05
-1.605769e+09 -1.405837e+09 -1.565800e+09 1.495304e+04 6.937517e+03 1.461811e+05
-1.677849e+09 -1.477938e+09 -1.637918e+09 3.625224e+03 2.881678e+03 1.305314e+05
-1.449358e+09 -1.249393e+09 -1.409359e+09 8.288334e+03 5.179636e+03 1.228335e+05
-1.449362e+09 -1.249394e+09 -1.409353e+09 1.287464e+04 7.250711e+03 1.258114e+05
-1.569811e+09 -1.369873e+09 -1.529848e+09 1.772299e+03 2.492586e+03 1.185945e+05
-1.508915e+09 -1.308961e+09 -1.468935e+09 8.005016e+03 7.424489e+03 1.114782e+05
-1.436815e+09 -1.236850e+09 -1.396809e+09 1.061091e+04 6.200755e+03 1.380997e+05
-1.544883e+09 -1.344922e+09 -1.504883e+09 5.080063e+03 6.475886e+03 1.462812e+05
-1.496507e+09 -1.296540e+09 -1.456498e+09 1.149930e+04 3.261443e+03 1.444603e+05
-1.496512e+09 -1.296547e+09 -1.456508e+09 7.694519e+03 8.013998e+03 1.479560e+05
-1.497697e+09 -1.297761e+09 -1.457728e+09 9.222212e+03 5.461961e+03 1.323889e+05
-1.605759e+09 -1.405831e+09 -1.565797e+09 1.607681e+03 5.116704e+03 1.432912e+05
-1.557374e+09 -1.357452e+09 -1.517418e+09 5.575052e+03 7.434318e+03 1.393408e+05
-1.677852e+09 -1.477939e+09 -1.637919e+09 1.204304e+04 9.725662e+03 1.292435e+05
-1.501480e+09 -1.301537e+09 -1.461480e+09 1.183043e+04 -1.392507e+03 1.541736e+05
-1.501486e+09 -1.301547e+09 -1.461490e+09 1.711669e+04 3.920084e+03 1.476403e+05
-1.622306e+09 -1.422368e+09 -1.582315e+09 2.553881e+04 5.692876e+03 1.260850e+05
-1.678165e+09 -1.478261e+09 -1.638223e+09 7.505298e+03 6.036217e+03 1.499783e+05
-1.448209e+09 -1.248221e+09 -1.408151e+09 1.543740e+04 -3.992302e+02 1.505568e+05
-1.525202e+09 -1.325216e+09 -1.485160e+09 1.171532e+04 9.688113e+02 1.649616e+05
-1.475720e+09 -1.275738e+09 -1.435670e+09 1.065684e+04 2.113364e+03 1.552033e+05
-1.415966e+09 -1.215969e+09 -1.375913e+09 1.418673e+04 1.709197e+03 1.585325e+05
-1.415972e+09 -1.215989e+09 -1.375923e+09 1.786345e+04 8.811862e+03 1.557837e+05
-1.584917e+09 -1.384966e+09 -1.544901e+09 9.981046e+03 1.115504e+03 1.594846e+05
-1.525200e+09 -1.325215e+09 -1.485153e+09 1.527783e+04 -1.497045e+03 1.617293e+05
-1.475707e+09 -1.275739e+09 -1.435669e+09 1.886467e+04 5.374647e+03 1.400673e+05
-1.584934e+09 -1.384972e+09 -1.544913e+09 5.982717e+03 3.337134e+03 1.672645e+05
-1.441805e+09 -1.241810e+09 -1.401737e+09 1.354126e+04 4.915626e+03 1.372375e+05
-1.441804e+09 -1.241811e+09 -1.401728e+09 1.476140e+04 6.098059e+03 1.368648e+05
-1.562590e+09 -1.362618e+09 -1.522554e+09 2.980173e+03 5.328399e+03 1.283915e+05
-1.509291e+09 -1.309301e+09 -1.469232e+09 1.297420e+04 6.822721e+03 1.275880e+05
-1.501478e+09 -1.301544e+09 -1.461481e+09 5.634258e+03 1.433977e+03 1.534777e+05
-1.501477e+09 -1.301545e+09 -1.461472e+09 6.738908e+03 2.516813e+03 1.533934e+05
-1.678167e+09 -1.478267e+09 -1.638225e+09 5.439476e+03 -9.399500e+02 1.507196e+05
-1.622288e+09 -1.422360e+09 -1.582309e+09 -3.600791e+03 4.710123e+03 1.306167e+05
-1.541425e+09 -1.341599e+09 -1.501418e+09 -1.970390e+04 -1.295272e+03 1.026051e+05
-1.666712e+09 -1.466900e+09 -1.626724e+09 -2.140784e+04 -2.984562e+04 1.115357e+05
-1.720900e+09 -1.521148e+09 -1.680960e+09 -2.657365e+04 -1.767773e+04 1.273390e+05
-1.798326e+09 -1.598606e+09 -1.758382e+09 -1.928311e+04 -6.942502e+03 9.257994e+04
-1.560086e+09 -1.360266e+09 -1.520109e+09 -5.660390e+03 -1.589047e+04 1.438117e+05
-1.685364e+09 -1.485558e+09 -1.645399e+09 -1.112166e+04 -4.090097e+04 1.524837e+05
-1.768452e+09 -1.568675e+09 -1.728464e+09 -1.757854e+04 -1.777797e+04 1.392598e+05
-1.844068e+09 -1.644337e+09 -1.804168e+09 -7.803813e+03 -4.141722e+04 1.368277e+05
-1.497798e+09 -1.297927e+09 -1.457836e+09 -1.619203e+04 -1.681840e+04 1.234942e+05
-1.497794e+09 -1.297902e+09 -1.457816e+09 -1.200050e+04 -1.735554e+03 1.229827e+05
-1.623079e+09 -1.423206e+09 -1.583106e+09 -9.855934e+03 -1.944497e+04 1.311369e+05
-1.718333e+09 -1.518536e+09 -1.678463e+09 -3.339610e+04 -3.652225e+04 1.292242e+05
-1.455323e+09 -1.255361e+09 -1.415248e+09 9.607664e+03 -7.457202e+03 1.198318e+05
-1.455321e+09 -1.255337e+09 -1.415229e+09 1.316471e+04 7.365064e+03 1.180539e+05
-1.593162e+09 -1.393274e+09 -1.553180e+09 -7.717381e+03 -1.132889e+04 1.109720e+05
-1.526372e+09 -1.326416e+09 -1.486324e+09 1.508231e+04 -7.420290e+03 1.005376e+05
-1.498903e+09 -1.299018e+09 -1.458838e+09 1.827619e+04 -3.669997e+02 1.245432e+05
-1.595653e+09 -1.395831e+09 -1.555668e+09 -9.734840e+03 2.390260e+03 1.483644e+05
-1.547425e+09 -1.347606e+09 -1.507435e+09 2.471883e+04 5.688716e+03 1.348144e+05
-1.673124e+09 -1.473320e+09 -1.633117e+09 2.985622e+04 1.596375e+03 1.288493e+05
-1.450688e+09 -1.250750e+09 -1.410594e+09 8.836780e+03 6.662749e+03 1.250779e+05
-1.450667e+09 -1.250747e+09 -1.410605e+09 -1.185404e+04 1.687094e+04 1.332450e+05
-1.514063e+09 -1.314170e+09 -1.473982e+09 6.877378e+03 2.364612e+04 1.128463e+05
-1.576363e+09 -1.376474e+09 -1.536282e+09 1.062454e+04 1.445426e+04 1.116586e+05
-1.436953e+09 -1.236919e+09 -1.396633e+09 9.240838e+03 -2.033508e+02 -8.372857e+04
-1.551990e+09 -1.351957e+09 -1.511693e+09 1.721876e+04 1.497833e+04 -9.725717e+04
-1.503440e+09 -1.303352e+09 -1.463147e+09 1.798703e+04 3.804500e+04 -1.125149e+05
-1.503437e+09 -1.303392e+09 -1.463063e+09 -1.303125e+04 2.698938e+03 -9.760874e+04
-1.497413e+09 -1.297443e+09 -1.457269e+09 1.210365e+04 -1.216607e+04 -4.878019e+04
-1.612442e+09 -1.412475e+09 -1.572304e+09 1.847505e+04 -2.386247e+03 -5.636121e+04
-1.563892e+09 -1.363920e+09 -1.523708e+09 2.325689e+03 -2.018707e+04 -4.906628e+04
-1.680472e+09 -1.480504e+09 -1.640334e+09 8.293948e+03 -1.443862e+04 -5.036645e+04
-1.497418e+09 -1.297463e+09 -1.457269e+09 1.555471e+04 2.318291e+04 -6.383316e+04
-1.497427e+09 -1.297496e+09 -1.457252e+09 2.943587e+04 1.057631e+04 -4.943206e+04
-1.612435e+09 -1.412489e+09 -1.572258e+09 2.280939e+04 3.086437e+04 -6.931291e+04
-1.680479e+09 -1.480523e+09 -1.640308e+09 2.592637e+04 2.909251e+04 -5.681975e+04
-1.448945e+09 -1.248918e+09 -1.408673e+09 7.938680e+03 1.363930e+04 -2.584880e+03
-1.532480e+09 -1.332474e+09 -1.492155e+09 1.591322e+04 -6.095277e+03 2.079038e+04
-1.476415e+09 -1.276394e+09 -1.436128e+09 1.844793e+04 8.341530e+03 5.687577e+03
-1.415911e+09 -1.215886e+09 -1.375599e+09 2.289384e+04 -3.225688e+04 2.251195e+04
-1.415887e+09 -1.215877e+09 -1.375498e+09 2.122773e+04 3.992454e+03 2.769968e+04
-1.592942e+09 -1.392950e+09 -1.552658e+09 1.636416e+04 7.960944e+03 -2.421658e+04
-1.532492e+09 -1.332475e+09 -1.492208e+09 2.480024e+04 -1.718868e+04 3.029341e+04
-1.476409e+09 -1.276407e+09 -1.436111e+09 1.761042e+04 -6.529076e+02 1.467268e+04
-1.592943e+09 -1.392940e+09 -1.552587e+09 6.282053e+03 2.337085e+04 -1.474086e+04
-1.435398e+09 -1.235551e+09 -1.394999e+09 -7.665371e+04 1.117710e+05 -2.906222e+05
-1.546863e+09 -1.347001e+09 -1.506409e+09 -7.008881e+04 9.101225e+04 -2.967195e+05
-1.499638e+09 -1.299803e+09 -1.459167e+09 -8.883201e+04 4.854981e+04 -2.688666e+05
-1.499693e+09 -1.299866e+09 -1.459322e+09 -1.039929e+05 1.190474e+05 -2.501624e+05
-1.494360e+09 -1.294525e+09 -1.454011e+09 -7.358963e+04 1.070060e+05 -2.706019e+05
-1.605825e+09 -1.405974e+09 -1.565414e+09 -6.777890e+04 8.393776e+04 -2.709686e+05
-1.558707e+09 -1.358848e+09 -1.518321e+09 -1.045230e+05 1.192469e+05 -2.273475e+05
-1.677014e+09 -1.477195e+09 -1.636651e+09 -8.852398e+04 1.208679e+05 -2.686366e+05
-1.494352e+09 -1.294520e+09 -1.454002e+09 -7.909300e+04 8.553481e+04 -2.621633e+05
-1.494350e+09 -1.294513e+09 -1.454003e+09 -7.980496e+04 8.827137e+04 -2.625492e+05
-1.605810e+09 -1.405978e+09 -1.565406e+09 -8.695855e+04 8.828287e+04 -2.800967e+05
-1.676999e+09 -1.477149e+09 -1.636635e+09 -9.418319e+04 9.251159e+04 -2.662548e+05
-1.447276e+09 -1.247360e+09 -1.406789e+09 -3.851061e+04 1.015428e+05 -2.414210e+05
-1.447274e+09 -1.247353e+09 -1.406789e+09 -4.014784e+04 1.037742e+05 -2.414531e+05
-1.565593e+09 -1.365683e+09 -1.525127e+09 -5.779472e+04 1.157176e+05 -2.572379e+05
-1.506757e+09 -1.306782e+09 -1.466247e+09 -2.397499e+04 6.672143e+04 -1.798771e+05
-1.568780e+09 -1.368965e+09 -1.528233e+09 -1.957905e+05 3.043144e+05 -4.876796e+05
-1.689183e+09 -1.489368e+09 -1.648479e+09 -2.118940e+05 3.093985e+05 -3.900380e+05
-1.770455e+09 -1.570661e+09 -1.730108e+09 -2.852679e+05 3.078670e+05 -4.615849e+05
-1.841867e+09 -1.642032e+09 -1.801348e+09 -3.232112e+05 2.874890e+05 -4.906707e+05
-1.568700e+09 -1.368809e+09 -1.528001e+09 -1.853301e+05 3.440055e+05 -7.043039e+05
-1.689120e+09 -1.489231e+09 -1.648310e+09 -2.008467e+05 3.528543e+05 -6.096862e+05
-1.769006e+09 -1.568953e+09 -1.728016e+09 -2.351628e+05 3.627980e+05 -7.340946e+05
-1.811429e+09 -1.611575e+09 -1.770667e+09 -2.296543e+05 4.042306e+05 -7.658492e+05
-1.440494e+09 -1.240597e+09 -1.399773e+09 -1.207713e+05 3.676817e+05 -6.493616e+05
-1.440403e+09 -1.240502e+09 -1.399705e+09 -1.807766e+05 3.358884e+05 -6.144752e+05
-1.508385e+09 -1.308618e+09 -1.467674e+09 -4.370688e+04 3.887799e+05 -5.861322e+05
-1.560882e+09 -1.361045e+09 -1.520149e+09 -2.051894e+05 3.295351e+05 -6.046266e+05
-1.501212e+09 -1.301172e+09 -1.460379e+09 -1.711157e+05 4.001394e+05 -6.951853e+05
-1.678683e+09 -1.478617e+09 -1.637857e+09 -2.011677e+05 3.983457e+05 -6.641680e+05
-1.561098e+09 -1.361143e+09 -1.520323e+09 -2.101768e+05 4.047004e+05 -6.536495e+05
-1.500427e+09 -1.300347e+09 -1.459655e+09 -1.950881e+05 3.820846e+05 -6.540630e+05
-1.620904e+09 -1.420870e+09 -1.580095e+09 -2.276267e+05 3.702175e+05 -6.402161e+05
-1.618889e+09 -1.418858e+09 -1.578063e+09 -1.373207e+05 4.010255e+05 -6.852655e+05
-1.558181e+09 -1.357994e+09 -1.517372e+09 -2.000666e+05 3.694017e+05 -6.650163e+05
-1.681528e+09 -1.481567e+09 -1.640660e+09 -2.105007e+05 3.987275e+05 -6.324317e+05
-1.739346e+09 -1.539327e+09 -1.698505e+09 -1.708597e+05 4.438587e+05 -6.904537e+05
-1.448911e+09 -1.248935e+09 -1.408306e+09 -4.041529e+04 4.150560e+05 -5.631215e+05
-1.448940e+09 -1.248962e+09 -1.408270e+09 -6.701737e+03 4.408867e+05 -5.606629e+05
-1.582456e+09 -1.382561e+09 -1.542105e+09 -1.373850e+05 4.007814e+05 -4.948770e+05
-1.521885e+09 -1.321984e+09 -1.481345e+09 -6.197795e+03 3.808226e+05 -4.404886e+05
-1.516454e+09 -1.316491e+09 -1.475918e+09 -1.082590e+05 3.652805e+05 -5.836062e+05
-1.516494e+09 -1.316524e+09 -1.475892e+09 -7.306590e+04 3.923532e+05 -5.868891e+05
-1.721512e+09 -1.521554e+09 -1.681076e+09 -1.741311e+05 4.216918e+05 -5.863217e+05
-1.650207e+09 -1.450227e+09 -1.609943e+09 -1.604211e+05 3.837692e+05 -6.299479e+05
-1.560483e+09 -1.360110e+09 -1.519168e+09 -2.183666e+04 1.188794e+06 -3.354899e+05
-1.693305e+09 -1.492918e+09 -1.651686e+09 -2.054016e+04 1.115043e+06 -2.790297e+05
-1.752721e+09 -1.552145e+09 -1.711570e+09 -8.943289e+04 1.089381e+06 -1.973164e+05
-1.804772e+09 -1.604057e+09 -1.763514e+09 -9.592643e+04 1.165645e+06 -2.470384e+05
-1.570450e+09 -1.370063e+09 -1.529309e+09 -9.965029e+04 1.142601e+06 -1.600666e+05
-1.703291e+09 -1.502885e+09 -1.661842e+09 -9.120981e+04 1.074572e+06 -1.133111e+05
-1.756454e+09 -1.555813e+09 -1.715087e+09 -5.837111e+03 1.127089e+06 -2.732033e+05
-1.801768e+09 -1.600834e+09 -1.759838e+09 -1.238988e+04 9.137715e+05 1.462048e+04
-1.443709e+09 -1.243913e+09 -1.402700e+09 5.630554e+03 1.155417e+06 -3.763778e+05
-1.443890e+09 -1.244009e+09 -1.403247e+09 2.369368e+04 8.817975e+05 -2.250648e+05
-1.557927e+09 -1.357929e+09 -1.517064e+09 -4.903978e+04 1.030601e+06 -3.363939e+05
-1.502176e+09 -1.302322e+09 -1.461313e+09 3.993898e+04 9.640733e+05 -2.294251e+05
-1.505714e+09 -1.305617e+09 -1.464229e+09 4.443996e+04 1.156014e+06 -2.884613e+05
-1.505892e+09 -1.305704e+09 -1.464745e+09 6.042270e+04 8.794284e+05 -1.154964e+05
-1.671891e+09 -1.471441e+09 -1.630313e+09 1.085188e+04 1.148075e+06 -2.157899e+05
-1.619862e+09 -1.419573e+09 -1.578397e+09 2.571935e+04 1.062198e+06 -1.729235e+05
-1.508524e+09 -1.308711e+09 -1.466145e+09 1.034398e+04 1.736087e+06 -4.822909e+05
-1.508903e+09 -1.308796e+09 -1.467859e+09 -9.602018e+04 2.402941e+06 -5.541816e+05
-1.641548e+09 -1.441653e+09 -1.599598e+09 -9.463506e+04 2.440133e+06 -5.709742e+05
-1.693809e+09 -1.493517e+09 -1.650845e+09 -6.393641e+03 2.120414e+06 -4.559017e+04
-1.453537e+09 -1.253873e+09 -1.411570e+09 8.372597e+04 1.700165e+06 -4.838098e+05
-1.525628e+09 -1.325522e+09 -1.482002e+09 3.559044e+05 1.983774e+06 -7.472120e+05
-1.484622e+09 -1.284645e+09 -1.442916e+09 4.273205e+04 1.867777e+06 -6.087174e+05
-1.418952e+09 -1.219354e+09 -1.376569e+09 2.604405e+05 1.928051e+06 -6.312177e+05
-1.418934e+09 -1.218707e+09 -1.376774e+09 5.944323e+04 1.990369e+06 -4.492871e+05
-1.592224e+09 -1.391658e+09 -1.550237e+09 -1.069595e+04 2.206605e+06 1.267481e+05
-1.525908e+09 -1.325594e+09 -1.482900e+09 1.134012e+05 2.382671e+06 -5.225910e+05
-1.485478e+09 -1.285388e+09 -1.445361e+09 -7.641145e+04 2.478267e+06 -1.848813e+05
-1.591632e+09 -1.391471e+09 -1.549061e+09 1.506574e+05 2.004895e+06 -3.137697e+05
-1.560723e+09 -1.360405e+09 -1.520242e+09 5.588650e+04 4.146608e+05 -3.484433e+04
-1.678563e+09 -1.478248e+09 -1.637806e+09 6.019569e+04 3.816819e+05 -6.148783e+04
-1.730893e+09 -1.530478e+09 -1.690221e+09 8.160752e+04 3.633826e+05 2.005711e+04
-1.793556e+09 -1.593157e+09 -1.753119e+09 1.342267e+05 4.566743e+05 4.620557e+03
-1.566890e+09 -1.366504e+09 -1.526351e+09 3.062292e+04 2.628881e+05 1.795447e+05
-1.684738e+09 -1.484351e+09 -1.643940e+09 3.323066e+04 2.261456e+05 1.617632e+05
-1.746411e+09 -1.546129e+09 -1.706138e+09 1.178367e+05 3.669743e+05 7.360654e+04
-1.780674e+09 -1.580298e+09 -1.740234e+09 1.184469e+05 2.779491e+05 1.347440e+05
-1.442491e+09 -1.242498e+09 -1.402029e+09 -4.966503e+04 3.268072e+05 6.518428e+04
-1.442557e+09 -1.242617e+09 -1.402248e+09 -5.050562e+04 2.091735e+05 1.033050e+05
-1.550153e+09 -1.349994e+09 -1.509515e+09 -7.606170e+04 3.524151e+05 2.085645e+04
-1.495741e+09 -1.295813e+09 -1.455197e+09 -2.863267e+04 3.093975e+05 1.050708e+05
-1.505383e+09 -1.305317e+09 -1.464830e+09 4.232119e+04 3.915919e+05 3.611163e+04
-1.505438e+09 -1.305428e+09 -1.465025e+09 4.380204e+04 2.748376e+05 8.639974e+04
-1.675543e+09 -1.475344e+09 -1.634949e+09 1.049382e+05 4.221189e+05 8.223092e+04
-1.612913e+09 -1.412776e+09 -1.572155e+09 6.005709e+04 4.169300e+05 1.064392e+05
-1.504019e+09 -1.303913e+09 -1.463198e+09 1.326782e+04 4.747003e+05 3.758462e+04
-1.504019e+09 -1.303766e+09 -1.463336e+09 -3.687772e+03 5.133798e+05 1.036108e+04
-1.621883e+09 -1.421692e+09 -1.580918e+09 -2.655476e+03 5.102508e+05 2.924190e+04
-1.663586e+09 -1.463424e+09 -1.622505e+09 3.587158e+04 4.989635e+05 7.777458e+04
-1.448680e+09 -1.248628e+09 -1.408067e+09 -1.254081e+04 4.714000e+05 1.735913e+05
-1.515179e+09 -1.315017e+09 -1.474543e+09 2.890343e+04 5.536632e+05 1.858540e+05
-1.478614e+09 -1.278533e+09 -1.438016e+09 -1.145703e+04 4.801903e+05 1.622690e+05
-1.418186e+09 -1.218107e+09 -1.377629e+09 -4.958579e+02 4.494215e+05 1.820409e+05
-1.418156e+09 -1.217947e+09 -1.377639e+09 -2.312693e+03 5.341416e+05 1.997732e+05
-1.575667e+09 -1.375534e+09 -1.534994e+09 3.866062e+04 5.101974e+05 1.899547e+05
-1.515178e+09 -1.315020e+09 -1.474513e+09 9.061613e+03 5.187868e+05 1.886266e+05
-1.478653e+09 -1.278456e+09 -1.438238e+09 2.658626e+04 4.755991e+05 2.183650e+05
-1.575642e+09 -1.375536e+09 -1.535035e+09 5.046387e+04 5.295277e+05 2.058633e+05
-1.449908e+09 -1.249892e+09 -1.409656e+09 2.894192e+02 1.921799e+04 4.696211e+04
-1.566838e+09 -1.366731e+09 -1.526418e+09 4.740206e+04 1.028358e+05 6.945983e+04
-1.505286e+09 -1.305316e+09 -1.464927e+09 -5.024354e+02 5.610154e+04 8.777286e+04
-1.505326e+09 -1.305306e+09 -1.465089e+09 -1.399924e+04 -6.163347e+03 6.411869e+04
-1.514859e+09 -1.314887e+09 -1.474503e+09 4.998958e+04 6.978107e+04 1.298866e+05
-1.631825e+09 -1.431717e+09 -1.591293e+09 8.890734e+04 1.650871e+05 1.199892e+05
-1.570437e+09 -1.370364e+09 -1.530081e+09 6.898727e+03 1.545593e+04 5.431872e+04
-1.692741e+09 -1.492680e+09 -1.652315e+09 3.095012e+04 4.912951e+04 1.084901e+05
-1.491070e+09 -1.291057e+09 -1.450676e+09 4.240325e+04 1.199958e+05 2.712815e+04
-1.491064e+09 -1.290974e+09 -1.450730e+09 3.047830e+04 1.788807e+05 2.187454e+03
-1.605337e+09 -1.405238e+09 -1.564833e+09 5.743810e+04 1.397632e+05 -3.225535e+04
-1.642681e+09 -1.442625e+09 -1.602165e+09 9.096090e+04 1.492771e+05 -2.058169e+04
-1.440960e+09 -1.240956e+09 -1.400631e+09 -5.432624e+03 1.438862e+05 6.387920e+04
-1.504994e+09 -1.304904e+09 -1.464673e+09 1.947550e+04 2.317727e+05 6.927057e+04
-1.470165e+09 -1.270150e+09 -1.429829e+09 1.683521e+04 1.605348e+05 5.006162e+04
-1.417566e+09 -1.217511e+09 -1.377344e+09 1.089661e+04 1.299185e+05 7.557817e+04
-1.417546e+09 -1.217443e+09 -1.377306e+09 -8.395604e+03 2.373928e+05 8.379198e+04
-1.557662e+09 -1.357577e+09 -1.517266e+09 4.742411e+04 1.857907e+05 4.025425e+04
-1.504984e+09 -1.304879e+09 -1.464650e+09 3.292147e+03 1.799582e+05 7.040564e+04
-1.470213e+09 -1.270098e+09 -1.429963e+09 2.272940e+04 1.760391e+05 1.031126e+05
-1.557656e+09 -1.357606e+09 -1.517323e+09 5.114127e+04 2.224401e+05 6.473195e+04
-1.565073e+09 -1.364900e+09 -1.524741e+09 8.379109e+04 1.553232e+05 3.084155e+04
-1.679358e+09 -1.479164e+09 -1.638928e+09 9.447483e+04 1.121843e+05 -3.564384e+04
-1.746226e+09 -1.545957e+09 -1.705712e+09 1.189967e+05 1.483905e+05 3.592779e+04
-1.807091e+09 -1.606828e+09 -1.766651e+09 1.365518e+05 1.798945e+05 5.863574e+04
-1.556214e+09 -1.356050e+09 -1.515841e+09 1.061145e+05 1.184963e+05 1.210876e+05
-1.670508e+09 -1.470329e+09 -1.630086e+09 1.168308e+05 7.487153e+04 5.305046e+04
-1.742676e+09 -1.542592e+09 -1.702440e+09 1.492221e+05 1.143120e+05 9.873556e+04
-1.765154e+09 -1.565002e+09 -1.724818e+09 1.784108e+05 1.041976e+05 1.006721e+05
-1.501136e+09 -1.301173e+09 -1.461015e+09 2.982929e+04 -4.607055e+04 -9.288851e+04
-1.501141e+09 -1.301143e+09 -1.461070e+09 2.513627e+04 -1.443220e+04 -9.928526e+04
-1.624612e+09 -1.424606e+09 -1.584446e+09 4.295468e+04 -4.253709e+04 -1.311952e+05
-1.669807e+09 -1.469834e+09 -1.629648e+09 5.485539e+04 -3.305551e+04 -1.247914e+05
-1.446350e+09 -1.246355e+09 -1.406233e+09 -1.302264e+04 -2.294636e+04 -5.667249e+04
-1.518149e+09 -1.318108e+09 -1.478047e+09 -5.508325e+03 2.493083e+04 -4.235865e+04
-1.476023e+09 -1.276028e+09 -1.435910e+09 -6.737429e+03 -1.240702e+04 -6.309420e+04
-1.418111e+09 -1.218087e+09 -1.378054e+09 -4.899876e+03 -3.000273e+04 -4.269746e+04
-1.418110e+09 -1.218066e+09 -1.378055e+09 -1.723122e+04 3.058224e+04 -3.527391e+04
-1.576083e+09 -1.376065e+09 -1.535952e+09 1.251481e+04 -1.090259e+03 -6.671246e+04
-1.518143e+09 -1.318098e+09 -1.478029e+09 -9.564755e+03 -6.737490e+03 -4.323204e+04
-1.476047e+09 -1.276005e+09 -1.435994e+09 -5.983982e+02 -2.032997e+03 -3.594277e+04
-1.576090e+09 -1.376082e+09 -1.535991e+09 1.158887e+04 2.056088e+04 -4.609895e+04
-1.461891e+09 -1.261863e+09 -1.421774e+09 -9.522305e+03 -8.836628e+04 -5.036211e+04
-1.461898e+09 -1.261868e+09 -1.421800e+09 -9.392032e+03 -1.141108e+05 -3.844331e+04
-1.595589e+09 -1.395524e+09 -1.555436e+09 4.722296e+03 -9.413140e+04 -6.255597e+04
-1.522056e+09 -1.322036e+09 -1.481924e+09 -4.280576e+03 -1.018944e+05 -3.618218e+04
-1.517870e+09 -1.317859e+09 -1.477768e+09 2.417064e+04 -6.217695e+04 -4.808519e+04
-1.517884e+09 -1.317871e+09 -1.477818e+09 2.484535e+04 -8.658078e+04 -4.744004e+04
-1.649399e+09 -1.449375e+09 -1.609312e+09 3.811389e+04 -6.246198e+04 -2.354177e+04
-1.727060e+09 -1.527025e+09 -1.686936e+09 4.460390e+04 -4.929637e+04 -3.110358e+04
-1.572737e+09 -1.372634e+09 -1.532641e+09 6.698873e+04 -4.706364e+04 -8.544311e+04
-1.704251e+09 -1.504182e+09 -1.664171e+09 6.688703e+04 -1.527398e+04 -4.058981e+04
-1.771672e+09 -1.571629e+09 -1.731642e+09 1.075685e+05 -5.298643e+04 -9.514935e+04
-1.850547e+09 -1.650435e+09 -1.810464e+09 1.073798e+05 -3.428062e+04 -6.392904e+04
-1.557165e+09 -1.357113e+09 -1.517098e+09 7.101716e+04 -7.473085e+04 -4.461232e+04
-1.688710e+09 -1.488652e+09 -1.648631e+09 7.031697e+04 -4.234856e+04 -8.376458e+02
-1.801395e+09 -1.601321e+09 -1.761343e+09 1.200292e+05 -5.792335e+04 -4.746936e+04
-1.756218e+09 -1.556089e+09 -1.716129e+09 1.087988e+05 -7.760810e+04 -5.276162e+04
-1.544414e+09 -1.344368e+09 -1.504370e+09 2.343194e+04 -1.405617e+05 -1.097550e+05
-1.655649e+09 -1.455630e+09 -1.615705e+09 4.460639e+04 -1.012527e+05 -6.388812e+04
-1.712831e+09 -1.512753e+09 -1.672811e+09 5.540271e+04 -1.280531e+05 -6.237185e+04
-1.811453e+09 -1.611405e+09 -1.771477e+09 6.479467e+04 -1.507141e+05 -1.064021e+05
-1.568367e+09 -1.368301e+09 -1.528295e+09 2.864301e+04 -1.332128e+05 -1.247983e+05
-1.679597e+09 -1.479557e+09 -1.639614e+09 4.993736e+04 -9.320053e+04 -7.231288e+04
-1.778255e+09 -1.578243e+09 -1.738317e+09 6.413900e+04 -1.219087e+05 -1.393976e+05
-1.809780e+09 -1.609756e+09 -1.769817e+09 7.278621e+04 -1.188447e+05 -1.364633e+05
-1.500277e+09 -1.300311e+09 -1.460272e+09 1.141794e+04 -1.128336e+05 -1.009167e+05
-1.500279e+09 -1.300331e+09 -1.460286e+09 7.942846e+03 -1.237265e+05 -1.008899e+05
-1.611535e+09 -1.411557e+09 -1.571583e+09 3.249430e+04 -9.967583e+04 -6.156562e+04
-1.667105e+09 -1.467131e+09 -1.627133e+09 3.585106e+04 -9.512458e+04 -6.890357e+04
-1.456397e+09 -1.256366e+09 -1.416322e+09 -2.288392e+04 -1.274022e+05 -9.796979e+04
-1.456398e+09 -1.256387e+09 -1.416336e+09 -2.594416e+04 -1.381639e+05 -9.731044e+04
-1.555956e+09 -1.355923e+09 -1.515863e+09 -1.882772e+04 -1.333666e+05 -9.630321e+04
-1.488011e+09 -1.287977e+09 -1.447933e+09 -3.172947e+04 -1.309752e+05 -1.021226e+05
-1.500439e+09 -1.300405e+09 -1.460408e+09 1.110048e+04 -1.408547e+05 -1.145028e+05
-1.601527e+09 -1.401529e+09 -1.561508e+09 1.931428e+04 -1.246017e+05 -1.034472e+05
-1.557509e+09 -1.357473e+09 -1.517486e+09 3.709038e+04 -1.367003e+05 -1.094474e+05
-1.700172e+09 -1.500140e+09 -1.660178e+09 5.310204e+04 -1.225064e+05 -1.192632e+05
-1.456491e+09 -1.256469e+09 -1.416397e+09 -2.674628e+04 -1.060072e+05 -9.102133e+04
-1.456493e+09 -1.256484e+09 -1.416391e+09 -2.341328e+04 -1.059305e+05 -8.896292e+04
-1.531120e+09 -1.331091e+09 -1.491009e+09 -2.403047e+04 -9.122916e+04 -1.086021e+05
-1.599122e+09 -1.399086e+09 -1.559019e+09 1.050835e+04 -1.268338e+05 -1.147907e+05
