# vtk DataFile Version 2.0
Simplicial Mesh Example
ASCII
DATASET UNSTRUCTURED_GRID
POINTS 9235 double
3.320296e+05 -1.479713e+05 -5.000000e+04
3.230490e+05 -1.698867e+05 -2.450301e+04
3.473967e+05 -1.610091e+05 -2.499295e+04
3.230191e+05 -1.453594e+05 -2.376374e+04
3.000000e+05 -1.659466e+05 0.000000e+00
3.323841e+05 -1.500853e+05 0.000000e+00
3.000000e+05 -1.298234e+05 -5.000000e+04
3.211390e+05 -1.219510e+05 -2.456343e+04
3.000000e+05 -1.488492e+05 -2.774542e+04
3.000000e+05 -1.638587e+05 -5.000000e+04
-3.410447e+05 -3.313729e+05 -5.000000e+04
-3.562722e+05 -3.568159e+05 -2.596779e+04
-3.399470e+05 -3.173800e+05 -2.518749e+04
-3.709613e+05 -3.293268e+05 -2.460153e+04
8.320003e+04 -3.000000e+05 -2.235380e+04
1.000000e+05 -3.000000e+05 0.000000e+00
8.376766e+04 -3.323560e+05 0.000000e+00
1.022059e+05 -3.232166e+05 -2.436054e+04
9.218191e+04 -3.479439e+05 -2.506288e+04
7.450652e+04 -3.246631e+05 -2.586070e+04
8.376391e+04 -3.320935e+05 -5.000000e+04
1.000000e+05 -3.000000e+05 -5.000000e+04
6.666667e+04 -3.000000e+05 -5.000000e+04
4.909161e+04 -3.211949e+05 -2.159753e+04
-3.000000e+05 -2.284991e+05 -5.000000e+04
-3.319474e+05 -2.124896e+05 -5.000000e+04
-3.218152e+05 -2.373449e+05 -2.716838e+04
-3.186433e+05 -2.130922e+05 -3.089857e+04
3.680760e+05 -6.909438e+04 0.000000e+00
3.760404e+05 -8.535114e+04 -2.432411e+04
3.481610e+05 -6.095230e+04 -2.499963e+04
3.758419e+05 -5.047205e+04 -2.434620e+04
-3.000000e+05 -2.326501e+05 0.000000e+00
-3.000000e+05 -2.125115e+05 -2.265069e+04
-3.000000e+05 -1.989752e+05 0.000000e+00
-3.227151e+05 -1.919352e+05 -2.817559e+04
-3.324295e+05 -2.170264e+05 0.000000e+00
-2.490803e+05 -3.000000e+05 -2.221961e+04
-2.515393e+05 -3.324613e+05 0.000000e+00
-2.666667e+05 -3.000000e+05 0.000000e+00
-2.738346e+05 -3.252416e+05 -2.491374e+04
3.676956e+05 -6.866168e+04 -5.000000e+04
4.000000e+05 -8.695652e+04 -5.000000e+04
4.000000e+05 -5.217391e+04 -5.000000e+04
4.000000e+05 -6.957979e+04 -2.232138e+04
-2.333333e+05 -3.000000e+05 -5.000000e+04
-2.666667e+05 -3.000000e+05 -5.000000e+04
-2.512538e+05 -3.321783e+05 -5.000000e+04
-2.508504e+05 -3.238766e+05 -2.894778e+04
-2.288410e+05 -3.237531e+05 -2.554757e+04
-2.332968e+05 -3.501801e+05 -2.524712e+04
-1.499969e+05 -3.000000e+05 -2.764283e+04
-1.666667e+05 -3.000000e+05 0.000000e+00
-1.716166e+05 -3.233333e+05 -2.542063e+04
-1.478789e+05 -3.226382e+05 -2.533861e+04
-1.507909e+05 -3.323848e+05 0.000000e+00
-1.630826e+05 -3.498393e+05 -2.503121e+04
-1.507405e+05 -3.321164e+05 -5.000000e+04
-1.194653e+05 -3.220088e+05 -2.222167e+04
-1.333333e+05 -3.000000e+05 -5.000000e+04
-1.666667e+05 -3.000000e+05 -5.000000e+04
-1.043477e+05 4.000000e+05 -2.232281e+04
-1.038755e+05 3.680862e+05 0.000000e+00
-1.217391e+05 4.000000e+05 0.000000e+00
-1.224620e+05 3.788441e+05 -2.436654e+04
-1.217391e+05 4.000000e+05 -5.000000e+04
-9.211340e+04 3.779330e+05 -2.656844e+04
-6.923876e+04 -3.678233e+05 -5.000000e+04
-8.695652e+04 -4.000000e+05 -5.000000e+04
-5.217391e+04 -4.000000e+05 -5.000000e+04
-6.956714e+04 -4.000000e+05 -2.232106e+04
-1.249943e+05 3.519836e+05 -2.486759e+04
-1.038072e+05 3.678091e+05 -5.000000e+04
-1.739130e+04 -4.000000e+05 -5.000000e+04
-3.460350e+04 -3.678269e+05 -5.000000e+04
-3.478387e+04 -4.000000e+05 -2.232106e+04
-1.651509e+04 -3.754742e+05 -2.442335e+04
-8.376345e+04 3.320934e+05 -5.000000e+04
-1.000000e+05 3.000000e+05 -5.000000e+04
-8.343627e+04 3.000000e+05 -2.764981e+04
-1.026187e+05 3.239050e+05 -2.445309e+04
-6.666667e+04 3.000000e+05 -5.000000e+04
-5.147032e+04 3.217565e+05 -2.303829e+04
4.000000e+05 3.304348e+05 -5.000000e+04
4.000000e+05 3.130499e+05 -2.232112e+04
4.000000e+05 3.478935e+05 -2.235349e+04
3.674886e+05 3.295924e+05 -2.467361e+04
-6.033593e+04 3.477011e+05 -2.439908e+04
-7.701272e+04 3.234532e+05 -1.862781e+04
-8.379954e+04 3.323534e+05 0.000000e+00
-9.028036e+04 3.505284e+05 -2.483995e+04
3.000000e+05 -8.185378e+04 -2.769067e+04
3.000000e+05 -6.540655e+04 0.000000e+00
3.219834e+05 -9.262369e+04 -2.356665e+04
3.212381e+05 -6.353317e+04 -2.568389e+04
3.320030e+05 -7.972620e+04 -5.000000e+04
3.000000e+05 -4.823862e+04 -2.768751e+04
3.000000e+05 -6.175270e+04 -5.000000e+04
3.319980e+05 -4.560520e+04 -5.000000e+04
1.000000e+05 3.000000e+05 0.000000e+00
1.285319e+05 3.220153e+05 -2.330358e+04
1.166485e+05 3.000000e+05 -2.764255e+04
9.924408e+04 3.212454e+05 -2.557582e+04
1.172876e+05 3.321041e+05 -5.000000e+04
1.000000e+05 3.000000e+05 -5.000000e+04
1.172617e+05 3.323725e+05 0.000000e+00
1.739130e+04 -4.000000e+05 -5.000000e+04
3.478141e+04 -4.000000e+05 -2.232106e+04
3.460470e+04 -3.678270e+05 -5.000000e+04
1.646691e+04 -3.753828e+05 -2.432691e+04
9.656745e+04 3.481700e+05 -2.494853e+04
3.680819e+05 1.387484e+05 0.000000e+00
3.789347e+05 1.274418e+05 -2.657151e+04
3.531101e+05 1.597755e+05 -2.518599e+04
3.792098e+05 1.574583e+05 -2.441774e+04
4.000000e+05 1.565217e+05 0.000000e+00
4.000000e+05 1.391303e+05 -2.231930e+04
6.857177e+00 3.678309e+05 -5.000000e+04
1.673721e+04 3.320840e+05 -5.000000e+04
3.460423e+04 3.678269e+05 -5.000000e+04
2.880282e+04 3.508021e+05 -2.489257e+04
-3.461370e+04 -3.681008e+05 0.000000e+00
-1.739130e+04 -4.000000e+05 0.000000e+00
-1.676283e+04 3.320851e+05 -5.000000e+04
1.537478e+03 3.361402e+05 -2.528450e+04
3.679848e+05 1.390962e+05 -5.000000e+04
-4.999978e+04 -3.000000e+05 -2.235748e+04
-1.678469e+04 -3.000000e+05 -2.764887e+04
-1.676668e+04 -3.323444e+05 0.000000e+00
-5.499684e+04 -3.228669e+05 -2.776930e+04
4.000000e+05 1.565217e+05 -5.000000e+04
3.676239e+05 -2.421373e+05 -5.000000e+04
4.000000e+05 -2.434785e+05 -2.767896e+04
3.747803e+05 -2.281317e+05 -2.552755e+04
3.782485e+05 -2.607848e+05 -2.580555e+04
-3.128530e+05 -3.661813e+05 -5.000000e+04
-2.847026e+05 -3.321560e+05 -5.000000e+04
-3.161470e+05 -3.277621e+05 -5.000000e+04
-3.120399e+05 -3.401367e+05 -2.465985e+04
3.512666e+05 -2.655302e+05 -2.501422e+04
3.679951e+05 -2.423193e+05 0.000000e+00
4.000000e+05 -2.608696e+05 0.000000e+00
-1.455192e-10 3.000000e+05 -5.000000e+04
-1.665884e+04 3.000000e+05 -2.764283e+04
1.678621e+04 3.000000e+05 -2.764891e+04
3.000000e+05 -2.490234e+05 -2.248769e+04
3.324577e+05 -2.511100e+05 0.000000e+00
3.238293e+05 -2.640014e+05 -2.441041e+04
3.212088e+05 -2.325011e+05 -2.423874e+04
3.320637e+05 -2.503757e+05 -5.000000e+04
3.463683e+05 -2.303855e+05 -2.500317e+04
-3.698054e+05 -3.472763e+05 0.000000e+00
-3.663396e+05 -3.129808e+05 0.000000e+00
-3.315797e+05 -3.410949e+05 0.000000e+00
3.000000e+05 -2.319293e+05 -5.000000e+04
1.730839e+05 3.678997e+05 -5.000000e+04
1.571942e+05 3.749461e+05 -2.554585e+04
1.947972e+05 3.532715e+05 -2.489915e+04
1.912984e+05 3.786912e+05 -2.581857e+04
1.913043e+05 4.000000e+05 -5.000000e+04
1.739026e+05 4.000000e+05 -2.767885e+04
3.704421e+05 3.503181e+05 -5.000000e+04
-3.674293e+05 -2.066073e+05 -5.000000e+04
-3.494471e+05 -2.292202e+05 -2.526698e+04
-3.497009e+05 -1.977915e+05 -2.539897e+04
1.731007e+05 3.680556e+05 0.000000e+00
1.913043e+05 4.000000e+05 0.000000e+00
4.000000e+05 2.956522e+05 0.000000e+00
4.000000e+05 2.782599e+05 -2.232106e+04
3.700232e+05 2.952130e+05 -2.459328e+04
-2.177434e+05 -3.321524e+05 -5.000000e+04
-2.166738e+05 -3.000000e+05 -2.767207e+04
-2.002275e+05 -3.215730e+05 -2.585451e+04
-1.985707e+05 -3.482959e+05 -2.510962e+04
-2.179099e+05 -3.324288e+05 0.000000e+00
-2.000000e+05 -3.000000e+05 0.000000e+00
-4.000000e+05 -1.739130e+04 -5.000000e+04
-4.000000e+05 1.362271e+00 -2.232106e+04
-4.000000e+05 -3.478139e+04 -2.232106e+04
-3.764375e+05 -1.615686e+04 -2.441389e+04
-1.172644e+05 3.321057e+05 -5.000000e+04
-1.165333e+05 3.000000e+05 -2.235380e+04
-1.172626e+05 3.323723e+05 0.000000e+00
-1.351151e+05 3.242796e+05 -2.432698e+04
-1.000000e+05 3.000000e+05 0.000000e+00
3.000000e+05 -1.154172e+05 -2.769106e+04
3.000000e+05 -9.891990e+04 0.000000e+00
3.323674e+05 -1.164140e+05 0.000000e+00
3.494970e+05 -9.661460e+04 -2.478315e+04
3.320115e+05 -1.138445e+05 -5.000000e+04
3.000000e+05 -9.578803e+04 -5.000000e+04
-3.683842e+05 -3.117444e+05 -5.000000e+04
-3.704229e+05 -3.502942e+05 -5.000000e+04
-3.000000e+05 -1.676695e+04 -5.000000e+04
-3.000000e+05 -3.162526e+04 0.000000e+00
-3.000000e+05 1.537267e+03 0.000000e+00
-3.215156e+05 -1.436666e+04 -2.547447e+04
-2.627419e+05 -3.499829e+05 -2.513924e+04
-3.324526e+05 -2.845988e+05 0.000000e+00
-3.280582e+05 -3.160567e+05 0.000000e+00
-2.333333e+05 -3.000000e+05 0.000000e+00
-1.731007e+05 -3.680556e+05 0.000000e+00
-1.545447e+05 -3.761882e+05 -2.496605e+04
-1.738957e+05 -4.000000e+05 -2.758994e+04
-1.892592e+05 -3.758330e+05 -2.503546e+04
-2.077253e+05 -3.680332e+05 0.000000e+00
-2.238681e+05 -3.761511e+05 -2.500739e+04
-1.913043e+05 -4.000000e+05 -5.000000e+04
-2.086560e+05 -4.000000e+05 -2.240978e+04
-1.730589e+05 -3.677722e+05 -5.000000e+04
6.957979e+04 4.000000e+05 -2.232138e+04
5.217391e+04 4.000000e+05 0.000000e+00
3.478536e+04 4.000000e+05 -2.232108e+04
5.076709e+04 3.763881e+05 -2.432357e+04
5.217391e+04 4.000000e+05 -5.000000e+04
1.674987e+04 3.323474e+05 0.000000e+00
3.500461e+04 3.242904e+05 -2.486949e+04
3.461320e+04 3.681000e+05 0.000000e+00
4.999984e+04 3.000000e+05 -2.235747e+04
3.333333e+04 3.000000e+05 0.000000e+00
1.624297e+04 3.760050e+05 -2.438535e+04
-3.680268e+05 2.424010e+05 0.000000e+00
-3.501061e+05 2.289790e+05 -2.510660e+04
-3.680500e+05 2.077851e+05 0.000000e+00
-3.762767e+05 2.231686e+05 -2.569080e+04
6.044606e+04 3.500124e+05 -2.491520e+04
-1.731195e+05 3.680519e+05 0.000000e+00
-1.545405e+05 3.762789e+05 -2.429555e+04
-1.611352e+05 3.500581e+05 -2.482426e+04
-1.910310e+05 3.748826e+05 -2.441742e+04
-1.384382e+05 3.677954e+05 -5.000000e+04
-4.000000e+05 2.260870e+05 0.000000e+00
-4.000000e+05 2.086964e+05 -2.767894e+04
-1.565217e+05 4.000000e+05 -5.000000e+04
-1.391303e+05 4.000000e+05 -2.231930e+04
-1.739120e+05 4.000000e+05 -2.232105e+04
-2.883046e+05 -3.320639e+05 0.000000e+00
-3.323717e+05 -1.156481e+05 0.000000e+00
-3.489067e+05 -1.010526e+05 -2.439261e+04
-3.250615e+05 -9.110468e+04 -2.328549e+04
-3.294786e+05 -1.230635e+05 -2.464286e+04
-3.323844e+05 -1.494568e+05 0.000000e+00
-3.251662e+05 -1.633665e+05 -2.029037e+04
-3.493991e+05 -1.624016e+05 -2.470273e+04
-3.321718e+05 -1.418788e+05 -5.000000e+04
-3.535719e+05 -1.283076e+05 -2.471630e+04
-3.323741e+05 -4.867882e+04 0.000000e+00
-3.507639e+05 -2.517161e+04 -2.606585e+04
-3.447307e+05 -6.638987e+04 -2.623303e+04
-3.715224e+05 -5.077856e+04 -2.457192e+04
-2.789348e+05 -3.000000e+05 -2.516856e+04
-3.117835e+05 -3.117170e+05 -2.490518e+04
3.680861e+05 1.041109e+05 0.000000e+00
4.000000e+05 1.217391e+05 0.000000e+00
4.000000e+05 1.043477e+05 -2.232281e+04
-3.000000e+05 -4.500521e+04 -2.807319e+04
-3.312611e+05 -3.126792e+04 -5.000000e+04
3.681214e+05 1.733599e+05 0.000000e+00
3.679731e+05 1.735700e+05 -5.000000e+04
-4.000000e+05 2.608696e+05 0.000000e+00
-4.000000e+05 2.434785e+05 -2.767896e+04
-3.761850e+05 2.579568e+05 -2.567278e+04
3.679758e+05 1.045869e+05 -5.000000e+04
3.542163e+05 1.255098e+05 -2.318739e+04
3.780932e+05 9.342279e+04 -2.671696e+04
1.731179e+05 -3.680539e+05 0.000000e+00
1.590065e+05 -3.755910e+05 -2.431570e+04
1.921834e+05 -3.514106e+05 -2.482512e+04
1.937411e+05 -3.768166e+05 -2.430761e+04
2.077389e+05 -3.680332e+05 0.000000e+00
2.249631e+05 -3.503403e+05 -2.482026e+04
2.280611e+05 -3.764668e+05 -2.428637e+04
2.077249e+05 -3.678896e+05 -5.000000e+04
-3.699376e+05 -3.483507e+04 -5.000000e+04
-4.000000e+05 -5.217391e+04 -5.000000e+04
3.324653e+05 -2.846969e+05 0.000000e+00
3.471939e+05 -3.015214e+05 -2.502024e+04
3.280142e+05 -3.160947e+05 0.000000e+00
3.230773e+05 -2.953671e+05 -2.471242e+04
2.260870e+05 -4.000000e+05 0.000000e+00
2.086945e+05 -4.000000e+05 -2.232106e+04
2.333333e+05 -3.000000e+05 0.000000e+00
2.515884e+05 -3.324527e+05 0.000000e+00
2.178294e+05 -3.324303e+05 0.000000e+00
2.354343e+05 -3.240295e+05 -2.430907e+04
2.260870e+05 -4.000000e+05 -5.000000e+04
-2.260870e+05 4.000000e+05 -5.000000e+04
-2.076192e+05 3.677470e+05 -5.000000e+04
-2.086945e+05 4.000000e+05 -2.232106e+04
-2.257532e+05 3.773261e+05 -2.432666e+04
1.833235e+05 -3.000000e+05 -2.235694e+04
1.666667e+05 -3.000000e+05 0.000000e+00
1.507941e+05 -3.323846e+05 0.000000e+00
1.843081e+05 -3.324053e+05 0.000000e+00
-2.247510e+05 3.506342e+05 -2.483671e+04
-2.077411e+05 3.680376e+05 0.000000e+00
-2.260870e+05 4.000000e+05 0.000000e+00
-3.323592e+05 1.803079e+04 0.000000e+00
-3.323564e+05 -1.534688e+04 0.000000e+00
-3.681082e+05 1.584064e+02 0.000000e+00
-3.499222e+05 9.638674e+03 -2.484513e+04
-2.423250e+05 3.677158e+05 -5.000000e+04
-2.591693e+05 3.567428e+05 -2.484547e+04
3.323394e+05 1.192487e+05 0.000000e+00
3.492097e+05 9.367534e+04 -2.451329e+04
3.233561e+05 9.668107e+04 -2.095070e+04
3.283039e+05 1.308820e+05 -1.528225e+04
3.323858e+05 1.225850e+05 -5.000000e+04
3.000000e+05 1.021602e+05 0.000000e+00
-3.323756e+05 1.180902e+05 0.000000e+00
-3.503100e+05 1.247204e+05 -2.485119e+04
-3.323866e+05 1.514636e+05 0.000000e+00
-3.238339e+05 1.306448e+05 -2.452175e+04
-4.000000e+05 -1.217391e+05 0.000000e+00
-3.680643e+05 -1.036683e+05 0.000000e+00
-3.680322e+05 -1.383008e+05 0.000000e+00
-3.773165e+05 -1.197244e+05 -2.420089e+04
-3.699370e+05 -1.043474e+05 -5.000000e+04
-4.000000e+05 -1.217391e+05 -5.000000e+04
-3.674150e+05 -1.372841e+05 -5.000000e+04
-3.715920e+05 -8.556254e+04 -2.440160e+04
-4.000000e+05 -1.043477e+05 -2.232281e+04
-3.762678e+05 -1.541489e+05 -2.427729e+04
-3.324359e+05 1.785952e+05 -5.000000e+04
-3.237573e+05 2.000894e+05 -2.512409e+04
-3.501261e+05 1.944142e+05 -2.511071e+04
-3.239067e+05 1.650476e+05 -2.444106e+04
3.321875e+05 -2.161325e+05 -5.000000e+04
3.511920e+05 -1.938369e+05 -2.495695e+04
3.320469e+05 -1.820848e+05 -5.000000e+04
3.239752e+05 -2.010392e+05 -2.433316e+04
-3.000000e+05 1.780292e+05 -2.268827e+04
-3.000000e+05 1.944110e+05 -5.000000e+04
-3.000000e+05 1.423985e+05 -2.254379e+04
-3.000000e+05 1.592147e+05 -5.000000e+04
-3.324506e+05 1.434761e+05 -5.000000e+04
2.594116e+05 -3.508692e+05 -2.486125e+04
-3.502296e+05 1.597583e+05 -2.502195e+04
1.333333e+05 3.000000e+05 0.000000e+00
1.499967e+05 3.000000e+05 -2.764283e+04
1.613539e+05 3.216644e+05 -2.321070e+04
1.507909e+05 3.323848e+05 0.000000e+00
1.320399e+05 3.492346e+05 -2.480488e+04
1.507840e+05 3.322475e+05 -5.000000e+04
1.333333e+05 3.000000e+05 -5.000000e+04
-3.324024e+05 -1.833258e+05 0.000000e+00
-1.038414e+05 -3.678096e+05 -5.000000e+04
-8.534369e+04 -3.758700e+05 -2.429891e+04
-9.465254e+04 -3.474012e+05 -2.463900e+04
-1.199906e+05 -3.760737e+05 -2.431669e+04
-1.384781e+05 -3.680720e+05 0.000000e+00
-1.392358e+05 -4.000000e+05 -2.236131e+04
-1.038578e+05 -3.680873e+05 0.000000e+00
-1.301767e+05 -3.497555e+05 -2.467841e+04
-1.043576e+05 -4.000000e+05 -2.231937e+04
-1.217391e+05 -4.000000e+05 0.000000e+00
2.422782e+05 -3.677182e+05 -5.000000e+04
2.178587e+05 -3.321663e+05 -5.000000e+04
1.384965e+05 -3.680708e+05 0.000000e+00
1.565217e+05 -4.000000e+05 0.000000e+00
1.391303e+05 -4.000000e+05 -2.231930e+04
1.245671e+05 -3.763617e+05 -2.445221e+04
1.577684e+05 -3.458215e+05 -2.481822e+04
-3.322711e+05 2.135664e+05 -5.000000e+04
-3.678157e+05 2.070248e+05 -5.000000e+04
1.384711e+05 -3.677967e+05 -5.000000e+04
1.565217e+05 -4.000000e+05 -5.000000e+04
1.729917e+05 -3.679133e+05 -5.000000e+04
-4.000000e+05 1.739026e+05 -2.767885e+04
-4.000000e+05 1.565217e+05 0.000000e+00
-4.000000e+05 1.390093e+05 -2.763094e+04
-3.763249e+05 1.536796e+05 -2.567657e+04
-3.678240e+05 1.721958e+05 -5.000000e+04
-4.000000e+05 1.565217e+05 -5.000000e+04
-3.678127e+05 1.373449e+05 -5.000000e+04
-3.680901e+05 1.385746e+05 0.000000e+00
-3.762230e+05 1.189521e+05 -2.495058e+04
1.217391e+05 -4.000000e+05 -5.000000e+04
1.038118e+05 -3.678090e+05 -5.000000e+04
8.989897e+04 -3.761815e+05 -2.599342e+04
1.043477e+05 -4.000000e+05 -2.232281e+04
1.227640e+05 -3.494292e+05 -2.487453e+04
1.038746e+05 -3.680839e+05 0.000000e+00
1.217391e+05 -4.000000e+05 0.000000e+00
1.674277e+04 -3.323442e+05 0.000000e+00
3.463000e+04 -3.680990e+05 0.000000e+00
7.744455e+00 -3.681012e+05 0.000000e+00
2.894128e+04 -3.476093e+05 -2.453581e+04
-4.000000e+05 -1.391303e+05 -2.231930e+04
-4.000000e+05 -1.565217e+05 -5.000000e+04
-3.674551e+05 -1.718549e+05 -5.000000e+04
-4.000000e+05 -1.739120e+05 -2.232105e+04
-4.000000e+05 -1.565217e+05 0.000000e+00
-3.680143e+05 -1.729566e+05 0.000000e+00
1.739130e+04 4.000000e+05 0.000000e+00
1.362271e+00 4.000000e+05 -2.232106e+04
-1.676146e+04 3.753089e+05 -2.433371e+04
1.739130e+04 4.000000e+05 -5.000000e+04
3.325804e+05 1.861647e+05 0.000000e+00
3.503729e+05 1.965396e+05 -2.495717e+04
3.263981e+05 1.637456e+05 -2.756290e+04
3.000000e+05 1.829512e+05 -2.715993e+04
3.238781e+05 2.033175e+05 -2.558966e+04
3.323849e+05 1.551193e+05 -5.000000e+04
3.000000e+05 1.710792e+05 -5.000000e+04
3.000000e+05 1.388490e+05 -5.000000e+04
3.323963e+05 1.876480e+05 -5.000000e+04
-3.283254e+05 -6.941844e+04 -5.000000e+04
-3.218137e+05 -6.326416e+04 -2.003260e+04
5.026435e+04 -3.320894e+05 -5.000000e+04
5.010263e+04 -3.000000e+05 -2.764981e+04
-3.323820e+05 -8.213181e+04 0.000000e+00
-3.000000e+05 1.240184e+05 -5.000000e+04
-3.324516e+05 1.083255e+05 -5.000000e+04
-3.000000e+05 8.882203e+04 -5.000000e+04
-3.233020e+05 9.822691e+04 -2.682725e+04
-3.000000e+05 1.010248e+05 0.000000e+00
-3.323572e+05 8.476518e+04 0.000000e+00
-3.321230e+05 2.488342e+05 -5.000000e+04
-3.237270e+05 2.697227e+05 -2.427586e+04
-3.499119e+05 2.637136e+05 -2.497206e+04
-3.240139e+05 2.346234e+05 -2.504356e+04
-3.322040e+05 2.835976e+05 -5.000000e+04
-3.133980e+05 3.113905e+05 -2.511436e+04
-3.487618e+05 2.980619e+05 -2.525585e+04
-3.000000e+05 2.823494e+05 -2.286031e+04
-3.320733e+05 2.883554e+05 0.000000e+00
-5.068809e+04 -3.766011e+05 -2.436488e+04
-6.923637e+04 -3.680930e+05 0.000000e+00
-5.217391e+04 -4.000000e+05 0.000000e+00
-2.960819e+04 -3.480955e+05 -2.514930e+04
-6.057399e+04 -3.516746e+05 -2.518176e+04
3.680896e+05 6.946960e+04 0.000000e+00
4.000000e+05 6.956410e+04 -2.232106e+04
4.000000e+05 5.217391e+04 0.000000e+00
3.778196e+05 5.859678e+04 -2.658269e+04
3.678447e+05 7.006155e+04 -5.000000e+04
4.000000e+05 8.695652e+04 -5.000000e+04
4.000000e+05 8.695652e+04 0.000000e+00
1.739130e+04 -4.000000e+05 0.000000e+00
-1.208557e+00 -4.000000e+05 -2.232106e+04
2.165659e+05 -3.000000e+05 -2.235602e+04
2.000000e+05 -3.000000e+05 0.000000e+00
2.040081e+05 -3.239700e+05 -2.438171e+04
2.000000e+05 -3.000000e+05 -5.000000e+04
-2.000000e+05 3.000000e+05 0.000000e+00
-2.177787e+05 3.324359e+05 0.000000e+00
-1.843648e+05 3.324029e+05 0.000000e+00
-2.020740e+05 3.233539e+05 -2.430331e+04
-3.681034e+05 -3.444502e+04 0.000000e+00
-2.354124e+05 3.243590e+05 -2.435018e+04
-3.659266e+05 -2.927995e+05 -2.460185e+04
-3.493719e+05 -2.608610e+05 -2.515913e+04
-3.250266e+05 -2.720343e+05 -2.511175e+04
-2.178179e+05 3.321595e+05 -5.000000e+04
-1.932232e+05 3.477370e+05 -2.478718e+04
-2.165659e+05 3.000000e+05 -2.235602e+04
-1.842705e+05 3.321319e+05 -5.000000e+04
-2.000000e+05 3.000000e+05 -5.000000e+04
-1.833231e+05 3.000000e+05 -2.235694e+04
3.680524e+05 -1.383766e+05 0.000000e+00
4.000000e+05 -1.390093e+05 -2.763094e+04
4.000000e+05 -1.565217e+05 0.000000e+00
3.738336e+05 -1.640422e+05 -2.568353e+04
3.676656e+05 -1.379454e+05 -5.000000e+04
3.497742e+05 -1.295958e+05 -2.490070e+04
4.000000e+05 -1.739026e+05 -2.767885e+04
3.680364e+05 -1.730173e+05 0.000000e+00
4.000000e+05 -1.565217e+05 -5.000000e+04
5.217391e+04 -4.000000e+05 -5.000000e+04
5.103685e+04 -3.761483e+05 -2.433112e+04
6.925236e+04 -3.680933e+05 0.000000e+00
5.217391e+04 -4.000000e+05 0.000000e+00
6.097771e+04 -3.498672e+05 -2.491189e+04
2.517054e+05 -3.321795e+05 -5.000000e+04
2.492201e+05 -3.000000e+05 -2.223204e+04
2.694196e+05 -3.245456e+05 -2.468699e+04
3.323341e+05 8.558297e+04 0.000000e+00
3.227600e+05 7.100118e+04 -2.700122e+04
3.000000e+05 5.599414e+04 -2.229711e+04
3.322706e+05 3.642439e+04 -2.462118e+04
3.319747e+05 5.662831e+04 -5.000000e+04
3.000000e+05 8.469062e+04 -2.741458e+04
3.000000e+05 6.864685e+04 0.000000e+00
2.789500e+05 3.000000e+05 -2.482908e+04
2.492185e+05 3.000000e+05 -2.777191e+04
2.666667e+05 3.000000e+05 0.000000e+00
2.719602e+05 3.240499e+05 -2.492981e+04
2.512541e+05 3.321782e+05 -5.000000e+04
2.666667e+05 3.000000e+05 -5.000000e+04
2.846999e+05 3.321568e+05 -5.000000e+04
2.679531e+05 3.496532e+05 -2.425198e+04
2.515361e+05 3.324615e+05 0.000000e+00
1.384766e+05 3.678066e+05 -5.000000e+04
1.565217e+05 4.000000e+05 -5.000000e+04
1.390093e+05 4.000000e+05 -2.763094e+04
1.565217e+05 4.000000e+05 0.000000e+00
1.384781e+05 3.680720e+05 0.000000e+00
1.646956e+05 3.475355e+05 -2.484826e+04
3.000000e+05 -2.659647e+05 -5.000000e+04
3.000000e+05 -2.830545e+05 -2.279782e+04
3.320365e+05 -2.842315e+05 -5.000000e+04
3.000000e+05 -2.329733e+05 0.000000e+00
3.324280e+05 -2.174304e+05 0.000000e+00
3.000000e+05 2.018902e+05 0.000000e+00
3.326080e+05 2.191835e+05 0.000000e+00
3.324118e+05 2.202420e+05 -5.000000e+04
3.000000e+05 2.181861e+05 -2.776808e+04
3.000000e+05 2.033094e+05 -5.000000e+04
2.769794e+05 3.676731e+05 -5.000000e+04
2.995283e+05 3.535940e+05 -2.774146e+04
2.956522e+05 4.000000e+05 -5.000000e+04
2.679982e+05 3.761038e+05 -2.827783e+04
-4.000000e+05 -2.260870e+05 0.000000e+00
-3.680029e+05 -2.076147e+05 0.000000e+00
-3.679763e+05 -2.422690e+05 0.000000e+00
-3.761060e+05 -2.231915e+05 -2.438802e+04
-3.760815e+05 -1.887885e+05 -2.437679e+04
-4.000000e+05 -2.086945e+05 -2.232106e+04
-4.000000e+05 -2.260870e+05 -5.000000e+04
-4.000000e+05 -2.434771e+05 -2.232106e+04
1.172667e+05 -3.321072e+05 -5.000000e+04
1.166553e+05 -3.000000e+05 -2.235713e+04
3.680656e+05 -1.037356e+05 0.000000e+00
4.000000e+05 -1.044411e+05 -2.235722e+04
3.761296e+05 -1.203726e+05 -2.496304e+04
4.000000e+05 -1.217391e+05 -5.000000e+04
4.000000e+05 -1.217391e+05 0.000000e+00
6.666667e+04 -3.000000e+05 0.000000e+00
5.025498e+04 -3.323480e+05 0.000000e+00
3.333333e+04 -3.000000e+05 0.000000e+00
2.423612e+05 -3.680038e+05 0.000000e+00
2.609781e+05 -3.774227e+05 -2.431448e+04
2.434771e+05 -4.000000e+05 -2.232106e+04
3.000000e+05 2.208180e+04 -2.263338e+04
3.000000e+05 4.035329e+04 -5.000000e+04
2.608696e+05 -4.000000e+05 0.000000e+00
2.608696e+05 -4.000000e+05 -5.000000e+04
-4.000000e+05 2.608696e+05 -5.000000e+04
-4.000000e+05 2.782520e+05 -2.767911e+04
-3.678653e+05 2.770869e+05 0.000000e+00
-3.675472e+05 2.418345e+05 -5.000000e+04
2.770113e+05 -3.678523e+05 0.000000e+00
2.990547e+05 -3.557935e+05 -2.482263e+04
2.769653e+05 -3.676200e+05 -5.000000e+04
2.782599e+05 -4.000000e+05 -2.232106e+04
-3.674166e+05 -1.849439e+03 -5.000000e+04
-3.761718e+05 1.851347e+04 -2.429879e+04
-4.000000e+05 -1.739130e+04 0.000000e+00
4.000000e+05 -8.695652e+04 0.000000e+00
-3.000000e+05 1.086860e+05 -2.215615e+04
-3.509091e+05 8.515295e+04 -2.410316e+04
-3.000000e+05 8.137578e+04 -2.801972e+04
-3.321712e+05 7.306662e+04 -5.000000e+04
-3.000000e+05 1.341874e+05 0.000000e+00
-6.666667e+04 3.000000e+05 0.000000e+00
-5.025707e+04 3.323515e+05 0.000000e+00
-3.000000e+05 2.152102e+05 -2.772961e+04
-3.000000e+05 2.005124e+05 0.000000e+00
-3.000000e+05 2.336749e+05 0.000000e+00
-3.324312e+05 2.182807e+05 0.000000e+00
-3.333333e+04 3.000000e+05 0.000000e+00
-5.026427e+04 3.320896e+05 -5.000000e+04
-2.897358e+04 3.474711e+05 -2.463066e+04
-5.001574e+04 3.000000e+05 -2.764258e+04
4.000000e+05 -3.304348e+05 -5.000000e+04
3.696852e+05 -3.469675e+05 -5.000000e+04
4.000000e+05 -3.652174e+05 -5.000000e+04
3.777847e+05 -3.413064e+05 -2.627807e+04
3.661946e+05 -3.127901e+05 -5.000000e+04
3.663474e+05 -3.132902e+05 0.000000e+00
3.461527e+05 -3.388059e+05 -2.491601e+04
4.000000e+05 -3.304348e+05 0.000000e+00
4.000000e+05 -3.129524e+05 -2.768053e+04
3.503160e+05 -3.704280e+05 -5.000000e+04
3.727510e+05 -3.742247e+05 -2.442896e+04
3.694761e+05 -3.502454e+05 0.000000e+00
4.000000e+05 -3.652174e+05 0.000000e+00
4.000000e+05 -3.471153e+05 -2.775934e+04
3.000000e+05 -1.324332e+05 0.000000e+00
-8.321226e+04 -3.000000e+05 -2.764622e+04
-6.666667e+04 -3.000000e+05 0.000000e+00
-8.379869e+04 -3.323535e+05 0.000000e+00
-8.373929e+04 -3.320940e+05 -5.000000e+04
-6.666667e+04 -3.000000e+05 -5.000000e+04
-3.333333e+04 -3.000000e+05 -5.000000e+04
-3.333333e+04 -3.000000e+05 0.000000e+00
-5.025687e+04 -3.323516e+05 0.000000e+00
-1.687162e+05 3.237281e+05 -2.429760e+04
-1.507685e+05 3.321206e+05 -5.000000e+04
-1.666667e+05 3.000000e+05 -5.000000e+04
-1.499876e+05 3.000000e+05 -2.235711e+04
3.000000e+05 -1.401640e+04 -2.758025e+04
3.238500e+05 1.918295e+03 -2.504954e+04
3.323395e+05 -1.540013e+04 0.000000e+00
3.237441e+05 -3.221080e+04 -2.567385e+04
3.319790e+05 2.259202e+04 -5.000000e+04
3.501319e+05 7.681204e+03 -2.481192e+04
3.323331e+05 1.824617e+04 0.000000e+00
3.000000e+05 1.620150e+03 0.000000e+00
3.000000e+05 6.317960e+03 -5.000000e+04
3.319836e+05 -1.148350e+04 -5.000000e+04
-4.000000e+05 2.260870e+05 -5.000000e+04
3.498507e+05 -2.452112e+04 -2.502180e+04
-1.000000e+05 -3.000000e+05 -5.000000e+04
-1.172397e+05 -3.321035e+05 -5.000000e+04
-1.166485e+05 -3.000000e+05 -2.764255e+04
-4.000000e+05 3.478536e+04 -2.232108e+04
-4.000000e+05 5.217391e+04 0.000000e+00
-3.681122e+05 3.476335e+04 0.000000e+00
-3.760873e+05 5.326244e+04 -2.425450e+04
-3.674598e+05 3.273510e+04 -5.000000e+04
-3.674737e+05 6.753718e+04 -5.000000e+04
-3.781265e+05 8.619362e+04 -2.408459e+04
-4.000000e+05 6.957979e+04 -2.232138e+04
-4.000000e+05 5.217391e+04 -5.000000e+04
3.681472e+05 2.079604e+05 0.000000e+00
3.681188e+05 2.425277e+05 0.000000e+00
4.000000e+05 2.260870e+05 0.000000e+00
3.737946e+05 2.335855e+05 -2.431228e+04
4.000000e+05 2.260870e+05 -5.000000e+04
3.679488e+05 2.080638e+05 -5.000000e+04
4.000000e+05 2.086945e+05 -2.232106e+04
3.680460e+05 2.771856e+05 0.000000e+00
4.000000e+05 2.434771e+05 -2.232106e+04
3.677806e+05 2.771319e+05 -5.000000e+04
3.679115e+05 2.425609e+05 -5.000000e+04
3.504390e+05 2.635740e+05 -2.500318e+04
3.475308e+05 2.297118e+05 -2.486822e+04
-1.730920e+05 3.677751e+05 -5.000000e+04
-1.913043e+05 4.000000e+05 -5.000000e+04
-1.913043e+05 4.000000e+05 0.000000e+00
3.000000e+05 -1.812272e+05 -2.243815e+04
3.324042e+05 -1.837572e+05 0.000000e+00
3.000000e+05 3.513350e+04 0.000000e+00
-6.956410e+04 4.000000e+05 -2.232106e+04
-6.925390e+04 3.680922e+05 0.000000e+00
-8.695652e+04 4.000000e+05 0.000000e+00
-1.384959e+05 3.680704e+05 0.000000e+00
-6.923740e+04 3.678235e+05 -5.000000e+04
-5.576916e+04 3.762795e+05 -2.604232e+04
3.326450e+05 2.521588e+05 0.000000e+00
3.239358e+05 2.702911e+05 -2.480100e+04
3.234958e+05 2.370624e+05 -2.489401e+04
3.000000e+05 2.345935e+05 0.000000e+00
3.324543e+05 2.529173e+05 -5.000000e+04
3.000000e+05 2.355396e+05 -5.000000e+04
3.000000e+05 2.504516e+05 -2.190148e+04
3.680898e+05 1.877167e+02 0.000000e+00
3.744947e+05 2.126666e+04 -2.449476e+04
3.762693e+05 -1.547825e+04 -2.434879e+04
3.680838e+05 -3.445303e+04 0.000000e+00
3.677188e+05 7.287769e+02 -5.000000e+04
4.000000e+05 -1.362271e+00 -2.232106e+04
4.000000e+05 -1.739130e+04 0.000000e+00
4.000000e+05 -3.478536e+04 -2.232108e+04
-3.318978e+05 -2.482288e+05 -5.000000e+04
-3.000000e+05 -2.483605e+05 -2.772840e+04
2.882149e+05 -3.318438e+05 -5.000000e+04
3.108914e+05 -3.236644e+05 -2.499399e+04
2.789502e+05 -3.000000e+05 -2.517088e+04
2.666667e+05 -3.000000e+05 -5.000000e+04
2.666667e+05 -3.000000e+05 0.000000e+00
2.882915e+05 -3.320621e+05 0.000000e+00
-4.000000e+05 1.217391e+05 -5.000000e+04
-3.676427e+05 1.022915e+05 -5.000000e+04
-4.000000e+05 1.217391e+05 0.000000e+00
-3.681035e+05 1.039715e+05 0.000000e+00
-4.000000e+05 1.044411e+05 -2.235722e+04
4.000000e+05 1.913043e+05 0.000000e+00
4.000000e+05 1.739120e+05 -2.232105e+04
3.764012e+05 1.898610e+05 -2.430996e+04
4.000000e+05 1.913043e+05 -5.000000e+04
1.666667e+05 3.000000e+05 0.000000e+00
1.951616e+05 3.233433e+05 -2.341676e+04
1.833301e+05 3.000000e+05 -2.764286e+04
1.842465e+05 3.321498e+05 -5.000000e+04
1.843130e+05 3.324055e+05 0.000000e+00
-4.000000e+05 3.129524e+05 -2.768053e+04
-3.686836e+05 3.117864e+05 0.000000e+00
-4.000000e+05 2.956522e+05 0.000000e+00
-3.757502e+05 2.931409e+05 -2.570837e+04
-4.000000e+05 2.956522e+05 -5.000000e+04
-3.676696e+05 2.766747e+05 -5.000000e+04
3.677042e+05 -3.389078e+04 -5.000000e+04
-2.076669e+05 -3.677464e+05 -5.000000e+04
-2.422763e+05 -3.677157e+05 -5.000000e+04
-2.260870e+05 -4.000000e+05 -5.000000e+04
-1.913043e+05 -4.000000e+05 0.000000e+00
-2.423632e+05 -3.680118e+05 0.000000e+00
-2.260870e+05 -4.000000e+05 0.000000e+00
-2.433455e+05 -4.000000e+05 -2.762913e+04
-3.000000e+05 -1.038360e+05 -2.320079e+04
-3.000000e+05 -6.478778e+04 0.000000e+00
-3.439419e+05 -8.692451e+04 -5.000000e+04
1.217391e+05 4.000000e+05 -5.000000e+04
1.044411e+05 4.000000e+05 -2.235722e+04
1.204511e+05 3.759608e+05 -2.495633e+04
1.217391e+05 4.000000e+05 0.000000e+00
1.038578e+05 3.680873e+05 0.000000e+00
8.554820e+04 3.758900e+05 -2.433776e+04
1.038119e+05 3.678075e+05 -5.000000e+04
-1.333333e+05 3.000000e+05 0.000000e+00
-1.507965e+05 3.323846e+05 0.000000e+00
4.000000e+05 -2.260870e+05 -5.000000e+04
4.000000e+05 -2.086964e+05 -2.767894e+04
3.677676e+05 -2.073069e+05 -5.000000e+04
3.680174e+05 -2.076594e+05 0.000000e+00
4.000000e+05 -2.260870e+05 0.000000e+00
3.675924e+05 -2.768653e+05 -5.000000e+04
4.000000e+05 -2.608696e+05 -5.000000e+04
-3.000000e+05 -2.642495e+05 -5.000000e+04
-3.315612e+05 -2.870977e+05 -5.000000e+04
-3.000000e+05 -2.822320e+05 -2.302012e+04
-2.608696e+05 -4.000000e+05 0.000000e+00
-2.782401e+05 -4.000000e+05 -2.767902e+04
-2.582196e+05 -3.761066e+05 -2.561565e+04
-2.771049e+05 -3.678525e+05 0.000000e+00
-2.926873e+05 -3.661492e+05 -2.544359e+04
-2.608696e+05 -4.000000e+05 -5.000000e+04
-2.769789e+05 -3.676730e+05 -5.000000e+04
2.179096e+05 3.324288e+05 0.000000e+00
2.298367e+05 3.461034e+05 -2.499425e+04
2.177452e+05 3.321517e+05 -5.000000e+04
2.000000e+05 3.000000e+05 0.000000e+00
2.166042e+05 3.000000e+05 -2.764239e+04
2.000000e+05 3.000000e+05 -5.000000e+04
-1.333333e+05 -3.000000e+05 0.000000e+00
-1.739130e+04 4.000000e+05 -5.000000e+04
-1.000000e+05 -3.000000e+05 0.000000e+00
-1.172617e+05 -3.323725e+05 0.000000e+00
-3.000000e+05 2.648037e+05 -5.000000e+04
-3.000000e+05 2.478684e+05 -2.246818e+04
-3.324670e+05 2.517626e+05 0.000000e+00
1.172807e+05 -3.323682e+05 0.000000e+00
-3.000000e+05 2.296073e+05 -5.000000e+04
4.000000e+05 -5.217391e+04 0.000000e+00
-3.324074e+05 1.848350e+05 0.000000e+00
-2.492201e+05 3.000000e+05 -2.223204e+04
-2.513373e+05 3.324609e+05 0.000000e+00
-2.333333e+05 3.000000e+05 0.000000e+00
-2.517034e+05 3.321732e+05 -5.000000e+04
-2.333333e+05 3.000000e+05 -5.000000e+04
-2.711912e+05 3.266701e+05 -2.489217e+04
4.000000e+05 1.217391e+05 -5.000000e+04
8.695652e+04 -4.000000e+05 0.000000e+00
-4.000000e+05 1.913043e+05 0.000000e+00
-3.680735e+05 1.731789e+05 0.000000e+00
-3.763062e+05 1.884434e+05 -2.569324e+04
4.000000e+05 -2.956522e+05 -5.000000e+04
4.000000e+05 -2.782520e+05 -2.767911e+04
3.756501e+05 -2.916852e+05 -2.561711e+04
6.923751e+04 -3.678235e+05 -5.000000e+04
6.956410e+04 -4.000000e+05 -2.232106e+04
8.695652e+04 -4.000000e+05 -5.000000e+04
-1.470007e+02 -3.368097e+05 -2.527620e+04
6.340486e-01 -3.678326e+05 -5.000000e+04
3.000000e+05 -2.150509e+05 -2.248841e+04
3.000000e+05 -1.978940e+05 -5.000000e+04
-3.674131e+05 -2.416500e+05 -5.000000e+04
-3.758368e+05 -2.577759e+05 -2.445071e+04
-3.679440e+05 -2.770299e+05 0.000000e+00
-4.000000e+05 -2.782599e+05 -2.232106e+04
-4.000000e+05 -2.608696e+05 0.000000e+00
6.923623e+04 3.680926e+05 0.000000e+00
8.695652e+04 4.000000e+05 0.000000e+00
2.422827e+05 3.677158e+05 -5.000000e+04
2.608696e+05 4.000000e+05 -5.000000e+04
2.608696e+05 4.000000e+05 0.000000e+00
2.771027e+05 3.678569e+05 0.000000e+00
2.423629e+05 3.680119e+05 0.000000e+00
3.128480e+05 3.662080e+05 -5.000000e+04
2.956522e+05 4.000000e+05 0.000000e+00
2.782520e+05 4.000000e+05 -2.767911e+04
3.121717e+05 3.686941e+05 0.000000e+00
-3.694624e+05 3.502041e+05 -5.000000e+04
-3.724225e+05 3.729664e+05 -3.466954e+04
-3.701471e+05 3.317097e+05 -2.552564e+04
-3.496816e+05 3.515437e+05 -2.475937e+04
-3.470017e+05 3.709660e+05 -5.000000e+04
-3.314625e+05 3.409752e+05 -5.000000e+04
-3.330689e+05 3.737089e+05 -2.580206e+04
-3.709768e+05 3.470258e+05 0.000000e+00
-3.732688e+05 3.723178e+05 -1.558399e+04
-3.367413e+05 3.238052e+05 -2.484433e+04
-3.166313e+05 3.433127e+05 -2.384237e+04
-3.410676e+05 3.315303e+05 0.000000e+00
3.679565e+05 -2.771494e+05 0.000000e+00
4.000000e+05 -2.956522e+05 0.000000e+00
2.260870e+05 4.000000e+05 -5.000000e+04
2.434785e+05 4.000000e+05 -2.767896e+04
2.242946e+05 3.755057e+05 -2.561391e+04
2.260870e+05 4.000000e+05 0.000000e+00
2.077253e+05 3.680332e+05 0.000000e+00
2.086964e+05 4.000000e+05 -2.767894e+04
-3.000000e+05 -1.653002e+05 0.000000e+00
-3.000000e+05 -1.829901e+05 -2.729017e+04
-3.321594e+05 -1.771591e+05 -5.000000e+04
-1.842416e+05 -3.321326e+05 -5.000000e+04
-1.833367e+05 -3.000000e+05 -2.764282e+04
-3.681074e+05 6.936799e+04 0.000000e+00
-4.000000e+05 8.695652e+04 0.000000e+00
-2.882575e+05 3.318080e+05 -5.000000e+04
-2.666667e+05 3.000000e+05 -5.000000e+04
-2.847890e+05 3.324722e+05 0.000000e+00
-2.789502e+05 3.000000e+05 -2.517088e+04
-2.666667e+05 3.000000e+05 0.000000e+00
8.374139e+04 3.320925e+05 -5.000000e+04
6.666667e+04 3.000000e+05 -5.000000e+04
8.321226e+04 3.000000e+05 -2.764622e+04
6.828130e+04 3.238767e+05 -2.505696e+04
6.666667e+04 3.000000e+05 0.000000e+00
8.379885e+04 3.323535e+05 0.000000e+00
3.321360e+05 2.887407e+05 -5.000000e+04
3.000000e+05 2.677698e+05 -5.000000e+04
3.415372e+05 3.094832e+05 -2.509776e+04
3.113248e+05 3.129502e+05 -2.525417e+04
3.324998e+05 2.850782e+05 0.000000e+00
3.000000e+05 2.791997e+05 -2.519777e+04
3.000000e+05 2.672967e+05 0.000000e+00
-5.217391e+04 4.000000e+05 0.000000e+00
-3.463078e+04 3.680998e+05 0.000000e+00
-3.460566e+04 3.678289e+05 -5.000000e+04
-5.217391e+04 4.000000e+05 -5.000000e+04
3.280905e+05 -3.158678e+05 -5.000000e+04
3.315439e+05 -3.410357e+05 -5.000000e+04
-8.695652e+04 4.000000e+05 -5.000000e+04
-3.478139e+04 4.000000e+05 -2.232106e+04
-4.000000e+05 1.739130e+04 0.000000e+00
1.499999e+05 -3.000000e+05 -2.235712e+04
1.333333e+05 -3.000000e+05 0.000000e+00
1.323830e+05 -3.229520e+05 -2.430599e+04
1.507705e+05 -3.321290e+05 -5.000000e+04
-1.565217e+05 -4.000000e+05 0.000000e+00
3.677284e+05 3.544677e+04 -5.000000e+04
4.000000e+05 3.478139e+04 -2.232106e+04
4.000000e+05 1.739130e+04 0.000000e+00
4.000000e+05 1.739130e+04 -5.000000e+04
3.000000e+05 -3.189320e+04 0.000000e+00
3.000000e+05 -2.771737e+04 -5.000000e+04
-4.000000e+05 -1.913043e+05 -5.000000e+04
-9.455174e+00 3.681012e+05 0.000000e+00
-1.739130e+04 4.000000e+05 0.000000e+00
3.000000e+05 -3.000000e+05 -5.000000e+04
3.000000e+05 -3.000000e+05 0.000000e+00
3.333333e+04 3.000000e+05 -5.000000e+04
5.025790e+04 3.323481e+05 0.000000e+00
5.023841e+04 3.320888e+05 -5.000000e+04
-3.662634e+05 3.129802e+05 -5.000000e+04
-3.284472e+05 3.156462e+05 -5.000000e+04
3.676798e+05 -1.033106e+05 -5.000000e+04
3.558571e+05 3.577578e+05 -2.572528e+04
3.411148e+05 3.316594e+05 -5.000000e+04
3.503283e+05 3.704446e+05 0.000000e+00
3.315896e+05 3.411665e+05 0.000000e+00
3.299911e+05 3.700883e+05 -2.554228e+04
-3.321756e+05 2.845820e+03 -5.000000e+04
-3.439778e+05 -5.218004e+04 -5.000000e+04
-3.000000e+05 1.673499e+05 0.000000e+00
3.501648e+05 5.942959e+04 -2.528813e+04
6.923633e+04 3.678232e+05 -5.000000e+04
-4.000000e+05 3.471153e+05 -2.775934e+04
-4.000000e+05 4.000000e+05 0.000000e+00
-3.823443e+05 4.000000e+05 -2.731890e+04
-3.652174e+05 4.000000e+05 0.000000e+00
-3.478935e+05 4.000000e+05 -2.235349e+04
-4.000000e+05 3.785390e+05 -2.489047e+04
-4.000000e+05 3.652174e+05 0.000000e+00
-2.956522e+05 -4.000000e+05 0.000000e+00
-3.121750e+05 -3.686897e+05 0.000000e+00
-3.293325e+05 -3.671216e+05 -2.536873e+04
-2.956522e+05 -4.000000e+05 -5.000000e+04
2.882639e+05 3.320922e+05 0.000000e+00
5.093170e-11 -3.000000e+05 0.000000e+00
-3.226610e+05 2.105968e+04 -2.290067e+04
-3.000000e+05 3.469979e+04 0.000000e+00
-3.323555e+05 5.137996e+04 0.000000e+00
-3.220015e+05 5.817008e+04 -2.498712e+04
-3.000000e+05 1.842938e+04 -5.000000e+04
-3.497577e+05 4.496463e+04 -2.465259e+04
-3.321690e+05 3.790543e+04 -5.000000e+04
-3.469745e+05 -3.696720e+05 -5.000000e+04
-3.471153e+05 -4.000000e+05 -2.775934e+04
-3.503254e+05 -3.704403e+05 0.000000e+00
-3.304348e+05 -4.000000e+05 0.000000e+00
3.323437e+05 -4.907221e+04 0.000000e+00
3.323539e+05 -8.274308e+04 0.000000e+00
-3.502322e+05 3.694716e+05 0.000000e+00
-4.000000e+05 3.304348e+05 -5.000000e+04
3.260797e+05 3.364898e+05 -2.536868e+04
3.161196e+05 3.280247e+05 -5.000000e+04
3.323919e+05 8.996816e+04 -5.000000e+04
3.323321e+05 5.191321e+04 0.000000e+00
-3.652174e+05 -4.000000e+05 -5.000000e+04
-4.000000e+05 -4.000000e+05 0.000000e+00
-3.785390e+05 -4.000000e+05 -2.489047e+04
-4.000000e+05 -3.823443e+05 -2.731890e+04
-3.764460e+05 -3.742999e+05 -2.129766e+04
-4.000000e+05 -3.478935e+05 -2.235349e+04
-3.652174e+05 -4.000000e+05 0.000000e+00
-4.000000e+05 8.695652e+04 -5.000000e+04
-3.680872e+05 -6.905149e+04 0.000000e+00
-4.000000e+05 -6.956410e+04 -2.232106e+04
-3.699902e+05 -6.956816e+04 -5.000000e+04
4.000000e+05 -4.000000e+05 -5.000000e+04
3.652174e+05 -4.000000e+05 -5.000000e+04
3.823443e+05 -4.000000e+05 -2.731890e+04
3.652174e+05 -4.000000e+05 0.000000e+00
4.000000e+05 -4.000000e+05 0.000000e+00
-4.000000e+05 -3.304348e+05 -5.000000e+04
-3.000000e+05 -3.000000e+05 0.000000e+00
3.278659e+05 3.164259e+05 0.000000e+00
-2.945006e+05 3.670894e+05 -2.446398e+04
-2.768680e+05 3.676148e+05 -5.000000e+04
-2.434771e+05 4.000000e+05 -2.232106e+04
-2.782599e+05 4.000000e+05 -2.232106e+04
-2.423601e+05 3.680073e+05 0.000000e+00
-2.608696e+05 4.000000e+05 0.000000e+00
-2.771013e+05 3.679669e+05 0.000000e+00
-3.000000e+05 3.000000e+05 -5.000000e+04
-3.000000e+05 3.000000e+05 0.000000e+00
-3.161332e+05 3.279792e+05 0.000000e+00
-3.131889e+05 3.663436e+05 0.000000e+00
-3.304348e+05 4.000000e+05 -5.000000e+04
-3.130499e+05 4.000000e+05 -2.232112e+04
-3.304348e+05 4.000000e+05 0.000000e+00
-1.333333e+05 3.000000e+05 -5.000000e+04
3.315091e+05 -3.410604e+05 0.000000e+00
3.118095e+05 -3.686794e+05 0.000000e+00
3.316857e+05 -3.715572e+05 -2.469333e+04
3.130499e+05 -4.000000e+05 -2.232112e+04
1.739120e+05 -4.000000e+05 -2.232105e+04
1.842645e+05 -3.323929e+05 -5.000000e+04
3.680906e+05 3.482819e+04 0.000000e+00
1.666667e+05 3.000000e+05 -5.000000e+04
-1.673681e+04 -3.320845e+05 -5.000000e+04
2.910383e-11 -3.000000e+05 -5.000000e+04
-5.023842e+04 -3.320889e+05 -5.000000e+04
3.469444e+05 -3.709697e+05 0.000000e+00
-1.676046e+04 3.323412e+05 0.000000e+00
-3.673718e+05 -2.765155e+05 -5.000000e+04
-4.000000e+05 -2.956522e+05 -5.000000e+04
3.323491e+05 1.528569e+05 0.000000e+00
-3.000000e+05 5.362570e+04 -5.000000e+04
-3.000000e+05 6.786232e+04 0.000000e+00
3.662367e+05 3.129724e+05 0.000000e+00
3.685626e+05 3.120601e+05 -5.000000e+04
4.000000e+05 2.956522e+05 -5.000000e+04
4.000000e+05 4.000000e+05 0.000000e+00
4.000000e+05 3.652174e+05 0.000000e+00
3.652174e+05 4.000000e+05 0.000000e+00
3.762454e+05 3.750883e+05 -2.155808e+04
3.652174e+05 4.000000e+05 -5.000000e+04
4.000000e+05 3.652174e+05 -5.000000e+04
4.000000e+05 3.823443e+05 -2.731890e+04
3.698059e+05 3.472734e+05 0.000000e+00
3.785390e+05 4.000000e+05 -2.489047e+04
-8.695652e+04 -4.000000e+05 0.000000e+00
4.000000e+05 -1.739130e+04 -5.000000e+04
1.667182e+04 -3.000000e+05 -2.764257e+04
4.000000e+05 -1.913043e+05 0.000000e+00
3.676538e+05 -1.727396e+05 -5.000000e+04
-4.000000e+05 3.652174e+05 -5.000000e+04
-3.652174e+05 4.000000e+05 -5.000000e+04
-4.000000e+05 4.000000e+05 -5.000000e+04
-1.666667e+05 3.000000e+05 0.000000e+00
-2.956522e+05 4.000000e+05 -5.000000e+04
-3.115858e+05 3.684755e+05 -5.000000e+04
4.000000e+05 -1.913043e+05 -5.000000e+04
-3.324502e+05 -2.508874e+05 0.000000e+00
1.676292e+04 -3.320847e+05 -5.000000e+04
3.333333e+04 -3.000000e+05 -5.000000e+04
-1.565217e+05 -4.000000e+05 -5.000000e+04
-1.384500e+05 -3.677932e+05 -5.000000e+04
-1.843130e+05 -3.324055e+05 0.000000e+00
-1.565217e+05 4.000000e+05 0.000000e+00
3.304348e+05 -4.000000e+05 -5.000000e+04
3.478935e+05 -4.000000e+05 -2.235349e+04
3.471153e+05 4.000000e+05 -2.775934e+04
3.304348e+05 4.000000e+05 0.000000e+00
3.129524e+05 4.000000e+05 -2.768053e+04
3.304348e+05 4.000000e+05 -5.000000e+04
3.000000e+05 -2.664866e+05 0.000000e+00
2.077156e+05 3.677497e+05 -5.000000e+04
-5.093170e-11 3.000000e+05 0.000000e+00
1.913043e+05 -4.000000e+05 0.000000e+00
1.333333e+05 -3.000000e+05 -5.000000e+04
-2.000000e+05 -3.000000e+05 -5.000000e+04
3.000000e+05 3.000000e+05 -5.000000e+04
3.000000e+05 -1.994599e+05 0.000000e+00
-4.000000e+05 1.739130e+04 -5.000000e+04
-3.312555e+05 -1.078189e+05 -5.000000e+04
-1.217391e+05 -4.000000e+05 -5.000000e+04
2.333333e+05 -3.000000e+05 -5.000000e+04
-4.000000e+05 -8.695652e+04 0.000000e+00
-4.000000e+05 -8.695652e+04 -5.000000e+04
-4.000000e+05 -3.130499e+05 -2.232112e+04
-3.000000e+05 -8.715961e+04 -5.000000e+04
3.119848e+05 -3.684872e+05 -5.000000e+04
-3.000000e+05 -3.000000e+05 -5.000000e+04
-3.304348e+05 -4.000000e+05 -5.000000e+04
-3.129520e+05 -4.000000e+05 -2.768053e+04
8.695652e+04 4.000000e+05 -5.000000e+04
2.333333e+05 3.000000e+05 0.000000e+00
-2.956522e+05 4.000000e+05 0.000000e+00
3.472622e+05 3.698070e+05 -5.000000e+04
-3.000000e+05 -2.663251e+05 0.000000e+00
4.000000e+05 4.000000e+05 -5.000000e+04
4.000000e+05 -3.785390e+05 -2.489047e+04
3.304348e+05 -4.000000e+05 0.000000e+00
1.666667e+05 -3.000000e+05 -5.000000e+04
-3.333333e+04 3.000000e+05 -5.000000e+04
-3.000000e+05 -7.176096e+04 -2.210995e+04
-4.000000e+05 -3.652174e+05 -5.000000e+04
-4.000000e+05 -4.000000e+05 -5.000000e+04
4.000000e+05 3.304348e+05 0.000000e+00
-2.608696e+05 4.000000e+05 -5.000000e+04
-4.000000e+05 1.913043e+05 -5.000000e+04
4.000000e+05 2.608696e+05 0.000000e+00
4.000000e+05 5.217391e+04 -5.000000e+04
2.956522e+05 -4.000000e+05 -5.000000e+04
3.000000e+05 3.000000e+05 0.000000e+00
-3.000000e+05 -5.196328e+04 -5.000000e+04
1.913043e+05 -4.000000e+05 -5.000000e+04
-3.000000e+05 -1.223559e+05 -5.000000e+04
-4.000000e+05 -1.913043e+05 0.000000e+00
2.956522e+05 -4.000000e+05 0.000000e+00
-4.000000e+05 -3.652174e+05 0.000000e+00
2.333333e+05 3.000000e+05 -5.000000e+04
-4.000000e+05 -2.608696e+05 -5.000000e+04
-4.000000e+05 -5.217391e+04 0.000000e+00
-4.000000e+05 -3.304348e+05 0.000000e+00
-3.000000e+05 2.668375e+05 0.000000e+00
-4.000000e+05 -2.956522e+05 0.000000e+00
3.000000e+05 1.356736e+05 0.000000e+00
4.000000e+05 2.608696e+05 -5.000000e+04
-4.000000e+05 3.304348e+05 0.000000e+00
-3.063457e+05 -2.024790e+05 -4.426077e+04
-3.000000e+05 -2.026301e+05 -3.632534e+04
-3.111463e+05 -1.950475e+05 -3.897904e+04
-3.000000e+05 -1.878693e+05 -3.864508e+04
-3.160797e+05 -1.849538e+05 -5.000000e+04
-3.000000e+05 -2.106238e+05 -5.000000e+04
-3.000000e+05 -1.720696e+05 -3.031175e+04
-3.116603e+05 -1.675784e+05 -4.089358e+04
-3.000000e+05 -1.751504e+05 -5.000000e+04
-3.000000e+05 -1.575523e+05 -5.000000e+04
-3.000000e+05 -1.593507e+05 -4.166667e+04
-3.159737e+05 -2.026191e+05 -5.000000e+04
-3.000000e+05 -8.485563e+04 -1.105497e+04
-3.118670e+05 -9.380434e+04 -1.203731e+04
-3.130891e+05 -7.897049e+04 -1.053248e+04
-3.161910e+05 -9.004106e+04 0.000000e+00
-3.000000e+05 -8.136905e+04 0.000000e+00
-3.000000e+05 -1.008931e+05 -1.160040e+04
-3.000000e+05 -1.166929e+05 -1.993373e+04
-3.161858e+05 -1.067992e+05 0.000000e+00
-3.115039e+05 -1.218258e+05 -8.346628e+03
-3.000000e+05 -1.147878e+05 0.000000e+00
-3.000000e+05 -1.316253e+05 0.000000e+00
-3.000000e+05 -1.305875e+05 -8.333333e+03
3.146143e+05 1.349445e+05 -1.624165e+04
3.106134e+05 1.510628e+05 -4.369146e+03
3.000000e+05 1.366305e+05 -8.333333e+03
3.000000e+05 1.524302e+05 0.000000e+00
3.150459e+05 1.625460e+05 -1.122399e+04
3.000000e+05 1.760691e+05 -1.357997e+04
3.162902e+05 1.776758e+05 0.000000e+00
3.161745e+05 1.610219e+05 0.000000e+00
3.104026e+05 1.535879e+05 -2.404985e+04
3.000000e+05 1.602694e+05 -2.191330e+04
3.000000e+05 1.855385e+05 0.000000e+00
3.101809e+05 7.329692e+04 -3.945893e+04
3.000000e+05 6.519138e+04 -3.614855e+04
3.159874e+05 6.550846e+04 -5.000000e+04
3.000000e+05 7.953962e+04 -3.870729e+04
3.161959e+05 8.217839e+04 -5.000000e+04
3.000000e+05 9.050372e+04 -5.000000e+04
3.000000e+05 1.063034e+05 -4.166667e+04
3.000000e+05 1.066188e+05 -5.000000e+04
3.125659e+05 9.981851e+04 -3.875643e+04
3.000000e+05 9.533933e+04 -3.037395e+04
3.000000e+05 5.737095e+04 -5.000000e+04
-3.115493e+05 -1.610683e+05 -2.398051e+04
-3.144704e+05 -1.432229e+05 -2.146171e+04
-3.129051e+05 -1.523282e+05 -3.728779e+04
-3.094561e+05 -1.356463e+05 -3.213334e+04
-3.000000e+05 -1.632247e+05 -1.666667e+04
-3.000000e+05 -1.474250e+05 -8.333333e+03
-3.000000e+05 -1.417526e+05 -4.166667e+04
-3.000000e+05 -1.259528e+05 -3.333333e+04
-3.139054e+05 -1.267224e+05 -2.329475e+04
-3.158757e+05 -1.378130e+05 -8.840615e+03
3.000000e+05 1.382182e+05 -3.333333e+04
3.125257e+05 1.177269e+05 -2.993614e+04
3.000000e+05 1.040741e+05 -1.666667e+04
3.000000e+05 1.198738e+05 -8.333333e+03
3.000000e+05 1.224185e+05 -4.166667e+04
3.000000e+05 1.543333e+05 -3.333333e+04
3.158643e+05 1.130119e+05 -3.901411e+04
3.112403e+05 1.036372e+05 -2.695839e+04
-3.000000e+05 -1.976893e+05 -4.316267e+04
-3.030729e+05 -1.980668e+05 -4.723608e+04
-3.053768e+05 -1.954590e+05 -4.414253e+04
-3.000000e+05 -1.927486e+05 -5.000000e+04
-3.000000e+05 -1.903090e+05 -4.432254e+04
-3.080399e+05 -1.888512e+05 -5.000000e+04
-3.000000e+05 -2.016862e+05 -5.000000e+04
-3.000000e+05 -1.848487e+05 -4.583333e+04
-3.062955e+05 -1.781563e+05 -4.384648e+04
-3.000000e+05 -1.824091e+05 -4.015588e+04
-3.000000e+05 -1.769489e+05 -4.166667e+04
-3.000000e+05 -1.760497e+05 -4.583333e+04
-3.000000e+05 -1.839495e+05 -5.000000e+04
-3.079869e+05 -1.976838e+05 -5.000000e+04
-3.053514e+05 -9.518209e+04 -7.031331e+03
-3.000000e+05 -9.140297e+04 -5.527487e+03
-3.064560e+05 -8.860147e+04 -5.251857e+03
-3.000000e+05 -9.795031e+04 0.000000e+00
-3.080955e+05 -9.399569e+04 0.000000e+00
-3.000000e+05 -8.965968e+04 0.000000e+00
-3.000000e+05 -1.058502e+05 -4.166667e+03
-3.059791e+05 -1.119808e+05 -6.158372e+03
-3.000000e+05 -1.073216e+05 -9.966865e+03
-3.000000e+05 -1.137500e+05 -8.333333e+03
-3.000000e+05 -9.942173e+04 -5.800198e+03
-3.080929e+05 -1.023748e+05 0.000000e+00
-3.000000e+05 -1.142689e+05 -4.166667e+03
-3.000000e+05 -1.063690e+05 0.000000e+00
3.000000e+05 1.612870e+05 -4.166667e+03
3.057350e+05 1.547934e+05 -7.475251e+03
3.000000e+05 1.529087e+05 -4.166667e+03
3.000000e+05 1.533872e+05 -8.333333e+03
3.000000e+05 1.608086e+05 0.000000e+00
3.045112e+05 1.590589e+05 -3.088817e+03
3.000000e+05 1.691869e+05 0.000000e+00
3.000000e+05 1.726280e+05 -6.789983e+03
3.067972e+05 1.637620e+05 -6.236619e+03
3.081451e+05 1.734313e+05 0.000000e+00
3.080873e+05 1.651044e+05 0.000000e+00
3.000000e+05 1.647281e+05 -1.095665e+04
3.080360e+05 1.585959e+05 -1.311263e+04
3.000000e+05 1.773627e+05 0.000000e+00
3.000000e+05 6.979000e+04 -4.307428e+04
3.047677e+05 7.402522e+04 -4.470344e+04
3.079937e+05 6.994854e+04 -5.000000e+04
3.000000e+05 7.438862e+04 -5.000000e+04
3.000000e+05 7.696412e+04 -4.435364e+04
3.080980e+05 7.828350e+04 -5.000000e+04
3.000000e+05 8.228847e+04 -4.583333e+04
3.069023e+05 9.098978e+04 -4.261236e+04
3.000000e+05 9.034602e+04 -4.583333e+04
3.000000e+05 9.018833e+04 -4.166667e+04
3.000000e+05 8.244617e+04 -5.000000e+04
3.000000e+05 8.486397e+04 -4.018698e+04
3.000000e+05 6.587979e+04 -5.000000e+04
-3.000000e+05 -1.690490e+05 -3.750000e+04
-3.000000e+05 -1.745093e+05 -3.598921e+04
-3.038440e+05 -1.709227e+05 -3.911852e+04
-3.053278e+05 -1.630005e+05 -3.668382e+04
-3.000000e+05 -1.666094e+05 -3.182254e+04
-3.000000e+05 -1.611492e+05 -3.333333e+04
-3.000000e+05 -1.681498e+05 -4.166667e+04
-3.000000e+05 -1.602499e+05 -3.750000e+04
-3.000000e+05 -1.532493e+05 -2.916667e+04
-3.064631e+05 -1.466763e+05 -3.079909e+04
-3.069327e+05 -1.513839e+05 -2.386303e+04
-3.000000e+05 -1.453495e+05 -2.500000e+04
-3.047602e+05 -1.596486e+05 -2.726066e+04
-3.054439e+05 -1.557992e+05 -3.361296e+04
-3.000000e+05 -1.542871e+05 -2.083333e+04
-3.000000e+05 -1.621869e+05 -2.500000e+04
-3.000000e+05 -1.435510e+05 -3.333333e+04
-3.000000e+05 -1.514509e+05 -3.750000e+04
-3.000000e+05 -1.216499e+05 -1.250000e+04
-3.000000e+05 -1.152214e+05 -1.413353e+04
-3.037297e+05 -1.190352e+05 -1.075928e+04
-3.056822e+05 -1.266812e+05 -1.273478e+04
-3.000000e+05 -1.231213e+05 -1.830020e+04
-3.000000e+05 -1.295497e+05 -1.666667e+04
-3.000000e+05 -1.221688e+05 -8.333333e+03
-3.000000e+05 -1.300686e+05 -1.250000e+04
-3.000000e+05 -1.374496e+05 -2.083333e+04
-3.054367e+05 -1.434107e+05 -2.045846e+04
-3.048275e+05 -1.400009e+05 -2.640946e+04
-3.036705e+05 -1.331873e+05 -2.543463e+04
-3.072707e+05 -1.359191e+05 -2.121872e+04
-3.000000e+05 -1.463872e+05 -1.666667e+04
-3.000000e+05 -1.384874e+05 -1.250000e+04
-3.000000e+05 -1.356511e+05 -2.916667e+04
-3.000000e+05 -1.277513e+05 -2.500000e+04
-3.081167e+05 -1.345386e+05 -1.397709e+04
-3.063282e+05 -1.286818e+05 -2.243935e+04
3.000000e+05 1.454873e+05 -1.250000e+04
3.000000e+05 1.450088e+05 -8.333333e+03
3.052121e+05 1.457290e+05 -1.130647e+04
3.062475e+05 1.362732e+05 -1.694122e+04
3.000000e+05 1.371090e+05 -1.250000e+04
3.000000e+05 1.375875e+05 -1.666667e+04
3.059867e+05 1.502481e+05 -1.558613e+04
3.000000e+05 1.568283e+05 -1.512332e+04
3.000000e+05 1.489284e+05 -1.928998e+04
3.044346e+05 1.471034e+05 -1.983256e+04
3.000000e+05 1.379029e+05 -2.500000e+04
3.000000e+05 1.296876e+05 -2.083333e+04
3.056034e+05 1.285055e+05 -2.285373e+04
3.000000e+05 1.208308e+05 -1.666667e+04
3.000000e+05 1.217878e+05 -2.500000e+04
3.000000e+05 1.287307e+05 -1.250000e+04
3.000000e+05 1.300030e+05 -2.916667e+04
3.000000e+05 1.459604e+05 -2.500000e+04
3.000000e+05 9.808819e+04 -3.750000e+04
3.000000e+05 9.824588e+04 -4.166667e+04
3.042573e+05 9.809898e+04 -3.894066e+04
3.055312e+05 1.018170e+05 -3.439599e+04
3.000000e+05 1.061457e+05 -3.750000e+04
3.000000e+05 1.059880e+05 -3.333333e+04
3.000000e+05 9.276383e+04 -3.602031e+04
3.000000e+05 1.006637e+05 -3.185364e+04
3.000000e+05 1.138879e+05 -2.916667e+04
3.000000e+05 1.129309e+05 -2.083333e+04
3.069821e+05 1.199990e+05 -2.690572e+04
3.042169e+05 1.142399e+05 -3.220802e+04
3.000000e+05 1.050311e+05 -2.500000e+04
3.000000e+05 1.221031e+05 -3.333333e+04
3.000000e+05 1.142033e+05 -3.750000e+04
3.075285e+05 1.109811e+05 -3.529712e+04
3.051107e+05 1.067999e+05 -3.027558e+04
3.096386e+05 1.505806e+05 -9.414214e+03
-4.440329e+03 1.333028e+05 0.000000e+00
-1.217485e+04 1.392455e+05 -2.498933e+04
-4.649752e+02 1.773997e+05 0.000000e+00
1.833367e+04 1.602591e+05 -2.467196e+04
5.075322e+04 1.521106e+05 -5.000000e+04
4.774143e+04 1.390626e+05 -2.467005e+04
4.683425e+04 1.705684e+05 -2.336042e+04
3.333333e+04 1.814500e+05 -5.000000e+04
1.639473e+04 1.882556e+05 -2.488392e+04
2.617409e+04 1.466127e+05 0.000000e+00
1.832218e+04 1.264677e+05 -2.376091e+04
3.259688e+04 1.810684e+05 0.000000e+00
-5.000000e+04 2.703625e+05 0.000000e+00
-2.644352e+04 2.534724e+05 -2.498637e+04
-6.350251e+03 2.758802e+05 -2.573485e+04
-1.666667e+04 2.703625e+05 0.000000e+00
-5.000000e+04 2.703625e+05 -5.000000e+04
1.666667e+04 2.703625e+05 0.000000e+00
3.453644e+04 2.780219e+05 -2.496680e+04
2.726495e+04 2.538205e+05 -2.501399e+04
-1.666667e+04 2.703625e+05 -5.000000e+04
1.666667e+04 2.703625e+05 -5.000000e+04
2.519835e+01 2.526358e+05 -2.513652e+04
-2.523835e+05 2.703807e+05 -5.000000e+04
-2.353690e+05 2.733749e+05 -2.602352e+04
-2.702113e+05 2.458136e+05 -2.469718e+04
-2.436733e+05 2.474574e+05 -2.249356e+04
-2.494326e+05 2.704780e+05 0.000000e+00
-2.707613e+05 2.523762e+05 0.000000e+00
-2.172610e+05 2.694316e+05 0.000000e+00
-2.354239e+05 2.382164e+05 -5.000000e+04
-2.501107e+05 2.229844e+05 -2.497148e+04
-2.187901e+05 2.405461e+05 -2.492515e+04
-7.521256e+04 3.457380e+04 0.000000e+00
-6.599033e+04 3.130563e+04 -2.598754e+04
-9.685882e+04 1.354083e+04 -2.312113e+04
-9.545874e+04 4.199955e+04 -2.583375e+04
-1.067915e+05 2.051395e+04 0.000000e+00
-1.030567e+05 5.461909e+04 0.000000e+00
-8.943670e+04 7.505057e+04 -2.474692e+04
-7.028367e+04 5.417666e+04 -2.257382e+04
-1.215186e+05 2.016320e+04 -1.876115e+04
2.168493e+05 2.700948e+05 -5.000000e+04
2.000670e+05 2.712206e+05 -2.559220e+04
2.185802e+05 2.437661e+05 -2.542145e+04
2.299592e+05 2.790480e+05 -2.568888e+04
2.491748e+05 2.712996e+05 0.000000e+00
2.479918e+05 2.595256e+05 -2.526698e+04
2.490976e+05 2.712547e+05 -5.000000e+04
2.749886e+05 2.756515e+05 -3.465706e+04
-1.666667e+04 2.110875e+05 -5.000000e+04
-4.154825e+04 1.961424e+05 -2.471926e+04
-9.068073e+03 1.988140e+05 -2.506348e+04
-3.302686e+04 2.227613e+05 -2.496840e+04
-1.666667e+04 2.110875e+05 0.000000e+00
-3.333333e+04 2.407250e+05 -5.000000e+04
-8.629075e+03 2.274211e+05 -2.500647e+04
-3.333333e+04 2.407250e+05 0.000000e+00
-5.780125e+04 2.526602e+05 -2.478690e+04
-5.982659e+04 2.227413e+05 -2.494226e+04
1.833333e+05 2.703625e+05 0.000000e+00
1.560749e+05 2.551863e+05 -2.509932e+04
1.500000e+05 2.703625e+05 0.000000e+00
1.678415e+05 2.778195e+05 -2.559557e+04
1.500000e+05 2.703625e+05 -5.000000e+04
1.344915e+05 2.779117e+05 -2.570207e+04
1.842460e+05 2.406942e+05 -2.562846e+04
1.833333e+05 2.703625e+05 -5.000000e+04
-6.395353e+04 1.382147e+05 0.000000e+00
-3.276955e+04 1.523143e+05 0.000000e+00
-4.730502e+04 1.387179e+05 -2.676795e+04
-5.168263e+04 1.685256e+05 -2.152421e+04
-8.014595e+04 1.663054e+05 -2.665052e+04
-8.749084e+04 1.393988e+05 -2.461404e+04
-9.097190e+04 1.558896e+05 0.000000e+00
-6.556847e+04 1.789563e+05 0.000000e+00
-3.328794e+04 1.822590e+05 0.000000e+00
-6.666667e+04 1.814500e+05 -5.000000e+04
-7.337420e+04 1.956616e+05 -2.492075e+04
-4.936181e+04 1.534500e+05 -5.000000e+04
1.750837e+05 1.784580e+05 -5.000000e+04
1.605033e+05 1.582534e+05 -2.579836e+04
1.935240e+05 1.701681e+05 -2.531764e+04
1.618363e+05 1.888645e+05 -2.689778e+04
1.508365e+05 2.101142e+05 -5.000000e+04
1.831355e+05 2.109135e+05 -5.000000e+04
1.685055e+05 2.143253e+05 -2.329534e+04
1.811538e+05 1.811578e+05 0.000000e+00
1.495749e+05 1.670979e+05 0.000000e+00
1.269787e+05 1.725693e+05 -2.466472e+04
1.342045e+05 2.104757e+05 -2.531529e+04
1.362777e+05 1.814245e+05 -5.000000e+04
3.444882e+04 1.190050e+05 -5.000000e+04
4.288501e+04 1.045910e+05 -2.540980e+04
8.641699e+04 1.389782e+05 0.000000e+00
5.856177e+04 1.579786e+05 0.000000e+00
7.549674e+04 1.568935e+05 -2.370627e+04
1.642822e+04 1.494179e+05 -5.000000e+04
5.483804e+04 1.249184e+05 0.000000e+00
-2.703625e+05 2.170937e+05 0.000000e+00
-2.774286e+05 1.991223e+05 -2.523031e+04
8.333333e+04 2.703625e+05 0.000000e+00
1.166667e+05 2.703625e+05 0.000000e+00
9.160868e+04 2.540098e+05 -2.508561e+04
1.013374e+05 2.780432e+05 -2.569776e+04
-2.704597e+05 2.463558e+05 -5.000000e+04
-2.742116e+05 2.742267e+05 -2.632698e+04
1.166667e+05 2.703625e+05 -5.000000e+04
1.248563e+05 2.523347e+05 -2.503159e+04
6.806492e+04 2.780753e+05 -2.504017e+04
8.333333e+04 2.703625e+05 -5.000000e+04
-1.833333e+05 2.703625e+05 -5.000000e+04
-1.741211e+05 2.528982e+05 -2.507902e+04
-1.500000e+05 2.703625e+05 -5.000000e+04
-1.649162e+05 2.777483e+05 -2.445849e+04
-1.833333e+05 2.703625e+05 0.000000e+00
-1.996212e+05 2.687768e+05 -2.461742e+04
-1.500000e+05 2.703625e+05 0.000000e+00
-1.449635e+05 2.512022e+05 -2.669736e+04
-1.172266e+05 2.690218e+05 -2.423007e+04
-1.261497e+05 1.083583e+05 0.000000e+00
-1.069150e+05 1.022501e+05 -2.458084e+04
-1.341525e+05 1.169118e+05 -2.486441e+04
-1.099362e+05 1.284964e+05 -2.473960e+04
-8.728535e+04 1.176235e+05 -5.000000e+04
-7.892258e+04 1.091815e+05 -2.495763e+04
-1.221382e+05 1.448832e+05 0.000000e+00
-1.399211e+05 1.409182e+05 -2.499483e+04
-1.128147e+05 1.641460e+05 -2.506178e+04
-1.169969e+05 1.492411e+05 -5.000000e+04
-7.670056e+04 5.002367e+03 -5.000000e+04
-7.259175e+04 5.352830e+03 -3.329940e+04
5.000000e+04 2.703625e+05 -5.000000e+04
5.917352e+04 2.539255e+05 -2.501751e+04
1.333333e+05 2.407250e+05 -5.000000e+04
1.512144e+05 2.318642e+05 -2.456138e+04
1.340169e+05 2.394802e+05 0.000000e+00
1.524543e+05 2.032776e+05 0.000000e+00
1.172380e+05 2.126404e+05 0.000000e+00
1.662067e+05 2.401366e+05 0.000000e+00
1.666667e+05 2.407250e+05 -5.000000e+04
-6.774293e+04 1.027841e+05 0.000000e+00
-5.685001e+04 7.699535e+04 -2.507436e+04
-3.426772e+04 9.221509e+04 -5.000000e+04
-4.822623e+04 1.061154e+05 -2.517715e+04
-6.830110e+04 8.834375e+04 -5.000000e+04
1.666667e+04 2.110875e+05 -5.000000e+04
5.000000e+04 2.110875e+05 -5.000000e+04
4.154253e+04 1.980693e+05 -2.499240e+04
-4.686427e+04 6.037688e+04 -5.000000e+04
-8.636074e+04 5.813361e+04 -5.000000e+04
-2.703625e+05 -3.436512e+04 -5.000000e+04
-2.398021e+05 -5.227265e+04 -5.000000e+04
-2.386648e+05 -1.673497e+04 -5.000000e+04
-2.493733e+05 -3.813443e+04 -2.053509e+04
-1.990253e+05 -6.070612e+03 -5.000000e+04
-2.374668e+05 1.741428e+04 -5.000000e+04
-2.204001e+05 -1.066389e+04 -2.553303e+04
-2.131105e+05 2.127811e+04 -2.450326e+04
-1.827661e+05 4.087922e+03 -2.593798e+04
-2.422764e+05 2.676787e+04 -2.632971e+04
-2.102889e+05 3.856206e+04 -5.000000e+04
-2.210342e+05 5.380098e+04 -2.322907e+04
-2.052275e+05 4.664276e+04 0.000000e+00
-1.871637e+05 4.490828e+04 -2.611346e+04
-7.198032e+04 2.779456e+05 -2.558912e+04
-8.333333e+04 2.703625e+05 -5.000000e+04
-9.386122e+04 2.515225e+05 -2.211984e+04
-8.333333e+04 2.703625e+05 0.000000e+00
-1.499531e+05 1.255588e+05 0.000000e+00
-1.476850e+05 1.200808e+05 -5.000000e+04
-1.667001e+05 1.430968e+05 -2.522165e+04
-1.628516e+05 1.106374e+05 -2.538770e+04
-1.478931e+05 1.674440e+05 -2.517582e+04
-6.402843e-10 1.814500e+05 -5.000000e+04
-1.862986e+04 1.681722e+05 -2.718045e+04
1.666667e+04 2.110875e+05 0.000000e+00
-1.166667e+05 2.110875e+05 0.000000e+00
-1.056425e+05 1.961986e+05 -2.505965e+04
-1.348429e+05 1.804690e+05 0.000000e+00
-1.352473e+05 1.985901e+05 -2.509788e+04
-1.510177e+05 2.098216e+05 -5.000000e+04
-1.225556e+05 2.294097e+05 -2.617745e+04
-1.575765e+05 2.249921e+05 -2.527318e+04
-1.166667e+05 2.110875e+05 -5.000000e+04
-1.349131e+05 1.809538e+05 -5.000000e+04
-1.379877e+05 8.698519e+04 -5.000000e+04
-9.932188e+04 8.872423e+04 0.000000e+00
-1.220690e+05 6.573342e+04 -2.415161e+04
-1.310024e+05 9.161975e+04 -2.295271e+04
-1.029050e+05 8.621793e+04 -5.000000e+04
-1.189019e+05 1.158488e+05 -5.000000e+04
-1.566202e+05 9.415578e+04 0.000000e+00
-1.583464e+05 7.479987e+04 -2.416146e+04
-1.309008e+05 7.466438e+04 0.000000e+00
6.666667e+04 2.407250e+05 -5.000000e+04
5.440969e+04 2.254819e+05 -2.502670e+04
8.333333e+04 2.110875e+05 -5.000000e+04
8.198993e+04 2.279774e+05 -2.499358e+04
1.057242e+05 1.998528e+05 -2.678509e+04
1.090659e+05 2.269923e+05 -2.532330e+04
6.666667e+04 2.407250e+05 0.000000e+00
8.467502e+04 2.097123e+05 0.000000e+00
1.458401e+05 1.329928e+05 0.000000e+00
1.179959e+05 1.530381e+05 0.000000e+00
1.349113e+05 1.416438e+05 -2.352375e+04
5.000000e+04 2.703625e+05 0.000000e+00
-2.910383e-10 2.407250e+05 -5.000000e+04
-1.164153e-10 2.407250e+05 0.000000e+00
-2.787646e+05 -4.353636e+04 -2.504385e+04
-2.836558e+05 -7.450819e+04 -2.760582e+04
-2.414691e+05 2.003343e+05 0.000000e+00
-2.249348e+05 2.081186e+05 -2.532511e+04
-2.105485e+05 1.837023e+05 0.000000e+00
-2.248687e+05 1.814496e+05 -2.506823e+04
-2.407250e+05 1.592147e+05 -5.000000e+04
-2.275300e+05 1.533228e+05 -2.468712e+04
-2.102373e+05 1.782456e+05 -5.000000e+04
-1.926048e+05 1.627175e+05 -2.509347e+04
-1.968312e+05 1.947375e+05 -2.506227e+04
-2.690150e+05 -1.588985e+04 0.000000e+00
-2.794667e+05 -9.846477e+03 -2.498006e+04
-2.692819e+05 -7.036983e+04 -5.000000e+04
-2.559771e+05 -6.784797e+04 -3.077485e+04
-2.689787e+05 2.130398e+05 -5.000000e+04
-2.703625e+05 1.839312e+05 0.000000e+00
-2.703625e+05 1.768129e+05 -5.000000e+04
-2.700248e+05 1.644060e+05 -2.433269e+04
-2.519217e+05 1.883573e+05 -2.494645e+04
2.785228e+05 2.197676e+05 -2.077268e+04
2.706845e+05 2.531006e+05 0.000000e+00
2.521411e+05 2.296076e+05 -2.476496e+04
2.715777e+05 2.509975e+05 -2.441173e+04
2.705528e+05 2.536253e+05 -5.000000e+04
2.699346e+05 1.871943e+05 -5.000000e+04
2.697798e+05 2.196119e+05 -5.000000e+04
2.552956e+05 1.969285e+05 -2.501933e+04
2.476412e+05 1.650556e+05 -2.754369e+04
2.757339e+05 1.724826e+05 -2.829321e+04
2.699346e+05 1.549641e+05 -5.000000e+04
2.716218e+05 1.881165e+05 0.000000e+00
-2.698465e+05 1.780353e+04 0.000000e+00
-2.367691e+05 -1.169208e+03 0.000000e+00
-2.540642e+05 -7.323602e+02 -2.760776e+04
-2.407250e+05 5.362570e+04 -5.000000e+04
-2.385624e+05 3.327850e+04 0.000000e+00
-2.007136e+05 1.294712e+04 0.000000e+00
-4.569568e+04 2.548097e+04 -5.000000e+04
-8.201312e+03 3.711624e+04 -5.000000e+04
-3.209038e+04 4.300455e+04 -2.982938e+04
-3.593767e+04 1.582592e+04 -3.815478e+04
-4.376609e+04 -8.300810e+03 -5.000000e+04
-1.180399e+04 3.040953e+03 -5.000000e+04
-8.333333e+04 1.518124e+05 -5.000000e+04
-5.722212e+04 1.270667e+05 -5.000000e+04
-9.558707e+04 1.228294e+05 0.000000e+00
-1.238735e+05 -3.880552e+04 -5.000000e+04
-1.341108e+05 -1.868750e+04 -2.746874e+04
-1.404076e+05 -1.865753e+04 -5.000000e+04
-1.358286e+05 -4.827611e+04 -4.145835e+04
-2.703625e+05 7.122387e+04 -5.000000e+04
-2.539754e+05 5.258236e+04 -2.241711e+04
-2.564221e+05 8.684402e+04 -2.734451e+04
-2.805987e+05 5.624985e+04 -2.510792e+04
-2.397487e+05 6.722644e+04 0.000000e+00
-2.407250e+05 1.010248e+05 0.000000e+00
-2.275491e+05 8.271906e+04 -2.488958e+04
-2.279571e+05 1.168923e+05 -2.534018e+04
-2.702358e+05 1.148291e+05 -2.571997e+04
-2.407250e+05 1.240184e+05 -5.000000e+04
-1.692398e+05 -2.868332e+04 -5.000000e+04
-1.929878e+05 -3.353184e+04 -2.799119e+04
-2.772150e+05 2.421200e+04 -2.422306e+04
-2.703625e+05 8.312113e+02 -5.000000e+04
-2.577362e+05 1.373267e+05 -2.115945e+04
-2.703625e+05 8.444358e+04 0.000000e+00
-2.703625e+05 1.176061e+05 0.000000e+00
-1.029014e+05 2.698509e+04 -5.000000e+04
-1.201264e+05 -6.785889e+02 -5.000000e+04
-1.762342e+05 1.744872e+05 -5.000000e+04
-1.808014e+05 1.287080e+05 -5.000000e+04
-1.952435e+05 1.247444e+05 -2.508357e+04
-2.133292e+05 2.126029e+05 -5.000000e+04
-1.915739e+05 2.255245e+05 -2.504191e+04
-1.763357e+05 1.764619e+05 0.000000e+00
-1.655994e+05 1.943302e+05 -2.504195e+04
-8.333333e+04 2.110875e+05 -5.000000e+04
-1.000000e+05 1.814500e+05 -5.000000e+04
-8.333333e+04 2.110875e+05 0.000000e+00
-1.012490e+05 1.812578e+05 0.000000e+00
-1.200034e+05 5.659953e+04 -5.000000e+04
-7.145491e+04 3.743722e+04 -5.000000e+04
-1.348873e+05 4.067018e+04 0.000000e+00
-1.371027e+05 2.698358e+04 -5.000000e+04
-1.523320e+05 3.470125e+04 -2.513827e+04
-1.512932e+05 -3.670787e+03 -1.892376e+04
-1.606578e+05 -2.853643e+04 -3.051064e+04
-1.383705e+05 6.454096e+03 0.000000e+00
-1.145731e+05 -1.381724e+04 -3.048507e+04
9.576800e+03 9.334481e+04 -2.401394e+04
2.325910e+04 1.108585e+05 0.000000e+00
-2.703625e+05 1.416165e+05 -5.000000e+04
-2.407250e+05 1.673499e+05 0.000000e+00
-2.095427e+05 1.433223e+05 -5.000000e+04
-2.407250e+05 1.341874e+05 0.000000e+00
-2.099412e+05 1.516432e+05 0.000000e+00
-3.333333e+04 1.814500e+05 -5.000000e+04
-1.633017e+05 4.998526e+03 -5.000000e+04
-2.129558e+05 7.151738e+04 -5.000000e+04
-1.949812e+05 8.518317e+04 -2.428377e+04
-2.098797e+05 1.053383e+05 -5.000000e+04
-2.110875e+05 1.176061e+05 0.000000e+00
2.721710e+05 2.739880e+05 -1.554973e+04
1.952429e+04 7.675336e+04 0.000000e+00
3.859149e+04 6.804410e+04 -3.111438e+04
3.042718e+04 8.437523e+04 -5.000000e+04
2.377518e+03 5.556307e+04 -2.944220e+04
6.230767e+04 9.833036e+04 -5.000000e+04
6.883988e+04 8.211192e+04 -3.022175e+04
5.857286e+04 6.422522e+04 -5.000000e+04
1.254656e+05 1.264501e+05 -5.000000e+04
1.057502e+05 1.346895e+05 -2.537465e+04
1.006002e+05 9.737163e+04 -2.990188e+04
1.315754e+05 1.096982e+05 -2.922538e+04
1.217308e+05 9.234492e+04 -5.000000e+04
-2.703625e+05 3.602754e+04 -5.000000e+04
-2.703625e+05 5.128106e+04 0.000000e+00
-2.660796e+05 -4.965310e+04 0.000000e+00
7.266152e+04 1.953284e+05 -2.504520e+04
1.006800e+05 1.811701e+05 -5.000000e+04
1.206060e+05 1.865350e+05 0.000000e+00
9.816366e+04 1.739481e+05 -2.335905e+04
-1.713925e+05 3.740512e+04 -5.000000e+04
9.466882e+04 1.478433e+05 -5.000000e+04
7.432833e+04 1.186264e+05 -2.526131e+04
-1.002222e+05 -1.970730e+04 -5.000000e+04
-3.088596e+04 1.222229e+05 -5.000000e+04
-1.935915e+04 1.101420e+05 -2.361855e+04
2.001060e+05 2.421104e+05 -5.000000e+04
1.998325e+05 2.422965e+05 0.000000e+00
2.166667e+05 2.703625e+05 0.000000e+00
-1.205466e+04 6.269351e+04 0.000000e+00
-2.352937e+04 7.858925e+04 -2.566249e+04
-8.319851e+03 9.679865e+04 0.000000e+00
-1.679243e+05 2.728852e+04 0.000000e+00
-1.959685e+05 1.715240e+04 -5.000000e+04
-1.000000e+05 2.407250e+05 -5.000000e+04
-1.333333e+05 2.407250e+05 0.000000e+00
-1.000000e+05 2.407250e+05 0.000000e+00
-1.166667e+05 2.703625e+05 0.000000e+00
3.333333e+04 2.407250e+05 0.000000e+00
2.202262e+04 2.241506e+05 -2.501451e+04
-1.509606e+05 2.098502e+05 0.000000e+00
-3.695807e+03 7.066606e+04 -5.000000e+04
1.000000e+05 2.407250e+05 -5.000000e+04
2.393627e+05 2.394240e+05 0.000000e+00
2.384199e+05 2.384500e+05 -5.000000e+04
9.388661e+04 1.123902e+05 -5.000000e+04
5.110323e+04 9.081322e+04 0.000000e+00
8.268218e+04 1.048731e+05 0.000000e+00
-2.393400e+05 2.355274e+05 0.000000e+00
-2.405440e+05 1.958341e+05 -5.000000e+04
1.142611e+05 1.189329e+05 0.000000e+00
1.648796e+05 1.222282e+05 -3.063718e+04
1.553831e+05 1.422222e+05 -5.000000e+04
-2.085686e+05 8.244010e+04 0.000000e+00
-1.668074e+05 6.250164e+04 0.000000e+00
-1.814500e+05 1.010248e+05 0.000000e+00
-2.407250e+05 8.882203e+04 -5.000000e+04
-1.862365e+05 6.839637e+04 -5.000000e+04
1.328343e+03 1.084241e+05 -5.000000e+04
6.690112e+04 1.308470e+05 -5.000000e+04
8.641699e+04 4.417993e+04 -5.000000e+04
9.015180e+04 7.828507e+04 -5.000000e+04
-5.000000e+04 2.110875e+05 0.000000e+00
-5.000000e+04 2.110875e+05 -5.000000e+04
4.956690e+04 2.122437e+05 0.000000e+00
-3.989880e+04 8.273880e+04 0.000000e+00
-3.616399e+04 1.168439e+05 0.000000e+00
3.333333e+04 2.407250e+05 -5.000000e+04
1.277153e+05 1.584744e+05 -5.000000e+04
1.774190e+05 1.470526e+05 0.000000e+00
1.933557e+05 1.360450e+05 -2.906758e+04
1.779257e+05 1.524170e+05 -5.000000e+04
-2.200320e+05 -4.663709e+04 -2.929695e+04
-2.343287e+05 -3.522485e+04 0.000000e+00
-2.703625e+05 1.507686e+05 0.000000e+00
2.398692e+05 1.710792e+05 -5.000000e+04
2.220752e+05 1.510597e+05 -2.862081e+04
2.397255e+05 1.399930e+05 -5.000000e+04
2.405359e+05 1.742632e+05 0.000000e+00
2.245299e+05 1.825159e+05 -2.533224e+04
1.851315e+05 2.146542e+05 0.000000e+00
1.977414e+05 2.065091e+05 -2.430318e+04
1.811538e+05 8.635949e+04 -5.000000e+04
1.834589e+05 1.197429e+05 -5.000000e+04
1.533097e+05 1.064048e+05 -5.000000e+04
-8.942157e+04 2.250976e+05 -2.485581e+04
-6.666667e+04 2.407250e+05 0.000000e+00
-2.025945e+05 -2.109948e+04 0.000000e+00
-2.055113e+05 -3.137086e+04 -5.000000e+04
-1.542434e+05 5.972318e+04 -5.000000e+04
-4.363361e+04 4.863366e+04 0.000000e+00
-7.147775e+04 6.867894e+04 0.000000e+00
-1.521387e+05 -5.830223e+04 -5.000000e+04
2.091881e+05 1.572329e+05 -5.000000e+04
2.089980e+05 1.611125e+05 0.000000e+00
2.119881e+05 1.946749e+05 0.000000e+00
-1.836573e+05 2.096875e+05 -5.000000e+04
-1.534183e+05 1.543868e+05 0.000000e+00
-1.333333e+05 2.407250e+05 -5.000000e+04
-1.836304e+05 2.106403e+05 0.000000e+00
-1.998848e+05 2.409882e+05 -5.000000e+04
-2.007984e+05 2.405741e+05 0.000000e+00
-1.666667e+05 2.407250e+05 -5.000000e+04
-1.666667e+05 2.407250e+05 0.000000e+00
1.000000e+05 2.407250e+05 0.000000e+00
1.166667e+05 2.110875e+05 -5.000000e+04
-1.166667e+05 2.703625e+05 -5.000000e+04
6.087195e+04 1.870660e+05 0.000000e+00
9.008787e+04 1.733604e+05 0.000000e+00
6.795324e+04 1.800893e+05 -5.000000e+04
-8.717761e+04 -2.039840e+04 -4.026041e+04
-7.075941e+04 -2.867895e+04 -5.000000e+04
-1.699494e+05 -7.605757e+03 0.000000e+00
2.096397e+05 1.873617e+05 -5.000000e+04
2.076756e+05 1.323604e+05 -5.000000e+04
-2.703625e+05 1.064202e+05 -5.000000e+04
2.117236e+05 2.186928e+05 -5.000000e+04
2.273796e+05 2.131080e+05 -2.518710e+04
2.186711e+05 2.259031e+05 0.000000e+00
-2.169123e+05 2.702320e+05 -5.000000e+04
-1.812661e+05 1.357516e+05 0.000000e+00
-2.114564e+05 -6.329060e+04 -5.000000e+04
2.413577e+05 2.033496e+05 0.000000e+00
2.398692e+05 2.033094e+05 -5.000000e+04
-6.666667e+04 2.407250e+05 -5.000000e+04
-1.744464e+05 9.759397e+04 -5.000000e+04
-1.570836e+04 1.498101e+05 -5.000000e+04
2.696873e+05 2.193028e+05 0.000000e+00
-1.526578e+05 1.523205e+05 -5.000000e+04
-2.151905e+05 2.120171e+05 0.000000e+00
-8.785785e+04 -5.829938e+04 -5.000000e+04
2.271303e+04 1.610610e+04 -5.000000e+04
2.673883e+04 5.018132e+04 -5.000000e+04
-2.689516e+05 -1.058303e+05 -5.000000e+04
5.483804e+04 3.012007e+04 -5.000000e+04
-2.360902e+05 -9.361715e+04 -5.000000e+04
-1.200000e+05 -6.999960e+04 -5.000000e+04
-1.839963e+05 -5.974976e+04 -5.000000e+04
1.179959e+05 5.823978e+04 -5.000000e+04
1.495749e+05 7.229963e+04 -5.000000e+04
-2.842105e+05 -1.681205e+05 -5.000000e+04
-2.912449e+05 -8.485949e+04 -1.159413e+04
-2.901095e+05 -1.080763e+05 -2.138131e+04
-2.812024e+05 -9.410767e+04 -2.041015e+04
-2.764705e+05 -8.076882e+04 -1.363814e+04
-2.842105e+05 -7.433912e+04 0.000000e+00
2.875105e+05 1.684927e+05 -1.318268e+04
2.858109e+05 1.786517e+05 0.000000e+00
2.865387e+05 1.549152e+05 -2.517059e+04
2.752181e+05 1.650512e+05 -1.293901e+04
2.700215e+05 1.716218e+05 0.000000e+00
2.889334e+05 9.877968e+04 -4.567651e+04
2.715075e+05 9.331806e+04 -5.000000e+04
2.857538e+05 8.385334e+04 -5.000000e+04
2.699643e+05 7.682341e+04 -5.000000e+04
2.725329e+05 9.354550e+04 -4.532936e+04
-1.438715e+05 -6.717387e+04 -3.648846e+04
-1.420860e+05 -5.390548e+04 -2.866414e+04
-1.275520e+05 -6.555861e+04 -3.772608e+04
-1.555437e+05 -7.491136e+04 -3.934717e+04
-1.650484e+05 -5.422857e+04 -2.541015e+04
-1.703965e+05 -6.658551e+04 -3.201792e+04
-1.322096e+05 -7.799441e+04 -4.410152e+04
-1.224054e+05 -7.466644e+04 -4.293073e+04
-1.536439e+05 -5.935131e+04 -2.990520e+04
-1.401374e+05 -8.780316e+04 -4.583204e+04
-1.407451e+05 -1.060617e+05 -5.000000e+04
-1.565772e+05 -9.232899e+04 -4.446832e+04
-1.393850e+05 -8.967413e+04 -5.000000e+04
-1.700387e+05 -9.923069e+04 -5.000000e+04
-1.560720e+05 -1.108400e+05 -5.000000e+04
-1.722167e+05 -1.025006e+05 -4.524124e+04
-1.152632e+05 -8.919454e+04 -5.000000e+04
-1.715272e+05 -8.422436e+04 -3.872650e+04
-1.537774e+05 -8.182213e+04 -4.701975e+04
-1.249556e+05 -9.903180e+04 -5.000000e+04
-5.582213e+04 -5.318586e+04 -4.551693e+04
-7.401121e+04 -5.070734e+04 -4.216911e+04
-5.490957e+04 -3.787761e+04 -4.108938e+04
-6.810114e+04 -3.725938e+04 -3.914758e+04
-9.085504e+04 -3.012487e+04 -2.981919e+04
-7.922611e+04 -3.645987e+04 -3.467876e+04
-8.980220e+04 -4.448613e+04 -3.623079e+04
-6.881305e+04 -2.341745e+04 -3.159065e+04
-5.606114e+04 -2.324583e+04 -3.663715e+04
-6.761314e+04 -6.928457e+04 -5.000000e+04
-8.497454e+04 -1.661213e+04 -2.514692e+04
-7.846378e+04 -3.747478e+04 -4.344908e+04
-8.340261e+04 -7.631450e+04 -5.000000e+04
-9.384170e+04 -5.787332e+04 -4.251865e+04
-1.833702e+05 -4.581085e+04 -1.564064e+04
-1.825463e+05 -3.416516e+04 -1.142349e+04
-1.675569e+05 -4.149732e+04 -1.702024e+04
-1.690509e+05 -3.350072e+04 -1.106150e+04
-1.555622e+05 -4.751896e+04 -2.317862e+04
-1.776250e+05 -5.197078e+04 -2.816521e+04
-1.972688e+05 -4.659334e+04 -1.412388e+04
-1.829734e+05 -6.818045e+04 -3.681691e+04
-1.920741e+05 -5.614132e+04 -2.452043e+04
-1.519671e+05 -3.583619e+04 -1.695395e+04
-8.033019e+04 -6.706872e+03 -1.930677e+04
-9.483144e+04 -3.433755e+03 -1.642102e+04
-8.671228e+04 7.135795e+03 -9.613867e+03
-7.681363e+04 4.915144e+03 -1.655071e+04
-6.435047e+04 -6.451117e+03 -2.753527e+04
-9.950254e+04 -1.657376e+04 -2.001658e+04
-1.053573e+05 -3.031380e+04 -2.530868e+04
-1.028046e+05 7.878222e+01 -8.695066e+03
-1.097930e+05 -1.046132e+04 -1.385601e+04
-1.159736e+05 -2.357302e+04 -1.705489e+04
-2.803918e+05 -1.352396e+05 -4.111649e+04
-2.825664e+05 -1.502928e+05 -4.597146e+04
-2.851951e+05 -1.171693e+05 -3.353961e+04
2.681688e+05 1.492282e+05 -2.152670e+04
2.865163e+05 1.410179e+05 -3.470477e+04
2.674729e+05 1.430982e+05 -3.388392e+04
2.860119e+05 1.114798e+05 -4.087461e+04
2.904859e+05 1.292376e+05 -3.533301e+04
2.706313e+05 1.234327e+05 -5.000000e+04
2.714388e+05 1.237140e+05 -3.663747e+04
2.700458e+05 1.089636e+05 -4.031309e+04
2.843320e+05 1.070370e+05 -4.740787e+04
2.588194e+05 8.412877e+04 -4.657267e+04
2.405769e+05 8.037405e+04 -5.000000e+04
2.544990e+05 7.035141e+04 -5.000000e+04
2.387095e+05 6.332148e+04 -5.000000e+04
2.432726e+05 8.063214e+04 -4.552899e+04
2.089980e+05 6.631420e+04 -5.000000e+04
2.071306e+05 4.926163e+04 -5.000000e+04
2.229200e+05 5.629156e+04 -5.000000e+04
2.110887e+05 6.691258e+04 -4.553143e+04
2.283675e+05 7.182436e+04 -4.641443e+04
1.774190e+05 5.225435e+04 -5.000000e+04
1.755516e+05 3.520178e+04 -5.000000e+04
1.913411e+05 4.223170e+04 -5.000000e+04
1.788463e+05 5.492981e+04 -4.514447e+04
1.961808e+05 5.741900e+04 -4.656025e+04
1.458401e+05 3.819449e+04 -5.000000e+04
1.597621e+05 2.817185e+04 -5.000000e+04
1.651929e+05 4.397959e+04 -4.618836e+04
1.481738e+05 4.060692e+04 -4.490868e+04
1.439727e+05 2.114192e+04 -5.000000e+04
1.142611e+05 2.413464e+04 -5.000000e+04
1.123937e+05 7.082069e+03 -5.000000e+04
1.281832e+05 1.411200e+04 -5.000000e+04
1.165186e+05 2.485249e+04 -4.527109e+04
1.327537e+05 2.910559e+04 -4.618782e+04
9.660425e+04 5.214249e+01 -5.000000e+04
8.268218e+04 1.007479e+04 -5.000000e+04
8.081477e+04 -6.977784e+03 -5.000000e+04
8.448695e+04 1.170469e+04 -4.519670e+04
1.015674e+05 1.556070e+04 -4.624138e+04
5.110323e+04 -3.985067e+03 -5.000000e+04
4.923583e+04 -2.103764e+04 -5.000000e+04
6.502530e+04 -1.400771e+04 -5.000000e+04
5.246094e+04 -2.348174e+03 -4.521413e+04
6.945022e+04 1.114037e+03 -4.654995e+04
3.333828e+04 -2.800922e+04 -5.000000e+04
3.844553e+04 -1.176084e+04 -4.598193e+04
1.930814e+04 -1.792823e+04 -5.000000e+04
2.089891e+04 -1.661622e+04 -4.524480e+04
1.754881e+04 -3.503915e+04 -5.000000e+04
1.418477e+03 -4.179789e+04 -5.000000e+04
6.376720e+03 -2.576299e+04 -4.598425e+04
-1.295252e+04 -3.144571e+04 -5.000000e+04
-1.179350e+04 -3.033785e+04 -4.498275e+04
-1.437100e+04 -4.882781e+04 -5.000000e+04
-2.811041e+04 -4.072589e+04 -4.457021e+04
-3.932636e+04 -4.514288e+04 -4.627073e+04
-4.517413e+04 -4.614979e+04 -5.000000e+04
-3.048180e+04 -5.617985e+04 -5.000000e+04
-4.627127e+04 -6.320978e+04 -5.000000e+04
-1.082038e+05 -6.968057e+04 -4.504638e+04
-9.947368e+04 -8.216461e+04 -5.000000e+04
-1.718615e+05 -1.178699e+05 -5.000000e+04
-1.880496e+05 -1.267452e+05 -5.000000e+04
-2.024150e+05 -1.169813e+05 -5.000000e+04
-2.038391e+05 -1.337752e+05 -5.000000e+04
-1.997104e+05 -1.148666e+05 -4.490749e+04
-1.832053e+05 -1.123717e+05 -4.634446e+04
-2.169649e+05 -1.208816e+05 -4.531563e+04
-2.313223e+05 -1.307563e+05 -4.631059e+04
-2.349635e+05 -1.296369e+05 -5.000000e+04
-2.201133e+05 -1.401029e+05 -5.000000e+04
-2.359028e+05 -1.471329e+05 -5.000000e+04
-2.528803e+05 -1.529158e+05 -5.000000e+04
-2.446750e+05 -1.378355e+05 -4.581767e+04
-2.689185e+05 -1.412027e+05 -5.000000e+04
-2.686698e+05 -1.599457e+05 -5.000000e+04
-2.660507e+05 -1.418840e+05 -4.530992e+04
-2.663400e+05 -9.099223e+04 -2.267629e+04
-2.618052e+05 -8.010099e+04 -1.580688e+04
-2.481739e+05 -9.011727e+04 -2.722528e+04
-2.672504e+05 -6.677178e+04 0.000000e+00
-2.514609e+05 -5.974185e+04 0.000000e+00
-2.474095e+05 -6.725562e+04 -1.374043e+04
-2.418976e+05 -5.744188e+04 -1.004521e+04
-2.303762e+05 -5.924849e+04 -1.707321e+04
-2.355854e+05 -5.252773e+04 0.000000e+00
-2.091879e+05 -5.354068e+04 -1.586232e+04
-2.154024e+05 -6.862282e+04 -2.156289e+04
-2.197960e+05 -4.549780e+04 0.000000e+00
-2.299195e+05 -7.951461e+04 -2.839552e+04
-2.531345e+05 -5.447865e+04 -1.434327e+04
-2.027927e+05 -6.743231e+04 -2.514643e+04
-2.039288e+05 -3.843511e+04 0.000000e+00
-1.881393e+05 -3.140519e+04 0.000000e+00
-1.718168e+05 -2.465833e+04 0.000000e+00
-1.522599e+05 -2.361693e+04 -1.230887e+04
-1.560273e+05 -1.762840e+04 0.000000e+00
-1.452745e+05 -1.956567e+04 -5.101479e+03
-1.369516e+05 -1.863604e+04 -1.125962e+04
-1.402379e+05 -1.059847e+04 0.000000e+00
-1.400817e+05 -3.033142e+04 -1.647265e+04
-1.233957e+05 -1.543709e+04 -1.225357e+04
-1.247752e+05 -2.394215e+04 -1.434832e+04
-1.244484e+05 -3.568547e+03 0.000000e+00
-1.142790e+05 5.941186e+02 -9.926468e+03
-1.086589e+05 3.461379e+03 0.000000e+00
-9.286944e+04 1.049131e+04 0.000000e+00
-1.082369e+05 1.184664e+04 -1.137805e+04
-7.707996e+04 1.752123e+04 0.000000e+00
-7.536412e+04 1.660115e+04 -1.099179e+04
-5.926688e+04 2.026359e+04 -1.315957e+04
-5.803641e+04 9.554929e+03 -1.613874e+04
-6.129049e+04 2.455116e+04 0.000000e+00
-4.464071e+04 1.391522e+04 -2.170599e+04
-4.636292e+04 2.442106e+04 -1.221170e+04
-2.247705e+04 3.321621e+04 -1.663110e+04
-2.327637e+04 2.086534e+04 -1.847154e+04
-4.376873e+04 7.833806e+02 -2.599048e+04
-4.550102e+04 3.158109e+04 0.000000e+00
-2.717976e+04 4.644371e+03 -2.769391e+04
-2.971154e+04 3.861101e+04 0.000000e+00
-4.400489e+03 2.443789e+04 -2.690105e+04
5.471207e+03 3.244100e+04 -2.413464e+04
-1.033210e+04 3.834382e+04 -1.307274e+04
-1.392207e+04 4.564094e+04 0.000000e+00
-1.130363e+04 1.449367e+04 -2.894205e+04
1.867406e+03 5.267087e+04 0.000000e+00
8.215854e+03 4.838960e+04 -1.400112e+04
1.765688e+04 5.970079e+04 0.000000e+00
2.759278e+04 5.406223e+04 -1.535520e+04
4.566503e+04 6.082722e+04 -1.634058e+04
3.344635e+04 6.673072e+04 0.000000e+00
4.370622e+04 4.450915e+04 -2.434791e+04
2.459021e+04 3.545875e+04 -2.802208e+04
6.011092e+04 4.405632e+04 -2.913023e+04
7.064641e+04 5.803549e+04 -2.428920e+04
5.743323e+04 7.016153e+04 -1.240330e+04
4.923583e+04 7.376065e+04 0.000000e+00
7.661189e+04 7.466375e+04 -1.643246e+04
6.502530e+04 8.079057e+04 0.000000e+00
5.169474e+04 7.588526e+04 -1.691319e+04
8.766106e+04 6.031149e+04 -2.623797e+04
1.014476e+05 7.221395e+04 -2.570371e+04
9.080721e+04 8.288043e+04 -1.246151e+04
8.081477e+04 8.782050e+04 0.000000e+00
1.097046e+05 8.908332e+04 -1.719823e+04
9.660425e+04 9.485042e+04 0.000000e+00
8.368726e+04 9.023755e+04 -1.601542e+04
1.198671e+05 7.439406e+04 -2.769721e+04
1.333302e+05 8.542562e+04 -2.531612e+04
1.225141e+05 9.701612e+04 -1.306810e+04
1.372694e+05 1.024467e+05 -1.443890e+04
1.123937e+05 1.018804e+05 0.000000e+00
1.281832e+05 1.089103e+05 0.000000e+00
1.150343e+05 1.039300e+05 -1.633944e+04
1.439727e+05 1.159402e+05 0.000000e+00
1.542224e+05 1.111158e+05 -1.545371e+04
1.686335e+05 1.157821e+05 -1.412773e+04
1.667904e+05 9.732741e+04 -2.529047e+04
1.597621e+05 1.229701e+05 0.000000e+00
1.516177e+05 9.084874e+04 -2.754630e+04
1.755516e+05 1.300001e+05 0.000000e+00
1.828508e+05 1.250902e+05 -1.581079e+04
2.028899e+05 1.293671e+05 -1.590645e+04
1.966858e+05 1.150087e+05 -2.192310e+04
1.826714e+05 1.054088e+05 -2.585752e+04
1.913411e+05 1.370300e+05 0.000000e+00
2.112703e+05 1.191614e+05 -2.403161e+04
2.247120e+05 1.284726e+05 -2.388470e+04
2.152652e+05 1.351160e+05 -1.428560e+04
2.071306e+05 1.440599e+05 0.000000e+00
2.311168e+05 1.449282e+05 -1.495769e+04
2.229200e+05 1.510898e+05 0.000000e+00
2.414609e+05 1.498148e+05 -1.194227e+04
2.386890e+05 1.576652e+05 0.000000e+00
2.415467e+05 1.340110e+05 -2.508665e+04
2.525103e+05 1.450830e+05 -2.261936e+04
2.567232e+05 1.612086e+05 -1.392802e+04
2.544785e+05 1.646951e+05 0.000000e+00
-1.139177e+05 -6.005634e+04 -3.677787e+04
-1.258410e+05 -4.813523e+04 -3.021472e+04
-1.083914e+05 -5.221481e+04 -3.865278e+04
-1.159328e+05 -4.098991e+04 -2.973441e+04
-1.032946e+05 -4.227429e+04 -3.354725e+04
-1.271069e+05 -3.322807e+04 -2.251336e+04
-1.151391e+05 -3.346280e+04 -2.166055e+04
-1.394157e+05 -4.019092e+04 -2.078435e+04
-1.440896e+05 -3.292554e+04 -2.786238e+04
-2.662637e+05 -1.076005e+05 -3.533657e+04
-2.484553e+05 -1.044377e+05 -3.280584e+04
-2.471995e+05 -1.209135e+05 -4.381223e+04
-2.667550e+05 -1.250303e+05 -4.060210e+04
3.578830e+04 3.692287e+04 -3.998049e+04
5.087629e+04 2.914896e+04 -3.516463e+04
3.654252e+04 2.044920e+04 -3.589223e+04
1.898704e+04 1.514527e+04 -3.576301e+04
3.592426e+04 2.889311e+03 -4.161263e+04
5.045165e+04 1.207973e+04 -4.153669e+04
6.919741e+04 3.399151e+04 -3.499330e+04
6.683877e+04 1.645572e+04 -4.287573e+04
6.547841e+04 5.120460e+04 -3.980272e+04
8.130455e+04 4.379846e+04 -3.447928e+04
9.729729e+04 4.953667e+04 -3.246196e+04
8.285069e+04 2.619180e+04 -4.123647e+04
9.928984e+04 3.164263e+04 -4.331795e+04
9.706434e+04 6.201142e+04 -3.527635e+04
1.115501e+05 5.498103e+04 -3.747263e+04
1.317924e+05 6.218120e+04 -3.544038e+04
1.302753e+05 4.393797e+04 -4.155538e+04
1.162664e+05 3.928852e+04 -4.109300e+04
1.278920e+05 7.969142e+04 -3.987332e+04
1.459383e+05 7.094460e+04 -3.542201e+04
1.616586e+05 7.690090e+04 -3.536140e+04
1.623252e+05 5.855314e+04 -4.174170e+04
1.459036e+05 5.485322e+04 -4.103444e+04
1.775741e+05 8.565939e+04 -3.451005e+04
1.914478e+05 9.252514e+04 -3.274794e+04
1.753070e+05 6.844482e+04 -4.057926e+04
1.624361e+05 9.262196e+04 -4.000508e+04
1.946859e+05 7.500059e+04 -4.425530e+04
1.932333e+05 1.068668e+05 -3.486085e+04
2.079131e+05 9.697308e+04 -3.736528e+04
2.127328e+05 1.004193e+05 -5.000000e+04
2.059650e+05 1.115045e+05 -3.109711e+04
2.243637e+05 1.015574e+05 -3.519141e+04
2.216499e+05 1.156527e+05 -3.417025e+04
2.270805e+05 8.795512e+04 -4.371107e+04
2.112222e+05 8.153047e+04 -4.135963e+04
2.423412e+05 1.131888e+05 -5.000000e+04
2.566848e+05 9.886837e+04 -4.332572e+04
2.390116e+05 1.096947e+05 -3.839492e+04
2.428632e+05 9.367932e+04 -4.142112e+04
2.574696e+05 1.149676e+05 -3.685524e+04
2.532321e+05 1.291705e+05 -3.529201e+04
2.358077e+05 1.227840e+05 -3.163606e+04
2.246149e+05 1.340124e+05 -3.834366e+04
2.613955e+05 1.363242e+05 -4.397240e+04
-3.132069e+03 2.439036e+04 -4.035593e+04
-1.233874e+04 -1.539391e+03 -3.473070e+04
4.264376e+03 5.692228e+03 -3.551136e+04
2.950820e+03 -1.149620e+04 -4.143888e+04
1.917361e+04 -1.208475e+03 -4.115216e+04
-4.156591e+04 -1.279035e+04 -3.539025e+04
-2.495633e+04 -8.958901e+03 -3.437116e+04
-2.462866e+04 -2.150192e+04 -3.968266e+04
-1.262339e+04 -1.552829e+04 -4.038106e+04
-2.716391e+04 1.225343e+03 -4.091856e+04
2.630755e+05 1.066718e+05 -4.681247e+04
-3.782885e+04 -2.995072e+04 -4.243458e+04
1.610317e+05 5.435579e+04 -4.723367e+04
1.293872e+05 4.021667e+04 -4.712517e+04
7.520605e+04 2.351102e+04 -4.711414e+04
3.425885e+04 -1.962082e+03 -4.735797e+04
1.430350e+03 -1.606636e+04 -4.737445e+04
-6.068501e+04 -4.311805e+04 -4.691398e+04
-2.122253e+05 -7.624259e+04 -3.296213e+04
-1.960021e+05 -7.556327e+04 -3.307784e+04
-2.018152e+05 -8.914874e+04 -5.000000e+04
-2.048966e+05 -8.996405e+04 -3.699587e+04
-1.987246e+05 -1.009620e+05 -4.011388e+04
-1.884929e+05 -8.702564e+04 -3.834152e+04
-2.340016e+05 -9.979533e+04 -3.718087e+04
-2.195208e+05 -9.063646e+04 -3.236300e+04
-2.132002e+05 -1.045700e+05 -4.133592e+04
-1.861159e+05 -1.009839e+05 -4.179989e+04
-1.887224e+05 -1.035265e+05 -4.750931e+04
-2.290003e+05 -1.151450e+05 -4.155641e+04
-1.714612e+05 -7.020761e+04 -4.499974e+04
-1.010690e+05 -3.241376e+04 -4.050180e+04
-1.489499e+05 -4.885770e+04 -3.587273e+04
-2.921053e+05 -1.892336e+05 -5.000000e+04
-2.842105e+05 -1.857187e+05 -5.000000e+04
-2.921053e+05 -1.804345e+05 -5.000000e+04
-2.921053e+05 -1.813338e+05 -4.583333e+04
-2.946743e+05 -9.128070e+04 -4.559766e+03
-2.924531e+05 -1.017339e+05 -3.767804e+03
-2.933166e+05 -1.034212e+05 -8.715932e+03
-2.904582e+05 -9.666419e+04 -7.675633e+03
-2.849063e+05 -1.055174e+05 -7.535608e+03
-2.924531e+05 -1.096337e+05 -7.934471e+03
-2.921053e+05 -9.443535e+04 0.000000e+00
-2.842105e+05 -9.092038e+04 0.000000e+00
-2.845584e+05 -9.821889e+04 -3.767804e+03
-2.860599e+05 -8.962424e+04 -6.960145e+03
-2.921053e+05 -8.614472e+04 0.000000e+00
2.929055e+05 1.739193e+05 0.000000e+00
2.943758e+05 1.666694e+05 -5.296143e+03
2.928309e+05 1.609993e+05 -1.082346e+04
2.842105e+05 1.621570e+05 0.000000e+00
2.921053e+05 1.656719e+05 0.000000e+00
2.921053e+05 1.577721e+05 -4.166667e+03
2.884159e+05 1.650619e+05 -5.386295e+03
2.850107e+05 1.704043e+05 0.000000e+00
2.946606e+05 8.577643e+04 -4.646602e+04
2.928769e+05 7.912098e+04 -5.000000e+04
2.849821e+05 7.560602e+04 -5.000000e+04
2.871281e+05 8.414356e+04 -4.557203e+04
2.842105e+05 6.735869e+04 -5.000000e+04
2.921053e+05 7.087365e+04 -5.000000e+04
2.845516e+05 7.481967e+04 -4.614491e+04
2.924464e+05 7.833463e+04 -4.614491e+04
2.848927e+05 8.228065e+04 -4.228983e+04
2.924464e+05 8.623449e+04 -4.197825e+04
-1.493375e+05 -8.775002e+04 -3.000000e+04
-1.487615e+05 -8.092905e+04 -2.653765e+04
-1.427082e+05 -8.479848e+04 -3.000000e+04
-1.462675e+05 -7.774609e+04 -3.240133e+04
-1.481854e+05 -7.410809e+04 -2.307531e+04
-1.421322e+05 -7.797751e+04 -2.653765e+04
-1.440134e+05 -7.080571e+04 -2.869521e+04
-1.360790e+05 -8.184694e+04 -3.000000e+04
-1.383873e+05 -7.464032e+04 -3.355895e+04
-1.530689e+05 -8.200876e+04 -3.326532e+04
-1.596595e+05 -7.058524e+04 -2.735029e+04
-1.606595e+05 -7.950637e+04 -2.941602e+04
-1.547800e+05 -7.832338e+04 -2.375000e+04
-1.574379e+05 -8.605907e+04 -2.720593e+04
-1.602225e+05 -6.889674e+04 -1.750000e+04
-1.628804e+05 -7.663243e+04 -2.095593e+04
-1.655383e+05 -8.436813e+04 -2.441186e+04
-1.321161e+05 -8.049913e+04 -3.782519e+04
-1.415649e+05 -8.186161e+04 -3.680606e+04
-1.515885e+05 -7.400917e+04 -2.941780e+04
-1.475294e+05 -9.642484e+04 -3.500000e+04
-1.499822e+05 -1.018214e+05 -4.355268e+04
-1.428688e+05 -9.699592e+04 -4.266774e+04
-1.457214e+05 -1.050997e+05 -4.000000e+04
-1.436310e+05 -8.784473e+04 -3.875759e+04
-1.513098e+05 -9.140053e+04 -3.765833e+04
-1.525295e+05 -1.012919e+05 -3.639288e+04
-1.543376e+05 -9.261705e+04 -3.139288e+04
-1.588308e+05 -9.458492e+04 -3.743981e+04
-1.593377e+05 -9.748409e+04 -3.278577e+04
-1.323080e+05 -8.846184e+04 -3.998357e+04
-1.396347e+05 -9.290988e+04 -3.500000e+04
-1.299319e+05 -9.806974e+04 -4.000000e+04
-1.330054e+05 -8.995834e+04 -3.500000e+04
-1.542039e+05 -7.150241e+04 -2.028765e+04
-1.591360e+05 -8.666308e+04 -3.365964e+04
-1.624380e+05 -9.092611e+04 -2.859881e+04
-1.508100e+05 -8.606536e+04 -4.075846e+04
-1.330228e+05 -9.471123e+04 -4.368429e+04
-1.378266e+05 -1.015847e+05 -4.000000e+04
-6.269735e+04 -5.154288e+04 -3.124873e+04
-6.224035e+04 -5.251501e+04 -3.686626e+04
-6.302402e+04 -4.531646e+04 -3.405104e+04
-5.560835e+04 -5.075420e+04 -3.249746e+04
-6.856539e+04 -4.279738e+04 -3.222671e+04
-7.084498e+04 -5.146829e+04 -3.521813e+04
-6.978636e+04 -5.233156e+04 -3.000000e+04
-7.566966e+04 -4.978090e+04 -2.727311e+04
-7.984829e+04 -4.258934e+04 -2.816115e+04
-7.853261e+04 -4.871672e+04 -3.192049e+04
-8.155297e+04 -4.723023e+04 -2.454623e+04
-7.440906e+04 -4.411859e+04 -3.055463e+04
-6.530647e+04 -4.383099e+04 -2.656850e+04
-6.312424e+04 -3.637710e+04 -3.212067e+04
-7.041243e+04 -3.578820e+04 -2.847846e+04
-6.082659e+04 -3.533041e+04 -2.313700e+04
-5.857739e+04 -6.630067e+04 -4.000000e+04
-5.709287e+04 -5.852743e+04 -3.624873e+04
-6.447058e+04 -5.976189e+04 -4.139169e+04
-6.418187e+04 -5.931611e+04 -3.500000e+04
-7.074895e+04 -3.440435e+04 -2.031850e+04
-7.522883e+04 -4.290492e+04 -2.375000e+04
-8.067130e+04 -3.347828e+04 -1.750000e+04
-7.859471e+04 -3.565781e+04 -2.580518e+04
-7.272325e+04 -4.306110e+04 -3.627076e+04
-6.647213e+04 -6.981563e+04 -4.000000e+04
-7.380132e+04 -6.322676e+04 -3.986898e+04
-7.436686e+04 -7.333059e+04 -4.000000e+04
-7.207661e+04 -6.283108e+04 -3.500000e+04
-5.821747e+04 -4.304231e+04 -2.781723e+04
-8.040605e+04 -5.517952e+04 -3.621300e+04
-8.304488e+04 -5.823464e+04 -3.000000e+04
-7.641562e+04 -5.528310e+04 -3.000000e+04
-8.229893e+04 -5.273243e+04 -2.727311e+04
-7.870587e+04 -6.578262e+04 -3.500000e+04
-8.111214e+04 -4.035426e+04 -2.102311e+04
-1.640357e+05 -6.207105e+04 -2.055792e+04
-1.683371e+05 -5.348444e+04 -1.458683e+04
-1.709966e+05 -5.906852e+04 -1.787214e+04
-1.656649e+05 -5.947010e+04 -1.125000e+04
-1.683228e+05 -6.720579e+04 -1.470593e+04
-1.711074e+05 -5.004346e+04 -5.000000e+03
-1.737653e+05 -5.777915e+04 -8.455930e+03
-1.764232e+05 -6.551485e+04 -1.191186e+04
-1.625529e+05 -5.577960e+04 -1.585998e+04
-1.650889e+05 -5.264913e+04 -7.787654e+03
-1.596464e+05 -6.207577e+04 -1.403765e+04
-1.590704e+05 -5.525481e+04 -1.057531e+04
-1.717516e+05 -4.796032e+04 -3.750000e+03
-1.698483e+05 -4.269567e+04 -9.040399e+03
-1.784181e+05 -4.495482e+04 -8.710303e+03
-1.723958e+05 -4.587718e+04 -2.500000e+03
-1.773131e+05 -4.964070e+04 -9.345548e+03
-1.695265e+05 -4.700980e+04 -1.046383e+04
-1.634379e+05 -4.956610e+04 -1.284332e+04
-1.742690e+05 -5.162054e+04 -1.630788e+04
-1.802905e+05 -4.939214e+04 -2.500000e+03
-1.796463e+05 -5.147528e+04 -3.750000e+03
-1.881853e+05 -5.290710e+04 -2.500000e+03
-1.854383e+05 -5.070073e+04 -8.525587e+03
-1.772813e+05 -6.060490e+04 -2.154733e+04
-1.806992e+05 -5.513024e+04 -1.431890e+04
-1.578489e+05 -4.414038e+04 -5.000000e+03
-1.584596e+05 -4.969759e+04 -7.787654e+03
-1.644781e+05 -4.709192e+04 -5.000000e+03
-1.613105e+05 -4.389563e+04 -1.082150e+04
-1.823042e+05 -5.921098e+04 -7.205930e+03
-1.651223e+05 -4.500878e+04 -3.750000e+03
-7.171153e+04 -1.647713e+04 -1.063700e+04
-7.619142e+04 -2.497771e+04 -1.406850e+04
-8.163389e+04 -1.555107e+04 -7.818502e+03
-7.649081e+04 -1.911904e+04 -1.940647e+04
-8.611378e+04 -2.405164e+04 -1.125000e+04
-8.283791e+04 -2.595893e+04 -2.115424e+04
-9.155625e+04 -1.462500e+04 -5.000000e+03
-8.589334e+04 -1.695322e+04 -1.450029e+04
-9.199708e+04 -2.150098e+04 -8.523114e+03
-8.655461e+04 -3.092762e+04 -1.477311e+04
-9.243792e+04 -2.837695e+04 -1.204623e+04
-8.987309e+04 -2.241945e+04 -1.664294e+04
-8.440363e+04 -1.191063e+04 -1.102837e+04
-9.154402e+04 -1.048680e+04 -1.173403e+04
-8.840403e+04 -1.085159e+04 -3.750000e+03
-8.156501e+04 -6.635102e+03 -1.125141e+04
-8.917610e+04 -5.186483e+03 -8.754966e+03
-8.525181e+04 -7.078170e+03 -2.500000e+03
-7.848167e+04 -1.177765e+04 -6.568502e+03
-7.777521e+04 -1.280495e+04 -1.429426e+04
-9.409586e+04 -1.677293e+04 -1.210888e+04
-9.583592e+04 -2.228503e+04 -1.376773e+04
-9.314655e+04 -1.059313e+04 -2.500000e+03
-9.629877e+04 -1.436655e+04 -3.750000e+03
-1.010413e+05 -1.410810e+04 -2.500000e+03
-9.847434e+04 -9.079791e+03 -8.316983e+03
-1.029280e+05 -1.731809e+04 -3.750000e+03
-9.862586e+04 -1.406471e+04 -1.002445e+04
-9.818551e+04 -1.757654e+04 -5.000000e+03
-1.048148e+05 -2.052808e+04 -5.000000e+03
-1.018925e+05 -1.937287e+04 -1.206474e+04
-9.862635e+04 -2.445251e+04 -8.523114e+03
-2.921053e+05 -1.734339e+05 -4.166667e+04
-2.842105e+05 -1.699190e+05 -4.166667e+04
-2.907488e+05 -1.645450e+05 -4.302195e+04
-2.921053e+05 -1.655341e+05 -3.750000e+04
-2.922691e+05 -1.569250e+05 -3.292081e+04
-2.919709e+05 -1.556130e+05 -3.736976e+04
-2.898289e+05 -1.461473e+05 -3.592627e+04
-2.845382e+05 -1.527009e+05 -3.250829e+04
-2.843744e+05 -1.613099e+05 -3.708748e+04
-2.922691e+05 -1.490252e+05 -2.875415e+04
-2.924531e+05 -1.175336e+05 -1.210114e+04
-2.849063e+05 -1.213171e+05 -1.586894e+04
-2.924531e+05 -1.254334e+05 -1.626780e+04
-2.936469e+05 -1.199436e+05 -1.741613e+04
-2.921358e+05 -1.331294e+05 -2.858425e+04
-2.922691e+05 -1.332255e+05 -2.042081e+04
-2.922691e+05 -1.411253e+05 -2.458748e+04
-2.845382e+05 -1.369012e+05 -2.417496e+04
-2.920954e+05 -1.242149e+05 -2.386057e+04
-2.847222e+05 -1.291091e+05 -2.002195e+04
2.939972e+05 1.527829e+05 -1.546797e+04
2.922054e+05 1.444270e+05 -2.036689e+04
2.842105e+05 1.463573e+05 -8.333333e+03
2.921053e+05 1.498722e+05 -8.333333e+03
2.921053e+05 1.419724e+05 -1.250000e+04
2.858414e+05 1.514905e+05 -1.549295e+04
2.827651e+05 1.303865e+05 -1.641747e+04
2.834878e+05 1.383719e+05 -1.237540e+04
2.913826e+05 1.339870e+05 -1.654207e+04
2.830970e+05 1.424735e+05 -1.941999e+04
2.929858e+05 1.383271e+05 -2.586694e+04
2.855516e+05 1.379367e+05 -2.434442e+04
2.938649e+05 1.254219e+05 -2.793030e+04
2.948454e+05 1.323687e+05 -2.520237e+04
2.876545e+05 1.304875e+05 -2.549814e+04
2.913826e+05 1.260871e+05 -2.070873e+04
2.935253e+05 9.251492e+04 -4.374851e+04
2.948710e+05 1.007297e+05 -3.889553e+04
2.881347e+05 9.898113e+04 -3.908866e+04
2.924464e+05 9.413435e+04 -3.781158e+04
2.924464e+05 1.020342e+05 -3.364491e+04
2.848927e+05 9.808036e+04 -3.395650e+04
2.931002e+05 1.178504e+05 -3.309703e+04
2.918930e+05 1.075042e+05 -3.583495e+04
2.839253e+05 1.128909e+05 -3.337247e+04
2.913826e+05 1.181873e+05 -2.487540e+04
2.827651e+05 1.145868e+05 -2.475080e+04
2.913826e+05 1.102874e+05 -2.904207e+04
2.857576e+05 1.049040e+05 -3.569928e+04
2.838289e+05 1.063336e+05 -2.935365e+04
2.934335e+05 1.048978e+05 -4.057724e+04
2.691927e+05 6.857609e+04 -5.000000e+04
2.770874e+05 7.209105e+04 -5.000000e+04
2.717583e+05 7.701618e+04 -4.569961e+04
2.684211e+05 6.032876e+04 -5.000000e+04
2.763158e+05 6.384373e+04 -5.000000e+04
2.687622e+05 6.778974e+04 -4.614491e+04
2.766569e+05 7.130471e+04 -4.614491e+04
2.691033e+05 7.525072e+04 -4.228983e+04
2.641172e+05 7.191614e+04 -4.659386e+04
2.614600e+05 6.534009e+04 -5.000000e+04
2.535653e+05 6.182512e+04 -5.000000e+04
2.562700e+05 7.053625e+04 -4.555844e+04
2.526316e+05 5.329884e+04 -5.000000e+04
2.605263e+05 5.681380e+04 -5.000000e+04
2.533010e+05 6.120937e+04 -4.598490e+04
2.611957e+05 6.472433e+04 -4.598490e+04
2.539704e+05 6.911989e+04 -4.196981e+04
2.615368e+05 7.218531e+04 -4.212982e+04
2.377758e+05 5.479520e+04 -5.000000e+04
2.456705e+05 5.831016e+04 -5.000000e+04
2.406857e+05 6.364481e+04 -4.552086e+04
2.368421e+05 4.626891e+04 -5.000000e+04
2.447368e+05 4.978387e+04 -5.000000e+04
2.375115e+05 5.417944e+04 -4.598490e+04
2.454063e+05 5.769440e+04 -4.598490e+04
2.381809e+05 6.208997e+04 -4.196981e+04
2.219863e+05 4.776527e+04 -5.000000e+04
2.298811e+05 5.128023e+04 -5.000000e+04
2.248294e+05 5.675689e+04 -4.547235e+04
2.210526e+05 3.923898e+04 -5.000000e+04
2.289474e+05 4.275395e+04 -5.000000e+04
2.218086e+05 4.718981e+04 -4.598397e+04
2.297033e+05 5.070477e+04 -4.598397e+04
2.225646e+05 5.514064e+04 -4.196795e+04
2.328526e+05 5.829875e+04 -4.650965e+04
2.303728e+05 5.861530e+04 -4.196888e+04
2.061969e+05 4.073534e+04 -5.000000e+04
2.140916e+05 4.425031e+04 -5.000000e+04
2.091557e+05 4.965701e+04 -4.552914e+04
2.052632e+05 3.220906e+04 -5.000000e+04
2.131579e+05 3.572402e+04 -5.000000e+04
2.060191e+05 4.015989e+04 -4.598397e+04
2.139139e+05 4.367485e+04 -4.598397e+04
2.067751e+05 4.811071e+04 -4.196795e+04
1.904074e+05 3.370542e+04 -5.000000e+04
1.983021e+05 3.722038e+04 -5.000000e+04
1.931903e+05 4.277823e+04 -4.546379e+04
1.894737e+05 2.517913e+04 -5.000000e+04
1.973684e+05 2.869409e+04 -5.000000e+04
1.902411e+05 3.313530e+04 -4.598385e+04
1.981358e+05 3.665027e+04 -4.598385e+04
1.910085e+05 4.109147e+04 -4.196769e+04
2.012759e+05 4.427827e+04 -4.649583e+04
1.988918e+05 4.460109e+04 -4.196782e+04
1.746179e+05 2.667549e+04 -5.000000e+04
1.825127e+05 3.019045e+04 -5.000000e+04
1.763308e+05 3.587291e+04 -4.569231e+04
1.736842e+05 1.814920e+04 -5.000000e+04
1.815789e+05 2.166417e+04 -5.000000e+04
1.744516e+05 2.610538e+04 -4.598385e+04
1.823464e+05 2.962034e+04 -4.598385e+04
1.752191e+05 3.406155e+04 -4.196769e+04
1.667232e+05 2.316053e+04 -5.000000e+04
1.696406e+05 3.015031e+04 -4.624540e+04
1.606159e+05 2.922322e+04 -4.566732e+04
1.665581e+05 2.259100e+04 -4.598383e+04
1.673256e+05 3.054717e+04 -4.196768e+04
1.594321e+05 2.703279e+04 -4.196766e+04
1.588284e+05 1.964556e+04 -5.000000e+04
1.578947e+05 1.111928e+04 -5.000000e+04
1.657895e+05 1.463424e+04 -5.000000e+04
1.586634e+05 1.907604e+04 -4.598383e+04
1.430390e+05 1.261564e+04 -5.000000e+04
1.509337e+05 1.613060e+04 -5.000000e+04
1.454397e+05 1.961037e+04 -4.630515e+04
1.421053e+05 4.089352e+03 -5.000000e+04
1.500000e+05 7.604315e+03 -5.000000e+04
1.428739e+05 1.204611e+04 -4.598383e+04
1.507687e+05 1.556107e+04 -4.598383e+04
1.436426e+05 2.000287e+04 -4.196766e+04
1.272495e+05 5.585710e+03 -5.000000e+04
1.351442e+05 9.100674e+03 -5.000000e+04
1.301759e+05 1.453047e+04 -4.550559e+04
1.263158e+05 -2.940575e+03 -5.000000e+04
1.342105e+05 5.743884e+02 -5.000000e+04
1.270844e+05 5.016218e+03 -4.598378e+04
1.349791e+05 8.531182e+03 -4.598378e+04
1.278529e+05 1.297301e+04 -4.196757e+04
1.381308e+05 1.595955e+04 -4.655239e+04
1.357478e+05 1.648794e+04 -4.196761e+04
1.114600e+05 -1.444216e+03 -5.000000e+04
1.193548e+05 2.070747e+03 -5.000000e+04
1.144248e+05 7.482591e+03 -4.550956e+04
1.105263e+05 -9.970501e+03 -5.000000e+04
1.184211e+05 -6.455538e+03 -5.000000e+04
1.112949e+05 -2.013708e+03 -4.598378e+04
1.191896e+05 1.501255e+03 -4.598378e+04
1.120634e+05 5.943085e+03 -4.196757e+04
1.035653e+05 -4.959179e+03 -5.000000e+04
1.026316e+05 -1.348546e+04 -5.000000e+04
1.033987e+05 -5.528589e+03 -4.598341e+04
9.567054e+04 -8.474143e+03 -5.000000e+04
9.852716e+04 5.794361e+02 -4.543671e+04
9.473684e+04 -1.700043e+04 -5.000000e+04
9.550397e+04 -9.043553e+03 -4.598341e+04
9.627111e+04 -1.086677e+03 -4.196681e+04
1.065552e+05 2.111149e+03 -4.649700e+04
1.041673e+05 2.428204e+03 -4.196719e+04
8.777581e+04 -1.198911e+04 -5.000000e+04
8.684211e+04 -2.051539e+04 -5.000000e+04
8.760924e+04 -1.255852e+04 -4.598341e+04
7.988107e+04 -1.550407e+04 -5.000000e+04
8.285963e+04 -6.603514e+03 -4.553008e+04
7.894737e+04 -2.403035e+04 -5.000000e+04
7.971450e+04 -1.607348e+04 -4.598341e+04
8.048163e+04 -8.116604e+03 -4.196681e+04
6.409160e+04 -2.253400e+04 -5.000000e+04
7.198633e+04 -1.901903e+04 -5.000000e+04
6.690696e+04 -1.351611e+04 -4.548967e+04
6.315789e+04 -3.106028e+04 -5.000000e+04
7.105263e+04 -2.754532e+04 -5.000000e+04
6.392638e+04 -2.310411e+04 -4.598409e+04
7.182112e+04 -1.958915e+04 -4.598409e+04
6.469486e+04 -1.514794e+04 -4.196819e+04
7.495758e+04 -1.196549e+04 -4.650010e+04
7.258825e+04 -1.163227e+04 -4.196750e+04
4.830212e+04 -2.956392e+04 -5.000000e+04
5.619686e+04 -2.604896e+04 -5.000000e+04
5.126414e+04 -2.056632e+04 -4.552348e+04
4.736842e+04 -3.809021e+04 -5.000000e+04
5.526316e+04 -3.457524e+04 -5.000000e+04
4.813691e+04 -3.013404e+04 -4.598409e+04
5.603164e+04 -2.661907e+04 -4.598409e+04
4.890539e+04 -2.217786e+04 -4.196819e+04
4.035335e+04 -3.304971e+04 -5.000000e+04
4.024066e+04 -3.364855e+04 -4.598350e+04
4.326977e+04 -2.593842e+04 -4.643896e+04
4.100915e+04 -2.569238e+04 -4.196760e+04
3.425091e+04 -2.719349e+04 -4.564001e+04
3.311290e+04 -2.920689e+04 -4.196701e+04
3.947368e+04 -4.160517e+04 -5.000000e+04
3.245861e+04 -3.656468e+04 -5.000000e+04
3.157895e+04 -4.512013e+04 -5.000000e+04
3.234593e+04 -3.716351e+04 -4.598350e+04
2.456388e+04 -4.007964e+04 -5.000000e+04
2.368421e+04 -4.863510e+04 -5.000000e+04
2.445119e+04 -4.067848e+04 -4.598350e+04
1.666914e+04 -4.359460e+04 -5.000000e+04
1.936153e+04 -3.458407e+04 -4.544426e+04
1.578947e+04 -5.215006e+04 -5.000000e+04
1.655645e+04 -4.419344e+04 -4.598350e+04
1.732343e+04 -3.623682e+04 -4.196701e+04
8.603975e+03 -4.697397e+04 -5.000000e+04
8.670640e+03 -4.768738e+04 -4.597451e+04
1.156099e+04 -3.992023e+04 -4.642206e+04
9.437618e+03 -3.973076e+04 -4.195801e+04
2.456403e+03 -4.114228e+04 -4.563089e+04
1.551807e+03 -4.322469e+04 -4.194902e+04
7.894737e+03 -5.566502e+04 -5.000000e+04
7.092383e+02 -5.048894e+04 -5.000000e+04
0.000000e+00 -5.917999e+04 -5.000000e+04
7.759035e+02 -5.120234e+04 -4.597451e+04
-7.185499e+03 -5.400390e+04 -5.000000e+04
-7.894737e+03 -6.269495e+04 -5.000000e+04
-7.118833e+03 -5.471730e+04 -4.597451e+04
-1.508024e+04 -5.751886e+04 -5.000000e+04
-1.340060e+04 -4.911713e+04 -4.575027e+04
-1.578947e+04 -6.620991e+04 -5.000000e+04
-1.501357e+04 -5.823227e+04 -4.597451e+04
-1.423767e+04 -5.025462e+04 -4.194902e+04
-2.219969e+04 -6.195165e+04 -4.624873e+04
-2.332942e+04 -5.218086e+04 -4.558045e+04
-2.947952e+04 -5.752041e+04 -4.661655e+04
-2.860990e+04 -5.769338e+04 -4.249746e+04
-2.313564e+04 -6.119488e+04 -5.000000e+04
-2.368421e+04 -6.972488e+04 -5.000000e+04
-3.103037e+04 -6.470985e+04 -5.000000e+04
-3.157895e+04 -7.323984e+04 -5.000000e+04
-3.009443e+04 -6.546661e+04 -4.624873e+04
-2.142379e+04 -5.397400e+04 -4.222324e+04
-4.736842e+04 -8.026977e+04 -5.000000e+04
-4.588390e+04 -7.249654e+04 -4.624873e+04
-5.749078e+04 -7.477717e+04 -5.000000e+04
-5.297291e+04 -7.328522e+04 -4.500000e+04
-4.439938e+04 -6.472331e+04 -4.249746e+04
-5.114598e+04 -6.723794e+04 -4.628209e+04
-5.148838e+04 -6.551199e+04 -4.124873e+04
-5.995324e+04 -6.737916e+04 -4.448472e+04
-5.526316e+04 -8.378473e+04 -5.000000e+04
-6.538552e+04 -7.829213e+04 -5.000000e+04
-6.315789e+04 -8.729969e+04 -5.000000e+04
-6.086764e+04 -7.680018e+04 -4.500000e+04
-3.892511e+04 -6.822481e+04 -5.000000e+04
-3.947368e+04 -7.675480e+04 -5.000000e+04
-3.798916e+04 -6.898157e+04 -4.624873e+04
-4.681985e+04 -7.173977e+04 -5.000000e+04
-4.262749e+04 -6.449572e+04 -4.695584e+04
-7.328025e+04 -8.180710e+04 -5.000000e+04
-7.105263e+04 -9.081466e+04 -5.000000e+04
-6.876238e+04 -8.031514e+04 -4.500000e+04
-8.117499e+04 -8.532206e+04 -5.000000e+04
-7.608395e+04 -7.414905e+04 -4.569312e+04
-7.894737e+04 -9.432962e+04 -5.000000e+04
-7.665712e+04 -8.383011e+04 -4.500000e+04
-8.500832e+04 -7.597649e+04 -4.413302e+04
-8.762539e+04 -7.923367e+04 -4.000000e+04
-8.328638e+04 -8.678164e+04 -4.500000e+04
-8.099613e+04 -7.628213e+04 -4.000000e+04
-9.115926e+04 -8.281335e+04 -4.570323e+04
-8.921053e+04 -8.824712e+04 -5.000000e+04
-8.684211e+04 -9.784458e+04 -5.000000e+04
-9.710526e+04 -9.176208e+04 -5.000000e+04
-9.473684e+04 -1.013595e+05 -5.000000e+04
-9.118111e+04 -9.029661e+04 -4.500000e+04
-1.227360e+05 -9.300719e+04 -4.387932e+04
-1.128947e+05 -9.879201e+04 -5.000000e+04
-1.146156e+05 -8.855563e+04 -4.402261e+04
-1.202291e+05 -1.032296e+05 -4.500000e+04
-1.233026e+05 -9.511821e+04 -4.000000e+04
-1.105263e+05 -1.083895e+05 -5.000000e+04
-1.135999e+05 -1.002781e+05 -4.500000e+04
-1.166734e+05 -9.216667e+04 -4.000000e+04
-1.177410e+05 -1.037106e+05 -5.000000e+04
-1.184211e+05 -1.119044e+05 -5.000000e+04
-1.256357e+05 -1.072256e+05 -5.000000e+04
-1.246113e+05 -9.988520e+04 -4.622242e+04
-1.263158e+05 -1.154194e+05 -5.000000e+04
-1.281238e+05 -1.067446e+05 -4.500000e+04
-1.050000e+05 -9.527704e+04 -5.000000e+04
-1.026316e+05 -1.048745e+05 -5.000000e+04
-9.907585e+04 -9.381157e+04 -4.500000e+04
-1.066623e+05 -8.972158e+04 -4.575663e+04
-1.069706e+05 -9.732653e+04 -4.500000e+04
-1.034149e+05 -8.626359e+04 -4.000000e+04
-1.100441e+05 -8.921513e+04 -4.000000e+04
-1.439133e+05 -1.137745e+05 -4.500000e+04
-1.412251e+05 -1.064116e+05 -4.540602e+04
-1.480586e+05 -1.098978e+05 -4.621939e+04
-1.490886e+05 -1.166447e+05 -5.000000e+04
-1.414252e+05 -1.142555e+05 -5.000000e+04
-1.421053e+05 -1.224493e+05 -5.000000e+04
-1.489134e+05 -1.186415e+05 -4.639288e+04
-1.507215e+05 -1.099667e+05 -4.139288e+04
-1.560766e+05 -1.112029e+05 -4.585958e+04
-1.557215e+05 -1.148337e+05 -4.278577e+04
-1.335305e+05 -1.107406e+05 -5.000000e+04
-1.342105e+05 -1.189344e+05 -5.000000e+04
-1.360186e+05 -1.102595e+05 -4.500000e+04
-1.500000e+05 -1.259643e+05 -5.000000e+04
-1.569834e+05 -1.201596e+05 -5.000000e+04
-1.578947e+05 -1.294793e+05 -5.000000e+04
-1.568081e+05 -1.221565e+05 -4.639288e+04
-1.648781e+05 -1.236746e+05 -5.000000e+04
-1.657895e+05 -1.329942e+05 -5.000000e+04
-1.647029e+05 -1.256715e+05 -4.639288e+04
-1.727728e+05 -1.271896e+05 -5.000000e+04
-1.699479e+05 -1.191930e+05 -4.603367e+04
-1.736842e+05 -1.365092e+05 -5.000000e+04
-1.725976e+05 -1.291864e+05 -4.639288e+04
-1.715110e+05 -1.218637e+05 -4.278577e+04
-1.808669e+05 -1.316272e+05 -5.000000e+04
-1.815789e+05 -1.400241e+05 -5.000000e+04
-1.805872e+05 -1.317217e+05 -4.585388e+04
-1.887616e+05 -1.351422e+05 -5.000000e+04
-1.864455e+05 -1.261375e+05 -4.542366e+04
-1.894737e+05 -1.435391e+05 -5.000000e+04
-1.884820e+05 -1.352367e+05 -4.585388e+04
-1.874902e+05 -1.269342e+05 -4.170776e+04
-1.777245e+05 -1.246372e+05 -4.665753e+04
-1.795006e+05 -1.243989e+05 -4.224676e+04
-1.966564e+05 -1.386571e+05 -5.000000e+04
-1.973684e+05 -1.470541e+05 -5.000000e+04
-1.963767e+05 -1.387516e+05 -4.585388e+04
-2.045511e+05 -1.421721e+05 -5.000000e+04
-2.035950e+05 -1.328328e+05 -4.611642e+04
-2.052632e+05 -1.505690e+05 -5.000000e+04
-2.042714e+05 -1.422666e+05 -4.585388e+04
-2.032797e+05 -1.339641e+05 -4.170776e+04
-2.124926e+05 -1.461119e+05 -4.595147e+04
-2.117913e+05 -1.386560e+05 -4.521927e+04
-2.170031e+05 -1.427710e+05 -4.688131e+04
-2.197221e+05 -1.416548e+05 -4.190294e+04
-2.126882e+05 -1.453360e+05 -5.000000e+04
-2.131579e+05 -1.540840e+05 -5.000000e+04
-2.205830e+05 -1.488510e+05 -5.000000e+04
-2.210526e+05 -1.575990e+05 -5.000000e+04
-2.203874e+05 -1.496269e+05 -4.595147e+04
-2.115009e+05 -1.378095e+05 -4.180535e+04
-2.284777e+05 -1.523659e+05 -5.000000e+04
-2.289474e+05 -1.611139e+05 -5.000000e+04
-2.282821e+05 -1.531419e+05 -4.595147e+04
-2.363725e+05 -1.558809e+05 -5.000000e+04
-2.340697e+05 -1.465980e+05 -4.574389e+04
-2.368421e+05 -1.646289e+05 -5.000000e+04
-2.361769e+05 -1.566568e+05 -4.595147e+04
-2.355116e+05 -1.486848e+05 -4.190294e+04
-2.427447e+05 -1.506506e+05 -4.616753e+04
-2.448612e+05 -1.587723e+05 -5.000000e+04
-2.527559e+05 -1.622873e+05 -5.000000e+04
-2.506163e+05 -1.550253e+05 -4.588856e+04
-2.526316e+05 -1.716588e+05 -5.000000e+04
-2.447368e+05 -1.681439e+05 -5.000000e+04
-2.527954e+05 -1.630498e+05 -4.542081e+04
-2.449007e+05 -1.595348e+05 -4.542081e+04
-2.529593e+05 -1.544407e+05 -4.084162e+04
-2.442354e+05 -1.515628e+05 -4.137228e+04
-2.763158e+05 -1.822037e+05 -5.000000e+04
-2.842105e+05 -1.769196e+05 -5.000000e+04
-2.842105e+05 -1.778188e+05 -4.583333e+04
-2.684211e+05 -1.786887e+05 -5.000000e+04
-2.763158e+05 -1.734046e+05 -5.000000e+04
-2.763158e+05 -1.743038e+05 -4.583333e+04
-2.821596e+05 -1.682331e+05 -4.550714e+04
-2.739181e+05 -1.658525e+05 -4.620741e+04
-2.764796e+05 -1.656948e+05 -4.125415e+04
-2.685849e+05 -1.700797e+05 -4.542081e+04
-2.687487e+05 -1.614707e+05 -4.084162e+04
-2.685454e+05 -1.693172e+05 -5.000000e+04
-2.606507e+05 -1.658023e+05 -5.000000e+04
-2.663385e+05 -1.599724e+05 -4.504002e+04
-2.605263e+05 -1.751738e+05 -5.000000e+04
-2.606902e+05 -1.665647e+05 -4.542081e+04
-2.763158e+05 -8.740542e+04 0.000000e+00
-2.766637e+05 -9.470393e+04 -3.767804e+03
-2.788824e+05 -8.538735e+04 -5.182219e+03
-2.684211e+05 -8.389046e+04 0.000000e+00
-2.687689e+05 -9.118897e+04 -3.767804e+03
-2.712161e+05 -8.346359e+04 -6.102693e+03
-2.691168e+05 -9.848748e+04 -7.535608e+03
-2.732019e+05 -9.053029e+04 -1.052637e+04
-2.842105e+05 -8.262975e+04 0.000000e+00
-2.763158e+05 -7.911479e+04 0.000000e+00
-2.615287e+05 -9.564929e+04 -7.820552e+03
-2.660774e+05 -8.841953e+04 -9.608636e+03
-2.611809e+05 -8.835078e+04 -4.052748e+03
-2.632088e+05 -8.294181e+04 -6.228787e+03
-2.539407e+05 -9.281111e+04 -8.105497e+03
-2.577480e+05 -8.759290e+04 -1.122486e+04
-2.678357e+05 -7.533112e+04 0.000000e+00
-2.605263e+05 -8.037549e+04 0.000000e+00
-2.561338e+05 -7.748233e+04 -7.881101e+03
-2.599410e+05 -7.181615e+04 0.000000e+00
-2.526316e+05 -7.686053e+04 0.000000e+00
-2.532861e+05 -8.483582e+04 -4.052748e+03
-2.447368e+05 -7.334557e+04 0.000000e+00
-2.520462e+05 -6.830119e+04 0.000000e+00
-2.483741e+05 -7.228156e+04 -6.201420e+03
-2.400191e+05 -7.098023e+04 -6.215381e+03
-2.441515e+05 -6.478623e+04 0.000000e+00
-2.368421e+05 -6.983060e+04 0.000000e+00
-2.374966e+05 -7.780589e+04 -4.052748e+03
-2.381512e+05 -8.578119e+04 -8.105497e+03
-2.453914e+05 -8.132086e+04 -4.052748e+03
-2.419438e+05 -7.798587e+04 -1.356552e+04
-2.398923e+05 -6.468050e+04 -5.034123e+03
-2.337040e+05 -6.446584e+04 -7.450082e+03
-2.362138e+05 -6.117917e+04 0.000000e+00
-2.210526e+05 -6.280068e+04 0.000000e+00
-2.224716e+05 -7.061703e+04 -3.789402e+03
-2.289474e+05 -6.631564e+04 0.000000e+00
-2.235449e+05 -6.061109e+04 -9.015722e+03
-2.238906e+05 -7.843339e+04 -7.578803e+03
-2.303664e+05 -7.413199e+04 -3.789402e+03
-2.273671e+05 -6.930036e+04 -9.343110e+03
-2.283190e+05 -5.766420e+04 0.000000e+00
-2.337914e+05 -7.312428e+04 -1.071765e+04
-2.310209e+05 -8.210729e+04 -7.842150e+03
-1.894737e+05 -4.874082e+04 0.000000e+00
-1.888295e+05 -5.082396e+04 -1.250000e+03
-1.973684e+05 -5.225579e+04 0.000000e+00
-1.940563e+05 -4.759824e+04 -5.890320e+03
-1.967242e+05 -5.433893e+04 -1.250000e+03
-1.931062e+05 -5.281655e+04 -7.928281e+03
-2.052632e+05 -5.577075e+04 0.000000e+00
-2.003054e+05 -5.263229e+04 -5.475853e+03
-1.993821e+05 -6.207462e+04 -4.705930e+03
-1.908432e+05 -6.064280e+04 -5.955930e+03
-1.935011e+05 -6.837850e+04 -9.411859e+03
-1.976967e+05 -5.745815e+04 -9.493179e+03
-2.066822e+05 -6.358710e+04 -3.789402e+03
-2.131579e+05 -5.928571e+04 0.000000e+00
-2.063692e+05 -5.617737e+04 -7.001512e+03
-2.081012e+05 -7.140346e+04 -7.578803e+03
-2.145769e+05 -6.710207e+04 -3.789402e+03
-2.085376e+05 -6.412236e+04 -1.150262e+04
-2.153479e+05 -5.763335e+04 -6.405990e+03
-2.204243e+05 -5.414924e+04 0.000000e+00
-2.125296e+05 -5.063428e+04 0.000000e+00
-2.016042e+05 -6.259099e+04 -1.076800e+04
-2.045960e+05 -4.710293e+04 0.000000e+00
-2.008011e+05 -6.989098e+04 -8.495331e+03
-1.967012e+05 -4.358797e+04 0.000000e+00
-1.730400e+05 -4.379404e+04 -1.250000e+03
-1.775558e+05 -4.240525e+04 -5.546784e+03
-1.711155e+05 -4.037109e+04 -5.843609e+03
-1.701438e+05 -3.718144e+04 -3.474424e+03
-1.768649e+05 -3.813310e+04 -3.742243e+03
-1.736842e+05 -4.171090e+04 0.000000e+00
-1.815789e+05 -4.522586e+04 0.000000e+00
-1.809347e+05 -4.730900e+04 -1.250000e+03
-1.856526e+05 -4.216029e+04 -5.802114e+03
-1.664107e+05 -4.084250e+04 -1.250000e+03
-1.591373e+05 -3.997410e+04 -2.500000e+03
-1.657665e+05 -4.292564e+04 -2.500000e+03
-1.649580e+05 -3.773742e+04 -6.241729e+03
-1.888065e+05 -4.007301e+04 0.000000e+00
-1.809118e+05 -3.655804e+04 0.000000e+00
-1.727505e+05 -3.318461e+04 0.000000e+00
-1.578947e+05 -3.468097e+04 0.000000e+00
-1.585160e+05 -3.732754e+04 -1.250000e+03
-1.657895e+05 -3.819593e+04 0.000000e+00
-1.629074e+05 -3.223461e+04 -6.055453e+03
-1.648558e+05 -2.966965e+04 0.000000e+00
-1.421053e+05 -2.765104e+04 0.000000e+00
-1.427265e+05 -3.029761e+04 -1.250000e+03
-1.500000e+05 -3.116601e+04 0.000000e+00
-1.461883e+05 -2.465565e+04 -5.012765e+03
-1.433478e+05 -3.294417e+04 -2.500000e+03
-1.506213e+05 -3.381257e+04 -1.250000e+03
-1.487886e+05 -2.965546e+04 -6.751690e+03
-1.544235e+05 -2.800045e+04 -4.433046e+03
-1.569610e+05 -2.615469e+04 0.000000e+00
-1.490663e+05 -2.263972e+04 0.000000e+00
-1.392792e+05 -2.247183e+04 -4.331810e+03
-1.434291e+05 -2.330592e+04 -2.025512e+03
-1.411716e+05 -1.912476e+04 0.000000e+00
-1.408509e+05 -2.724122e+04 -6.386409e+03
-1.263158e+05 -2.062112e+04 0.000000e+00
-1.282025e+05 -2.383111e+04 -1.250000e+03
-1.342105e+05 -2.413608e+04 0.000000e+00
-1.321323e+05 -2.028587e+04 -3.821792e+03
-1.300893e+05 -2.704110e+04 -2.500000e+03
-1.360973e+05 -2.734607e+04 -1.250000e+03
-1.322855e+05 -2.360532e+04 -6.883491e+03
-1.367185e+05 -2.999264e+04 -2.500000e+03
-1.332768e+05 -1.560980e+04 0.000000e+00
-9.473684e+04 -6.561265e+03 0.000000e+00
-9.788906e+04 -1.033468e+04 -1.250000e+03
-1.026316e+05 -1.007623e+04 0.000000e+00
-9.900588e+04 -4.272702e+03 -4.195152e+03
-1.057838e+05 -1.384964e+04 -1.250000e+03
-1.031128e+05 -9.149068e+03 -5.624857e+03
-1.105263e+05 -1.359119e+04 0.000000e+00
-1.055756e+05 -5.784049e+03 -3.083310e+03
-1.124131e+05 -1.680118e+04 -1.250000e+03
-1.095422e+05 -1.186603e+04 -5.842747e+03
-1.076705e+05 -1.705963e+04 -2.500000e+03
-1.046443e+05 -1.369045e+04 -7.937281e+03
-1.142998e+05 -2.001117e+04 -2.500000e+03
-1.123033e+05 -1.651769e+04 -8.322029e+03
-1.184211e+05 -1.710615e+04 0.000000e+00
-1.168158e+05 -1.405847e+04 -5.100249e+03
-1.203078e+05 -2.031615e+04 -1.250000e+03
-1.196168e+05 -1.872837e+04 -7.555112e+03
-1.247819e+05 -1.631184e+04 -5.091655e+03
-1.253821e+05 -1.209483e+04 0.000000e+00
-1.174873e+05 -8.579869e+03 0.000000e+00
-1.102653e+05 -6.001731e+03 -6.131570e+03
-1.095926e+05 -5.064906e+03 0.000000e+00
-1.016979e+05 -1.549943e+03 0.000000e+00
-1.085323e+05 -1.133449e+03 -5.153551e+03
-8.209959e+04 -3.304754e+03 -1.250000e+03
-8.617336e+04 -2.045578e+03 -5.431797e+03
-8.029312e+04 -2.079723e+03 -8.205369e+03
-7.460110e+04 3.235359e+03 -7.261154e+03
-8.239171e+04 2.932373e+03 -4.608005e+03
-7.894737e+04 4.686618e+02 0.000000e+00
-7.217723e+04 -4.230819e+03 -4.068502e+03
-6.540709e+04 -8.930299e+03 -8.137004e+03
-7.532945e+04 -8.004235e+03 -5.318502e+03
-7.143158e+04 -2.191655e+03 -1.209202e+04
-8.684211e+04 -3.046302e+03 0.000000e+00
-8.999433e+04 -6.819718e+03 -1.250000e+03
-9.161992e+04 3.960162e+02 -4.931468e+03
-9.380314e+04 1.965020e+03 0.000000e+00
-8.590840e+04 5.479984e+03 0.000000e+00
-7.801367e+04 8.994947e+03 0.000000e+00
-7.630616e+04 8.986332e+03 -4.653523e+03
-7.105263e+04 3.983625e+03 0.000000e+00
-6.679165e+04 5.937916e+03 -8.723800e+03
-6.823673e+04 1.239335e+04 -6.559805e+03
-6.315789e+04 7.498588e+03 0.000000e+00
-6.428249e+04 -7.158553e+02 -4.068502e+03
-7.888816e+04 7.521508e+03 -9.722272e+03
-7.011893e+04 1.250991e+04 0.000000e+00
-5.526316e+04 1.101355e+04 0.000000e+00
-6.014735e+04 1.468374e+04 -5.184244e+03
-5.913460e+04 8.327673e+03 -7.517852e+03
-5.261332e+04 9.803277e+03 -6.741733e+03
-5.286392e+04 1.607198e+04 -6.442175e+03
-4.736842e+04 1.452851e+04 0.000000e+00
-4.849302e+04 6.314071e+03 -4.068502e+03
-4.961762e+04 -1.900372e+03 -8.137004e+03
-5.638776e+04 2.799108e+03 -4.068502e+03
-5.343151e+04 4.568651e+03 -1.119592e+04
-6.222419e+04 1.602487e+04 0.000000e+00
-5.432946e+04 1.953984e+04 0.000000e+00
-4.585940e+04 1.368827e+04 -1.011583e+04
-3.947368e+04 1.804348e+04 0.000000e+00
-3.506055e+04 1.837571e+04 -1.039370e+04
-3.935429e+04 2.307399e+04 -7.997518e+03
-3.157895e+04 2.155844e+04 0.000000e+00
-4.555166e+04 1.906796e+04 -5.480494e+03
-4.602243e+04 5.798798e+03 -1.200878e+04
-4.643472e+04 2.305480e+04 0.000000e+00
-4.021686e+04 1.002629e+04 -4.054031e+03
-3.306529e+04 5.524071e+03 -8.108063e+03
-4.134145e+04 1.811849e+03 -8.122533e+03
-3.824130e+04 8.844725e+03 -1.438088e+04
-3.853998e+04 2.656976e+04 0.000000e+00
-3.232212e+04 1.354126e+04 -4.054031e+03
-2.368421e+04 2.507340e+04 0.000000e+00
-2.826550e+04 2.744424e+04 -5.878251e+03
-2.633662e+04 2.161688e+04 -8.574986e+03
-1.917901e+04 2.325284e+04 -7.267870e+03
-1.808697e+04 2.936690e+04 -7.542562e+03
-1.578947e+04 2.858837e+04 0.000000e+00
-3.064524e+04 3.008473e+04 0.000000e+00
-2.275051e+04 3.359969e+04 0.000000e+00
-1.653265e+04 2.057118e+04 -4.054031e+03
-1.727582e+04 1.255400e+04 -8.108063e+03
-2.442738e+04 1.705622e+04 -4.054031e+03
-1.936772e+04 1.674743e+04 -1.218444e+04
-8.611987e+03 2.409710e+04 -4.054340e+03
-8.856966e+03 2.484570e+04 -1.215932e+04
-7.226511e+03 2.968534e+04 -8.481203e+03
-1.434499e+03 1.960584e+04 -8.108679e+03
-1.169899e+04 3.228380e+04 -4.897809e+03
-1.485577e+04 3.711465e+04 0.000000e+00
-9.355158e+03 1.607992e+04 -8.108371e+03
-1.357931e+04 2.154428e+04 -1.122515e+04
-7.894737e+03 3.210333e+04 0.000000e+00
-4.738049e+03 3.679760e+04 -7.731479e+03
-6.961034e+03 4.062962e+04 0.000000e+00
-1.164153e-10 3.561829e+04 0.000000e+00
-7.172497e+02 2.761207e+04 -4.054340e+03
7.894737e+03 3.913326e+04 0.000000e+00
9.337029e+02 4.414458e+04 0.000000e+00
4.959217e+03 4.056405e+04 -7.226115e+03
1.390706e+04 4.309965e+04 -6.022102e+03
8.828440e+03 4.765954e+04 0.000000e+00
1.578947e+04 4.264822e+04 0.000000e+00
1.507222e+04 3.464199e+04 -4.054340e+03
1.435497e+04 2.663576e+04 -8.108679e+03
7.177487e+03 3.112703e+04 -4.054340e+03
1.394606e+04 3.624272e+04 -1.104718e+04
1.672318e+04 5.117451e+04 0.000000e+00
2.180331e+04 4.779700e+04 -6.802426e+03
2.368421e+04 4.616318e+04 0.000000e+00
3.038405e+04 4.980496e+04 -6.364863e+03
2.461791e+04 5.468947e+04 0.000000e+00
3.157895e+04 4.967815e+04 0.000000e+00
2.294981e+04 3.814982e+04 -4.054075e+03
3.084454e+04 4.166478e+04 -4.054075e+03
3.011014e+04 3.365142e+04 -8.108150e+03
3.030354e+04 4.275067e+04 -1.020548e+04
2.132891e+04 4.032534e+04 -1.072088e+04
2.223256e+04 3.014359e+04 -8.108415e+03
3.947368e+04 5.319311e+04 0.000000e+00
3.251265e+04 5.820443e+04 0.000000e+00
3.824479e+04 5.465311e+04 -7.191185e+03
4.842090e+04 5.741520e+04 -7.372206e+03
4.040739e+04 6.171940e+04 0.000000e+00
4.736842e+04 5.670807e+04 0.000000e+00
3.873928e+04 4.517975e+04 -4.054075e+03
4.663402e+04 4.869471e+04 -4.054075e+03
4.589961e+04 4.068134e+04 -8.108150e+03
4.626598e+04 4.954859e+04 -9.876429e+03
5.454529e+04 5.221751e+04 -4.053825e+03
5.325502e+04 5.100843e+04 -1.299251e+04
5.715620e+04 5.763818e+04 -9.216183e+03
6.172217e+04 4.772695e+04 -8.107649e+03
5.372950e+04 6.305525e+04 -4.592914e+03
4.830212e+04 6.523436e+04 0.000000e+00
5.526316e+04 6.022304e+04 0.000000e+00
6.315789e+04 6.373800e+04 0.000000e+00
6.244003e+04 5.573248e+04 -4.053825e+03
6.226004e+04 6.472866e+04 -8.132805e+03
5.381089e+04 4.420415e+04 -8.107900e+03
5.619686e+04 6.874932e+04 0.000000e+00
5.083590e+04 6.603252e+04 -7.396375e+03
7.105263e+04 6.725296e+04 0.000000e+00
7.033477e+04 5.924744e+04 -4.053825e+03
6.998738e+04 6.910397e+04 -5.924462e+03
7.894737e+04 7.076793e+04 0.000000e+00
7.822951e+04 6.276240e+04 -4.053825e+03
8.002632e+04 7.118705e+04 -7.540910e+03
7.751164e+04 5.475688e+04 -8.107649e+03
7.605680e+04 6.331020e+04 -1.062629e+04
6.409160e+04 7.226429e+04 0.000000e+00
7.198633e+04 7.577925e+04 0.000000e+00
8.612648e+04 6.627841e+04 -4.053799e+03
8.546664e+04 6.547708e+04 -1.203320e+04
9.058215e+04 7.111778e+04 -1.002608e+04
9.330558e+04 6.178889e+04 -8.107598e+03
8.637850e+04 7.602506e+04 -5.017129e+03
7.988107e+04 7.929421e+04 0.000000e+00
8.684211e+04 7.428289e+04 0.000000e+00
9.354422e+04 7.798433e+04 -5.842589e+03
8.777581e+04 8.280918e+04 0.000000e+00
9.473684e+04 7.779785e+04 0.000000e+00
8.540861e+04 5.827288e+04 -8.107624e+03
9.402121e+04 6.979337e+04 -4.053799e+03
8.274659e+04 7.948297e+04 -7.584800e+03
1.026316e+05 8.131282e+04 0.000000e+00
9.567054e+04 8.632414e+04 0.000000e+00
1.012153e+05 8.265257e+04 -7.173406e+03
1.118946e+05 8.518721e+04 -7.922516e+03
1.035653e+05 8.983910e+04 0.000000e+00
1.105263e+05 8.482778e+04 0.000000e+00
1.019159e+05 7.330833e+04 -4.053799e+03
1.098107e+05 7.682330e+04 -4.053799e+03
1.090951e+05 6.881882e+04 -8.107598e+03
1.082386e+05 7.690233e+04 -1.187289e+04
1.177056e+05 8.033838e+04 -4.053787e+03
1.174857e+05 7.927012e+04 -1.240004e+04
1.224037e+05 8.489871e+04 -1.005517e+04
1.248849e+05 7.584897e+04 -8.107574e+03
1.183243e+05 9.012228e+04 -5.249290e+03
1.184211e+05 8.834274e+04 0.000000e+00
1.263158e+05 9.185771e+04 0.000000e+00
1.256004e+05 8.385334e+04 -4.053787e+03
1.268383e+05 9.257647e+04 -6.642892e+03
1.114600e+05 9.335407e+04 0.000000e+00
1.193548e+05 9.686903e+04 0.000000e+00
1.169900e+05 7.233389e+04 -8.107586e+03
1.148038e+05 9.358872e+04 -7.883331e+03
1.342105e+05 9.537267e+04 0.000000e+00
1.334951e+05 8.736830e+04 -4.053787e+03
1.336180e+05 9.684683e+04 -5.362120e+03
1.421053e+05 9.888763e+04 0.000000e+00
1.413898e+05 9.088327e+04 -4.053787e+03
1.408308e+05 9.875360e+04 -6.265054e+03
1.406744e+05 8.287890e+04 -8.107574e+03
1.375293e+05 9.127120e+04 -1.154089e+04
1.272495e+05 1.003840e+05 0.000000e+00
1.351442e+05 1.038990e+05 0.000000e+00
1.430390e+05 1.074139e+05 0.000000e+00
1.485490e+05 1.037359e+05 -7.232265e+03
1.500000e+05 1.024026e+05 0.000000e+00
1.492840e+05 9.439818e+04 -4.053677e+03
1.578947e+05 1.059176e+05 0.000000e+00
1.571787e+05 9.791314e+04 -4.053677e+03
1.582074e+05 1.065061e+05 -7.107165e+03
1.564627e+05 8.990872e+04 -8.107353e+03
1.567367e+05 9.820641e+04 -1.321197e+04
1.509337e+05 1.109289e+05 0.000000e+00
1.476176e+05 9.544936e+04 -1.231511e+04
1.485686e+05 8.639381e+04 -8.107464e+03
1.657895e+05 1.094325e+05 0.000000e+00
1.650735e+05 1.014281e+05 -4.053677e+03
1.650301e+05 1.108110e+05 -5.282550e+03
1.736842e+05 1.129475e+05 0.000000e+00
1.729682e+05 1.049431e+05 -4.053677e+03
1.720748e+05 1.126865e+05 -5.965342e+03
1.722522e+05 9.693864e+04 -8.107353e+03
1.694541e+05 1.055396e+05 -1.024841e+04
1.588284e+05 1.144438e+05 0.000000e+00
1.667232e+05 1.179588e+05 0.000000e+00
1.746179e+05 1.214738e+05 0.000000e+00
1.785688e+05 1.181235e+05 -7.007225e+03
1.815789e+05 1.164625e+05 0.000000e+00
1.808553e+05 1.084571e+05 -4.052380e+03
1.894737e+05 1.199774e+05 0.000000e+00
1.887500e+05 1.119720e+05 -4.052380e+03
1.884010e+05 1.205532e+05 -8.816578e+03
1.880263e+05 1.039667e+05 -8.104759e+03
1.842668e+05 1.126650e+05 -1.060609e+04
1.780875e+05 1.092074e+05 -1.165854e+04
1.825127e+05 1.249887e+05 0.000000e+00
1.801393e+05 1.004527e+05 -8.106056e+03
1.973684e+05 1.234924e+05 0.000000e+00
1.966448e+05 1.154870e+05 -4.052380e+03
1.961079e+05 1.250853e+05 -5.872092e+03
2.052632e+05 1.270073e+05 0.000000e+00
2.045395e+05 1.190020e+05 -4.052380e+03
2.054293e+05 1.268357e+05 -7.086440e+03
2.038158e+05 1.109966e+05 -8.104759e+03
2.021987e+05 1.194108e+05 -1.003896e+04
1.904074e+05 1.285037e+05 0.000000e+00
1.983021e+05 1.320187e+05 0.000000e+00
2.124115e+05 1.224857e+05 -4.063514e+03
2.112663e+05 1.212812e+05 -1.118736e+04
2.163426e+05 1.262722e+05 -9.715314e+03
2.195599e+05 1.179641e+05 -8.127028e+03
2.120704e+05 1.296249e+05 -5.470458e+03
2.061969e+05 1.355336e+05 0.000000e+00
2.131579e+05 1.305223e+05 0.000000e+00
2.210526e+05 1.340373e+05 0.000000e+00
2.203063e+05 1.260007e+05 -4.063514e+03
2.185553e+05 1.341139e+05 -7.136838e+03
2.116879e+05 1.144803e+05 -8.115893e+03
2.140916e+05 1.390486e+05 0.000000e+00
2.289474e+05 1.375522e+05 0.000000e+00
2.282010e+05 1.295156e+05 -4.063514e+03
2.264732e+05 1.390850e+05 -5.885878e+03
2.368421e+05 1.410672e+05 0.000000e+00
2.360957e+05 1.330306e+05 -4.063514e+03
2.354460e+05 1.411717e+05 -6.512921e+03
2.353494e+05 1.249940e+05 -8.127028e+03
2.311884e+05 1.334270e+05 -1.134784e+04
2.219863e+05 1.425636e+05 0.000000e+00
2.298811e+05 1.460785e+05 0.000000e+00
2.409547e+05 1.443626e+05 -4.523653e+03
2.377656e+05 1.493662e+05 0.000000e+00
2.440141e+05 1.365968e+05 -4.042067e+03
2.414019e+05 1.357367e+05 -1.130830e+04
2.446007e+05 1.413754e+05 -8.221904e+03
2.511862e+05 1.321264e+05 -8.084134e+03
2.447368e+05 1.445822e+05 0.000000e+00
2.471721e+05 1.488286e+05 -7.098304e+03
2.456603e+05 1.528812e+05 0.000000e+00
2.526316e+05 1.480971e+05 0.000000e+00
2.519089e+05 1.401117e+05 -4.042067e+03
2.432678e+05 1.285602e+05 -8.105581e+03
2.684211e+05 1.551270e+05 0.000000e+00
2.763158e+05 1.586420e+05 0.000000e+00
2.763158e+05 1.507422e+05 -4.166667e+03
2.728519e+05 1.590751e+05 -5.990345e+03
2.842105e+05 1.542571e+05 -4.166667e+03
2.807672e+05 1.613524e+05 -6.039945e+03
2.787661e+05 1.533706e+05 -9.839864e+03
2.771160e+05 1.668894e+05 0.000000e+00
2.692213e+05 1.633744e+05 0.000000e+00
2.669757e+05 1.391563e+05 -8.084134e+03
2.676984e+05 1.471417e+05 -4.042067e+03
2.755931e+05 1.427568e+05 -8.208733e+03
2.703298e+05 1.512315e+05 -1.142608e+04
2.605263e+05 1.516121e+05 0.000000e+00
2.535550e+05 1.563961e+05 0.000000e+00
2.547199e+05 1.545395e+05 -5.985873e+03
2.647879e+05 1.580048e+05 -6.887974e+03
2.614498e+05 1.599111e+05 0.000000e+00
2.598036e+05 1.436267e+05 -4.042067e+03
2.621674e+05 1.490016e+05 -1.090087e+04
-1.355029e+05 -7.502598e+04 -2.653765e+04
-1.294497e+05 -7.889540e+04 -3.000000e+04
-1.317930e+05 -7.408765e+04 -3.252703e+04
-1.349269e+05 -6.820501e+04 -2.307531e+04
-1.288737e+05 -7.207444e+04 -2.653765e+04
-1.320139e+05 -6.725996e+04 -3.018990e+04
-1.228205e+05 -7.594386e+04 -3.000000e+04
-1.245941e+05 -7.149648e+04 -3.294755e+04
-1.270470e+05 -7.826712e+04 -3.604044e+04
-1.219900e+05 -7.683259e+04 -3.514892e+04
-1.208793e+05 -8.200908e+04 -4.031726e+04
-1.263762e+05 -8.700680e+04 -3.500000e+04
-1.197469e+05 -8.405527e+04 -3.500000e+04
-1.169449e+05 -7.402422e+04 -3.711600e+04
-1.131177e+05 -8.110373e+04 -3.500000e+04
-1.095619e+05 -7.004079e+04 -3.000000e+04
-1.161912e+05 -7.299233e+04 -3.000000e+04
-1.173632e+05 -6.735846e+04 -3.361027e+04
-1.155132e+05 -6.593317e+04 -2.643597e+04
-1.221425e+05 -6.888471e+04 -2.643597e+04
-1.214644e+05 -6.182556e+04 -2.287193e+04
-1.237989e+05 -6.423422e+04 -2.938175e+04
-1.281957e+05 -6.501529e+04 -2.297362e+04
-9.526389e+04 -6.148602e+04 -3.517791e+04
-8.794360e+04 -5.847302e+04 -3.560544e+04
-9.354735e+04 -5.579690e+04 -3.154254e+04
-9.630341e+04 -6.413771e+04 -3.000000e+04
-8.967414e+04 -6.118618e+04 -3.000000e+04
-9.555745e+04 -5.863551e+04 -2.727311e+04
-8.892819e+04 -5.568397e+04 -2.727311e+04
-9.481150e+04 -5.313331e+04 -2.454623e+04
-9.108371e+04 -6.867480e+04 -3.956732e+04
-9.196440e+04 -7.168569e+04 -3.500000e+04
-8.533514e+04 -6.873415e+04 -3.500000e+04
-9.569539e+04 -7.645597e+04 -4.261195e+04
-1.005003e+05 -6.877232e+04 -3.761764e+04
-9.552012e+04 -8.274863e+04 -4.000000e+04
-1.056760e+05 -8.006387e+04 -4.139775e+04
-9.985913e+04 -7.520065e+04 -3.500000e+04
-1.091730e+05 -7.081053e+04 -3.661743e+04
-1.064884e+05 -7.815219e+04 -3.500000e+04
-1.029327e+05 -6.708925e+04 -3.000000e+04
-1.115039e+05 -6.482121e+04 -3.173587e+04
-1.061012e+05 -6.373870e+04 -3.314203e+04
-1.022547e+05 -6.003010e+04 -2.643597e+04
-1.088839e+05 -6.298163e+04 -2.643597e+04
-1.082059e+05 -5.592248e+04 -2.287193e+04
-1.097826e+05 -5.833902e+04 -2.994584e+04
-1.035067e+05 -5.993627e+04 -3.416350e+04
-1.015087e+05 -5.452789e+04 -2.370908e+04
-1.075217e+05 -5.258227e+04 -3.004404e+04
-1.000115e+05 -5.520128e+04 -3.095338e+04
-1.017373e+05 -6.134919e+04 -3.975025e+04
-1.095573e+05 -2.026963e+04 -3.750000e+03
-1.161866e+05 -2.322116e+04 -3.750000e+03
-1.141691e+05 -2.124966e+04 -8.280566e+03
-1.114440e+05 -2.347962e+04 -5.000000e+03
-1.091758e+05 -2.219407e+04 -1.206375e+04
-1.180733e+05 -2.643115e+04 -5.000000e+03
-1.162313e+05 -2.624179e+04 -1.007122e+04
-1.052556e+05 -2.740405e+04 -8.523114e+03
-1.056964e+05 -3.428003e+04 -1.204623e+04
-1.118849e+05 -3.035559e+04 -8.523114e+03
-1.113732e+05 -2.974805e+04 -1.350918e+04
-1.221945e+05 -2.352614e+04 -2.500000e+03
-1.198075e+05 -2.276438e+04 -7.922583e+03
-1.240813e+05 -2.673613e+04 -3.750000e+03
-1.216907e+05 -2.665618e+04 -8.463706e+03
-1.259790e+05 -2.460797e+04 -7.796948e+03
-1.307106e+05 -2.968766e+04 -3.750000e+03
-1.247026e+05 -2.938269e+04 -5.000000e+03
-1.313318e+05 -3.233423e+04 -5.000000e+03
-1.287274e+05 -2.887355e+04 -1.086244e+04
-1.185821e+05 -3.175018e+04 -7.685965e+03
-1.190909e+05 -3.706920e+04 -1.037193e+04
-1.252113e+05 -3.470171e+04 -7.685965e+03
-1.218456e+05 -3.029778e+04 -1.134768e+04
-1.123937e+05 -3.567461e+04 -1.120908e+04
-1.166314e+05 -3.142766e+04 -1.233669e+04
-1.445903e+05 -3.823730e+04 -5.000000e+03
-1.452011e+05 -4.379452e+04 -7.787654e+03
-1.512196e+05 -4.118884e+04 -5.000000e+03
-1.482558e+05 -3.862331e+04 -1.008068e+04
-1.458118e+05 -4.935173e+04 -1.057531e+04
-1.518304e+05 -4.674606e+04 -7.787654e+03
-1.497310e+05 -4.403484e+04 -1.308535e+04
-1.545626e+05 -4.115704e+04 -9.307425e+03
-1.518638e+05 -3.910570e+04 -3.750000e+03
-1.584931e+05 -4.205724e+04 -3.750000e+03
-1.573203e+05 -3.741015e+04 -8.553015e+03
-1.439691e+05 -3.559074e+04 -3.750000e+03
-1.512425e+05 -3.645914e+04 -2.500000e+03
-1.478347e+05 -3.396689e+04 -8.400153e+03
-1.416694e+05 -3.047899e+04 -9.181353e+03
-1.421676e+05 -3.522222e+04 -9.883682e+03
-1.373398e+05 -3.263920e+04 -3.750000e+03
-1.379611e+05 -3.528577e+04 -5.000000e+03
-1.350281e+05 -3.302698e+04 -1.057748e+04
-1.318406e+05 -3.765325e+04 -7.685965e+03
-1.323494e+05 -4.297228e+04 -1.037193e+04
-1.384699e+05 -4.060479e+04 -7.685965e+03
-1.365595e+05 -3.775045e+04 -1.214643e+04
-1.366413e+05 -4.351617e+04 -1.475376e+04
-1.411517e+05 -4.001494e+04 -1.220341e+04
-1.430036e+05 -4.454013e+04 -1.449403e+04
-1.436929e+05 -3.637004e+04 -1.516652e+04
-1.390806e+05 -4.616200e+04 -1.047362e+04
-2.773594e+05 -1.093010e+05 -1.130341e+04
-2.842099e+05 -9.889637e+04 -1.209292e+04
-2.879618e+05 -1.064658e+05 -1.427788e+04
-2.807214e+05 -1.116532e+05 -1.884833e+04
-2.771974e+05 -1.042957e+05 -1.672908e+04
-2.698125e+05 -1.130845e+05 -1.507122e+04
-2.849063e+05 -1.134173e+05 -1.170227e+04
-2.773594e+05 -1.172008e+05 -1.547008e+04
-2.889110e+05 -1.145971e+05 -1.735286e+04
-2.770115e+05 -1.020024e+05 -7.535608e+03
-2.694647e+05 -1.057860e+05 -1.130341e+04
-2.744406e+05 -9.754112e+04 -1.308546e+04
-2.851808e+05 -1.191109e+05 -2.299207e+04
-2.764035e+05 -1.168515e+05 -2.274833e+04
-2.755916e+05 -1.231983e+05 -2.947732e+04
-2.696285e+05 -1.208765e+05 -1.922422e+04
-2.771754e+05 -1.249928e+05 -1.962309e+04
-2.694445e+05 -1.286686e+05 -2.337723e+04
-2.622245e+05 -1.102463e+05 -1.535616e+04
-2.685520e+05 -1.024084e+05 -1.806910e+04
-2.618766e+05 -1.029478e+05 -1.158836e+04
-2.652776e+05 -9.524355e+04 -1.399891e+04
-2.546364e+05 -1.074081e+05 -1.564110e+04
-2.600066e+05 -1.000500e+05 -2.018657e+04
-2.701253e+05 -1.097879e+05 -2.467954e+04
-2.580481e+05 -1.075637e+05 -2.459601e+04
-2.595872e+05 -1.179152e+05 -2.834815e+04
-2.533166e+05 -1.151603e+05 -2.003983e+04
-2.609047e+05 -1.179985e+05 -1.975488e+04
-2.519968e+05 -1.229126e+05 -2.443855e+04
-2.670916e+05 -1.200791e+05 -2.633120e+04
-2.607207e+05 -1.257906e+05 -2.390789e+04
3.800487e+04 3.716638e+04 -8.108150e+03
3.727047e+04 2.915301e+04 -1.216223e+04
3.678018e+04 3.919358e+04 -1.527130e+04
4.516521e+04 3.266798e+04 -1.216223e+04
4.602880e+04 4.228716e+04 -1.483490e+04
4.443080e+04 2.465461e+04 -1.621630e+04
4.285580e+04 3.401197e+04 -1.948098e+04
2.772097e+04 3.624988e+04 -1.741583e+04
3.462964e+04 2.795379e+04 -2.123434e+04
2.939289e+04 2.564519e+04 -1.216249e+04
3.655322e+04 2.114679e+04 -1.621657e+04
2.867564e+04 1.763896e+04 -1.621683e+04
2.483313e+04 2.606612e+04 -1.956905e+04
5.234208e+04 2.817742e+04 -1.621605e+04
5.307648e+04 3.619078e+04 -1.216198e+04
6.025336e+04 3.170022e+04 -1.621580e+04
5.347067e+04 3.738709e+04 -2.076459e+04
4.020306e+04 3.093127e+04 -2.846796e+04
4.892959e+04 2.740535e+04 -2.446280e+04
4.100990e+04 2.180554e+04 -2.530933e+04
3.277231e+04 1.937482e+04 -2.435376e+04
4.038309e+04 1.287932e+04 -2.912036e+04
4.593369e+04 1.692458e+04 -2.064632e+04
3.805611e+04 1.341675e+04 -2.064658e+04
4.743658e+04 9.194546e+03 -2.507634e+04
4.825065e+04 1.854690e+04 -2.802224e+04
5.766039e+04 3.034442e+04 -2.549695e+04
5.698928e+04 2.047408e+04 -3.042628e+04
6.322335e+04 1.622588e+04 -2.507496e+04
5.382708e+04 2.044025e+04 -2.064563e+04
5.532996e+04 1.271021e+04 -2.507565e+04
6.173835e+04 2.396305e+04 -2.064538e+04
6.889904e+04 4.323639e+04 -1.216147e+04
6.329065e+04 5.464621e+04 -1.471132e+04
6.016674e+04 4.717725e+04 -1.917882e+04
6.775019e+04 4.044965e+04 -2.216482e+04
7.185643e+04 4.752091e+04 -1.882613e+04
7.607591e+04 3.874582e+04 -1.621530e+04
6.961690e+04 5.124191e+04 -8.107649e+03
7.679378e+04 4.675135e+04 -1.216147e+04
7.580518e+04 5.509122e+04 -1.504976e+04
6.098776e+04 3.971358e+04 -1.216172e+04
6.816464e+04 3.522302e+04 -1.621555e+04
6.174893e+04 3.848405e+04 -2.009494e+04
8.397289e+04 4.226183e+04 -1.621527e+04
8.469075e+04 5.026736e+04 -1.216145e+04
9.186986e+04 4.577784e+04 -1.621525e+04
8.116000e+04 4.851608e+04 -1.989942e+04
6.545299e+04 3.261509e+04 -2.448777e+04
7.311416e+04 3.543405e+04 -2.497102e+04
7.297487e+04 2.803149e+04 -2.783391e+04
7.756091e+04 3.100866e+04 -2.064488e+04
6.964963e+04 2.748585e+04 -2.064513e+04
7.904591e+04 2.327149e+04 -2.507446e+04
7.165262e+04 4.396551e+04 -2.814964e+04
8.810600e+04 4.469479e+04 -2.499015e+04
7.985468e+04 4.096201e+04 -2.406399e+04
7.999420e+04 3.261488e+04 -2.778076e+04
8.839942e+04 3.475919e+04 -3.034886e+04
9.483824e+04 3.030125e+04 -2.507522e+04
8.545708e+04 3.452354e+04 -2.064526e+04
8.694207e+04 2.678637e+04 -2.507484e+04
9.335405e+04 3.803954e+04 -2.064523e+04
1.004847e+05 5.729937e+04 -1.216140e+04
9.636427e+04 6.788402e+04 -1.576092e+04
9.255203e+04 6.048370e+04 -1.662864e+04
9.701230e+04 5.470277e+04 -2.009250e+04
1.028625e+05 6.120081e+04 -2.033444e+04
1.076638e+05 5.280985e+04 -1.621520e+04
9.258772e+04 5.378336e+04 -1.216142e+04
9.976683e+04 4.929384e+04 -1.621522e+04
8.794967e+04 5.312848e+04 -1.897498e+04
1.012003e+05 6.530385e+04 -8.107598e+03
1.083794e+05 6.081433e+04 -1.216140e+04
1.081218e+05 6.882561e+04 -1.639288e+04
1.155587e+05 5.632493e+04 -1.621518e+04
1.162744e+05 6.432941e+04 -1.216139e+04
1.234537e+05 5.984001e+04 -1.621517e+04
1.122924e+05 6.212781e+04 -2.102698e+04
9.547126e+04 4.696695e+04 -2.355300e+04
1.025346e+05 4.934141e+04 -2.311185e+04
1.040886e+05 4.402059e+04 -2.779971e+04
1.091480e+05 4.507156e+04 -2.064518e+04
1.012510e+05 4.155555e+04 -2.064521e+04
1.106322e+05 3.733326e+04 -2.507517e+04
1.005393e+05 5.595453e+04 -2.589327e+04
1.092248e+05 5.381103e+04 -2.638646e+04
1.195894e+05 5.805594e+04 -2.626889e+04
1.200315e+05 4.799048e+04 -3.071802e+04
1.120613e+05 4.515145e+04 -2.834493e+04
1.264219e+05 4.436312e+04 -2.507526e+04
1.170428e+05 4.858648e+04 -2.064523e+04
1.185270e+05 4.084819e+04 -2.507521e+04
1.249378e+05 5.210156e+04 -2.064521e+04
1.320643e+05 7.135957e+04 -1.216136e+04
1.282902e+05 8.130087e+04 -1.543537e+04
1.246600e+05 7.436887e+04 -1.708727e+04
1.293077e+05 6.878016e+04 -2.127185e+04
1.352520e+05 7.497575e+04 -1.952222e+04
1.392436e+05 6.687016e+04 -1.621515e+04
1.327797e+05 7.936394e+04 -8.107574e+03
1.399590e+05 7.487453e+04 -1.216136e+04
1.395835e+05 8.275349e+04 -1.625202e+04
1.241693e+05 6.784449e+04 -1.216137e+04
1.313486e+05 6.335509e+04 -1.621516e+04
1.197530e+05 6.658765e+04 -2.040682e+04
1.471377e+05 7.038507e+04 -1.621504e+04
1.478531e+05 7.838944e+04 -1.216125e+04
1.550319e+05 7.389998e+04 -1.621493e+04
1.443992e+05 7.646183e+04 -2.058733e+04
1.276094e+05 6.078990e+04 -2.465645e+04
1.357964e+05 6.364738e+04 -2.509167e+04
1.358952e+05 5.612484e+04 -2.790120e+04
1.407277e+05 5.913172e+04 -2.064519e+04
1.328327e+05 5.561664e+04 -2.064520e+04
1.422118e+05 5.139327e+04 -2.507523e+04
1.339292e+05 7.200807e+04 -2.845805e+04
1.430624e+05 6.886901e+04 -2.438277e+04
1.515131e+05 7.274452e+04 -2.540590e+04
1.508409e+05 6.238066e+04 -2.896769e+04
1.565153e+05 6.616100e+04 -2.064510e+04
1.486212e+05 6.264610e+04 -2.064521e+04
1.579987e+05 5.842203e+04 -2.507527e+04
1.429652e+05 6.056494e+04 -2.781341e+04
1.501053e+05 5.490765e+04 -2.507525e+04
1.643574e+05 9.342368e+04 -8.107353e+03
1.636414e+05 8.541926e+04 -1.216103e+04
1.632492e+05 9.245750e+04 -1.478187e+04
1.715362e+05 8.893422e+04 -1.216103e+04
1.696052e+05 9.821692e+04 -1.655539e+04
1.708202e+05 8.092980e+04 -1.621471e+04
1.674569e+05 8.856760e+04 -1.958328e+04
1.560717e+05 8.939066e+04 -1.665635e+04
1.609732e+05 8.324646e+04 -2.115948e+04
1.557473e+05 8.190435e+04 -1.216114e+04
1.629260e+05 7.741489e+04 -1.621482e+04
1.513834e+05 8.139975e+04 -1.993501e+04
1.787072e+05 8.444382e+04 -1.621341e+04
1.794233e+05 9.244824e+04 -1.215973e+04
1.865943e+05 8.795783e+04 -1.621211e+04
1.759974e+05 9.042718e+04 -2.018122e+04
1.673749e+05 7.762051e+04 -2.550517e+04
1.591139e+05 7.527417e+04 -2.433229e+04
1.673895e+05 6.927857e+04 -3.017712e+04
1.723036e+05 7.319082e+04 -2.064488e+04
1.644095e+05 6.967591e+04 -2.064499e+04
1.737870e+05 6.545184e+04 -2.507505e+04
1.830687e+05 8.713675e+04 -2.473658e+04
1.747139e+05 8.292380e+04 -2.433751e+04
1.752549e+05 7.424342e+04 -2.956041e+04
1.658400e+05 8.596659e+04 -2.827600e+04
1.829827e+05 7.804284e+04 -2.774657e+04
1.880740e+05 8.021446e+04 -2.064371e+04
1.801869e+05 7.670044e+04 -2.064500e+04
1.895536e+05 7.247108e+04 -2.507530e+04
1.816703e+05 6.896146e+04 -2.507517e+04
1.959211e+05 1.074816e+05 -8.104759e+03
1.951974e+05 9.947627e+04 -1.215714e+04
1.916410e+05 1.108921e+05 -1.297023e+04
2.030922e+05 1.029912e+05 -1.215714e+04
2.019512e+05 1.117229e+05 -1.432491e+04
2.023685e+05 9.498586e+04 -1.620952e+04
1.977354e+05 1.045836e+05 -1.766018e+04
1.872504e+05 1.041026e+05 -1.583386e+04
1.919519e+05 9.785724e+04 -1.997961e+04
1.873103e+05 9.596225e+04 -1.215844e+04
1.944814e+05 9.147185e+04 -1.621082e+04
1.825143e+05 9.581428e+04 -1.919828e+04
2.102405e+05 9.846961e+04 -1.622065e+04
2.109642e+05 1.064750e+05 -1.216827e+04
2.181126e+05 1.019534e+05 -1.623179e+04
2.064525e+05 1.067409e+05 -1.891136e+04
1.902196e+05 8.971994e+04 -2.341719e+04
1.973204e+05 9.212595e+04 -2.352201e+04
1.982851e+05 8.580031e+04 -2.928510e+04
2.038481e+05 8.724249e+04 -2.064111e+04
1.959610e+05 8.372847e+04 -2.064241e+04
2.053278e+05 7.949911e+04 -2.507271e+04
1.955036e+05 1.009314e+05 -2.546423e+04
2.043273e+05 9.587962e+04 -2.705061e+04
2.024111e+05 1.038796e+05 -2.405964e+04
2.138108e+05 9.787683e+04 -2.474654e+04
2.102895e+05 1.037253e+05 -2.442693e+04
2.156797e+05 9.133872e+04 -3.084096e+04
2.070646e+05 8.740509e+04 -2.841355e+04
2.209441e+05 8.644844e+04 -2.507457e+04
2.116563e+05 9.071715e+04 -2.064204e+04
2.131360e+05 8.297378e+04 -2.507364e+04
2.195284e+05 9.420090e+04 -2.065318e+04
2.267083e+05 1.134425e+05 -1.219054e+04
2.217963e+05 1.235199e+05 -1.465985e+04
2.178163e+05 1.171777e+05 -1.596339e+04
2.218622e+05 1.126391e+05 -2.020696e+04
2.272264e+05 1.178222e+05 -1.966551e+04
2.338566e+05 1.089208e+05 -1.625406e+04
2.274546e+05 1.214791e+05 -8.127028e+03
2.346030e+05 1.169574e+05 -1.219054e+04
2.329684e+05 1.253772e+05 -1.570659e+04
2.188362e+05 1.099587e+05 -1.217941e+04
2.259846e+05 1.054371e+05 -1.624292e+04
2.130232e+05 1.107838e+05 -1.896015e+04
2.417750e+05 1.124870e+05 -1.623261e+04
2.425214e+05 1.205236e+05 -1.216909e+04
2.496935e+05 1.160532e+05 -1.621116e+04
2.374699e+05 1.203300e+05 -1.955573e+04
2.170598e+05 1.079822e+05 -2.609381e+04
2.214344e+05 1.013220e+05 -2.655181e+04
2.292510e+05 1.040105e+05 -2.438022e+04
2.277234e+05 1.107213e+05 -2.581567e+04
2.298859e+05 9.765640e+04 -2.939117e+04
2.352724e+05 1.011684e+05 -2.067545e+04
2.274004e+05 9.768464e+04 -2.066431e+04
2.366882e+05 9.341594e+04 -2.509684e+04
2.467931e+05 1.043558e+05 -3.154573e+04
2.359386e+05 1.085353e+05 -2.762428e+04
2.371159e+05 1.000323e+05 -2.990583e+04
2.518210e+05 9.954676e+04 -2.541686e+04
2.428388e+05 1.042338e+05 -2.083546e+04
2.442546e+05 9.648135e+04 -2.525685e+04
2.453291e+05 1.112940e+05 -2.533003e+04
2.414703e+05 1.169405e+05 -2.500818e+04
2.341697e+05 1.162564e+05 -2.363995e+04
2.507573e+05 1.078000e+05 -2.081401e+04
2.281773e+05 1.193635e+05 -2.732301e+04
2.655303e+05 1.231855e+05 -1.616827e+04
2.662530e+05 1.311709e+05 -1.212620e+04
2.741477e+05 1.267860e+05 -1.629287e+04
2.664235e+05 1.363496e+05 -1.843670e+04
2.748704e+05 1.347714e+05 -1.225080e+04
2.693418e+05 1.422172e+05 -1.430821e+04
2.741680e+05 1.384486e+05 -2.000071e+04
2.768008e+05 1.366844e+05 -2.711435e+04
2.644411e+05 1.342800e+05 -2.522149e+04
2.794735e+05 1.280397e+05 -2.693222e+04
2.699710e+05 1.253540e+05 -2.583364e+04
2.766773e+05 1.177965e+05 -2.938204e+04
2.827651e+05 1.224866e+05 -2.058413e+04
2.741477e+05 1.188861e+05 -2.045953e+04
2.685413e+05 1.158507e+05 -2.822959e+04
2.752115e+05 1.106329e+05 -2.506238e+04
2.665941e+05 1.149323e+05 -2.077111e+04
2.676579e+05 1.066791e+05 -2.537396e+04
2.583582e+05 1.276559e+05 -1.212620e+04
2.503699e+05 1.396545e+05 -1.317307e+04
2.484120e+05 1.321351e+05 -1.610137e+04
2.532033e+05 1.271700e+05 -2.082025e+04
2.575263e+05 1.336324e+05 -1.943884e+04
2.590809e+05 1.356413e+05 -8.084134e+03
2.607310e+05 1.409212e+05 -1.402212e+04
2.504398e+05 1.240898e+05 -1.214765e+04
2.576119e+05 1.196193e+05 -1.618971e+04
2.438765e+05 1.247741e+05 -2.045795e+04
2.484167e+05 1.216880e+05 -2.710936e+04
2.533327e+05 1.150653e+05 -2.756402e+04
2.620174e+05 1.182204e+05 -2.609334e+04
2.596755e+05 1.246833e+05 -2.687746e+04
2.620651e+05 1.096415e+05 -3.053183e+04
2.586757e+05 1.113661e+05 -2.079256e+04
2.642510e+05 1.301973e+05 -3.170853e+04
-2.768073e+05 -1.484767e+05 -3.209577e+04
-2.821885e+05 -1.441021e+05 -3.464875e+04
-2.833659e+05 -1.524687e+05 -3.915027e+04
-2.739789e+05 -1.490144e+05 -3.872518e+04
-2.756748e+05 -1.418042e+05 -3.528558e+04
-2.690764e+05 -1.442526e+05 -3.168325e+04
-2.751001e+05 -1.581602e+05 -4.356431e+04
-2.766435e+05 -1.570858e+05 -3.667496e+04
-2.689126e+05 -1.528616e+05 -3.626244e+04
-2.838863e+05 -1.350844e+05 -3.302456e+04
-2.845382e+05 -1.448010e+05 -2.834162e+04
-2.768073e+05 -1.405769e+05 -2.792910e+04
-2.741776e+05 -1.324241e+05 -3.173656e+04
-2.769913e+05 -1.327849e+05 -2.377610e+04
-2.692605e+05 -1.364606e+05 -2.753024e+04
-2.678754e+05 -1.517625e+05 -4.123418e+04
-2.589698e+05 -1.504817e+05 -4.364152e+04
-2.669097e+05 -1.423650e+05 -3.816251e+04
-2.608540e+05 -1.579557e+05 -4.084162e+04
-2.610178e+05 -1.493467e+05 -3.626244e+04
-2.558251e+05 -1.398081e+05 -3.928109e+04
-2.603526e+05 -1.413746e+05 -3.221391e+04
-2.522940e+05 -1.464687e+05 -3.679309e+04
-2.516288e+05 -1.384966e+05 -3.274456e+04
-2.661226e+05 -1.271378e+05 -3.103717e+04
-2.677797e+05 -1.356056e+05 -3.423597e+04
-2.599176e+05 -1.340140e+05 -3.542554e+04
-2.605366e+05 -1.335826e+05 -2.806090e+04
-2.747391e+05 -1.432261e+05 -4.152809e+04
5.742988e+03 1.511457e+04 -1.216302e+04
3.175489e+02 2.795545e+04 -1.330367e+04
-2.362163e+03 2.365557e+04 -1.805269e+04
9.330883e+02 1.785903e+04 -2.153695e+04
8.224547e+03 2.106170e+04 -1.882308e+04
1.292047e+04 1.062331e+04 -1.621736e+04
-2.177671e+03 1.158865e+04 -1.216271e+04
-7.915540e+03 1.773955e+04 -1.733721e+04
4.999816e+03 7.097386e+03 -1.621705e+04
8.415265e+02 1.167923e+04 -2.204783e+04
-2.920843e+03 3.571466e+03 -1.621674e+04
-8.476030e+03 9.314105e+03 -2.052793e+04
1.363772e+04 1.862954e+04 -1.216302e+04
6.460237e+03 2.312080e+04 -8.108679e+03
1.117525e+04 2.938701e+04 -1.521264e+04
2.151531e+04 2.213736e+04 -1.216275e+04
2.079806e+04 1.413113e+04 -1.621709e+04
1.777848e+04 2.133366e+04 -2.025273e+04
2.492497e+04 1.699403e+04 -2.550588e+04
1.611023e+04 1.313930e+04 -2.464248e+04
2.426906e+04 6.324796e+03 -2.902716e+04
3.017853e+04 9.908926e+03 -2.064685e+04
2.230095e+04 6.401100e+03 -2.064711e+04
3.168142e+04 2.178893e+03 -2.507687e+04
5.423208e+03 1.684731e+04 -2.904243e+04
7.638592e+02 4.147753e+03 -2.461875e+04
8.755179e+03 7.585712e+03 -2.534093e+04
1.440470e+04 2.886585e+03 -2.064652e+04
9.234220e+03 -8.718534e+01 -2.784902e+04
1.631048e+04 4.504558e+03 -2.794356e+04
1.588893e+04 -4.850136e+03 -2.507569e+04
2.378517e+04 -1.335621e+03 -2.507628e+04
6.484044e+03 -6.393348e+02 -2.064621e+04
-2.591373e+04 1.021848e+03 -1.216209e+04
-3.418989e+04 -2.690373e+03 -1.217656e+04
-2.963867e+04 4.834097e+03 -1.602032e+04
-1.876216e+04 -3.480374e+03 -1.621613e+04
-2.703832e+04 -7.192595e+03 -1.623060e+04
-2.333032e+04 -5.740198e+02 -2.073121e+04
-3.531449e+04 -1.090482e+04 -1.624507e+04
-3.249686e+04 -2.889761e+03 -1.985230e+04
-1.801899e+04 4.536812e+03 -1.216209e+04
-2.517055e+04 9.039034e+03 -8.108063e+03
-2.064488e+04 9.092542e+03 -1.710204e+04
-1.009833e+04 8.062732e+03 -1.216240e+04
-1.084150e+04 4.554627e+01 -1.621643e+04
-1.441815e+04 3.477050e+03 -2.104840e+04
-6.716303e+03 1.057992e+03 -2.565494e+04
-1.461911e+04 -2.964717e+03 -2.408408e+04
-7.209293e+03 -8.632217e+03 -2.874560e+04
-1.436615e+03 -4.165255e+03 -2.064591e+04
-9.357274e+03 -7.691175e+03 -2.064560e+04
4.761247e+01 -1.190198e+04 -2.507507e+04
-2.874922e+04 -9.354301e+03 -2.399051e+04
-2.091270e+04 -8.049551e+03 -2.476285e+04
-2.215987e+04 -1.565586e+04 -2.841968e+04
-1.724309e+04 -1.118511e+04 -2.063660e+04
-2.551925e+04 -1.489733e+04 -2.065107e+04
-1.572401e+04 -1.888985e+04 -2.505708e+04
-1.473431e+04 -1.057986e+04 -2.742978e+04
-7.838199e+03 -1.539591e+04 -2.506607e+04
-2.073313e+04 -2.706119e+03 -2.875578e+04
2.704177e+05 8.419670e+04 -4.222797e+04
2.787363e+05 8.598095e+04 -4.396554e+04
2.724801e+05 9.288766e+04 -3.914946e+04
2.769980e+05 7.876569e+04 -4.228983e+04
2.694444e+05 8.271170e+04 -3.843474e+04
2.773391e+05 8.622666e+04 -3.843474e+04
2.697855e+05 9.017268e+04 -3.457966e+04
2.807294e+05 9.629895e+04 -3.969422e+04
2.848927e+05 9.018051e+04 -3.812316e+04
2.773391e+05 9.412652e+04 -3.426808e+04
2.778016e+05 1.033163e+05 -3.659265e+04
2.693790e+05 9.990587e+04 -3.574310e+04
2.706931e+05 1.083899e+05 -3.173439e+04
2.762753e+05 1.023797e+05 -2.966523e+04
2.687217e+05 9.842589e+04 -2.997681e+04
2.635886e+05 7.861756e+04 -4.414263e+04
2.649638e+05 8.681803e+04 -4.019849e+04
2.580101e+05 8.492367e+04 -3.951131e+04
2.618779e+05 7.964629e+04 -3.827473e+04
2.622190e+05 8.710727e+04 -3.441965e+04
2.546526e+05 8.404185e+04 -3.425964e+04
2.631498e+05 9.358370e+04 -3.807320e+04
2.557642e+05 1.003387e+05 -3.303732e+04
2.536091e+05 9.106391e+04 -3.772355e+04
2.608033e+05 9.485972e+04 -2.999826e+04
2.532368e+05 9.179431e+04 -2.983825e+04
2.636347e+05 1.023215e+05 -3.310139e+04
2.597395e+05 1.031129e+05 -2.539541e+04
2.671249e+05 9.821754e+04 -4.089255e+04
-5.634670e+04 -2.682984e+04 -1.970551e+04
-6.541788e+04 -2.867663e+04 -2.496368e+04
-5.796794e+04 -2.954424e+04 -2.914353e+04
-5.272995e+04 -2.146338e+04 -2.625840e+04
-6.053818e+04 -2.221654e+04 -2.350399e+04
-5.186682e+04 -1.832926e+04 -1.627401e+04
-6.178918e+04 -1.740320e+04 -1.345551e+04
-6.626906e+04 -2.590377e+04 -1.688700e+04
-6.810898e+04 -2.009680e+04 -2.083240e+04
-5.124038e+04 -2.857455e+04 -2.832424e+04
-4.664858e+04 -3.375305e+04 -2.563446e+04
-4.925770e+04 -2.604116e+04 -2.095424e+04
-5.373758e+04 -3.454173e+04 -2.438573e+04
-5.863695e+04 -1.362978e+04 -1.220551e+04
-6.855931e+04 -1.270372e+04 -9.387004e+03
-6.339900e+04 -7.513279e+03 -1.543697e+04
-5.885481e+04 -1.409131e+04 -2.171043e+04
-6.862401e+04 -1.269220e+04 -1.730854e+04
-5.074222e+04 -1.011482e+04 -1.220551e+04
-5.751236e+04 -5.415336e+03 -8.137004e+03
-5.449401e+04 -2.193416e+03 -1.703293e+04
-4.542977e+04 -4.243073e+02 -1.613812e+04
-4.889401e+04 -8.211273e+03 -1.975680e+04
-4.246605e+04 -6.402595e+03 -1.219104e+04
-4.359065e+04 -1.461704e+04 -1.625954e+04
-4.074545e+04 -6.695367e+03 -2.034968e+04
-3.636685e+04 -1.206117e+04 -2.517490e+04
-4.679903e+04 -1.437008e+04 -2.455784e+04
-3.794682e+04 -2.208889e+04 -2.909480e+04
-3.379541e+04 -1.860955e+04 -2.066554e+04
-4.207158e+04 -2.232178e+04 -2.068001e+04
-3.227634e+04 -2.631429e+04 -2.508602e+04
-4.553261e+04 -2.405398e+04 -2.829503e+04
-5.339916e+04 -1.531530e+04 -2.981310e+04
-3.946246e+04 -3.003367e+04 -2.536024e+04
2.399210e+05 7.116485e+04 -4.199658e+04
2.483129e+05 7.271882e+04 -4.397151e+04
2.412634e+05 8.015644e+04 -3.923266e+04
2.460757e+05 6.560493e+04 -4.196981e+04
2.388504e+05 7.000050e+04 -3.795471e+04
2.467451e+05 7.351546e+04 -3.795471e+04
2.395198e+05 7.791102e+04 -3.393962e+04
2.504722e+05 8.138962e+04 -3.962414e+04
2.543115e+05 7.658087e+04 -3.811472e+04
2.470862e+05 8.097644e+04 -3.409963e+04
2.327296e+05 6.553903e+04 -4.401715e+04
2.345030e+05 7.404289e+04 -3.990558e+04
2.271799e+05 7.206063e+04 -3.942212e+04
2.310422e+05 6.652583e+04 -3.795378e+04
2.317116e+05 7.443636e+04 -3.393869e+04
2.239034e+05 7.096170e+04 -3.393776e+04
2.320082e+05 8.105792e+04 -3.698967e+04
2.252316e+05 8.787298e+04 -3.265078e+04
2.237087e+05 7.916175e+04 -3.603947e+04
2.302320e+05 8.217973e+04 -2.950709e+04
2.224238e+05 7.870507e+04 -2.950616e+04
2.339866e+05 8.981667e+04 -3.311087e+04
2.288162e+05 8.993219e+04 -2.508570e+04
2.381040e+05 8.566348e+04 -2.951823e+04
2.470906e+05 8.782360e+04 -3.646862e+04
2.416665e+05 9.420107e+04 -3.270492e+04
2.398220e+05 8.640047e+04 -3.602064e+04
2.456704e+05 8.872889e+04 -2.967824e+04
2.337393e+05 7.938985e+04 -4.265450e+04
2.082265e+05 5.738996e+04 -4.208078e+04
2.167442e+05 5.902349e+04 -4.390165e+04
2.106405e+05 6.632007e+04 -3.893816e+04
2.146698e+05 5.162568e+04 -4.196795e+04
2.075311e+05 5.606154e+04 -3.795192e+04
2.154258e+05 5.957650e+04 -3.795192e+04
2.082870e+05 6.401237e+04 -3.393590e+04
2.196444e+05 6.936122e+04 -3.989608e+04
2.232340e+05 6.305117e+04 -3.795285e+04
2.160952e+05 6.748703e+04 -3.393683e+04
2.010154e+05 5.151632e+04 -4.401607e+04
2.028049e+05 6.029680e+04 -3.994193e+04
1.953904e+05 5.839041e+04 -3.928103e+04
1.996478e+05 5.255192e+04 -3.795179e+04
2.004038e+05 6.050275e+04 -3.393577e+04
1.925205e+05 5.699313e+04 -3.393564e+04
2.018983e+05 7.827830e+04 -3.367053e+04
1.921410e+05 7.559417e+04 -3.334630e+04
2.011313e+05 6.763641e+04 -3.824458e+04
1.974407e+05 7.598510e+04 -2.507400e+04
2.068074e+05 7.175574e+04 -2.950430e+04
1.989203e+05 6.824172e+04 -2.950560e+04
1.906251e+05 6.524424e+04 -3.772785e+04
1.910370e+05 6.473211e+04 -2.950547e+04
2.159598e+05 7.474340e+04 -3.604824e+04
2.101047e+05 8.097089e+04 -3.253890e+04
2.080437e+05 7.326344e+04 -3.567066e+04
2.146156e+05 7.523040e+04 -2.950523e+04
2.061901e+05 7.222544e+04 -4.131690e+04
1.767782e+05 4.343522e+04 -4.236724e+04
1.849304e+05 4.525409e+04 -4.389388e+04
1.777110e+05 5.284145e+04 -3.908861e+04
1.831138e+05 3.757651e+04 -4.196769e+04
1.759865e+05 4.201772e+04 -3.795154e+04
1.838812e+05 4.553268e+04 -3.795154e+04
1.767539e+05 4.997389e+04 -3.393539e+04
1.873349e+05 5.472408e+04 -3.948255e+04
1.917645e+05 4.904230e+04 -3.795167e+04
1.846372e+05 5.348351e+04 -3.393551e+04
1.687683e+05 3.748828e+04 -4.307066e+04
1.713600e+05 4.620112e+04 -3.992277e+04
1.641022e+05 4.414052e+04 -3.890859e+04
1.680930e+05 3.850334e+04 -3.795152e+04
1.688604e+05 4.645951e+04 -3.393537e+04
1.609669e+05 4.294514e+04 -3.393535e+04
1.694972e+05 6.150353e+04 -3.284164e+04
1.605603e+05 6.063043e+04 -3.263531e+04
1.683513e+05 5.246534e+04 -3.685729e+04
1.658929e+05 6.193694e+04 -2.507516e+04
1.752705e+05 5.771287e+04 -2.950522e+04
1.673763e+05 5.419796e+04 -2.950533e+04
1.592290e+05 5.024183e+04 -3.706045e+04
1.594828e+05 5.068358e+04 -2.950531e+04
1.767975e+05 6.570819e+04 -3.213450e+04
1.759489e+05 5.872264e+04 -3.559809e+04
1.835223e+05 6.121717e+04 -3.650469e+04
1.831538e+05 6.122249e+04 -2.950534e+04
1.700146e+05 5.167506e+04 -4.219498e+04
1.537650e+05 3.251334e+04 -4.227218e+04
1.561878e+05 4.055303e+04 -3.930823e+04
1.464274e+05 3.862304e+04 -3.897737e+04
1.601995e+05 3.498896e+04 -3.795150e+04
1.523060e+05 3.147459e+04 -3.795149e+04
1.530734e+05 3.943076e+04 -3.393533e+04
1.451800e+05 3.591638e+04 -3.393531e+04
1.456462e+05 2.839078e+04 -4.373423e+04
1.515373e+05 2.351783e+04 -4.196766e+04
1.444113e+05 2.795963e+04 -3.795149e+04
1.378326e+05 2.323385e+04 -4.437620e+04
1.399336e+05 3.175069e+04 -4.010203e+04
1.324203e+05 2.963191e+04 -3.904155e+04
1.365164e+05 2.444470e+04 -3.795144e+04
1.372851e+05 3.240146e+04 -3.393527e+04
1.293903e+05 2.888653e+04 -3.393523e+04
1.367437e+05 3.835957e+04 -3.683604e+04
1.298512e+05 4.380572e+04 -3.250035e+04
1.278156e+05 3.567038e+04 -3.700501e+04
1.358009e+05 4.013975e+04 -2.950529e+04
1.279061e+05 3.662482e+04 -2.950524e+04
1.367376e+05 4.886615e+04 -3.336478e+04
1.343168e+05 4.787820e+04 -2.507524e+04
1.436959e+05 4.365483e+04 -2.950527e+04
1.523052e+05 4.696615e+04 -3.634019e+04
1.446340e+05 5.389940e+04 -3.244527e+04
1.441762e+05 4.512177e+04 -3.598733e+04
1.515894e+05 4.716920e+04 -2.950529e+04
1.383926e+05 3.714385e+04 -4.215129e+04
1.135821e+05 1.515739e+04 -4.196255e+04
1.220457e+05 1.677283e+04 -4.385574e+04
1.149587e+05 2.436694e+04 -3.900459e+04
1.199582e+05 9.458048e+03 -4.196757e+04
1.128320e+05 1.389988e+04 -3.795135e+04
1.207267e+05 1.741484e+04 -3.795135e+04
1.136006e+05 2.185667e+04 -3.393514e+04
1.245557e+05 2.578809e+04 -3.934672e+04
1.286216e+05 2.092977e+04 -3.795140e+04
1.214954e+05 2.537160e+04 -3.393518e+04
1.063148e+05 9.384264e+03 -4.393705e+04
1.080992e+05 1.798016e+04 -3.971659e+04
1.049358e+05 1.038500e+04 -3.795097e+04
1.057044e+05 1.834179e+04 -3.393476e+04
1.007474e+05 1.583970e+04 -3.920464e+04
9.780823e+04 1.482691e+04 -3.393438e+04
1.051780e+05 2.517974e+04 -3.729439e+04
9.837045e+04 3.045203e+04 -3.295532e+04
9.631620e+04 2.218915e+04 -3.779076e+04
1.042194e+05 2.607896e+04 -2.950518e+04
9.632324e+04 2.256408e+04 -2.950480e+04
1.059384e+05 3.695614e+04 -3.386505e+04
1.027352e+05 3.381725e+04 -2.507519e+04
1.121164e+05 2.959497e+04 -2.950515e+04
1.210536e+05 3.252320e+04 -3.639074e+04
1.149401e+05 3.876355e+04 -3.257816e+04
1.130250e+05 3.122304e+04 -3.613355e+04
1.200112e+05 3.310989e+04 -2.950520e+04
1.071127e+05 2.323423e+04 -4.253495e+04
9.033562e+04 2.949624e+03 -4.385840e+04
8.837637e+04 -4.601641e+03 -4.196681e+04
8.914350e+04 3.355235e+03 -3.795022e+04
8.185781e+04 1.294994e+03 -4.205199e+04
8.428626e+04 1.016373e+04 -3.891464e+04
8.124877e+04 -1.597284e+02 -3.795022e+04
8.201590e+04 7.797147e+03 -3.393362e+04
9.703967e+04 6.870116e+03 -3.795059e+04
9.298261e+04 1.196489e+04 -3.936917e+04
8.991207e+04 1.131203e+04 -3.393400e+04
7.461487e+04 -4.740261e+03 -4.399860e+04
7.640860e+04 3.988697e+03 -3.991107e+04
6.908361e+04 1.875033e+03 -3.934676e+04
7.335538e+04 -3.675395e+03 -3.795090e+04
7.412251e+04 4.281480e+03 -3.393431e+04
6.622913e+04 7.658136e+02 -3.393500e+04
7.450315e+04 1.081495e+04 -3.809052e+04
6.663841e+04 1.591557e+04 -3.272116e+04
6.445841e+04 7.996008e+03 -3.739786e+04
7.261962e+04 1.201151e+04 -2.950429e+04
6.472624e+04 8.495847e+03 -2.950498e+04
7.364649e+04 2.090831e+04 -3.336652e+04
7.113463e+04 1.974868e+04 -2.507471e+04
8.053090e+04 1.553432e+04 -2.950404e+04
8.166592e+04 2.580114e+04 -3.256291e+04
8.104068e+04 1.699714e+04 -3.581395e+04
8.934583e+04 1.874295e+04 -3.650021e+04
8.842707e+04 1.904920e+04 -2.950442e+04
7.901492e+04 1.590704e+04 -4.096986e+04
5.027595e+04 -1.277405e+04 -4.192979e+04
5.869738e+04 -1.120155e+04 -4.387201e+04
5.146008e+04 -3.619596e+03 -3.903541e+04
5.680013e+04 -1.866290e+04 -4.196819e+04
4.967387e+04 -1.422169e+04 -3.795228e+04
5.756861e+04 -1.070673e+04 -3.795228e+04
5.044236e+04 -6.265520e+03 -3.393637e+04
6.114885e+04 -2.002825e+03 -3.948781e+04
6.546200e+04 -7.191062e+03 -3.795159e+04
5.833574e+04 -2.749853e+03 -3.393569e+04
4.304840e+04 -1.853400e+04 -4.387646e+04
4.177763e+04 -1.773621e+04 -3.795169e+04
4.490879e+04 -1.007849e+04 -3.968891e+04
4.254612e+04 -9.780034e+03 -3.393578e+04
3.768034e+04 -1.210070e+04 -3.899216e+04
3.464987e+04 -1.329455e+04 -3.393519e+04
4.341287e+04 5.321195e+03 -3.295239e+04
3.407807e+04 4.526658e+03 -3.256286e+04
4.205105e+04 -3.539518e+03 -3.680940e+04
3.955900e+04 5.686720e+03 -2.507660e+04
4.893947e+04 1.464513e+03 -2.950636e+04
4.106189e+04 -2.043313e+03 -2.950662e+04
4.983678e+04 1.186542e+04 -3.254090e+04
4.971077e+04 2.716582e+03 -3.594192e+04
5.746817e+04 4.598982e+03 -3.659730e+04
5.683285e+04 4.980180e+03 -2.950567e+04
3.276801e+04 -5.847754e+03 -3.698383e+04
3.316564e+04 -5.557828e+03 -2.950603e+04
4.375218e+04 -4.677122e+03 -4.204165e+04
3.388139e+04 -2.125072e+04 -3.795110e+04
2.634619e+04 -2.539804e+04 -4.283855e+04
2.598514e+04 -2.476524e+04 -3.795051e+04
2.966922e+04 -1.602213e+04 -3.949501e+04
2.675363e+04 -1.680906e+04 -3.393460e+04
1.966195e+04 -1.759759e+04 -3.903406e+04
1.885739e+04 -2.032358e+04 -3.393401e+04
2.521817e+04 -3.272186e+04 -4.196701e+04
1.838268e+04 -2.685391e+04 -4.187232e+04
1.809041e+04 -2.828020e+04 -3.795051e+04
1.125916e+04 -3.255562e+04 -4.387138e+04
1.020460e+04 -3.177414e+04 -3.794152e+04
1.307167e+04 -2.417515e+04 -3.965399e+04
1.097157e+04 -2.381752e+04 -3.392502e+04
5.825909e+03 -2.611121e+04 -3.900353e+04
3.085763e+03 -2.731145e+04 -3.391602e+04
1.737316e+04 -1.258686e+04 -2.950485e+04
1.808097e+04 -2.268511e+03 -3.250304e+04
9.986226e+03 -7.202957e+03 -3.323748e+04
1.001139e+04 -1.766506e+04 -3.686767e+04
1.773723e+04 -1.108548e+04 -3.596878e+04
2.579323e+04 -9.318729e+03 -3.643542e+04
2.526940e+04 -9.072343e+03 -2.950544e+04
2.077387e+03 -1.125697e+04 -3.233689e+04
7.968271e+03 -8.376056e+03 -2.507538e+04
9.452499e+03 -1.611278e+04 -2.950454e+04
8.205567e+02 -2.005466e+04 -3.693017e+04
1.566688e+03 -1.960671e+04 -2.949555e+04
1.170905e+04 -1.897562e+04 -4.202611e+04
2.318785e+03 -3.526807e+04 -3.793252e+04
-5.720776e+03 -3.941721e+04 -4.272295e+04
-5.567026e+03 -3.876201e+04 -3.792353e+04
-2.251916e+03 -3.004751e+04 -3.936275e+04
-4.800048e+03 -3.080539e+04 -3.390703e+04
-1.300502e+04 -3.202327e+04 -3.881666e+04
-1.268586e+04 -3.429933e+04 -3.389804e+04
-6.342930e+03 -4.673966e+04 -4.194902e+04
-1.362584e+04 -4.148227e+04 -4.182306e+04
-1.346176e+04 -4.227697e+04 -3.792353e+04
-2.209250e+04 -3.799544e+04 -3.977813e+04
-2.705810e+04 -4.173808e+04 -3.444648e+04
-2.064788e+04 -4.599635e+04 -3.819775e+04
-1.987198e+04 -3.801871e+04 -3.417226e+04
-1.913573e+04 -2.210330e+04 -3.209394e+04
-2.783116e+04 -2.301642e+04 -3.183341e+04
-1.941163e+04 -2.858972e+04 -3.477356e+04
-2.400017e+04 -2.260207e+04 -2.507155e+04
-1.420494e+04 -2.659459e+04 -2.947756e+04
-2.248110e+04 -3.030681e+04 -2.949203e+04
-5.900204e+03 -2.349515e+04 -3.608750e+04
-1.311914e+04 -1.632470e+04 -3.173510e+04
-1.308654e+04 -2.492031e+04 -3.517666e+04
-6.319124e+03 -2.310065e+04 -2.948655e+04
-2.555002e+04 -3.168841e+04 -3.697700e+04
-2.966722e+04 -3.402619e+04 -2.976625e+04
-4.851934e+04 -4.996552e+04 -3.374619e+04
-5.690899e+04 -4.376656e+04 -3.613604e+04
-5.576500e+04 -5.211612e+04 -3.960500e+04
-4.706247e+04 -5.206116e+04 -4.082997e+04
-4.887437e+04 -4.501532e+04 -3.719303e+04
-4.143033e+04 -4.917684e+04 -3.499492e+04
-4.291486e+04 -5.695007e+04 -3.874619e+04
-5.042792e+04 -5.967956e+04 -4.425345e+04
-5.000386e+04 -5.773875e+04 -3.749746e+04
-5.011577e+04 -3.556172e+04 -3.369072e+04
-4.403945e+04 -4.146495e+04 -3.031469e+04
-5.112846e+04 -4.225363e+04 -2.906596e+04
-3.502012e+04 -5.343511e+04 -3.874619e+04
-3.511139e+04 -5.333964e+04 -4.327256e+04
-2.894011e+04 -4.850144e+04 -4.226939e+04
-3.416042e+04 -4.415326e+04 -3.927246e+04
-4.047308e+04 -4.648388e+04 -4.075601e+04
-3.650464e+04 -6.120834e+04 -4.249746e+04
-4.140769e+04 -5.612620e+04 -4.516016e+04
-2.757851e+04 -4.302791e+04 -3.932000e+04
-3.424422e+04 -4.545746e+04 -3.472070e+04
-2.783400e+04 -4.971573e+04 -3.847197e+04
-4.262268e+04 -3.069154e+04 -3.322846e+04
-4.122471e+04 -3.964524e+04 -3.693019e+04
-3.255165e+04 -3.711072e+04 -3.691857e+04
-3.685334e+04 -3.774557e+04 -3.004047e+04
-4.857402e+04 -4.662248e+04 -4.271995e+04
-2.095202e+05 -7.921981e+04 -1.136820e+04
-2.159959e+05 -7.491842e+04 -7.578803e+03
-2.106734e+05 -7.183345e+04 -1.400422e+04
-2.109391e+05 -8.703617e+04 -1.515761e+04
-2.174149e+05 -8.273478e+04 -1.136820e+04
-2.153610e+05 -7.824265e+04 -1.716524e+04
-2.208081e+05 -7.181726e+04 -1.304167e+04
-2.273135e+05 -7.676784e+04 -1.695264e+04
-2.203093e+05 -8.482884e+04 -2.006684e+04
-2.245452e+05 -8.640868e+04 -1.163155e+04
-2.180694e+05 -9.071007e+04 -1.542095e+04
-2.251997e+05 -9.438397e+04 -1.568430e+04
-2.291879e+05 -8.764436e+04 -1.994190e+04
-2.022201e+05 -7.770733e+04 -1.228473e+04
-1.963391e+05 -8.401121e+04 -1.699066e+04
-2.036391e+05 -8.552369e+04 -1.607413e+04
-2.080580e+05 -7.803605e+04 -1.954659e+04
-2.036633e+05 -8.020855e+04 -2.643116e+04
-2.136498e+05 -8.219853e+04 -2.442948e+04
-2.084043e+05 -8.852501e+04 -2.623829e+04
-2.059146e+05 -9.598748e+04 -2.870509e+04
-1.993284e+05 -8.722457e+04 -2.744681e+04
-2.085284e+05 -9.461693e+04 -1.972208e+04
-2.061177e+05 -1.021977e+05 -2.428656e+04
-2.012284e+05 -9.310445e+04 -2.063861e+04
-2.215133e+05 -9.308459e+04 -2.324416e+04
-2.148480e+05 -9.051419e+04 -2.271991e+04
-2.133218e+05 -9.715550e+04 -2.820976e+04
-2.156587e+05 -9.829083e+04 -1.998543e+04
-1.575296e+05 -1.061589e+05 -3.778577e+04
-1.642501e+05 -1.104588e+05 -4.331733e+04
-1.625297e+05 -1.110260e+05 -3.917865e+04
-1.653627e+05 -9.890592e+04 -3.923163e+04
-1.643378e+05 -1.023511e+05 -3.417865e+04
-1.716649e+05 -1.045919e+05 -3.934345e+04
-1.693378e+05 -1.072182e+05 -3.557153e+04
-1.721268e+05 -9.747264e+04 -3.529735e+04
-1.724381e+05 -1.006602e+05 -3.138458e+04
-1.674380e+05 -9.579315e+04 -2.999170e+04
-1.755384e+05 -9.410221e+04 -2.719762e+04
-1.636163e+05 -1.183487e+05 -4.278577e+04
-1.715413e+05 -1.125979e+05 -4.253718e+04
-1.704244e+05 -1.145409e+05 -3.917865e+04
-1.784131e+05 -1.180335e+05 -4.400663e+04
-1.784140e+05 -1.170762e+05 -3.863964e+04
-1.762980e+05 -1.108538e+05 -4.039619e+04
-1.773274e+05 -1.097534e+05 -3.503253e+04
-1.831437e+05 -1.121831e+05 -3.967920e+04
-1.853170e+05 -1.122887e+05 -3.449352e+04
-1.873427e+05 -1.061305e+05 -3.705417e+04
-1.791176e+05 -1.058400e+05 -3.781913e+04
-1.793179e+05 -9.909258e+04 -3.517334e+04
-1.804277e+05 -1.031955e+05 -3.084557e+04
-1.785497e+05 -1.061437e+05 -4.251449e+04
-2.542885e+05 -1.001096e+05 -1.187330e+04
-2.470483e+05 -1.045699e+05 -1.592605e+04
-2.516293e+05 -9.982418e+04 -1.904270e+04
-2.467005e+05 -9.727144e+04 -1.215825e+04
-2.511239e+05 -9.184010e+04 -1.675104e+04
-2.394603e+05 -1.017318e+05 -1.621099e+04
-2.436302e+05 -9.746564e+04 -2.032918e+04
-2.388057e+05 -9.375648e+04 -1.215825e+04
-2.460459e+05 -8.929615e+04 -8.105497e+03
-2.405815e+05 -8.762373e+04 -1.687564e+04
-2.316754e+05 -9.008258e+04 -1.189490e+04
-2.323300e+05 -9.805787e+04 -1.594765e+04
-2.356820e+05 -9.384946e+04 -2.113939e+04
-2.433269e+05 -1.051989e+05 -2.288467e+04
-2.498887e+05 -1.060923e+05 -2.328922e+04
-2.435975e+05 -1.112539e+05 -2.863326e+04
-2.381405e+05 -1.094840e+05 -2.060971e+04
-2.457285e+05 -1.123222e+05 -2.032477e+04
-2.368207e+05 -1.172362e+05 -2.500844e+04
-2.283085e+05 -9.651579e+04 -2.540206e+04
-2.371425e+05 -1.018740e+05 -2.569592e+04
-2.278987e+05 -1.064378e+05 -2.927510e+04
-2.227890e+05 -1.019647e+05 -2.024878e+04
-2.299192e+05 -1.056386e+05 -2.051212e+04
-2.203782e+05 -1.095455e+05 -2.481326e+04
-2.362231e+05 -1.100181e+05 -2.931820e+04
-2.285995e+05 -1.133908e+05 -2.491085e+04
-1.939119e+05 -1.224963e+05 -4.234125e+04
-1.953850e+05 -1.304492e+05 -4.170776e+04
-1.943932e+05 -1.221467e+05 -3.756164e+04
-2.039000e+05 -1.252705e+05 -4.221406e+04
-1.997966e+05 -1.159425e+05 -3.838706e+04
-2.022880e+05 -1.256617e+05 -3.756164e+04
-2.012962e+05 -1.173592e+05 -3.341552e+04
-1.864036e+05 -1.196115e+05 -3.810064e+04
-1.907329e+05 -1.149666e+05 -3.938612e+04
-1.933066e+05 -1.148240e+05 -3.395452e+04
-2.085791e+05 -1.194174e+05 -3.825910e+04
-2.105092e+05 -1.295070e+05 -3.765923e+04
-2.095175e+05 -1.212046e+05 -3.351311e+04
-2.177387e+05 -1.250499e+05 -3.361070e+04
-2.012410e+05 -1.015053e+05 -3.141235e+04
-2.011299e+05 -1.082350e+05 -3.468872e+04
-1.937598e+05 -1.017903e+05 -3.307294e+04
-2.037070e+05 -1.097785e+05 -2.885104e+04
-1.988177e+05 -1.006852e+05 -2.520309e+04
-1.964069e+05 -1.082660e+05 -2.976757e+04
-1.915176e+05 -9.917274e+04 -2.611962e+04
-2.080558e+05 -1.050491e+05 -3.210279e+04
-2.174100e+05 -1.060675e+05 -3.209840e+04
-2.080499e+05 -1.124681e+05 -3.595740e+04
-2.132480e+05 -1.058716e+05 -2.454991e+04
-2.108372e+05 -1.134524e+05 -2.911439e+04
-1.937760e+05 -1.089836e+05 -3.619174e+04
-1.884173e+05 -1.057307e+05 -3.030657e+04
-2.165877e+05 -1.158337e+05 -3.646814e+04
-2.190585e+05 -1.172977e+05 -2.921198e+04
-2.037279e+05 -1.089493e+05 -4.008761e+04
-2.269516e+05 -1.371977e+05 -3.785441e+04
-2.246390e+05 -1.382643e+05 -4.518815e+04
-2.184539e+05 -1.319700e+05 -4.357395e+04
-2.248632e+05 -1.272246e+05 -3.901956e+04
-2.320905e+05 -1.303381e+05 -4.031567e+04
-2.341811e+05 -1.327406e+05 -3.380588e+04
-2.276169e+05 -1.451698e+05 -4.190294e+04
-2.334173e+05 -1.393901e+05 -4.256052e+04
-2.348464e+05 -1.407127e+05 -3.785441e+04
-2.155911e+05 -1.243915e+05 -3.965116e+04
-2.187304e+05 -1.333524e+05 -3.775682e+04
-2.259599e+05 -1.288953e+05 -3.370829e+04
-2.411744e+05 -1.433115e+05 -4.226528e+04
-2.391601e+05 -1.360327e+05 -3.965821e+04
-2.470470e+05 -1.375018e+05 -3.875295e+04
-2.435702e+05 -1.435907e+05 -3.732375e+04
-2.429049e+05 -1.356186e+05 -3.327522e+04
-2.394143e+05 -1.199122e+05 -3.307278e+04
-2.496305e+05 -1.199750e+05 -3.266068e+04
-2.417280e+05 -1.284972e+05 -3.699710e+04
-2.444088e+05 -1.200744e+05 -2.472349e+04
-2.355009e+05 -1.249884e+05 -2.940716e+04
-2.430890e+05 -1.278266e+05 -2.912221e+04
-2.513032e+05 -1.297149e+05 -3.592069e+04
-2.518128e+05 -1.307046e+05 -2.859155e+04
-2.237445e+05 -1.202710e+05 -3.604849e+04
-2.312572e+05 -1.155550e+05 -3.232487e+04
-2.323791e+05 -1.233067e+05 -3.653260e+04
-2.272797e+05 -1.211431e+05 -2.930957e+04
-2.400796e+05 -1.308662e+05 -4.272288e+04
-1.679916e+05 -7.585227e+04 -2.779697e+04
-1.716460e+05 -6.676284e+04 -2.159171e+04
-1.759333e+05 -7.371689e+04 -2.489436e+04
-1.709807e+05 -7.494149e+04 -1.816186e+04
-1.736386e+05 -8.267719e+04 -2.161779e+04
-1.790811e+05 -7.325055e+04 -1.536779e+04
-1.817390e+05 -8.098625e+04 -1.882372e+04
-1.666189e+05 -8.506317e+04 -3.221900e+04
-1.752284e+05 -8.176278e+04 -2.842110e+04
-1.738359e+05 -8.997651e+04 -3.381442e+04
-1.705383e+05 -8.923517e+04 -2.580474e+04
-1.786387e+05 -8.754423e+04 -2.301067e+04
-1.787678e+05 -6.779235e+04 -2.344645e+04
-1.839383e+05 -7.519920e+04 -2.908841e+04
-1.841277e+05 -6.275939e+04 -1.925516e+04
-1.888477e+05 -6.933174e+04 -2.169262e+04
-1.849621e+05 -6.694667e+04 -1.066186e+04
-1.876200e+05 -7.468237e+04 -1.411779e+04
-1.934464e+05 -6.131184e+04 -1.504573e+04
-1.978137e+05 -6.741666e+04 -1.697873e+04
-1.929991e+05 -7.449507e+04 -2.097311e+04
-1.949201e+05 -7.619485e+04 -1.320126e+04
-1.890390e+05 -8.249873e+04 -1.790719e+04
-2.011876e+05 -7.521608e+04 -1.929754e+04
-1.963671e+05 -7.930979e+04 -2.453239e+04
-1.889851e+05 -7.894273e+04 -2.643131e+04
-1.920332e+05 -8.527190e+04 -2.646151e+04
-1.915835e+05 -9.255301e+04 -3.082469e+04
-1.836221e+05 -8.478229e+04 -2.861247e+04
-1.939283e+05 -9.159197e+04 -2.155514e+04
-1.866283e+05 -9.007949e+04 -2.247167e+04
-1.815473e+05 -9.195347e+04 -3.356730e+04
-1.835280e+05 -9.663747e+04 -2.665862e+04
-1.765508e+05 -7.440640e+04 -3.249082e+04
-8.743628e+04 -4.467956e+04 -2.181934e+04
-8.521789e+04 -4.677363e+04 -3.044192e+04
-8.585590e+04 -3.875616e+04 -2.662919e+04
-9.277137e+04 -3.544845e+04 -2.312077e+04
-9.102338e+04 -4.299979e+04 -2.696428e+04
-9.331958e+04 -4.212890e+04 -1.909245e+04
-9.236148e+04 -4.954958e+04 -3.067095e+04
-8.818223e+04 -5.018177e+04 -2.454623e+04
-9.406554e+04 -4.763110e+04 -2.181934e+04
-8.699544e+04 -3.780359e+04 -1.829623e+04
-9.287875e+04 -3.525292e+04 -1.556934e+04
-9.079109e+04 -2.879764e+04 -2.054788e+04
-9.794054e+04 -2.808098e+04 -1.813138e+04
-9.940308e+04 -3.667632e+04 -2.134565e+04
-9.906718e+04 -3.132849e+04 -1.204623e+04
-9.950801e+04 -3.820446e+04 -1.556934e+04
-1.049033e+05 -3.116114e+04 -1.643166e+04
-1.007628e+05 -4.902569e+04 -2.098219e+04
-9.967916e+04 -4.935936e+04 -2.929680e+04
-1.067140e+05 -4.491807e+04 -1.741816e+04
-1.000168e+05 -4.352349e+04 -1.825531e+04
-1.034972e+05 -4.347184e+04 -2.379178e+04
-9.746981e+04 -4.376438e+04 -2.589160e+04
-1.062052e+05 -3.959905e+04 -1.473219e+04
-1.059311e+05 -3.792788e+04 -1.986040e+04
-9.651899e+04 -3.746875e+04 -2.914773e+04
-1.476094e+05 -6.728713e+04 -1.961296e+04
-1.415561e+05 -7.115655e+04 -2.307531e+04
-1.455211e+05 -6.416158e+04 -2.453503e+04
-1.470333e+05 -6.046616e+04 -1.615061e+04
-1.409801e+05 -6.433559e+04 -1.961296e+04
-1.442509e+05 -5.713987e+04 -2.076950e+04
-1.382125e+05 -6.315838e+04 -2.566652e+04
-1.517714e+05 -6.688003e+04 -2.637079e+04
-1.501259e+05 -6.081960e+04 -2.216630e+04
-1.569489e+05 -5.813313e+04 -1.997802e+04
-1.536279e+05 -6.468145e+04 -1.682531e+04
-1.530518e+05 -5.786049e+04 -1.336296e+04
-1.573353e+05 -5.099031e+04 -1.546436e+04
-1.518341e+05 -5.511360e+04 -1.862518e+04
-1.464226e+05 -5.490895e+04 -1.336296e+04
-1.524411e+05 -5.230327e+04 -1.057531e+04
-1.498289e+05 -5.006931e+04 -1.618897e+04
-1.342489e+05 -6.114586e+04 -1.951127e+04
-1.403021e+05 -5.727643e+04 -1.604893e+04
-1.335709e+05 -5.408671e+04 -1.594724e+04
-1.358548e+05 -5.463529e+04 -2.196810e+04
-1.434547e+05 -4.935698e+04 -1.825328e+04
-1.396914e+05 -5.171922e+04 -1.326127e+04
-1.497780e+05 -5.537076e+04 -2.473655e+04
-1.148352e+05 -5.887402e+04 -2.287193e+04
-1.141572e+05 -5.181486e+04 -1.930790e+04
-1.157266e+05 -5.396084e+04 -2.735284e+04
-1.207864e+05 -5.476640e+04 -1.930790e+04
-1.247570e+05 -5.584941e+04 -2.663263e+04
-1.201084e+05 -4.770725e+04 -1.574386e+04
-1.221805e+05 -4.852137e+04 -2.201791e+04
-1.275177e+05 -5.795613e+04 -1.940958e+04
-1.268397e+05 -5.089698e+04 -1.584555e+04
-1.291416e+05 -5.124015e+04 -2.109111e+04
-1.074600e+05 -5.042028e+04 -2.014504e+04
-1.137485e+05 -4.906906e+04 -2.520143e+04
-1.134112e+05 -4.631266e+04 -1.658101e+04
-1.164864e+05 -4.389108e+04 -2.155635e+04
-1.095635e+05 -4.351845e+04 -2.358505e+04
-1.195997e+05 -4.238822e+04 -1.305790e+04
-1.257201e+05 -4.002074e+04 -1.037193e+04
-1.227820e+05 -3.452114e+04 -1.536134e+04
-1.262289e+05 -4.533976e+04 -1.305790e+04
-1.239038e+05 -4.186541e+04 -1.958113e+04
-1.309306e+05 -3.868332e+04 -1.538435e+04
-1.129024e+05 -4.099364e+04 -1.389504e+04
-1.158786e+05 -3.536215e+04 -1.562821e+04
-1.119822e+05 -3.971153e+04 -1.876154e+04
-1.180981e+05 -3.981393e+04 -1.787623e+04
-1.303369e+05 -4.450634e+04 -1.901856e+04
-1.329601e+05 -4.852949e+04 -1.315958e+04
-1.193766e+05 -3.830433e+04 -2.279864e+04
-2.898564e+05 -1.732631e+05 -4.625891e+04
-2.819939e+05 -1.607659e+05 -4.180601e+04
-2.932441e+05 -1.114599e+05 -1.324672e+04
-2.801671e+05 -9.196686e+04 -9.278987e+03
-2.844332e+05 -1.271123e+05 -2.747965e+04
-2.835732e+05 -8.245207e+04 -7.064516e+03
-2.580386e+05 -9.397333e+04 -1.443730e+04
-2.681241e+05 -8.710301e+04 -1.506771e+04
2.858692e+05 1.574749e+05 -9.714202e+03
2.840356e+05 1.682448e+05 -7.396213e+03
2.770298e+05 1.471027e+05 -1.549139e+04
2.960102e+05 9.606412e+04 -4.537010e+04
2.860234e+05 9.159099e+04 -4.211871e+04
2.796365e+05 7.885552e+04 -4.659564e+04
2.672408e+05 8.234420e+04 -4.602714e+04
2.556320e+05 7.758982e+04 -4.229241e+04
2.829478e+05 8.995346e+04 -4.571784e+04
2.777776e+05 1.098340e+05 -3.133682e+04
-1.380757e+05 -6.923127e+04 -2.884098e+04
-1.470946e+05 -6.323079e+04 -2.967332e+04
-1.577881e+05 -6.494258e+04 -2.213212e+04
-1.305102e+05 -6.014758e+04 -2.643301e+04
-1.239446e+05 -8.688146e+04 -4.122525e+04
-1.657756e+05 -6.977311e+04 -2.263476e+04
-1.657626e+05 -9.244172e+04 -3.472087e+04
-1.718569e+05 -5.923995e+04 -2.519872e+04
-1.874084e+05 -5.702184e+04 -1.253480e+04
-1.576920e+05 -1.034893e+05 -4.208465e+04
-1.338982e+05 -1.023016e+05 -4.612441e+04
-1.619713e+05 -1.168259e+05 -4.652715e+04
-1.642997e+05 -1.118708e+05 -4.731425e+04
-1.310170e+05 -8.795405e+04 -4.429397e+04
-1.130348e+05 -7.947198e+04 -3.987981e+04
-1.161327e+05 -7.993590e+04 -4.388212e+04
-1.553687e+05 -4.535891e+04 -1.294285e+04
-1.865857e+05 -9.855104e+04 -3.319370e+04
-5.711990e+04 -6.025139e+04 -4.163230e+04
-5.655434e+04 -3.724420e+04 -3.082557e+04
-8.615484e+04 -5.302910e+04 -3.224546e+04
-8.455244e+04 -3.287430e+04 -2.235670e+04
-7.420372e+04 -2.751606e+04 -2.400622e+04
-3.611154e+04 -6.204507e+04 -4.612590e+04
-6.839546e+04 -7.006391e+04 -4.466481e+04
-7.276476e+04 -8.053590e+03 -1.323788e+04
-7.619554e+04 -1.250030e+04 -2.053381e+04
-8.230382e+04 -6.574894e+04 -4.150970e+04
-3.363164e+04 -2.934990e+04 -3.338258e+04
-1.062130e+05 -4.863317e+04 -2.617867e+04
-9.367662e+04 -7.030922e+04 -4.435512e+04
-1.002431e+05 -8.341368e+04 -4.479887e+04
-1.029780e+05 -2.553512e+04 -1.315607e+04
-1.855884e+05 -4.685213e+04 -6.111808e+03
-1.630749e+05 -4.104953e+04 -7.516975e+03
-1.898226e+05 -5.112562e+04 -1.469904e+04
-1.938353e+05 -4.187284e+04 -7.455939e+03
-1.493376e+05 -4.647121e+04 -2.029756e+04
-1.362851e+05 -4.805099e+04 -1.979954e+04
-2.032292e+05 -7.084444e+04 -1.436415e+04
-1.547178e+05 -3.259763e+04 -6.977489e+03
-9.440545e+04 -5.585321e+03 -5.418049e+03
-6.207042e+04 7.849451e+02 -1.279213e+04
-1.069772e+05 -1.779089e+04 -8.657496e+03
-1.014332e+05 -1.095831e+04 -1.368834e+04
-1.254087e+05 -2.110219e+04 -5.660124e+03
-1.097226e+05 -3.469575e+04 -1.690857e+04
-1.106111e+05 -3.038860e+04 -1.911979e+04
-2.906722e+05 -1.407774e+05 -3.104749e+04
-2.915341e+05 -1.499556e+05 -4.107355e+04
-2.581228e+05 -1.585310e+05 -4.612602e+04
-2.715986e+05 -1.534529e+05 -4.554601e+04
-2.573956e+05 -1.258827e+05 -3.228828e+04
2.855522e+05 1.222950e+05 -2.996379e+04
2.545996e+05 1.458653e+05 -1.011231e+04
2.756598e+05 1.445866e+05 -2.511720e+04
2.547108e+05 1.072768e+05 -2.835869e+04
2.664897e+05 1.138649e+05 -3.474754e+04
2.485816e+05 6.533340e+04 -4.651099e+04
2.244923e+05 6.444470e+04 -4.220450e+04
2.365804e+05 6.935759e+04 -4.592528e+04
2.526207e+05 7.631379e+04 -4.590764e+04
2.486702e+05 9.570602e+04 -3.360452e+04
2.537654e+05 8.694982e+04 -4.261403e+04
2.170463e+05 5.138965e+04 -4.649815e+04
1.928331e+05 5.047112e+04 -4.217537e+04
2.048418e+05 5.528532e+04 -4.597436e+04
2.211218e+05 6.278183e+04 -4.590642e+04
2.176119e+05 8.297389e+04 -3.314953e+04
2.171639e+05 7.678543e+04 -4.057300e+04
1.853045e+05 3.740628e+04 -4.643226e+04
1.613216e+05 3.654935e+04 -4.234773e+04
1.689666e+05 3.548440e+04 -4.712543e+04
1.894121e+05 4.922268e+04 -4.578590e+04
1.836983e+05 7.073391e+04 -3.352685e+04
1.905744e+05 6.076289e+04 -4.291632e+04
1.525648e+05 2.453412e+04 -4.649880e+04
1.536388e+05 5.471495e+04 -3.291227e+04
1.596159e+05 4.568295e+04 -4.236543e+04
1.297090e+05 2.200994e+04 -4.210194e+04
1.223331e+05 9.199368e+03 -4.649853e+04
1.100925e+05 1.323163e+04 -4.585962e+04
9.813567e+04 8.167288e+03 -4.200861e+04
1.263355e+05 2.055524e+04 -4.577309e+04
1.225608e+05 4.018632e+04 -3.307826e+04
1.278007e+05 3.083232e+04 -4.254947e+04
9.071818e+04 -4.813938e+03 -4.649342e+04
9.475089e+04 6.876028e+03 -4.573784e+04
6.647282e+04 -5.892458e+03 -4.221583e+04
7.830768e+04 -9.152631e+02 -4.597803e+04
9.065013e+04 2.669306e+04 -3.328432e+04
9.647916e+04 1.713757e+04 -4.326166e+04
5.913372e+04 -1.888064e+04 -4.649391e+04
3.495271e+04 -1.985118e+04 -4.242316e+04
4.671935e+04 -1.455151e+04 -4.574098e+04
6.299365e+04 -7.303675e+03 -4.582780e+04
5.887017e+04 1.254692e+04 -3.318890e+04
6.416214e+04 3.496383e+03 -4.298979e+04
2.745629e+04 -3.297318e+04 -4.627593e+04
2.627057e+04 -2.746601e+04 -4.705533e+04
2.714639e+04 -1.402407e+03 -3.294308e+04
3.302567e+04 -1.045438e+04 -4.240452e+04
3.164360e+03 -3.382867e+04 -4.240133e+04
1.494313e+04 -2.854882e+04 -4.574104e+04
-4.409978e+03 -4.698742e+04 -4.624958e+04
-5.811360e+03 -4.142776e+04 -4.700814e+04
-4.507420e+03 -1.602650e+04 -3.267728e+04
6.815037e+02 -2.428331e+04 -4.227693e+04
-2.076068e+04 -4.478514e+04 -4.351128e+04
-1.063458e+05 -8.226924e+04 -4.670844e+04
-1.175434e+05 -6.054792e+04 -3.015004e+04
-1.868851e+05 -1.188247e+05 -4.239016e+04
-1.751195e+05 -1.139591e+05 -4.609777e+04
-1.951630e+05 -1.294511e+05 -4.550646e+04
-1.899610e+05 -1.200540e+05 -4.570102e+04
-2.113141e+05 -1.298495e+05 -4.212085e+04
-1.881289e+05 -1.100988e+05 -4.235145e+04
-2.251369e+05 -1.456787e+05 -4.653058e+04
-2.499221e+05 -1.461420e+05 -4.337778e+04
-2.235118e+05 -1.131420e+05 -3.288882e+04
-2.123345e+05 -1.160233e+05 -4.150340e+04
-2.587762e+05 -1.317736e+05 -4.057049e+04
-2.490300e+05 -8.385364e+04 -1.246764e+04
-2.514521e+05 -1.132888e+05 -2.731180e+04
-2.333273e+05 -8.315655e+04 -1.533893e+04
-2.168422e+05 -6.568843e+04 -1.032528e+04
-2.346734e+05 -9.078170e+04 -2.783613e+04
-2.208838e+05 -1.003067e+05 -2.734790e+04
-2.075386e+05 -7.371464e+04 -2.472344e+04
-1.981324e+05 -9.522027e+04 -2.943226e+04
-1.472199e+05 -3.026091e+04 -1.256110e+04
-1.352086e+05 -2.849075e+04 -8.636371e+03
-1.289441e+05 -3.449055e+04 -1.176382e+04
-3.780528e+04 1.243726e+03 -1.661433e+04
-2.877072e+04 1.335795e+04 -1.386317e+04
-3.763670e+04 -3.900460e+03 -2.676288e+04
-3.026564e+04 -1.703405e+04 -2.756737e+04
-1.352368e+04 1.295535e+04 -1.549036e+04
2.580740e+03 3.368517e+04 -9.105727e+03
-1.354149e+04 5.434493e+03 -2.757463e+04
1.369651e+03 -3.291696e+03 -2.943971e+04
1.952921e+04 3.074137e+04 -1.466187e+04
3.840480e+04 4.731339e+04 -1.226983e+04
5.450732e+04 4.366376e+04 -1.522738e+04
3.218474e+04 1.150617e+04 -2.806997e+04
1.894682e+04 2.530027e+04 -2.653711e+04
6.846118e+04 6.055995e+04 -1.072129e+04
6.556631e+04 7.252415e+04 -7.835027e+03
8.279532e+04 5.965873e+04 -1.515196e+04
7.797742e+04 6.220200e+04 -1.899304e+04
6.522838e+04 2.480879e+04 -2.995596e+04
8.938827e+04 6.649073e+04 -1.963533e+04
9.980374e+04 7.451515e+04 -1.192697e+04
8.250072e+04 5.186591e+04 -2.561997e+04
9.632611e+04 3.952062e+04 -2.961228e+04
1.155840e+05 7.267227e+04 -1.578955e+04
1.103483e+05 7.629504e+04 -2.009830e+04
1.218610e+05 8.063476e+04 -2.047968e+04
1.313435e+05 8.666859e+04 -1.133776e+04
1.293175e+05 1.002616e+05 -7.360900e+03
1.467113e+05 8.762070e+04 -1.556031e+04
1.408262e+05 9.064370e+04 -1.942883e+04
1.136878e+05 6.522840e+04 -2.734345e+04
1.281333e+05 5.273034e+04 -3.021502e+04
1.633401e+05 1.007910e+05 -1.032637e+04
1.610262e+05 1.141393e+05 -7.950088e+03
1.777450e+05 1.015763e+05 -1.519113e+04
1.586728e+05 6.764466e+04 -2.807539e+04
1.457528e+05 8.022397e+04 -2.671844e+04
1.948994e+05 1.170100e+05 -1.014106e+04
1.919010e+05 1.281943e+05 -8.783404e+03
2.084916e+05 1.162733e+05 -1.424543e+04
2.035669e+05 1.190232e+05 -1.750336e+04
1.875846e+05 1.126559e+05 -1.829065e+04
1.774106e+05 9.403232e+04 -2.588365e+04
1.901320e+05 8.246379e+04 -2.764016e+04
2.140796e+05 1.227911e+05 -1.853921e+04
2.249661e+05 1.285452e+05 -1.110855e+04
2.399587e+05 1.297457e+05 -1.505223e+04
2.333840e+05 1.333122e+05 -1.852447e+04
2.233642e+05 9.410340e+04 -2.771721e+04
2.440493e+05 1.384809e+05 -1.845755e+04
-1.151390e+05 -4.870808e+04 -3.106198e+04
-1.111141e+05 -3.726937e+04 -2.349770e+04
-2.359265e+05 -1.130929e+05 -3.725278e+04
-2.583856e+05 -1.195600e+05 -3.660186e+04
4.244352e+04 1.125682e+04 -3.645719e+04
2.625583e+04 4.292209e+03 -3.638985e+04
1.529120e+05 6.027289e+04 -3.629728e+04
2.371868e+05 9.606188e+04 -3.761302e+04
-5.695631e+03 -1.081419e+04 -3.596685e+04
-1.972252e+04 -1.647851e+04 -3.508190e+04
-3.417554e+04 -2.289926e+04 -3.627610e+04
-2.053639e+05 -9.940662e+04 -3.604412e+04
-1.908607e+05 -9.694389e+04 -3.687357e+04
-2.248025e+05 -1.075135e+05 -3.675966e+04
-1.798842e+05 -2.072977e+05 -5.000000e+04
-1.879574e+05 -2.193962e+05 -2.462299e+04
-1.577092e+05 -1.886470e+05 -2.578580e+04
-1.930457e+05 -1.765966e+05 -2.872981e+04
-2.001020e+05 -1.599234e+05 0.000000e+00
-2.236345e+05 -1.859575e+05 -2.582669e+04
-2.183410e+05 -1.584444e+05 -1.436182e+04
-1.734648e+05 -1.497025e+05 -1.883481e+04
-1.698616e+05 -1.693762e+05 0.000000e+00
-1.982572e+05 -1.997024e+05 0.000000e+00
-1.133707e+05 -1.444945e+05 -5.000000e+04
-1.062692e+05 -1.582711e+05 -2.421661e+04
-8.309057e+04 -1.683601e+05 -5.000000e+04
-7.345999e+04 -1.485553e+05 -2.628282e+04
-5.282335e+04 -1.547010e+05 -5.000000e+04
-5.414552e+04 -1.647729e+05 -2.471994e+04
-5.021281e+04 -1.163748e+05 -5.000000e+04
-3.703577e+04 -1.333489e+05 -2.562107e+04
-8.490677e+04 -1.266027e+05 -2.500831e+04
-5.673485e+04 -1.327840e+05 0.000000e+00
-5.858287e+04 -1.072030e+05 -2.009563e+04
2.353380e+05 -6.131522e+04 -5.000000e+04
2.189020e+05 -3.500308e+04 -2.462846e+04
2.009787e+05 -4.046259e+04 -5.000000e+04
2.199323e+05 -6.471219e+04 -2.492779e+04
2.361510e+05 -6.540655e+04 0.000000e+00
2.496407e+05 -4.012238e+04 -2.526585e+04
2.194629e+05 -9.371670e+04 -2.502604e+04
2.538860e+05 -9.047241e+04 -2.505331e+04
1.905019e+05 -5.528243e+04 -2.332808e+04
2.021175e+05 -7.678993e+04 -5.000000e+04
1.868541e+05 -8.530617e+04 -2.500457e+04
2.039231e+05 -8.216322e+04 0.000000e+00
2.683706e+05 -4.864987e+04 0.000000e+00
2.678875e+05 -6.263063e+04 -2.556585e+04
2.762102e+05 -2.961866e+04 -2.561963e+04
2.683706e+05 -1.513652e+04 0.000000e+00
2.477832e+05 -1.309308e+04 -2.430380e+04
2.766661e+05 3.364062e+03 -2.460284e+04
2.680498e+05 -4.473503e+04 -5.000000e+04
-2.518143e+05 -2.692901e+05 0.000000e+00
-2.166667e+05 -2.684836e+05 0.000000e+00
-2.373761e+05 -2.752407e+05 -2.489071e+04
-2.168265e+05 -2.670634e+05 -5.000000e+04
-2.020964e+05 -2.669007e+05 -2.517007e+04
-2.257868e+05 -2.470151e+05 -2.491718e+04
-2.519854e+05 -2.692705e+05 -5.000000e+04
-2.575757e+05 -2.516557e+05 -2.518855e+04
-2.740594e+05 -2.752325e+05 -3.447862e+04
1.708398e+05 -1.795586e+04 -5.000000e+04
2.024209e+05 -3.900806e+03 -5.000000e+04
1.810674e+05 8.745694e+03 -1.661654e+04
1.873333e+05 -2.619060e+04 -2.556520e+04
1.686142e+05 -5.451437e+04 -5.000000e+04
1.671706e+05 4.151734e+03 0.000000e+00
1.695670e+05 -3.130073e+04 0.000000e+00
1.546622e+05 -6.306540e+03 -1.968908e+04
2.039231e+05 -4.864987e+04 0.000000e+00
1.554502e+05 -5.198316e+04 -2.514581e+04
2.695501e+05 -2.484215e+05 0.000000e+00
2.512603e+05 -2.441893e+05 -2.520075e+04
2.769426e+05 -2.318125e+05 -2.448597e+04
2.697648e+05 -2.676851e+05 -2.923580e+04
2.517402e+05 -2.693272e+05 0.000000e+00
2.782892e+05 -2.777661e+05 -1.339893e+04
2.692785e+05 -2.476265e+05 -5.000000e+04
2.348103e+05 -2.765917e+05 -2.440230e+04
-1.666667e+04 -2.684836e+05 -5.000000e+04
5.805698e+03 -2.776586e+05 -2.320944e+04
3.585634e+03 -2.479981e+05 -2.361753e+04
-2.830089e+04 -2.747075e+05 -2.187157e+04
-2.332517e+04 -2.437817e+05 -2.918196e+04
-3.333333e+04 -2.362260e+05 -5.000000e+04
-4.350567e+04 -2.543264e+05 -2.748696e+04
-5.000000e+04 -2.684836e+05 0.000000e+00
-3.333333e+04 -2.362260e+05 0.000000e+00
-1.307993e+05 -1.406090e+05 -2.409252e+04
-1.449497e+05 -1.585544e+05 -5.000000e+04
-1.666667e+04 -2.684836e+05 0.000000e+00
2.809650e+05 3.705148e+04 -2.859055e+04
2.664044e+05 2.419918e+04 -5.000000e+04
2.517301e+05 1.632958e+04 -2.192698e+04
2.683706e+05 1.837683e+04 0.000000e+00
2.640915e+05 5.195724e+04 -1.474292e+04
-2.345763e+05 -1.683034e+05 0.000000e+00
-2.493094e+05 -1.865925e+05 -1.792052e+04
-2.206155e+05 -2.128237e+05 -2.524489e+04
-2.081075e+05 -1.866741e+05 -5.000000e+04
-2.393846e+05 -2.008286e+05 -5.000000e+04
2.683706e+05 -1.827033e+05 0.000000e+00
2.683706e+05 -1.491899e+05 0.000000e+00
2.764929e+05 -1.610843e+05 -2.346121e+04
2.680523e+05 -1.808763e+05 -5.000000e+04
2.496536e+05 -1.890944e+05 -2.499990e+04
2.764882e+05 -1.989560e+05 -2.439009e+04
2.480111e+05 -1.579873e+05 -2.466194e+04
2.680523e+05 -1.468410e+05 -5.000000e+04
2.784768e+05 -1.209080e+05 -2.257903e+04
2.680523e+05 -1.128057e+05 -5.000000e+04
2.683706e+05 -1.156766e+05 0.000000e+00
2.495899e+05 -1.242023e+05 -2.476167e+04
-1.012411e+05 -1.706303e+05 0.000000e+00
-7.499245e+04 -1.870550e+05 -2.355310e+04
-5.000000e+04 -2.039587e+05 0.000000e+00
-3.711591e+04 -1.878711e+05 -2.482931e+04
-5.490396e+04 -2.198894e+05 -2.507234e+04
-8.333333e+04 -2.039587e+05 0.000000e+00
-9.052452e+04 -2.198869e+05 -2.500652e+04
-6.670018e+04 -1.713993e+05 0.000000e+00
-1.084972e+05 -1.922342e+05 -2.540733e+04
2.680469e+05 -1.069970e+04 -5.000000e+04
-2.777143e+05 -2.246135e+05 -2.222494e+04
-2.804032e+05 -1.899175e+05 -1.678753e+04
-2.682710e+05 -2.158126e+05 0.000000e+00
2.361510e+05 -3.189320e+04 0.000000e+00
2.341320e+05 9.864746e+03 -5.000000e+04
2.193099e+05 -3.344228e+03 -2.049583e+04
2.348621e+05 -2.662133e+04 -5.000000e+04
1.385524e+05 -1.144767e+05 0.000000e+00
1.229266e+05 -1.248122e+05 -2.346198e+04
9.920121e+04 -9.899617e+04 0.000000e+00
1.178732e+05 -9.272701e+04 -2.467696e+04
1.049078e+05 -8.233852e+04 -5.000000e+04
1.364868e+05 -6.827867e+04 -5.000000e+04
1.196131e+05 -5.766261e+04 -2.599128e+04
1.022323e+05 -1.210628e+05 -5.000000e+04
1.345130e+05 -1.051402e+05 -5.000000e+04
8.613533e+04 -1.154476e+05 -2.519017e+04
8.778746e+04 -7.646181e+04 -2.478134e+04
2.166667e+05 -2.684836e+05 -5.000000e+04
2.232042e+05 -2.518076e+05 -2.482879e+04
2.012395e+05 -2.767409e+05 -2.430571e+04
2.518754e+05 -2.693153e+05 -5.000000e+04
2.683706e+05 -2.162166e+05 0.000000e+00
2.504927e+05 -2.168580e+05 -2.508172e+04
2.680477e+05 -2.149117e+05 -5.000000e+04
-7.020264e+04 -2.478058e+05 -2.539351e+04
4.452403e+04 -7.419527e+04 -5.000000e+04
5.762069e+04 -9.048663e+04 -2.573578e+04
6.225391e+04 -4.709349e+04 -1.869351e+04
3.133181e+04 -8.217318e+04 -2.191345e+04
4.174994e+04 -1.104582e+05 -5.000000e+04
2.290170e+04 -1.095164e+05 -2.434482e+04
1.294509e+04 -8.825513e+04 -5.000000e+04
-6.666667e+04 -2.362260e+05 0.000000e+00
-5.000000e+04 -2.684836e+05 -5.000000e+04
-6.976741e+04 -2.767333e+05 -2.346275e+04
-1.500000e+05 -2.684836e+05 0.000000e+00
-1.333333e+05 -2.362260e+05 0.000000e+00
-1.166667e+05 -2.684836e+05 0.000000e+00
-1.386621e+05 -2.514041e+05 -2.496905e+04
-1.062143e+05 -2.782575e+05 -2.325870e+04
-8.333333e+04 -2.684836e+05 0.000000e+00
-1.047066e+05 -2.505060e+05 -2.488663e+04
-8.333333e+04 -2.684836e+05 -5.000000e+04
1.833333e+05 -2.684836e+05 -5.000000e+04
2.166667e+05 -2.684836e+05 0.000000e+00
1.916425e+05 -2.508689e+05 -2.486483e+04
2.359410e+05 -1.298234e+05 -5.000000e+04
2.194665e+05 -1.220490e+05 -2.501453e+04
2.026370e+05 -1.469433e+05 -5.000000e+04
2.210286e+05 -1.484227e+05 -2.524220e+04
2.035165e+05 -1.518932e+05 0.000000e+00
1.863782e+05 -1.591671e+05 -2.540353e+04
1.881810e+05 -1.222517e+05 -2.517436e+04
2.345953e+05 -1.674597e+05 0.000000e+00
2.178469e+05 -1.800151e+05 -2.583392e+04
2.361510e+05 -1.324332e+05 0.000000e+00
2.344271e+05 -2.357114e+05 -5.000000e+04
2.359381e+05 -1.981416e+05 -5.000000e+04
2.201519e+05 -2.207482e+05 -2.470075e+04
2.340719e+05 -2.341391e+05 0.000000e+00
-2.697733e+05 -2.144548e+05 -5.000000e+04
-1.186449e+05 -1.263820e+05 0.000000e+00
-1.335212e+05 -1.694951e+05 0.000000e+00
-2.682695e+05 -1.821377e+05 0.000000e+00
-2.492900e+05 -2.235515e+05 -2.419188e+04
-1.439995e+05 -2.787993e+05 -2.245015e+04
-1.166667e+05 -2.684836e+05 -5.000000e+04
-2.417854e+04 -8.005048e+04 0.000000e+00
7.400407e+03 -6.599062e+04 0.000000e+00
3.781307e+03 -1.034650e+05 0.000000e+00
4.474478e+03 -7.887595e+04 -2.233663e+04
-1.500000e+05 -2.684836e+05 -5.000000e+04
-1.720546e+05 -2.535561e+05 -2.527437e+04
1.353624e+05 -2.677856e+05 -2.459930e+04
1.500000e+05 -2.684836e+05 0.000000e+00
1.680879e+05 -2.762894e+05 -2.435734e+04
1.833333e+05 -2.684836e+05 0.000000e+00
1.605092e+05 -2.498231e+05 -2.474789e+04
1.500000e+05 -2.684836e+05 -5.000000e+04
1.666667e+04 -2.684836e+05 -5.000000e+04
3.732332e+04 -2.524063e+05 -2.475064e+04
4.005915e+04 -2.785234e+05 -2.351688e+04
2.361510e+05 -9.891990e+04 0.000000e+00
1.666667e+04 -2.684836e+05 0.000000e+00
5.000000e+04 -2.684836e+05 0.000000e+00
7.321950e+04 -2.494531e+05 -2.516489e+04
7.960078e+04 -2.779506e+05 -2.794701e+04
-1.845072e+05 -2.662907e+05 -5.000000e+04
8.333333e+04 -2.684836e+05 0.000000e+00
1.078183e+05 -2.528800e+05 -2.525757e+04
1.166667e+05 -2.684836e+05 0.000000e+00
1.166667e+05 -2.684836e+05 -5.000000e+04
5.000000e+04 -2.684836e+05 -5.000000e+04
2.076531e+05 2.217388e+04 -1.764156e+04
2.358292e+05 3.525121e+04 0.000000e+00
2.024488e+05 1.878369e+04 0.000000e+00
-9.989695e+04 -2.364853e+05 -5.000000e+04
-6.666667e+04 -2.362260e+05 -5.000000e+04
-1.140579e+05 -2.075682e+05 -5.000000e+04
-8.356611e+04 -2.038239e+05 -5.000000e+04
1.666667e+05 -2.362260e+05 -5.000000e+04
1.500000e+05 -2.039551e+05 -5.000000e+04
1.425979e+05 -2.200546e+05 -2.493443e+04
1.805306e+05 -2.219408e+05 -2.581457e+04
1.680967e+05 -2.346965e+05 0.000000e+00
1.994222e+05 -2.383919e+05 -5.000000e+04
-2.691718e+05 -2.458672e+05 -5.000000e+04
-5.495258e+03 -1.199941e+05 -2.503449e+04
1.017100e+04 -1.245181e+05 -5.000000e+04
-2.809351e+04 -1.140718e+05 0.000000e+00
-2.599666e+04 -9.748975e+04 -2.419578e+04
-8.908158e+04 -1.431928e+05 0.000000e+00
-5.095017e+04 -2.002954e+05 -5.000000e+04
-1.991456e+04 -1.580475e+05 -2.661689e+04
3.852126e+04 -1.767266e+05 -5.000000e+04
2.751244e+04 -1.872644e+05 -2.495975e+04
5.494201e+04 -1.549883e+05 -2.515951e+04
1.711141e+04 -1.503315e+05 -2.521793e+04
-2.140795e+04 -1.385779e+05 -5.000000e+04
4.929741e+04 -1.377476e+05 0.000000e+00
3.333333e+04 -1.716781e+05 0.000000e+00
6.821828e+03 -1.634485e+05 -5.000000e+04
-9.313226e-10 -1.716781e+05 0.000000e+00
-5.448264e+03 -1.864804e+05 -2.504071e+04
-1.655136e+04 -1.393247e+05 0.000000e+00
1.000203e+05 -1.674616e+05 -5.000000e+04
9.332990e+04 -1.873041e+05 -2.506284e+04
1.213109e+05 -1.578528e+05 -2.503506e+04
8.873898e+04 -1.531164e+05 -2.507967e+04
6.666667e+04 -1.716781e+05 0.000000e+00
6.066886e+04 -1.876676e+05 -2.490668e+04
1.000000e+05 -1.716778e+05 0.000000e+00
7.150617e+04 -1.345130e+05 -5.000000e+04
6.693048e+04 -1.713711e+05 -5.000000e+04
8.350105e+04 -1.387004e+05 0.000000e+00
-1.544007e+04 -2.031974e+05 -5.000000e+04
-2.507811e+04 -1.739847e+05 -5.000000e+04
-1.666667e+04 -2.039587e+05 0.000000e+00
-2.171597e+04 -2.176972e+05 -2.537879e+04
-3.415489e+04 -1.703024e+05 0.000000e+00
-1.158105e+05 -1.794687e+05 -5.000000e+04
2.683718e+05 5.189018e+04 0.000000e+00
2.312799e+05 3.575522e+04 -1.871962e+04
2.352080e+05 6.897589e+04 0.000000e+00
2.683726e+05 8.540353e+04 0.000000e+00
2.683706e+05 -8.216322e+04 0.000000e+00
2.680523e+05 -7.877036e+04 -5.000000e+04
2.000000e+05 -2.362268e+05 0.000000e+00
-1.833333e+05 -2.684836e+05 0.000000e+00
-2.000000e+05 -2.360683e+05 0.000000e+00
7.610298e+04 -6.013542e+04 -5.000000e+04
6.567672e+04 -1.094376e+05 0.000000e+00
1.006008e+05 -6.081302e+04 0.000000e+00
6.779393e+04 -7.415570e+04 0.000000e+00
7.332889e+04 -9.639838e+04 -5.000000e+04
3.586278e+04 -9.277130e+04 0.000000e+00
4.884983e+04 -1.235638e+05 -2.514626e+04
3.897935e+04 -5.193077e+04 0.000000e+00
3.119881e+04 -5.176440e+04 -1.658196e+04
2.032105e+05 -1.487035e+04 0.000000e+00
-2.693583e+05 -2.481586e+05 0.000000e+00
-2.717411e+05 -2.733373e+05 -1.545448e+04
2.359410e+05 -1.638587e+05 -5.000000e+04
1.501999e+05 -1.491176e+05 0.000000e+00
1.513151e+05 -1.742896e+05 -2.525028e+04
1.553277e+05 -1.386537e+05 -2.559732e+04
-2.361770e+05 -1.998784e+05 0.000000e+00
1.728196e+05 -1.318989e+05 0.000000e+00
1.543657e+05 -1.001136e+05 -2.403706e+04
1.366838e+05 -8.133611e+04 0.000000e+00
1.671104e+05 -9.096646e+04 -5.000000e+04
1.686591e+05 -1.280451e+05 -5.000000e+04
-1.794183e+05 -1.191546e+05 0.000000e+00
-1.504554e+05 -1.373289e+05 0.000000e+00
-1.506694e+05 -1.277122e+05 -1.552618e+04
-2.098504e+05 -1.269821e+05 0.000000e+00
-1.000000e+05 -2.362260e+05 0.000000e+00
-1.335737e+05 -2.355388e+05 -5.000000e+04
-1.246377e+05 -2.203539e+05 -2.512012e+04
-1.678299e+05 -2.349983e+05 0.000000e+00
9.035124e+04 -3.561455e+04 -1.903524e+04
1.225120e+05 -1.955905e+04 -1.839029e+04
1.076819e+05 -4.607557e+04 -5.000000e+04
-2.361833e+05 -2.364538e+05 -5.000000e+04
-8.733643e+04 -1.081702e+05 0.000000e+00
-8.179176e+04 -1.304347e+05 -5.000000e+04
1.993796e+05 -1.994472e+05 0.000000e+00
1.788084e+05 -1.917327e+05 -2.714128e+04
2.042769e+05 -1.804034e+05 -5.000000e+04
1.683078e+05 -1.685229e+05 -5.000000e+04
1.744151e+05 -1.721815e+05 0.000000e+00
6.666667e+04 -2.362260e+05 0.000000e+00
1.000000e+05 -2.362260e+05 0.000000e+00
6.666667e+04 -2.362260e+05 -5.000000e+04
8.333333e+04 -2.684836e+05 -5.000000e+04
1.000000e+05 -2.362260e+05 -5.000000e+04
1.666667e+04 -2.039587e+05 0.000000e+00
3.892148e+04 -1.460198e+05 -5.000000e+04
1.743738e+04 -1.367855e+05 0.000000e+00
8.351350e+03 -2.164192e+05 -2.490883e+04
3.333333e+04 -2.362260e+05 0.000000e+00
4.193834e+04 -2.208004e+05 -2.497000e+04
-5.820766e-11 -2.362260e+05 -5.000000e+04
3.333333e+04 -2.362260e+05 -5.000000e+04
-2.328306e-10 -2.362260e+05 0.000000e+00
2.039231e+05 -1.156766e+05 0.000000e+00
7.055830e+04 -3.787092e+04 0.000000e+00
1.332961e+05 -4.614655e+04 0.000000e+00
-2.077167e+05 -2.260550e+05 -5.000000e+04
2.359405e+05 -9.578803e+04 -5.000000e+04
7.430494e+04 -2.172626e+05 -2.498874e+04
1.064818e+05 -2.195151e+05 -2.501164e+04
1.333333e+05 -2.362260e+05 -5.000000e+04
1.333333e+05 -2.362260e+05 0.000000e+00
8.333333e+04 -2.039587e+05 -5.000000e+04
5.000000e+04 -2.039587e+05 0.000000e+00
1.246756e+05 -1.891824e+05 -2.500007e+04
1.332085e+05 -1.727140e+05 0.000000e+00
1.325931e+05 -1.417881e+05 -5.000000e+04
1.337090e+05 -1.731654e+05 -5.000000e+04
2.361479e+05 1.620150e+03 0.000000e+00
1.166667e+05 -2.039587e+05 -5.000000e+04
1.528536e+05 -2.031824e+05 0.000000e+00
1.166667e+05 -2.039587e+05 0.000000e+00
2.026043e+05 -1.119494e+05 -5.000000e+04
1.716797e+05 -9.891990e+04 0.000000e+00
1.704017e+05 -6.488255e+04 0.000000e+00
2.066817e+05 -2.135690e+05 -5.000000e+04
-1.670131e+05 -2.354630e+05 -5.000000e+04
-1.553653e+05 -2.230764e+05 -2.667309e+04
-5.575749e+04 -9.411033e+04 0.000000e+00
-2.412639e+04 -7.081566e+04 -1.545612e+04
1.816390e+05 -2.040111e+05 -5.000000e+04
2.361519e+05 -1.994599e+05 0.000000e+00
1.392609e+05 -3.201571e+04 -5.000000e+04
1.021372e+05 -2.381106e+04 0.000000e+00
-1.477766e+05 -1.970206e+05 -5.000000e+04
-1.522311e+05 -2.033914e+05 0.000000e+00
-1.765286e+05 -1.726142e+05 -5.000000e+04
1.668760e+04 -2.032390e+05 -5.000000e+04
8.333333e+04 -2.039587e+05 0.000000e+00
-1.863386e+04 -1.023150e+05 -5.000000e+04
5.047375e+04 -2.050185e+05 -5.000000e+04
1.155665e+05 -1.383501e+05 0.000000e+00
2.009048e+05 5.434093e+04 0.000000e+00
-2.332910e+05 -2.346820e+05 0.000000e+00
-1.166667e+05 -2.039587e+05 0.000000e+00
1.348102e+05 -1.019000e+04 0.000000e+00
4.174994e+04 -1.565995e+04 0.000000e+00
-2.344210e+05 -1.402319e+05 0.000000e+00
1.364868e+05 2.651961e+04 0.000000e+00
1.686127e+05 4.022864e+04 0.000000e+00
-2.681010e+05 -1.494123e+05 0.000000e+00
-5.298690e+04 -5.783951e+04 0.000000e+00
-2.140795e+04 -4.377965e+04 0.000000e+00
1.049078e+05 1.245976e+04 0.000000e+00
-1.477237e+05 -1.000191e+05 0.000000e+00
1.017100e+04 -2.971980e+04 0.000000e+00
-8.456585e+04 -7.189936e+04 0.000000e+00
7.332889e+04 -1.600093e+03 0.000000e+00
-2.891696e+05 -1.897737e+05 -3.622393e+04
-2.848867e+05 -2.036017e+05 -5.000000e+04
-2.690972e+05 -1.965718e+05 -5.000000e+04
-2.722494e+05 -1.843081e+05 -3.266997e+04
-2.898576e+05 -1.757752e+05 -2.693345e+04
-2.671904e+05 -1.178715e+05 -4.454771e+03
-2.849565e+05 -1.085837e+05 0.000000e+00
-2.852243e+05 -1.265107e+05 -7.045334e+03
-2.699129e+05 -1.192170e+05 0.000000e+00
-2.691670e+05 -1.015537e+05 0.000000e+00
2.842105e+05 1.454003e+05 0.000000e+00
2.855712e+05 5.458083e+04 -3.772760e+04
2.862746e+05 6.813767e+04 -3.466293e+04
2.842105e+05 5.034103e+04 -5.000000e+04
2.831981e+05 8.031156e+04 -2.802633e+04
-1.535145e+05 -1.107918e+05 -2.174696e+04
-1.340841e+05 -1.099944e+05 -1.763520e+04
-1.507557e+05 -9.505597e+04 -1.011233e+04
-1.644637e+05 -1.207347e+05 -2.761906e+04
-1.738634e+05 -1.124692e+05 -1.900080e+04
-1.640020e+05 -1.004208e+05 -1.491596e+04
-1.480587e+05 -1.253760e+05 -3.297634e+04
-1.366180e+05 -1.167459e+05 -2.851747e+04
-1.349542e+05 -1.304848e+05 -3.747401e+04
-1.817834e+05 -9.646956e+04 -1.059464e+04
-1.209684e+05 -1.195269e+05 -3.054936e+04
-1.574759e+05 -6.036957e+04 -3.213633e+03
-1.431218e+05 -7.830510e+04 -9.702564e+03
-1.417003e+05 -6.211255e+04 -6.893503e+03
-1.449497e+05 -6.375611e+04 0.000000e+00
-1.148279e+05 -1.090997e+05 -2.223603e+04
-1.628033e+05 -7.855658e+04 -5.895064e+03
-1.275847e+05 -7.011251e+04 -1.166185e+04
-1.283696e+05 -9.475691e+04 -1.559944e+04
-1.161448e+05 -8.595921e+04 0.000000e+00
-1.065331e+05 -9.692025e+04 -2.476784e+04
-1.205579e+05 -8.354958e+04 -1.430118e+04
-1.695163e+05 -9.055913e+04 -9.659616e+03
-1.581426e+05 -1.102791e+05 -8.934440e+03
-7.649077e+04 -6.141819e+04 -1.154399e+04
-7.769225e+04 -8.362862e+04 -2.373230e+04
-6.435827e+04 -7.824487e+04 -2.270901e+04
-6.649289e+04 -9.940663e+04 -3.354027e+04
-9.006107e+04 -7.203224e+04 -1.623629e+04
-5.457258e+04 -8.915523e+04 -3.353463e+04
-9.037712e+04 -5.612304e+04 -1.042441e+04
-9.133363e+04 -4.305677e+04 -4.991644e+03
-8.179176e+04 -3.563640e+04 0.000000e+00
-7.073420e+04 -4.529019e+04 -9.058524e+03
-6.333765e+04 -6.631372e+04 -1.856115e+04
-4.593165e+04 -8.180490e+04 -2.343190e+04
-5.741748e+04 -5.744644e+04 -1.571757e+04
-4.437786e+04 -6.652602e+04 -2.448617e+04
-4.415149e+04 -5.234465e+04 -1.863690e+04
-5.349308e+04 -3.751686e+04 -7.082596e+03
-8.841121e+04 -2.508691e+04 -2.433933e+03
-6.463724e+04 -2.582477e+04 -4.340238e+03
-1.428103e+05 -4.982142e+04 -2.348997e+03
-1.751081e+05 -5.991056e+04 0.000000e+00
-1.908975e+05 -6.694049e+04 0.000000e+00
-1.728326e+05 -6.480838e+04 -2.746868e+03
-1.765319e+05 -7.811023e+04 0.000000e+00
-1.593169e+05 -5.273350e+04 0.000000e+00
-1.799490e+05 -8.172081e+04 -6.491393e+03
-8.036956e+04 -1.758387e+04 0.000000e+00
-1.012878e+05 -3.176136e+04 -3.959583e+03
-9.615904e+04 -2.461380e+04 0.000000e+00
-2.700343e+05 -1.532023e+05 -1.458373e+04
-2.857861e+05 -1.594657e+05 -1.925132e+04
-2.756804e+05 -1.674842e+05 -2.375820e+04
-2.873736e+05 -1.465050e+05 -7.854131e+03
-2.871855e+05 -1.680983e+05 -1.077433e+04
-2.731101e+05 -1.360402e+05 -8.970972e+03
2.682103e+05 1.183559e+05 -6.018053e+03
2.860936e+05 1.116093e+05 -1.340488e+04
2.864524e+05 1.267021e+05 -4.538202e+03
2.681888e+05 1.191711e+05 0.000000e+00
2.683049e+05 1.371491e+05 0.000000e+00
2.842503e+05 9.101815e+04 -1.933623e+04
2.707171e+05 1.015964e+05 -9.980414e+03
2.759291e+05 5.033819e+04 -4.203353e+04
2.706221e+05 5.736253e+04 -3.009899e+04
2.673305e+05 7.384768e+04 -2.575271e+04
2.674127e+05 4.226397e+04 -5.000000e+04
2.504714e+05 6.440663e+04 -2.263888e+04
2.502399e+05 4.788408e+04 -3.148029e+04
2.516232e+05 3.523405e+04 -5.000000e+04
2.339872e+05 4.050220e+04 -3.495180e+04
2.462214e+05 3.051102e+04 -3.590379e+04
2.354871e+05 2.806683e+04 -5.000000e+04
2.337980e+05 5.846982e+04 -2.316523e+04
2.178851e+05 4.781612e+04 -2.560541e+04
2.208743e+05 3.384621e+04 -3.545722e+04
2.196976e+05 2.103690e+04 -5.000000e+04
2.066624e+05 2.791439e+04 -3.232302e+04
2.053050e+05 4.822769e+04 -2.393232e+04
1.904770e+05 3.633874e+04 -2.360299e+04
1.915105e+05 2.081145e+04 -3.471900e+04
1.880526e+05 7.124199e+03 -5.000000e+04
2.038420e+05 1.415413e+04 -5.000000e+04
1.784123e+05 1.586379e+04 -3.111082e+04
1.760452e+05 3.524793e+04 -2.359427e+04
1.652144e+05 2.513042e+04 -2.511987e+04
1.659083e+05 9.510507e+03 -3.328812e+04
1.515042e+05 1.774070e+04 -2.712082e+04
1.722620e+05 9.667189e+01 -5.000000e+04
1.492821e+05 -1.703614e+02 -3.488338e+04
1.564725e+05 -6.933255e+03 -5.000000e+04
1.356922e+05 1.045591e+04 -2.369356e+04
1.360552e+05 -2.693450e+03 -3.277852e+04
1.200691e+05 3.191983e+03 -2.634685e+04
1.406831e+05 -1.396318e+04 -5.000000e+04
1.170873e+05 -1.446310e+04 -3.254886e+04
1.248936e+05 -2.099311e+04 -5.000000e+04
8.561568e+04 -1.295225e+04 -2.568650e+04
8.768536e+04 -2.818581e+04 -3.577284e+04
1.047199e+05 -1.981701e+04 -3.633153e+04
9.331465e+04 -3.505296e+04 -5.000000e+04
1.091041e+05 -2.802303e+04 -5.000000e+04
1.038266e+05 -2.150083e+03 -2.226454e+04
6.874094e+04 -1.891259e+04 -2.425936e+04
7.300380e+04 -3.120722e+04 -3.342549e+04
5.892045e+04 -2.740238e+04 -2.845806e+04
7.752517e+04 -4.208289e+04 -5.000000e+04
5.814967e+04 -4.174961e+04 -3.451574e+04
6.173570e+04 -4.911281e+04 -5.000000e+04
3.904420e+04 -4.384290e+04 -3.339310e+04
4.594623e+04 -5.614274e+04 -5.000000e+04
2.609866e+04 -3.256877e+04 -2.402933e+04
2.403991e+04 -5.296035e+04 -3.382472e+04
4.398766e+04 -2.811757e+04 -2.316143e+04
3.015675e+04 -6.317267e+04 -5.000000e+04
2.420204e+04 -7.134282e+04 -3.488094e+04
1.105735e+04 -6.121718e+04 -3.409629e+04
-4.110276e+03 -7.030172e+04 -3.521824e+04
1.436728e+04 -7.020259e+04 -5.000000e+04
-1.422194e+03 -7.723252e+04 -5.000000e+04
9.254254e+03 -4.581142e+04 -2.430477e+04
-2.034383e+03 -5.508745e+04 -2.917130e+04
-2.090673e+04 -6.753105e+04 -3.356666e+04
-3.294722e+04 -7.395766e+04 -3.195308e+04
-1.928141e+04 -7.732132e+04 -3.623903e+04
-3.302107e+04 -8.826868e+04 -3.788281e+04
-3.217154e+04 -5.979251e+04 -2.543786e+04
-1.721167e+04 -8.426245e+04 -5.000000e+04
-3.300114e+04 -9.129237e+04 -5.000000e+04
-1.677382e+04 -5.570380e+04 -2.437572e+04
-6.458009e+04 -1.053522e+05 -5.000000e+04
-4.879061e+04 -9.832230e+04 -5.000000e+04
-7.988870e+04 -1.072801e+05 -3.714891e+04
-8.536213e+04 -1.023701e+05 -2.295919e+04
-1.012325e+05 -1.074243e+05 -3.116008e+04
-9.786589e+04 -1.180608e+05 -3.598992e+04
-8.036956e+04 -1.123822e+05 -5.000000e+04
-9.615904e+04 -1.194121e+05 -5.000000e+04
-9.179555e+04 -8.971259e+04 -2.401580e+04
-1.016312e+05 -7.804787e+04 -1.803754e+04
-1.277380e+05 -1.334719e+05 -5.000000e+04
-1.119485e+05 -1.264420e+05 -5.000000e+04
-1.545898e+05 -1.405571e+05 -3.754020e+04
-1.601710e+05 -1.303969e+05 -3.407051e+04
-1.593169e+05 -1.475318e+05 -5.000000e+04
-1.435275e+05 -1.405019e+05 -5.000000e+04
-1.742648e+05 -1.220350e+05 -2.817752e+04
-1.912102e+05 -1.345523e+05 -2.289959e+04
-1.732339e+05 -1.397152e+05 -3.229696e+04
-1.908959e+05 -1.615916e+05 -5.000000e+04
-1.751064e+05 -1.545617e+05 -5.000000e+04
-1.906968e+05 -1.543097e+05 -3.514313e+04
-1.995107e+05 -1.604902e+05 -4.166789e+04
-2.081637e+05 -1.551183e+05 -3.117932e+04
-2.097597e+05 -1.364810e+05 -2.168289e+04
-2.292165e+05 -1.439656e+05 -2.112380e+04
-2.066854e+05 -1.686216e+05 -5.000000e+04
-2.254357e+05 -1.640259e+05 -3.345615e+04
-2.224748e+05 -1.756515e+05 -5.000000e+04
-2.314450e+05 -1.740978e+05 -4.108935e+04
-2.415408e+05 -1.734600e+05 -3.218711e+04
-2.446294e+05 -1.563954e+05 -2.367320e+04
-2.583077e+05 -1.677504e+05 -2.613351e+04
-2.557453e+05 -1.838700e+05 -3.716933e+04
-2.381134e+05 -1.827287e+05 -5.000000e+04
-2.539028e+05 -1.897586e+05 -5.000000e+04
-2.382645e+05 -8.788259e+04 0.000000e+00
-2.540540e+05 -9.491252e+04 0.000000e+00
-2.374753e+05 -1.045861e+05 -5.234596e+03
-2.396870e+05 -1.059346e+05 0.000000e+00
-2.529681e+05 -1.113746e+05 -5.117171e+03
-2.066854e+05 -7.382328e+04 0.000000e+00
-2.224748e+05 -8.085321e+04 0.000000e+00
-2.081684e+05 -8.701551e+04 -3.646903e+03
-2.081075e+05 -9.187582e+04 0.000000e+00
-2.232591e+05 -9.250148e+04 -3.453988e+03
-1.933787e+05 -8.654436e+04 -5.976182e+03
-1.435275e+05 -4.570358e+04 0.000000e+00
-1.119485e+05 -3.164372e+04 0.000000e+00
-1.277380e+05 -3.867365e+04 0.000000e+00
-1.138265e+05 -3.825030e+04 -2.155181e+03
-1.133707e+05 -4.969626e+04 0.000000e+00
-1.298152e+05 -4.302910e+04 -3.445793e+03
-4.879061e+04 -3.524018e+03 0.000000e+00
-6.458009e+04 -1.055394e+04 0.000000e+00
-4.759109e+04 -1.939616e+04 -3.800232e+03
-5.021281e+04 -2.157655e+04 0.000000e+00
-1.658511e+04 -3.573109e+03 -4.043060e+03
-3.300114e+04 3.505909e+03 0.000000e+00
-3.383671e+04 -1.308782e+04 -5.228620e+03
-1.863386e+04 -7.516698e+03 0.000000e+00
-1.721167e+04 1.053584e+04 0.000000e+00
1.436728e+04 2.459569e+04 0.000000e+00
-1.422194e+03 1.756576e+04 0.000000e+00
1.424668e+04 1.142579e+04 -3.438397e+03
1.294509e+04 6.543155e+03 0.000000e+00
-3.529589e+03 -4.489274e+01 -5.687297e+03
2.623996e+04 1.730611e+04 -4.698894e+03
3.015675e+04 3.162561e+04 0.000000e+00
4.452403e+04 2.060301e+04 0.000000e+00
4.324849e+04 2.065978e+04 -4.347456e+03
4.594623e+04 3.865554e+04 0.000000e+00
6.240519e+04 2.858073e+04 -4.693280e+03
6.173570e+04 4.568547e+04 0.000000e+00
7.610298e+04 3.466286e+04 0.000000e+00
7.713976e+04 3.950606e+04 -3.660398e+03
7.752517e+04 5.271539e+04 0.000000e+00
9.331465e+04 5.974532e+04 0.000000e+00
1.076819e+05 4.872271e+04 0.000000e+00
8.874710e+04 4.444432e+04 -5.106906e+03
1.090069e+05 4.902750e+04 -4.269271e+03
1.091041e+05 6.677525e+04 0.000000e+00
1.248936e+05 7.380517e+04 0.000000e+00
1.392609e+05 6.278257e+04 0.000000e+00
1.237024e+05 5.585318e+04 -5.040727e+03
1.403668e+05 6.722140e+04 -3.739091e+03
1.406831e+05 8.083510e+04 0.000000e+00
1.564725e+05 8.786503e+04 0.000000e+00
1.708398e+05 7.684242e+04 0.000000e+00
1.520871e+05 7.263127e+04 -5.101769e+03
1.721022e+05 7.810798e+04 -4.182846e+03
1.722620e+05 9.489495e+04 0.000000e+00
1.881180e+05 1.017766e+05 0.000000e+00
2.025519e+05 9.060577e+04 0.000000e+00
1.860335e+05 8.344677e+04 -5.609698e+03
2.036906e+05 9.611016e+04 -3.569932e+03
2.039075e+05 1.088066e+05 0.000000e+00
2.200167e+05 1.158113e+05 0.000000e+00
2.347702e+05 1.046153e+05 0.000000e+00
2.176394e+05 9.684379e+04 -5.683404e+03
2.399772e+05 1.064407e+05 -5.079918e+03
2.358062e+05 1.228413e+05 0.000000e+00
2.525155e+05 1.301191e+05 0.000000e+00
2.508306e+05 1.121653e+05 -6.371690e+03
-1.317958e+05 -5.756123e+04 -7.206621e+03
-1.198790e+05 -5.335045e+04 -5.775530e+03
-1.147498e+05 -6.957887e+04 -1.317602e+04
-1.015034e+05 -6.176968e+04 -1.313541e+04
-1.222290e+05 -7.107228e+04 -4.321258e+03
-1.027597e+05 -4.888802e+04 -7.939297e+03
-1.021300e+05 -6.961924e+04 -5.042915e+03
-2.421165e+05 -1.169129e+05 -9.734079e+03
-2.539806e+05 -1.233066e+05 -9.574399e+03
-2.541040e+05 -1.394099e+05 -1.278650e+04
-2.387027e+05 -1.309619e+05 -1.391202e+04
6.511862e+04 -4.639611e+03 -1.527252e+04
5.642690e+04 1.071260e+04 -8.637985e+03
4.504468e+04 -1.077976e+04 -1.336714e+04
4.314980e+04 7.055144e+03 -9.620842e+03
7.813776e+04 5.702977e+03 -1.375017e+04
7.428850e+04 2.259321e+04 -7.995293e+03
2.686440e+04 7.498327e+02 -6.947217e+03
9.417706e+04 1.233190e+04 -1.598473e+04
9.029507e+04 2.568671e+04 -6.968087e+03
1.079670e+05 1.710307e+04 -1.402299e+04
1.057993e+05 3.617752e+04 -1.008379e+04
1.258676e+05 2.599524e+04 -1.599421e+04
1.197895e+05 3.941121e+04 -8.975203e+03
1.399216e+05 3.106982e+04 -1.361909e+04
1.370972e+05 5.022958e+04 -7.829759e+03
1.537211e+05 5.334013e+04 -7.087853e+03
1.688695e+05 6.440884e+04 -1.002523e+04
1.568928e+05 3.876872e+04 -1.469648e+04
1.711776e+05 4.513798e+04 -1.463049e+04
1.880479e+05 5.482605e+04 -1.617586e+04
1.825936e+05 6.760848e+04 -9.128006e+03
1.993593e+05 7.703597e+04 -8.110230e+03
2.018900e+05 5.841382e+04 -1.440516e+04
2.153208e+05 7.817842e+04 -7.180775e+03
2.200453e+05 6.548822e+04 -1.636320e+04
2.398237e+05 8.756657e+04 -1.126012e+04
2.327221e+05 7.116262e+04 -1.485495e+04
2.564187e+05 9.165789e+04 -1.465601e+04
-2.490625e+05 -1.582005e+05 -1.395302e+04
-2.515761e+05 -1.502387e+05 -5.648513e+03
-2.674385e+05 -1.725182e+05 -1.577531e+04
9.818000e+03 -5.329869e+03 -7.737478e+03
-6.836953e+03 -1.548619e+04 -8.978329e+03
1.286517e+04 -2.393627e+04 -1.416015e+04
3.113573e+04 -1.744444e+04 -1.586982e+04
-3.804093e+04 -3.279441e+04 -1.028470e+04
-2.242262e+04 -1.882030e+04 -8.445417e+03
-1.850190e+04 -3.760059e+04 -1.436814e+04
-9.579092e+02 -3.005757e+04 -1.565510e+04
-4.523268e+03 -1.071725e+04 -2.196916e+03
2.637307e+05 8.064425e+04 -1.517120e+04
2.470544e+05 7.593631e+04 -1.761116e+04
-3.094123e+04 -4.630974e+04 -1.860529e+04
-4.340738e+04 -3.708112e+04 -3.357273e+03
1.553376e+05 2.204409e+04 -1.686068e+04
1.677960e+05 2.179761e+04 -1.146651e+04
1.245545e+05 1.013513e+04 -1.385080e+04
9.119651e+04 -6.441339e+03 -9.689618e+03
9.945299e+04 -1.860131e+04 -1.496710e+04
6.308273e+04 -2.140640e+04 -1.269586e+04
1.446866e+02 -5.012040e+04 -1.185031e+04
-3.317321e+04 -5.621171e+04 -1.086184e+04
-2.164276e+05 -1.041145e+05 -5.741928e+03
-2.294352e+05 -1.149836e+05 -1.067264e+04
-2.085761e+05 -1.208190e+05 -1.339250e+04
-1.901610e+05 -1.137310e+05 -1.472900e+04
-1.999664e+05 -1.007337e+05 -8.938888e+03
-1.951916e+05 -9.560692e+04 -2.424013e+03
-2.232163e+05 -1.283840e+05 -1.625234e+04
-2.327897e+05 -1.197702e+05 -3.722248e+03
-2.253369e+05 -1.387678e+05 -9.033020e+03
-1.718576e+05 -9.560780e+04 -2.999740e+03
-2.940705e+05 -1.901076e+05 -4.518937e+04
-2.924433e+05 -1.981751e+05 -5.000000e+04
-2.866405e+05 -1.874733e+05 -4.298187e+04
-2.845486e+05 -1.946602e+05 -5.000000e+04
-2.939846e+05 -1.835383e+05 -4.149551e+04
-2.847626e+05 -1.056702e+05 -3.289876e+03
-2.924782e+05 -1.032670e+05 0.000000e+00
-2.924669e+05 -1.131283e+05 -4.998902e+03
-2.845835e+05 -9.975203e+04 0.000000e+00
2.921053e+05 1.572936e+05 0.000000e+00
2.935392e+05 6.550297e+04 -4.489961e+04
2.928056e+05 7.210894e+04 -4.378030e+04
2.921053e+05 6.236482e+04 -5.000000e+04
2.908383e+05 7.837891e+04 -4.129413e+04
-1.410993e+05 -1.017267e+05 -2.462206e+04
-1.518576e+05 -9.991008e+04 -2.645610e+04
-1.471690e+05 -9.361005e+04 -1.910585e+04
-1.568433e+05 -1.058751e+05 -2.959970e+04
-1.608907e+05 -9.843599e+04 -2.529509e+04
-1.565794e+05 -9.395753e+04 -2.267237e+04
-1.396774e+05 -1.120616e+05 -3.557686e+04
-1.483605e+05 -1.094072e+05 -3.217508e+04
-1.428790e+05 -1.034273e+05 -3.040409e+04
-1.661386e+05 -9.316619e+04 -2.151522e+04
-1.340729e+05 -1.060157e+05 -3.384061e+04
-1.555424e+05 -7.370633e+04 -1.426732e+04
-1.466719e+05 -8.362540e+04 -2.041899e+04
-1.461614e+05 -7.407841e+04 -1.587640e+04
-1.285792e+05 -1.040199e+05 -2.722974e+04
-1.551806e+05 -8.337583e+04 -1.798055e+04
-1.377739e+05 -7.894756e+04 -2.108391e+04
-1.262290e+05 -9.692810e+04 -2.933905e+04
-1.376991e+05 -9.385624e+04 -2.472451e+04
-1.339493e+05 -8.824126e+04 -2.504486e+04
-1.590525e+05 -8.937138e+04 -1.854775e+04
-1.543306e+05 -9.907014e+04 -1.833489e+04
-6.871820e+04 -7.704831e+04 -3.159412e+04
-7.438952e+04 -6.879869e+04 -2.702870e+04
-7.176434e+04 -5.705361e+04 -2.160210e+04
-6.845902e+04 -6.591321e+04 -2.687749e+04
-7.896876e+04 -6.043820e+04 -2.432946e+04
-6.392034e+04 -6.978847e+04 -3.272040e+04
-7.963399e+04 -5.382089e+04 -2.001201e+04
-7.612697e+04 -4.811457e+04 -1.825821e+04
-6.926724e+04 -4.814966e+04 -2.023095e+04
-5.868959e+04 -6.059345e+04 -2.965721e+04
-6.174150e+04 -6.527966e+04 -2.747848e+04
-6.619953e+04 -6.011062e+04 -2.589551e+04
-6.344810e+04 -5.510308e+04 -2.457410e+04
-5.627483e+04 -5.390136e+04 -2.540310e+04
-6.159475e+04 -4.616263e+04 -2.000355e+04
-7.568480e+04 -3.997299e+04 -1.434227e+04
-6.588341e+04 -3.915556e+04 -1.560778e+04
-1.652650e+05 -5.526172e+04 -5.462032e+03
-1.612535e+05 -6.552090e+04 -9.216416e+03
-1.580912e+05 -5.767963e+04 -7.161290e+03
-1.693011e+05 -6.335885e+04 -7.897438e+03
-1.586748e+05 -5.088379e+04 -4.920855e+03
-1.729717e+05 -5.441818e+04 -2.754759e+03
-1.792746e+05 -5.782530e+04 -4.101192e+03
-1.719721e+05 -5.745713e+04 -4.974812e+03
-1.653447e+05 -5.226504e+04 -3.148734e+03
-1.774760e+05 -6.396403e+04 -6.294283e+03
-9.032155e+04 -1.931042e+04 -4.666656e+03
-9.228763e+04 -2.724551e+04 -6.947568e+03
-8.169157e+04 -3.053720e+04 -8.881592e+03
-8.026077e+04 -1.997887e+04 -6.390388e+03
-8.650033e+04 -1.487285e+04 -3.147593e+03
-9.781034e+04 -2.187769e+04 -4.490491e+03
-9.566103e+04 -1.732224e+04 -2.618479e+03
-2.945799e+05 -1.676766e+05 -3.103055e+04
-2.929985e+05 -1.757441e+05 -3.634228e+04
-2.859893e+05 -1.701426e+05 -3.417745e+04
-2.867284e+05 -1.544984e+05 -2.654340e+04
-2.875188e+05 -1.623294e+05 -3.049671e+04
-2.923968e+05 -1.595801e+05 -2.742504e+04
-2.936493e+05 -1.534288e+05 -2.344286e+04
-2.931449e+05 -1.647365e+05 -2.335874e+04
-2.849746e+05 -1.225184e+05 -1.132213e+04
-2.932089e+05 -1.209109e+05 -9.249906e+03
-2.926102e+05 -1.277315e+05 -1.304114e+04
-2.930231e+05 -1.371855e+05 -1.318216e+04
-2.927830e+05 -1.452905e+05 -1.844953e+04
-2.859034e+05 -1.399916e+05 -1.678209e+04
-2.856412e+05 -1.324691e+05 -1.434178e+04
2.918153e+05 1.411402e+05 -8.543764e+03
2.843529e+05 1.276532e+05 -1.099694e+04
2.937490e+05 1.252654e+05 -1.662217e+04
2.929783e+05 1.321332e+05 -1.150408e+04
2.826064e+05 1.382599e+05 -7.213624e+03
2.918087e+05 9.521967e+04 -3.094955e+04
2.841639e+05 1.127796e+05 -1.923915e+04
2.937778e+05 1.089107e+05 -2.342503e+04
2.913778e+05 1.181303e+05 -1.858129e+04
2.908055e+05 1.001672e+05 -2.314207e+04
2.874886e+05 1.049032e+05 -2.507074e+04
2.861091e+05 6.906621e+04 -4.171067e+04
2.870378e+05 6.145404e+04 -4.316719e+04
2.782757e+05 5.789649e+04 -4.490193e+04
2.778368e+05 6.409734e+04 -4.259640e+04
2.842105e+05 5.884986e+04 -5.000000e+04
2.763158e+05 5.533490e+04 -5.000000e+04
2.766718e+05 7.043985e+04 -3.985440e+04
2.726774e+05 5.565061e+04 -4.603193e+04
2.702027e+05 5.988696e+04 -4.059426e+04
2.688424e+05 6.895482e+04 -3.560092e+04
2.679169e+05 5.129637e+04 -5.000000e+04
2.594125e+05 6.215276e+04 -3.673483e+04
2.612038e+05 5.485302e+04 -4.298456e+04
2.600222e+05 4.778141e+04 -5.000000e+04
2.438383e+05 5.596403e+04 -3.904444e+04
2.438867e+05 4.645836e+04 -4.212156e+04
2.533668e+05 5.134971e+04 -4.148034e+04
2.521274e+05 4.426644e+04 -5.000000e+04
2.442327e+05 4.075148e+04 -5.000000e+04
2.413348e+05 3.794278e+04 -4.354470e+04
2.348499e+05 4.520878e+04 -4.332737e+04
2.361646e+05 3.716787e+04 -5.000000e+04
2.361477e+05 5.192240e+04 -3.757364e+04
2.268841e+05 4.751071e+04 -3.837826e+04
2.288405e+05 4.081774e+04 -4.413868e+04
2.282699e+05 3.365291e+04 -5.000000e+04
2.119517e+05 4.020532e+04 -3.989266e+04
2.137131e+05 3.357641e+04 -4.436025e+04
2.217874e+05 3.754967e+04 -4.287636e+04
2.203751e+05 3.013794e+04 -5.000000e+04
2.124804e+05 2.662298e+04 -5.000000e+04
2.047848e+05 4.024836e+04 -3.511160e+04
2.065436e+05 3.064489e+04 -4.234155e+04
1.976318e+05 3.401569e+04 -3.930950e+04
1.982881e+05 2.661805e+04 -4.399627e+04
1.966579e+05 1.966663e+04 -5.000000e+04
2.045526e+05 2.318159e+04 -5.000000e+04
1.823736e+05 2.725532e+04 -3.939716e+04
1.828188e+05 1.993725e+04 -4.422198e+04
1.910502e+05 2.361909e+04 -4.278422e+04
1.887631e+05 1.615167e+04 -5.000000e+04
1.808684e+05 1.263670e+04 -5.000000e+04
1.771584e+05 1.765736e+04 -4.144472e+04
1.755215e+05 2.721038e+04 -3.479286e+04
1.624503e+05 1.857882e+04 -3.810051e+04
1.698006e+05 2.166553e+04 -3.899296e+04
1.694573e+05 1.516705e+04 -4.234024e+04
1.729731e+05 9.122938e+03 -5.000000e+04
1.637293e+05 1.085423e+04 -4.344017e+04
1.650784e+05 5.607975e+03 -5.000000e+04
1.448229e+05 1.121523e+04 -3.915569e+04
1.463179e+05 3.278960e+03 -4.378710e+04
1.555266e+05 7.065009e+03 -4.101552e+04
1.571836e+05 2.093012e+03 -5.000000e+04
1.492889e+05 -1.421951e+03 -5.000000e+04
1.383431e+05 7.520393e+03 -3.997077e+04
1.321454e+05 4.519950e+03 -4.061331e+04
1.383641e+05 1.086127e+03 -4.300315e+04
1.413942e+05 -4.936915e+03 -5.000000e+04
1.308286e+05 -3.305617e+03 -4.064140e+04
1.334994e+05 -8.451878e+03 -5.000000e+04
1.126053e+05 -2.746347e+03 -3.870966e+04
1.137711e+05 -1.247358e+04 -4.275353e+04
1.210906e+05 -5.853581e+03 -4.123703e+04
1.256047e+05 -1.196684e+04 -5.000000e+04
1.177100e+05 -1.548180e+04 -5.000000e+04
1.023365e+05 -1.100513e+04 -4.096362e+04
9.945597e+04 -1.796928e+04 -4.190031e+04
1.066306e+05 -1.403289e+04 -4.505829e+04
1.019205e+05 -2.251173e+04 -5.000000e+04
1.098152e+05 -1.899677e+04 -5.000000e+04
1.056543e+05 -5.329125e+03 -3.965233e+04
8.200709e+04 -1.746795e+04 -4.138098e+04
8.327628e+04 -2.502702e+04 -4.413731e+04
9.010937e+04 -2.008393e+04 -4.246016e+04
9.402575e+04 -2.602669e+04 -5.000000e+04
8.613101e+04 -2.954166e+04 -5.000000e+04
6.937080e+04 -2.354098e+04 -4.051147e+04
7.597441e+04 -2.011671e+04 -3.839143e+04
7.551673e+04 -2.698788e+04 -4.283040e+04
7.823627e+04 -3.305662e+04 -5.000000e+04
6.816088e+04 -3.130798e+04 -4.154166e+04
7.034153e+04 -3.657158e+04 -5.000000e+04
5.241963e+04 -3.176255e+04 -4.100324e+04
5.217588e+04 -4.104302e+04 -4.285179e+04
5.961270e+04 -3.414505e+04 -4.253460e+04
6.244680e+04 -4.008655e+04 -5.000000e+04
5.455206e+04 -4.360151e+04 -5.000000e+04
4.665732e+04 -4.711647e+04 -5.000000e+04
4.251659e+04 -3.924898e+04 -4.310291e+04
3.465941e+04 -3.546679e+04 -3.800842e+04
3.615986e+04 -4.403525e+04 -4.321329e+04
4.463782e+04 -3.339471e+04 -3.759719e+04
3.876259e+04 -5.063144e+04 -5.000000e+04
1.856649e+04 -4.355168e+04 -3.810596e+04
2.088873e+04 -5.201736e+04 -4.357058e+04
2.884568e+04 -4.841443e+04 -4.241970e+04
3.086785e+04 -5.414640e+04 -5.000000e+04
2.297311e+04 -5.766136e+04 -5.000000e+04
2.012421e+04 -6.101508e+04 -4.260849e+04
1.305108e+04 -5.548473e+04 -4.268670e+04
7.183640e+03 -6.469129e+04 -5.000000e+04
6.387210e+03 -6.068844e+04 -4.309371e+04
1.507838e+04 -6.117633e+04 -5.000000e+04
1.282416e+04 -4.873798e+04 -3.970106e+04
5.882183e+03 -5.214705e+04 -3.841418e+04
-3.323628e+03 -6.184051e+04 -4.244304e+04
-7.110969e+02 -6.820625e+04 -5.000000e+04
-8.605834e+03 -7.172122e+04 -5.000000e+04
-1.117899e+04 -6.779460e+04 -4.291319e+04
-1.090173e+04 -5.935883e+04 -3.977142e+04
-2.532303e+04 -7.695146e+04 -4.277975e+04
-2.456368e+04 -6.940982e+04 -4.259778e+04
-1.889263e+04 -6.555607e+04 -4.296127e+04
-1.880626e+04 -7.141130e+04 -4.370026e+04
-2.580412e+04 -6.310662e+04 -3.830569e+04
-1.650057e+04 -7.523618e+04 -5.000000e+04
-2.439531e+04 -7.875114e+04 -5.000000e+04
-1.738935e+04 -6.025811e+04 -3.819735e+04
-5.200420e+04 -8.169504e+04 -4.058673e+04
-5.949700e+04 -7.681502e+04 -3.651435e+04
-5.786776e+04 -8.618684e+04 -4.304511e+04
-5.540729e+04 -7.324572e+04 -2.974394e+04
-5.226852e+04 -6.623308e+04 -3.187492e+04
-4.568396e+04 -7.171672e+04 -3.718268e+04
-4.647018e+04 -7.708119e+04 -3.495429e+04
-4.569078e+04 -6.321575e+04 -3.317526e+04
-3.171313e+04 -7.115554e+04 -4.125416e+04
-3.301141e+04 -7.887524e+04 -4.370376e+04
-4.167118e+04 -8.397848e+04 -4.245345e+04
-3.922752e+04 -7.609168e+04 -4.098643e+04
-3.911376e+04 -6.854552e+04 -3.819521e+04
-3.229004e+04 -8.226611e+04 -5.000000e+04
-4.018478e+04 -8.578107e+04 -5.000000e+04
-5.597425e+04 -9.281100e+04 -5.000000e+04
-4.807952e+04 -8.929603e+04 -5.000000e+04
-3.917661e+04 -8.015139e+04 -3.457805e+04
-7.711704e+04 -7.710634e+04 -3.338078e+04
-7.165670e+04 -8.506739e+04 -3.742508e+04
-7.269469e+04 -9.755646e+04 -4.284456e+04
-7.810692e+04 -8.811539e+04 -3.717978e+04
-8.317815e+04 -8.126070e+04 -3.299692e+04
-6.452672e+04 -9.124439e+04 -4.248600e+04
-6.386899e+04 -9.632596e+04 -5.000000e+04
-7.176373e+04 -9.984092e+04 -5.000000e+04
-8.077025e+04 -1.005083e+05 -4.351305e+04
-8.187771e+04 -9.716275e+04 -3.559223e+04
-8.699917e+04 -1.054848e+05 -4.184656e+04
-9.269338e+04 -1.023522e+05 -3.600371e+04
-8.755320e+04 -1.068709e+05 -5.000000e+04
-7.965847e+04 -1.033559e+05 -5.000000e+04
-9.334071e+04 -9.425492e+04 -3.622681e+04
-8.554214e+04 -9.056367e+04 -3.679088e+04
-9.121886e+04 -8.359072e+04 -3.192900e+04
-1.148241e+05 -1.130266e+05 -3.953350e+04
-1.249520e+05 -1.095069e+05 -3.717139e+04
-1.216056e+05 -1.164185e+05 -4.284800e+04
-1.207009e+05 -1.062981e+05 -3.345468e+04
-1.107508e+05 -1.079843e+05 -3.575680e+04
-1.174270e+05 -1.003531e+05 -3.441445e+04
-1.085669e+05 -1.016408e+05 -3.837555e+04
-1.139977e+05 -9.268798e+04 -3.063083e+04
-1.002880e+05 -1.033351e+05 -3.911861e+04
-9.666799e+04 -1.080136e+05 -4.239853e+04
-1.038673e+05 -1.129732e+05 -4.423871e+04
-1.038303e+05 -1.078695e+05 -4.042101e+04
-9.544794e+04 -1.103858e+05 -5.000000e+04
-1.033427e+05 -1.139008e+05 -5.000000e+04
-1.006608e+05 -9.775284e+04 -3.966644e+04
-1.041344e+05 -8.994790e+04 -3.315737e+04
-1.191321e+05 -1.209307e+05 -5.000000e+04
-1.112374e+05 -1.174157e+05 -5.000000e+04
-1.466333e+05 -1.155022e+05 -3.863010e+04
-1.392356e+05 -1.179959e+05 -4.074445e+04
-1.381141e+05 -1.254491e+05 -4.462554e+04
-1.455238e+05 -1.228399e+05 -4.195443e+04
-1.532394e+05 -1.195831e+05 -3.721577e+04
-1.293973e+05 -1.209937e+05 -4.150443e+04
-1.270269e+05 -1.244457e+05 -5.000000e+04
-1.349216e+05 -1.279606e+05 -5.000000e+04
-1.474138e+05 -1.314024e+05 -4.319241e+04
-1.521480e+05 -1.256761e+05 -4.323182e+04
-1.507111e+05 -1.349906e+05 -5.000000e+04
-1.428164e+05 -1.314756e+05 -5.000000e+04
-1.590432e+05 -1.276146e+05 -4.213494e+04
-1.565978e+05 -1.333239e+05 -4.315896e+04
-1.631609e+05 -1.382707e+05 -4.542858e+04
-1.649167e+05 -1.326953e+05 -4.285846e+04
-1.669553e+05 -1.274067e+05 -4.022196e+04
-1.586058e+05 -1.385055e+05 -5.000000e+04
-1.665006e+05 -1.420205e+05 -5.000000e+04
-1.739090e+05 -1.276587e+05 -3.760908e+04
-1.814876e+05 -1.336272e+05 -3.876592e+04
-1.716552e+05 -1.378397e+05 -4.162042e+04
-1.822900e+05 -1.490504e+05 -5.000000e+04
-1.814705e+05 -1.426386e+05 -4.313172e+04
-1.743953e+05 -1.455354e+05 -5.000000e+04
-1.889249e+05 -1.471884e+05 -4.104100e+04
-1.901848e+05 -1.525654e+05 -5.000000e+04
-1.980795e+05 -1.560803e+05 -5.000000e+04
-1.974681e+05 -1.520069e+05 -4.427361e+04
-1.988015e+05 -1.452820e+05 -3.999461e+04
-2.021146e+05 -1.551887e+05 -4.621245e+04
-2.059006e+05 -1.516443e+05 -4.188801e+04
-2.058338e+05 -1.427803e+05 -3.574096e+04
-2.151009e+05 -1.487133e+05 -3.816276e+04
-2.059743e+05 -1.595953e+05 -5.000000e+04
-2.132168e+05 -1.555871e+05 -4.378507e+04
-2.138690e+05 -1.631103e+05 -5.000000e+04
-2.321387e+05 -1.538951e+05 -3.640279e+04
-2.309178e+05 -1.636303e+05 -4.323751e+04
-2.219845e+05 -1.579376e+05 -4.249009e+04
-2.217637e+05 -1.666252e+05 -5.000000e+04
-2.296585e+05 -1.701402e+05 -5.000000e+04
-2.342732e+05 -1.690316e+05 -4.593914e+04
-2.392645e+05 -1.676925e+05 -4.193939e+04
-2.474797e+05 -1.638674e+05 -3.711748e+04
-2.397770e+05 -1.602472e+05 -3.887294e+04
-2.453725e+05 -1.771938e+05 -5.000000e+04
-2.464479e+05 -1.730051e+05 -4.248887e+04
-2.374777e+05 -1.736788e+05 -5.000000e+04
-2.766539e+05 -1.911452e+05 -5.000000e+04
-2.775157e+05 -1.852637e+05 -4.359206e+04
-2.705921e+05 -1.798095e+05 -4.227774e+04
-2.687591e+05 -1.876303e+05 -5.000000e+04
-2.801423e+05 -1.774600e+05 -3.801547e+04
-2.719175e+05 -1.714128e+05 -3.747832e+04
-2.559444e+05 -1.745579e+05 -4.238030e+04
-2.532672e+05 -1.807087e+05 -5.000000e+04
-2.611619e+05 -1.842237e+05 -5.000000e+04
-2.618871e+05 -1.806095e+05 -4.469350e+04
-2.639143e+05 -1.736731e+05 -4.052032e+04
-2.700093e+05 -9.971835e+04 -3.400139e+03
-2.687940e+05 -9.272210e+04 0.000000e+00
-2.766888e+05 -9.623707e+04 0.000000e+00
-2.533428e+05 -8.588652e+04 0.000000e+00
-2.612375e+05 -8.940149e+04 0.000000e+00
-2.537640e+05 -9.207834e+04 -3.431584e+03
-2.617851e+05 -9.845763e+04 -4.262114e+03
-2.375533e+05 -7.885660e+04 0.000000e+00
-2.454481e+05 -8.237156e+04 0.000000e+00
-2.378813e+05 -8.758411e+04 -4.295344e+03
-2.217637e+05 -7.182694e+04 0.000000e+00
-2.296585e+05 -7.534191e+04 0.000000e+00
-2.220114e+05 -7.954325e+04 -4.141129e+03
-2.304570e+05 -8.084810e+04 -3.605540e+03
-1.901856e+05 -5.784066e+04 0.000000e+00
-1.980803e+05 -6.135562e+04 0.000000e+00
-1.867485e+05 -6.037565e+04 -2.587683e+03
-1.919881e+05 -6.952084e+04 -5.209077e+03
-2.059743e+05 -6.479702e+04 0.000000e+00
-2.138690e+05 -6.831198e+04 0.000000e+00
-2.089732e+05 -7.182410e+04 -3.019848e+03
-2.016816e+05 -7.060063e+04 -4.598774e+03
-1.743961e+05 -5.081073e+04 0.000000e+00
-1.822909e+05 -5.432569e+04 0.000000e+00
-1.741031e+05 -5.151800e+04 -1.425046e+03
-1.662469e+05 -4.816553e+04 -1.708908e+03
-1.665006e+05 -4.722220e+04 0.000000e+00
-1.613420e+05 -4.454918e+04 -1.295907e+03
-1.586058e+05 -4.370724e+04 0.000000e+00
-1.428164e+05 -3.667731e+04 0.000000e+00
-1.507111e+05 -4.019227e+04 0.000000e+00
-1.430060e+05 -3.646773e+04 -1.295794e+03
-1.270269e+05 -2.964738e+04 0.000000e+00
-1.349216e+05 -3.316235e+04 0.000000e+00
-1.304678e+05 -3.154891e+04 -1.408781e+03
-1.358121e+05 -3.538159e+04 -2.063711e+03
-9.544794e+04 -1.558753e+04 0.000000e+00
-1.033427e+05 -1.910249e+04 0.000000e+00
-1.001441e+05 -1.806593e+04 -1.268205e+03
-1.065448e+05 -2.264282e+04 -2.350256e+03
-1.112374e+05 -2.261746e+04 0.000000e+00
-1.191321e+05 -2.613242e+04 0.000000e+00
-1.125223e+05 -2.280238e+04 -1.319892e+03
-7.163412e+04 -1.282982e+04 -3.360902e+03
-7.965847e+04 -8.557605e+03 0.000000e+00
-8.200849e+04 -1.224131e+04 -1.843923e+03
-8.755320e+04 -1.207257e+04 0.000000e+00
-6.386899e+04 -1.527678e+03 0.000000e+00
-7.176373e+04 -5.042641e+03 0.000000e+00
-6.291472e+04 -9.451389e+03 -4.139445e+03
-4.807952e+04 5.502248e+03 0.000000e+00
-5.597425e+04 1.987285e+03 0.000000e+00
-4.869732e+04 4.943621e+02 -3.251353e+03
-3.287594e+04 6.290526e+03 -3.432231e+03
-4.018478e+04 9.017212e+03 0.000000e+00
-4.119068e+04 2.118205e+02 -5.069600e+03
-3.229004e+04 1.253218e+04 0.000000e+00
-1.650057e+04 1.956210e+04 0.000000e+00
-2.439531e+04 1.604714e+04 0.000000e+00
-1.809098e+04 1.209421e+04 -3.637197e+03
-7.110969e+02 2.659203e+04 0.000000e+00
-8.605834e+03 2.307706e+04 0.000000e+00
-1.326236e+03 2.036054e+04 -3.410074e+03
-9.945777e+03 1.323320e+04 -4.620183e+03
1.507838e+04 3.362195e+04 0.000000e+00
7.183640e+03 3.010699e+04 0.000000e+00
1.341722e+04 2.625621e+04 -3.674781e+03
2.133834e+04 2.757634e+04 -4.658063e+03
2.297311e+04 3.713692e+04 0.000000e+00
3.046199e+04 3.447609e+04 -3.574649e+03
3.086785e+04 4.065188e+04 0.000000e+00
4.665732e+04 4.768181e+04 0.000000e+00
3.876259e+04 4.416684e+04 0.000000e+00
4.557514e+04 4.204202e+04 -3.298615e+03
5.265780e+04 4.418575e+04 -4.655519e+03
5.455206e+04 5.119677e+04 0.000000e+00
6.227794e+04 4.641551e+04 -3.716839e+03
6.244680e+04 5.471173e+04 0.000000e+00
7.034153e+04 5.822670e+04 0.000000e+00
7.707550e+04 5.614924e+04 -3.490609e+03
7.823627e+04 6.174166e+04 0.000000e+00
8.457241e+04 5.516770e+04 -5.260286e+03
8.613101e+04 6.525662e+04 0.000000e+00
9.335662e+04 6.243451e+04 -3.436240e+03
9.402575e+04 6.877159e+04 0.000000e+00
1.082472e+05 6.820881e+04 -3.634894e+03
1.098152e+05 7.580151e+04 0.000000e+00
1.019205e+05 7.228655e+04 0.000000e+00
1.164892e+05 6.947296e+04 -4.573982e+03
1.177100e+05 7.931648e+04 0.000000e+00
1.249950e+05 7.660848e+04 -3.408473e+03
1.256047e+05 8.283144e+04 0.000000e+00
1.396964e+05 8.247694e+04 -3.659527e+03
1.413942e+05 8.986137e+04 0.000000e+00
1.334994e+05 8.634640e+04 0.000000e+00
1.476105e+05 8.372114e+04 -4.671242e+03
1.492889e+05 9.337633e+04 0.000000e+00
1.569080e+05 9.071245e+04 -3.586361e+03
1.571836e+05 9.689129e+04 0.000000e+00
1.719979e+05 9.803077e+04 -3.571670e+03
1.729731e+05 1.039212e+05 0.000000e+00
1.650784e+05 1.004063e+05 0.000000e+00
1.798965e+05 9.691278e+04 -5.224168e+03
1.809011e+05 1.073621e+05 0.000000e+00
1.892151e+05 1.039851e+05 -3.430922e+03
1.887959e+05 1.108770e+05 0.000000e+00
2.035139e+05 1.123064e+05 -3.504791e+03
2.045853e+05 1.179069e+05 0.000000e+00
1.966906e+05 1.143920e+05 0.000000e+00
2.113263e+05 1.109934e+05 -5.250399e+03
2.126399e+05 1.214093e+05 0.000000e+00
2.200104e+05 1.184846e+05 -3.469229e+03
2.205347e+05 1.249243e+05 0.000000e+00
2.351834e+05 1.242254e+05 -3.593396e+03
2.363241e+05 1.319542e+05 0.000000e+00
2.284294e+05 1.284393e+05 0.000000e+00
2.437102e+05 1.252823e+05 -4.725863e+03
2.446788e+05 1.355932e+05 0.000000e+00
2.528543e+05 1.313822e+05 -4.226352e+03
2.525735e+05 1.391081e+05 0.000000e+00
2.842105e+05 1.537786e+05 0.000000e+00
2.763158e+05 1.502637e+05 0.000000e+00
2.857436e+05 1.456741e+05 -3.805710e+03
2.693808e+05 1.389784e+05 -4.403800e+03
2.764639e+05 1.440806e+05 -3.797990e+03
2.683630e+05 1.461381e+05 0.000000e+00
2.604683e+05 1.426231e+05 0.000000e+00
-1.297068e+05 -7.712613e+04 -2.205750e+04
-1.244611e+05 -7.182249e+04 -2.159225e+04
-1.317940e+05 -7.017309e+04 -1.876982e+04
-1.183956e+05 -8.559172e+04 -2.812523e+04
-1.223656e+05 -7.938840e+04 -2.363000e+04
-1.283552e+05 -8.435309e+04 -2.329469e+04
-1.131166e+05 -7.978352e+04 -2.293412e+04
-1.257637e+05 -6.513639e+04 -1.809216e+04
-1.184872e+05 -6.631357e+04 -1.977841e+04
-1.176998e+05 -7.301118e+04 -2.253671e+04
-1.111466e+05 -6.903814e+04 -2.151197e+04
-1.210103e+05 -7.458777e+04 -1.665938e+04
-9.276107e+04 -6.851639e+04 -2.543862e+04
-8.734237e+04 -7.353469e+04 -2.841301e+04
-8.603183e+04 -6.364802e+04 -2.283010e+04
-9.300505e+04 -6.084479e+04 -2.224046e+04
-9.427367e+04 -7.654006e+04 -2.965036e+04
-9.943785e+04 -7.103024e+04 -2.589748e+04
-1.004967e+05 -8.080646e+04 -3.064279e+04
-1.057737e+05 -7.676973e+04 -2.596928e+04
-9.854999e+04 -6.294979e+04 -2.271965e+04
-1.062610e+05 -5.937233e+04 -1.796128e+04
-1.048448e+05 -6.712555e+04 -2.323009e+04
-9.955128e+04 -5.529167e+04 -1.886111e+04
-9.722775e+04 -6.966819e+04 -1.913500e+04
-1.030850e+05 -2.590633e+04 -5.039352e+03
-1.102260e+05 -2.849096e+04 -5.733130e+03
-1.040130e+05 -3.284332e+04 -7.257873e+03
-1.103705e+05 -2.653924e+04 -3.586333e+03
-1.146485e+05 -2.729162e+04 -2.166780e+03
-1.240684e+05 -3.011024e+04 -2.734185e+03
-1.163288e+05 -3.129417e+04 -4.307803e+03
-1.251979e+05 -3.497534e+04 -4.170600e+03
-1.157175e+05 -3.805718e+04 -6.895491e+03
-1.088940e+05 -3.589791e+04 -7.598638e+03
-1.437951e+05 -4.330144e+04 -4.334957e+03
-1.514118e+05 -4.761583e+04 -4.591176e+03
-1.429490e+05 -5.049098e+04 -6.673008e+03
-1.535512e+05 -4.362861e+04 -2.529032e+03
-1.440768e+05 -4.009096e+04 -2.255997e+03
-1.313499e+05 -3.759885e+04 -4.736648e+03
-1.384664e+05 -3.853534e+04 -3.473503e+03
-1.372922e+05 -3.984655e+04 -5.382438e+03
-1.312425e+05 -4.322906e+04 -6.534828e+03
-1.366380e+05 -4.635035e+04 -7.162651e+03
-2.680784e+05 -1.156660e+05 -1.024103e+04
-2.775537e+05 -1.111678e+05 -5.621010e+03
-2.760284e+05 -1.216427e+05 -1.230272e+04
-2.703774e+05 -1.068561e+05 -7.066884e+03
-2.687359e+05 -1.252376e+05 -1.509717e+04
-2.625157e+05 -1.057380e+05 -7.661484e+03
-2.612735e+05 -1.115421e+05 -1.091068e+04
-2.539795e+05 -1.067780e+05 -9.882768e+03
-2.558092e+05 -1.142941e+05 -1.367792e+04
-2.618535e+05 -1.176736e+05 -1.428354e+04
-2.617118e+05 -1.250198e+05 -1.593754e+04
-2.536198e+05 -1.210778e+05 -1.685799e+04
4.435934e+04 2.218645e+04 -1.005735e+04
3.486491e+04 2.728523e+04 -7.306751e+03
3.491754e+04 1.846165e+04 -1.147227e+04
4.522454e+04 3.363645e+04 -5.941927e+03
5.375766e+04 3.479007e+04 -6.762136e+03
5.284344e+04 2.664472e+04 -1.099218e+04
6.105395e+04 3.237295e+04 -1.032326e+04
5.222621e+04 1.141461e+04 -1.860690e+04
4.456821e+04 9.910563e+03 -1.738581e+04
4.286588e+04 1.634138e+04 -1.498096e+04
5.048824e+04 1.785270e+04 -1.429236e+04
6.147980e+04 1.369692e+04 -1.646112e+04
5.844822e+04 2.326762e+04 -1.379008e+04
3.635997e+04 1.172642e+04 -1.375050e+04
6.757699e+04 4.208982e+04 -7.238326e+03
6.898345e+04 3.474953e+04 -1.126465e+04
7.621839e+04 4.036718e+04 -9.873617e+03
7.556856e+04 4.834699e+04 -6.664541e+03
8.277057e+04 4.845571e+04 -8.305273e+03
8.271518e+04 4.278359e+04 -1.144716e+04
9.107786e+04 4.520514e+04 -1.007786e+04
6.649265e+04 2.580984e+04 -1.323786e+04
7.455832e+04 3.143374e+04 -1.329689e+04
7.612356e+04 2.462264e+04 -1.641600e+04
8.379730e+04 2.608275e+04 -1.814572e+04
8.318422e+04 3.397885e+04 -1.202960e+04
9.215765e+04 2.737401e+04 -1.710184e+04
9.340570e+04 3.718227e+04 -1.246612e+04
1.080780e+05 5.323207e+04 -1.012202e+04
1.072050e+05 6.062440e+04 -7.365683e+03
9.977112e+04 5.644744e+04 -5.650978e+03
9.975303e+04 4.784783e+04 -1.120695e+04
1.152446e+05 6.169047e+04 -8.104101e+03
1.161972e+05 5.465326e+04 -1.148079e+04
1.238590e+05 6.051706e+04 -1.020127e+04
9.963404e+04 4.082411e+04 -1.494388e+04
1.057386e+05 4.522868e+04 -1.395325e+04
1.074681e+05 3.843271e+04 -1.722143e+04
1.151615e+05 3.981814e+04 -1.862670e+04
1.130043e+05 4.625589e+04 -1.388635e+04
1.242704e+05 4.193365e+04 -1.667903e+04
1.215209e+05 5.135616e+04 -1.407646e+04
1.148271e+05 4.906318e+04 -8.415882e+03
1.394223e+05 6.830591e+04 -9.899618e+03
1.387154e+05 7.535283e+04 -7.242082e+03
1.315580e+05 7.139739e+04 -5.667655e+03
1.320731e+05 6.289988e+04 -1.112366e+04
1.460127e+05 7.655308e+04 -8.142329e+03
1.459026e+05 7.090635e+04 -1.143198e+04
1.541512e+05 7.344695e+04 -1.012367e+04
1.294248e+05 5.382113e+04 -1.330662e+04
1.376691e+05 5.942674e+04 -1.325825e+04
1.393926e+05 5.251188e+04 -1.642595e+04
1.464265e+05 6.192002e+04 -1.204716e+04
1.565316e+05 6.550456e+04 -1.249415e+04
1.483856e+05 5.248464e+04 -1.808036e+04
1.547090e+05 5.789076e+04 -1.753561e+04
1.627647e+05 7.597917e+04 -1.138831e+04
1.711813e+05 8.161183e+04 -1.004844e+04
1.616174e+05 8.364857e+04 -7.010576e+03
1.704643e+05 8.981225e+04 -7.003758e+03
1.782440e+05 8.954097e+04 -8.439679e+03
1.789126e+05 8.265850e+04 -1.168365e+04
1.851110e+05 8.726813e+04 -1.100862e+04
1.627172e+05 6.901265e+04 -1.499366e+04
1.688040e+05 7.341077e+04 -1.395105e+04
1.705038e+05 6.662283e+04 -1.720237e+04
1.781238e+05 6.800526e+04 -1.866202e+04
1.759163e+05 7.442239e+04 -1.391266e+04
1.842650e+05 7.933710e+04 -1.426432e+04
1.870833e+05 7.003537e+04 -1.683359e+04
1.777384e+05 7.745045e+04 -8.511111e+03
2.023410e+05 9.608791e+04 -9.841049e+03
2.021557e+05 1.045138e+05 -6.714427e+03
1.947894e+05 9.959011e+04 -7.394539e+03
1.935300e+05 9.045619e+04 -9.801247e+03
2.096753e+05 1.035828e+05 -8.424149e+03
2.098642e+05 9.605980e+04 -1.209778e+04
2.197846e+05 9.919446e+04 -1.070907e+04
1.921073e+05 8.158488e+04 -1.321502e+04
2.000361e+05 8.704969e+04 -1.282011e+04
2.018744e+05 8.002125e+04 -1.646490e+04
2.084970e+05 8.755864e+04 -1.195396e+04
2.095433e+05 8.100334e+04 -1.812979e+04
2.168833e+05 9.057470e+04 -1.462438e+04
2.177871e+05 8.103147e+04 -1.707383e+04
2.368254e+05 1.076021e+05 -1.127384e+04
2.346794e+05 1.164214e+05 -7.521937e+03
2.272971e+05 1.124385e+05 -5.834046e+03
2.289418e+05 1.021755e+05 -1.183623e+04
2.429788e+05 1.178022e+05 -8.513836e+03
2.418751e+05 1.111713e+05 -1.250377e+04
2.501088e+05 1.131658e+05 -1.221917e+04
2.370514e+05 9.908498e+04 -1.652654e+04
2.459730e+05 9.846095e+04 -1.626120e+04
2.473601e+05 1.058410e+05 -1.488988e+04
2.671696e+05 1.212192e+05 -1.234966e+04
2.750838e+05 1.152606e+05 -1.644922e+04
2.767529e+05 1.236271e+05 -1.249434e+04
2.679358e+05 1.299666e+05 -6.270568e+03
2.674304e+05 1.132115e+05 -1.647340e+04
2.596487e+05 1.261806e+05 -8.339405e+03
2.592390e+05 1.165136e+05 -1.142836e+04
-2.804335e+05 -1.604443e+05 -2.928347e+04
-2.789537e+05 -1.521614e+05 -2.450750e+04
-2.681567e+05 -1.482909e+05 -2.167416e+04
-2.728496e+05 -1.553227e+05 -2.825712e+04
-2.797482e+05 -1.448039e+05 -2.070952e+04
-2.713754e+05 -1.629417e+05 -3.296033e+04
-2.727040e+05 -1.309226e+05 -1.636801e+04
-2.777483e+05 -1.368059e+05 -1.828835e+04
-2.695253e+05 -1.391982e+05 -2.102892e+04
-2.465604e+05 -1.539956e+05 -3.381328e+04
-2.557816e+05 -1.602105e+05 -3.520898e+04
-2.643332e+05 -1.570428e+05 -3.063122e+04
-2.563550e+05 -1.512681e+05 -2.982748e+04
-2.499796e+05 -1.457957e+05 -2.875819e+04
-2.629205e+05 -1.672223e+05 -3.558273e+04
-2.642600e+05 -1.343932e+05 -1.921234e+04
-2.600013e+05 -1.424586e+05 -2.408202e+04
-2.521238e+05 -1.366950e+05 -2.343059e+04
-2.583402e+05 -1.522959e+05 -2.305992e+04
-2.684673e+05 -1.590132e+05 -2.365040e+04
1.264643e+04 1.899031e+04 -7.173649e+03
5.249967e+03 1.516291e+04 -5.634545e+03
1.418156e+04 1.142361e+04 -9.970316e+03
5.380496e+03 6.948612e+03 -1.089636e+04
1.999252e+04 2.034571e+04 -8.051677e+03
2.080397e+04 1.377136e+04 -1.114592e+04
2.764997e+04 1.923175e+04 -1.021107e+04
2.677417e+04 1.091920e+04 -1.314834e+04
1.904294e+04 4.848157e+03 -1.367081e+04
2.992558e+04 4.486975e+02 -1.617216e+04
1.071278e+04 3.445754e+03 -1.300141e+04
3.325406e+03 -2.684317e+03 -1.415992e+04
1.265586e+04 -3.548203e+03 -1.652957e+04
2.062277e+04 -1.904931e+03 -1.840445e+04
1.598870e+04 3.897758e+03 -8.510576e+03
-1.803460e+04 -1.934267e+03 -1.008669e+04
-2.627147e+04 9.241550e+02 -5.698688e+03
-2.637742e+04 -7.201637e+03 -1.100149e+04
-1.890719e+04 4.838419e+03 -7.269640e+03
-1.122820e+04 5.631736e+03 -8.216403e+03
-1.028538e+04 -1.224636e+03 -1.169243e+04
-2.032153e+03 3.260716e+03 -1.046961e+04
-5.251802e+03 -4.563503e+03 -1.423356e+04
-1.358880e+04 -9.494733e+03 -1.355353e+04
-2.237177e+03 -1.399674e+04 -1.672737e+04
-2.786432e+04 -1.510021e+04 -1.410058e+04
-2.101594e+04 -1.067684e+04 -1.351968e+04
-1.941619e+04 -1.758382e+04 -1.667764e+04
-1.144156e+04 -1.613384e+04 -1.850160e+04
-1.129084e+04 -5.633894e+03 -8.448212e+03
2.760494e+05 8.458150e+04 -3.232446e+04
2.769226e+05 7.743556e+04 -3.649319e+04
2.853768e+05 8.262038e+04 -3.646981e+04
2.841995e+05 9.015843e+04 -3.150077e+04
2.819978e+05 9.522816e+04 -2.580337e+04
2.770695e+05 8.945039e+04 -2.729619e+04
2.686287e+05 1.051172e+05 -1.847222e+04
2.708368e+05 9.580788e+04 -2.400619e+04
2.796294e+05 1.018735e+05 -2.322762e+04
2.682336e+05 7.639239e+04 -3.447467e+04
2.675836e+05 8.234868e+04 -3.183152e+04
2.615524e+05 7.879992e+04 -3.044966e+04
2.540414e+05 9.388838e+04 -2.141172e+04
2.580724e+05 8.836863e+04 -2.520344e+04
2.632396e+05 9.255012e+04 -2.299717e+04
2.571726e+05 1.010265e+05 -1.710239e+04
2.684856e+05 8.569191e+04 -2.392785e+04
2.583662e+05 8.250022e+04 -2.629553e+04
-5.381119e+04 -2.708679e+04 -1.182802e+04
-5.573193e+04 -3.885991e+04 -1.649333e+04
-4.947447e+04 -3.300217e+04 -1.707725e+04
-5.867912e+04 -2.169166e+04 -1.063393e+04
-7.033113e+04 -2.215530e+04 -7.797941e+03
-6.215516e+04 -3.063214e+04 -1.382860e+04
-6.396084e+04 -1.629209e+04 -7.604794e+03
-5.014686e+04 -7.952295e+03 -4.610408e+03
-5.647832e+04 -1.405004e+04 -7.319017e+03
-4.867241e+04 -1.826261e+04 -9.851567e+03
-3.377051e+04 -1.070277e+04 -1.021696e+04
-4.322114e+04 -8.649580e+03 -8.412581e+03
-4.229099e+04 -1.606401e+04 -1.149249e+04
-3.517555e+04 -2.018170e+04 -1.361314e+04
-4.495025e+04 -2.572957e+04 -1.494893e+04
-3.486218e+04 -2.986478e+04 -1.803530e+04
-4.279508e+04 -3.156719e+04 -1.935394e+04
-4.768637e+04 -2.747806e+04 -9.186104e+03
2.435153e+05 6.984615e+04 -3.036789e+04
2.448391e+05 6.359687e+04 -3.463086e+04
2.517256e+05 6.811682e+04 -3.421950e+04
2.535222e+05 7.459138e+04 -2.828535e+04
2.373601e+05 6.080748e+04 -3.305117e+04
2.352379e+05 6.888133e+04 -2.950641e+04
2.287003e+05 6.517090e+04 -3.098906e+04
2.273074e+05 8.600623e+04 -1.701488e+04
2.401981e+05 8.250586e+04 -2.403165e+04
2.377902e+05 9.090755e+04 -1.889492e+04
2.259185e+05 7.767863e+04 -2.180099e+04
2.290522e+05 7.232530e+04 -2.650654e+04
2.371313e+05 7.574684e+04 -2.343621e+04
2.501401e+05 8.640180e+04 -2.344319e+04
2.503212e+05 8.024410e+04 -2.380979e+04
2.451594e+05 7.596737e+04 -2.628576e+04
2.386769e+05 6.756877e+04 -2.321625e+04
2.128303e+05 5.668473e+04 -3.105976e+04
2.128925e+05 4.854525e+04 -3.532975e+04
2.199314e+05 5.368207e+04 -3.488774e+04
2.213572e+05 6.085021e+04 -2.954709e+04
2.053941e+05 4.934554e+04 -3.237821e+04
2.064095e+05 5.701795e+04 -3.070141e+04
2.007285e+05 5.468982e+04 -2.969602e+04
1.952715e+05 6.594406e+04 -2.200485e+04
1.969889e+05 5.998007e+04 -2.680879e+04
2.060234e+05 6.183230e+04 -2.463062e+04
2.036172e+05 7.167056e+04 -1.949541e+04
2.122542e+05 7.250258e+04 -2.100514e+04
2.141948e+05 6.508564e+04 -2.632020e+04
2.219291e+05 6.931360e+04 -2.560612e+04
1.835299e+05 4.403269e+04 -3.076545e+04
1.832817e+05 3.526059e+04 -3.460021e+04
1.922149e+05 4.015244e+04 -3.466547e+04
1.935626e+05 4.990804e+04 -2.827680e+04
1.751696e+05 3.600359e+04 -3.212343e+04
1.759036e+05 4.345379e+04 -3.051133e+04
1.701019e+05 4.105274e+04 -2.969017e+04
1.633905e+05 5.210036e+04 -2.062873e+04
1.656727e+05 4.620312e+04 -2.657436e+04
1.750582e+05 4.851395e+04 -2.457425e+04
1.721854e+05 5.839212e+04 -1.959272e+04
1.809359e+05 5.987977e+04 -2.107351e+04
1.834647e+05 5.216551e+04 -2.611638e+04
1.897392e+05 5.771348e+04 -2.543256e+04
1.644307e+05 2.700765e+04 -3.483066e+04
1.554467e+05 2.244624e+04 -3.630120e+04
1.480221e+05 2.714147e+04 -3.255247e+04
1.560264e+05 3.044772e+04 -3.157953e+04
1.466654e+05 1.838533e+04 -3.488634e+04
1.638053e+05 3.579425e+04 -2.927638e+04
1.402903e+05 2.563430e+04 -3.003439e+04
1.325246e+05 3.796217e+04 -2.180327e+04
1.346763e+05 3.154415e+04 -2.673627e+04
1.437027e+05 3.351815e+04 -2.439208e+04
1.405782e+05 4.421506e+04 -1.893025e+04
1.489788e+05 4.380099e+04 -2.235960e+04
1.533420e+05 3.673211e+04 -2.545371e+04
1.586344e+05 4.333644e+04 -2.490700e+04
1.522343e+05 2.863850e+04 -2.620760e+04
1.332218e+05 2.101603e+04 -2.901636e+04
1.247415e+05 1.595103e+04 -3.098548e+04
1.330172e+05 1.142957e+04 -3.450796e+04
1.250516e+05 7.072858e+03 -3.600407e+04
1.167468e+05 1.302319e+04 -3.207296e+04
1.149152e+05 4.471269e+03 -3.471840e+04
1.087344e+05 1.172554e+04 -2.982560e+04
1.008391e+05 2.394786e+04 -2.181727e+04
1.030903e+05 1.764813e+04 -2.670449e+04
1.122512e+05 2.002911e+04 -2.407561e+04
1.092147e+05 3.015976e+04 -1.954118e+04
1.181705e+05 3.150003e+04 -2.088779e+04
1.216299e+05 2.382559e+04 -2.604698e+04
1.273769e+05 2.932287e+04 -2.539733e+04
1.216370e+05 1.528921e+04 -2.387200e+04
8.272582e+04 -1.776728e+03 -3.093244e+04
8.254307e+04 -1.097563e+04 -3.632955e+04
9.461868e+04 -7.662001e+03 -3.526796e+04
1.014429e+05 7.419410e+03 -2.882684e+04
9.249459e+04 1.793893e+03 -3.005783e+04
1.008092e+05 -1.181583e+03 -3.403235e+04
7.305373e+04 -6.717177e+03 -3.186718e+04
6.995846e+04 9.961303e+03 -2.166902e+04
7.352835e+04 2.748838e+03 -2.661334e+04
8.040497e+04 8.464790e+03 -2.438001e+04
7.799722e+04 1.646284e+04 -1.930221e+04
8.661390e+04 1.775981e+04 -2.093503e+04
8.980694e+04 9.901736e+03 -2.587782e+04
9.569516e+04 1.541375e+04 -2.539152e+04
8.850666e+04 1.460952e+03 -2.174370e+04
6.889307e+04 -1.688147e+04 -3.259885e+04
6.217933e+04 -2.180607e+04 -3.670314e+04
5.396721e+04 -1.785317e+04 -3.228883e+04
5.993555e+04 -1.377868e+04 -3.059760e+04
5.465974e+04 -2.550814e+04 -3.734281e+04
6.499449e+04 -8.044240e+03 -2.995319e+04
4.641678e+04 -2.477735e+04 -3.390728e+04
4.669274e+04 -1.610110e+04 -3.104030e+04
3.960414e+04 -1.851846e+04 -2.833622e+04
4.635231e+04 1.706372e+03 -1.964028e+04
5.542243e+04 2.591303e+03 -2.049714e+04
5.815534e+04 -5.196124e+03 -2.579335e+04
4.865596e+04 -9.939671e+03 -2.368146e+04
6.659024e+04 -3.363644e+02 -2.500808e+04
3.775624e+04 -4.139467e+03 -2.166402e+04
3.941020e+04 -1.020921e+04 -2.667669e+04
5.816067e+04 -1.451660e+04 -2.363551e+04
2.210069e+04 -2.567804e+04 -3.087274e+04
2.101256e+04 -3.616489e+04 -3.279610e+04
2.836546e+04 -2.964172e+04 -3.441048e+04
3.114873e+04 -2.258929e+04 -2.898031e+04
1.423773e+04 -2.914354e+04 -2.929699e+04
1.442488e+04 -1.185644e+04 -1.913143e+04
5.982841e+03 -1.799648e+04 -2.183971e+04
1.659964e+04 -2.078804e+04 -2.453164e+04
2.332274e+04 -1.070343e+04 -2.058304e+04
2.452403e+04 -1.816903e+04 -2.634039e+04
3.212817e+04 -1.339260e+04 -2.552888e+04
8.231388e+03 -2.415122e+04 -2.657042e+04
6.775934e+03 -3.432734e+04 -2.775608e+04
-1.599863e+03 -4.040168e+04 -3.054759e+04
7.090319e+03 -4.340251e+04 -3.481915e+04
-1.144371e+03 -4.851522e+04 -3.683107e+04
-8.026433e+03 -4.581535e+04 -3.226825e+04
-7.277027e+03 -5.345295e+04 -3.758967e+04
-2.378402e+04 -4.842468e+04 -3.019470e+04
-1.480616e+04 -5.134256e+04 -3.423812e+04
-1.537445e+04 -4.358610e+04 -2.937854e+04
-1.753348e+04 -2.573543e+04 -1.919709e+04
-2.563468e+04 -3.249078e+04 -2.198678e+04
-1.487837e+04 -3.414218e+04 -2.442290e+04
-8.426309e+03 -2.438947e+04 -2.080048e+04
-5.132415e+03 -3.272241e+04 -2.561588e+04
8.783034e+02 -2.674982e+04 -2.516990e+04
-2.175374e+04 -3.952454e+04 -2.676016e+04
-7.209982e+03 -4.292027e+04 -2.262687e+04
-4.317491e+04 -5.641171e+04 -3.115680e+04
-4.296083e+04 -4.810701e+04 -2.716991e+04
-4.978450e+04 -5.182930e+04 -2.750295e+04
-4.682448e+04 -4.076342e+04 -2.071199e+04
-3.783251e+04 -6.181327e+04 -3.400916e+04
-2.986535e+04 -5.634538e+04 -3.414180e+04
-3.731772e+04 -5.365981e+04 -3.135975e+04
-3.065678e+04 -4.960746e+04 -3.092995e+04
-3.897530e+04 -3.950300e+04 -2.243728e+04
-3.573951e+04 -4.643572e+04 -2.809027e+04
-2.958927e+04 -4.164749e+04 -2.660648e+04
-3.707632e+04 -5.145636e+04 -2.392545e+04
-2.108715e+05 -7.843447e+04 -5.820338e+03
-2.164046e+05 -8.298598e+04 -7.073594e+03
-2.088217e+05 -8.545695e+04 -9.180334e+03
-2.174496e+05 -8.877513e+04 -9.355181e+03
-2.258026e+05 -8.608670e+04 -6.777473e+03
-2.234680e+05 -9.320084e+04 -1.019878e+04
-2.009524e+05 -7.856926e+04 -7.140715e+03
-2.020214e+05 -8.642385e+04 -1.136415e+04
-1.945868e+05 -8.317181e+04 -1.130665e+04
-2.141616e+05 -9.453390e+04 -1.121713e+04
-2.208726e+05 -1.012550e+05 -1.343039e+04
-2.106318e+05 -1.014397e+05 -1.558552e+04
-2.026639e+05 -9.974732e+04 -1.737618e+04
-2.064070e+05 -9.359841e+04 -1.252605e+04
-1.981982e+05 -9.169513e+04 -1.446950e+04
-2.032535e+05 -9.061774e+04 -8.050880e+03
-1.655473e+05 -1.038455e+05 -2.585768e+04
-1.635664e+05 -1.092367e+05 -3.093388e+04
-1.672771e+05 -1.140665e+05 -3.376246e+04
-1.723334e+05 -1.096047e+05 -2.906568e+04
-1.596861e+05 -1.150317e+05 -3.488352e+04
-1.752273e+05 -1.024339e+05 -2.551269e+04
-1.661964e+05 -1.206721e+05 -3.665701e+04
-1.733342e+05 -1.144813e+05 -3.402833e+04
-1.792686e+05 -1.174129e+05 -3.224648e+04
-1.729345e+05 -1.199028e+05 -3.679850e+04
-1.806771e+05 -1.101303e+05 -2.790141e+04
-2.385875e+05 -9.474363e+04 -8.107828e+03
-2.468322e+05 -9.782351e+04 -5.944657e+03
-2.378999e+05 -1.026391e+05 -1.151041e+04
-2.462167e+05 -1.055646e+05 -1.142143e+04
-2.297752e+05 -9.800190e+04 -1.023054e+04
-2.489983e+05 -1.131155e+05 -1.381510e+04
-2.419279e+05 -1.088900e+05 -1.413596e+04
-2.400044e+05 -1.152781e+05 -1.740963e+04
-2.292725e+05 -1.036371e+05 -1.393549e+04
-2.349137e+05 -1.089918e+05 -1.546717e+04
-2.240378e+05 -1.121804e+05 -1.699476e+04
-2.326276e+05 -1.144356e+05 -1.911779e+04
-2.372991e+05 -1.100709e+05 -1.061728e+04
-1.867388e+05 -1.203828e+05 -2.838085e+04
-1.973489e+05 -1.266623e+05 -3.059655e+04
-1.896431e+05 -1.293266e+05 -3.503876e+04
-1.965720e+05 -1.370643e+05 -3.574147e+04
-2.053679e+05 -1.341006e+05 -3.297646e+04
-2.065554e+05 -1.265568e+05 -2.886788e+04
-2.147050e+05 -1.325933e+05 -2.992458e+04
-2.076951e+05 -1.093299e+05 -1.859180e+04
-2.150801e+05 -1.158418e+05 -2.143150e+04
-2.033926e+05 -1.183281e+05 -2.366371e+04
-1.993111e+05 -1.082524e+05 -1.990179e+04
-1.953873e+05 -1.157273e+05 -2.536166e+04
-1.915856e+05 -1.057746e+05 -2.179019e+04
-1.880850e+05 -1.118863e+05 -2.564295e+04
-2.125288e+05 -1.227343e+05 -2.592754e+04
-2.030981e+05 -1.278641e+05 -2.259698e+04
-2.236570e+05 -1.337567e+05 -2.915734e+04
-2.329666e+05 -1.374533e+05 -2.883371e+04
-2.224023e+05 -1.440787e+05 -3.195291e+04
-2.326730e+05 -1.450590e+05 -3.357671e+04
-2.421730e+05 -1.427031e+05 -2.740530e+04
-2.472837e+05 -1.281128e+05 -2.019084e+04
-2.429165e+05 -1.346488e+05 -2.531424e+04
-2.362325e+05 -1.294606e+05 -2.418278e+04
-2.382895e+05 -1.225982e+05 -1.978175e+04
-2.298136e+05 -1.220509e+05 -2.124593e+04
-2.284272e+05 -1.296127e+05 -2.622852e+04
-2.199387e+05 -1.257210e+05 -2.502336e+04
-2.311888e+05 -1.336485e+05 -2.064276e+04
-1.732806e+05 -8.949733e+04 -1.867144e+04
-1.821424e+05 -8.803788e+04 -1.640429e+04
-1.774883e+05 -9.616557e+04 -2.028008e+04
-1.709035e+05 -7.181528e+04 -8.994127e+03
-1.717960e+05 -8.029547e+04 -1.398195e+04
-1.635748e+05 -8.001713e+04 -1.457190e+04
-1.662871e+05 -8.773221e+04 -1.534626e+04
-1.749617e+05 -8.626223e+04 -1.516069e+04
-1.806558e+05 -7.157735e+04 -7.304295e+03
-1.790265e+05 -8.024401e+04 -1.229572e+04
-1.872726e+05 -7.573112e+04 -9.352104e+03
-1.872582e+05 -8.312787e+04 -1.311995e+04
-1.907671e+05 -9.070878e+04 -1.458518e+04
-1.868524e+05 -9.637638e+04 -1.946946e+04
-1.780101e+05 -8.762111e+04 -1.117557e+04
-9.200444e+04 -5.567568e+04 -1.876157e+04
-8.626308e+04 -5.006353e+04 -1.799851e+04
-9.242428e+04 -4.868726e+04 -1.636987e+04
-8.262778e+04 -4.507867e+04 -1.480529e+04
-9.121436e+04 -4.276930e+04 -1.359005e+04
-9.202113e+04 -3.515415e+04 -9.210269e+03
-9.884832e+04 -3.864224e+04 -1.049862e+04
-9.735678e+04 -5.027047e+04 -1.674163e+04
-9.820282e+04 -4.407951e+04 -1.361740e+04
-1.042722e+05 -4.718387e+04 -1.371407e+04
-1.060944e+05 -4.066335e+04 -1.046382e+04
-9.452321e+04 -4.750809e+04 -1.027713e+04
-1.502414e+05 -6.094100e+04 -9.237918e+03
-1.455429e+05 -6.720453e+04 -1.485205e+04
-1.441782e+05 -6.143223e+04 -1.298287e+04
-1.383540e+05 -6.648956e+04 -1.491756e+04
-1.445241e+05 -5.579579e+04 -9.717165e+03
-1.381434e+05 -5.830393e+04 -1.232429e+04
-1.191819e+05 -6.001017e+04 -1.573977e+04
-1.253763e+05 -5.867494e+04 -1.398371e+04
-1.261331e+05 -5.223005e+04 -1.262697e+04
-1.203178e+05 -5.101553e+04 -1.163108e+04
-1.128406e+05 -5.474690e+04 -1.629988e+04
-1.318447e+05 -5.497330e+04 -1.248978e+04
-1.114344e+05 -4.973607e+04 -1.246872e+04
-1.199985e+05 -4.404440e+04 -7.983684e+03
-1.258742e+05 -4.616052e+04 -9.407903e+03
-1.318617e+05 -5.053200e+04 -9.196739e+03
-2.874793e+05 -1.786972e+05 -3.904198e+04
-2.943360e+05 -1.834129e+05 -3.698911e+04
-2.782079e+05 -1.679766e+05 -3.428440e+04
-2.803479e+05 -1.740976e+05 -3.095173e+04
-2.863188e+05 -1.143292e+05 -7.123395e+03
-2.780346e+05 -1.018254e+05 -3.953709e+03
-2.797109e+05 -1.285484e+05 -1.436060e+04
-2.780560e+05 -1.262811e+05 -9.309037e+03
-2.555471e+05 -1.001106e+05 -6.606922e+03
2.929046e+05 1.491697e+05 -4.537286e+03
2.764848e+05 1.347357e+05 -8.241325e+03
2.802077e+05 1.392173e+05 -2.897231e+03
2.925150e+05 8.835480e+04 -3.514339e+04
2.834381e+05 7.582169e+04 -3.897227e+04
2.778905e+05 7.001298e+04 -3.389284e+04
2.603386e+05 7.081170e+04 -3.316665e+04
2.880852e+05 7.729177e+04 -3.567208e+04
2.776466e+05 1.087162e+05 -2.020796e+04
-1.543438e+05 -6.486976e+04 -1.082234e+04
-1.383219e+05 -7.266507e+04 -1.873479e+04
-1.319796e+05 -6.190948e+04 -1.387832e+04
-1.233781e+05 -9.044404e+04 -2.774756e+04
-1.306036e+05 -7.850197e+04 -1.584869e+04
-1.625363e+05 -7.256444e+04 -1.252820e+04
-1.696197e+05 -9.861837e+04 -2.294205e+04
-1.697244e+05 -9.321220e+04 -1.466498e+04
-1.844604e+05 -6.545466e+04 -6.519576e+03
-1.540260e+05 -1.108763e+05 -3.478628e+04
-1.298704e+05 -1.135593e+05 -3.921037e+04
-1.603625e+05 -1.221004e+05 -3.918503e+04
-1.629890e+05 -1.111170e+05 -2.493019e+04
-1.300484e+05 -1.114841e+05 -2.866589e+04
-1.095424e+05 -8.315071e+04 -2.949038e+04
-1.505611e+05 -5.402999e+04 -6.522926e+03
-1.832636e+05 -1.042492e+05 -2.238912e+04
-5.173568e+04 -5.849608e+04 -3.087683e+04
-5.393382e+04 -4.493646e+04 -2.210879e+04
-8.502912e+04 -5.675482e+04 -2.144027e+04
-8.461343e+04 -5.189119e+04 -1.284987e+04
-8.338938e+04 -3.716317e+04 -1.285195e+04
-7.167708e+04 -3.199286e+04 -1.229381e+04
-6.099045e+04 -4.444916e+04 -1.309940e+04
-3.264817e+04 -6.469246e+04 -3.820669e+04
-4.083238e+04 -6.031957e+04 -2.703877e+04
-6.459930e+04 -8.190639e+04 -3.824094e+04
-7.534018e+04 -1.618696e+04 -5.474065e+03
-8.107269e+04 -7.029200e+04 -2.606213e+04
-3.297547e+04 -3.505073e+04 -2.373630e+04
-1.052629e+05 -5.199011e+04 -1.644583e+04
-9.719364e+04 -5.519177e+04 -1.356522e+04
-8.652107e+04 -8.096650e+04 -2.529188e+04
-9.763998e+04 -8.747686e+04 -3.478406e+04
-9.848174e+04 -2.960945e+04 -8.101175e+03
-1.800078e+05 -5.586026e+04 -1.863975e+03
-1.587490e+05 -4.897656e+04 -2.613545e+03
-1.380372e+05 -5.328942e+04 -9.831722e+03
-1.944412e+05 -7.592538e+04 -8.705916e+03
-1.525284e+05 -4.007613e+04 -1.187238e+03
-9.127927e+04 -1.504045e+04 -1.400495e+03
-5.640792e+04 -3.402901e+03 -3.466985e+03
-1.027750e+05 -2.130923e+04 -3.116489e+03
-1.226545e+05 -2.795497e+04 -1.214183e+03
-1.065044e+05 -2.930479e+04 -2.288606e+03
-1.115923e+05 -4.353963e+04 -1.028862e+04
-1.033953e+05 -4.195840e+04 -7.095961e+03
-2.861810e+05 -1.483140e+05 -2.108613e+04
-2.924247e+05 -1.545535e+05 -1.720726e+04
-2.534126e+05 -1.679017e+05 -3.876306e+04
-2.686260e+05 -1.702735e+05 -3.054048e+04
-2.786874e+05 -1.433119e+05 -1.341928e+04
-2.554307e+05 -1.297224e+05 -1.996675e+04
-2.676589e+05 -1.327626e+05 -1.153401e+04
2.845807e+05 1.218615e+05 -1.608906e+04
2.602882e+05 1.365374e+05 -3.560738e+03
2.581002e+05 1.090514e+05 -1.551196e+04
2.511282e+05 6.008101e+04 -3.776790e+04
2.282181e+05 5.614404e+04 -3.330946e+04
2.473724e+05 9.270098e+04 -2.208385e+04
2.193575e+05 4.587953e+04 -3.891452e+04
2.131377e+05 3.911673e+04 -3.368397e+04
1.987192e+05 4.574277e+04 -3.463012e+04
2.188028e+05 7.681810e+04 -2.316233e+04
1.895078e+05 3.249542e+04 -3.797726e+04
1.839514e+05 2.606000e+04 -3.270208e+04
1.699802e+05 3.207511e+04 -3.456685e+04
1.948507e+05 3.114158e+04 -3.297460e+04
1.875117e+05 6.422116e+04 -2.293648e+04
1.679545e+05 1.873696e+04 -3.294193e+04
1.567667e+05 1.453911e+04 -3.956591e+04
1.554593e+05 4.999774e+04 -2.123705e+04
1.391409e+05 1.650716e+04 -3.541209e+04
1.236148e+05 4.176930e+02 -4.036963e+04
1.073982e+05 2.809831e+03 -3.518375e+04
1.246877e+05 3.599174e+04 -2.283522e+04
9.222865e+04 -1.398423e+04 -4.076454e+04
7.318451e+04 -1.336325e+04 -3.581931e+04
9.302890e+04 2.197100e+04 -2.293862e+04
6.135935e+04 -2.804111e+04 -4.125712e+04
3.727385e+04 -2.875001e+04 -3.265892e+04
6.211845e+04 7.370432e+03 -2.260850e+04
7.058666e+04 -9.474343e+03 -2.446657e+04
2.755369e+04 -4.077927e+04 -3.878282e+04
2.990783e+04 -6.272808e+03 -2.268486e+04
1.196806e+04 -3.837058e+04 -3.460505e+04
1.208796e+04 -5.150359e+04 -3.351072e+04
3.534360e+02 -5.579080e+04 -3.987430e+04
-1.796962e+03 -2.009368e+04 -2.277695e+04
1.438258e+03 -6.132903e+04 -3.637564e+04
-2.224542e+04 -5.543056e+04 -3.533939e+04
-8.981327e+03 -5.778122e+04 -3.247299e+04
-2.428512e+04 -6.013596e+04 -3.135720e+04
-2.544874e+04 -7.304088e+04 -3.747295e+04
-2.354179e+04 -4.506665e+04 -2.253946e+04
-1.127359e+05 -6.190419e+04 -1.772030e+04
-1.811433e+05 -1.261231e+05 -3.389198e+04
-1.669398e+05 -1.281669e+05 -3.410635e+04
-1.887594e+05 -1.383420e+05 -3.863773e+04
-1.984949e+05 -1.457835e+05 -3.285975e+04
-2.133562e+05 -1.397998e+05 -3.375118e+04
-2.234798e+05 -1.505734e+05 -3.885847e+04
-2.143452e+05 -1.608838e+05 -4.077265e+04
-2.397982e+05 -1.493004e+05 -3.194615e+04
-2.228356e+05 -1.181890e+05 -2.282246e+04
-2.198451e+05 -1.334694e+05 -2.277188e+04
-2.516161e+05 -1.741645e+05 -3.573092e+04
-2.407263e+05 -1.627133e+05 -3.223566e+04
-2.427523e+05 -1.379620e+05 -1.977995e+04
-2.467543e+05 -8.873230e+04 -4.297897e+03
-2.471313e+05 -1.106707e+05 -8.852655e+03
-2.457332e+05 -1.198153e+05 -1.824680e+04
-2.314164e+05 -9.162230e+04 -7.227151e+03
-2.161765e+05 -7.400656e+04 -3.905406e+03
-2.268874e+05 -8.512403e+04 -2.850396e+03
-2.163774e+05 -1.075209e+05 -1.716674e+04
-2.272913e+05 -1.052469e+05 -9.410537e+03
-1.946816e+05 -9.914515e+04 -1.726286e+04
-1.878472e+05 -8.737575e+04 -9.879057e+03
-1.309621e+05 -3.461683e+04 -2.899849e+03
-1.355804e+05 -4.147208e+04 -2.211573e+03
-1.240393e+05 -3.965615e+04 -6.422160e+03
-3.521538e+04 -2.523405e+03 -7.046522e+03
-4.186464e+04 -8.697168e+03 -4.796821e+03
-2.609258e+04 9.974268e+03 -4.184171e+03
-2.682200e+04 -2.395470e+04 -1.660131e+04
-3.695342e+03 1.150885e+04 -6.951368e+03
5.479364e+03 2.408415e+04 -4.165213e+03
6.057782e+03 -9.574174e+03 -1.770100e+04
-5.931428e+02 -4.196541e+03 -9.915811e+03
2.712057e+04 2.577193e+04 -6.950792e+03
3.852018e+04 3.632420e+04 -4.614633e+03
5.971633e+04 3.915014e+04 -7.884538e+03
3.702966e+04 3.071030e+04 -2.923878e+03
3.806730e+04 4.449199e+03 -1.791845e+04
3.037738e+04 1.420163e+04 -7.893737e+03
7.008523e+04 5.082827e+04 -4.184893e+03
8.021499e+04 5.163110e+04 -2.908192e+03
9.058577e+04 5.363337e+04 -7.119472e+03
6.827364e+04 2.962848e+04 -8.149822e+03
6.955537e+04 1.866970e+04 -1.759735e+04
1.001933e+05 6.611559e+04 -4.202809e+03
1.002984e+05 3.243556e+04 -1.677564e+04
1.227021e+05 6.782107e+04 -6.761265e+03
1.317877e+05 8.032424e+04 -4.164206e+03
1.534896e+05 8.175972e+04 -7.058015e+03
1.308838e+05 5.728863e+04 -8.209210e+03
1.324504e+05 4.663653e+04 -1.754293e+04
1.650287e+05 9.264026e+04 -4.657445e+03
1.752747e+05 9.308684e+04 -2.982543e+03
1.873349e+05 9.462217e+04 -6.697373e+03
1.640775e+05 8.726970e+04 -2.908495e+03
1.631355e+05 6.081649e+04 -1.664334e+04
1.965984e+05 1.072647e+05 -4.159871e+03
2.067370e+05 1.077732e+05 -2.922680e+03
2.178235e+05 1.092470e+05 -7.211315e+03
1.952892e+05 7.445294e+04 -1.768321e+04
2.268266e+05 1.221632e+05 -4.240920e+03
2.518810e+05 1.220697e+05 -7.169294e+03
2.271413e+05 9.489265e+04 -1.537235e+04
-1.140364e+05 -4.496681e+04 -6.345773e+03
-2.466456e+05 -1.234885e+05 -1.406974e+04
1.486028e+05 4.304648e+04 -1.532046e+04
-3.568658e+05 -1.206740e+05 -1.383496e+05
-3.206978e+05 -1.298646e+05 -1.357100e+05
-3.265806e+05 -9.932471e+04 -1.384220e+05
-3.513893e+05 -1.017728e+05 -1.197413e+05
-3.246239e+05 -1.124946e+05 -1.059323e+05
-3.331800e+05 -7.266751e+04 -1.199645e+05
-3.345746e+05 -1.372571e+05 -1.045895e+05
-3.646536e+05 -1.044119e+05 -9.633726e+04
-3.318565e+05 -7.948727e+04 -9.848453e+04
-3.706626e+05 -1.310617e+05 -1.104901e+05
-3.788555e+05 -1.032888e+05 -1.107410e+05
-3.808468e+05 -1.041534e+05 -1.289417e+05
1.249048e+05 -3.614706e+05 -1.390517e+05
1.306497e+05 -3.235495e+05 -1.343915e+05
1.039640e+05 -3.250348e+05 -1.380517e+05
1.061107e+05 -3.553948e+05 -1.192530e+05
1.046653e+05 -3.729551e+05 -9.056713e+04
1.291093e+05 -3.693539e+05 -1.162369e+05
1.028245e+05 -3.807526e+05 -1.135940e+05
1.402710e+05 -3.326518e+05 -1.116527e+05
1.291721e+05 -3.629637e+05 -8.472680e+04
1.095930e+05 -3.257610e+05 -1.019094e+05
1.103271e+05 -3.808563e+05 -1.437769e+05
7.247421e+04 -3.413478e+05 -1.144191e+05
8.652219e+04 -3.602806e+05 -1.388755e+05
8.804698e+04 -3.525694e+05 -9.090290e+04
-3.522906e+05 2.132173e+05 -7.209577e+04
-3.276944e+05 1.947726e+05 -9.382854e+04
-3.511307e+05 1.875957e+05 -7.055729e+04
-3.498658e+05 1.623423e+05 -7.122581e+04
-3.797213e+05 1.619648e+05 -8.150987e+04
-3.799985e+05 1.904086e+05 -7.613354e+04
8.695652e+04 -4.000000e+05 -1.600000e+05
6.956522e+04 -3.681566e+05 -1.600000e+05
6.817304e+04 -4.000000e+05 -1.298395e+05
1.043478e+05 -3.681566e+05 -1.600000e+05
1.217391e+05 -4.000000e+05 -1.600000e+05
1.043457e+05 -4.000000e+05 -1.313395e+05
5.972946e+04 -3.652626e+05 -1.344208e+05
3.469557e+04 -4.000000e+05 -1.283199e+05
6.510982e+04 -3.782528e+05 -1.134928e+05
4.519865e+04 -3.390143e+05 -1.070675e+05
4.096892e+04 -3.758549e+05 -9.240514e+04
3.748877e+04 -3.665594e+05 -1.241388e+05
8.674306e+04 -4.000000e+05 -1.107005e+05
7.225402e+04 -3.701783e+05 -9.058535e+04
8.971314e+04 -3.702954e+05 -1.189591e+05
1.028567e+05 -3.469829e+05 -7.041763e+04
1.255485e+05 -3.269887e+05 -7.684760e+04
1.369708e+05 -3.474513e+05 -7.121087e+04
1.558136e+05 -3.172066e+05 -7.110381e+04
1.537251e+05 -3.492478e+05 -8.730372e+04
1.561918e+05 -3.795632e+05 -8.145153e+04
7.049389e+04 -3.238334e+05 -9.456669e+04
9.237273e+04 -3.245432e+05 -6.880104e+04
6.739916e+04 -3.477020e+05 -7.190887e+04
6.583440e+04 -3.190827e+05 -7.103188e+04
3.872968e+04 -3.424664e+05 -7.292651e+04
-3.000000e+05 1.493633e+04 -8.591195e+04
-3.347808e+05 1.331720e+04 -8.317129e+04
8.740823e+04 -3.730893e+05 -6.765873e+04
-3.533857e+05 3.741315e+05 -1.047790e+05
-3.242833e+05 3.524604e+05 -1.056931e+05
-3.537486e+05 3.580498e+05 -8.404614e+04
-3.499620e+05 3.370275e+05 -1.081179e+05
-3.348156e+05 3.318562e+05 -8.935092e+04
-3.298503e+05 3.038167e+05 -1.150901e+05
-3.271709e+05 3.346290e+05 -1.207325e+05
-3.601708e+05 3.301355e+05 -1.362018e+05
-3.521317e+05 3.319378e+05 -7.379930e+04
-3.764248e+05 3.467011e+05 -1.070163e+05
2.607573e+05 -4.000000e+05 -9.928420e+04
2.496090e+05 -3.642457e+05 -1.039249e+05
2.757889e+05 -3.833495e+05 -9.883073e+04
2.653363e+05 -3.781619e+05 -1.194118e+05
2.608696e+05 -4.000000e+05 -1.600000e+05
2.782609e+05 -3.681566e+05 -1.600000e+05
2.560312e+05 -3.594858e+05 -1.345823e+05
2.782176e+05 -4.000000e+05 -1.283450e+05
3.009981e+05 -3.757139e+05 -1.081051e+05
2.946896e+05 -3.621713e+05 -1.355330e+05
2.746403e+05 -3.463666e+05 -1.089586e+05
4.000000e+05 -8.698509e+04 -9.927827e+04
4.000000e+05 -1.043478e+05 -1.280850e+05
4.000000e+05 -1.217663e+05 -9.927598e+04
3.661621e+05 -1.117830e+05 -1.042057e+05
3.681566e+05 -2.086957e+05 -1.600000e+05
3.362016e+05 -2.260870e+05 -1.600000e+05
3.564652e+05 -2.277995e+05 -1.380399e+05
3.482349e+05 -2.000996e+05 -1.371780e+05
3.681566e+05 -1.739130e+05 -1.600000e+05
3.766648e+05 -1.923947e+05 -1.311267e+05
-1.049358e+05 3.333333e+04 -1.200000e+05
-7.157111e+04 1.986197e+04 -1.600000e+05
-7.134091e+04 1.666667e+04 -1.200000e+05
-9.315557e+04 -1.554681e+03 -1.405346e+05
3.362016e+05 -1.913043e+05 -1.600000e+05
3.588808e+05 -1.573380e+05 -1.387198e+05
3.362016e+05 -1.565217e+05 -1.600000e+05
3.199761e+05 -1.665869e+05 -1.399486e+05
3.665357e+05 -1.824822e+05 -1.073172e+05
3.691462e+05 -2.173267e+05 -1.063512e+05
3.185158e+05 -1.972529e+05 -1.388634e+05
-3.727963e+05 -3.718404e+05 -7.752309e+04
-4.000000e+05 -3.505277e+05 -8.131819e+04
-3.725279e+05 -3.459010e+05 -9.850799e+04
-4.000000e+05 -3.502330e+05 -1.288831e+05
-4.000000e+05 -3.680273e+05 -1.051488e+05
-3.726395e+05 -3.498141e+05 -1.299023e+05
-3.741366e+05 -3.725600e+05 -1.312610e+05
-3.489427e+05 -3.569485e+05 -1.089509e+05
-3.756031e+05 -3.273934e+05 -1.262122e+05
-4.000000e+05 -3.243637e+05 -1.049024e+05
-3.809854e+05 -3.249135e+05 -8.462722e+04
-3.000000e+05 -1.486363e+05 -8.614176e+04
-3.317284e+05 -1.615958e+05 -7.195199e+04
-3.214974e+05 -1.622928e+05 -1.001603e+05
-3.000000e+05 -1.817838e+05 -8.623652e+04
-3.213181e+05 -1.870530e+05 -1.006364e+05
-3.232505e+05 -1.919959e+05 -7.466022e+04
-3.415428e+05 -1.747776e+05 -1.108995e+05
-3.185080e+05 -1.612013e+05 -1.297572e+05
-3.000000e+05 -1.333333e+05 -1.200000e+05
-3.000000e+05 -1.666667e+05 -1.200000e+05
3.439444e+05 -3.086558e+03 -7.305795e+04
3.732270e+05 2.255010e+02 -7.621959e+04
3.779499e+05 -2.040329e+04 -7.407506e+04
4.000000e+05 -2.655909e+01 -7.886343e+04
4.000000e+05 -1.742320e+04 -9.927559e+04
3.759764e+05 -4.685456e+04 -1.124686e+05
3.811585e+05 -5.064195e+04 -8.341053e+04
3.699021e+05 -2.162429e+04 -1.082337e+05
3.419405e+05 -3.069689e+04 -7.330965e+04
-3.124769e+05 3.319642e+05 -7.272064e+04
-3.301108e+05 3.623284e+05 -7.068197e+04
-3.082505e+05 3.511523e+05 -7.967350e+04
-3.018045e+05 3.735162e+05 -1.112118e+05
-2.953081e+05 3.782168e+05 -7.437989e+04
-3.221603e+05 3.766746e+05 -8.721186e+04
1.217391e+05 4.000000e+05 -1.600000e+05
1.391304e+05 3.681566e+05 -1.600000e+05
1.565217e+05 4.000000e+05 -1.600000e+05
1.391304e+05 4.000000e+05 -1.280850e+05
-3.011383e+05 3.408039e+05 -1.070471e+05
-2.717865e+05 3.301744e+05 -9.325610e+04
-2.793811e+05 3.563120e+05 -9.050814e+04
3.342468e+05 -3.338795e+05 -9.268087e+04
3.486044e+05 -3.231954e+05 -1.074108e+05
3.158632e+05 -3.114179e+05 -1.055989e+05
3.360180e+05 -3.077346e+05 -8.789312e+04
1.217391e+05 3.362016e+05 -1.600000e+05
1.043478e+05 3.681566e+05 -1.600000e+05
8.695652e+04 3.362016e+05 -1.600000e+05
1.031029e+05 3.323798e+05 -1.383631e+05
3.711428e+05 -2.975264e+05 -1.078237e+05
3.743549e+05 -3.275584e+05 -8.197977e+04
3.538592e+05 -3.003953e+05 -7.216789e+04
3.284961e+05 -2.781826e+05 -8.977740e+04
3.000000e+05 -3.000000e+05 -8.495216e+04
3.150028e+05 -3.304953e+05 -7.271740e+04
-3.675888e+05 8.104388e+04 -1.041894e+05
-3.772127e+05 9.537243e+04 -8.226052e+04
-3.549977e+05 8.225829e+04 -6.958204e+04
-3.324667e+05 1.034303e+05 -7.925349e+04
-3.287902e+05 8.019708e+04 -7.308929e+04
-3.000000e+05 8.178708e+04 -8.607626e+04
-3.376704e+05 5.826876e+04 -7.711464e+04
-3.269060e+05 1.013053e+05 -1.061264e+05
3.789447e+05 5.231046e+04 -7.156224e+04
3.797246e+05 2.662904e+04 -7.238984e+04
3.542481e+05 2.424647e+04 -7.232165e+04
3.654870e+05 4.658106e+04 -1.037918e+05
3.547521e+05 5.634106e+04 -7.296276e+04
4.000000e+05 1.739649e+04 -9.927617e+04
3.698862e+05 6.078781e+03 -1.040874e+05
2.980772e+05 -3.371077e+05 -8.895828e+04
2.694544e+05 -3.278863e+05 -7.704647e+04
2.797547e+05 -3.262575e+05 -1.016748e+05
2.527082e+05 -3.000000e+05 -8.345500e+04
-2.719249e+05 -1.217391e+05 -1.600000e+05
-2.395442e+05 -1.391304e+05 -1.600000e+05
-2.395442e+05 -1.043478e+05 -1.600000e+05
-2.531935e+05 -1.270462e+05 -1.412263e+05
3.000000e+05 -3.000000e+05 -1.200000e+05
3.002856e+05 -3.361068e+05 -1.088331e+05
4.000000e+05 -2.434889e+05 -7.885642e+04
3.793392e+05 -2.648916e+05 -8.068382e+04
3.773868e+05 -2.421247e+05 -7.266637e+04
4.000000e+05 -2.086686e+05 -7.886305e+04
3.675359e+05 -2.097586e+05 -8.075709e+04
4.000000e+05 -2.261070e+05 -9.928569e+04
3.538497e+05 -2.348893e+05 -7.459450e+04
3.725675e+05 -2.463970e+05 -1.017909e+05
3.502225e+05 -2.616785e+05 -8.717221e+04
-3.526018e+05 -1.921227e+05 -7.792871e+04
-3.488942e+05 -1.732468e+05 -8.314813e+04
1.499856e+05 3.000000e+05 -8.329321e+04
1.166523e+05 3.000000e+05 -8.329321e+04
1.329251e+05 3.268223e+05 -7.013189e+04
-1.886870e+05 3.730787e+05 -1.111892e+05
-2.163489e+05 3.704449e+05 -1.083083e+05
-2.096737e+05 3.321578e+05 -1.140410e+05
-2.082357e+05 3.525732e+05 -8.350742e+04
-3.776219e+05 -1.479261e+05 -8.363896e+04
-3.430748e+05 -1.312463e+05 -7.599970e+04
3.541603e+05 -2.821504e+05 -9.271434e+04
-1.820311e+05 -3.674944e+05 -1.066294e+05
-1.862064e+05 -3.801092e+05 -8.404529e+04
-1.553976e+05 -3.544035e+05 -7.132013e+04
-1.889466e+05 -3.550334e+05 -7.367200e+04
3.523144e+05 -3.371922e+05 -7.289987e+04
-2.344389e+05 -1.677927e+05 -1.200000e+05
-2.191247e+05 -1.851129e+05 -1.406584e+05
-2.385126e+05 -1.748481e+05 -1.600000e+05
-2.214382e+05 -1.455630e+05 -1.397973e+05
3.322704e+05 -3.667648e+05 -7.044632e+04
-4.000000e+05 -1.218925e+05 -1.107028e+05
-4.000000e+05 -1.217391e+05 -1.600000e+05
-4.000000e+05 -1.405259e+05 -1.298366e+05
-4.000000e+05 -8.695652e+04 -1.600000e+05
-4.000000e+05 -1.043457e+05 -1.313395e+05
2.757320e+05 -3.596770e+05 -8.128904e+04
2.526677e+05 -3.805400e+05 -8.128545e+04
3.362544e+05 -2.990569e+05 -1.111961e+05
3.266733e+05 -3.082666e+05 -1.371659e+05
3.613661e+05 -2.932343e+05 -1.384815e+05
3.554121e+05 -3.294513e+05 -1.412466e+05
3.771145e+05 -3.326690e+05 -1.265093e+05
3.428318e+05 -3.378143e+05 -1.187164e+05
2.608696e+05 3.362016e+05 -1.600000e+05
2.714985e+05 3.170017e+05 -1.365486e+05
2.775699e+05 3.039950e+05 -1.600000e+05
2.797787e+05 3.382295e+05 -1.395869e+05
2.788003e+05 3.378270e+05 -1.117099e+05
2.474775e+05 3.389799e+05 -1.392141e+05
-2.678710e+05 -8.333333e+04 -1.200000e+05
-2.678710e+05 -1.166667e+05 -1.200000e+05
-2.904171e+05 -1.112369e+05 -1.391889e+05
-2.555169e+05 -9.682524e+04 -1.402866e+05
2.824718e+05 3.663948e+05 -1.055757e+05
2.959311e+05 3.589048e+05 -1.397249e+05
2.590913e+05 3.661097e+05 -1.372947e+05
2.782609e+05 3.681566e+05 -1.600000e+05
8.695652e+04 -2.719249e+05 -1.600000e+05
6.956522e+04 -2.395442e+05 -1.600000e+05
5.217391e+04 -2.719249e+05 -1.600000e+05
6.319997e+04 -2.557667e+05 -1.401726e+05
-2.785021e+05 3.251119e+05 -1.272357e+05
-3.002700e+05 3.189674e+05 -1.379951e+05
-3.034350e+05 3.603599e+05 -1.382371e+05
-2.956522e+05 4.000000e+05 -1.600000e+05
-2.782609e+05 3.681566e+05 -1.600000e+05
-2.788799e+05 3.636924e+05 -1.346020e+05
-3.133237e+05 3.678989e+05 -1.600000e+05
-3.368657e+05 3.551824e+05 -1.305197e+05
-3.342262e+05 3.338343e+05 -1.600000e+05
-3.801035e+05 2.190929e+05 -8.319083e+04
-3.533714e+05 2.398432e+05 -8.626974e+04
-3.000000e+05 2.523672e+05 -8.611874e+04
-3.000000e+05 2.162533e+05 -8.625174e+04
-3.259986e+05 2.266223e+05 -9.019499e+04
-3.318981e+05 2.414929e+05 -1.137588e+05
-3.345406e+05 2.561148e+05 -9.852520e+04
-3.701547e+05 2.501547e+05 -1.069430e+05
-3.518063e+05 2.761182e+05 -7.671645e+04
3.346903e+05 -2.761351e+05 -1.238005e+05
3.660199e+05 -2.702916e+05 -1.245767e+05
3.553617e+05 -2.690581e+05 -6.493289e+04
7.547977e+04 3.676812e+05 -1.106071e+05
8.294269e+04 3.768294e+05 -8.416766e+04
4.626576e+04 3.802995e+05 -8.294341e+04
6.096621e+04 3.509441e+05 -8.167214e+04
6.691802e+04 3.276856e+05 -7.174740e+04
4.259522e+04 3.446781e+05 -7.311338e+04
8.699490e+04 3.311984e+05 -9.213406e+04
9.056374e+04 3.525373e+05 -7.973589e+04
7.370599e+04 3.325201e+05 -1.145908e+05
-3.341779e+05 -2.421356e+05 -1.120532e+05
-3.560125e+05 -2.343508e+05 -8.043179e+04
-3.796900e+05 -2.453125e+05 -1.085205e+05
-3.528142e+05 -2.690229e+05 -1.010561e+05
-3.655259e+05 -2.504799e+05 -1.321877e+05
-3.281913e+05 -2.558759e+05 -9.675740e+04
-2.719249e+05 -8.695652e+04 -1.600000e+05
-2.395442e+05 -6.956522e+04 -1.600000e+05
-2.545568e+05 -6.121680e+04 -1.402276e+05
-2.806203e+05 -6.893915e+04 -1.426109e+05
-2.356282e+05 -6.666667e+04 -1.200000e+05
-2.205744e+05 -7.462390e+04 -1.390381e+05
-3.641955e+05 3.144023e+05 -1.045214e+05
-3.505277e+05 4.000000e+05 -8.131819e+04
-2.678710e+05 -1.500000e+05 -1.200000e+05
-2.864875e+05 -1.420901e+05 -1.398766e+05
-3.736317e+05 3.752376e+05 -7.414284e+04
1.560388e+05 3.353157e+05 -8.697388e+04
1.567363e+05 3.526897e+05 -7.130788e+04
1.810827e+05 3.562413e+05 -7.442492e+04
2.151724e+05 3.534301e+05 -7.338357e+04
1.544275e+05 3.803119e+05 -8.317155e+04
1.883870e+05 3.812793e+05 -8.508411e+04
6.424145e+04 3.203384e+05 -9.496082e+04
1.012261e+05 3.342194e+05 -7.071452e+04
8.331894e+04 3.000000e+05 -8.329321e+04
4.998496e+04 3.000000e+05 -8.329322e+04
3.284538e+05 9.540126e+04 -7.951105e+04
3.312606e+05 1.065653e+05 -1.074623e+05
3.683934e+05 1.070655e+05 -8.969836e+04
3.495344e+05 7.879828e+04 -9.365725e+04
3.268468e+05 7.557056e+04 -1.120410e+05
3.251911e+05 5.884781e+04 -8.121688e+04
-3.150076e+05 2.685035e+05 -1.383322e+05
-3.373715e+05 2.794638e+05 -1.402213e+05
-3.217391e+05 3.010418e+05 -1.414765e+05
-3.606130e+05 2.925556e+05 -1.381030e+05
-3.378862e+05 2.955357e+05 -1.600000e+05
-3.039601e+05 2.776001e+05 -1.600000e+05
-2.356282e+05 -1.000000e+05 -1.200000e+05
-3.000000e+05 3.000000e+05 -1.200000e+05
-2.869159e+05 2.821512e+05 -1.431206e+05
-3.392425e+05 2.756614e+05 -1.100435e+05
-3.478261e+04 -3.041301e+05 -1.600000e+05
-1.739130e+04 -2.719249e+05 -1.600000e+05
-5.217391e+04 -2.719249e+05 -1.600000e+05
-3.458760e+04 -2.823612e+05 -1.390763e+05
-3.374152e+05 -2.996575e+05 -1.089555e+05
-3.390939e+05 -3.357408e+05 -8.788030e+04
-3.361962e+05 -3.320952e+05 -1.214115e+05
-3.161102e+05 -3.216845e+05 -1.091760e+05
-3.375180e+05 -3.134151e+05 -1.369899e+05
-3.191132e+05 -2.917448e+05 -1.381858e+05
-2.966676e+05 -3.414558e+05 -1.151813e+05
-3.131701e+05 -3.251804e+05 -1.377263e+05
-3.174039e+05 -3.490882e+05 -1.037990e+05
2.356282e+05 -1.000000e+05 -1.200000e+05
2.032595e+05 -8.333333e+04 -1.200000e+05
2.221334e+05 -7.262533e+04 -1.398798e+05
2.227094e+05 -1.113932e+05 -1.400164e+05
2.539370e+05 -9.562638e+04 -1.406147e+05
2.538217e+05 -1.278023e+05 -1.398248e+05
1.733548e+05 3.288862e+05 -1.137218e+05
1.565192e+05 3.583084e+05 -1.384334e+05
1.888874e+05 3.593239e+05 -1.332406e+05
1.648905e+05 3.216430e+05 -1.374607e+05
2.395442e+05 -1.043478e+05 -1.600000e+05
2.068996e+05 -8.695652e+04 -1.600000e+05
-1.217391e+05 -2.719249e+05 -1.600000e+05
-1.043478e+05 -2.395442e+05 -1.600000e+05
-1.391304e+05 -2.395442e+05 -1.600000e+05
-1.278392e+05 -2.537650e+05 -1.398856e+05
-2.777065e+05 3.807590e+05 -9.879603e+04
2.107502e+05 -3.319772e+05 -1.137426e+05
2.253359e+05 -3.662599e+05 -1.359941e+05
1.919526e+05 -3.649458e+05 -1.375296e+05
2.099710e+05 -3.402652e+05 -1.406117e+05
2.086957e+05 -3.681566e+05 -1.600000e+05
2.260870e+05 -3.362016e+05 -1.600000e+05
1.913043e+05 -3.362016e+05 -1.600000e+05
2.086957e+05 -3.041301e+05 -1.600000e+05
1.913773e+05 -3.146025e+05 -1.372478e+05
1.758953e+05 -3.362413e+05 -1.422051e+05
-3.688221e+05 -3.500681e+05 -1.600000e+05
-3.352637e+05 -3.322868e+05 -1.600000e+05
-3.681566e+05 -3.130435e+05 -1.600000e+05
-3.531038e+05 -3.280164e+05 -1.355506e+05
-3.690868e+05 -2.980250e+05 -1.048797e+05
-3.681586e+05 -2.703892e+05 -1.228333e+05
-3.810868e+05 -2.773860e+05 -9.418688e+04
-4.000000e+05 -2.782176e+05 -1.283450e+05
-4.000000e+05 -2.607573e+05 -9.928420e+04
3.243565e+05 4.000000e+05 -1.049219e+05
3.168388e+05 3.640166e+05 -1.106362e+05
3.223848e+05 3.735116e+05 -8.948123e+04
2.976563e+05 3.816830e+05 -1.190021e+05
2.956522e+05 4.000000e+05 -1.600000e+05
2.782143e+05 4.000000e+05 -1.283436e+05
3.130435e+05 3.681566e+05 -1.600000e+05
3.125173e+05 4.000000e+05 -1.301628e+05
3.228441e+05 3.629638e+05 -1.417137e+05
2.946250e+05 4.000000e+05 -9.901240e+04
2.981007e+05 3.722054e+05 -8.022206e+04
-1.310588e+05 3.346299e+05 -1.184881e+05
-1.033174e+05 3.264889e+05 -1.380827e+05
-1.159509e+05 3.505871e+05 -1.406853e+05
-1.076911e+05 3.599592e+05 -1.194173e+05
-8.901169e+04 3.598959e+05 -1.368890e+05
-9.838853e+04 3.347370e+05 -1.010503e+05
-8.234433e+04 3.620925e+05 -1.069407e+05
-1.156819e+05 3.805415e+05 -1.260112e+05
-1.081346e+05 3.700923e+05 -9.911058e+04
2.678710e+05 -8.333333e+04 -1.200000e+05
2.617463e+05 -6.311778e+04 -1.426845e+05
2.846123e+05 -7.326232e+04 -1.400928e+05
2.719249e+05 -8.695652e+04 -1.600000e+05
2.395442e+05 -6.956522e+04 -1.600000e+05
2.356282e+05 -6.666667e+04 -1.200000e+05
4.000000e+05 3.505277e+05 -8.131819e+04
3.520548e+05 3.556714e+05 -8.866634e+04
3.740941e+05 3.748935e+05 -7.668317e+04
3.693491e+05 3.527386e+05 -1.129123e+05
4.000000e+05 3.680273e+05 -1.051488e+05
3.680197e+05 4.000000e+05 -1.051716e+05
3.717219e+05 3.765005e+05 -1.334576e+05
3.414481e+05 3.423780e+05 -1.261565e+05
3.481801e+05 3.766901e+05 -1.126761e+05
-6.956522e+04 -3.041301e+05 -1.600000e+05
3.557328e+05 3.331286e+05 -1.369775e+05
4.000000e+05 3.502330e+05 -1.288831e+05
3.781815e+05 3.297676e+05 -1.306815e+05
4.000000e+05 3.243637e+05 -1.049024e+05
4.211759e+04 3.379552e+05 -1.083247e+05
3.885047e+04 3.709111e+05 -1.075086e+05
1.000000e+05 3.000000e+05 -1.200000e+05
6.666667e+04 3.000000e+05 -1.200000e+05
3.333333e+04 3.000000e+05 -1.200000e+05
3.000000e+05 -2.666667e+05 -1.200000e+05
3.187951e+05 -2.631824e+05 -1.378062e+05
3.000000e+05 -2.333333e+05 -1.200000e+05
3.174011e+05 -2.245365e+05 -1.354943e+05
3.281649e+05 -2.459964e+05 -1.122478e+05
3.035370e+05 -2.439911e+05 -1.600000e+05
-3.332165e+05 -3.553967e+05 -1.359642e+05
-3.346540e+05 -3.782093e+05 -1.238793e+05
2.874458e+05 -2.497647e+05 -1.391840e+05
3.039911e+05 -2.775321e+05 -1.600000e+05
-2.719249e+05 1.739130e+04 -1.600000e+05
-2.826753e+05 3.503674e+04 -1.391989e+05
-3.041301e+05 3.478261e+04 -1.600000e+05
-3.115436e+05 1.840331e+04 -1.389328e+05
-3.000000e+05 -5.093170e-11 -1.200000e+05
-2.746089e+05 1.050338e+03 -1.416863e+05
-3.000000e+05 3.333333e+04 -1.200000e+05
-3.331446e+05 4.073741e+04 -1.113941e+05
-3.164404e+05 5.087217e+04 -1.381715e+05
-3.000000e+05 -3.333333e+04 -1.200000e+05
-3.000000e+05 -6.666667e+04 -1.200000e+05
-3.317892e+05 -4.353548e+04 -1.081199e+05
-3.166340e+05 -4.326699e+04 -1.401997e+05
-3.362016e+05 1.739130e+04 -1.600000e+05
-3.225524e+05 -5.986571e+03 -1.383427e+05
-3.235132e+05 1.000651e+03 -1.113586e+05
-2.960438e+05 -3.361295e+05 -1.600000e+05
-2.943995e+05 -3.606180e+05 -1.382537e+05
1.333333e+05 2.356282e+05 -1.200000e+05
1.105039e+05 2.212296e+05 -1.398069e+05
1.249245e+05 2.521534e+05 -1.392766e+05
1.455348e+05 2.214541e+05 -1.397987e+05
1.166667e+05 2.032595e+05 -1.200000e+05
1.284076e+05 1.879654e+05 -1.398200e+05
1.524480e+05 2.027703e+05 -1.200000e+05
1.640963e+05 1.880196e+05 -1.396027e+05
-3.537655e+05 1.207186e+05 -6.836610e+04
-3.346748e+05 1.515852e+05 -9.071502e+04
-3.676691e+05 1.147419e+05 -1.059898e+05
-3.111299e+05 -3.056411e+05 -1.600000e+05
-3.598764e+05 -2.936677e+05 -1.353525e+05
-3.585840e+05 -3.203424e+05 -1.052444e+05
-3.378229e+05 -2.953198e+05 -1.600000e+05
3.663238e+05 2.538164e+05 -1.024527e+05
3.834123e+05 2.783705e+05 -1.007247e+05
3.627054e+05 2.737281e+05 -1.260407e+05
3.507880e+05 2.761448e+05 -9.823604e+04
3.311965e+05 2.714751e+05 -8.365962e+04
3.572057e+05 2.651780e+05 -7.002368e+04
3.475544e+05 2.958076e+05 -7.827046e+04
3.375563e+05 2.436990e+05 -1.153693e+05
3.299643e+05 2.758340e+05 -1.238268e+05
-1.665413e+04 -3.000000e+05 -8.329317e+04
-4.998587e+04 -3.000000e+05 -8.329321e+04
-2.601966e+04 -3.285836e+05 -9.877344e+04
-3.446698e+04 -3.299068e+05 -6.924722e+04
4.000000e+05 1.217391e+05 -1.600000e+05
3.681566e+05 1.391304e+05 -1.600000e+05
3.681566e+05 1.043478e+05 -1.600000e+05
3.580602e+05 1.217777e+05 -1.396667e+05
2.783777e+05 4.000000e+05 -7.878626e+04
-5.052546e+04 -3.309674e+05 -9.183418e+04
-5.620160e+04 -3.540753e+05 -7.670382e+04
-2.046762e+04 -3.643808e+05 -7.496459e+04
-7.037346e+04 -3.324822e+05 -7.062181e+04
1.376571e+05 -4.000000e+05 -8.037280e+04
1.505493e+05 -3.783686e+05 -1.138928e+05
1.736685e+05 -4.000000e+05 -7.888604e+04
3.140961e+05 4.000000e+05 -7.845318e+04
3.505272e+05 4.000000e+05 -8.132527e+04
3.362016e+05 -5.217391e+04 -1.600000e+05
3.195942e+05 -4.482227e+04 -1.387418e+05
3.041301e+05 -6.956522e+04 -1.600000e+05
3.205782e+05 -7.539281e+04 -1.380867e+05
3.362016e+05 -8.695652e+04 -1.600000e+05
3.041301e+05 -1.043478e+05 -1.600000e+05
3.187811e+05 -1.148330e+05 -1.402316e+05
1.000000e+05 1.707417e+05 -1.200000e+05
9.189960e+04 1.865961e+05 -1.389566e+05
1.148768e+05 1.546255e+05 -1.368822e+05
7.743013e+04 1.563114e+05 -1.404688e+05
1.191100e+05 1.387995e+05 -1.200000e+05
1.345503e+05 1.346733e+05 -1.600000e+05
9.742559e+04 1.230477e+05 -1.389992e+05
8.355784e+04 1.378368e+05 -1.200000e+05
-1.217391e+05 -3.362016e+05 -1.600000e+05
-1.323012e+05 -3.213508e+05 -1.369109e+05
-1.219594e+05 -3.578387e+05 -1.391762e+05
-1.028335e+05 -3.286354e+05 -1.382524e+05
1.735595e+05 -3.321052e+05 -1.101129e+05
1.570338e+05 -3.595204e+05 -1.384536e+05
-1.043478e+05 -3.681566e+05 -1.600000e+05
-8.696670e+04 -3.577645e+05 -1.389717e+05
-8.695652e+04 -3.362016e+05 -1.600000e+05
-1.000000e+05 -3.000000e+05 -1.200000e+05
-7.102973e+04 -3.338262e+05 -1.175129e+05
-1.075014e+05 -3.345156e+05 -1.128419e+05
-2.980316e+05 -3.667055e+05 -7.945175e+04
-3.080349e+05 -3.329330e+05 -8.003112e+04
-3.298635e+05 -3.788338e+05 -8.740268e+04
-2.666667e+05 -3.000000e+05 -1.200000e+05
-2.380634e+05 -3.390141e+05 -1.159522e+05
-2.525080e+05 -3.272850e+05 -9.706860e+04
-2.732143e+05 -3.316515e+05 -1.339710e+05
-8.333333e+04 -2.678710e+05 -1.200000e+05
-6.666667e+04 -2.356282e+05 -1.200000e+05
-5.000000e+04 -2.678710e+05 -1.200000e+05
-5.968996e+04 -2.540483e+05 -1.396370e+05
-1.716409e+05 3.337521e+05 -1.214094e+05
-1.363782e+05 3.308092e+05 -9.306128e+04
-1.828968e+05 3.262214e+05 -1.015700e+05
-1.576742e+05 3.140296e+05 -1.055110e+05
-1.666667e+05 3.000000e+05 -1.200000e+05
-1.833845e+05 3.000000e+05 -8.611600e+04
-1.583106e+05 3.162124e+05 -1.365351e+05
-1.333333e+05 3.000000e+05 -1.200000e+05
-1.500133e+05 3.000000e+05 -8.610009e+04
-1.166259e+05 3.000000e+05 -8.611795e+04
-1.607208e+05 3.195410e+05 -7.059258e+04
-1.043478e+05 4.000000e+05 -8.191444e+04
-8.674306e+04 4.000000e+05 -1.107005e+05
-7.412110e+04 3.810288e+05 -9.527988e+04
-6.817304e+04 4.000000e+05 -1.298395e+05
-5.785271e+04 3.651033e+05 -1.080486e+05
-8.567813e+04 3.647594e+05 -7.452096e+04
-4.520918e+04 3.802174e+05 -8.234298e+04
-6.743501e+04 3.380905e+05 -7.434805e+04
2.028206e+05 1.522475e+05 -1.200000e+05
1.884981e+05 1.646624e+05 -1.402555e+05
2.192335e+05 1.842154e+05 -1.400994e+05
2.213393e+05 1.455647e+05 -1.397752e+05
-3.000000e+05 2.000000e+05 -1.200000e+05
-3.000000e+05 2.333333e+05 -1.200000e+05
-2.678710e+05 2.166667e+05 -1.200000e+05
-2.864836e+05 2.144109e+05 -1.394916e+05
2.385113e+05 1.749207e+05 -1.600000e+05
2.067812e+05 1.581076e+05 -1.600000e+05
2.395442e+05 1.391304e+05 -1.600000e+05
2.539874e+05 1.628911e+05 -1.412055e+05
2.537575e+05 1.278292e+05 -1.398854e+05
-1.742320e+04 -4.000000e+05 -9.927559e+04
-1.285938e+04 -3.767857e+05 -1.123095e+05
-4.439346e+04 -3.652336e+05 -1.055155e+05
-2.655909e+01 -4.000000e+05 -7.886343e+04
1.836252e+04 -3.744702e+05 -7.759073e+04
-1.508940e+02 -3.462602e+05 -7.467556e+04
7.517284e+04 3.218108e+05 -1.388949e+05
8.695813e+04 3.654841e+05 -1.389329e+05
1.043478e+05 3.041301e+05 -1.600000e+05
1.298632e+05 3.231402e+05 -1.362837e+05
1.226725e+05 3.589361e+05 -1.391477e+05
4.000000e+05 -3.140961e+05 -7.845318e+04
4.000000e+05 -2.946250e+05 -9.901240e+04
3.772990e+05 -2.957310e+05 -7.444332e+04
-1.391304e+05 -3.041301e+05 -1.600000e+05
-1.096302e+05 -2.853313e+05 -1.399615e+05
-1.428026e+05 -2.846639e+05 -1.405595e+05
-1.739130e+05 -3.041301e+05 -1.600000e+05
-1.753409e+05 -2.855523e+05 -1.397875e+05
-1.687652e+05 -3.223244e+05 -1.386850e+05
-1.565217e+05 -2.719249e+05 -1.600000e+05
-2.921385e+05 -3.776993e+05 -1.132375e+05
-3.349663e+05 -3.545696e+05 -7.381739e+04
-3.000000e+05 -3.000000e+05 -8.477016e+04
-3.000000e+05 -3.000000e+05 -1.200000e+05
-3.350914e+05 -3.113411e+05 -7.767101e+04
-6.666667e+04 -3.000000e+05 -1.200000e+05
-8.263961e+04 -2.887334e+05 -1.409726e+05
-3.000000e+05 4.827948e+04 -8.600299e+04
-4.000000e+05 -3.304348e+05 -1.600000e+05
-4.000000e+05 -3.126723e+05 -1.301611e+05
1.276533e+05 3.317978e+05 -9.054769e+04
1.201649e+05 3.547008e+05 -7.278313e+04
-1.974795e+04 7.152023e+04 -1.600000e+05
-4.139530e+04 4.128208e+04 -1.600000e+05
1.719833e+00 3.550959e+04 -1.600000e+05
-2.041869e+04 2.404160e+04 -1.392927e+05
1.864017e+05 -3.554915e+05 -7.296123e+04
1.818916e+05 -3.723680e+05 -1.119353e+05
1.897408e+05 -3.340808e+05 -9.120013e+04
-3.628343e+04 3.384427e+04 -1.200000e+05
-5.689482e+04 1.386405e+03 -1.384230e+05
-1.918886e+05 3.605326e+05 -1.391807e+05
-1.524495e+05 3.608869e+05 -1.371731e+05
-1.801864e+05 3.349747e+05 -1.414757e+05
-2.108018e+05 3.389507e+05 -1.391972e+05
-1.918535e+05 3.147595e+05 -1.383976e+05
-1.739130e+05 3.041301e+05 -1.600000e+05
-1.565217e+05 3.362016e+05 -1.600000e+05
-1.913043e+05 3.362016e+05 -1.600000e+05
-3.278399e+05 -2.121816e+05 -1.113336e+05
-3.709837e+05 -2.169516e+05 -1.110218e+05
-3.641512e+05 -1.921080e+05 -1.375465e+05
-3.637814e+05 -2.250183e+05 -1.392971e+05
-3.368361e+05 -2.112062e+05 -1.426227e+05
-3.362016e+05 -1.913043e+05 -1.600000e+05
-3.041301e+05 -2.086957e+05 -1.600000e+05
-3.122589e+05 -1.934281e+05 -1.378339e+05
-3.681566e+05 -2.086957e+05 -1.600000e+05
-3.362016e+05 -2.260870e+05 -1.600000e+05
-3.216090e+05 -2.360331e+05 -1.388418e+05
4.000000e+05 2.782176e+05 -1.283450e+05
3.681566e+05 2.782609e+05 -1.600000e+05
4.000000e+05 2.608696e+05 -1.600000e+05
3.615793e+05 2.543116e+05 -1.354206e+05
3.595792e+05 2.269444e+05 -1.404645e+05
3.192117e+05 2.314231e+05 -1.377077e+05
3.362016e+05 2.608696e+05 -1.600000e+05
4.000000e+05 2.434783e+05 -1.280850e+05
3.684242e+05 2.112036e+05 -1.034806e+05
2.945753e+05 -3.749979e+05 -7.076551e+04
2.535295e+05 -3.539661e+05 -7.449091e+04
5.093170e-11 -3.000000e+05 -1.200000e+05
-9.558458e+03 -3.202974e+05 -1.417715e+05
-3.333333e+04 -3.000000e+05 -1.200000e+05
-1.747847e+03 -2.773050e+05 -1.408560e+05
2.480015e+05 -3.298654e+05 -1.116346e+05
-3.362016e+05 -2.608696e+05 -1.600000e+05
-3.303797e+05 -2.719198e+05 -1.208055e+05
-3.000000e+05 -2.666667e+05 -1.200000e+05
-3.039924e+05 -2.775377e+05 -1.600000e+05
-1.739130e+04 -3.362016e+05 -1.600000e+05
0.000000e+00 -3.041301e+05 -1.600000e+05
-2.653768e+05 -3.503116e+05 -7.424369e+04
-2.796190e+05 -3.465122e+05 -9.847872e+04
-2.646309e+05 -3.801076e+05 -8.429266e+04
3.264927e+05 3.106662e+05 -7.147641e+04
-2.608696e+05 4.000000e+05 -1.600000e+05
-2.573185e+05 3.591953e+05 -1.390177e+05
-2.608696e+05 3.362016e+05 -1.600000e+05
-2.434783e+05 4.000000e+05 -1.280850e+05
-2.254511e+05 3.593125e+05 -1.394184e+05
-1.780435e+05 2.852227e+05 -1.402487e+05
-1.438359e+05 2.872969e+05 -1.392458e+05
-2.402394e+05 3.301397e+05 -1.150553e+05
-2.321313e+05 3.177895e+05 -1.390789e+05
-2.497951e+05 3.700954e+05 -1.060583e+05
3.734041e+05 2.954327e+05 -7.957092e+04
3.818622e+05 2.596809e+05 -8.474575e+04
3.524395e+05 2.334063e+05 -7.158576e+04
-2.345509e+05 3.279415e+05 -8.705571e+04
-2.007966e+05 3.334146e+05 -7.267083e+04
-1.777549e+05 3.452988e+05 -7.814795e+04
1.738834e+05 4.000000e+05 -7.886346e+04
1.913303e+05 4.000000e+05 -9.927549e+04
2.086686e+05 4.000000e+05 -7.886305e+04
3.613133e+04 3.374353e+04 -1.200000e+05
-8.228082e+02 6.139230e+02 -1.200000e+05
-1.150141e+02 3.761993e+04 -1.200000e+05
1.717829e+04 1.544615e+04 -1.382692e+05
-1.873328e+05 3.797412e+05 -8.073100e+04
-2.243532e+05 3.720768e+05 -8.205252e+04
1.980828e+05 1.978631e+05 -1.200000e+05
2.356494e+05 1.999895e+05 -1.200000e+05
2.197115e+05 2.153108e+05 -1.422331e+05
2.719263e+05 2.275942e+05 -1.600000e+05
2.416112e+05 2.453977e+05 -1.600000e+05
2.389676e+05 2.100898e+05 -1.600000e+05
2.559241e+05 2.327629e+05 -1.421881e+05
4.000000e+05 -3.652174e+05 -1.600000e+05
4.000000e+05 -3.501965e+05 -1.288965e+05
3.688242e+05 -3.500640e+05 -1.600000e+05
3.720518e+05 -3.727925e+05 -1.335208e+05
4.000000e+05 -3.304348e+05 -1.600000e+05
3.000000e+05 2.000000e+05 -1.200000e+05
2.678710e+05 2.166667e+05 -1.200000e+05
3.000000e+05 2.333333e+05 -1.200000e+05
2.867049e+05 2.156084e+05 -1.410928e+05
4.000000e+05 -3.680197e+05 -1.051716e+05
3.530879e+05 -3.756700e+05 -1.034588e+05
3.612436e+05 -3.533516e+05 -1.210941e+05
3.773665e+05 -3.503606e+05 -1.020402e+05
3.306276e+05 -3.780997e+05 -1.243609e+05
3.290626e+05 -3.556762e+05 -1.049495e+05
-3.392450e+05 3.035376e+05 -8.223835e+04
3.567390e+05 -3.574374e+05 -8.824109e+04
3.372237e+05 -3.538885e+05 -1.380366e+05
3.242329e+05 -3.787698e+05 -8.814652e+04
3.000000e+05 2.666667e+05 -1.200000e+05
2.693404e+05 2.487109e+05 -1.200000e+05
2.825941e+05 2.455001e+05 -1.402185e+05
3.502330e+05 -4.000000e+05 -1.288831e+05
3.243637e+05 -4.000000e+05 -1.049024e+05
-2.782143e+05 -4.000000e+05 -1.283436e+05
-2.689351e+05 -3.665866e+05 -1.303293e+05
-2.782609e+05 -3.681566e+05 -1.600000e+05
3.701569e+05 -1.499576e+05 -1.071851e+05
3.712729e+05 -1.564690e+05 -7.365265e+04
3.812158e+05 -1.175201e+05 -8.574524e+04
3.518041e+05 -1.372469e+05 -7.658151e+04
4.000000e+05 -1.391011e+05 -7.886349e+04
4.000000e+05 -1.565486e+05 -9.927571e+04
4.000000e+05 -1.738834e+05 -7.886346e+04
4.000000e+05 1.043478e+05 -8.191444e+04
3.599563e+05 1.229469e+05 -7.187138e+04
3.796621e+05 1.291761e+05 -9.724331e+04
4.000000e+05 1.405259e+05 -1.298366e+05
3.630001e+05 1.527620e+05 -1.075445e+05
3.650671e+05 1.241458e+05 -1.196061e+05
3.817257e+05 9.959551e+04 -1.183402e+05
-1.739130e+05 -3.681566e+05 -1.600000e+05
-1.391304e+05 -3.681566e+05 -1.600000e+05
-1.565217e+05 -3.362016e+05 -1.600000e+05
-1.565724e+05 -3.582596e+05 -1.389664e+05
4.997838e+04 -3.000000e+05 -8.327081e+04
8.330193e+04 -3.000000e+05 -8.602101e+04
4.000000e+05 -2.782143e+05 -1.283436e+05
4.000000e+05 -2.607512e+05 -9.928644e+04
-3.330944e+05 -5.811203e+04 -7.013833e+04
-3.566494e+05 -5.882095e+04 -9.313549e+04
-3.621342e+05 -5.308939e+04 -6.573692e+04
-3.512932e+05 -3.568439e+04 -7.561349e+04
-3.804443e+05 -2.254032e+04 -8.647785e+04
-3.527094e+05 -1.444827e+04 -7.525729e+04
-3.647532e+05 -1.446970e+04 -1.138606e+05
-3.283372e+05 -2.220295e+04 -8.436945e+04
-3.253079e+05 7.743906e+04 -1.082848e+05
-1.499856e+05 -3.000000e+05 -8.329321e+04
-1.666667e+05 -3.000000e+05 -1.200000e+05
-1.333333e+05 -3.000000e+05 -1.200000e+05
-1.413289e+05 -3.345082e+05 -1.128397e+05
-3.807833e+05 5.663550e+04 -8.181605e+04
-3.531516e+05 3.149645e+04 -7.529187e+04
-3.000000e+05 3.000000e+05 -8.477016e+04
1.833847e+05 -3.000000e+05 -8.611600e+04
2.167935e+05 -3.000000e+05 -8.327929e+04
2.013859e+05 -3.314688e+05 -7.187453e+04
2.149990e+05 -3.698566e+05 -7.942937e+04
2.252703e+05 -3.319500e+05 -8.947278e+04
-3.755072e+05 1.384237e+04 -1.111884e+05
-3.743001e+05 4.483425e+04 -1.076687e+05
-3.798422e+05 2.253095e+04 -8.302009e+04
-3.685140e+05 1.825946e+05 -1.040933e+05
-3.652989e+05 2.167926e+05 -1.064876e+05
3.000000e+05 1.221674e+05 -8.290755e+04
3.419195e+05 1.317315e+05 -8.549653e+04
3.504614e+05 1.624292e+05 -7.122406e+04
3.338430e+05 1.592798e+05 -8.684311e+04
3.321503e+05 1.741665e+05 -7.054219e+04
3.571403e+03 -3.289128e+05 -1.191748e+05
1.348909e+04 -3.581063e+05 -1.059720e+05
1.857755e+04 -3.591539e+05 -1.365791e+05
3.698998e+05 -7.845498e+04 -1.065093e+05
3.301609e+05 -5.607397e+04 -9.312087e+04
3.391335e+05 -6.414115e+04 -7.341201e+04
-9.262680e-02 -4.000000e+05 -1.280849e+05
-1.867420e+04 -3.604828e+05 -1.371614e+05
1.739130e+04 -3.362016e+05 -1.600000e+05
4.734478e+04 -3.263883e+05 -1.315701e+05
1.739130e+04 -4.000000e+05 -1.600000e+05
3.478261e+04 -3.681566e+05 -1.600000e+05
5.217391e+04 -3.362016e+05 -1.600000e+05
3.777484e+05 1.554158e+05 -8.343334e+04
3.314353e+05 1.379533e+05 -6.381337e+04
-1.739130e+05 -4.000000e+05 -1.280850e+05
-1.565217e+05 -4.000000e+05 -1.600000e+05
2.185949e+05 3.808745e+05 -8.742323e+04
2.405982e+05 3.573470e+05 -7.851404e+04
1.807815e+05 3.681710e+05 -1.060398e+05
1.967358e+05 3.330771e+05 -9.185727e+04
2.322623e+05 3.303577e+05 -8.798371e+04
-3.800010e+05 -2.197636e+05 -8.451470e+04
-3.807599e+05 -1.868193e+05 -8.248717e+04
-3.250220e+05 -2.264749e+05 -7.642614e+04
-3.613953e+05 -3.285711e+05 -7.159529e+04
-1.913043e+05 -4.000000e+05 -1.600000e+05
-2.086957e+05 -3.681566e+05 -1.600000e+05
-2.086956e+05 -4.000000e+05 -1.280850e+05
-1.911201e+05 -3.581054e+05 -1.392859e+05
-3.186071e+05 -1.367069e+04 -6.821624e+04
-3.806984e+05 -5.254013e+04 -8.493002e+04
-2.560307e+05 3.803455e+05 -8.491938e+04
-2.540811e+05 3.542355e+05 -7.320200e+04
4.000000e+05 2.782569e+05 -7.878860e+04
4.000000e+05 2.945883e+05 -9.902611e+04
3.641509e+05 3.014011e+05 -1.013311e+05
-3.799949e+05 2.556599e+05 -8.617868e+04
-3.035270e+05 2.439898e+05 -1.600000e+05
-3.147747e+05 2.276227e+05 -1.373035e+05
-2.868194e+05 2.483705e+05 -1.395354e+05
-3.720957e+05 2.880321e+05 -1.082954e+05
-3.256101e+05 2.766196e+05 -8.595918e+04
-3.801414e+05 2.897876e+05 -8.588792e+04
-2.482022e+05 -3.644393e+05 -1.007522e+05
-2.371113e+05 -3.479198e+05 -7.625771e+04
3.000000e+05 1.544053e+05 -8.291246e+04
3.000000e+05 1.867109e+05 -8.289146e+04
3.372006e+05 1.904478e+05 -8.839521e+04
3.362016e+05 1.913043e+05 -1.600000e+05
3.041301e+05 2.086957e+05 -1.600000e+05
3.144794e+05 1.939724e+05 -1.372360e+05
3.374297e+05 2.110565e+05 -1.399472e+05
-2.223964e+05 -3.326085e+05 -7.982793e+04
-1.940502e+05 -3.284717e+05 -9.264115e+04
3.360417e+05 2.133856e+05 -1.128137e+05
3.567371e+05 1.898037e+05 -1.356233e+05
3.316821e+05 1.790909e+05 -1.132637e+05
1.561033e+05 -4.000000e+05 -9.947019e+04
3.674103e+05 8.184101e+04 -1.133854e+05
3.000000e+05 9.019610e+04 -8.367325e+04
3.796634e+05 8.493709e+04 -8.924391e+04
3.544459e+05 8.850666e+04 -7.303195e+04
-3.321149e+05 1.765425e+05 -1.121468e+05
-3.285405e+05 1.422019e+05 -1.088791e+05
-3.635779e+05 1.565257e+05 -1.389968e+05
-3.382300e+05 1.765375e+05 -1.395562e+05
-3.153701e+05 1.573725e+05 -1.389804e+05
-3.362016e+05 1.913043e+05 -1.600000e+05
-3.136701e+05 1.929041e+05 -1.359026e+05
-3.378401e+05 2.141979e+05 -1.399409e+05
-3.041301e+05 1.739130e+05 -1.600000e+05
-3.681566e+05 1.739130e+05 -1.600000e+05
-3.362016e+05 1.565217e+05 -1.600000e+05
-3.655951e+05 1.913079e+05 -1.389902e+05
-3.332617e+05 2.117734e+05 -1.171837e+05
-3.362016e+05 2.260870e+05 -1.600000e+05
-3.348053e+05 2.456459e+05 -1.381640e+05
-3.636036e+05 2.271663e+05 -1.342656e+05
-3.041301e+05 2.086957e+05 -1.600000e+05
-3.681566e+05 2.086957e+05 -1.600000e+05
2.440764e+05 -3.035382e+05 -1.600000e+05
2.672438e+05 -3.204977e+05 -1.341813e+05
2.272569e+05 -3.142109e+05 -1.356556e+05
2.403630e+05 -3.379403e+05 -1.424917e+05
2.434783e+05 -3.681566e+05 -1.600000e+05
-2.271030e+05 -3.567118e+05 -1.381191e+05
-4.000000e+05 2.434889e+05 -7.885642e+04
-3.481145e+04 -4.000000e+05 -7.886354e+04
-4.905633e+04 -3.792642e+05 -8.186303e+04
5.255098e+04 -4.000000e+05 -9.946212e+04
7.828015e+04 -3.193245e+05 -1.379402e+05
-1.043478e+05 -3.041301e+05 -1.600000e+05
-8.695652e+04 -2.719249e+05 -1.600000e+05
-7.852416e+04 -3.185053e+05 -1.394390e+05
3.608726e+05 -2.509947e+05 -1.338818e+05
4.000000e+05 -2.434775e+05 -1.283328e+05
3.681566e+05 -2.782609e+05 -1.600000e+05
3.362016e+05 -2.608696e+05 -1.600000e+05
4.000000e+05 -2.608696e+05 -1.600000e+05
2.260870e+05 3.362016e+05 -1.600000e+05
2.264256e+05 3.693631e+05 -1.346486e+05
2.093199e+05 3.410775e+05 -1.392640e+05
1.913043e+05 3.362016e+05 -1.600000e+05
2.086957e+05 3.681566e+05 -1.600000e+05
2.087768e+05 3.349291e+05 -1.173473e+05
1.914067e+05 3.150556e+05 -1.393012e+05
-1.391304e+05 3.041301e+05 -1.600000e+05
-3.725208e+05 -2.926186e+05 -7.448070e+04
-3.276406e+05 -2.753324e+05 -8.864053e+04
1.218925e+05 -4.000000e+05 -1.107028e+05
2.523107e+05 3.752911e+05 -1.098327e+05
2.151583e+05 3.733888e+05 -1.111979e+05
2.710273e+05 3.483111e+05 -7.455573e+04
2.602928e+05 3.328770e+05 -9.201210e+04
2.434889e+05 4.000000e+05 -7.885642e+04
3.041301e+05 -1.391304e+05 -1.600000e+05
3.285626e+05 -1.386144e+05 -1.385286e+05
3.000000e+05 -1.333333e+05 -1.200000e+05
3.344910e+05 -1.076509e+05 -1.158159e+05
3.607714e+05 -1.220629e+05 -1.382294e+05
-8.398695e+04 -3.552910e+05 -7.376573e+04
-1.196694e+05 -3.558357e+05 -7.237163e+04
-1.004207e+05 -3.278855e+05 -7.078945e+04
-1.211130e+05 -3.326504e+05 -9.003026e+04
-1.344122e+05 -3.303435e+05 -7.154988e+04
2.068996e+05 -1.217391e+05 -1.600000e+05
2.395442e+05 -1.391304e+05 -1.600000e+05
-8.331903e+04 -3.000000e+05 -8.329321e+04
-1.166523e+05 -3.000000e+05 -8.329321e+04
-9.102901e+04 -3.325131e+05 -9.388667e+04
-1.043478e+05 -4.000000e+05 -1.280850e+05
-1.129357e+05 -3.697349e+05 -1.062010e+05
2.872055e+05 -2.142640e+05 -1.404425e+05
2.720042e+05 -2.275154e+05 -1.600000e+05
2.556359e+05 -2.340817e+05 -1.426909e+05
3.041301e+05 -2.086957e+05 -1.600000e+05
-4.000000e+05 -3.139008e+05 -7.844374e+04
-3.509195e+05 -2.609721e+05 -7.401554e+04
-3.813190e+05 -2.563488e+05 -8.587463e+04
-4.000000e+05 -2.782569e+05 -7.878860e+04
2.434783e+05 3.681566e+05 -1.600000e+05
2.440477e+05 3.035535e+05 -1.600000e+05
2.267664e+05 3.156164e+05 -1.373610e+05
2.461663e+05 3.349927e+05 -1.139968e+05
3.674401e+05 3.135020e+05 -1.600000e+05
3.688712e+05 3.466760e+05 -1.600000e+05
3.322610e+05 3.352834e+05 -1.600000e+05
-3.681566e+05 -2.782609e+05 -1.600000e+05
-4.000000e+05 -2.434783e+05 -1.280850e+05
4.000000e+05 1.043457e+05 -1.313395e+05
3.631617e+05 8.597303e+04 -1.381798e+05
4.000000e+05 6.817304e+04 -1.298395e+05
4.000000e+05 8.674306e+04 -1.107005e+05
4.000000e+05 1.218925e+05 -1.107028e+05
-3.681566e+05 -1.739130e+05 -1.600000e+05
-3.362016e+05 -1.565217e+05 -1.600000e+05
-3.615025e+05 -1.541096e+05 -1.344083e+05
-3.426345e+05 -1.764801e+05 -1.393196e+05
-3.041301e+05 -1.739130e+05 -1.600000e+05
3.500648e+05 3.688250e+05 -1.600000e+05
-3.762696e+05 -1.842764e+05 -1.069770e+05
1.592930e+05 -3.170377e+05 -1.370588e+05
4.000000e+05 3.652174e+05 -1.600000e+05
4.000000e+05 3.304348e+05 -1.600000e+05
1.739130e+05 -3.681566e+05 -1.600000e+05
1.739130e+05 -3.041301e+05 -1.600000e+05
3.813359e+05 -1.921984e+05 -8.591650e+04
3.518238e+05 -1.823870e+05 -7.378730e+04
3.275337e+05 -1.978429e+05 -9.180642e+04
3.301231e+05 -2.311287e+05 -9.065818e+04
3.319852e+05 -1.680413e+05 -8.908766e+04
-3.000000e+05 1.154838e+05 -8.613212e+04
-3.000000e+05 1.489662e+05 -8.618289e+04
-3.681566e+05 1.391304e+05 -1.600000e+05
-3.640511e+05 1.217448e+05 -1.389051e+05
-3.335266e+05 1.375064e+05 -1.382581e+05
-3.041301e+05 1.391304e+05 -1.600000e+05
-3.362016e+05 1.217391e+05 -1.600000e+05
-3.681566e+05 2.434783e+05 -1.600000e+05
-3.621672e+05 2.615433e+05 -1.319598e+05
-3.362016e+05 2.608696e+05 -1.600000e+05
3.602645e+05 3.256132e+05 -7.246930e+04
3.787377e+05 3.265297e+05 -8.835245e+04
4.000000e+05 2.607573e+05 -9.928420e+04
3.000000e+05 3.000000e+05 -8.447793e+04
3.341871e+05 2.985951e+05 -1.100538e+05
3.487469e+05 3.201884e+05 -1.127670e+05
3.071424e+05 3.320139e+05 -1.163308e+05
3.252252e+05 3.077831e+05 -1.391754e+05
3.726729e+04 -3.592433e+02 -1.200000e+05
3.560177e+04 7.008440e+01 -1.600000e+05
3.357161e+04 -3.612072e+04 -1.200000e+05
1.409406e+04 -1.647658e+04 -1.381960e+05
3.336773e+05 3.327663e+05 -8.981409e+04
3.580254e+05 2.935213e+05 -1.383093e+05
4.000000e+05 5.255098e+04 -9.946212e+04
4.000000e+05 3.126723e+05 -1.301611e+05
-1.913043e+05 4.000000e+05 -1.600000e+05
-2.086957e+05 4.000000e+05 -1.280849e+05
-2.086957e+05 3.681566e+05 -1.600000e+05
-3.681566e+05 2.782609e+05 -1.600000e+05
1.714284e+04 7.022933e+04 -1.200000e+05
1.990620e+04 7.150684e+04 -1.600000e+05
2.623744e+03 8.832498e+04 -1.361770e+05
4.424111e+04 9.214457e+04 -1.424314e+05
7.201007e+04 1.050251e+05 -1.600000e+05
6.318665e+04 1.247095e+05 -1.414214e+05
3.643424e+04 1.045196e+05 -1.600000e+05
6.872083e+04 1.014279e+05 -1.200000e+05
8.123891e+04 8.534062e+04 -1.437782e+05
4.972581e+04 7.148942e+04 -1.200000e+05
6.709380e+04 6.696860e+04 -1.600000e+05
4.144918e+04 4.128015e+04 -1.600000e+05
-1.010835e+05 3.452607e+05 -7.452781e+04
-1.302335e+05 3.522697e+05 -7.415265e+04
-1.562859e+05 3.798669e+05 -7.936875e+04
-1.376571e+05 4.000000e+05 -8.037280e+04
-1.360992e+05 3.727173e+05 -1.104573e+05
-1.565957e+05 3.639199e+05 -1.109133e+05
-1.167958e+05 3.170552e+05 -6.941762e+04
-1.542828e+05 3.558091e+05 -7.496121e+04
3.294722e+05 1.347730e+04 -7.919222e+04
-1.191143e+05 -1.387840e+05 -1.200000e+05
-1.504256e+05 -1.535374e+05 -1.446976e+05
-1.346052e+05 -1.346505e+05 -1.600000e+05
-1.138379e+05 -1.539101e+05 -1.367448e+05
4.000000e+05 3.490296e+04 -7.889057e+04
-2.608696e+05 -4.000000e+05 -1.600000e+05
-2.434775e+05 -4.000000e+05 -1.283328e+05
-2.513653e+05 -3.613926e+05 -1.340570e+05
-2.320877e+05 -3.218284e+05 -1.365489e+05
-2.169504e+05 -3.680216e+05 -1.085294e+05
3.294562e+05 -1.294828e+05 -9.248932e+04
3.427425e+05 -9.999228e+04 -7.363016e+04
3.317864e+05 -1.431540e+05 -1.138043e+05
-3.732696e+05 3.721106e+05 -1.335312e+05
-3.313354e+05 3.781646e+05 -1.305904e+05
-3.000000e+05 -2.127379e+05 -8.354694e+04
-3.000000e+05 -2.000000e+05 -1.200000e+05
-3.000000e+05 -2.333333e+05 -1.200000e+05
2.782569e+05 -4.000000e+05 -7.878860e+04
2.945883e+05 -4.000000e+05 -9.902611e+04
-4.000000e+05 3.680197e+05 -1.051716e+05
-3.502330e+05 4.000000e+05 -1.288831e+05
-3.243637e+05 4.000000e+05 -1.049024e+05
-3.680273e+05 4.000000e+05 -1.051488e+05
5.000000e+04 2.032595e+05 -1.200000e+05
1.918383e+04 1.844066e+05 -1.395384e+05
3.851222e+04 2.155621e+05 -1.399350e+05
6.060842e+04 1.912471e+05 -1.387547e+05
5.217391e+04 2.068996e+05 -1.600000e+05
3.478261e+04 1.738276e+05 -1.600000e+05
3.333333e+04 1.707417e+05 -1.200000e+05
3.526645e+04 1.527845e+05 -1.410405e+05
1.739649e+04 -4.000000e+05 -9.927617e+04
3.490296e+04 -4.000000e+05 -7.889057e+04
1.699525e+04 -3.298672e+05 -9.110564e+04
-4.000000e+05 5.220474e+04 -9.927827e+04
-4.000000e+05 8.698509e+04 -9.927827e+04
-1.833217e+05 -3.000000e+05 -8.329321e+04
-1.522631e+05 -3.345752e+05 -8.881210e+04
-2.173893e+05 -3.782194e+05 -8.048404e+04
-2.434889e+05 -4.000000e+05 -7.885642e+04
3.037851e+05 3.432561e+05 -8.382545e+04
2.649902e+05 3.812361e+05 -8.332056e+04
2.823837e+05 3.199858e+05 -8.015513e+04
-4.000000e+05 3.505272e+05 -8.132527e+04
-3.792876e+05 3.211276e+05 -8.433529e+04
-4.000000e+05 3.243565e+05 -1.049219e+05
-4.000000e+05 3.501965e+05 -1.288965e+05
-4.000000e+05 3.125173e+05 -1.301628e+05
3.000000e+05 6.666667e+04 -1.200000e+05
3.277061e+05 3.993311e+04 -1.078252e+05
3.169722e+05 4.668534e+04 -1.366023e+05
2.953182e+05 3.378247e+05 -1.600000e+05
3.056201e+05 3.263275e+05 -1.395467e+05
3.000000e+05 3.000000e+05 -1.200000e+05
-3.799314e+05 -1.218853e+05 -8.420446e+04
-4.000000e+05 -1.043478e+05 -8.191444e+04
-3.625630e+05 -8.745900e+04 -6.938972e+04
-3.508961e+05 -1.097921e+05 -7.383195e+04
-3.000000e+05 -2.498389e+05 -8.408605e+04
-2.782569e+05 4.000000e+05 -7.878860e+04
-2.945883e+05 4.000000e+05 -9.902611e+04
-2.782176e+05 4.000000e+05 -1.283450e+05
-2.607573e+05 4.000000e+05 -9.928420e+04
7.100429e+04 -4.000000e+05 -8.036529e+04
-4.000000e+05 2.783777e+05 -7.878626e+04
3.362016e+05 1.739130e+04 -1.600000e+05
3.041301e+05 3.478261e+04 -1.600000e+05
3.041301e+05 0.000000e+00 -1.600000e+05
3.081335e+05 1.698602e+04 -1.394488e+05
3.362016e+05 5.217391e+04 -1.600000e+05
4.000000e+05 -3.505272e+05 -8.132527e+04
4.000000e+05 -3.243565e+05 -1.049219e+05
3.734108e+05 -3.748598e+05 -8.616514e+04
3.505277e+05 -4.000000e+05 -8.131819e+04
3.680273e+05 -4.000000e+05 -1.051488e+05
3.271961e+05 -2.071098e+05 -1.086359e+05
3.285733e+05 -1.793684e+05 -1.133102e+05
4.000000e+05 -1.913043e+05 -1.600000e+05
4.000000e+05 -2.086956e+05 -1.280850e+05
4.000000e+05 -1.739130e+05 -1.280850e+05
-3.675725e+05 -7.864370e+04 -1.172375e+05
-3.813642e+05 -7.225619e+04 -9.727906e+04
-3.759738e+05 1.507309e+05 -1.124731e+05
-3.800065e+05 1.246116e+05 -8.340977e+04
-7.100429e+04 4.000000e+05 -8.036529e+04
4.000000e+05 -2.783777e+05 -7.878626e+04
-3.776203e+05 -4.369759e+04 -1.067110e+05
-4.000000e+05 -6.817304e+04 -1.298395e+05
-4.000000e+05 -8.674306e+04 -1.107005e+05
-3.681566e+05 -1.043478e+05 -1.600000e+05
-3.468183e+05 -7.693770e+04 -1.387174e+05
-3.681566e+05 -6.956522e+04 -1.600000e+05
3.334171e+05 3.511289e+05 -7.258117e+04
2.719249e+05 1.739130e+04 -1.600000e+05
1.666667e+04 -1.380126e+05 -1.200000e+05
-2.290452e+04 -1.269000e+05 -1.405071e+05
1.739130e+04 -1.402315e+05 -1.600000e+05
-8.548959e+01 -1.535099e+05 -1.399443e+05
2.164996e+05 -3.671897e+05 -1.042835e+05
-2.167935e+05 3.000000e+05 -8.327928e+04
1.912075e+05 -4.000000e+05 -9.927319e+04
2.086377e+05 -4.000000e+05 -7.886463e+04
3.478261e+04 -1.738276e+05 -1.600000e+05
6.956522e+04 -1.738276e+05 -1.600000e+05
5.238855e+04 -1.400419e+05 -1.600000e+05
3.880988e+04 -1.536267e+05 -1.397563e+05
2.260443e+05 -4.000000e+05 -9.927425e+04
-1.666667e+04 -1.380126e+05 -1.200000e+05
6.984919e-10 -1.707417e+05 -1.200000e+05
-3.333333e+04 -1.707417e+05 -1.200000e+05
-3.680197e+05 -4.000000e+05 -1.051716e+05
-4.000000e+05 -3.652174e+05 -1.600000e+05
0.000000e+00 -1.738276e+05 -1.600000e+05
-4.000000e+05 -1.736685e+05 -7.888604e+04
-2.086957e+05 3.041301e+05 -1.600000e+05
-1.739130e+05 3.681566e+05 -1.600000e+05
-2.260870e+05 3.362016e+05 -1.600000e+05
-1.380126e+05 8.333333e+04 -1.200000e+05
-1.268566e+05 6.854598e+04 -1.394006e+05
-1.565558e+05 7.769888e+04 -1.402151e+05
-1.211298e+05 9.564796e+04 -1.397763e+05
-4.000000e+05 -2.086377e+05 -7.886463e+04
-1.387787e+05 1.191040e+05 -1.200000e+05
-1.048015e+05 1.024129e+05 -1.200000e+05
7.792538e+04 -2.220069e+05 -1.401264e+05
3.575965e+04 -2.214182e+05 -1.396161e+05
2.434429e+05 -4.000000e+05 -7.886194e+04
4.000000e+05 -8.695652e+04 -1.600000e+05
4.000000e+05 -1.217391e+05 -1.600000e+05
3.681566e+05 -1.043478e+05 -1.600000e+05
-4.000000e+05 2.434775e+05 -1.283328e+05
-4.000000e+05 2.260870e+05 -1.600000e+05
-4.000000e+05 2.086956e+05 -1.280850e+05
-1.000000e+05 -2.356282e+05 -1.200000e+05
-1.107850e+05 -2.213969e+05 -1.398182e+05
-8.333333e+04 -2.032595e+05 -1.200000e+05
-7.859487e+04 -2.226709e+05 -1.395983e+05
-9.330394e+04 -2.538129e+05 -1.393161e+05
-8.695652e+04 -2.068996e+05 -1.600000e+05
2.960439e+05 -3.361296e+05 -1.600000e+05
3.008154e+05 -3.196529e+05 -1.370367e+05
2.783186e+05 -3.040552e+05 -1.600000e+05
2.666667e+05 -3.000000e+05 -1.200000e+05
2.479376e+05 -2.887112e+05 -1.401337e+05
2.769891e+05 -2.821500e+05 -1.407434e+05
2.333333e+05 -3.000000e+05 -1.200000e+05
2.608696e+05 -3.362016e+05 -1.600000e+05
2.686869e+05 -2.686612e+05 -1.600000e+05
2.688976e+05 -2.516326e+05 -1.200000e+05
-3.122916e+04 -3.356740e+05 -1.180529e+05
-2.333333e+05 -3.000000e+05 -1.200000e+05
-2.447001e+05 -2.827339e+05 -1.393235e+05
-2.127655e+05 -2.865654e+05 -1.407419e+05
-2.166861e+05 -2.677974e+05 -1.200000e+05
-2.339207e+05 -2.543886e+05 -1.413251e+05
-2.440698e+05 -3.035211e+05 -1.600000e+05
-2.686858e+05 -2.686614e+05 -1.600000e+05
-2.783150e+05 -3.040582e+05 -1.600000e+05
-2.486724e+05 -2.693333e+05 -1.200000e+05
2.395442e+05 -3.478261e+04 -1.600000e+05
2.485906e+05 -1.715885e+04 -1.398453e+05
2.395442e+05 0.000000e+00 -1.600000e+05
2.168231e+05 -3.022529e+04 -1.408181e+05
2.068996e+05 -1.739130e+04 -1.600000e+05
2.026534e+05 -5.350998e+03 -1.376083e+05
1.833961e+05 -2.228164e+04 -1.406160e+05
2.356282e+05 2.328306e-10 -1.200000e+05
2.032595e+05 -1.666667e+04 -1.200000e+05
2.434783e+05 -4.000000e+05 -1.280850e+05
2.260870e+05 -4.000000e+05 -1.600000e+05
2.086957e+05 -4.000000e+05 -1.280849e+05
3.056438e+05 3.111328e+05 -1.600000e+05
2.666667e+05 3.000000e+05 -1.200000e+05
2.432167e+05 2.902233e+05 -1.401667e+05
2.333333e+05 3.000000e+05 -1.200000e+05
-1.980843e+05 1.978751e+05 -1.200000e+05
-2.029311e+05 1.523034e+05 -1.200000e+05
-2.191502e+05 1.850844e+05 -1.406563e+05
-1.900803e+05 1.662190e+05 -1.394545e+05
-1.715785e+05 1.707464e+05 -1.200000e+05
-1.654013e+05 1.873258e+05 -1.409798e+05
-1.525833e+05 1.549682e+05 -1.454118e+05
-1.693969e+05 1.358422e+05 -1.200000e+05
-1.871806e+05 1.274171e+05 -1.393594e+05
-1.721062e+05 1.058906e+05 -1.600000e+05
-1.398440e+05 8.944303e+04 -1.600000e+05
-1.346767e+05 1.346077e+05 -1.600000e+05
-1.549519e+05 1.129133e+05 -1.371363e+05
-4.000000e+05 -1.376571e+05 -8.037280e+04
-3.704370e+05 -1.553955e+05 -1.074902e+05
3.478261e+04 -3.041301e+05 -1.600000e+05
1.789418e+04 -3.094846e+05 -1.407433e+05
3.333333e+04 -3.000000e+05 -1.200000e+05
4.281695e+04 -2.827321e+05 -1.414515e+05
1.666667e+04 2.678710e+05 -1.200000e+05
3.333333e+04 2.356282e+05 -1.200000e+05
1.763864e+04 2.337465e+05 -1.400243e+05
3.296485e+04 2.743989e+05 -1.391541e+05
5.843314e+03 2.734076e+05 -1.364105e+05
5.217391e+04 2.719249e+05 -1.600000e+05
3.478261e+04 2.395442e+05 -1.600000e+05
5.323870e+04 2.505357e+05 -1.390686e+05
6.666667e+04 -3.000000e+05 -1.200000e+05
-2.068996e+05 -5.217391e+04 -1.600000e+05
-2.194044e+05 -3.446866e+04 -1.386886e+05
-1.933115e+05 -6.499384e+04 -1.392710e+05
-1.953250e+05 -3.442611e+04 -1.385607e+05
-2.032595e+05 -5.000000e+04 -1.200000e+05
2.027700e+05 -1.524482e+05 -1.200000e+05
1.695536e+05 -1.357939e+05 -1.200000e+05
1.891877e+05 -1.303448e+05 -1.393357e+05
1.897632e+05 -1.667064e+05 -1.394881e+05
1.707325e+05 -1.715726e+05 -1.200000e+05
1.534788e+05 -1.504703e+05 -1.446851e+05
1.637401e+05 -1.890496e+05 -1.402101e+05
2.190953e+05 -1.851612e+05 -1.406991e+05
1.978518e+05 -1.980866e+05 -1.200000e+05
1.707417e+05 6.666667e+04 -1.200000e+05
1.562932e+05 8.092587e+04 -1.395582e+05
1.878690e+05 9.262639e+04 -1.394976e+05
1.885053e+05 6.090182e+04 -1.386523e+05
1.720917e+05 1.058328e+05 -1.600000e+05
1.876222e+05 1.284296e+05 -1.398940e+05
1.560255e+05 1.149282e+05 -1.385579e+05
1.707417e+05 1.000000e+05 -1.200000e+05
2.678710e+05 5.000000e+04 -1.200000e+05
2.852090e+05 8.133736e+04 -1.398175e+05
2.827537e+05 3.897912e+04 -1.406770e+05
3.182879e+05 8.120963e+04 -1.373552e+05
3.041301e+05 6.956522e+04 -1.600000e+05
2.719249e+05 5.217391e+04 -1.600000e+05
-2.782921e+05 3.040519e+05 -1.600000e+05
-2.686814e+05 2.686452e+05 -1.600000e+05
-2.454583e+05 2.820720e+05 -1.366863e+05
-2.166917e+05 2.677849e+05 -1.200000e+05
-2.333333e+05 3.000000e+05 -1.200000e+05
-2.154606e+05 2.882084e+05 -1.415647e+05
-2.666667e+05 3.000000e+05 -1.200000e+05
-2.517329e+05 2.689000e+05 -1.200000e+05
-2.440810e+05 3.035467e+05 -1.600000e+05
2.678710e+05 -5.000000e+04 -1.200000e+05
2.678710e+05 -1.666667e+04 -1.200000e+05
2.826751e+05 -3.496653e+04 -1.391158e+05
2.719249e+05 -5.217391e+04 -1.600000e+05
3.000000e+05 -6.666667e+04 -1.200000e+05
3.378269e+05 -2.952146e+05 -1.600000e+05
2.678710e+05 -1.833333e+05 -1.200000e+05
2.865386e+05 -1.794766e+05 -1.401743e+05
3.000000e+05 -2.000000e+05 -1.200000e+05
-4.000000e+05 -1.912075e+05 -9.927319e+04
-3.693033e+05 3.467098e+05 -1.600000e+05
-3.652174e+05 4.000000e+05 -1.600000e+05
-3.500253e+05 3.687974e+05 -1.600000e+05
-4.000000e+05 3.652174e+05 -1.600000e+05
-7.325831e+04 -3.684711e+05 -1.069485e+05
-8.515001e+04 -3.802005e+05 -8.188289e+04
-8.698509e+04 -4.000000e+05 -9.927827e+04
-1.215556e+05 -3.811574e+05 -8.455518e+04
-6.956677e+04 -4.000000e+05 -7.886432e+04
-5.220474e+04 -4.000000e+05 -9.927827e+04
2.527111e+05 3.000000e+05 -8.343282e+04
1.666667e+04 2.032595e+05 -1.200000e+05
1.739130e+04 2.068996e+05 -1.600000e+05
-3.068140e+03 2.038704e+05 -1.417741e+05
-2.328306e-10 2.356282e+05 -1.200000e+05
-2.328306e-10 2.395442e+05 -1.600000e+05
1.380126e+05 8.333333e+04 -1.200000e+05
1.673365e+05 1.357683e+05 -1.200000e+05
1.388633e+05 1.163554e+05 -1.200000e+05
1.507681e+05 1.536731e+05 -1.446231e+05
1.398299e+05 8.943766e+04 -1.600000e+05
1.222331e+05 1.011701e+05 -1.414090e+05
-1.261037e+05 -1.017999e+05 -1.419271e+05
-1.397986e+05 -8.949262e+04 -1.600000e+05
-1.562397e+05 -1.153915e+05 -1.385359e+05
-1.722874e+05 -1.402878e+05 -1.600000e+05
-1.720780e+05 -1.058531e+05 -1.600000e+05
-1.891930e+05 -9.485814e+04 -1.399379e+05
-1.875930e+05 -1.286204e+05 -1.397607e+05
-1.388774e+05 -1.163625e+05 -1.200000e+05
-1.707417e+05 -8.149073e-10 -1.200000e+05
-1.840055e+05 2.214932e+04 -1.416603e+05
-1.738276e+05 -2.328306e-10 -1.600000e+05
-2.089031e+05 1.467747e+01 -1.409364e+05
2.719249e+05 1.913043e+05 -1.600000e+05
2.531025e+05 1.951760e+05 -1.400627e+05
2.859555e+05 1.790985e+05 -1.413730e+05
2.678710e+05 1.833333e+05 -1.200000e+05
2.344444e+05 1.677934e+05 -1.200000e+05
-2.032595e+05 -8.333333e+04 -1.200000e+05
-1.707417e+05 -6.666667e+04 -1.200000e+05
-1.707417e+05 -3.333333e+04 -1.200000e+05
-2.068996e+05 -8.695652e+04 -1.600000e+05
-1.738276e+05 -6.956522e+04 -1.600000e+05
-1.738276e+05 -3.478261e+04 -1.600000e+05
3.035218e+05 2.440674e+05 -1.600000e+05
4.000000e+05 -1.913303e+05 -9.927549e+04
-2.275922e+05 -2.719319e+05 -1.600000e+05
-2.000184e+05 -2.356194e+05 -1.200000e+05
-1.943907e+05 -2.522761e+05 -1.392353e+05
1.707417e+05 -3.333333e+04 -1.200000e+05
1.568597e+05 -3.374592e+04 -1.409491e+05
1.510152e+05 5.384846e+00 -1.385884e+05
1.402315e+05 -1.739130e+04 -1.600000e+05
1.402315e+05 1.739130e+04 -1.600000e+05
1.174196e+05 1.449295e+04 -1.397629e+05
1.707417e+05 3.333333e+04 -1.200000e+05
1.617280e+05 5.057684e+04 -1.380523e+05
1.839969e+05 2.130218e+04 -1.409930e+05
1.380126e+05 1.666667e+04 -1.200000e+05
1.380126e+05 5.000000e+04 -1.200000e+05
1.380126e+05 -1.666667e+04 -1.200000e+05
1.707417e+05 5.820766e-10 -1.200000e+05
1.738276e+05 3.478261e+04 -1.600000e+05
1.739130e+04 1.402315e+05 -1.600000e+05
-1.739130e+04 1.402315e+05 -1.600000e+05
1.832567e+04 1.189354e+05 -1.375923e+05
-3.773584e+01 1.494297e+05 -1.409962e+05
-1.666667e+04 1.380126e+05 -1.200000e+05
-3.499918e+04 1.281139e+05 -1.371312e+05
-4.346493e+04 1.577545e+05 -1.406056e+05
-3.333333e+04 1.707417e+05 -1.200000e+05
-2.226941e+04 1.835872e+05 -1.404112e+05
-3.478261e+04 1.738276e+05 -1.600000e+05
2.270076e+05 2.729557e+05 -1.600000e+05
2.135052e+05 2.908076e+05 -1.391696e+05
2.295031e+05 2.562640e+05 -1.396457e+05
1.913043e+05 2.719249e+05 -1.600000e+05
2.341238e+05 2.339819e+05 -1.200000e+05
1.999994e+05 2.356044e+05 -1.200000e+05
2.166944e+05 2.677786e+05 -1.200000e+05
-4.000000e+05 1.217663e+05 -9.927598e+04
-2.678710e+05 5.000000e+04 -1.200000e+05
-2.593552e+05 6.773348e+04 -1.390666e+05
-2.489960e+05 1.719232e+04 -1.395079e+05
-2.356282e+05 3.333333e+04 -1.200000e+05
-2.719249e+05 5.217391e+04 -1.600000e+05
-2.395442e+05 -2.328306e-10 -1.600000e+05
-2.395442e+05 3.478261e+04 -1.600000e+05
2.719249e+05 -1.739130e+04 -1.600000e+05
2.766304e+05 -2.872398e+03 -1.394987e+05
2.356282e+05 -3.333333e+04 -1.200000e+05
-1.984317e+04 -2.498985e+05 -1.383330e+05
0.000000e+00 -2.395442e+05 -1.600000e+05
-3.478261e+04 -2.395442e+05 -1.600000e+05
-3.681566e+05 -2.434783e+05 -1.600000e+05
-4.000000e+05 -2.608696e+05 -1.600000e+05
4.000000e+05 -3.481145e+04 -7.886354e+04
4.000000e+05 -5.220474e+04 -9.927827e+04
-3.000000e+05 -1.151793e+05 -8.608024e+04
-3.000000e+05 2.666667e+05 -1.200000e+05
5.000000e+04 -2.678710e+05 -1.200000e+05
3.333333e+04 -2.356282e+05 -1.200000e+05
1.733860e+04 -2.490902e+05 -1.395665e+05
2.328306e-10 -2.356282e+05 -1.200000e+05
3.478261e+04 -2.395442e+05 -1.600000e+05
1.739130e+04 -2.719249e+05 -1.600000e+05
-4.000000e+05 -1.561033e+05 -9.947019e+04
-5.000000e+04 -1.380126e+05 -1.200000e+05
-5.978685e+04 -1.236046e+05 -1.408106e+05
-4.513459e+04 -1.576251e+05 -1.380876e+05
-6.956522e+04 -1.738276e+05 -1.600000e+05
-5.217391e+04 -1.402315e+05 -1.600000e+05
-7.691059e+04 -1.558623e+05 -1.399118e+05
-6.666667e+04 -1.707417e+05 -1.200000e+05
-2.607512e+05 -4.000000e+05 -9.928644e+04
3.000000e+05 -1.666667e+05 -1.200000e+05
3.000000e+05 -1.496054e+05 -8.615635e+04
3.000000e+05 -1.830222e+05 -8.616206e+04
-2.356282e+05 1.000000e+05 -1.200000e+05
-2.032595e+05 1.166667e+05 -1.200000e+05
-2.032595e+05 8.333333e+04 -1.200000e+05
-2.233929e+05 1.106626e+05 -1.398096e+05
-2.608696e+05 -3.362016e+05 -1.600000e+05
-4.000000e+05 1.043478e+05 -1.280850e+05
-3.581197e+05 8.697683e+04 -1.391302e+05
-4.000000e+05 1.043221e+05 -7.886357e+04
-5.820766e-10 1.707417e+05 -1.200000e+05
-2.328306e-10 1.738276e+05 -1.600000e+05
-6.956522e+04 1.738276e+05 -1.600000e+05
-7.633568e+04 1.550521e+05 -1.404828e+05
-5.217391e+04 1.402315e+05 -1.600000e+05
-6.260612e+04 1.228200e+05 -1.419040e+05
-6.666667e+04 1.707417e+05 -1.200000e+05
-5.000000e+04 1.380126e+05 -1.200000e+05
-3.603673e+05 -5.391040e+04 -1.366511e+05
-4.000000e+05 -5.217391e+04 -1.600000e+05
-4.000000e+05 -3.469557e+04 -1.283199e+05
2.016214e+05 2.015328e+05 -1.600000e+05
-6.956522e+04 3.041301e+05 -1.600000e+05
-8.055913e+04 2.877735e+05 -1.407965e+05
-5.217391e+04 2.719249e+05 -1.600000e+05
-4.823110e+04 2.874815e+05 -1.412460e+05
-1.043478e+05 3.041301e+05 -1.600000e+05
-1.128322e+05 2.875355e+05 -1.400969e+05
-8.695652e+04 2.719249e+05 -1.600000e+05
-3.290142e+04 3.431258e+05 -7.298615e+04
-6.666667e+04 3.000000e+05 -1.200000e+05
-8.195936e+04 3.178827e+05 -1.384259e+05
-7.108471e+04 -1.685331e+04 -1.200000e+05
-3.802298e+04 1.847309e+02 -1.200000e+05
-7.191324e+04 5.226663e+04 -1.200000e+05
-3.466305e+05 -3.688687e+05 -1.600000e+05
-3.652174e+05 -4.000000e+05 -1.600000e+05
9.262680e-02 4.000000e+05 -1.280849e+05
3.654028e+03 3.592214e+05 -1.050176e+05
-2.203616e+04 3.619075e+05 -1.060623e+05
-1.673315e+04 3.597046e+05 -1.372891e+05
-9.254203e+03 3.253927e+05 -9.469121e+04
2.214112e+03 3.384934e+05 -7.665085e+04
-1.828034e+04 3.690857e+05 -7.797918e+04
9.693687e+03 3.324314e+05 -1.157351e+05
2.719249e+05 1.217391e+05 -1.600000e+05
2.395442e+05 1.043478e+05 -1.600000e+05
2.552886e+04 3.272941e+05 -8.998423e+04
1.673731e+04 3.758770e+05 -8.412148e+04
2.343052e+04 3.555948e+05 -1.367523e+05
3.000000e+05 -4.933536e+04 -8.612806e+04
2.719249e+05 1.565217e+05 -1.600000e+05
2.848877e+05 1.429229e+05 -1.395100e+05
2.487096e+05 -2.693798e+05 -1.200000e+05
2.320966e+05 -2.571051e+05 -1.417254e+05
2.270575e+05 -2.729148e+05 -1.600000e+05
2.166667e+05 -2.678710e+05 -1.200000e+05
2.153277e+05 -2.881662e+05 -1.407451e+05
2.678710e+05 1.166667e+05 -1.200000e+05
2.678710e+05 8.333333e+04 -1.200000e+05
2.356282e+05 1.000000e+05 -1.200000e+05
2.538079e+05 9.328198e+04 -1.393206e+05
-1.666667e+04 2.032595e+05 -1.200000e+05
-2.410236e+04 2.444244e+05 -1.414520e+05
-3.333333e+04 2.356282e+05 -1.200000e+05
-4.497965e+04 2.209353e+05 -1.400115e+05
-1.739130e+04 2.068996e+05 -1.600000e+05
2.068996e+05 1.739130e+04 -1.600000e+05
2.219653e+05 3.643894e+04 -1.399105e+05
1.738276e+05 0.000000e+00 -1.600000e+05
2.032595e+05 1.666667e+04 -1.200000e+05
-2.100029e+05 -2.389328e+05 -1.600000e+05
4.000000e+05 3.139008e+05 -7.844374e+04
1.500224e+05 -3.000000e+05 -8.610013e+04
2.498860e+05 1.754257e+04 -1.389978e+05
2.556918e+05 6.292704e+04 -1.401364e+05
3.362016e+05 1.217391e+05 -1.600000e+05
3.041301e+05 1.043478e+05 -1.600000e+05
3.235424e+05 1.065464e+05 -1.325011e+05
3.231688e+05 1.357279e+05 -1.382874e+05
4.000000e+05 -4.000000e+05 -8.686567e+04
-5.000000e+04 2.032595e+05 -1.200000e+05
-6.228956e+04 1.901196e+05 -1.404162e+05
-5.217391e+04 2.068996e+05 -1.600000e+05
-3.000000e+05 6.666667e+04 -1.200000e+05
-3.574052e+05 1.981216e+04 -1.385934e+05
-3.575984e+05 5.272560e+04 -1.383803e+05
-3.362016e+05 5.217391e+04 -1.600000e+05
-3.041301e+05 6.956522e+04 -1.600000e+05
-3.177023e+05 8.157478e+04 -1.389546e+05
2.032595e+05 1.166667e+05 -1.200000e+05
2.213924e+05 1.107686e+05 -1.398197e+05
2.032595e+05 8.333333e+04 -1.200000e+05
2.222307e+05 7.825976e+04 -1.401721e+05
2.356282e+05 1.333333e+05 -1.200000e+05
-2.956522e+05 -4.000000e+05 -1.600000e+05
5.239457e+04 1.400489e+05 -1.600000e+05
6.666667e+04 1.707417e+05 -1.200000e+05
5.000000e+04 1.380126e+05 -1.200000e+05
6.956522e+04 1.738276e+05 -1.600000e+05
3.000000e+05 5.093170e-11 -1.200000e+05
2.678710e+05 1.666667e+04 -1.200000e+05
3.000000e+05 3.333333e+04 -1.200000e+05
-3.432051e+04 3.274129e+05 -1.210456e+05
-5.973317e+04 3.231663e+05 -9.031704e+04
-1.739649e+04 4.000000e+05 -9.927617e+04
-3.469557e+04 4.000000e+05 -1.283199e+05
2.068996e+05 8.695652e+04 -1.600000e+05
2.068996e+05 1.217391e+05 -1.600000e+05
1.722540e+05 1.406055e+05 -1.600000e+05
1.715724e+05 1.707332e+05 -1.200000e+05
-4.000000e+05 1.391304e+05 -1.280850e+05
-4.000000e+05 1.217391e+05 -1.600000e+05
-3.681566e+05 1.043478e+05 -1.600000e+05
-3.139985e+05 -8.545945e+04 -1.388013e+05
-3.362016e+05 -5.217391e+04 -1.600000e+05
-3.041301e+05 -6.956522e+04 -1.600000e+05
-3.362016e+05 -8.695652e+04 -1.600000e+05
-3.041301e+05 -1.043478e+05 -1.600000e+05
-9.137405e+04 -1.869088e+05 -1.388494e+05
-6.025436e+04 -1.889784e+05 -1.400089e+05
-5.000000e+04 -2.032595e+05 -1.200000e+05
-2.322030e+04 -1.857355e+05 -1.414286e+05
-2.068996e+05 8.695652e+04 -1.600000e+05
-1.738276e+05 6.956522e+04 -1.600000e+05
-1.876222e+05 9.245133e+04 -1.398986e+05
-1.871783e+05 6.152677e+04 -1.402527e+05
-2.032595e+05 5.000000e+04 -1.200000e+05
-1.707417e+05 3.333333e+04 -1.200000e+05
-2.202506e+05 7.320148e+04 -1.393676e+05
-2.068996e+05 5.217391e+04 -1.600000e+05
-1.738276e+05 3.478261e+04 -1.600000e+05
6.666667e+04 -1.707417e+05 -1.200000e+05
8.003026e+04 -1.553381e+05 -1.412410e+05
9.493700e+04 -1.892474e+05 -1.399786e+05
6.442874e+04 -1.912657e+05 -1.405626e+05
5.217391e+04 -2.068996e+05 -1.600000e+05
3.303151e+04 -1.945706e+05 -1.378762e+05
8.695652e+04 -2.068996e+05 -1.600000e+05
1.886153e+05 -5.941084e+04 -1.397835e+05
1.872936e+05 -9.150616e+04 -1.391784e+05
1.707417e+05 -6.666667e+04 -1.200000e+05
1.565206e+05 -7.848934e+04 -1.380323e+05
2.032595e+05 -5.000000e+04 -1.200000e+05
-2.344458e+05 1.677955e+05 -1.200000e+05
-2.385189e+05 1.749640e+05 -1.600000e+05
-2.522836e+05 1.943795e+05 -1.392354e+05
-2.719249e+05 1.913043e+05 -1.600000e+05
-2.865474e+05 1.794707e+05 -1.401731e+05
-2.539587e+05 1.631803e+05 -1.401582e+05
-2.678710e+05 1.500000e+05 -1.200000e+05
-2.857572e+05 1.445432e+05 -1.403042e+05
-6.956522e+04 2.395442e+05 -1.600000e+05
-7.589744e+04 2.200971e+05 -1.409178e+05
-6.666667e+04 2.356282e+05 -1.200000e+05
-3.333333e+04 -2.356282e+05 -1.200000e+05
-3.441478e+04 -2.172508e+05 -1.393605e+05
-1.666667e+04 -2.032595e+05 -1.200000e+05
-1.739130e+04 -2.068996e+05 -1.600000e+05
-6.956522e+04 -2.395442e+05 -1.600000e+05
-5.217391e+04 -2.068996e+05 -1.600000e+05
-2.678710e+05 1.166667e+05 -1.200000e+05
-2.538774e+05 1.279315e+05 -1.399244e+05
-2.897805e+05 1.171749e+05 -1.406809e+05
-3.000000e+05 1.000000e+05 -1.200000e+05
-2.875897e+05 8.240411e+04 -1.403072e+05
6.666667e+04 -2.356282e+05 -1.200000e+05
5.000000e+04 -2.032595e+05 -1.200000e+05
8.333333e+04 -2.032595e+05 -1.200000e+05
1.666667e+04 -2.032595e+05 -1.200000e+05
2.894695e+05 1.119724e+05 -1.391502e+05
3.000000e+05 1.000000e+05 -1.200000e+05
3.041301e+05 1.391304e+05 -1.600000e+05
-4.000000e+05 3.478257e+04 -1.280850e+05
-4.000000e+05 6.956517e+04 -1.280850e+05
2.719249e+05 8.695652e+04 -1.600000e+05
-4.000000e+05 -7.100429e+04 -8.036529e+04
-4.000000e+05 -5.255098e+04 -9.946212e+04
-3.570383e+05 -1.911625e+04 -1.388121e+05
8.944607e+04 1.398009e+05 -1.600000e+05
1.091743e+05 1.089504e+05 -1.600000e+05
-4.000000e+05 2.655909e+01 -7.886343e+04
-4.000000e+05 -1.739649e+04 -9.927617e+04
-1.913303e+05 -4.000000e+05 -9.927549e+04
-2.261070e+05 -4.000000e+05 -9.928569e+04
-1.472773e+05 -3.700580e+05 -1.064682e+05
1.739130e+04 4.000000e+05 -1.600000e+05
-2.328306e-10 3.681566e+05 -1.600000e+05
3.478261e+04 3.681566e+05 -1.600000e+05
-2.026737e+05 -1.523523e+05 -1.200000e+05
-1.674190e+05 -1.357878e+05 -1.200000e+05
-1.885043e+05 -1.648103e+05 -1.398593e+05
-1.707487e+05 -1.715662e+05 -1.200000e+05
-1.641479e+05 -1.881894e+05 -1.398187e+05
-1.980755e+05 -1.978855e+05 -1.200000e+05
-1.591292e+05 -4.179163e+04 -1.408152e+05
-2.068996e+05 -1.739130e+04 -1.600000e+05
-2.032595e+05 -1.666667e+04 -1.200000e+05
-2.395442e+05 -3.478261e+04 -1.600000e+05
-2.540818e+05 -2.486799e+04 -1.392900e+05
-4.000000e+05 -4.000000e+05 -1.234328e+05
-2.356282e+05 6.666667e+04 -1.200000e+05
-2.530826e+05 9.159006e+04 -1.385134e+05
-2.719249e+05 8.695652e+04 -1.600000e+05
-2.678710e+05 8.333333e+04 -1.200000e+05
-2.395442e+05 6.956522e+04 -1.600000e+05
-1.217663e+05 -4.000000e+05 -9.927598e+04
-1.535953e+05 -3.808304e+05 -8.493493e+04
-1.391011e+05 -4.000000e+05 -7.886349e+04
2.000000e+05 -3.000000e+05 -1.200000e+05
-5.543598e+04 -3.575193e+05 -1.384315e+05
-4.298740e+04 -3.253286e+05 -1.403533e+05
3.481145e+04 4.000000e+05 -7.886354e+04
1.742320e+04 4.000000e+05 -9.927559e+04
1.084221e+05 3.620514e+05 -1.039354e+05
5.220474e+04 4.000000e+05 -9.927827e+04
6.956677e+04 4.000000e+05 -7.886432e+04
1.739130e+04 2.719249e+05 -1.600000e+05
-2.328306e-10 3.041301e+05 -1.600000e+05
1.900862e+04 3.057443e+05 -1.401006e+05
-1.666667e+04 2.678710e+05 -1.200000e+05
-1.739130e+04 2.719249e+05 -1.600000e+05
-5.093170e-11 3.000000e+05 -1.200000e+05
-2.959249e+05 3.361641e+05 -1.600000e+05
-1.402315e+05 5.217391e+04 -1.600000e+05
-1.241660e+05 2.674819e+04 -1.390687e+05
-1.045588e+05 3.651038e+04 -1.600000e+05
-1.380126e+05 1.666667e+04 -1.200000e+05
-1.049358e+05 -2.211891e-09 -1.200000e+05
-1.164564e+05 -1.569292e+04 -1.408605e+05
-1.402315e+05 1.739130e+04 -1.600000e+05
-1.500083e+05 1.632338e+02 -1.406130e+05
-1.380126e+05 5.000000e+04 -1.200000e+05
-1.217391e+05 -2.068996e+05 -1.600000e+05
-1.297928e+05 -1.885184e+05 -1.401762e+05
-1.456069e+05 -2.213852e+05 -1.397896e+05
-1.166667e+05 -2.032595e+05 -1.200000e+05
-2.207850e+05 -1.097264e+05 -1.396445e+05
-2.852279e+05 -1.763025e+05 -1.423598e+05
2.356282e+05 6.666667e+04 -1.200000e+05
2.032595e+05 5.000000e+04 -1.200000e+05
2.395442e+05 6.956522e+04 -1.600000e+05
2.068996e+05 5.217391e+04 -1.600000e+05
-3.653383e+04 1.045305e+05 -1.600000e+05
-3.769598e+04 8.998646e+04 -1.406423e+05
-4.999861e+04 7.153512e+04 -1.200000e+05
-6.708374e+04 6.697873e+04 -1.600000e+05
-6.890632e+04 1.013940e+05 -1.200000e+05
-7.479845e+04 8.169469e+04 -1.401810e+05
-7.194872e+04 1.050311e+05 -1.600000e+05
-1.760551e+05 -3.342057e+05 -1.115133e+05
-1.913043e+05 -3.362016e+05 -1.600000e+05
-1.391304e+05 -4.000000e+05 -1.280850e+05
-2.719228e+05 2.275803e+05 -1.600000e+05
-2.553986e+05 2.336154e+05 -1.417356e+05
1.738276e+05 -3.478261e+04 -1.600000e+05
2.068996e+05 -5.217391e+04 -1.600000e+05
3.581069e+05 -8.697565e+04 -1.391332e+05
3.287138e+05 -9.155889e+04 -9.389248e+04
-4.000000e+05 5.217391e+04 -1.600000e+05
3.343025e+05 -7.365244e+04 -1.128931e+05
-8.949834e+04 1.398020e+05 -1.600000e+05
-1.000478e+05 1.238115e+05 -1.415949e+05
-3.333333e+04 1.049358e+05 -1.200000e+05
-8.374010e+04 1.374776e+05 -1.200000e+05
1.357945e+05 1.695530e+05 -1.200000e+05
1.403667e+05 1.723665e+05 -1.600000e+05
1.746658e+05 1.755961e+05 -1.600000e+05
-2.031626e+05 -1.169172e+05 -1.200000e+05
-1.707417e+05 -1.000000e+05 -1.200000e+05
-2.069555e+05 -1.580129e+05 -1.600000e+05
-2.068996e+05 -1.217391e+05 -1.600000e+05
1.050118e+05 -7.193059e+04 -1.600000e+05
1.245615e+05 -6.419732e+04 -1.408108e+05
1.045284e+05 -3.653090e+04 -1.600000e+05
8.944564e+04 -4.525420e+04 -1.343840e+05
1.049358e+05 -3.333333e+04 -1.200000e+05
1.232054e+05 -2.817809e+04 -1.413598e+05
1.014263e+05 -6.872323e+04 -1.200000e+05
1.244299e+05 -9.913637e+04 -1.402895e+05
1.380126e+05 -5.000000e+04 -1.200000e+05
1.033503e+05 6.896374e+04 -1.200000e+05
1.049358e+05 3.333333e+04 -1.200000e+05
1.045436e+05 3.640608e+04 -1.600000e+05
1.230636e+05 5.957254e+04 -1.367858e+05
1.400419e+05 5.238884e+04 -1.600000e+05
1.049003e+05 7.208962e+04 -1.600000e+05
-1.739130e+04 4.000000e+05 -1.600000e+05
-3.478261e+04 3.681566e+05 -1.600000e+05
2.086956e+05 4.000000e+05 -1.280850e+05
7.110128e+04 1.679517e+04 -1.200000e+05
7.158057e+04 1.970622e+04 -1.600000e+05
5.620330e+04 3.958194e+03 -1.395858e+05
2.340001e+04 -1.195564e+05 -1.382810e+05
3.333333e+04 -1.049358e+05 -1.200000e+05
2.095476e-09 -1.049358e+05 -1.200000e+05
9.755689e+02 -8.670819e+04 -1.384945e+05
5.000000e+04 -1.380126e+05 -1.200000e+05
5.511804e+04 -1.266289e+05 -1.364397e+05
3.640706e+04 -1.045471e+05 -1.600000e+05
0.000000e+00 -1.063301e+05 -1.600000e+05
1.666667e+04 1.380126e+05 -1.200000e+05
3.333333e+04 1.049358e+05 -1.200000e+05
-2.678710e+05 -2.166667e+05 -1.200000e+05
-2.882316e+05 -2.160383e+05 -1.416341e+05
-2.568206e+05 -2.324907e+05 -1.417704e+05
-2.816841e+05 -2.436333e+05 -1.381074e+05
-3.035529e+05 -2.439984e+05 -1.600000e+05
6.666667e+04 2.356282e+05 -1.200000e+05
8.695652e+04 2.719249e+05 -1.600000e+05
6.956522e+04 2.395442e+05 -1.600000e+05
9.583964e+04 2.548785e+05 -1.403493e+05
8.048912e+04 2.233466e+05 -1.406734e+05
8.333333e+04 2.678710e+05 -1.200000e+05
2.203401e+05 -1.443571e+05 -1.403906e+05
1.721038e+05 -1.057896e+05 -1.600000e+05
1.538969e+05 -1.138158e+05 -1.365642e+05
2.032595e+05 -1.166667e+05 -1.200000e+05
1.707417e+05 -1.000000e+05 -1.200000e+05
2.068171e+05 -1.581054e+05 -1.600000e+05
1.723503e+05 -1.404896e+05 -1.600000e+05
-4.000000e+05 1.738834e+05 -7.886346e+04
-4.000000e+05 1.913303e+05 -9.927549e+04
-4.000000e+05 1.565486e+05 -9.927571e+04
-4.000000e+05 1.391011e+05 -7.886349e+04
-2.729443e+05 -2.270052e+05 -1.600000e+05
-2.520784e+05 -1.938867e+05 -1.394684e+05
3.466752e+05 -3.688682e+05 -1.600000e+05
-2.690028e+05 -2.516963e+05 -1.200000e+05
-2.340650e+05 -2.340612e+05 -1.200000e+05
-2.453042e+05 -2.415858e+05 -1.600000e+05
-2.196878e+05 -2.153719e+05 -1.422400e+05
-2.356494e+05 -1.999896e+05 -1.200000e+05
1.043478e+05 2.395442e+05 -1.600000e+05
1.217391e+05 2.068996e+05 -1.600000e+05
1.000000e+05 2.356282e+05 -1.200000e+05
8.333333e+04 2.032595e+05 -1.200000e+05
1.391304e+05 2.395442e+05 -1.600000e+05
1.670285e+05 2.566652e+05 -1.417575e+05
-3.650838e+04 -1.045550e+05 -1.600000e+05
-8.355797e+04 -1.378368e+05 -1.200000e+05
-9.795356e+04 -1.230381e+05 -1.389479e+05
-6.872140e+04 -1.014269e+05 -1.200000e+05
-8.944324e+04 -1.398423e+05 -1.600000e+05
-7.202360e+04 -1.049081e+05 -1.600000e+05
-3.000000e+05 1.333333e+05 -1.200000e+05
4.000000e+05 -9.262680e-02 -1.280849e+05
-2.434783e+05 -3.681566e+05 -1.600000e+05
-3.125173e+05 -4.000000e+05 -1.301628e+05
-3.243565e+05 -4.000000e+05 -1.049219e+05
-3.133062e+05 -3.676789e+05 -1.600000e+05
-1.217391e+05 3.362016e+05 -1.600000e+05
-1.303718e+05 3.202957e+05 -1.389442e+05
1.169131e+05 -2.031588e+05 -1.200000e+05
1.000000e+05 -1.707417e+05 -1.200000e+05
1.285825e+05 -1.878573e+05 -1.398435e+05
1.217391e+05 -2.068996e+05 -1.600000e+05
1.455382e+05 -2.214177e+05 -1.398100e+05
1.118663e+05 -2.219993e+05 -1.400997e+05
1.580297e+05 -2.069484e+05 -1.600000e+05
1.404758e+05 -1.722527e+05 -1.600000e+05
1.357746e+05 -1.673258e+05 -1.200000e+05
1.152451e+05 -1.560956e+05 -1.384044e+05
-1.402315e+05 -1.739130e+04 -1.600000e+05
-1.300598e+05 -5.967999e+04 -1.415877e+05
-1.045294e+05 -3.653312e+04 -1.600000e+05
-1.033489e+05 -6.896275e+04 -1.200000e+05
-1.049358e+05 -3.333333e+04 -1.200000e+05
-1.050304e+05 -7.194551e+04 -1.600000e+05
-1.380126e+05 -5.000000e+04 -1.200000e+05
-1.576183e+05 -7.867471e+04 -1.412691e+05
8.333333e+04 -2.678710e+05 -1.200000e+05
9.316640e+04 -2.539652e+05 -1.400417e+05
1.128223e+05 -2.889815e+05 -1.386816e+05
8.047631e+04 -2.881783e+05 -1.398780e+05
1.166667e+05 -2.678710e+05 -1.200000e+05
1.271478e+05 -2.530497e+05 -1.416448e+05
1.429401e+05 -2.847834e+05 -1.415136e+05
1.000000e+05 -3.000000e+05 -1.200000e+05
1.043478e+05 -3.041301e+05 -1.600000e+05
1.217391e+05 -2.719249e+05 -1.600000e+05
-2.260870e+05 4.000000e+05 -1.600000e+05
-2.434783e+05 3.681566e+05 -1.600000e+05
-1.565486e+05 -4.000000e+05 -9.927571e+04
-2.071544e+05 -3.375765e+05 -1.137158e+05
-2.719249e+05 1.217391e+05 -1.600000e+05
-3.207786e+05 1.100960e+05 -1.392160e+05
1.565486e+05 4.000000e+05 -9.927571e+04
1.476507e+05 3.685569e+05 -1.021504e+05
-3.041301e+05 -2.328306e-10 -1.600000e+05
-2.678710e+05 -5.000000e+04 -1.200000e+05
-2.841889e+05 -3.268608e+04 -1.400918e+05
-3.041301e+05 -3.478261e+04 -1.600000e+05
-2.719249e+05 -1.739130e+04 -1.600000e+05
-3.362016e+05 -1.739130e+04 -1.600000e+05
1.400516e+05 -5.239500e+04 -1.600000e+05
1.049358e+05 2.444722e-09 -1.200000e+05
9.228256e+04 -1.692759e+03 -1.403086e+05
1.063301e+05 0.000000e+00 -1.600000e+05
-2.202333e+05 1.440609e+05 -1.407098e+05
-2.395442e+05 1.391304e+05 -1.600000e+05
-2.356282e+05 1.333333e+05 -1.200000e+05
1.166667e+05 2.678710e+05 -1.200000e+05
1.500000e+05 2.678710e+05 -1.200000e+05
3.648220e+05 1.817226e+05 -1.042434e+05
3.800906e+05 1.845767e+05 -8.416583e+04
3.544854e+05 1.906790e+05 -7.363960e+04
4.000000e+05 1.739894e+05 -1.283231e+05
3.598311e+05 1.562622e+05 -1.379228e+05
-1.166667e+05 -2.678710e+05 -1.200000e+05
-1.912075e+05 4.000000e+05 -9.927319e+04
-2.260443e+05 4.000000e+05 -9.927425e+04
1.043478e+05 -2.395442e+05 -1.600000e+05
1.217391e+05 2.719249e+05 -1.600000e+05
1.103306e+05 2.854308e+05 -1.404100e+05
8.586945e+04 2.922097e+05 -1.393735e+05
1.565217e+05 2.719249e+05 -1.600000e+05
3.501965e+05 4.000000e+05 -1.288965e+05
-1.217391e+05 2.719249e+05 -1.600000e+05
-1.285153e+05 2.541292e+05 -1.405136e+05
-9.390686e+04 2.538473e+05 -1.399556e+05
-6.221529e+04 2.512363e+05 -1.383700e+05
-1.043478e+05 2.395442e+05 -1.600000e+05
-1.033462e+05 6.870396e+04 -1.200000e+05
-1.578345e+05 4.560864e+04 -1.400739e+05
-1.049093e+05 7.202634e+04 -1.600000e+05
-2.000059e+05 2.356096e+05 -1.200000e+05
-1.851798e+05 2.190633e+05 -1.406921e+05
-2.091376e+05 2.390795e+05 -1.600000e+05
-1.942784e+05 2.522867e+05 -1.392758e+05
-2.154479e+05 2.195871e+05 -1.422362e+05
-1.678490e+05 2.343961e+05 -1.200000e+05
-1.523939e+05 2.026609e+05 -1.200000e+05
-1.456067e+05 2.213614e+05 -1.397957e+05
-1.748442e+05 2.384935e+05 -1.600000e+05
-1.581177e+05 2.067783e+05 -1.600000e+05
1.167334e+05 -3.000000e+05 -8.610189e+04
1.677925e+05 -2.344442e+05 -1.200000e+05
1.748500e+05 -2.384967e+05 -1.600000e+05
1.937979e+05 -2.518908e+05 -1.391131e+05
1.631577e+05 -2.539471e+05 -1.401912e+05
1.565217e+05 -2.719249e+05 -1.600000e+05
1.771248e+05 -2.871343e+05 -1.393697e+05
1.913043e+05 -2.719249e+05 -1.600000e+05
1.500000e+05 -2.678710e+05 -1.200000e+05
-1.711363e+04 7.032093e+04 -1.200000e+05
-2.211891e-09 1.049358e+05 -1.200000e+05
-2.328306e-10 1.063301e+05 -1.600000e+05
-1.063301e+05 -2.328306e-10 -1.600000e+05
-7.150436e+04 -1.973126e+04 -1.600000e+05
-4.000000e+05 -2.434429e+05 -7.886194e+04
-1.913043e+05 -2.719249e+05 -1.600000e+05
-1.631793e+05 -2.539559e+05 -1.401709e+05
-2.086957e+05 -3.041301e+05 -1.600000e+05
-1.500000e+05 -2.678710e+05 -1.200000e+05
3.681566e+05 2.434783e+05 -1.600000e+05
3.362016e+05 2.260870e+05 -1.600000e+05
3.681566e+05 2.086957e+05 -1.600000e+05
4.000000e+05 -2.260870e+05 -1.600000e+05
3.681566e+05 -2.434783e+05 -1.600000e+05
1.833217e+05 3.000000e+05 -8.329321e+04
-1.738834e+05 -4.000000e+05 -7.886346e+04
2.608696e+05 4.000000e+05 -1.600000e+05
2.434775e+05 4.000000e+05 -1.283328e+05
8.069815e+01 -3.564421e+04 -1.600000e+05
2.747606e+02 -5.813291e+02 -1.600000e+05
-1.528834e+04 -1.198499e+04 -1.373234e+05
-3.627207e+04 -3.367666e+04 -1.200000e+05
-4.125419e+04 -4.138280e+04 -1.600000e+05
-3.554287e+04 1.464614e+02 -1.600000e+05
-1.707417e+05 1.000000e+05 -1.200000e+05
-2.068996e+05 1.217391e+05 -1.600000e+05
-2.270144e+05 2.729494e+05 -1.600000e+05
-2.332327e+05 2.561573e+05 -1.417868e+05
-2.000000e+05 3.000000e+05 -1.200000e+05
-1.833333e+05 2.678710e+05 -1.200000e+05
-3.478261e+04 -1.738276e+05 -1.600000e+05
-1.058975e+05 -1.721035e+05 -1.600000e+05
-1.561033e+05 4.000000e+05 -9.947019e+04
-1.739894e+05 4.000000e+05 -1.283231e+05
4.000000e+05 2.086377e+05 -7.886463e+04
4.000000e+05 1.736685e+05 -7.888604e+04
1.738276e+05 -6.956522e+04 -1.600000e+05
-2.356282e+05 -2.328306e-10 -1.200000e+05
-2.032595e+05 1.666667e+04 -1.200000e+05
-2.164308e+05 3.126051e+04 -1.405115e+05
-2.068996e+05 1.739130e+04 -1.600000e+05
4.000000e+05 2.260870e+05 -1.600000e+05
1.522464e+05 -2.028208e+05 -1.200000e+05
1.851440e+05 -2.191151e+05 -1.406645e+05
1.391304e+05 -2.395442e+05 -1.600000e+05
-2.719249e+05 1.565217e+05 -1.600000e+05
-3.000000e+05 1.666667e+05 -1.200000e+05
-1.565217e+05 2.719249e+05 -1.600000e+05
-1.631416e+05 2.539364e+05 -1.401820e+05
1.666667e+05 -3.000000e+05 -1.200000e+05
2.686633e+05 2.686880e+05 -1.600000e+05
2.719249e+05 -1.565217e+05 -1.600000e+05
2.536811e+05 -1.625731e+05 -1.409792e+05
2.356282e+05 -1.333333e+05 -1.200000e+05
2.678710e+05 -1.166667e+05 -1.200000e+05
1.163560e+05 -1.388648e+05 -1.200000e+05
1.010738e+05 -1.259248e+05 -1.422498e+05
1.346492e+05 -1.345454e+05 -1.600000e+05
8.333333e+04 -1.380126e+05 -1.200000e+05
1.058206e+05 -1.720939e+05 -1.600000e+05
8.943287e+04 -1.398293e+05 -1.600000e+05
-2.000000e+05 -3.000000e+05 -1.200000e+05
-1.981832e+05 -3.194281e+05 -1.388422e+05
-1.333333e+05 2.356282e+05 -1.200000e+05
-1.108111e+05 2.213869e+05 -1.398453e+05
-1.000000e+05 2.356282e+05 -1.200000e+05
-2.678710e+05 1.833333e+05 -1.200000e+05
1.333333e+05 -2.356282e+05 -1.200000e+05
1.666667e+04 -2.678710e+05 -1.200000e+05
1.333333e+05 -3.000000e+05 -1.200000e+05
-5.217391e+04 -3.362016e+05 -1.600000e+05
-2.783777e+05 -4.000000e+05 -7.878626e+04
-3.501965e+05 -4.000000e+05 -1.288965e+05
-3.139008e+05 4.000000e+05 -7.844374e+04
-2.719249e+05 -5.217391e+04 -1.600000e+05
1.405517e+05 3.347211e+05 -1.120479e+05
2.416515e+05 -2.451064e+05 -1.600000e+05
3.333333e+04 -1.707417e+05 -1.200000e+05
1.739130e+04 -2.068996e+05 -1.600000e+05
-3.354112e+01 -2.139745e+05 -1.408447e+05
1.739130e+04 3.362016e+05 -1.600000e+05
7.018499e+04 -1.717190e+04 -1.200000e+05
7.152041e+04 -1.990616e+04 -1.600000e+05
-1.707417e+05 6.666667e+04 -1.200000e+05
-2.086377e+05 4.000000e+05 -7.886463e+04
2.000000e+05 3.000000e+05 -1.200000e+05
1.764509e+05 2.845546e+05 -1.398667e+05
1.666667e+05 3.000000e+05 -1.200000e+05
2.086957e+05 3.041301e+05 -1.600000e+05
1.090027e+05 3.370001e+05 -1.119946e+05
5.082812e+04 3.274594e+05 -1.371132e+05
2.356282e+05 3.333333e+04 -1.200000e+05
2.395442e+05 3.478261e+04 -1.600000e+05
-2.741846e+05 -3.265852e+05 -9.236895e+04
-1.402315e+05 -5.217391e+04 -1.600000e+05
1.738276e+05 6.956522e+04 -1.600000e+05
-4.387251e+04 -9.488755e+04 -1.401055e+05
-3.333333e+04 -1.049358e+05 -1.200000e+05
3.574341e+05 1.596460e+04 -1.374077e+05
2.356043e+05 -1.999994e+05 -1.200000e+05
2.389380e+05 -2.098709e+05 -1.600000e+05
2.150393e+05 -2.199198e+05 -1.422258e+05
2.090048e+05 -2.392770e+05 -1.600000e+05
1.999842e+05 -2.356490e+05 -1.200000e+05
2.332938e+05 -2.346131e+05 -1.200000e+05
1.000000e+05 -2.356282e+05 -1.200000e+05
1.580089e+05 2.069782e+05 -1.600000e+05
4.000000e+05 3.469557e+04 -1.283199e+05
3.261380e+05 -2.589225e+03 -1.061366e+05
3.302810e+05 1.465875e+05 -1.115425e+05
3.185729e+05 1.643400e+05 -1.377013e+05
3.000000e+05 1.333333e+05 -1.200000e+05
3.041301e+05 1.739130e+05 -1.600000e+05
3.000000e+05 1.666667e+05 -1.200000e+05
-3.000000e+05 1.825210e+05 -8.622176e+04
-1.913043e+05 2.719249e+05 -1.600000e+05
-1.166667e+05 2.678710e+05 -1.200000e+05
-1.500000e+05 2.678710e+05 -1.200000e+05
-1.391304e+05 2.395442e+05 -1.600000e+05
1.678493e+05 2.343980e+05 -1.200000e+05
1.748484e+05 2.384997e+05 -1.600000e+05
1.815765e+05 2.168363e+05 -1.397160e+05
1.444582e+05 2.856938e+05 -1.407484e+05
1.833333e+05 2.678710e+05 -1.200000e+05
3.801132e+05 -8.507357e+04 -8.523688e+04
4.000000e+05 -1.043221e+05 -7.886357e+04
4.000000e+05 2.086957e+05 -1.280849e+05
4.000000e+05 1.912075e+05 -9.927319e+04
1.405259e+05 -4.000000e+05 -1.298366e+05
1.391304e+05 -3.681566e+05 -1.600000e+05
7.147912e+04 -4.972213e+04 -1.200000e+05
6.697243e+04 -6.709626e+04 -1.600000e+05
-3.505272e+05 -4.000000e+05 -8.132527e+04
-3.140961e+05 -4.000000e+05 -7.845318e+04
9.037168e+04 -8.674425e+04 -1.457976e+05
3.184160e+05 -1.353811e+04 -1.381961e+05
3.000000e+05 -3.333333e+04 -1.200000e+05
-7.971711e+04 3.272585e+05 -1.119771e+05
-8.332757e+04 3.000000e+05 -8.326376e+04
-2.341335e+05 2.339742e+05 -1.200000e+05
-2.356490e+05 1.999842e+05 -1.200000e+05
4.000000e+05 2.260443e+05 -9.927425e+04
-5.000527e+04 3.000000e+05 -8.613302e+04
-3.681566e+05 -3.478261e+04 -1.600000e+05
-4.000000e+05 9.262680e-02 -1.280849e+05
-3.681566e+05 -2.328306e-10 -1.600000e+05
-4.000000e+05 -1.739130e+04 -1.600000e+05
-2.719249e+05 -1.565217e+05 -1.600000e+05
-2.719249e+05 -1.913043e+05 -1.600000e+05
-1.217391e+05 2.068996e+05 -1.600000e+05
-1.274138e+05 1.871553e+05 -1.393689e+05
-9.376765e+04 1.881093e+05 -1.397998e+05
-1.404230e+05 1.722861e+05 -1.600000e+05
-1.166667e+05 2.032595e+05 -1.200000e+05
3.000000e+05 2.192388e+05 -8.287994e+04
3.323713e+05 2.333461e+05 -9.024469e+04
3.000000e+05 2.540784e+05 -8.302462e+04
3.352865e+05 -3.322238e+05 -1.600000e+05
-5.532821e+04 3.557981e+05 -1.362602e+05
3.135024e+05 -3.674392e+05 -1.600000e+05
1.913043e+05 -4.000000e+05 -1.600000e+05
-1.000000e+05 -1.707417e+05 -1.200000e+05
3.041301e+05 -3.478261e+04 -1.600000e+05
1.565217e+05 -4.000000e+05 -1.600000e+05
1.739894e+05 -4.000000e+05 -1.283231e+05
2.091380e+05 2.390844e+05 -1.600000e+05
1.739130e+05 3.681566e+05 -1.600000e+05
1.739130e+05 4.000000e+05 -1.280850e+05
-5.217391e+04 -4.000000e+05 -1.600000e+05
-3.478261e+04 -3.681566e+05 -1.600000e+05
-6.956522e+04 -3.681566e+05 -1.600000e+05
3.362016e+05 8.695652e+04 -1.600000e+05
2.168278e+05 3.000000e+05 -8.329348e+04
-8.333333e+04 2.678710e+05 -1.200000e+05
-1.000000e+05 3.000000e+05 -1.200000e+05
-5.000000e+04 2.678710e+05 -1.200000e+05
-3.333333e+04 3.000000e+05 -1.200000e+05
-7.414677e+03 3.230204e+05 -1.429564e+05
4.000000e+05 2.956522e+05 -1.600000e+05
-3.478261e+04 2.395442e+05 -1.600000e+05
-2.389559e+05 2.099792e+05 -1.600000e+05
-1.754511e+05 -1.747225e+05 -1.600000e+05
-1.405423e+05 -1.722713e+05 -1.600000e+05
-4.567686e+04 3.191677e+05 -1.407773e+05
-3.000000e+05 -8.164136e+04 -8.601122e+04
-3.268551e+05 -9.369619e+04 -7.362191e+04
-3.000000e+05 -1.000000e+05 -1.200000e+05
3.805481e+05 2.219840e+05 -8.332384e+04
4.000000e+05 4.000000e+05 -1.600000e+05
3.652174e+05 4.000000e+05 -1.600000e+05
-1.333333e+05 -2.356282e+05 -1.200000e+05
4.000000e+05 4.000000e+05 -8.686567e+04
5.217391e+04 3.362016e+05 -1.600000e+05
6.956522e+04 3.041301e+05 -1.600000e+05
5.000000e+04 2.678710e+05 -1.200000e+05
-1.739130e+04 -1.402315e+05 -1.600000e+05
-4.000000e+05 2.608696e+05 -1.600000e+05
-2.016233e+05 -2.015700e+05 -1.600000e+05
-2.392910e+05 -2.089820e+05 -1.600000e+05
-2.693837e+05 2.487343e+05 -1.200000e+05
8.695652e+04 2.068996e+05 -1.600000e+05
3.000000e+05 -2.166121e+05 -8.616654e+04
3.303595e+05 -4.053909e+04 -1.098520e+05
-1.851842e+05 -2.190814e+05 -1.406866e+05
1.057864e+05 1.721070e+05 -1.600000e+05
-2.527125e+05 -3.000000e+05 -8.344652e+04
2.677785e+05 -2.166944e+05 -1.200000e+05
2.527762e+05 -1.941689e+05 -1.403804e+05
1.565217e+05 -3.362016e+05 -1.600000e+05
4.000000e+05 -1.391304e+05 -1.280850e+05
3.681566e+05 -1.391304e+05 -1.600000e+05
-2.527072e+05 3.000000e+05 -8.344645e+04
-1.736685e+05 4.000000e+05 -7.888604e+04
3.681566e+05 -3.130435e+05 -1.600000e+05
3.304348e+05 4.000000e+05 -1.600000e+05
2.261070e+05 4.000000e+05 -9.928569e+04
-3.000000e+05 -1.666667e+04 -8.774823e+04
2.260870e+05 4.000000e+05 -1.600000e+05
3.361297e+05 2.960439e+05 -1.600000e+05
3.139008e+05 -4.000000e+05 -7.844374e+04
-1.833333e+05 -2.678710e+05 -1.200000e+05
7.187213e+04 5.226948e+04 -1.200000e+05
-3.304348e+05 4.000000e+05 -1.600000e+05
-3.126723e+05 4.000000e+05 -1.301611e+05
2.343980e+05 -1.678493e+05 -1.200000e+05
2.385089e+05 -1.749478e+05 -1.600000e+05
2.678710e+05 -1.500000e+05 -1.200000e+05
2.847033e+05 -1.427829e+05 -1.400431e+05
1.739130e+05 3.041301e+05 -1.600000e+05
2.607512e+05 4.000000e+05 -9.928644e+04
-1.043221e+05 -4.000000e+05 -7.886357e+04
-4.000000e+05 1.739130e+04 -1.600000e+05
-4.000000e+05 -3.490296e+04 -7.889057e+04
-4.000000e+05 3.481145e+04 -7.886354e+04
-1.754526e+05 1.747151e+05 -1.600000e+05
-1.357691e+05 1.674170e+05 -1.200000e+05
-1.165357e+05 1.384056e+05 -1.200000e+05
-1.164920e+05 1.579235e+05 -1.403025e+05
-1.722842e+05 1.404513e+05 -1.600000e+05
1.217391e+05 -3.362016e+05 -1.600000e+05
1.391304e+05 -3.041301e+05 -1.600000e+05
-1.358428e+05 -1.693970e+05 -1.200000e+05
-3.681566e+05 3.478261e+04 -1.600000e+05
1.388027e+05 -1.191104e+05 -1.200000e+05
1.749878e+05 -1.755568e+05 -1.600000e+05
-2.434429e+05 4.000000e+05 -7.886194e+04
3.362016e+05 -1.217391e+05 -1.600000e+05
3.041301e+05 -1.739130e+05 -1.600000e+05
4.000000e+05 8.695652e+04 -1.600000e+05
2.016386e+05 -2.015772e+05 -1.600000e+05
1.397935e+05 -8.944397e+04 -1.600000e+05
-4.000000e+05 6.956677e+04 -7.886432e+04
-1.678544e+05 -2.344040e+05 -1.200000e+05
-1.749066e+05 -2.384977e+05 -1.600000e+05
-1.523456e+05 -2.029172e+05 -1.200000e+05
-1.581117e+05 -2.067848e+05 -1.600000e+05
-2.395442e+05 1.043478e+05 -1.600000e+05
-3.041301e+05 -1.391304e+05 -1.600000e+05
-3.000000e+05 -4.829274e+04 -8.592147e+04
-4.000000e+05 -1.739894e+05 -1.283231e+05
4.000000e+05 -3.125173e+05 -1.301628e+05
-4.000000e+05 -1.565217e+05 -1.600000e+05
-3.681566e+05 -1.391304e+05 -1.600000e+05
-2.946250e+05 -4.000000e+05 -9.901240e+04
-4.000000e+05 -2.086957e+05 -1.280849e+05
-4.000000e+05 -2.260443e+05 -9.927425e+04
-2.016184e+05 2.015286e+05 -1.600000e+05
-2.678710e+05 -1.833333e+05 -1.200000e+05
-2.540572e+05 -1.625886e+05 -1.415517e+05
-2.069497e+05 1.580081e+05 -1.600000e+05
-1.038887e+05 -1.040150e+05 -1.200000e+05
3.000000e+05 -1.000000e+05 -1.200000e+05
3.000000e+05 -8.275500e+04 -8.614300e+04
3.681566e+05 -3.478261e+04 -1.600000e+05
3.362016e+05 -1.739130e+04 -1.600000e+05
3.574764e+05 -1.869785e+04 -1.381305e+05
3.593271e+05 -5.742295e+04 -1.372977e+05
-1.090331e+05 -1.092915e+05 -1.600000e+05
4.000000e+05 -6.956517e+04 -1.280850e+05
4.000000e+05 2.434429e+05 -7.886194e+04
4.000000e+05 4.000000e+05 -1.234328e+05
2.516624e+05 2.689869e+05 -1.200000e+05
4.000000e+05 1.376571e+05 -8.037280e+04
4.000000e+05 -6.956677e+04 -7.886432e+04
3.478261e+04 3.041301e+05 -1.600000e+05
3.000000e+05 -2.525812e+05 -8.602933e+04
-5.217391e+04 3.362016e+05 -1.600000e+05
-8.695652e+04 3.362016e+05 -1.600000e+05
-8.695652e+04 4.000000e+05 -1.600000e+05
-1.043457e+05 4.000000e+05 -1.313395e+05
-1.043478e+05 3.681566e+05 -1.600000e+05
-6.956522e+04 3.681566e+05 -1.600000e+05
4.000000e+05 -2.956522e+05 -1.600000e+05
1.043478e+05 -4.000000e+05 -8.191444e+04
-4.000000e+05 1.913043e+05 -1.600000e+05
-4.000000e+05 1.739130e+05 -1.280850e+05
-4.000000e+05 -2.945883e+05 -9.902611e+04
-2.168279e+05 -3.000000e+05 -8.329350e+04
-2.086686e+05 -4.000000e+05 -7.886305e+04
3.000000e+05 -1.510782e+04 -8.605336e+04
3.000000e+05 2.173049e+04 -8.370447e+04
-1.217391e+05 -4.000000e+05 -1.600000e+05
6.956517e+04 4.000000e+05 -1.280850e+05
5.278092e+04 3.572828e+05 -1.383181e+05
-8.522698e+04 -8.876957e+04 -1.460265e+05
-1.380126e+05 -8.333333e+04 -1.200000e+05
1.378391e+05 -8.355658e+04 -1.200000e+05
-3.362016e+05 8.695652e+04 -1.600000e+05
-3.041301e+05 1.043478e+05 -1.600000e+05
2.891854e+05 -1.163477e+05 -1.408758e+05
-3.119811e+05 3.063039e+05 -1.600000e+05
2.678710e+05 1.500000e+05 -1.200000e+05
3.111347e+05 -3.056378e+05 -1.600000e+05
4.125781e+04 -4.141257e+04 -1.600000e+05
-2.003338e+02 -5.937081e+04 -1.400145e+05
-1.093100e+05 1.090522e+05 -1.600000e+05
-4.287154e+02 -3.739944e+04 -1.200000e+05
1.391011e+05 4.000000e+05 -7.886349e+04
4.000000e+05 1.565217e+05 -1.600000e+05
3.681566e+05 1.739130e+05 -1.600000e+05
4.000000e+05 1.739130e+04 -1.600000e+05
-4.000000e+05 -4.000000e+05 -8.686567e+04
-4.000000e+05 4.000000e+05 -8.686567e+04
7.208942e+04 -1.048952e+05 -1.600000e+05
3.478257e+04 4.000000e+05 -1.280850e+05
-8.333333e+04 2.032595e+05 -1.200000e+05
-1.380126e+05 -1.666667e+04 -1.200000e+05
1.678740e+04 -7.109847e+04 -1.200000e+05
-2.356282e+05 -1.333333e+05 -1.200000e+05
-1.717716e+04 -7.014628e+04 -1.200000e+05
-1.969860e+04 -7.157166e+04 -1.600000e+05
-3.478261e+04 3.041301e+05 -1.600000e+05
5.217391e+04 -4.000000e+05 -1.600000e+05
-3.478257e+04 -4.000000e+05 -1.280850e+05
-1.739130e+04 -4.000000e+05 -1.600000e+05
-3.362016e+05 -1.217391e+05 -1.600000e+05
1.565217e+05 3.362016e+05 -1.600000e+05
8.695652e+04 -3.362016e+05 -1.600000e+05
-6.956517e+04 -4.000000e+05 -1.280850e+05
-2.260870e+05 -3.362016e+05 -1.600000e+05
-8.695652e+04 -4.000000e+05 -1.600000e+05
-4.000000e+05 2.086686e+05 -7.886305e+04
-4.000000e+05 2.261070e+05 -9.928569e+04
3.000000e+05 5.622310e+04 -8.377629e+04
3.040554e+05 2.783185e+05 -1.600000e+05
4.000000e+05 -3.478257e+04 -1.280850e+05
3.681566e+05 3.478261e+04 -1.600000e+05
-1.672344e+04 3.000000e+05 -8.327969e+04
1.664613e+04 3.000000e+05 -8.329336e+04
-3.490296e+04 4.000000e+05 -7.889057e+04
-5.255098e+04 4.000000e+05 -9.946212e+04
-1.565217e+05 4.000000e+05 -1.600000e+05
4.000000e+05 -4.000000e+05 -1.234328e+05
3.126723e+05 -4.000000e+05 -1.301611e+05
4.000000e+05 -4.000000e+05 -1.600000e+05
3.652174e+05 -4.000000e+05 -1.600000e+05
3.362016e+05 1.565217e+05 -1.600000e+05
-1.391304e+05 3.681566e+05 -1.600000e+05
-1.217391e+05 4.000000e+05 -1.600000e+05
-1.405259e+05 4.000000e+05 -1.298366e+05
1.333333e+05 3.000000e+05 -1.200000e+05
-4.000000e+05 3.140961e+05 -7.845318e+04
-8.695652e+04 2.068996e+05 -1.600000e+05
3.000000e+05 -1.162224e+05 -8.614706e+04
2.719249e+05 -1.913043e+05 -1.600000e+05
1.038876e+05 1.040158e+05 -1.200000e+05
2.719249e+05 -1.217391e+05 -1.600000e+05
-2.678710e+05 -1.666667e+04 -1.200000e+05
-1.666667e+04 -2.678710e+05 -1.200000e+05
1.391304e+05 3.041301e+05 -1.600000e+05
-2.356282e+05 -3.333333e+04 -1.200000e+05
4.000000e+05 -1.565217e+05 -1.600000e+05
-7.186379e+04 -5.227682e+04 -1.200000e+05
-4.972039e+04 -7.146925e+04 -1.200000e+05
-6.696770e+04 -6.708310e+04 -1.600000e+05
-4.000000e+05 -2.260870e+05 -1.600000e+05
-4.000000e+05 -1.913043e+05 -1.600000e+05
4.000000e+05 7.100429e+04 -8.036529e+04
-4.000000e+05 8.695652e+04 -1.600000e+05
3.612401e+05 5.287682e+04 -1.328907e+05
-4.000000e+05 2.946250e+05 -9.901240e+04
-3.681566e+05 3.130435e+05 -1.600000e+05
-4.000000e+05 3.304348e+05 -1.600000e+05
2.655909e+01 4.000000e+05 -7.886343e+04
1.043221e+05 4.000000e+05 -7.886357e+04
4.000000e+05 1.561033e+05 -9.947019e+04
1.204108e+05 3.817537e+05 -8.235668e+04
1.217663e+05 4.000000e+05 -9.927598e+04
-4.000000e+05 4.000000e+05 -1.234328e+05
6.893678e+04 -1.033534e+05 -1.200000e+05
1.985018e+04 -7.157278e+04 -1.600000e+05
5.226118e+04 -7.186132e+04 -1.200000e+05
-2.678710e+05 1.666667e+04 -1.200000e+05
8.698509e+04 4.000000e+05 -9.927827e+04
-4.000000e+05 1.742320e+04 -9.927559e+04
1.043478e+05 4.000000e+05 -1.280850e+05
8.695652e+04 4.000000e+05 -1.600000e+05
6.956522e+04 3.681566e+05 -1.600000e+05
-3.681566e+05 6.956522e+04 -1.600000e+05
3.304348e+05 -4.000000e+05 -1.600000e+05
0.000000e+00 -3.681566e+05 -1.600000e+05
1.833333e+05 -2.678710e+05 -1.200000e+05
-4.000000e+05 2.607512e+05 -9.928644e+04
-4.000000e+05 2.782143e+05 -1.283436e+05
1.040932e+05 -1.038957e+05 -1.200000e+05
-1.739130e+04 3.362016e+05 -1.600000e+05
3.681566e+05 6.956522e+04 -1.600000e+05
4.000000e+05 5.217391e+04 -1.600000e+05
-5.217391e+04 4.000000e+05 -1.600000e+05
-4.000000e+05 4.000000e+05 -1.600000e+05
1.913043e+05 4.000000e+05 -1.600000e+05
1.666705e+04 -3.000000e+05 -8.329597e+04
2.956522e+05 -4.000000e+05 -1.600000e+05
1.089297e+05 -1.091614e+05 -1.600000e+05
-4.000000e+05 1.565217e+05 -1.600000e+05
-2.260870e+05 -4.000000e+05 -1.600000e+05
6.956522e+04 -3.041301e+05 -1.600000e+05
-3.304348e+05 -4.000000e+05 -1.600000e+05
-4.000000e+05 -4.000000e+05 -1.600000e+05
-4.000000e+05 2.956522e+05 -1.600000e+05
-1.218925e+05 4.000000e+05 -1.107028e+05
5.217391e+04 4.000000e+05 -1.600000e+05
4.000000e+05 1.913043e+05 -1.600000e+05
-4.000000e+05 -2.956522e+05 -1.600000e+05
-1.000178e+05 1.707390e+05 -1.200000e+05
-1.058741e+05 1.720765e+05 -1.600000e+05
3.681566e+05 0.000000e+00 -1.600000e+05
4.000000e+05 -1.739130e+04 -1.600000e+05
3.681566e+05 -6.956522e+04 -1.600000e+05
-2.416021e+05 2.453027e+05 -1.600000e+05
4.000000e+05 -5.217391e+04 -1.600000e+05
-3.000000e+05 -2.027433e+05 -6.677347e+04
-3.116253e+05 -1.923722e+05 -6.233011e+04
-3.000000e+05 -1.872662e+05 -6.811826e+04
3.142269e+05 8.489494e+04 -6.475552e+04
3.125956e+05 6.661821e+04 -6.560844e+04
3.000000e+05 6.530586e+04 -6.688814e+04
3.232051e+05 7.909659e+04 -5.737776e+04
3.000000e+05 8.229236e+04 -6.683663e+04
3.142915e+05 5.755451e+04 -5.780422e+04
-3.000000e+05 -1.977459e+05 -5.838674e+04
-3.000000e+05 -1.900074e+05 -5.905913e+04
-3.058126e+05 -1.925604e+05 -5.616505e+04
3.071135e+05 7.964178e+04 -5.737776e+04
3.062978e+05 7.050341e+04 -5.780422e+04
3.000000e+05 6.984724e+04 -5.844407e+04
3.116026e+05 7.674260e+04 -5.368888e+04
3.000000e+05 7.834049e+04 -5.841831e+04
3.071457e+05 6.597156e+04 -5.390211e+04
2.801389e+05 2.381197e+05 -9.877925e+04
2.505327e+05 2.284920e+05 -9.617282e+04
2.226288e+05 2.033200e+05 -9.594444e+04
2.312062e+05 2.637803e+05 -9.405533e+04
2.684317e+05 2.667073e+05 -8.504804e+04
2.485009e+05 2.410051e+05 -7.164609e+04
2.515736e+05 1.889728e+05 -9.887857e+04
2.762120e+05 2.061525e+05 -8.871282e+04
2.463581e+05 1.970759e+05 -7.379087e+04
2.735748e+05 2.344226e+05 -7.494972e+04
2.221950e+05 1.431548e+05 -7.615813e+04
2.147370e+05 1.748725e+05 -7.457564e+04
2.019718e+05 1.437669e+05 -9.694178e+04
1.876717e+05 1.602797e+05 -7.397010e+04
1.921206e+05 1.320074e+05 -7.458605e+04
-2.315161e+05 -9.843240e+04 -9.740697e+04
-1.928249e+05 -9.772051e+04 -9.675134e+04
-1.625931e+05 -9.411975e+04 -9.480094e+04
-1.595829e+05 -1.281444e+05 -9.675794e+04
-1.926034e+05 -1.176210e+05 -7.287798e+04
-1.895493e+05 -8.166538e+04 -7.272223e+04
-1.955649e+05 -1.252477e+05 -9.805408e+04
-1.957755e+05 -2.776864e+05 -8.099785e+04
-1.910338e+05 -2.537543e+05 -9.429273e+04
4.808500e+04 -2.178865e+04 -8.240320e+04
-1.656490e+05 -2.692253e+05 -9.828636e+04
-1.696297e+05 -2.404224e+05 -8.205084e+04
-2.198811e+05 -2.451132e+05 -9.536954e+04
2.226553e+05 2.368114e+05 -8.784653e+04
2.202922e+05 2.493586e+05 -6.705577e+04
2.342815e+05 2.746282e+05 -7.181451e+04
2.019367e+05 2.761628e+05 -8.504713e+04
-2.080321e+04 -1.657347e+04 -7.106467e+04
-2.176044e+04 1.688766e+04 -8.838057e+04
1.051346e+04 -9.779078e+02 -8.572553e+04
1.944878e+05 2.491943e+05 -7.450291e+04
-2.532744e+04 4.646562e+04 -7.406937e+04
-2.138289e+04 7.801169e+04 -7.093202e+04
-2.081852e+05 1.742579e+05 -1.002982e+05
-2.106661e+05 1.987558e+05 -8.403694e+04
-1.827438e+05 1.843228e+05 -9.560732e+04
-1.990305e+05 1.707913e+05 -7.563428e+04
-2.076774e+05 2.249746e+05 -7.102951e+04
-1.799669e+05 1.982845e+05 -7.214840e+04
1.288378e+04 2.783248e+04 -8.751254e+04
1.624229e+04 6.056317e+04 -9.817566e+04
1.921328e+04 8.795856e+04 -7.388989e+04
4.136423e+04 5.859777e+04 -8.072806e+04
9.825454e+03 5.526480e+04 -7.200868e+04
3.112261e+04 8.745931e+04 -9.944024e+04
-5.147545e+03 8.960762e+04 -9.111757e+04
-1.285395e+04 5.539956e+04 -9.583882e+04
-1.822962e+04 2.352275e+05 -9.058857e+04
1.488707e+05 1.396105e+05 -7.337026e+04
1.668251e+05 1.131801e+05 -7.278055e+04
1.951886e+05 9.509138e+04 -7.485425e+04
1.522396e+05 1.280562e+05 -9.723935e+04
8.610265e+04 -1.089813e+05 -8.564423e+04
5.864731e+04 -1.261831e+05 -7.820155e+04
2.979507e+04 -1.210674e+05 -7.102058e+04
4.695652e+04 -1.073613e+05 -9.634651e+04
2.461695e+04 -1.339568e+05 -9.614351e+04
4.442950e+04 -1.545242e+05 -7.469131e+04
2.164686e+04 1.870194e+05 -9.846995e+04
-9.757752e+03 1.726774e+05 -9.653640e+04
1.644124e+04 1.610710e+05 -9.827010e+04
-3.229976e+03 1.479412e+05 -7.526485e+04
2.725105e+03 1.412654e+05 -9.981842e+04
2.023283e+04 1.729615e+05 -7.538283e+04
5.022865e+04 1.702060e+05 -9.701389e+04
4.392403e+04 1.900347e+05 -7.648497e+04
3.624789e+04 1.423657e+05 -9.676299e+04
2.679417e+04 1.438997e+05 -7.334835e+04
4.573967e+04 2.420615e+05 -7.330164e+04
8.465189e+04 2.411137e+05 -7.979061e+04
6.494406e+04 2.663322e+05 -9.733729e+04
6.810179e+04 2.699081e+05 -7.260850e+04
8.347663e+03 -3.006432e+04 -8.874487e+04
3.350331e+04 -2.072844e+03 -7.051614e+04
3.399015e+04 2.678819e+05 -9.072041e+04
-4.216206e+04 -2.520326e+05 -9.654430e+04
-6.551474e+04 -2.767371e+05 -8.799824e+04
9.348171e+04 2.683968e+05 -9.746547e+04
2.546825e+05 1.268411e+05 -7.197239e+04
1.192235e+05 -3.548768e+04 -9.655005e+04
1.205747e+05 3.668935e+03 -9.727839e+04
9.151117e+04 -6.066004e+03 -9.937511e+04
9.821974e+04 2.410960e+04 -9.762794e+04
6.909419e+04 3.797878e+04 -8.703329e+04
9.026036e+04 -4.710708e+04 -9.849791e+04
6.833804e+04 -1.555539e+03 -8.511282e+04
9.429162e+04 -1.926459e+04 -7.722510e+04
7.517972e+04 1.452909e+05 -9.532722e+04
5.724922e+04 1.503774e+05 -7.234166e+04
4.838268e+04 1.056544e+05 -8.313644e+04
7.432181e+04 1.102180e+05 -7.165259e+04
8.550197e+04 1.142088e+05 -9.542014e+04
9.675964e+04 1.278921e+05 -7.152696e+04
7.131604e+04 7.946714e+04 -9.557886e+04
2.515220e+05 9.706322e+04 -9.696193e+04
2.766167e+05 1.216705e+05 -9.824540e+04
2.478454e+05 1.311590e+05 -9.592358e+04
2.611413e+05 1.595387e+05 -9.932200e+04
2.740204e+05 1.432976e+05 -7.631984e+04
2.754095e+05 7.516439e+04 -7.724722e+04
2.454134e+05 6.397067e+04 -9.578889e+04
2.778742e+05 6.438525e+04 -9.812559e+04
2.515874e+05 6.339043e+04 -7.655073e+04
2.765761e+05 4.317657e+04 -7.860065e+04
-9.624011e+04 -8.208480e+04 -8.531319e+04
-7.451574e+04 -1.115134e+05 -7.649783e+04
-1.216816e+05 -1.165715e+05 -9.634922e+04
-5.423143e+04 -8.814104e+04 -7.606474e+04
-4.335396e+04 -1.069374e+05 -7.799150e+04
-6.734811e+04 -1.402339e+05 -8.539746e+04
-9.274013e+04 -1.273267e+05 -1.003743e+05
-1.036146e+05 -1.254188e+05 -7.591851e+04
-2.656506e+05 -6.344618e+04 -9.801070e+04
-2.456358e+05 -3.461436e+04 -9.649929e+04
-2.746532e+05 -2.813678e+04 -9.277781e+04
-2.580275e+05 -3.299672e+04 -7.203762e+04
2.156366e+05 -2.126829e+05 -7.487700e+04
2.448630e+05 -2.199709e+05 -8.010220e+04
2.362731e+05 -2.486119e+05 -7.325471e+04
2.189418e+05 -2.292182e+05 -9.536582e+04
1.894802e+05 -2.273948e+05 -9.462254e+04
2.109908e+05 -2.522450e+05 -9.861632e+04
2.423428e+05 -2.547527e+05 -9.794466e+04
-2.104666e+05 2.237527e+05 -9.678929e+04
-2.046779e+05 2.671045e+05 -9.619811e+04
-2.271203e+05 2.425804e+05 -9.074098e+04
-2.539506e+05 2.424900e+05 -7.419242e+04
-2.566173e+05 2.449119e+05 -9.916029e+04
-2.412764e+05 2.698607e+05 -9.564717e+04
-2.353819e+05 2.159207e+05 -7.211054e+04
-2.249107e+05 2.626509e+05 -7.170319e+04
-1.897318e+05 2.428964e+05 -7.550925e+04
-1.990047e+05 2.729166e+05 -7.087590e+04
-2.616440e+05 1.755346e+05 -9.537931e+04
-2.494639e+05 1.667037e+05 -7.074401e+04
-2.743741e+05 1.573381e+05 -8.321784e+04
-2.607039e+05 1.303618e+05 -7.451178e+04
-1.344218e+05 -1.394235e+05 -7.571830e+04
2.047320e+05 2.247229e+05 -9.719717e+04
1.786155e+05 2.259648e+05 -9.665917e+04
1.651177e+05 2.029399e+05 -8.423579e+04
1.953239e+05 2.236455e+05 -7.056172e+04
1.597621e+05 2.384268e+05 -7.341727e+04
1.466457e+05 2.375552e+05 -9.654201e+04
1.908091e+05 1.931858e+05 -8.237470e+04
-1.267363e+05 3.251370e+04 -9.109323e+04
-1.029367e+05 5.314927e+04 -7.432921e+04
-1.039015e+05 2.197830e+04 -8.646528e+04
-8.777213e+04 4.212368e+04 -9.699806e+04
-8.028486e+04 8.208320e+03 -9.147341e+04
-8.322061e+04 2.990558e+04 -7.185797e+04
-1.014993e+05 3.312977e+03 -7.155501e+04
-1.908968e+05 -2.246969e+05 -9.381641e+04
-2.206811e+05 -2.181975e+05 -8.328980e+04
-2.367259e+05 -2.481267e+05 -7.363716e+04
-2.526687e+05 -2.234758e+05 -9.484680e+04
-2.045987e+05 -2.455764e+05 -7.163956e+04
-2.263779e+05 -2.740488e+05 -8.636359e+04
-2.489599e+05 -2.565799e+05 -9.119492e+04
1.356522e+05 2.126081e+05 -7.452754e+04
1.056264e+05 2.213370e+05 -7.096876e+04
1.184687e+05 2.458326e+05 -7.714105e+04
1.199701e+05 2.216087e+05 -9.661402e+04
1.260479e+05 2.666815e+05 -9.832011e+04
9.426789e+04 2.083577e+05 -9.801422e+04
-1.603349e+05 7.237787e+04 -9.570152e+04
-1.917385e+05 8.031199e+04 -9.729382e+04
-2.263204e+05 8.927544e+04 -9.819424e+04
-2.197501e+05 5.725820e+04 -9.883470e+04
-1.962240e+05 5.489834e+04 -8.112296e+04
-2.202591e+05 8.161998e+04 -7.512041e+04
-2.513881e+05 2.118709e+05 -9.633002e+04
-2.634806e+05 1.991360e+05 -7.261362e+04
-2.343080e+05 1.820918e+05 -8.548371e+04
1.903205e+05 -2.083017e+04 -9.902063e+04
1.864632e+05 1.276677e+04 -9.954477e+04
2.142081e+05 1.297699e+04 -8.240845e+04
2.179858e+05 -1.295834e+04 -1.018493e+05
2.182516e+05 -2.345906e+04 -7.657029e+04
2.183108e+05 -4.384278e+04 -1.005373e+05
2.491166e+05 -3.885337e+04 -9.525541e+04
2.422476e+05 -2.582479e+03 -9.856275e+04
2.086778e+05 -8.277727e+04 -9.909273e+04
1.901318e+05 -5.029911e+04 -9.391018e+04
2.197649e+05 -5.733704e+04 -7.512566e+04
2.174941e+04 -1.671959e+04 -1.042950e+05
4.538256e+04 1.274370e+04 -9.612844e+04
-2.184350e+04 -1.285954e+04 -9.688827e+04
2.481712e+05 -1.905349e+05 -7.278599e+04
2.296371e+05 -2.026946e+05 -9.794766e+04
2.632940e+05 -2.286114e+05 -9.966224e+04
2.517814e+05 -1.888018e+05 -9.771577e+04
2.751097e+05 -2.019794e+05 -8.762431e+04
-2.101184e+05 -1.717486e+05 -8.320145e+04
-2.329438e+05 -1.902756e+05 -8.911945e+04
-1.961612e+05 -1.992844e+05 -7.662554e+04
-1.885541e+05 -2.231463e+05 -7.027929e+04
-2.236614e+05 1.524086e+05 -8.195379e+04
-2.162229e+05 1.232302e+05 -8.469136e+04
-1.881518e+05 1.416732e+05 -9.085805e+04
-1.858415e+05 1.073729e+05 -7.472262e+04
-2.483691e+05 1.443284e+05 -9.716659e+04
-2.382348e+05 1.102319e+05 -8.233229e+04
-2.690932e+04 -2.256630e+05 -7.337697e+04
-3.525295e+03 -2.465891e+05 -7.205381e+04
-3.851111e+04 -2.580645e+05 -7.112629e+04
-2.093930e+04 1.169517e+05 -7.339885e+04
-4.362871e+04 8.510963e+04 -8.601975e+04
-2.754173e+05 -2.734640e+05 -8.512967e+04
7.382420e+04 -1.565772e+05 -9.928248e+04
1.125012e+05 -1.737977e+05 -9.771599e+04
9.526967e+04 -1.379910e+05 -9.095101e+04
4.155819e+03 2.046860e+05 -7.472956e+04
1.195970e+05 -1.186720e+05 -8.459745e+04
-2.738285e+05 -1.319965e+05 -8.687624e+04
-2.476825e+05 -1.231009e+05 -7.633767e+04
-2.526333e+05 -1.543093e+05 -1.010066e+05
-2.563138e+05 -1.589324e+05 -7.905508e+04
-2.792800e+05 -1.634517e+05 -9.227972e+04
-7.404482e+04 -2.213181e+05 -9.710033e+04
-4.927018e+04 -2.158431e+05 -9.400463e+04
-7.566036e+04 -1.876734e+05 -9.908944e+04
-7.485025e+04 -1.903161e+05 -7.499362e+04
1.702497e+05 -2.493756e+05 -7.222650e+04
1.497733e+05 -2.714165e+05 -8.814615e+04
-2.012426e+04 -2.153542e+05 -9.585403e+04
-5.833346e+04 -2.261689e+05 -7.223720e+04
-4.014446e+04 -1.916539e+05 -9.541825e+04
-1.787327e+05 2.151384e+05 -9.582125e+04
1.595674e+05 6.038349e+04 -9.821120e+04
1.543591e+05 4.910267e+04 -7.583265e+04
1.910203e+05 4.539869e+04 -8.994135e+04
1.823704e+05 6.456028e+04 -7.175193e+04
2.978910e+04 -4.006700e+04 -7.701272e+04
2.699222e+04 -7.277720e+04 -8.165404e+04
6.535852e+04 -4.752357e+04 -8.240741e+04
1.319385e+05 1.858237e+05 -9.199644e+04
1.087883e+05 1.668865e+05 -9.777050e+04
1.356642e+05 1.547993e+05 -9.308657e+04
1.162626e+05 1.594101e+05 -7.286451e+04
1.165365e+05 1.284671e+05 -9.294851e+04
1.665937e+05 1.599240e+05 -9.579320e+04
1.537530e+05 1.716979e+05 -7.168162e+04
-1.467811e+05 1.762020e+05 -7.287115e+04
-1.576245e+05 1.475621e+05 -9.666934e+04
-1.708804e+05 1.600737e+05 -7.597115e+04
-1.495583e+05 1.845776e+05 -9.584371e+04
-1.571699e+05 1.214780e+05 -7.319381e+04
-1.336252e+05 1.443874e+05 -7.063882e+04
-9.091144e+04 8.087953e+04 -9.257425e+04
-6.853556e+04 1.128084e+05 -8.792336e+04
-1.030258e+05 1.326212e+05 -9.515231e+04
-9.651090e+04 1.097433e+05 -7.963695e+04
-7.113825e+04 1.380318e+05 -7.039741e+04
-6.268973e+04 1.450355e+05 -9.304414e+04
-4.977454e+04 1.183940e+05 -7.248859e+04
-3.954266e+04 1.173810e+05 -9.769993e+04
-1.200000e+05 -2.000000e+04 -8.000000e+04
-9.565012e+04 -1.925340e+04 -9.473492e+04
-9.471789e+04 -3.569337e+04 -7.155815e+04
-1.151989e+05 -3.995031e+04 -9.512732e+04
-1.421339e+05 -3.355947e+04 -9.681653e+04
-1.246684e+05 -6.411521e+04 -9.067820e+04
-9.312768e+04 -5.222522e+04 -9.456538e+04
-1.331406e+05 -4.656419e+04 -7.163209e+04
-2.047206e+05 2.830320e+04 -9.958658e+04
-1.976938e+05 2.785851e+04 -7.267190e+04
-1.780290e+05 3.882225e+04 -9.527502e+04
-1.530811e+05 4.380872e+04 -1.009984e+05
-1.569173e+05 1.834602e+04 -9.554322e+04
-1.610014e+05 4.537705e+04 -7.492266e+04
9.971510e+04 1.133822e+04 -7.073585e+04
4.627995e+04 2.110441e+04 -7.061311e+04
6.093464e+04 -8.477024e+04 -8.053685e+04
1.624004e+05 2.677307e+05 -9.708941e+04
1.914027e+05 2.525813e+05 -9.786282e+04
-2.015620e+04 -1.273851e+05 -9.370655e+04
-4.005778e+04 -1.391672e+05 -6.872712e+04
-1.430083e+04 -1.558225e+05 -7.297483e+04
-4.250580e+04 -1.597743e+05 -8.878751e+04
9.288810e+04 -4.689613e+04 -7.571789e+04
1.110367e+05 -6.185350e+04 -7.304429e+04
1.474859e+05 -6.462086e+04 -7.521317e+04
1.222592e+05 -8.108447e+04 -9.079999e+04
1.081405e+05 -9.425597e+04 -6.895900e+04
1.221387e+05 -3.074828e+04 -7.092322e+04
-1.859200e+05 -5.161054e+04 -7.356722e+04
-1.832748e+05 -2.038524e+04 -7.380207e+04
-1.611661e+05 -4.482753e+04 -7.466839e+04
-1.752127e+05 -3.953192e+04 -9.556460e+04
-1.543756e+05 -6.091446e+04 -9.672159e+04
-1.537540e+05 -7.496427e+04 -7.285490e+04
-1.498908e+05 -2.000000e+04 -7.147520e+04
2.585328e+05 9.828960e+04 -7.210889e+04
2.279420e+05 1.684078e+05 -9.808705e+04
1.985919e+05 1.728004e+05 -9.804287e+04
-2.883303e+04 1.448556e+05 -9.363916e+04
1.268430e+05 -2.437713e+05 -7.351856e+04
1.363733e+05 -2.149731e+05 -9.710276e+04
1.123000e+05 -1.981392e+05 -7.590147e+04
1.483081e+05 -2.164396e+05 -7.161304e+04
-6.850359e+04 -6.675958e+04 -9.837354e+04
-5.400923e+04 -8.878171e+04 -9.703576e+04
-3.235102e+03 -6.280028e+04 -9.978586e+04
-4.195419e+04 -6.015021e+04 -8.021280e+04
-2.325332e+04 -8.995461e+04 -8.242091e+04
-2.448928e+05 6.612325e+04 -9.874275e+04
-2.597347e+05 1.015691e+05 -9.843181e+04
-2.594687e+05 6.905124e+04 -7.884976e+04
2.736158e+05 -1.673224e+05 -8.517801e+04
2.489102e+05 -1.588062e+05 -7.335477e+04
1.679489e+05 -1.981791e+05 -8.737457e+04
-2.769401e+05 2.300031e+05 -8.538777e+04
1.556817e+05 -2.381325e+05 -9.375333e+04
1.767055e+05 -2.573377e+05 -9.800851e+04
1.703477e+05 2.688828e+05 -7.258349e+04
1.580191e+05 -7.374983e+04 -9.721361e+04
1.588300e+05 -3.890894e+04 -8.843494e+04
9.073990e+04 -2.469091e+05 -7.457976e+04
1.233316e+05 -2.536184e+05 -9.843959e+04
8.637031e+04 -2.502901e+05 -9.943033e+04
1.028959e+05 -2.237752e+05 -9.353219e+04
1.538332e+05 -1.069314e+04 -9.286158e+04
1.559062e+05 -1.054108e+05 -8.356761e+04
1.364588e+05 -1.011245e+05 -1.018094e+05
9.937778e+04 -2.739240e+05 -8.546606e+04
7.003507e+04 -2.741902e+05 -8.740901e+04
5.418672e+04 -2.511730e+05 -9.940751e+04
2.174532e+05 4.548985e+04 -9.999111e+04
-1.060613e+05 -2.238376e+05 -9.396550e+04
-1.095870e+05 -2.206030e+05 -6.995249e+04
-8.460395e+04 -2.258240e+05 -7.200526e+04
-7.639923e+04 -2.496099e+05 -8.748916e+04
-9.705431e+04 -2.758663e+05 -8.804222e+04
2.150882e+05 1.128516e+05 -9.748997e+04
1.831377e+05 1.171236e+05 -9.790233e+04
1.895699e+05 7.940672e+04 -9.831672e+04
-7.250358e+04 -6.393057e+04 -7.331459e+04
2.338392e+04 -2.561724e+05 -9.896617e+04
2.666104e+04 -2.484036e+05 -7.413468e+04
4.038759e+04 -2.736271e+05 -8.213936e+04
1.974314e+03 -2.746543e+05 -8.401056e+04
1.313120e+05 7.435987e+04 -9.525468e+04
1.381198e+05 1.023175e+05 -9.820829e+04
1.634428e+05 9.184509e+04 -9.761188e+04
1.588372e+05 8.270831e+04 -7.542090e+04
1.336545e+05 1.036827e+05 -7.253258e+04
-2.633368e+05 2.208680e+02 -1.003501e+05
-2.501238e+05 -9.040643e+02 -7.738554e+04
-2.218892e+05 -2.419090e+03 -9.876175e+04
-2.455989e+05 3.100247e+04 -9.995400e+04
2.473110e+05 2.928572e+04 -7.718927e+04
2.769452e+05 8.198610e+03 -8.262780e+04
2.531327e+05 -5.749822e+03 -7.697014e+04
2.708449e+05 -2.703477e+05 -8.394477e+04
2.305260e+05 -2.738445e+05 -7.959473e+04
2.047624e+05 -2.466973e+05 -7.402861e+04
2.002191e+05 -2.746257e+05 -8.435054e+04
2.219415e+05 2.141198e+05 -7.207525e+04
2.272946e+05 1.138247e+05 -7.394820e+04
1.258815e+04 2.435091e+05 -7.359922e+04
3.366902e+04 2.150412e+05 -8.813935e+04
-3.173580e+03 2.056194e+05 -9.824706e+04
1.703043e+04 2.366635e+05 -9.750989e+04
2.220014e+05 4.281156e+04 -7.652244e+04
2.092720e+05 6.714013e+04 -8.151239e+04
2.203209e+05 8.223821e+04 -9.846717e+04
-1.071264e+05 2.069768e+05 -7.802404e+04
-1.122747e+05 1.749665e+05 -9.188478e+04
-1.395996e+05 2.147892e+05 -1.000904e+05
-1.329476e+05 1.406835e+05 -9.505173e+04
-2.284934e+05 4.929101e+04 -7.319593e+04
1.066076e+05 1.944327e+05 -7.393345e+04
-2.095266e+05 3.937318e+02 -7.417486e+04
-2.244724e+05 2.638431e+04 -8.471470e+04
-2.604364e+05 3.230393e+04 -7.960449e+04
-1.826473e+05 7.964979e+04 -7.253683e+04
-9.749054e+04 1.517980e+05 -7.227815e+04
-8.119867e+04 8.493829e+04 -6.998829e+04
-3.895203e+04 1.480746e+05 -7.017025e+04
2.674647e+05 -2.347845e+05 -7.374769e+04
-1.630849e+05 1.075641e+05 -9.660118e+04
-6.783943e+04 -3.774283e+04 -9.182351e+04
-1.800306e+04 -3.874141e+04 -9.057351e+04
-4.569826e+04 -2.509096e+04 -8.075672e+04
-5.194102e+04 -2.130465e+03 -9.909548e+04
-5.616163e+04 3.216098e+04 -8.638871e+04
-6.986709e+04 5.984716e+04 -7.882386e+04
4.845960e+04 -1.719033e+05 -9.665570e+04
5.924762e+04 -1.875009e+05 -7.396412e+04
8.189386e+04 -1.918697e+05 -9.588910e+04
8.017827e+04 -1.608736e+05 -7.479699e+04
8.898938e+04 -1.835755e+05 -7.127507e+04
7.925001e+04 -2.157901e+05 -7.206933e+04
1.162801e+05 -1.575119e+05 -7.415647e+04
1.906493e+05 -1.218326e+05 -8.606285e+04
2.150577e+05 -1.474802e+05 -8.539707e+04
1.760962e+05 -1.565217e+05 -8.539281e+04
1.451956e+05 -1.785508e+05 -9.391904e+04
1.450487e+05 -1.787118e+05 -7.001218e+04
1.921491e+05 -1.821910e+05 -8.280761e+04
1.451199e+05 -1.401843e+05 -8.614474e+04
2.742726e+05 1.739342e+05 -8.128501e+04
2.492989e+05 1.614171e+05 -7.472590e+04
7.370260e+04 7.407587e+04 -7.141893e+04
1.018415e+05 9.263677e+04 -8.528201e+04
1.020407e+05 2.704869e+05 -7.290595e+04
-2.087582e+05 -4.113601e+04 -9.479747e+04
-2.288368e+05 -6.525776e+04 -9.592873e+04
-2.226096e+05 -5.961816e+04 -7.346467e+04
-2.198836e+05 -2.895650e+04 -7.341764e+04
-1.912694e+05 -1.881378e+04 -9.894095e+04
1.816886e+05 2.720099e+04 -7.640912e+04
1.846682e+05 -1.206495e+04 -7.644781e+04
-1.844498e+05 2.443090e+05 -9.894135e+04
-1.920573e+03 -5.853452e+04 -7.774866e+04
1.428150e+04 1.171705e+05 -8.520336e+04
-1.232329e+04 1.217213e+05 -9.730658e+04
-5.626609e+04 2.363374e+05 -9.723145e+04
-8.159505e+04 2.360926e+05 -7.286357e+04
-4.772758e+04 2.383281e+05 -7.349691e+04
-6.693547e+04 2.664496e+05 -8.282159e+04
-2.701067e+04 2.643903e+05 -7.276589e+04
-3.540406e+04 2.646548e+05 -9.709285e+04
-1.093976e+05 -2.524691e+05 -9.842718e+04
-1.311050e+05 6.706082e+04 -8.170319e+04
4.036750e+04 -9.700661e+04 -6.957864e+04
8.256687e+03 -1.023164e+05 -8.347019e+04
-1.737533e+05 -1.497661e+05 -7.869592e+04
-1.585502e+05 -1.671259e+05 -8.645340e+04
-1.866611e+05 -1.522879e+05 -9.904390e+04
-2.226568e+05 -1.366717e+05 -7.566833e+04
-2.258633e+05 -1.399813e+05 -9.776209e+04
-1.759294e+05 -1.890199e+05 -9.859658e+04
1.368746e+05 2.676384e+05 -7.419681e+04
-2.607158e+05 -1.979012e+05 -7.548526e+04
-2.715388e+05 -2.345964e+05 -7.817927e+04
2.581809e+05 -3.645177e+04 -7.063881e+04
-1.630196e+05 -2.680518e+05 -7.375614e+04
-1.338555e+05 -2.469204e+05 -7.389833e+04
-1.301433e+05 -2.744079e+05 -8.711018e+04
-1.414443e+05 -2.493887e+05 -9.790204e+04
-1.027424e+05 -2.491318e+05 -7.137398e+04
7.990899e+04 1.740515e+05 -7.403658e+04
8.314681e+04 1.822014e+05 -9.760933e+04
7.109277e+04 2.101062e+05 -7.505042e+04
6.437201e+04 1.995978e+05 -9.805459e+04
-1.234628e+04 -1.609371e+05 -9.768121e+04
7.124204e+03 -1.385771e+05 -7.347189e+04
1.650151e+04 -1.656552e+05 -8.965382e+04
-1.655723e+05 -2.079253e+05 -7.767085e+04
-1.223097e+05 -1.887344e+05 -8.575800e+04
-2.504394e+04 -1.142740e+05 -6.685392e+04
-2.737090e+05 2.734562e+05 -8.608672e+04
2.280603e+05 8.312407e+04 -7.317759e+04
2.751375e+05 -6.698405e+04 -8.261596e+04
2.489721e+05 -7.380588e+04 -7.193602e+04
2.438090e+05 -7.332863e+04 -9.724701e+04
8.669601e+04 -7.661322e+04 -8.498250e+04
-4.442415e+04 5.556522e+04 -9.618585e+04
2.772525e+04 -1.949498e+05 -9.595283e+04
8.021611e+03 -2.259176e+05 -9.662448e+04
1.139368e+04 -2.169979e+05 -7.275353e+04
-1.947712e+03 -1.890566e+05 -8.409641e+04
-3.241241e+04 -1.849491e+05 -7.242190e+04
2.936147e+04 -1.865111e+05 -7.174403e+04
2.486551e+05 -1.562195e+05 -9.777005e+04
-1.334474e+04 -2.525050e+05 -9.438322e+04
-2.658713e+05 -1.940344e+05 -9.846438e+04
2.723362e+05 -9.681935e+04 -8.460716e+04
-1.395107e+05 -2.201498e+05 -8.353353e+04
2.440307e+05 -1.040165e+05 -9.480229e+04
2.651488e+05 -1.313213e+05 -8.416701e+04
2.499981e+05 -1.048469e+05 -6.937251e+04
-1.262820e+05 -4.850255e+03 -9.656536e+04
-1.600725e+05 -9.451561e+03 -9.653598e+04
-1.869833e+05 8.410326e+03 -9.711467e+04
-1.216172e+05 2.373699e+05 -9.598020e+04
-1.556419e+05 2.392571e+05 -7.872240e+04
-1.395014e+05 2.124278e+05 -7.351728e+04
-1.401012e+05 1.916587e+03 -7.156925e+04
-1.207535e+05 9.768321e+03 -7.154515e+04
-2.585453e+05 9.664563e+04 -7.271273e+04
-1.732375e+05 1.151805e+04 -7.257956e+04
2.287172e+05 -1.268545e+05 -7.603273e+04
2.230261e+05 -1.757023e+05 -8.560142e+04
-1.307440e+05 -8.912179e+04 -9.737760e+04
-1.830424e+05 -7.032915e+04 -9.780792e+04
-1.008018e+05 -1.548660e+05 -8.774370e+04
-2.154984e+05 -1.006966e+05 -7.443907e+04
-2.691074e+05 -9.782974e+04 -8.450571e+04
-5.743547e+04 1.754877e+05 -7.300546e+04
-1.264121e+05 1.054972e+05 -7.239637e+04
5.345059e+04 2.343656e+05 -9.721929e+04
-1.939954e+05 1.071260e+05 -9.920743e+04
-1.683912e+05 2.693132e+05 -8.742017e+04
1.846829e+05 -8.479677e+04 -7.816959e+04
1.844194e+05 -5.043078e+04 -7.162485e+04
-5.124121e+04 4.278597e+03 -7.231697e+04
-7.141165e+04 -1.513564e+04 -8.128501e+04
-1.294885e+05 9.996199e+04 -9.689126e+04
-1.544193e+05 8.769819e+04 -7.335078e+04
3.871191e+04 -2.268143e+05 -9.703632e+04
4.713275e+04 -2.154924e+05 -7.596857e+04
2.174894e+05 -1.176642e+05 -9.946792e+04
-1.574040e+05 -1.098855e+05 -7.491272e+04
2.212063e+05 -9.208167e+04 -7.440390e+04
-1.108658e+05 -4.832527e+04 -7.155516e+04
-1.240688e+05 -9.468867e+04 -7.671781e+04
1.859884e+05 -2.188914e+05 -7.075967e+04
-6.490423e+04 2.100202e+05 -7.172400e+04
-3.681665e+04 2.038852e+05 -9.510458e+04
-2.965085e+04 2.105100e+05 -7.155705e+04
-3.074922e+03 2.688429e+05 -9.612537e+04
-2.562371e+05 -6.515969e+04 -7.363778e+04
-2.057116e+05 -7.346044e+04 -9.279621e+04
1.289884e+05 -3.717381e+03 -7.731707e+04
-1.156936e+05 2.406635e+05 -7.214259e+04
1.310590e+05 2.554039e+04 -7.079268e+04
1.540425e+05 2.506438e+04 -9.658490e+04
1.572143e+05 1.063273e+04 -7.628331e+04
1.275988e+05 4.175789e+04 -9.639399e+04
9.957430e+04 5.453401e+04 -8.441418e+04
-2.517057e+05 -1.202195e+05 -1.018407e+05
-7.164754e+04 2.011293e+05 -9.537790e+04
-9.043228e+04 2.357654e+05 -9.605801e+04
-9.872503e+04 2.665023e+05 -7.191752e+04
1.346179e+03 2.734627e+05 -7.070984e+04
-9.044183e+04 -1.478487e+04 -7.139805e+04
-8.154837e+04 1.678459e+05 -9.675533e+04
-4.764609e+04 1.717739e+05 -9.707477e+04
-8.471619e+04 1.845828e+05 -7.167970e+04
1.276977e+05 6.678253e+04 -7.114014e+04
6.033608e+04 -2.458481e+05 -7.520121e+04
7.335171e+04 -2.253795e+05 -9.632569e+04
-1.040115e+05 2.655745e+05 -9.619091e+04
-1.319778e+05 2.668278e+05 -7.442450e+04
-2.016441e+04 1.806914e+05 -7.385240e+04
-1.372789e+05 2.651197e+05 -9.883703e+04
-2.805614e+05 -1.796308e+05 -6.402140e+04
-2.870134e+05 -1.944469e+05 -6.456612e+04
-2.658950e+05 -1.867496e+05 -6.296674e+04
-2.915582e+05 -2.146105e+05 -5.851518e+04
2.823555e+05 6.040233e+04 -6.572985e+04
2.883659e+05 7.406907e+04 -6.367818e+04
2.739645e+05 7.146801e+04 -6.195803e+04
2.727886e+05 5.481720e+04 -6.227071e+04
2.609171e+05 6.032724e+04 -6.382129e+04
2.436288e+05 5.498821e+04 -6.395488e+04
2.568877e+05 7.552505e+04 -5.700420e+04
2.413713e+05 3.840004e+04 -5.971620e+04
2.303282e+05 3.969401e+04 -6.354016e+04
2.291967e+05 6.329239e+04 -6.396049e+04
2.142230e+05 3.931158e+04 -6.169790e+04
2.053980e+05 5.183317e+04 -6.858306e+04
2.033244e+05 3.740938e+04 -6.948131e+04
1.983071e+05 3.050106e+04 -6.138047e+04
1.939339e+05 4.696537e+04 -6.329416e+04
2.088144e+05 2.504740e+04 -6.404645e+04
1.800284e+05 2.292457e+04 -6.272402e+04
1.808467e+05 2.560950e+03 -6.323227e+04
1.668949e+05 9.557723e+03 -6.353431e+04
1.500936e+05 1.076812e+04 -6.224085e+04
1.699433e+05 3.584743e+04 -5.707792e+04
1.392549e+05 1.109140e+04 -5.796221e+04
1.377963e+05 -2.009159e+03 -6.404139e+04
1.185775e+05 -4.370638e+03 -6.259488e+04
1.076315e+05 -3.384133e+03 -5.778983e+04
1.037127e+05 -1.614154e+04 -6.408003e+04
8.587521e+04 -1.821269e+04 -6.273056e+04
1.152259e+05 -1.781659e+04 -5.861784e+04
7.008421e+04 -1.183121e+04 -6.898715e+04
7.344347e+04 -3.525368e+04 -6.607614e+04
8.691680e+04 -3.676274e+04 -6.375652e+04
5.625342e+04 -4.307714e+04 -6.459996e+04
6.154498e+04 -2.322252e+04 -6.464915e+04
5.163170e+04 -3.098565e+04 -6.128589e+04
4.019114e+04 -4.033752e+04 -6.358564e+04
2.090521e+04 -4.491635e+04 -6.340355e+04
5.997662e+04 -5.712397e+04 -5.793532e+04
2.232855e+04 -6.248815e+04 -6.332898e+04
8.322271e+03 -5.847270e+04 -6.379367e+04
-8.514973e+03 -5.981011e+04 -6.299146e+04
1.831964e+04 -5.714039e+04 -7.271039e+04
-3.132174e+04 -6.360556e+04 -6.403804e+04
-1.913347e+04 -8.003445e+04 -6.558709e+04
-4.580902e+04 -7.197182e+04 -6.284159e+04
-3.814550e+04 -8.318725e+04 -6.539869e+04
-5.117022e+04 -8.432552e+04 -6.151364e+04
-4.544676e+04 -8.955714e+04 -6.080145e+04
-6.161352e+04 -7.735570e+04 -6.265580e+04
-3.810704e+04 -9.488948e+04 -5.911642e+04
-7.431828e+04 -7.951663e+04 -6.067848e+04
-6.629184e+04 -9.388715e+04 -6.629766e+04
-7.583347e+04 -1.021078e+05 -6.033421e+04
-8.560331e+04 -8.788271e+04 -6.755313e+04
-8.770096e+04 -1.084295e+05 -6.330335e+04
-9.864974e+04 -9.598022e+04 -6.549256e+04
-1.179229e+05 -9.799044e+04 -6.244741e+04
-1.119297e+05 -1.184337e+05 -6.256205e+04
-9.676771e+04 -7.429459e+04 -6.001918e+04
-1.337419e+05 -1.140229e+05 -6.577569e+04
-1.288197e+05 -1.266793e+05 -6.240736e+04
-1.026507e+05 -1.287877e+05 -5.778541e+04
-1.394011e+05 -1.290201e+05 -6.021925e+04
-1.509719e+05 -1.206351e+05 -6.374700e+04
-1.675286e+05 -1.221292e+05 -6.130643e+04
-1.723603e+05 -1.442197e+05 -6.362648e+04
-1.506270e+05 -1.370379e+05 -6.253318e+04
-1.828055e+05 -1.290454e+05 -6.332229e+04
-1.944352e+05 -1.492913e+05 -6.426198e+04
-1.993628e+05 -1.350474e+05 -6.018958e+04
-1.861337e+05 -1.166338e+05 -5.669343e+04
-2.055339e+05 -1.642616e+05 -6.557497e+04
-2.311050e+05 -1.496085e+05 -6.165849e+04
-2.127972e+05 -1.445089e+05 -6.439335e+04
-2.249262e+05 -1.639581e+05 -6.532985e+04
-2.171664e+05 -1.323735e+05 -5.719782e+04
-2.328655e+05 -1.796192e+05 -6.763297e+04
-2.473682e+05 -1.635738e+05 -6.662568e+04
-2.444538e+05 -1.809042e+05 -6.159933e+04
-2.641115e+05 -1.697410e+05 -6.178239e+04
-2.761214e+05 -1.670844e+05 -7.021613e+04
-2.590509e+05 -1.996708e+05 -5.731360e+04
-2.844567e+05 -1.903288e+05 -5.716821e+04
-2.885177e+05 -1.839339e+05 -5.800900e+04
-2.930178e+05 -1.925063e+05 -5.723338e+04
-2.957791e+05 -2.036796e+05 -5.425759e+04
2.907883e+05 6.735351e+04 -5.629911e+04
2.942072e+05 7.334033e+04 -5.718077e+04
2.877557e+05 7.279158e+04 -5.510329e+04
2.838891e+05 6.333281e+04 -5.739711e+04
2.766138e+05 6.247686e+04 -5.655216e+04
2.809139e+05 7.049391e+04 -5.666564e+04
2.727976e+05 6.727446e+04 -5.456984e+04
2.709079e+05 5.904060e+04 -5.571094e+04
2.658383e+05 6.057490e+04 -5.670408e+04
2.572730e+05 5.769661e+04 -5.573880e+04
2.630101e+05 6.763244e+04 -5.366029e+04
2.495181e+05 5.427256e+04 -5.690567e+04
2.399410e+05 5.002308e+04 -5.619477e+04
2.334099e+05 4.172941e+04 -5.566480e+04
2.387535e+05 4.242304e+04 -5.382567e+04
2.331945e+05 5.379282e+04 -5.713492e+04
2.243303e+05 3.919221e+04 -5.670038e+04
2.167227e+05 3.727873e+04 -5.501078e+04
2.101664e+05 3.770974e+04 -5.468606e+04
2.058097e+05 4.201445e+04 -5.866080e+04
2.059730e+05 3.440597e+04 -5.967885e+04
2.016303e+05 3.129777e+04 -5.429544e+04
2.002175e+05 3.903161e+04 -5.674256e+04
2.071529e+05 2.967532e+04 -5.624316e+04
1.948881e+05 2.788641e+04 -5.552638e+04
1.865710e+05 2.228933e+04 -5.572894e+04
1.775122e+05 2.196020e+04 -5.480337e+04
1.778737e+05 1.052703e+04 -5.614689e+04
1.709766e+05 1.293443e+04 -5.633899e+04
1.612305e+05 1.040571e+04 -5.690380e+04
1.723702e+05 2.728122e+04 -5.340204e+04
1.533803e+05 9.015536e+03 -5.531802e+04
1.454560e+05 8.803772e+03 -5.543123e+04
1.408370e+05 4.920603e+02 -5.625825e+04
1.409891e+05 7.311865e+03 -5.321844e+04
1.305739e+05 -2.578186e+03 -5.709961e+04
1.219243e+05 -5.308519e+03 -5.563846e+04
1.138576e+05 -6.156300e+03 -5.533368e+04
1.074993e+05 -1.308925e+04 -5.611920e+04
1.091860e+05 -6.991859e+03 -5.300369e+04
9.933225e+04 -1.590403e+04 -5.621512e+04
1.124791e+05 -1.356499e+04 -5.360328e+04
9.157557e+04 -1.768896e+04 -5.696412e+04
8.260458e+04 -2.012368e+04 -5.530879e+04
7.427841e+04 -1.805691e+04 -5.860112e+04
7.633027e+04 -2.966622e+04 -5.745936e+04
8.339403e+04 -3.013975e+04 -5.670151e+04
6.109169e+04 -2.839593e+04 -5.726048e+04
6.672012e+04 -3.464522e+04 -5.779496e+04
6.970334e+04 -2.442611e+04 -5.684758e+04
5.959152e+04 -3.863766e+04 -5.496486e+04
5.613092e+04 -3.303789e+04 -5.562211e+04
5.132322e+04 -3.326513e+04 -5.424154e+04
5.084040e+04 -4.063384e+04 -5.690797e+04
4.462968e+04 -3.834295e+04 -5.587520e+04
3.422509e+04 -4.359174e+04 -5.705061e+04
5.346067e+04 -4.730589e+04 -5.400107e+04
4.174408e+04 -3.106792e+04 -5.360397e+04
2.629485e+04 -4.701143e+04 -5.565801e+04
1.646212e+04 -4.783443e+04 -5.623550e+04
1.959409e+04 -5.606191e+04 -5.688553e+04
1.254912e+04 -5.699829e+04 -5.592687e+04
3.663326e+03 -5.864766e+04 -5.687134e+04
1.604155e+04 -5.544426e+04 -6.091678e+04
-4.475645e+03 -6.145025e+04 -5.549909e+04
-1.228418e+04 -6.149897e+04 -5.545664e+04
-2.207065e+04 -6.385061e+04 -5.700870e+04
-1.640630e+04 -7.257263e+04 -5.710455e+04
-3.169853e+04 -6.825444e+04 -5.611410e+04
-2.622526e+04 -7.527500e+04 -5.708271e+04
-3.394431e+04 -7.906871e+04 -5.787355e+04
-3.797927e+04 -7.346482e+04 -5.706418e+04
-4.595540e+04 -7.479962e+04 -5.566421e+04
-4.325883e+04 -8.049755e+04 -5.730976e+04
-4.675131e+04 -8.473370e+04 -5.554483e+04
-5.052388e+04 -8.169090e+04 -5.469381e+04
-5.524814e+04 -7.654745e+04 -5.604089e+04
-4.261646e+04 -8.710298e+04 -5.523708e+04
-6.163890e+04 -8.295358e+04 -5.494626e+04
-5.574702e+04 -8.649800e+04 -5.546998e+04
-6.276196e+04 -9.196560e+04 -5.717215e+04
-6.820199e+04 -8.507163e+04 -5.626341e+04
-7.560163e+04 -8.616753e+04 -5.466435e+04
-7.289266e+04 -9.224604e+04 -5.824695e+04
-8.100900e+04 -9.079411e+04 -5.811982e+04
-7.692031e+04 -9.752302e+04 -5.478736e+04
-8.340607e+04 -1.015517e+05 -5.541455e+04
-8.828770e+04 -9.576922e+04 -5.761594e+04
-9.522300e+04 -9.667239e+04 -5.638961e+04
-9.164299e+04 -1.043299e+05 -5.650029e+04
-8.724066e+04 -8.422936e+04 -5.499582e+04
-1.000532e+05 -1.082758e+05 -5.718345e+04
-1.042549e+05 -9.926029e+04 -5.766471e+04
-1.149025e+05 -1.031876e+05 -5.567478e+04
-1.122777e+05 -1.124650e+05 -5.606324e+04
-1.238268e+05 -1.089413e+05 -5.816074e+04
-1.212941e+05 -1.161573e+05 -5.548515e+04
-1.078767e+05 -1.190859e+05 -5.370507e+04
-1.282257e+05 -1.225338e+05 -5.555074e+04
-1.295562e+05 -1.158485e+05 -5.761829e+04
-1.391490e+05 -1.179246e+05 -5.731067e+04
-1.346906e+05 -1.226781e+05 -5.612188e+04
-1.466639e+05 -1.235717e+05 -5.678469e+04
-1.407053e+05 -1.253325e+05 -5.458689e+04
-1.536371e+05 -1.240904e+05 -5.644668e+04
-1.534319e+05 -1.317540e+05 -5.632739e+04
-1.463402e+05 -1.300879e+05 -5.495551e+04
-1.615471e+05 -1.356170e+05 -5.731447e+04
-1.611105e+05 -1.265617e+05 -5.704633e+04
-1.693919e+05 -1.288351e+05 -5.460730e+04
-1.730074e+05 -1.400631e+05 -5.593874e+04
-1.764848e+05 -1.320910e+05 -5.694639e+04
-1.815695e+05 -1.422065e+05 -5.716753e+04
-1.852658e+05 -1.363437e+05 -5.583899e+04
-1.795535e+05 -1.268850e+05 -5.381623e+04
-1.696616e+05 -1.467101e+05 -5.361370e+04
-1.898036e+05 -1.472664e+05 -5.758168e+04
-1.985726e+05 -1.476978e+05 -5.704214e+04
-1.926506e+05 -1.389145e+05 -5.613422e+04
-2.007645e+05 -1.423576e+05 -5.458472e+04
-2.045852e+05 -1.569042e+05 -5.684608e+04
-2.170933e+05 -1.519986e+05 -5.639069e+04
-2.071029e+05 -1.476697e+05 -5.744309e+04
-2.147474e+05 -1.604554e+05 -5.856245e+04
-2.104755e+05 -1.416740e+05 -5.400509e+04
-2.246505e+05 -1.535244e+05 -5.675192e+04
-2.329808e+05 -1.563577e+05 -5.523820e+04
-2.239516e+05 -1.619701e+05 -5.652518e+04
-2.307971e+05 -1.615915e+05 -5.739283e+04
-2.338793e+05 -1.707423e+05 -5.712881e+04
-2.414758e+05 -1.641018e+05 -5.857309e+04
-2.529773e+05 -1.685838e+05 -5.792752e+04
-2.499589e+05 -1.757032e+05 -5.791603e+04
-2.421208e+05 -1.721635e+05 -5.487090e+04
-2.807095e+05 -1.808748e+05 -5.526192e+04
-2.774993e+05 -1.857816e+05 -5.587189e+04
-2.679650e+05 -1.823807e+05 -5.549910e+04
-2.740413e+05 -1.795828e+05 -5.653321e+04
-2.572945e+05 -1.798344e+05 -5.512277e+04
-2.597665e+05 -1.731291e+05 -5.512767e+04
-2.653021e+05 -1.718211e+05 -5.469504e+04
-2.724284e+05 -1.723305e+05 -5.827546e+04
-2.640526e+05 -1.887014e+05 -5.365353e+04
-2.922691e+05 -1.780737e+05 -5.456775e+04
2.779915e+05 7.516881e+04 -5.365345e+04
2.470112e+05 6.107816e+04 -5.365296e+04
2.270807e+05 3.157941e+04 -5.361393e+04
1.636944e+05 3.083503e+03 -5.350028e+04
8.923526e+04 -1.006016e+04 -5.320663e+04
3.717766e+04 -5.219728e+04 -5.320001e+04
-3.885132e+04 -6.796562e+04 -5.698912e+04
-1.069585e+05 -9.260365e+04 -5.361969e+04
-1.636516e+05 -1.199011e+05 -5.348760e+04
-1.955361e+05 -1.343050e+05 -5.339967e+04
-2.273161e+05 -1.482477e+05 -5.345669e+04
-1.487615e+05 -8.092905e+04 -2.653765e+04
-1.481854e+05 -7.410809e+04 -2.307531e+04
-1.421322e+05 -7.797751e+04 -2.653765e+04
-1.542039e+05 -7.150241e+04 -2.028765e+04
-7.566966e+04 -4.978090e+04 -2.727311e+04
-8.155297e+04 -4.723023e+04 -2.454623e+04
-8.229893e+04 -5.273243e+04 -2.727311e+04
-8.111214e+04 -4.035426e+04 -2.102311e+04
-1.650889e+05 -5.264913e+04 -7.787654e+03
-1.596464e+05 -6.207577e+04 -1.403765e+04
-1.590704e+05 -5.525481e+04 -1.057531e+04
-1.584596e+05 -4.969759e+04 -7.787654e+03
-9.199708e+04 -2.150098e+04 -8.523114e+03
-8.655461e+04 -3.092762e+04 -1.477311e+04
-9.243792e+04 -2.837695e+04 -1.204623e+04
-9.862635e+04 -2.445251e+04 -8.523114e+03
-1.355029e+05 -7.502598e+04 -2.653765e+04
-1.349269e+05 -6.820501e+04 -2.307531e+04
-1.288737e+05 -7.207444e+04 -2.653765e+04
-1.155132e+05 -6.593317e+04 -2.643597e+04
-1.221425e+05 -6.888471e+04 -2.643597e+04
-1.214644e+05 -6.182556e+04 -2.287193e+04
-1.281957e+05 -6.501529e+04 -2.297362e+04
-9.555745e+04 -5.863551e+04 -2.727311e+04
-8.892819e+04 -5.568397e+04 -2.727311e+04
-9.481150e+04 -5.313331e+04 -2.454623e+04
-1.022547e+05 -6.003010e+04 -2.643597e+04
-1.088839e+05 -6.298163e+04 -2.643597e+04
-1.082059e+05 -5.592248e+04 -2.287193e+04
-1.015087e+05 -5.452789e+04 -2.370908e+04
-1.052556e+05 -2.740405e+04 -8.523114e+03
-1.056964e+05 -3.428003e+04 -1.204623e+04
-1.118849e+05 -3.035559e+04 -8.523114e+03
-1.185821e+05 -3.175018e+04 -7.685965e+03
-1.190909e+05 -3.706920e+04 -1.037193e+04
-1.252113e+05 -3.470171e+04 -7.685965e+03
-1.123937e+05 -3.567461e+04 -1.120908e+04
-1.452011e+05 -4.379452e+04 -7.787654e+03
-1.458118e+05 -4.935173e+04 -1.057531e+04
-1.518304e+05 -4.674606e+04 -7.787654e+03
-1.318406e+05 -3.765325e+04 -7.685965e+03
-1.323494e+05 -4.297228e+04 -1.037193e+04
-1.384699e+05 -4.060479e+04 -7.685965e+03
-1.390806e+05 -4.616200e+04 -1.047362e+04
-8.743628e+04 -4.467956e+04 -2.181934e+04
-9.331958e+04 -4.212890e+04 -1.909245e+04
-8.818223e+04 -5.018177e+04 -2.454623e+04
-9.406554e+04 -4.763110e+04 -2.181934e+04
-8.699544e+04 -3.780359e+04 -1.829623e+04
-9.287875e+04 -3.525292e+04 -1.556934e+04
-9.906718e+04 -3.132849e+04 -1.204623e+04
-9.950801e+04 -3.820446e+04 -1.556934e+04
-1.007628e+05 -4.902569e+04 -2.098219e+04
-1.067140e+05 -4.491807e+04 -1.741816e+04
-1.000168e+05 -4.352349e+04 -1.825531e+04
-1.062052e+05 -3.959905e+04 -1.473219e+04
-1.476094e+05 -6.728713e+04 -1.961296e+04
-1.415561e+05 -7.115655e+04 -2.307531e+04
-1.470333e+05 -6.046616e+04 -1.615061e+04
-1.409801e+05 -6.433559e+04 -1.961296e+04
-1.536279e+05 -6.468145e+04 -1.682531e+04
-1.530518e+05 -5.786049e+04 -1.336296e+04
-1.464226e+05 -5.490895e+04 -1.336296e+04
-1.524411e+05 -5.230327e+04 -1.057531e+04
-1.342489e+05 -6.114586e+04 -1.951127e+04
-1.403021e+05 -5.727643e+04 -1.604893e+04
-1.335709e+05 -5.408671e+04 -1.594724e+04
-1.396914e+05 -5.171922e+04 -1.326127e+04
-1.148352e+05 -5.887402e+04 -2.287193e+04
-1.141572e+05 -5.181486e+04 -1.930790e+04
-1.207864e+05 -5.476640e+04 -1.930790e+04
-1.201084e+05 -4.770725e+04 -1.574386e+04
-1.275177e+05 -5.795613e+04 -1.940958e+04
-1.268397e+05 -5.089698e+04 -1.584555e+04
-1.074600e+05 -5.042028e+04 -2.014504e+04
-1.134112e+05 -4.631266e+04 -1.658101e+04
-1.195997e+05 -4.238822e+04 -1.305790e+04
-1.257201e+05 -4.002074e+04 -1.037193e+04
-1.262289e+05 -4.533976e+04 -1.305790e+04
-1.129024e+05 -4.099364e+04 -1.389504e+04
-1.329601e+05 -4.852949e+04 -1.315958e+04
CELLS 35 175
4  1506 8522 1359 1507
4  8522 1359 1507 1564
4  8628 1485 8630 1564
4  1677 1671 8878 1485
4  8630 1652 8899 1564
4  1536 1499 8663 1487
4  8635 8628 8663 1487
4  8635 1485 8628 1487
4  8628 8522 1507 1564
4  1536 8663 8851 1487
4  8628 1487 1485 1507
4  1522 8851 8852 1507
4  8628 1507 1485 1564
4  1536 1487 8851 1507
4  8851 8663 8628 1487
4  8635 1633 1485 1487
4  8635 8663 1633 1487
4  8630 1485 1671 1564
4  8635 1677 8878 1485
4  8851 1487 8628 1507
4  8635 8878 8628 1485
4  1359 8899 1652 1564
4  8628 8522 8852 1507
4  8852 8522 1506 1507
4  8635 1633 1677 1485
4  8628 8899 8522 1564
4  8628 8878 8630 1485
4  8878 1671 8630 1485
4  8522 8899 1359 1564
4  8851 8628 8852 1507
4  8628 8630 8899 1564
4  1536 8851 1522 1507
4  1633 8663 1499 1487
4  8630 1671 1652 1564
4  1522 8852 1506 1507
CELL_TYPES 35
10
10
10
10
10
10
10
10
10
10
10
10
10
10
10
10
10
10
10
10
10
10
10
10
10
10
10
10
10
10
10
10
10
10
10
CELL_DATA 35
SCALARS total_strain double 6
LOOKUP_TABLE default
2.318570e-06 1.631332e-06 9.533445e-06 -2.023658e-06 -3.868739e-05 -3.386513e-05
1.871046e-06 1.067446e-06 1.011258e-05 -2.763152e-07 -3.469325e-05 -3.426692e-05
-1.034134e-05 -4.973896e-06 5.063601e-05 1.254372e-05 2.040907e-05 -1.830147e-05
1.071284e-06 -6.573469e-07 3.410334e-05 -5.766134e-07 5.290437e-05 -1.907170e-05
-9.276014e-08 -1.643268e-05 4.811736e-05 -3.606600e-06 8.662984e-06 -5.640222e-05
-9.147291e-07 2.067066e-06 3.734261e-05 -6.569857e-07 -1.213004e-05 6.507008e-05
-2.171240e-05 -1.405383e-05 6.987512e-05 -1.893972e-06 1.939723e-05 2.851206e-05
-6.555786e-06 -9.710990e-06 6.222615e-05 -1.184281e-05 1.548440e-05 2.823925e-05
-7.471827e-06 -1.094593e-05 5.196517e-05 -1.090516e-05 -2.007625e-05 -1.942703e-05
-4.582004e-06 -1.216510e-05 5.625494e-05 -9.784480e-06 -2.666521e-05 4.715711e-05
3.715670e-06 3.663523e-06 2.454041e-05 5.206490e-07 -3.299999e-06 2.263737e-06
-1.206538e-05 -2.585499e-06 4.783343e-05 -6.028384e-06 -4.633245e-05 2.363770e-05
2.428151e-06 3.542765e-06 2.399111e-05 1.198274e-06 -2.858690e-06 -1.848044e-06
2.912546e-06 2.573622e-06 2.229630e-05 1.456722e-06 -3.705858e-05 3.255525e-05
-2.180118e-05 -1.832398e-05 7.423589e-05 9.433500e-07 -1.975604e-05 2.897825e-05
2.057559e-06 1.186129e-06 3.676333e-05 -1.669145e-06 2.514197e-05 4.274256e-05
-1.104626e-05 -4.156389e-06 4.961733e-05 9.296943e-06 2.897071e-05 4.699573e-05
1.853643e-06 3.944955e-06 1.726457e-05 1.391628e-06 3.378930e-05 -2.536227e-05
-1.968019e-05 -2.159090e-07 5.750153e-05 -8.751961e-08 5.652750e-05 -3.439570e-06
-6.530365e-06 -9.933058e-06 5.742949e-05 1.232626e-05 -2.428210e-05 2.102441e-05
-1.951321e-05 -1.917638e-05 7.831612e-05 1.882392e-07 3.378047e-05 -5.976694e-06
5.616574e-07 1.384033e-06 3.124634e-05 1.806137e-07 -1.089458e-05 -6.296248e-05
-1.756064e-05 -2.091983e-05 6.962137e-05 -8.650798e-07 -3.046547e-05 -9.682823e-06
-1.526701e-05 -1.340426e-06 4.505439e-05 5.837584e-06 -5.166768e-05 -1.673303e-05
1.491344e-06 -6.739052e-07 3.227704e-05 -6.172067e-07 6.071118e-05 1.822235e-05
-1.933459e-05 -1.684557e-05 6.689966e-05 -2.304521e-06 -1.718218e-05 -2.696974e-05
-1.654411e-05 -1.806520e-05 6.741700e-05 2.098788e-06 2.835202e-05 -1.874832e-05
-5.869280e-06 -7.524364e-06 3.713896e-05 -8.846516e-06 4.010263e-05 -2.547711e-05
-4.440012e-06 -9.475192e-06 4.016099e-05 8.265059e-06 -2.735783e-05 -4.483652e-05
-1.579556e-05 -2.073753e-05 6.882169e-05 2.249326e-06 -2.971353e-05 1.733014e-05
-2.074369e-05 -1.747313e-05 7.237415e-05 1.042780e-06 3.535430e-06 -3.099648e-05
2.825070e-06 4.107443e-07 2.230258e-05 9.818873e-07 -3.922042e-05 3.227127e-05
-1.818105e-06 -6.127162e-08 4.508864e-05 1.012025e-06 3.031466e-05 5.039544e-05
4.332169e-07 3.373753e-06 1.640112e-05 2.726578e-07 2.597985e-05 -4.970067e-05
-7.710383e-07 4.354408e-07 3.345887e-05 -1.014616e-07 -6.210129e-05 -1.617520e-06
SCALARS stress double 6
LOOKUP_TABLE default
-1.572526e+09 -1.372598e+09 -1.531764e+09 -2.136982e+05 -4.085389e+06 -3.576157e+06
-1.572592e+09 -1.372677e+09 -1.531722e+09 -2.917889e+04 -3.663607e+06 -3.618587e+06
-1.830337e+09 -1.629770e+09 -1.783898e+09 1.324617e+06 2.155197e+06 -1.932635e+06
-1.571717e+09 -1.371900e+09 -1.528229e+09 -6.089038e+04 5.586702e+06 -2.013972e+06
-1.755610e+09 -1.557335e+09 -1.710519e+09 -3.808570e+05 9.148111e+05 -5.956075e+06
-1.571063e+09 -1.370748e+09 -1.527023e+09 -6.937769e+04 -1.280932e+06 6.871400e+06
-2.016501e+09 -1.815692e+09 -1.966829e+09 -2.000035e+05 2.048348e+06 3.010874e+06
-1.830095e+09 -1.630428e+09 -1.782832e+09 -1.250601e+06 1.635152e+06 2.982065e+06
-1.830086e+09 -1.630453e+09 -1.783810e+09 -1.151585e+06 -2.120052e+06 -2.051494e+06
-1.756487e+09 -1.557287e+09 -1.710062e+09 -1.033241e+06 -2.815846e+06 4.979790e+06
-1.644018e+09 -1.444023e+09 -1.601819e+09 5.498053e+04 -3.484799e+05 2.390506e+05
-1.758160e+09 -1.557159e+09 -1.711835e+09 -6.365974e+05 -4.892707e+06 2.496141e+06
-1.644242e+09 -1.444124e+09 -1.601964e+09 1.265377e+05 -3.018777e+05 -1.951535e+05
-1.571945e+09 -1.371981e+09 -1.529898e+09 1.538298e+05 -3.913387e+06 3.437834e+06
-2.015971e+09 -1.815604e+09 -1.965830e+09 9.961776e+04 -2.086238e+06 3.060103e+06
-1.572028e+09 -1.372120e+09 -1.528363e+09 -1.762617e+05 2.654993e+06 4.513615e+06
-1.757936e+09 -1.557209e+09 -1.711530e+09 9.817572e+05 3.059307e+06 4.962749e+06
-1.572173e+09 -1.371952e+09 -1.530546e+09 1.469559e+05 3.568150e+06 -2.678256e+06
-1.759391e+09 -1.557336e+09 -1.711241e+09 -9.242071e+03 5.969304e+06 -3.632186e+05
-1.829777e+09 -1.630136e+09 -1.783023e+09 1.301653e+06 -2.564190e+06 2.220178e+06
-2.016708e+09 -1.816672e+09 -1.966377e+09 1.987806e+04 3.567217e+06 -6.311389e+05
-1.570482e+09 -1.370395e+09 -1.527242e+09 1.907281e+04 -1.150468e+06 -6.648838e+06
-2.016134e+09 -1.816489e+09 -1.966928e+09 -9.135243e+04 -3.217153e+06 -1.022506e+06
-1.758588e+09 -1.557117e+09 -1.712218e+09 6.164488e+05 -5.456107e+06 -1.767008e+06
-1.572397e+09 -1.372625e+09 -1.529146e+09 -6.517703e+04 6.411100e+06 1.924281e+06
-2.015078e+09 -1.814815e+09 -1.965972e+09 -2.433574e+05 -1.814439e+06 -2.848004e+06
-2.016065e+09 -1.816226e+09 -1.967199e+09 2.216320e+05 2.993973e+06 -1.979823e+06
-1.757919e+09 -1.558094e+09 -1.713377e+09 -9.341921e+05 4.234838e+06 -2.690383e+06
-1.756281e+09 -1.556813e+09 -1.711571e+09 8.727902e+05 -2.888987e+06 -4.734737e+06
-2.016019e+09 -1.816541e+09 -1.967083e+09 2.375288e+05 -3.137749e+06 1.830063e+06
-2.015100e+09 -1.814755e+09 -1.965267e+09 1.101176e+05 3.733415e+05 -3.273228e+06
-1.572055e+09 -1.372310e+09 -1.529998e+09 1.036873e+05 -4.141676e+06 3.407846e+06
-1.570947e+09 -1.370762e+09 -1.525994e+09 1.068698e+05 3.201228e+06 5.321758e+06
-1.572451e+09 -1.372140e+09 -1.530765e+09 2.879266e+04 2.743472e+06 -5.248390e+06
-1.571888e+09 -1.371761e+09 -1.528274e+09 -1.071434e+04 -6.557896e+06 -1.708101e+05
