# vtk DataFile Version 2.0
Simplicial Mesh Example
ASCII
DATASET UNSTRUCTURED_GRID
POINTS 5747 double
3.320296e+05 -1.479713e+05 -5.000000e+04
3.231117e+05 -1.694976e+05 -2.432604e+04
3.474531e+05 -1.606001e+05 -2.508933e+04
3.227386e+05 -1.447634e+05 -2.425528e+04
3.000000e+05 -1.659466e+05 0.000000e+00
3.323841e+05 -1.500853e+05 0.000000e+00
3.000000e+05 -1.298234e+05 -5.000000e+04
3.211980e+05 -1.225368e+05 -2.426738e+04
3.000000e+05 -1.488492e+05 -2.774542e+04
3.000000e+05 -1.638587e+05 -5.000000e+04
-3.410447e+05 -3.313729e+05 -5.000000e+04
-3.562308e+05 -3.573304e+05 -2.601066e+04
-3.400641e+05 -3.171355e+05 -2.518245e+04
-3.709216e+05 -3.294213e+05 -2.455579e+04
8.320003e+04 -3.000000e+05 -2.235380e+04
1.000000e+05 -3.000000e+05 0.000000e+00
8.376766e+04 -3.323560e+05 0.000000e+00
1.021017e+05 -3.230139e+05 -2.393989e+04
9.189646e+04 -3.476152e+05 -2.483836e+04
7.389417e+04 -3.240317e+05 -2.539793e+04
8.376391e+04 -3.320935e+05 -5.000000e+04
1.000000e+05 -3.000000e+05 -5.000000e+04
6.666667e+04 -3.000000e+05 -5.000000e+04
4.944468e+04 -3.212857e+05 -2.165974e+04
-3.000000e+05 -2.284991e+05 -5.000000e+04
-3.319474e+05 -2.124896e+05 -5.000000e+04
-3.213498e+05 -2.362895e+05 -2.757616e+04
-3.182279e+05 -2.138175e+05 -3.187491e+04
3.680760e+05 -6.909438e+04 0.000000e+00
3.760615e+05 -8.538341e+04 -2.424849e+04
3.481927e+05 -6.095077e+04 -2.496244e+04
3.758237e+05 -5.045542e+04 -2.419632e+04
-3.000000e+05 -2.326501e+05 0.000000e+00
-3.000000e+05 -2.125115e+05 -2.265069e+04
-3.000000e+05 -1.989752e+05 0.000000e+00
-3.222890e+05 -1.925429e+05 -2.782913e+04
-3.324295e+05 -2.170264e+05 0.000000e+00
-2.490803e+05 -3.000000e+05 -2.221961e+04
-2.515393e+05 -3.324613e+05 0.000000e+00
-2.666667e+05 -3.000000e+05 0.000000e+00
-2.736161e+05 -3.250545e+05 -2.495123e+04
3.676956e+05 -6.866168e+04 -5.000000e+04
4.000000e+05 -8.695652e+04 -5.000000e+04
4.000000e+05 -5.217391e+04 -5.000000e+04
4.000000e+05 -6.957979e+04 -2.232138e+04
-2.333333e+05 -3.000000e+05 -5.000000e+04
-2.666667e+05 -3.000000e+05 -5.000000e+04
-2.512538e+05 -3.321783e+05 -5.000000e+04
-2.508099e+05 -3.235453e+05 -2.887646e+04
-2.289455e+05 -3.238420e+05 -2.574418e+04
-2.333712e+05 -3.500457e+05 -2.527316e+04
-1.499969e+05 -3.000000e+05 -2.764283e+04
-1.666667e+05 -3.000000e+05 0.000000e+00
-1.707207e+05 -3.230060e+05 -2.516231e+04
-1.484539e+05 -3.229549e+05 -2.532466e+04
-1.507909e+05 -3.323848e+05 0.000000e+00
-1.623180e+05 -3.500580e+05 -2.480559e+04
-1.507405e+05 -3.321164e+05 -5.000000e+04
-1.195254e+05 -3.221356e+05 -2.186727e+04
-1.333333e+05 -3.000000e+05 -5.000000e+04
-1.666667e+05 -3.000000e+05 -5.000000e+04
-1.043477e+05 4.000000e+05 -2.232281e+04
-1.038755e+05 3.680862e+05 0.000000e+00
-1.217391e+05 4.000000e+05 0.000000e+00
-1.225518e+05 3.786565e+05 -2.424433e+04
-1.217391e+05 4.000000e+05 -5.000000e+04
-9.213417e+04 3.778403e+05 -2.651563e+04
-6.923876e+04 -3.678233e+05 -5.000000e+04
-8.695652e+04 -4.000000e+05 -5.000000e+04
-5.217391e+04 -4.000000e+05 -5.000000e+04
-6.956714e+04 -4.000000e+05 -2.232106e+04
-1.249685e+05 3.520706e+05 -2.482839e+04
-1.038072e+05 3.678091e+05 -5.000000e+04
-1.739130e+04 -4.000000e+05 -5.000000e+04
-3.460350e+04 -3.678269e+05 -5.000000e+04
-3.478387e+04 -4.000000e+05 -2.232106e+04
-1.636761e+04 -3.752737e+05 -2.444865e+04
-8.376345e+04 3.320934e+05 -5.000000e+04
-1.000000e+05 3.000000e+05 -5.000000e+04
-8.343627e+04 3.000000e+05 -2.764981e+04
-1.023685e+05 3.239702e+05 -2.442960e+04
-6.666667e+04 3.000000e+05 -5.000000e+04
-5.137625e+04 3.218639e+05 -2.279542e+04
4.000000e+05 3.304348e+05 -5.000000e+04
4.000000e+05 3.130499e+05 -2.232112e+04
4.000000e+05 3.478935e+05 -2.235349e+04
3.672790e+05 3.296172e+05 -2.474204e+04
-6.047286e+04 3.474481e+05 -2.417549e+04
-7.724413e+04 3.236644e+05 -1.839304e+04
-8.379954e+04 3.323534e+05 0.000000e+00
-9.034627e+04 3.505377e+05 -2.472678e+04
3.000000e+05 -8.185378e+04 -2.769067e+04
3.000000e+05 -6.540655e+04 0.000000e+00
3.219928e+05 -9.278579e+04 -2.350525e+04
3.213251e+05 -6.350280e+04 -2.571256e+04
3.320030e+05 -7.972620e+04 -5.000000e+04
3.000000e+05 -4.823862e+04 -2.768751e+04
3.000000e+05 -6.175270e+04 -5.000000e+04
3.319980e+05 -4.560520e+04 -5.000000e+04
1.000000e+05 3.000000e+05 0.000000e+00
1.285492e+05 3.222096e+05 -2.333515e+04
1.166485e+05 3.000000e+05 -2.764255e+04
9.914085e+04 3.215417e+05 -2.557715e+04
1.172876e+05 3.321041e+05 -5.000000e+04
1.000000e+05 3.000000e+05 -5.000000e+04
1.172617e+05 3.323725e+05 0.000000e+00
1.739130e+04 -4.000000e+05 -5.000000e+04
3.478141e+04 -4.000000e+05 -2.232106e+04
3.460470e+04 -3.678270e+05 -5.000000e+04
1.641570e+04 -3.754506e+05 -2.427397e+04
9.664453e+04 3.481306e+05 -2.480840e+04
3.680819e+05 1.387484e+05 0.000000e+00
3.785149e+05 1.273940e+05 -2.666552e+04
3.525231e+05 1.597326e+05 -2.515442e+04
3.789806e+05 1.574581e+05 -2.426681e+04
4.000000e+05 1.565217e+05 0.000000e+00
4.000000e+05 1.391303e+05 -2.231930e+04
6.857177e+00 3.678309e+05 -5.000000e+04
1.673721e+04 3.320840e+05 -5.000000e+04
3.460423e+04 3.678269e+05 -5.000000e+04
2.844178e+04 3.508410e+05 -2.472162e+04
-3.461370e+04 -3.681008e+05 0.000000e+00
-1.739130e+04 -4.000000e+05 0.000000e+00
-1.676283e+04 3.320851e+05 -5.000000e+04
1.378112e+03 3.362478e+05 -2.510890e+04
3.679848e+05 1.390962e+05 -5.000000e+04
-4.999978e+04 -3.000000e+05 -2.235748e+04
-1.678469e+04 -3.000000e+05 -2.764887e+04
-1.676668e+04 -3.323444e+05 0.000000e+00
-5.479522e+04 -3.231600e+05 -2.798751e+04
4.000000e+05 1.565217e+05 -5.000000e+04
3.676239e+05 -2.421373e+05 -5.000000e+04
4.000000e+05 -2.434785e+05 -2.767896e+04
3.747721e+05 -2.281712e+05 -2.555946e+04
3.781731e+05 -2.607592e+05 -2.587663e+04
-3.128530e+05 -3.661813e+05 -5.000000e+04
-2.847026e+05 -3.321560e+05 -5.000000e+04
-3.161470e+05 -3.277621e+05 -5.000000e+04
-3.118625e+05 -3.403622e+05 -2.486951e+04
3.509470e+05 -2.651753e+05 -2.498209e+04
3.679951e+05 -2.423193e+05 0.000000e+00
4.000000e+05 -2.608696e+05 0.000000e+00
-1.455192e-10 3.000000e+05 -5.000000e+04
-1.665884e+04 3.000000e+05 -2.764283e+04
1.678621e+04 3.000000e+05 -2.764891e+04
3.000000e+05 -2.490234e+05 -2.248769e+04
3.324577e+05 -2.511100e+05 0.000000e+00
3.233427e+05 -2.639090e+05 -2.386118e+04
3.213235e+05 -2.322625e+05 -2.427257e+04
3.320637e+05 -2.503757e+05 -5.000000e+04
3.463445e+05 -2.305992e+05 -2.486406e+04
-3.698054e+05 -3.472763e+05 0.000000e+00
-3.663396e+05 -3.129808e+05 0.000000e+00
-3.315797e+05 -3.410949e+05 0.000000e+00
3.000000e+05 -2.319293e+05 -5.000000e+04
1.730839e+05 3.678997e+05 -5.000000e+04
1.571960e+05 3.749995e+05 -2.566968e+04
1.944750e+05 3.532359e+05 -2.496627e+04
1.915336e+05 3.784005e+05 -2.606486e+04
1.913043e+05 4.000000e+05 -5.000000e+04
1.739026e+05 4.000000e+05 -2.767885e+04
3.704421e+05 3.503181e+05 -5.000000e+04
-3.674293e+05 -2.066073e+05 -5.000000e+04
-3.492083e+05 -2.290965e+05 -2.538588e+04
-3.495470e+05 -1.977513e+05 -2.540621e+04
1.731007e+05 3.680556e+05 0.000000e+00
1.913043e+05 4.000000e+05 0.000000e+00
4.000000e+05 2.956522e+05 0.000000e+00
4.000000e+05 2.782599e+05 -2.232106e+04
3.699311e+05 2.951557e+05 -2.461389e+04
-2.177434e+05 -3.321524e+05 -5.000000e+04
-2.166738e+05 -3.000000e+05 -2.767207e+04
-2.000187e+05 -3.211973e+05 -2.674237e+04
-1.983970e+05 -3.480803e+05 -2.513770e+04
-2.179099e+05 -3.324288e+05 0.000000e+00
-2.000000e+05 -3.000000e+05 0.000000e+00
-4.000000e+05 -1.739130e+04 -5.000000e+04
-4.000000e+05 1.362271e+00 -2.232106e+04
-4.000000e+05 -3.478139e+04 -2.232106e+04
-3.765178e+05 -1.619438e+04 -2.422406e+04
-1.172644e+05 3.321057e+05 -5.000000e+04
-1.165333e+05 3.000000e+05 -2.235380e+04
-1.172626e+05 3.323723e+05 0.000000e+00
-1.350440e+05 3.242838e+05 -2.422565e+04
-1.000000e+05 3.000000e+05 0.000000e+00
3.000000e+05 -1.154172e+05 -2.769106e+04
3.000000e+05 -9.891990e+04 0.000000e+00
3.323674e+05 -1.164140e+05 0.000000e+00
3.494097e+05 -9.677091e+04 -2.469271e+04
3.320115e+05 -1.138445e+05 -5.000000e+04
3.000000e+05 -9.578803e+04 -5.000000e+04
-3.683842e+05 -3.117444e+05 -5.000000e+04
-3.704229e+05 -3.502942e+05 -5.000000e+04
-3.000000e+05 -1.676695e+04 -5.000000e+04
-3.000000e+05 -3.162526e+04 0.000000e+00
-3.000000e+05 1.537267e+03 0.000000e+00
-3.225488e+05 -1.458354e+04 -2.331887e+04
-2.625540e+05 -3.498971e+05 -2.512137e+04
-3.324526e+05 -2.845988e+05 0.000000e+00
-3.280582e+05 -3.160567e+05 0.000000e+00
-2.333333e+05 -3.000000e+05 0.000000e+00
-1.731007e+05 -3.680556e+05 0.000000e+00
-1.546296e+05 -3.758014e+05 -2.505216e+04
-1.738957e+05 -4.000000e+05 -2.758994e+04
-1.891587e+05 -3.758626e+05 -2.496961e+04
-2.077253e+05 -3.680332e+05 0.000000e+00
-2.239576e+05 -3.758730e+05 -2.504417e+04
-1.913043e+05 -4.000000e+05 -5.000000e+04
-2.086560e+05 -4.000000e+05 -2.240978e+04
-1.730589e+05 -3.677722e+05 -5.000000e+04
6.957979e+04 4.000000e+05 -2.232138e+04
5.217391e+04 4.000000e+05 0.000000e+00
3.478536e+04 4.000000e+05 -2.232108e+04
5.076412e+04 3.763602e+05 -2.419392e+04
5.217391e+04 4.000000e+05 -5.000000e+04
1.674987e+04 3.323474e+05 0.000000e+00
3.522601e+04 3.242376e+05 -2.441795e+04
3.461320e+04 3.681000e+05 0.000000e+00
4.999984e+04 3.000000e+05 -2.235747e+04
3.333333e+04 3.000000e+05 0.000000e+00
1.635001e+04 3.759242e+05 -2.428818e+04
-3.680268e+05 2.424010e+05 0.000000e+00
-3.502043e+05 2.289782e+05 -2.514523e+04
-3.680500e+05 2.077851e+05 0.000000e+00
-3.762988e+05 2.231425e+05 -2.580358e+04
6.042780e+04 3.499876e+05 -2.481666e+04
-1.731195e+05 3.680519e+05 0.000000e+00
-1.546044e+05 3.764508e+05 -2.417358e+04
-1.611291e+05 3.501230e+05 -2.473775e+04
-1.910926e+05 3.750896e+05 -2.428174e+04
-1.384382e+05 3.677954e+05 -5.000000e+04
-4.000000e+05 2.260870e+05 0.000000e+00
-4.000000e+05 2.086964e+05 -2.767894e+04
-1.565217e+05 4.000000e+05 -5.000000e+04
-1.391303e+05 4.000000e+05 -2.231930e+04
-1.739120e+05 4.000000e+05 -2.232105e+04
-2.883046e+05 -3.320639e+05 0.000000e+00
-3.323717e+05 -1.156481e+05 0.000000e+00
-3.485545e+05 -1.011074e+05 -2.467716e+04
-3.242629e+05 -9.130955e+04 -2.346029e+04
-3.283241e+05 -1.238851e+05 -2.581831e+04
-3.323844e+05 -1.494568e+05 0.000000e+00
-3.234696e+05 -1.610063e+05 -2.052403e+04
-3.489256e+05 -1.619025e+05 -2.463364e+04
-3.321718e+05 -1.418788e+05 -5.000000e+04
-3.532171e+05 -1.279677e+05 -2.498352e+04
-3.323741e+05 -4.867882e+04 0.000000e+00
-3.503191e+05 -2.513124e+04 -2.637765e+04
-3.445570e+05 -6.642284e+04 -2.629682e+04
-3.715074e+05 -5.085607e+04 -2.447945e+04
-2.789348e+05 -3.000000e+05 -2.516856e+04
-3.115819e+05 -3.112280e+05 -2.498055e+04
3.680861e+05 1.041109e+05 0.000000e+00
4.000000e+05 1.217391e+05 0.000000e+00
4.000000e+05 1.043477e+05 -2.232281e+04
-3.000000e+05 -4.500521e+04 -2.807319e+04
-3.312611e+05 -3.126792e+04 -5.000000e+04
3.681214e+05 1.733599e+05 0.000000e+00
3.679731e+05 1.735700e+05 -5.000000e+04
-4.000000e+05 2.608696e+05 0.000000e+00
-4.000000e+05 2.434785e+05 -2.767896e+04
-3.762759e+05 2.579853e+05 -2.577646e+04
3.679758e+05 1.045869e+05 -5.000000e+04
3.528818e+05 1.258870e+05 -2.394338e+04
3.784075e+05 9.391142e+04 -2.696013e+04
1.731179e+05 -3.680539e+05 0.000000e+00
1.591168e+05 -3.757951e+05 -2.426769e+04
1.921296e+05 -3.514276e+05 -2.483227e+04
1.936724e+05 -3.767021e+05 -2.417003e+04
2.077389e+05 -3.680332e+05 0.000000e+00
2.250190e+05 -3.504623e+05 -2.475802e+04
2.280525e+05 -3.760771e+05 -2.427552e+04
2.077249e+05 -3.678896e+05 -5.000000e+04
-3.699376e+05 -3.483507e+04 -5.000000e+04
-4.000000e+05 -5.217391e+04 -5.000000e+04
3.324653e+05 -2.846969e+05 0.000000e+00
3.470368e+05 -3.013438e+05 -2.504435e+04
3.280142e+05 -3.160947e+05 0.000000e+00
3.231151e+05 -2.953093e+05 -2.488838e+04
2.260870e+05 -4.000000e+05 0.000000e+00
2.086945e+05 -4.000000e+05 -2.232106e+04
2.333333e+05 -3.000000e+05 0.000000e+00
2.515884e+05 -3.324527e+05 0.000000e+00
2.178294e+05 -3.324303e+05 0.000000e+00
2.353123e+05 -3.242399e+05 -2.420924e+04
2.260870e+05 -4.000000e+05 -5.000000e+04
-2.260870e+05 4.000000e+05 -5.000000e+04
-2.076192e+05 3.677470e+05 -5.000000e+04
-2.086945e+05 4.000000e+05 -2.232106e+04
-2.258064e+05 3.773054e+05 -2.426209e+04
1.833235e+05 -3.000000e+05 -2.235694e+04
1.666667e+05 -3.000000e+05 0.000000e+00
1.507941e+05 -3.323846e+05 0.000000e+00
1.843081e+05 -3.324053e+05 0.000000e+00
-2.249266e+05 3.505805e+05 -2.472670e+04
-2.077411e+05 3.680376e+05 0.000000e+00
-2.260870e+05 4.000000e+05 0.000000e+00
-3.323592e+05 1.803079e+04 0.000000e+00
-3.323564e+05 -1.534688e+04 0.000000e+00
-3.681082e+05 1.584064e+02 0.000000e+00
-3.499012e+05 9.740527e+03 -2.497389e+04
-2.423250e+05 3.677158e+05 -5.000000e+04
-2.592649e+05 3.567995e+05 -2.481011e+04
3.323394e+05 1.192487e+05 0.000000e+00
3.491295e+05 9.384687e+04 -2.472740e+04
3.228908e+05 9.953784e+04 -2.118616e+04
3.243994e+05 1.327268e+05 -1.806020e+04
3.323858e+05 1.225850e+05 -5.000000e+04
3.000000e+05 1.021602e+05 0.000000e+00
-3.323756e+05 1.180902e+05 0.000000e+00
-3.502479e+05 1.247198e+05 -2.489438e+04
-3.323866e+05 1.514636e+05 0.000000e+00
-3.239267e+05 1.305559e+05 -2.447897e+04
-4.000000e+05 -1.217391e+05 0.000000e+00
-3.680643e+05 -1.036683e+05 0.000000e+00
-3.680322e+05 -1.383008e+05 0.000000e+00
-3.771927e+05 -1.197432e+05 -2.419249e+04
-3.699370e+05 -1.043474e+05 -5.000000e+04
-4.000000e+05 -1.217391e+05 -5.000000e+04
-3.674150e+05 -1.372841e+05 -5.000000e+04
-3.714836e+05 -8.578115e+04 -2.445844e+04
-4.000000e+05 -1.043477e+05 -2.232281e+04
-3.761451e+05 -1.540249e+05 -2.420412e+04
-3.324359e+05 1.785952e+05 -5.000000e+04
-3.237745e+05 2.001207e+05 -2.519607e+04
-3.501719e+05 1.943920e+05 -2.513980e+04
-3.238280e+05 1.651457e+05 -2.429249e+04
3.321875e+05 -2.161325e+05 -5.000000e+04
3.512588e+05 -1.940190e+05 -2.495559e+04
3.320469e+05 -1.820848e+05 -5.000000e+04
3.240244e+05 -2.009751e+05 -2.397590e+04
-3.000000e+05 1.780292e+05 -2.268827e+04
-3.000000e+05 1.944110e+05 -5.000000e+04
-3.000000e+05 1.423985e+05 -2.254379e+04
-3.000000e+05 1.592147e+05 -5.000000e+04
-3.324506e+05 1.434761e+05 -5.000000e+04
2.595772e+05 -3.509100e+05 -2.478758e+04
-3.501282e+05 1.598224e+05 -2.498322e+04
1.333333e+05 3.000000e+05 0.000000e+00
1.499967e+05 3.000000e+05 -2.764283e+04
1.613132e+05 3.215804e+05 -2.327918e+04
1.507909e+05 3.323848e+05 0.000000e+00
1.319867e+05 3.493469e+05 -2.484040e+04
1.507840e+05 3.322475e+05 -5.000000e+04
1.333333e+05 3.000000e+05 -5.000000e+04
-3.324024e+05 -1.833258e+05 0.000000e+00
-1.038414e+05 -3.678096e+05 -5.000000e+04
-8.517626e+04 -3.759385e+05 -2.433588e+04
-9.453513e+04 -3.476318e+05 -2.455383e+04
-1.199175e+05 -3.762875e+05 -2.395151e+04
-1.384781e+05 -3.680720e+05 0.000000e+00
-1.392358e+05 -4.000000e+05 -2.236131e+04
-1.038578e+05 -3.680873e+05 0.000000e+00
-1.305142e+05 -3.497292e+05 -2.453903e+04
-1.043576e+05 -4.000000e+05 -2.231937e+04
-1.217391e+05 -4.000000e+05 0.000000e+00
2.422782e+05 -3.677182e+05 -5.000000e+04
2.178587e+05 -3.321663e+05 -5.000000e+04
1.384965e+05 -3.680708e+05 0.000000e+00
1.565217e+05 -4.000000e+05 0.000000e+00
1.391303e+05 -4.000000e+05 -2.231930e+04
1.246207e+05 -3.764088e+05 -2.430842e+04
1.578825e+05 -3.458975e+05 -2.480408e+04
-3.322711e+05 2.135664e+05 -5.000000e+04
-3.678157e+05 2.070248e+05 -5.000000e+04
1.384711e+05 -3.677967e+05 -5.000000e+04
1.565217e+05 -4.000000e+05 -5.000000e+04
1.729917e+05 -3.679133e+05 -5.000000e+04
-4.000000e+05 1.739026e+05 -2.767885e+04
-4.000000e+05 1.565217e+05 0.000000e+00
-4.000000e+05 1.390093e+05 -2.763094e+04
-3.763351e+05 1.535994e+05 -2.578432e+04
-3.678240e+05 1.721958e+05 -5.000000e+04
-4.000000e+05 1.565217e+05 -5.000000e+04
-3.678127e+05 1.373449e+05 -5.000000e+04
-3.680901e+05 1.385746e+05 0.000000e+00
-3.760798e+05 1.188421e+05 -2.484225e+04
1.217391e+05 -4.000000e+05 -5.000000e+04
1.038118e+05 -3.678090e+05 -5.000000e+04
8.995020e+04 -3.762151e+05 -2.589811e+04
1.043477e+05 -4.000000e+05 -2.232281e+04
1.226416e+05 -3.493439e+05 -2.477967e+04
1.038746e+05 -3.680839e+05 0.000000e+00
1.217391e+05 -4.000000e+05 0.000000e+00
1.674277e+04 -3.323442e+05 0.000000e+00
3.463000e+04 -3.680990e+05 0.000000e+00
7.744455e+00 -3.681012e+05 0.000000e+00
2.881794e+04 -3.474363e+05 -2.449020e+04
-4.000000e+05 -1.391303e+05 -2.231930e+04
-4.000000e+05 -1.565217e+05 -5.000000e+04
-3.674551e+05 -1.718549e+05 -5.000000e+04
-4.000000e+05 -1.739120e+05 -2.232105e+04
-4.000000e+05 -1.565217e+05 0.000000e+00
-3.680143e+05 -1.729566e+05 0.000000e+00
1.739130e+04 4.000000e+05 0.000000e+00
1.362271e+00 4.000000e+05 -2.232106e+04
-1.680678e+04 3.755644e+05 -2.428286e+04
1.739130e+04 4.000000e+05 -5.000000e+04
3.325804e+05 1.861647e+05 0.000000e+00
3.499617e+05 1.968393e+05 -2.501723e+04
3.233554e+05 1.632676e+05 -2.788461e+04
3.000000e+05 1.829512e+05 -2.715993e+04
3.237644e+05 2.033604e+05 -2.576839e+04
3.323849e+05 1.551193e+05 -5.000000e+04
3.000000e+05 1.710792e+05 -5.000000e+04
3.000000e+05 1.388490e+05 -5.000000e+04
3.323963e+05 1.876480e+05 -5.000000e+04
-3.283254e+05 -6.941844e+04 -5.000000e+04
-3.215224e+05 -6.378588e+04 -1.979903e+04
5.026435e+04 -3.320894e+05 -5.000000e+04
5.010263e+04 -3.000000e+05 -2.764981e+04
-3.323820e+05 -8.213181e+04 0.000000e+00
-3.000000e+05 1.240184e+05 -5.000000e+04
-3.324516e+05 1.083255e+05 -5.000000e+04
-3.000000e+05 8.882203e+04 -5.000000e+04
-3.232865e+05 9.798163e+04 -2.689404e+04
-3.000000e+05 1.010248e+05 0.000000e+00
-3.323572e+05 8.476518e+04 0.000000e+00
-3.321230e+05 2.488342e+05 -5.000000e+04
-3.237001e+05 2.698855e+05 -2.423877e+04
-3.499194e+05 2.638071e+05 -2.500257e+04
-3.240099e+05 2.346804e+05 -2.506115e+04
-3.322040e+05 2.835976e+05 -5.000000e+04
-3.129601e+05 3.110436e+05 -2.504052e+04
-3.485652e+05 2.985539e+05 -2.525541e+04
-3.000000e+05 2.823494e+05 -2.286031e+04
-3.320733e+05 2.883554e+05 0.000000e+00
-5.067105e+04 -3.762473e+05 -2.416985e+04
-6.923637e+04 -3.680930e+05 0.000000e+00
-5.217391e+04 -4.000000e+05 0.000000e+00
-2.928083e+04 -3.480914e+05 -2.526971e+04
-6.022646e+04 -3.519072e+05 -2.531772e+04
3.680896e+05 6.946960e+04 0.000000e+00
4.000000e+05 6.956410e+04 -2.232106e+04
4.000000e+05 5.217391e+04 0.000000e+00
3.784300e+05 5.877571e+04 -2.644865e+04
3.678447e+05 7.006155e+04 -5.000000e+04
4.000000e+05 8.695652e+04 -5.000000e+04
4.000000e+05 8.695652e+04 0.000000e+00
1.739130e+04 -4.000000e+05 0.000000e+00
-1.208557e+00 -4.000000e+05 -2.232106e+04
2.165659e+05 -3.000000e+05 -2.235602e+04
2.000000e+05 -3.000000e+05 0.000000e+00
2.040227e+05 -3.240187e+05 -2.432607e+04
2.000000e+05 -3.000000e+05 -5.000000e+04
-2.000000e+05 3.000000e+05 0.000000e+00
-2.177787e+05 3.324359e+05 0.000000e+00
-1.843648e+05 3.324029e+05 0.000000e+00
-2.021058e+05 3.233501e+05 -2.412637e+04
-3.681034e+05 -3.444502e+04 0.000000e+00
-2.353967e+05 3.243751e+05 -2.423347e+04
-3.657344e+05 -2.930177e+05 -2.460503e+04
-3.489981e+05 -2.611931e+05 -2.496579e+04
-3.249762e+05 -2.718115e+05 -2.504128e+04
-2.178179e+05 3.321595e+05 -5.000000e+04
-1.933197e+05 3.477621e+05 -2.470715e+04
-2.165659e+05 3.000000e+05 -2.235602e+04
-1.842705e+05 3.321319e+05 -5.000000e+04
-2.000000e+05 3.000000e+05 -5.000000e+04
-1.833231e+05 3.000000e+05 -2.235694e+04
3.680524e+05 -1.383766e+05 0.000000e+00
4.000000e+05 -1.390093e+05 -2.763094e+04
4.000000e+05 -1.565217e+05 0.000000e+00
3.738095e+05 -1.650881e+05 -2.574310e+04
3.676656e+05 -1.379454e+05 -5.000000e+04
3.499097e+05 -1.297657e+05 -2.492932e+04
4.000000e+05 -1.739026e+05 -2.767885e+04
3.680364e+05 -1.730173e+05 0.000000e+00
4.000000e+05 -1.565217e+05 -5.000000e+04
5.217391e+04 -4.000000e+05 -5.000000e+04
5.104060e+04 -3.762448e+05 -2.413109e+04
6.925236e+04 -3.680933e+05 0.000000e+00
5.217391e+04 -4.000000e+05 0.000000e+00
6.117431e+04 -3.496242e+05 -2.469357e+04
2.517054e+05 -3.321795e+05 -5.000000e+04
2.492201e+05 -3.000000e+05 -2.223204e+04
2.694391e+05 -3.245216e+05 -2.460512e+04
3.323341e+05 8.558297e+04 0.000000e+00
3.222577e+05 7.151315e+04 -2.695089e+04
3.000000e+05 5.599414e+04 -2.229711e+04
3.323373e+05 3.678643e+04 -2.461204e+04
3.319747e+05 5.662831e+04 -5.000000e+04
3.000000e+05 8.469062e+04 -2.741458e+04
3.000000e+05 6.864685e+04 0.000000e+00
2.789500e+05 3.000000e+05 -2.482908e+04
2.492185e+05 3.000000e+05 -2.777191e+04
2.666667e+05 3.000000e+05 0.000000e+00
2.718138e+05 3.240225e+05 -2.490609e+04
2.512541e+05 3.321782e+05 -5.000000e+04
2.666667e+05 3.000000e+05 -5.000000e+04
2.846999e+05 3.321568e+05 -5.000000e+04
2.678667e+05 3.499237e+05 -2.456431e+04
2.515361e+05 3.324615e+05 0.000000e+00
1.384766e+05 3.678066e+05 -5.000000e+04
1.565217e+05 4.000000e+05 -5.000000e+04
1.390093e+05 4.000000e+05 -2.763094e+04
1.565217e+05 4.000000e+05 0.000000e+00
1.384781e+05 3.680720e+05 0.000000e+00
1.648769e+05 3.476552e+05 -2.492644e+04
3.000000e+05 -2.659647e+05 -5.000000e+04
3.000000e+05 -2.830545e+05 -2.279782e+04
3.320365e+05 -2.842315e+05 -5.000000e+04
3.000000e+05 -2.329733e+05 0.000000e+00
3.324280e+05 -2.174304e+05 0.000000e+00
3.000000e+05 2.018902e+05 0.000000e+00
3.326080e+05 2.191835e+05 0.000000e+00
3.324118e+05 2.202420e+05 -5.000000e+04
3.000000e+05 2.181861e+05 -2.776808e+04
3.000000e+05 2.033094e+05 -5.000000e+04
2.769794e+05 3.676731e+05 -5.000000e+04
3.002436e+05 3.530833e+05 -2.757183e+04
2.956522e+05 4.000000e+05 -5.000000e+04
2.685525e+05 3.762475e+05 -2.896425e+04
-4.000000e+05 -2.260870e+05 0.000000e+00
-3.680029e+05 -2.076147e+05 0.000000e+00
-3.679763e+05 -2.422690e+05 0.000000e+00
-3.759711e+05 -2.232034e+05 -2.432087e+04
-3.760583e+05 -1.887304e+05 -2.432995e+04
-4.000000e+05 -2.086945e+05 -2.232106e+04
-4.000000e+05 -2.260870e+05 -5.000000e+04
-4.000000e+05 -2.434771e+05 -2.232106e+04
1.172667e+05 -3.321072e+05 -5.000000e+04
1.166553e+05 -3.000000e+05 -2.235713e+04
3.680656e+05 -1.037356e+05 0.000000e+00
4.000000e+05 -1.044411e+05 -2.235722e+04
3.757980e+05 -1.207157e+05 -2.502460e+04
4.000000e+05 -1.217391e+05 -5.000000e+04
4.000000e+05 -1.217391e+05 0.000000e+00
6.666667e+04 -3.000000e+05 0.000000e+00
5.025498e+04 -3.323480e+05 0.000000e+00
3.333333e+04 -3.000000e+05 0.000000e+00
2.423612e+05 -3.680038e+05 0.000000e+00
2.609478e+05 -3.772802e+05 -2.438418e+04
2.434771e+05 -4.000000e+05 -2.232106e+04
3.000000e+05 2.208180e+04 -2.263338e+04
3.000000e+05 4.035329e+04 -5.000000e+04
2.608696e+05 -4.000000e+05 0.000000e+00
2.608696e+05 -4.000000e+05 -5.000000e+04
-4.000000e+05 2.608696e+05 -5.000000e+04
-4.000000e+05 2.782520e+05 -2.767911e+04
-3.678653e+05 2.770869e+05 0.000000e+00
-3.675472e+05 2.418345e+05 -5.000000e+04
2.770113e+05 -3.678523e+05 0.000000e+00
2.993481e+05 -3.552327e+05 -2.471746e+04
2.769653e+05 -3.676200e+05 -5.000000e+04
2.782599e+05 -4.000000e+05 -2.232106e+04
-3.674166e+05 -1.849439e+03 -5.000000e+04
-3.762834e+05 1.853657e+04 -2.417357e+04
-4.000000e+05 -1.739130e+04 0.000000e+00
4.000000e+05 -8.695652e+04 0.000000e+00
-3.000000e+05 1.086860e+05 -2.215615e+04
-3.509395e+05 8.513177e+04 -2.417668e+04
-3.000000e+05 8.137578e+04 -2.801972e+04
-3.321712e+05 7.306662e+04 -5.000000e+04
-3.000000e+05 1.341874e+05 0.000000e+00
-6.666667e+04 3.000000e+05 0.000000e+00
-5.025707e+04 3.323515e+05 0.000000e+00
-3.000000e+05 2.152102e+05 -2.772961e+04
-3.000000e+05 2.005124e+05 0.000000e+00
-3.000000e+05 2.336749e+05 0.000000e+00
-3.324312e+05 2.182807e+05 0.000000e+00
-3.333333e+04 3.000000e+05 0.000000e+00
-5.026427e+04 3.320896e+05 -5.000000e+04
-2.875892e+04 3.474773e+05 -2.453912e+04
-5.001574e+04 3.000000e+05 -2.764258e+04
4.000000e+05 -3.304348e+05 -5.000000e+04
3.696852e+05 -3.469675e+05 -5.000000e+04
4.000000e+05 -3.652174e+05 -5.000000e+04
3.780140e+05 -3.413222e+05 -2.631368e+04
3.661946e+05 -3.127901e+05 -5.000000e+04
3.663474e+05 -3.132902e+05 0.000000e+00
3.459653e+05 -3.387220e+05 -2.504533e+04
4.000000e+05 -3.304348e+05 0.000000e+00
4.000000e+05 -3.129524e+05 -2.768053e+04
3.503160e+05 -3.704280e+05 -5.000000e+04
3.727935e+05 -3.742375e+05 -2.449547e+04
3.694761e+05 -3.502454e+05 0.000000e+00
4.000000e+05 -3.652174e+05 0.000000e+00
4.000000e+05 -3.471153e+05 -2.775934e+04
3.000000e+05 -1.324332e+05 0.000000e+00
-8.321226e+04 -3.000000e+05 -2.764622e+04
-6.666667e+04 -3.000000e+05 0.000000e+00
-8.379869e+04 -3.323535e+05 0.000000e+00
-8.373929e+04 -3.320940e+05 -5.000000e+04
-6.666667e+04 -3.000000e+05 -5.000000e+04
-3.333333e+04 -3.000000e+05 -5.000000e+04
-3.333333e+04 -3.000000e+05 0.000000e+00
-5.025687e+04 -3.323516e+05 0.000000e+00
-1.687252e+05 3.237025e+05 -2.420689e+04
-1.507685e+05 3.321206e+05 -5.000000e+04
-1.666667e+05 3.000000e+05 -5.000000e+04
-1.499876e+05 3.000000e+05 -2.235711e+04
3.000000e+05 -1.401640e+04 -2.758025e+04
3.240986e+05 1.949432e+03 -2.515616e+04
3.323395e+05 -1.540013e+04 0.000000e+00
3.235944e+05 -3.198662e+04 -2.580861e+04
3.319790e+05 2.259202e+04 -5.000000e+04
3.501968e+05 7.945521e+03 -2.467477e+04
3.323331e+05 1.824617e+04 0.000000e+00
3.000000e+05 1.620150e+03 0.000000e+00
3.000000e+05 6.317960e+03 -5.000000e+04
3.319836e+05 -1.148350e+04 -5.000000e+04
-4.000000e+05 2.260870e+05 -5.000000e+04
3.498216e+05 -2.430847e+04 -2.502281e+04
-1.000000e+05 -3.000000e+05 -5.000000e+04
-1.172397e+05 -3.321035e+05 -5.000000e+04
-1.166485e+05 -3.000000e+05 -2.764255e+04
-4.000000e+05 3.478536e+04 -2.232108e+04
-4.000000e+05 5.217391e+04 0.000000e+00
-3.681122e+05 3.476335e+04 0.000000e+00
-3.761321e+05 5.319134e+04 -2.412926e+04
-3.674598e+05 3.273510e+04 -5.000000e+04
-3.674737e+05 6.753718e+04 -5.000000e+04
-3.779222e+05 8.615164e+04 -2.404198e+04
-4.000000e+05 6.957979e+04 -2.232138e+04
-4.000000e+05 5.217391e+04 -5.000000e+04
3.681472e+05 2.079604e+05 0.000000e+00
3.681188e+05 2.425277e+05 0.000000e+00
4.000000e+05 2.260870e+05 0.000000e+00
3.738186e+05 2.343036e+05 -2.432516e+04
4.000000e+05 2.260870e+05 -5.000000e+04
3.679488e+05 2.080638e+05 -5.000000e+04
4.000000e+05 2.086945e+05 -2.232106e+04
3.680460e+05 2.771856e+05 0.000000e+00
4.000000e+05 2.434771e+05 -2.232106e+04
3.677806e+05 2.771319e+05 -5.000000e+04
3.679115e+05 2.425609e+05 -5.000000e+04
3.506611e+05 2.633361e+05 -2.500721e+04
3.476421e+05 2.299544e+05 -2.493866e+04
-1.730920e+05 3.677751e+05 -5.000000e+04
-1.913043e+05 4.000000e+05 -5.000000e+04
-1.913043e+05 4.000000e+05 0.000000e+00
3.000000e+05 -1.812272e+05 -2.243815e+04
3.324042e+05 -1.837572e+05 0.000000e+00
3.000000e+05 3.513350e+04 0.000000e+00
-6.956410e+04 4.000000e+05 -2.232106e+04
-6.925390e+04 3.680922e+05 0.000000e+00
-8.695652e+04 4.000000e+05 0.000000e+00
-1.384959e+05 3.680704e+05 0.000000e+00
-6.923740e+04 3.678235e+05 -5.000000e+04
-5.575575e+04 3.762615e+05 -2.604365e+04
3.326450e+05 2.521588e+05 0.000000e+00
3.239583e+05 2.703190e+05 -2.481828e+04
3.235042e+05 2.371025e+05 -2.477002e+04
3.000000e+05 2.345935e+05 0.000000e+00
3.324543e+05 2.529173e+05 -5.000000e+04
3.000000e+05 2.355396e+05 -5.000000e+04
3.000000e+05 2.504516e+05 -2.190148e+04
3.680898e+05 1.877167e+02 0.000000e+00
3.744157e+05 2.111475e+04 -2.442399e+04
3.763258e+05 -1.540786e+04 -2.427103e+04
3.680838e+05 -3.445303e+04 0.000000e+00
3.677188e+05 7.287769e+02 -5.000000e+04
4.000000e+05 -1.362271e+00 -2.232106e+04
4.000000e+05 -1.739130e+04 0.000000e+00
4.000000e+05 -3.478536e+04 -2.232108e+04
-3.318978e+05 -2.482288e+05 -5.000000e+04
-3.000000e+05 -2.483605e+05 -2.772840e+04
2.882149e+05 -3.318438e+05 -5.000000e+04
3.111856e+05 -3.241794e+05 -2.496274e+04
2.789502e+05 -3.000000e+05 -2.517088e+04
2.666667e+05 -3.000000e+05 -5.000000e+04
2.666667e+05 -3.000000e+05 0.000000e+00
2.882915e+05 -3.320621e+05 0.000000e+00
-4.000000e+05 1.217391e+05 -5.000000e+04
-3.676427e+05 1.022915e+05 -5.000000e+04
-4.000000e+05 1.217391e+05 0.000000e+00
-3.681035e+05 1.039715e+05 0.000000e+00
-4.000000e+05 1.044411e+05 -2.235722e+04
4.000000e+05 1.913043e+05 0.000000e+00
4.000000e+05 1.739120e+05 -2.232105e+04
3.763263e+05 1.899679e+05 -2.426689e+04
4.000000e+05 1.913043e+05 -5.000000e+04
1.666667e+05 3.000000e+05 0.000000e+00
1.951154e+05 3.231525e+05 -2.347230e+04
1.833301e+05 3.000000e+05 -2.764286e+04
1.842465e+05 3.321498e+05 -5.000000e+04
1.843130e+05 3.324055e+05 0.000000e+00
-4.000000e+05 3.129524e+05 -2.768053e+04
-3.686836e+05 3.117864e+05 0.000000e+00
-4.000000e+05 2.956522e+05 0.000000e+00
-3.758094e+05 2.932266e+05 -2.581083e+04
-4.000000e+05 2.956522e+05 -5.000000e+04
-3.676696e+05 2.766747e+05 -5.000000e+04
3.677042e+05 -3.389078e+04 -5.000000e+04
-2.076669e+05 -3.677464e+05 -5.000000e+04
-2.422763e+05 -3.677157e+05 -5.000000e+04
-2.260870e+05 -4.000000e+05 -5.000000e+04
-1.913043e+05 -4.000000e+05 0.000000e+00
-2.423632e+05 -3.680118e+05 0.000000e+00
-2.260870e+05 -4.000000e+05 0.000000e+00
-2.433455e+05 -4.000000e+05 -2.762913e+04
-3.000000e+05 -1.038360e+05 -2.320079e+04
-3.000000e+05 -6.478778e+04 0.000000e+00
-3.439419e+05 -8.692451e+04 -5.000000e+04
1.217391e+05 4.000000e+05 -5.000000e+04
1.044411e+05 4.000000e+05 -2.235722e+04
1.204266e+05 3.759436e+05 -2.494180e+04
1.217391e+05 4.000000e+05 0.000000e+00
1.038578e+05 3.680873e+05 0.000000e+00
8.549225e+04 3.758842e+05 -2.408070e+04
1.038119e+05 3.678075e+05 -5.000000e+04
-1.333333e+05 3.000000e+05 0.000000e+00
-1.507965e+05 3.323846e+05 0.000000e+00
4.000000e+05 -2.260870e+05 -5.000000e+04
4.000000e+05 -2.086964e+05 -2.767894e+04
3.677676e+05 -2.073069e+05 -5.000000e+04
3.680174e+05 -2.076594e+05 0.000000e+00
4.000000e+05 -2.260870e+05 0.000000e+00
3.675924e+05 -2.768653e+05 -5.000000e+04
4.000000e+05 -2.608696e+05 -5.000000e+04
-3.000000e+05 -2.642495e+05 -5.000000e+04
-3.315612e+05 -2.870977e+05 -5.000000e+04
-3.000000e+05 -2.822320e+05 -2.302012e+04
-2.608696e+05 -4.000000e+05 0.000000e+00
-2.782401e+05 -4.000000e+05 -2.767902e+04
-2.584086e+05 -3.760942e+05 -2.567443e+04
-2.771049e+05 -3.678525e+05 0.000000e+00
-2.926783e+05 -3.658212e+05 -2.531282e+04
-2.608696e+05 -4.000000e+05 -5.000000e+04
-2.769789e+05 -3.676730e+05 -5.000000e+04
2.179096e+05 3.324288e+05 0.000000e+00
2.298696e+05 3.466014e+05 -2.497649e+04
2.177452e+05 3.321517e+05 -5.000000e+04
2.000000e+05 3.000000e+05 0.000000e+00
2.166042e+05 3.000000e+05 -2.764239e+04
2.000000e+05 3.000000e+05 -5.000000e+04
-1.333333e+05 -3.000000e+05 0.000000e+00
-1.739130e+04 4.000000e+05 -5.000000e+04
-1.000000e+05 -3.000000e+05 0.000000e+00
-1.172617e+05 -3.323725e+05 0.000000e+00
-3.000000e+05 2.648037e+05 -5.000000e+04
-3.000000e+05 2.478684e+05 -2.246818e+04
-3.324670e+05 2.517626e+05 0.000000e+00
1.172807e+05 -3.323682e+05 0.000000e+00
-3.000000e+05 2.296073e+05 -5.000000e+04
4.000000e+05 -5.217391e+04 0.000000e+00
-3.324074e+05 1.848350e+05 0.000000e+00
-2.492201e+05 3.000000e+05 -2.223204e+04
-2.513373e+05 3.324609e+05 0.000000e+00
-2.333333e+05 3.000000e+05 0.000000e+00
-2.517034e+05 3.321732e+05 -5.000000e+04
-2.333333e+05 3.000000e+05 -5.000000e+04
-2.710625e+05 3.265543e+05 -2.489647e+04
4.000000e+05 1.217391e+05 -5.000000e+04
8.695652e+04 -4.000000e+05 0.000000e+00
-4.000000e+05 1.913043e+05 0.000000e+00
-3.680735e+05 1.731789e+05 0.000000e+00
-3.762928e+05 1.884625e+05 -2.573853e+04
4.000000e+05 -2.956522e+05 -5.000000e+04
4.000000e+05 -2.782520e+05 -2.767911e+04
3.754899e+05 -2.916847e+05 -2.564318e+04
6.923751e+04 -3.678235e+05 -5.000000e+04
6.956410e+04 -4.000000e+05 -2.232106e+04
8.695652e+04 -4.000000e+05 -5.000000e+04
-2.205991e+02 -3.370684e+05 -2.532145e+04
6.340486e-01 -3.678326e+05 -5.000000e+04
3.000000e+05 -2.150509e+05 -2.248841e+04
3.000000e+05 -1.978940e+05 -5.000000e+04
-3.674131e+05 -2.416500e+05 -5.000000e+04
-3.756723e+05 -2.577738e+05 -2.434534e+04
-3.679440e+05 -2.770299e+05 0.000000e+00
-4.000000e+05 -2.782599e+05 -2.232106e+04
-4.000000e+05 -2.608696e+05 0.000000e+00
6.923623e+04 3.680926e+05 0.000000e+00
8.695652e+04 4.000000e+05 0.000000e+00
2.422827e+05 3.677158e+05 -5.000000e+04
2.608696e+05 4.000000e+05 -5.000000e+04
2.608696e+05 4.000000e+05 0.000000e+00
2.771027e+05 3.678569e+05 0.000000e+00
2.423629e+05 3.680119e+05 0.000000e+00
3.128480e+05 3.662080e+05 -5.000000e+04
2.956522e+05 4.000000e+05 0.000000e+00
2.782520e+05 4.000000e+05 -2.767911e+04
3.121717e+05 3.686941e+05 0.000000e+00
-3.694624e+05 3.502041e+05 -5.000000e+04
-3.725526e+05 3.736367e+05 -3.447763e+04
-3.704813e+05 3.315946e+05 -2.557623e+04
-3.498088e+05 3.516064e+05 -2.474442e+04
-3.470017e+05 3.709660e+05 -5.000000e+04
-3.314625e+05 3.409752e+05 -5.000000e+04
-3.331767e+05 3.738461e+05 -2.549133e+04
-3.709768e+05 3.470258e+05 0.000000e+00
-3.743362e+05 3.723976e+05 -1.611574e+04
-3.368848e+05 3.236967e+05 -2.498723e+04
-3.165570e+05 3.434424e+05 -2.379597e+04
-3.410676e+05 3.315303e+05 0.000000e+00
3.679565e+05 -2.771494e+05 0.000000e+00
4.000000e+05 -2.956522e+05 0.000000e+00
2.260870e+05 4.000000e+05 -5.000000e+04
2.434785e+05 4.000000e+05 -2.767896e+04
2.245029e+05 3.754965e+05 -2.523128e+04
2.260870e+05 4.000000e+05 0.000000e+00
2.077253e+05 3.680332e+05 0.000000e+00
2.086964e+05 4.000000e+05 -2.767894e+04
-3.000000e+05 -1.653002e+05 0.000000e+00
-3.000000e+05 -1.829901e+05 -2.729017e+04
-3.321594e+05 -1.771591e+05 -5.000000e+04
-1.842416e+05 -3.321326e+05 -5.000000e+04
-1.833367e+05 -3.000000e+05 -2.764282e+04
-3.681074e+05 6.936799e+04 0.000000e+00
-4.000000e+05 8.695652e+04 0.000000e+00
-2.882575e+05 3.318080e+05 -5.000000e+04
-2.666667e+05 3.000000e+05 -5.000000e+04
-2.847890e+05 3.324722e+05 0.000000e+00
-2.789502e+05 3.000000e+05 -2.517088e+04
-2.666667e+05 3.000000e+05 0.000000e+00
8.374139e+04 3.320925e+05 -5.000000e+04
6.666667e+04 3.000000e+05 -5.000000e+04
8.321226e+04 3.000000e+05 -2.764622e+04
6.844034e+04 3.237335e+05 -2.507953e+04
6.666667e+04 3.000000e+05 0.000000e+00
8.379885e+04 3.323535e+05 0.000000e+00
3.321360e+05 2.887407e+05 -5.000000e+04
3.000000e+05 2.677698e+05 -5.000000e+04
3.411747e+05 3.094415e+05 -2.519512e+04
3.113255e+05 3.121638e+05 -2.518899e+04
3.324998e+05 2.850782e+05 0.000000e+00
3.000000e+05 2.791997e+05 -2.519777e+04
3.000000e+05 2.672967e+05 0.000000e+00
-5.217391e+04 4.000000e+05 0.000000e+00
-3.463078e+04 3.680998e+05 0.000000e+00
-3.460566e+04 3.678289e+05 -5.000000e+04
-5.217391e+04 4.000000e+05 -5.000000e+04
3.280905e+05 -3.158678e+05 -5.000000e+04
3.315439e+05 -3.410357e+05 -5.000000e+04
-8.695652e+04 4.000000e+05 -5.000000e+04
-3.478139e+04 4.000000e+05 -2.232106e+04
-4.000000e+05 1.739130e+04 0.000000e+00
1.499999e+05 -3.000000e+05 -2.235712e+04
1.333333e+05 -3.000000e+05 0.000000e+00
1.325156e+05 -3.230924e+05 -2.423313e+04
1.507705e+05 -3.321290e+05 -5.000000e+04
-1.565217e+05 -4.000000e+05 0.000000e+00
3.677284e+05 3.544677e+04 -5.000000e+04
4.000000e+05 3.478139e+04 -2.232106e+04
4.000000e+05 1.739130e+04 0.000000e+00
4.000000e+05 1.739130e+04 -5.000000e+04
3.000000e+05 -3.189320e+04 0.000000e+00
3.000000e+05 -2.771737e+04 -5.000000e+04
-4.000000e+05 -1.913043e+05 -5.000000e+04
-9.455174e+00 3.681012e+05 0.000000e+00
-1.739130e+04 4.000000e+05 0.000000e+00
3.000000e+05 -3.000000e+05 -5.000000e+04
3.000000e+05 -3.000000e+05 0.000000e+00
3.333333e+04 3.000000e+05 -5.000000e+04
5.025790e+04 3.323481e+05 0.000000e+00
5.023841e+04 3.320888e+05 -5.000000e+04
-3.662634e+05 3.129802e+05 -5.000000e+04
-3.284472e+05 3.156462e+05 -5.000000e+04
3.676798e+05 -1.033106e+05 -5.000000e+04
3.557307e+05 3.577249e+05 -2.556225e+04
3.411148e+05 3.316594e+05 -5.000000e+04
3.503283e+05 3.704446e+05 0.000000e+00
3.315896e+05 3.411665e+05 0.000000e+00
3.301749e+05 3.699731e+05 -2.580747e+04
-3.321756e+05 2.845820e+03 -5.000000e+04
-3.439778e+05 -5.218004e+04 -5.000000e+04
-3.000000e+05 1.673499e+05 0.000000e+00
3.498052e+05 5.928409e+04 -2.513960e+04
6.923633e+04 3.678232e+05 -5.000000e+04
-4.000000e+05 3.471153e+05 -2.775934e+04
-4.000000e+05 4.000000e+05 0.000000e+00
-3.823443e+05 4.000000e+05 -2.731890e+04
-3.652174e+05 4.000000e+05 0.000000e+00
-3.478935e+05 4.000000e+05 -2.235349e+04
-4.000000e+05 3.785390e+05 -2.489047e+04
-4.000000e+05 3.652174e+05 0.000000e+00
-2.956522e+05 -4.000000e+05 0.000000e+00
-3.121750e+05 -3.686897e+05 0.000000e+00
-3.294880e+05 -3.668913e+05 -2.512554e+04
-2.956522e+05 -4.000000e+05 -5.000000e+04
2.882639e+05 3.320922e+05 0.000000e+00
5.093170e-11 -3.000000e+05 0.000000e+00
-3.229034e+05 2.156104e+04 -2.228235e+04
-3.000000e+05 3.469979e+04 0.000000e+00
-3.323555e+05 5.137996e+04 0.000000e+00
-3.221140e+05 5.783149e+04 -2.488966e+04
-3.000000e+05 1.842938e+04 -5.000000e+04
-3.494528e+05 4.503635e+04 -2.461775e+04
-3.321690e+05 3.790543e+04 -5.000000e+04
-3.469745e+05 -3.696720e+05 -5.000000e+04
-3.471153e+05 -4.000000e+05 -2.775934e+04
-3.503254e+05 -3.704403e+05 0.000000e+00
-3.304348e+05 -4.000000e+05 0.000000e+00
3.323437e+05 -4.907221e+04 0.000000e+00
3.323539e+05 -8.274308e+04 0.000000e+00
-3.502322e+05 3.694716e+05 0.000000e+00
-4.000000e+05 3.304348e+05 -5.000000e+04
3.252858e+05 3.368508e+05 -2.538077e+04
3.161196e+05 3.280247e+05 -5.000000e+04
3.323919e+05 8.996816e+04 -5.000000e+04
3.323321e+05 5.191321e+04 0.000000e+00
-3.652174e+05 -4.000000e+05 -5.000000e+04
-4.000000e+05 -4.000000e+05 0.000000e+00
-3.785390e+05 -4.000000e+05 -2.489047e+04
-4.000000e+05 -3.823443e+05 -2.731890e+04
-3.764163e+05 -3.738563e+05 -2.135274e+04
-4.000000e+05 -3.478935e+05 -2.235349e+04
-3.652174e+05 -4.000000e+05 0.000000e+00
-4.000000e+05 8.695652e+04 -5.000000e+04
-3.680872e+05 -6.905149e+04 0.000000e+00
-4.000000e+05 -6.956410e+04 -2.232106e+04
-3.699902e+05 -6.956816e+04 -5.000000e+04
4.000000e+05 -4.000000e+05 -5.000000e+04
3.652174e+05 -4.000000e+05 -5.000000e+04
3.823443e+05 -4.000000e+05 -2.731890e+04
3.652174e+05 -4.000000e+05 0.000000e+00
4.000000e+05 -4.000000e+05 0.000000e+00
-4.000000e+05 -3.304348e+05 -5.000000e+04
-3.000000e+05 -3.000000e+05 0.000000e+00
3.278659e+05 3.164259e+05 0.000000e+00
-2.946571e+05 3.667439e+05 -2.435564e+04
-2.768680e+05 3.676148e+05 -5.000000e+04
-2.434771e+05 4.000000e+05 -2.232106e+04
-2.782599e+05 4.000000e+05 -2.232106e+04
-2.423601e+05 3.680073e+05 0.000000e+00
-2.608696e+05 4.000000e+05 0.000000e+00
-2.771013e+05 3.679669e+05 0.000000e+00
-3.000000e+05 3.000000e+05 -5.000000e+04
-3.000000e+05 3.000000e+05 0.000000e+00
-3.161332e+05 3.279792e+05 0.000000e+00
-3.131889e+05 3.663436e+05 0.000000e+00
-3.304348e+05 4.000000e+05 -5.000000e+04
-3.130499e+05 4.000000e+05 -2.232112e+04
-3.304348e+05 4.000000e+05 0.000000e+00
-1.333333e+05 3.000000e+05 -5.000000e+04
3.315091e+05 -3.410604e+05 0.000000e+00
3.118095e+05 -3.686794e+05 0.000000e+00
3.315886e+05 -3.713663e+05 -2.472108e+04
3.130499e+05 -4.000000e+05 -2.232112e+04
1.739120e+05 -4.000000e+05 -2.232105e+04
1.842645e+05 -3.323929e+05 -5.000000e+04
3.680906e+05 3.482819e+04 0.000000e+00
1.666667e+05 3.000000e+05 -5.000000e+04
-1.673681e+04 -3.320845e+05 -5.000000e+04
2.910383e-11 -3.000000e+05 -5.000000e+04
-5.023842e+04 -3.320889e+05 -5.000000e+04
3.469444e+05 -3.709697e+05 0.000000e+00
-1.676046e+04 3.323412e+05 0.000000e+00
-3.673718e+05 -2.765155e+05 -5.000000e+04
-4.000000e+05 -2.956522e+05 -5.000000e+04
3.323491e+05 1.528569e+05 0.000000e+00
-3.000000e+05 5.362570e+04 -5.000000e+04
-3.000000e+05 6.786232e+04 0.000000e+00
3.662367e+05 3.129724e+05 0.000000e+00
3.685626e+05 3.120601e+05 -5.000000e+04
4.000000e+05 2.956522e+05 -5.000000e+04
4.000000e+05 4.000000e+05 0.000000e+00
4.000000e+05 3.652174e+05 0.000000e+00
3.652174e+05 4.000000e+05 0.000000e+00
3.762094e+05 3.750722e+05 -2.160105e+04
3.652174e+05 4.000000e+05 -5.000000e+04
4.000000e+05 3.652174e+05 -5.000000e+04
4.000000e+05 3.823443e+05 -2.731890e+04
3.698059e+05 3.472734e+05 0.000000e+00
3.785390e+05 4.000000e+05 -2.489047e+04
-8.695652e+04 -4.000000e+05 0.000000e+00
4.000000e+05 -1.739130e+04 -5.000000e+04
1.667182e+04 -3.000000e+05 -2.764257e+04
4.000000e+05 -1.913043e+05 0.000000e+00
3.676538e+05 -1.727396e+05 -5.000000e+04
-4.000000e+05 3.652174e+05 -5.000000e+04
-3.652174e+05 4.000000e+05 -5.000000e+04
-4.000000e+05 4.000000e+05 -5.000000e+04
-1.666667e+05 3.000000e+05 0.000000e+00
-2.956522e+05 4.000000e+05 -5.000000e+04
-3.115858e+05 3.684755e+05 -5.000000e+04
4.000000e+05 -1.913043e+05 -5.000000e+04
-3.324502e+05 -2.508874e+05 0.000000e+00
1.676292e+04 -3.320847e+05 -5.000000e+04
3.333333e+04 -3.000000e+05 -5.000000e+04
-1.565217e+05 -4.000000e+05 -5.000000e+04
-1.384500e+05 -3.677932e+05 -5.000000e+04
-1.843130e+05 -3.324055e+05 0.000000e+00
-1.565217e+05 4.000000e+05 0.000000e+00
3.304348e+05 -4.000000e+05 -5.000000e+04
3.478935e+05 -4.000000e+05 -2.235349e+04
3.471153e+05 4.000000e+05 -2.775934e+04
3.304348e+05 4.000000e+05 0.000000e+00
3.129524e+05 4.000000e+05 -2.768053e+04
3.304348e+05 4.000000e+05 -5.000000e+04
3.000000e+05 -2.664866e+05 0.000000e+00
2.077156e+05 3.677497e+05 -5.000000e+04
-5.093170e-11 3.000000e+05 0.000000e+00
1.913043e+05 -4.000000e+05 0.000000e+00
1.333333e+05 -3.000000e+05 -5.000000e+04
-2.000000e+05 -3.000000e+05 -5.000000e+04
3.000000e+05 3.000000e+05 -5.000000e+04
3.000000e+05 -1.994599e+05 0.000000e+00
-4.000000e+05 1.739130e+04 -5.000000e+04
-3.312555e+05 -1.078189e+05 -5.000000e+04
-1.217391e+05 -4.000000e+05 -5.000000e+04
2.333333e+05 -3.000000e+05 -5.000000e+04
-4.000000e+05 -8.695652e+04 0.000000e+00
-4.000000e+05 -8.695652e+04 -5.000000e+04
-4.000000e+05 -3.130499e+05 -2.232112e+04
-3.000000e+05 -8.715961e+04 -5.000000e+04
3.119848e+05 -3.684872e+05 -5.000000e+04
-3.000000e+05 -3.000000e+05 -5.000000e+04
-3.304348e+05 -4.000000e+05 -5.000000e+04
-3.129520e+05 -4.000000e+05 -2.768053e+04
8.695652e+04 4.000000e+05 -5.000000e+04
2.333333e+05 3.000000e+05 0.000000e+00
-2.956522e+05 4.000000e+05 0.000000e+00
3.472622e+05 3.698070e+05 -5.000000e+04
-3.000000e+05 -2.663251e+05 0.000000e+00
4.000000e+05 4.000000e+05 -5.000000e+04
4.000000e+05 -3.785390e+05 -2.489047e+04
3.304348e+05 -4.000000e+05 0.000000e+00
1.666667e+05 -3.000000e+05 -5.000000e+04
-3.333333e+04 3.000000e+05 -5.000000e+04
-3.000000e+05 -7.176096e+04 -2.210995e+04
-4.000000e+05 -3.652174e+05 -5.000000e+04
-4.000000e+05 -4.000000e+05 -5.000000e+04
4.000000e+05 3.304348e+05 0.000000e+00
-2.608696e+05 4.000000e+05 -5.000000e+04
-4.000000e+05 1.913043e+05 -5.000000e+04
4.000000e+05 2.608696e+05 0.000000e+00
4.000000e+05 5.217391e+04 -5.000000e+04
2.956522e+05 -4.000000e+05 -5.000000e+04
3.000000e+05 3.000000e+05 0.000000e+00
-3.000000e+05 -5.196328e+04 -5.000000e+04
1.913043e+05 -4.000000e+05 -5.000000e+04
-3.000000e+05 -1.223559e+05 -5.000000e+04
-4.000000e+05 -1.913043e+05 0.000000e+00
2.956522e+05 -4.000000e+05 0.000000e+00
-4.000000e+05 -3.652174e+05 0.000000e+00
2.333333e+05 3.000000e+05 -5.000000e+04
-4.000000e+05 -2.608696e+05 -5.000000e+04
-4.000000e+05 -5.217391e+04 0.000000e+00
-4.000000e+05 -3.304348e+05 0.000000e+00
-3.000000e+05 2.668375e+05 0.000000e+00
-4.000000e+05 -2.956522e+05 0.000000e+00
3.000000e+05 1.356736e+05 0.000000e+00
4.000000e+05 2.608696e+05 -5.000000e+04
-4.000000e+05 3.304348e+05 0.000000e+00
-3.000000e+05 -2.026301e+05 -3.632534e+04
-3.072024e+05 -2.022254e+05 -4.300251e+04
-3.115058e+05 -1.959659e+05 -3.722387e+04
-3.000000e+05 -1.927486e+05 -5.000000e+04
-3.000000e+05 -1.878693e+05 -3.864508e+04
-3.160797e+05 -1.849538e+05 -5.000000e+04
-3.000000e+05 -2.106238e+05 -5.000000e+04
-3.000000e+05 -1.769489e+05 -4.166667e+04
-3.127605e+05 -1.657976e+05 -3.976534e+04
-3.000000e+05 -1.720696e+05 -3.031175e+04
-3.000000e+05 -1.611492e+05 -3.333333e+04
-3.000000e+05 -1.593507e+05 -4.166667e+04
-3.000000e+05 -1.751504e+05 -5.000000e+04
-3.000000e+05 -1.575523e+05 -5.000000e+04
-3.159737e+05 -2.026191e+05 -5.000000e+04
-3.106504e+05 -9.331192e+04 -1.377093e+04
-3.000000e+05 -8.485563e+04 -1.105497e+04
-3.121734e+05 -8.017354e+04 -1.025160e+04
-3.000000e+05 -9.795031e+04 0.000000e+00
-3.161910e+05 -9.004106e+04 0.000000e+00
-3.000000e+05 -8.136905e+04 0.000000e+00
-3.000000e+05 -1.137500e+05 -8.333333e+03
-3.130400e+05 -1.243408e+05 -9.288127e+03
-3.000000e+05 -1.166929e+05 -1.993373e+04
-3.000000e+05 -1.295497e+05 -1.666667e+04
-3.000000e+05 -1.008931e+05 -1.160040e+04
-3.161858e+05 -1.067992e+05 0.000000e+00
-3.000000e+05 -1.305875e+05 -8.333333e+03
-3.000000e+05 -1.147878e+05 0.000000e+00
-3.000000e+05 -1.316253e+05 0.000000e+00
3.000000e+05 1.533872e+05 -8.333333e+03
3.000000e+05 1.524302e+05 0.000000e+00
3.102045e+05 1.494831e+05 -7.255280e+03
3.000000e+05 1.691869e+05 0.000000e+00
3.107354e+05 1.354466e+05 -1.796361e+04
3.000000e+05 1.366305e+05 -8.333333e+03
3.000000e+05 1.375875e+05 -1.666667e+04
3.000000e+05 1.760691e+05 -1.357997e+04
3.120829e+05 1.621500e+05 -1.318185e+04
3.162902e+05 1.776758e+05 0.000000e+00
3.161745e+05 1.610219e+05 0.000000e+00
3.000000e+05 1.602694e+05 -2.191330e+04
3.103720e+05 1.530561e+05 -2.316539e+04
3.000000e+05 1.855385e+05 0.000000e+00
3.000000e+05 6.519138e+04 -3.614855e+04
3.097574e+05 7.355157e+04 -3.938123e+04
3.159874e+05 6.550846e+04 -5.000000e+04
3.000000e+05 7.438862e+04 -5.000000e+04
3.000000e+05 7.953962e+04 -3.870729e+04
3.161959e+05 8.217839e+04 -5.000000e+04
3.000000e+05 9.018833e+04 -4.166667e+04
3.134169e+05 1.006446e+05 -3.905930e+04
3.000000e+05 1.063034e+05 -4.166667e+04
3.000000e+05 1.059880e+05 -3.333333e+04
3.000000e+05 9.050372e+04 -5.000000e+04
3.000000e+05 1.066188e+05 -5.000000e+04
3.000000e+05 9.533933e+04 -3.037395e+04
3.000000e+05 5.737095e+04 -5.000000e+04
-3.000000e+05 -1.453495e+05 -2.500000e+04
-3.117508e+05 -1.372135e+05 -3.336428e+04
-3.143304e+05 -1.437057e+05 -2.302414e+04
-3.103703e+05 -1.586913e+05 -2.281246e+04
-3.114807e+05 -1.517740e+05 -3.669368e+04
-3.000000e+05 -1.474250e+05 -8.333333e+03
-3.000000e+05 -1.632247e+05 -1.666667e+04
-3.000000e+05 -1.259528e+05 -3.333333e+04
-3.000000e+05 -1.417526e+05 -4.166667e+04
-3.156851e+05 -1.406389e+05 -1.045239e+04
-3.131459e+05 -1.280944e+05 -2.600458e+04
3.000000e+05 1.382182e+05 -3.333333e+04
3.000000e+05 1.217878e+05 -2.500000e+04
3.000000e+05 1.198738e+05 -8.333333e+03
3.098035e+05 1.216059e+05 -2.877283e+04
3.000000e+05 1.040741e+05 -1.666667e+04
3.000000e+05 1.224185e+05 -4.166667e+04
3.000000e+05 1.543333e+05 -3.333333e+04
3.150922e+05 1.176838e+05 -3.991931e+04
3.098254e+05 1.055103e+05 -2.790417e+04
2.559188e+05 2.824410e+05 -2.072900e+04
2.491748e+05 2.712996e+05 0.000000e+00
2.316976e+05 2.780138e+05 -2.561865e+04
2.443954e+05 2.542553e+05 -2.766359e+04
2.490982e+05 2.712545e+05 -5.000000e+04
-8.333333e+04 1.518124e+05 -5.000000e+04
-8.258422e+04 1.671782e+05 -2.571772e+04
-1.065550e+05 1.374028e+05 -2.486071e+04
-7.366334e+04 1.422256e+05 -2.568721e+04
2.166667e+05 2.703625e+05 0.000000e+00
2.181190e+05 2.431352e+05 -2.564330e+04
1.997415e+05 2.705041e+05 -2.563802e+04
2.168493e+05 2.700948e+05 -5.000000e+04
-6.402843e-10 1.814500e+05 -5.000000e+04
1.645022e+04 1.494383e+05 -5.000000e+04
1.544393e+04 1.812344e+05 -2.466881e+04
-1.298356e+03 1.551796e+05 -2.400077e+04
-4.440329e+03 1.333028e+05 0.000000e+00
-3.876018e+04 1.344375e+05 -2.468462e+04
-3.276955e+04 1.523143e+05 0.000000e+00
2.617409e+04 1.466127e+05 0.000000e+00
-4.649752e+02 1.773997e+05 0.000000e+00
3.259688e+04 1.810684e+05 0.000000e+00
2.510254e+04 1.288683e+05 -2.516228e+04
4.169946e+04 1.657973e+05 -2.495815e+04
-1.844847e+03 1.280388e+05 -2.639126e+04
-1.666667e+05 2.407250e+05 0.000000e+00
-1.836304e+05 2.106403e+05 0.000000e+00
-1.945128e+05 2.270381e+05 -2.492908e+04
-1.681447e+05 2.206516e+05 -2.495535e+04
-1.609535e+05 1.856343e+05 -2.492654e+04
-1.952656e+05 1.949450e+05 -2.496796e+04
-1.445520e+05 2.514793e+05 -2.466802e+04
-1.397412e+05 2.218161e+05 -2.493371e+04
-1.837086e+05 2.096875e+05 -5.000000e+04
-1.666667e+05 2.407250e+05 -5.000000e+04
-1.814500e+05 8.882203e+04 -5.000000e+04
-1.713762e+05 8.461727e+04 -2.319576e+04
-1.514294e+05 1.071215e+05 -5.000000e+04
-1.676538e+05 1.148399e+05 -2.482079e+04
-1.805080e+05 1.271344e+05 -5.000000e+04
-1.525031e+05 1.501422e+05 -5.000000e+04
-1.672926e+05 1.467888e+05 -2.317205e+04
-1.814500e+05 1.010248e+05 0.000000e+00
-1.566202e+05 9.415578e+04 0.000000e+00
-1.812661e+05 1.357516e+05 0.000000e+00
-1.499531e+05 1.255588e+05 0.000000e+00
-1.955159e+05 1.022173e+05 -2.515253e+04
-1.967719e+05 1.284479e+05 -2.298366e+04
-2.703625e+05 1.839312e+05 0.000000e+00
-2.780946e+05 1.631258e+05 -2.430653e+04
-3.026807e+04 9.140770e+04 -5.000000e+04
1.879872e+03 1.085313e+05 -5.000000e+04
-3.242458e+04 1.222501e+05 -5.000000e+04
-1.894020e+04 1.072241e+05 -2.196266e+04
-2.703625e+05 1.416165e+05 -5.000000e+04
-2.552047e+05 1.371801e+05 -2.234823e+04
-2.698206e+05 1.958194e+05 -2.530242e+04
-2.521156e+05 1.715463e+05 -2.500810e+04
-2.703625e+05 1.768129e+05 -5.000000e+04
-5.230747e+04 9.927549e+04 -2.491553e+04
-2.065159e+04 7.517668e+04 -2.519919e+04
-9.162195e+02 7.047971e+04 -5.000000e+04
-2.301424e+04 3.398678e+04 -2.881613e+04
7.692661e+03 4.996854e+04 -2.839557e+04
-4.363361e+04 4.863366e+04 0.000000e+00
-5.257973e+04 6.169675e+04 -2.493475e+04
-3.989880e+04 8.273880e+04 0.000000e+00
2.405359e+05 1.742632e+05 0.000000e+00
2.539260e+05 1.473603e+05 -3.022279e+04
2.219054e+05 1.483519e+05 -2.605928e+04
2.637767e+05 1.712658e+05 -2.657961e+04
2.699346e+05 1.549641e+05 -5.000000e+04
2.398692e+05 1.710792e+05 -5.000000e+04
2.548442e+05 1.955740e+05 -2.517993e+04
2.716218e+05 1.881165e+05 0.000000e+00
2.699346e+05 1.871943e+05 -5.000000e+04
-1.500000e+05 2.703625e+05 -5.000000e+04
-1.833333e+05 2.703625e+05 -5.000000e+04
-1.747041e+05 2.532092e+05 -2.481199e+04
-1.651046e+05 2.777377e+05 -2.434867e+04
-1.998239e+05 2.685760e+05 -2.463984e+04
-1.500000e+05 2.703625e+05 0.000000e+00
-1.252342e+05 2.743455e+05 -2.293096e+04
-1.833333e+05 2.703625e+05 0.000000e+00
-9.097190e+04 1.558896e+05 0.000000e+00
-1.221382e+05 1.448832e+05 0.000000e+00
-1.135228e+05 1.685726e+05 -2.316195e+04
-1.012490e+05 1.812578e+05 0.000000e+00
-1.348429e+05 1.804690e+05 0.000000e+00
-1.370863e+05 1.552054e+05 -2.452464e+04
-1.349418e+05 1.935774e+05 -2.489610e+04
-1.000000e+05 1.814500e+05 -5.000000e+04
-1.064378e+05 1.981580e+05 -2.487026e+04
-1.350849e+05 1.810571e+05 -5.000000e+04
1.500000e+05 2.703625e+05 -5.000000e+04
1.324507e+05 2.792588e+05 -2.609173e+04
1.500000e+05 2.703625e+05 0.000000e+00
1.609594e+05 2.629513e+05 -2.430361e+04
1.245979e+05 2.552575e+05 -2.518282e+04
1.166667e+05 2.703625e+05 0.000000e+00
1.009564e+05 2.779568e+05 -2.565129e+04
1.166667e+05 2.703625e+05 -5.000000e+04
8.333333e+04 2.703625e+05 0.000000e+00
8.954829e+04 2.524074e+05 -2.447023e+04
8.333333e+04 2.703625e+05 -5.000000e+04
6.791157e+04 2.780535e+05 -2.491258e+04
1.508365e+05 2.101142e+05 -5.000000e+04
1.333333e+05 2.407250e+05 -5.000000e+04
1.344752e+05 2.067384e+05 -2.478737e+04
1.493987e+05 2.326334e+05 -2.475015e+04
1.524543e+05 2.032776e+05 0.000000e+00
1.680375e+05 2.103919e+05 -2.498200e+04
1.114085e+05 2.293892e+05 -2.788792e+04
1.340169e+05 2.394802e+05 0.000000e+00
-2.110875e+05 1.176061e+05 0.000000e+00
-2.274097e+05 1.065603e+05 -2.314473e+04
-1.941247e+05 1.609813e+05 -2.484177e+04
-2.099412e+05 1.516432e+05 0.000000e+00
-2.253418e+05 1.415223e+05 -2.448089e+04
-1.510068e+05 2.098216e+05 -5.000000e+04
-1.666667e+04 2.703625e+05 -5.000000e+04
-2.473698e+04 2.545434e+05 -2.518265e+04
7.434664e+01 2.709407e+05 -2.547411e+04
-3.464359e+04 2.779841e+05 -2.567042e+04
-5.000000e+04 2.703625e+05 0.000000e+00
-1.666667e+04 2.703625e+05 0.000000e+00
-5.804419e+04 2.523542e+05 -2.504336e+04
-7.440805e+04 2.763862e+05 -2.598136e+04
-5.000000e+04 2.703625e+05 -5.000000e+04
-2.025945e+05 -2.109948e+04 0.000000e+00
-1.851335e+05 -2.953349e+04 -2.441815e+04
-2.169573e+05 -4.593073e+04 -2.976969e+04
-2.010886e+05 -5.689377e+03 -2.457354e+04
-1.699494e+05 -7.605757e+03 0.000000e+00
-1.749759e+05 5.694888e+03 -2.330708e+04
-2.007136e+05 1.294712e+04 0.000000e+00
-2.273568e+05 -1.860917e+04 -2.717294e+04
-2.367691e+05 -1.169208e+03 0.000000e+00
-1.952446e+05 3.057526e+04 -2.572517e+04
-2.264859e+05 1.717186e+04 -2.535132e+04
-1.166667e+05 2.703625e+05 -5.000000e+04
-9.180886e+04 2.529518e+05 -2.489460e+04
-8.333333e+04 2.703625e+05 0.000000e+00
2.325910e+04 1.108585e+05 0.000000e+00
1.183708e+04 9.183793e+04 -2.544933e+04
-8.319851e+03 9.679865e+04 0.000000e+00
-6.774293e+04 7.985803e+03 -5.000000e+04
-3.616399e+04 2.204566e+04 -5.000000e+04
-6.400812e+04 4.209094e+04 -5.000000e+04
-5.907501e+04 2.183011e+04 -2.678356e+04
-2.707613e+05 2.523762e+05 0.000000e+00
-2.565948e+05 2.251773e+05 -2.601390e+04
-2.735806e+05 2.513140e+05 -2.766184e+04
-2.461166e+05 2.490992e+05 -2.322258e+04
-2.523724e+05 2.703929e+05 -5.000000e+04
-2.704325e+05 2.465880e+05 -5.000000e+04
-2.172610e+05 2.694316e+05 0.000000e+00
-2.355342e+05 2.735901e+05 -2.621207e+04
-2.200847e+05 2.401414e+05 -2.513015e+04
-2.354180e+05 2.382308e+05 -5.000000e+04
2.709687e+05 2.570222e+05 -2.208573e+04
2.830233e+05 2.846222e+05 -1.795877e+04
5.000000e+04 2.703625e+05 -5.000000e+04
1.666667e+04 2.703625e+05 -5.000000e+04
2.614220e+04 2.532086e+05 -2.507288e+04
3.450161e+04 2.780553e+05 -2.449433e+04
5.750136e+04 2.548291e+05 -2.465437e+04
2.699346e+05 2.194245e+05 -5.000000e+04
2.506856e+05 2.246647e+05 -2.428962e+04
2.781468e+05 2.075924e+05 -2.577780e+04
2.696873e+05 2.193028e+05 0.000000e+00
1.666667e+04 2.703625e+05 0.000000e+00
5.000000e+04 2.703625e+05 0.000000e+00
6.666667e+04 2.407250e+05 -5.000000e+04
5.680148e+04 2.262400e+05 -2.507429e+04
8.333333e+04 2.110875e+05 -5.000000e+04
9.002221e+04 2.155940e+05 -2.417489e+04
1.006800e+05 1.811701e+05 -5.000000e+04
9.606729e+04 1.763592e+05 -2.326664e+04
1.118121e+05 1.974078e+05 -2.519894e+04
7.006311e+04 1.948825e+05 -2.480684e+04
1.172380e+05 2.126404e+05 0.000000e+00
8.467502e+04 2.097123e+05 0.000000e+00
1.166667e+05 2.110875e+05 -5.000000e+04
-9.932188e+04 8.872423e+04 0.000000e+00
-1.261497e+05 1.083583e+05 0.000000e+00
-9.558707e+04 1.228294e+05 0.000000e+00
-1.060763e+05 1.049085e+05 -2.495677e+04
1.496139e+05 1.823333e+05 -2.344312e+04
1.495749e+05 1.670979e+05 0.000000e+00
1.353588e+05 1.433593e+05 -2.391762e+04
1.209961e+05 1.708403e+05 -2.590613e+04
1.750901e+05 1.784593e+05 -5.000000e+04
1.625474e+05 1.592900e+05 -2.660915e+04
1.881752e+05 1.896164e+05 -2.548757e+04
1.277153e+05 1.584745e+05 -5.000000e+04
1.362781e+05 1.814245e+05 -5.000000e+04
-1.575227e+05 -2.834125e+02 -5.000000e+04
-1.635453e+05 2.697592e+04 -2.686991e+04
-1.408165e+05 -5.358839e+02 -2.408401e+04
-1.309008e+05 -2.013390e+04 -5.000000e+04
-1.635112e+05 -1.569303e+04 -2.058015e+04
-1.067915e+05 2.051395e+04 0.000000e+00
-1.160711e+05 3.394979e+04 -2.721682e+04
-1.193283e+05 -5.458551e+03 -2.346667e+04
-1.519659e+05 3.403267e+04 -5.000000e+04
-1.458178e+05 5.474172e+04 -2.608823e+04
-1.313979e+05 -2.876160e+04 -2.962241e+04
-2.789752e+05 -1.319160e+04 -2.406264e+04
-2.690150e+05 -1.588985e+04 0.000000e+00
-2.773204e+05 -4.845408e+04 -2.560392e+04
-2.692014e+05 -7.034586e+04 -5.000000e+04
-1.166667e+05 2.110875e+05 0.000000e+00
-2.372010e+05 -5.415727e+04 -5.000000e+04
-2.689977e+05 -6.992646e+04 -2.441391e+04
-2.498760e+05 -3.611039e+04 -2.366280e+04
-2.703625e+05 -3.436512e+04 -5.000000e+04
2.089980e+05 1.611125e+05 0.000000e+00
1.811538e+05 1.811578e+05 0.000000e+00
2.119881e+05 1.946749e+05 0.000000e+00
1.935330e+05 1.612223e+05 -2.629565e+04
1.206060e+05 1.865350e+05 0.000000e+00
1.779255e+05 1.524171e+05 -5.000000e+04
3.333333e+04 2.407250e+05 -5.000000e+04
1.774190e+05 1.470526e+05 0.000000e+00
1.831355e+05 2.109135e+05 -5.000000e+04
2.016033e+05 2.136124e+05 -2.338930e+04
2.098039e+05 1.871943e+05 -5.000000e+04
2.705524e+05 2.536129e+05 -5.000000e+04
2.706845e+05 2.531006e+05 0.000000e+00
2.743430e+05 2.804636e+05 -3.565421e+04
1.059545e+05 1.340029e+05 -2.526532e+04
1.254656e+05 1.264501e+05 -5.000000e+04
1.036051e+05 8.948745e+04 -2.901124e+04
1.318827e+05 1.033877e+05 -2.972155e+04
8.268218e+04 1.048731e+05 0.000000e+00
7.544233e+04 1.175931e+05 -2.520030e+04
8.641699e+04 1.389782e+05 0.000000e+00
-2.494326e+05 2.704780e+05 0.000000e+00
-2.754380e+05 2.772238e+05 -2.329234e+04
7.503913e+04 1.564827e+05 -2.407662e+04
-2.085686e+05 8.244010e+04 0.000000e+00
-1.793166e+05 5.912675e+04 -2.293628e+04
-2.052275e+05 4.664276e+04 0.000000e+00
-2.078973e+05 7.617219e+04 -2.714063e+04
-1.679243e+05 2.728852e+04 0.000000e+00
-1.668074e+05 6.250164e+04 0.000000e+00
-1.517020e+05 7.095084e+04 -5.000000e+04
-1.814500e+05 5.362570e+04 -5.000000e+04
-2.698465e+05 1.780353e+04 0.000000e+00
-2.536554e+05 -2.178764e+03 -2.486400e+04
-2.407250e+05 -1.676695e+04 -5.000000e+04
-2.385624e+05 3.327850e+04 0.000000e+00
-2.699049e+05 2.341501e+04 -2.519564e+04
-1.280794e+05 1.264709e+05 -5.000000e+04
-1.390389e+05 1.232351e+05 -2.341644e+04
-1.534183e+05 1.543868e+05 0.000000e+00
-3.333333e+04 2.407250e+05 0.000000e+00
-1.164153e-10 2.407250e+05 0.000000e+00
-2.707816e+04 2.266567e+05 -2.496002e+04
-4.739292e+02 2.404942e+05 -2.506298e+04
1.662067e+05 2.401366e+05 0.000000e+00
2.495128e+04 2.253597e+05 -2.497880e+04
-2.910383e-10 2.407250e+05 -5.000000e+04
-6.219143e+02 2.097139e+05 -2.489705e+04
-1.666667e+04 2.110875e+05 -5.000000e+04
-3.947217e+04 1.979524e+05 -2.518472e+04
-1.715555e+04 1.811869e+05 -2.498794e+04
-1.820902e+05 1.950823e+04 -5.000000e+04
-1.348873e+05 4.067018e+04 0.000000e+00
-2.703625e+05 8.312113e+02 -5.000000e+04
-2.343287e+05 -3.522485e+04 0.000000e+00
-5.000000e+04 2.110875e+05 -5.000000e+04
-5.935834e+04 2.232701e+05 -2.492048e+04
-1.666667e+04 2.110875e+05 0.000000e+00
-5.000000e+04 2.110875e+05 0.000000e+00
-3.333333e+04 2.407250e+05 -5.000000e+04
-2.703625e+05 5.128106e+04 0.000000e+00
-2.793205e+05 5.499439e+04 -2.424435e+04
1.833333e+05 2.703625e+05 0.000000e+00
1.998325e+05 2.422965e+05 0.000000e+00
1.847261e+05 2.388059e+05 -2.598053e+04
1.833333e+05 2.703625e+05 -5.000000e+04
2.001060e+05 2.421104e+05 -5.000000e+04
-2.703625e+05 3.602754e+04 -5.000000e+04
-2.407250e+05 1.240184e+05 -5.000000e+04
-2.110875e+05 1.064202e+05 -5.000000e+04
-2.128706e+05 -3.244956e+04 -5.000000e+04
-1.376853e+05 9.082797e+04 -2.410948e+04
-1.309008e+05 7.466438e+04 0.000000e+00
-1.197176e+05 8.569992e+04 -5.000000e+04
-2.703625e+05 2.170937e+05 0.000000e+00
-2.689793e+05 2.130584e+05 -5.000000e+04
3.072872e+04 8.427050e+04 -5.000000e+04
4.068713e+04 6.365250e+04 -2.773862e+04
4.423007e+04 1.039765e+05 -2.524789e+04
5.857286e+04 6.422522e+04 -5.000000e+04
6.997792e+04 7.753853e+04 -2.657388e+04
6.230767e+04 9.833036e+04 -5.000000e+04
-6.774293e+04 1.027841e+05 0.000000e+00
-7.987173e+04 1.171873e+05 -2.711685e+04
-1.120328e+05 6.871606e+04 -2.531145e+04
-8.229883e+04 8.052390e+04 -2.351722e+04
-8.777997e+04 9.515647e+04 -5.000000e+04
2.240776e+05 1.816737e+05 -2.503678e+04
5.155903e+04 1.377511e+05 -2.511759e+04
5.483804e+04 1.249184e+05 0.000000e+00
3.446554e+04 1.190107e+05 -5.000000e+04
5.075494e+04 1.521113e+05 -5.000000e+04
-1.761679e+05 1.743429e+05 -5.000000e+04
-6.489412e+04 1.194287e+05 -5.000000e+04
-6.395353e+04 1.382147e+05 0.000000e+00
-1.166667e+05 2.703625e+05 0.000000e+00
-8.333333e+04 2.703625e+05 -5.000000e+04
-1.166206e+05 2.392171e+05 -2.489173e+04
-1.763357e+05 1.764619e+05 0.000000e+00
-2.094809e+05 1.434237e+05 -5.000000e+04
9.388661e+04 1.123902e+05 -5.000000e+04
5.110323e+04 9.081322e+04 0.000000e+00
2.393627e+05 2.394240e+05 0.000000e+00
2.186711e+05 2.259031e+05 0.000000e+00
-1.000453e+05 1.219057e+05 -5.000000e+04
-1.509606e+05 2.098502e+05 0.000000e+00
-1.333333e+05 2.407250e+05 -5.000000e+04
-1.333333e+05 2.407250e+05 0.000000e+00
-1.166667e+05 2.110875e+05 -5.000000e+04
1.952429e+04 7.675336e+04 0.000000e+00
6.690228e+04 1.308474e+05 -5.000000e+04
-2.405446e+05 1.958355e+05 -5.000000e+04
-2.277974e+05 2.063023e+05 -2.519711e+04
-2.393400e+05 2.355274e+05 0.000000e+00
-2.414691e+05 2.003343e+05 0.000000e+00
-2.227396e+05 1.729911e+05 -2.506131e+04
-2.407250e+05 1.673499e+05 0.000000e+00
-2.407250e+05 1.592147e+05 -5.000000e+04
-2.407250e+05 1.341874e+05 0.000000e+00
-2.703625e+05 7.122387e+04 -5.000000e+04
-2.537970e+05 4.900342e+04 -2.521333e+04
-2.703625e+05 8.444358e+04 0.000000e+00
-2.533311e+05 8.308202e+04 -2.728612e+04
-2.407250e+05 5.362570e+04 -5.000000e+04
5.856177e+04 1.579786e+05 0.000000e+00
-2.407250e+05 8.882203e+04 -5.000000e+04
-2.397487e+05 6.722644e+04 0.000000e+00
-2.245072e+05 5.181172e+04 -2.880009e+04
-3.242917e+04 5.615080e+04 -5.000000e+04
-7.521256e+04 3.457380e+04 0.000000e+00
-8.438438e+04 4.749748e+04 -2.477616e+04
-8.978008e+04 7.995235e+03 -2.432239e+04
-2.110875e+05 3.602754e+04 -5.000000e+04
-2.407250e+05 1.842938e+04 -5.000000e+04
-2.110875e+05 7.122387e+04 -5.000000e+04
-1.030567e+05 5.461909e+04 0.000000e+00
-9.185226e+04 6.213623e+04 -5.000000e+04
-7.147775e+04 6.867894e+04 0.000000e+00
-6.052385e+04 7.784392e+04 -5.000000e+04
-9.558707e+04 2.803109e+04 -5.000000e+04
-3.333333e+04 1.814500e+05 -5.000000e+04
-1.575966e+04 1.497571e+05 -5.000000e+04
-1.383705e+05 6.454096e+03 0.000000e+00
1.458401e+05 1.329928e+05 0.000000e+00
1.605473e+05 1.247311e+05 -2.673529e+04
1.553833e+05 1.422223e+05 -5.000000e+04
1.533097e+05 1.064048e+05 -5.000000e+04
-2.102373e+05 1.782508e+05 -5.000000e+04
3.804734e+04 1.981452e+05 -2.522252e+04
6.087195e+04 1.870660e+05 0.000000e+00
-2.121763e+05 1.505844e+03 -5.000000e+04
-2.703625e+05 1.507686e+05 0.000000e+00
-1.232919e+05 4.862786e+04 -5.000000e+04
2.398692e+05 2.033094e+05 -5.000000e+04
2.117219e+05 2.186801e+05 -5.000000e+04
2.275341e+05 2.128822e+05 -2.499694e+04
-1.269280e+05 1.381290e+04 -5.000000e+04
-2.105485e+05 1.837023e+05 0.000000e+00
6.795329e+04 1.800893e+05 -5.000000e+04
9.466892e+04 1.478433e+05 -5.000000e+04
1.179959e+05 1.530381e+05 0.000000e+00
9.008787e+04 1.733604e+05 0.000000e+00
-1.867256e+05 -1.222473e+04 -5.000000e+04
-2.407250e+05 1.010248e+05 0.000000e+00
-2.675118e+05 1.129340e+05 -2.585263e+04
1.834589e+05 1.197429e+05 -5.000000e+04
1.917847e+05 1.280854e+05 -2.835603e+04
-1.205466e+04 6.269351e+04 0.000000e+00
-6.666667e+04 2.407250e+05 0.000000e+00
1.851315e+05 2.146542e+05 0.000000e+00
1.666667e+05 2.407250e+05 -5.000000e+04
-1.000000e+05 2.407250e+05 0.000000e+00
-8.772965e+04 2.268112e+05 -2.501886e+04
-8.333333e+04 2.110875e+05 -5.000000e+04
-7.264841e+04 1.960982e+05 -2.493089e+04
-8.333333e+04 2.110875e+05 0.000000e+00
-6.556847e+04 1.789563e+05 0.000000e+00
-4.558964e+04 1.648962e+05 -2.494302e+04
-3.328794e+04 1.822590e+05 0.000000e+00
-6.666667e+04 1.814500e+05 -5.000000e+04
-2.151905e+05 2.120171e+05 0.000000e+00
-2.133345e+05 2.126040e+05 -5.000000e+04
1.666667e+04 2.110875e+05 -5.000000e+04
3.333333e+04 1.814500e+05 -5.000000e+04
2.091881e+05 1.572329e+05 -5.000000e+04
-4.585039e+03 3.610551e+04 -5.000000e+04
-1.000000e+05 2.407250e+05 -5.000000e+04
-6.666667e+04 2.407250e+05 -5.000000e+04
-2.258156e+05 -7.010788e+04 -3.241210e+04
-2.008282e+05 -8.107676e+04 -5.000000e+04
-2.166667e+05 2.703625e+05 -5.000000e+04
9.015180e+04 7.828507e+04 -5.000000e+04
1.179959e+05 5.823978e+04 -5.000000e+04
1.217308e+05 9.234492e+04 -5.000000e+04
1.142611e+05 1.189329e+05 0.000000e+00
-1.998848e+05 2.409882e+05 -5.000000e+04
-1.165540e+05 1.530675e+05 -5.000000e+04
-2.703625e+05 1.176061e+05 0.000000e+00
-2.703625e+05 1.064202e+05 -5.000000e+04
2.384199e+05 2.384500e+05 -5.000000e+04
-2.361463e+05 -9.404033e+04 -5.000000e+04
1.000000e+05 2.407250e+05 0.000000e+00
-2.007984e+05 2.405741e+05 0.000000e+00
3.333333e+04 2.407250e+05 0.000000e+00
5.000000e+04 2.110875e+05 -5.000000e+04
4.956690e+04 2.122437e+05 0.000000e+00
-5.000000e+04 1.518124e+05 -5.000000e+04
6.666667e+04 2.407250e+05 0.000000e+00
-1.030567e+05 -4.017919e+04 -5.000000e+04
-9.413893e+04 -1.931090e+04 -3.479319e+04
-1.346356e+05 -5.423904e+04 -5.000000e+04
-9.932188e+04 -6.074051e+03 -5.000000e+04
1.666667e+04 2.110875e+05 0.000000e+00
2.413577e+05 2.033496e+05 0.000000e+00
-3.616399e+04 1.168439e+05 0.000000e+00
1.000000e+05 2.407250e+05 -5.000000e+04
-1.941335e+05 -4.846561e+04 -5.000000e+04
-1.624798e+05 -3.419376e+04 -5.000000e+04
-1.733245e+05 -5.210166e+04 -3.361023e+04
5.483804e+04 3.012007e+04 -5.000000e+04
2.699391e+04 5.016536e+04 -5.000000e+04
-7.147775e+04 -2.611934e+04 -5.000000e+04
2.076756e+05 1.323604e+05 -5.000000e+04
2.397255e+05 1.399930e+05 -5.000000e+04
2.127328e+05 1.004193e+05 -5.000000e+04
-1.572935e+05 -3.797538e+04 -2.644452e+04
-1.662146e+05 -6.829890e+04 -5.000000e+04
8.641699e+04 4.417993e+04 -5.000000e+04
-2.689627e+05 -1.058335e+05 -5.000000e+04
-2.660796e+05 -4.965310e+04 0.000000e+00
2.423412e+05 1.131888e+05 -5.000000e+04
2.706313e+05 1.234327e+05 -5.000000e+04
1.495749e+05 7.229963e+04 -5.000000e+04
-8.319851e+03 2.000368e+03 -5.000000e+04
-3.989880e+04 -1.205949e+04 -5.000000e+04
2.325910e+04 1.606022e+04 -5.000000e+04
-2.842105e+05 -1.857187e+05 -5.000000e+04
-2.842105e+05 -1.699190e+05 -4.166667e+04
-2.684211e+05 -1.786887e+05 -5.000000e+04
-2.842105e+05 -1.681205e+05 -5.000000e+04
-2.842105e+05 -9.092038e+04 0.000000e+00
-2.884316e+05 -8.150490e+04 -1.056151e+04
-2.842105e+05 -7.433912e+04 0.000000e+00
-2.684211e+05 -8.389046e+04 0.000000e+00
-2.826516e+05 -9.384643e+04 -1.073974e+04
-2.849063e+05 -1.055174e+05 -7.535608e+03
-2.698125e+05 -1.130845e+05 -1.507122e+04
-2.849063e+05 -1.213171e+05 -1.586894e+04
-2.818983e+05 -1.044913e+05 -1.964095e+04
-2.691168e+05 -9.848748e+04 -7.535608e+03
2.842105e+05 1.621570e+05 0.000000e+00
2.700215e+05 1.716218e+05 0.000000e+00
2.839157e+05 1.682442e+05 -9.995371e+03
2.684211e+05 1.551270e+05 0.000000e+00
2.858109e+05 1.786517e+05 0.000000e+00
2.842105e+05 1.463573e+05 -8.333333e+03
2.857538e+05 8.385334e+04 -5.000000e+04
2.889432e+05 9.719377e+04 -4.262669e+04
2.715075e+05 9.331806e+04 -5.000000e+04
2.842105e+05 6.735869e+04 -5.000000e+04
2.848927e+05 8.228065e+04 -4.228983e+04
2.684211e+05 6.032876e+04 -5.000000e+04
2.691033e+05 7.525072e+04 -4.228983e+04
2.699643e+05 7.682341e+04 -5.000000e+04
2.697855e+05 9.017268e+04 -3.457966e+04
2.739550e+05 9.296082e+04 -4.184797e+04
2.848927e+05 9.808036e+04 -3.395650e+04
-1.711074e+05 -5.004346e+04 -5.000000e+03
-1.602225e+05 -6.889674e+04 -1.750000e+04
-1.764232e+05 -6.551485e+04 -1.191186e+04
-1.698738e+05 -5.394744e+04 -1.905847e+04
-1.493375e+05 -8.775002e+04 -3.000000e+04
-1.655383e+05 -8.436813e+04 -2.441186e+04
-1.648054e+05 -6.880257e+04 -2.774086e+04
-1.817390e+05 -8.098625e+04 -1.882372e+04
-1.785573e+05 -6.629777e+04 -2.715920e+04
-1.481854e+05 -7.410809e+04 -2.307531e+04
-1.609826e+05 -7.808064e+04 -3.829181e+04
-1.530105e+05 -6.693397e+04 -3.453610e+04
-1.584611e+05 -5.907634e+04 -2.691620e+04
-1.470333e+05 -6.046616e+04 -1.615061e+04
-1.704753e+05 -8.769920e+04 -3.693069e+04
-1.760875e+05 -7.553654e+04 -3.120875e+04
-1.877702e+05 -8.188321e+04 -3.290217e+04
-1.457214e+05 -1.050997e+05 -4.000000e+04
-1.420750e+05 -8.624443e+04 -4.050571e+04
-1.591109e+05 -9.472149e+04 -4.219990e+04
-1.560273e+05 -1.124267e+05 -5.000000e+04
-1.402379e+05 -1.053968e+05 -5.000000e+04
-1.421053e+05 -1.224493e+05 -5.000000e+04
-1.699494e+05 -1.024040e+05 -5.000000e+04
-1.383705e+05 -8.834419e+04 -5.000000e+04
-1.420769e+05 -7.239421e+04 -3.705956e+04
-1.391435e+05 -5.566256e+04 -3.048146e+04
-1.360790e+05 -8.184694e+04 -3.000000e+04
-1.254169e+05 -8.420291e+04 -4.210884e+04
-1.262314e+05 -6.965522e+04 -3.911308e+04
-1.228205e+05 -7.594386e+04 -3.000000e+04
-1.593377e+05 -9.748409e+04 -3.278577e+04
-1.557215e+05 -1.148337e+05 -4.278577e+04
-1.693378e+05 -1.072182e+05 -3.557153e+04
-1.674540e+05 -1.076302e+05 -4.332858e+04
-1.349269e+05 -6.820501e+04 -2.307531e+04
-1.590704e+05 -5.525481e+04 -1.057531e+04
-1.755384e+05 -9.410221e+04 -2.719762e+04
-1.810912e+05 -9.894864e+04 -4.177093e+04
-1.105263e+05 -1.083895e+05 -5.000000e+04
-1.263158e+05 -1.154194e+05 -5.000000e+04
-1.299319e+05 -9.806974e+04 -4.000000e+04
-1.244484e+05 -9.836683e+04 -5.000000e+04
-1.166734e+05 -9.216667e+04 -4.000000e+04
-9.155625e+04 -1.462500e+04 -5.000000e+03
-8.067130e+04 -3.347828e+04 -1.750000e+04
-9.243792e+04 -2.837695e+04 -1.204623e+04
-9.020090e+04 -1.866238e+04 -1.993210e+04
-6.978636e+04 -5.233156e+04 -3.000000e+04
-8.155297e+04 -4.723023e+04 -2.454623e+04
-8.387934e+04 -3.396671e+04 -3.011740e+04
-9.331958e+04 -4.212890e+04 -1.909245e+04
-9.577239e+04 -3.096082e+04 -2.384180e+04
-6.082659e+04 -3.533041e+04 -2.313700e+04
-6.309250e+04 -2.190403e+04 -3.152842e+04
-7.431396e+04 -2.246130e+04 -2.696999e+04
-5.186682e+04 -1.832926e+04 -1.627401e+04
-6.869775e+04 -3.567523e+04 -3.930673e+04
-7.171153e+04 -1.647713e+04 -1.063700e+04
-5.560835e+04 -5.075420e+04 -3.249746e+04
-3.987513e+04 -5.004765e+04 -4.282928e+04
-4.084517e+04 -3.702022e+04 -4.005239e+04
-4.143033e+04 -4.917684e+04 -3.499492e+04
-5.544076e+04 -3.559345e+04 -3.709356e+04
-5.420005e+04 -4.885967e+04 -4.084493e+04
-4.363361e+04 -4.616463e+04 -5.000000e+04
-5.857739e+04 -6.630067e+04 -4.000000e+04
-6.129049e+04 -7.024712e+04 -5.000000e+04
-4.550102e+04 -6.321720e+04 -5.000000e+04
-4.736842e+04 -8.026977e+04 -5.000000e+04
-6.918568e+04 -5.636374e+04 -4.186185e+04
-7.521256e+04 -6.022448e+04 -5.000000e+04
-8.423344e+04 -4.689973e+04 -3.933317e+04
-6.315789e+04 -8.729969e+04 -5.000000e+04
-7.894737e+04 -9.432962e+04 -5.000000e+04
-7.436686e+04 -7.333059e+04 -4.000000e+04
-7.707996e+04 -7.727705e+04 -5.000000e+04
-4.439938e+04 -6.472331e+04 -4.249746e+04
-9.812344e+04 -4.224551e+04 -3.107318e+04
-4.839842e+04 -1.772045e+04 -3.269504e+04
-4.664858e+04 -3.375305e+04 -2.563446e+04
-8.522336e+04 -3.277009e+04 -4.122061e+04
-9.630341e+04 -6.413771e+04 -3.000000e+04
-9.481150e+04 -5.313331e+04 -2.454623e+04
-8.304488e+04 -5.823464e+04 -3.000000e+04
-1.009594e+05 -5.374202e+04 -3.770272e+04
-8.617266e+04 -6.212291e+04 -4.035564e+04
-8.762539e+04 -7.923367e+04 -4.000000e+04
-1.881853e+05 -5.290710e+04 -2.500000e+03
-1.943353e+05 -4.147486e+04 -1.073356e+04
-1.879398e+05 -5.397177e+04 -1.673671e+04
-2.052632e+05 -5.577075e+04 0.000000e+00
-1.788172e+05 -4.246548e+04 -1.324382e+04
-1.642407e+05 -4.437073e+04 -1.236363e+04
-1.528592e+05 -4.833311e+04 -2.011246e+04
-1.736842e+05 -4.171090e+04 0.000000e+00
-1.723958e+05 -4.587718e+04 -2.500000e+03
-1.894737e+05 -4.874082e+04 0.000000e+00
-1.778805e+05 -3.554163e+04 -1.063476e+04
-1.935011e+05 -6.837850e+04 -9.411859e+03
-1.641361e+05 -3.551543e+04 -1.447490e+04
-1.445903e+05 -3.823730e+04 -5.000000e+03
-1.458118e+05 -4.935173e+04 -1.057531e+04
-1.578489e+05 -4.414038e+04 -5.000000e+03
-1.528621e+05 -3.913028e+04 -1.214576e+04
-1.591373e+05 -3.997410e+04 -2.500000e+03
-7.894737e+04 4.686618e+02 0.000000e+00
-6.540709e+04 -8.930299e+03 -8.137004e+03
-8.525181e+04 -7.078170e+03 -2.500000e+03
-8.186748e+04 2.258055e+03 -1.173848e+04
-7.516519e+04 -8.465915e+03 -2.147357e+04
-9.087063e+04 -6.999629e+03 -1.256453e+04
-1.048148e+05 -2.052808e+04 -5.000000e+03
-1.056964e+05 -3.428003e+04 -1.204623e+04
-1.180733e+05 -2.643115e+04 -5.000000e+03
-1.077338e+05 -2.295966e+04 -1.963715e+04
-1.035915e+05 -1.154838e+04 -1.511974e+04
-1.200688e+05 -1.823946e+04 -1.359369e+04
-9.473684e+04 -6.561265e+03 0.000000e+00
-1.010413e+05 -1.410810e+04 -2.500000e+03
-1.105263e+05 -1.359119e+04 0.000000e+00
-1.002764e+05 -5.080933e+02 -1.099274e+04
-1.142998e+05 -2.001117e+04 -2.500000e+03
-1.140853e+05 -9.610234e+03 -1.040356e+04
-2.845382e+05 -1.527009e+05 -3.250829e+04
-2.821399e+05 -1.506750e+05 -4.212275e+04
-2.817855e+05 -1.361128e+05 -3.752155e+04
-2.690764e+05 -1.442526e+05 -3.168325e+04
-2.845382e+05 -1.369012e+05 -2.417496e+04
-2.687487e+05 -1.614707e+05 -4.084162e+04
-2.694445e+05 -1.286686e+05 -2.337723e+04
-2.832608e+05 -1.188548e+05 -3.082239e+04
2.715196e+05 1.622259e+05 -1.342380e+04
2.629009e+05 1.496296e+05 -1.420957e+04
2.754247e+05 1.406546e+05 -2.183585e+04
2.773819e+05 1.534075e+05 -2.171653e+04
2.830373e+05 1.499043e+05 -3.334483e+04
2.828628e+05 1.313640e+05 -3.434368e+04
2.655303e+05 1.231855e+05 -1.616827e+04
2.669757e+05 1.391563e+05 -8.084134e+03
2.827651e+05 1.303865e+05 -1.641747e+04
2.592771e+05 1.321274e+05 -2.473323e+04
2.691268e+05 1.208650e+05 -3.351517e+04
2.827651e+05 1.145868e+05 -2.475080e+04
2.860875e+05 1.112498e+05 -4.054088e+04
2.732185e+05 1.060279e+05 -3.934323e+04
2.912319e+05 1.181748e+05 -4.681796e+04
2.676579e+05 1.066791e+05 -2.537396e+04
-2.730201e+05 -8.086841e+04 -1.270669e+04
-2.672504e+05 -6.677178e+04 0.000000e+00
-2.546364e+05 -1.074081e+05 -1.564110e+04
-2.669809e+05 -9.490790e+04 -1.671137e+04
-2.539407e+05 -9.281111e+04 -8.105497e+03
-2.394603e+05 -1.017318e+05 -1.621099e+04
-2.540323e+05 -8.701375e+04 -1.919786e+04
-2.368421e+05 -6.983060e+04 0.000000e+00
-2.381512e+05 -8.578119e+04 -8.105497e+03
-2.526316e+05 -7.686053e+04 0.000000e+00
-2.508513e+05 -7.067532e+04 -1.290639e+04
-2.514609e+05 -5.974185e+04 0.000000e+00
-2.868707e+05 -7.342872e+04 -1.150987e+04
-2.210526e+05 -6.280068e+04 0.000000e+00
-2.139432e+05 -6.550000e+04 -1.582526e+04
-2.098000e+05 -5.116611e+04 -1.518413e+04
-2.288654e+05 -5.858601e+04 -1.216582e+04
-2.296957e+05 -6.906714e+04 -1.597903e+04
-2.434623e+05 -5.537249e+04 -1.491027e+04
-2.355854e+05 -5.252773e+04 0.000000e+00
-2.347821e+05 -8.503743e+04 -2.430590e+04
-2.238906e+05 -7.843339e+04 -7.578803e+03
-2.109391e+05 -8.703617e+04 -1.515761e+04
-2.251997e+05 -9.438397e+04 -1.568430e+04
-2.174759e+05 -7.815272e+04 -2.089914e+04
-2.081012e+05 -7.140346e+04 -7.578803e+03
-2.197960e+05 -4.549780e+04 0.000000e+00
-1.963391e+05 -8.401121e+04 -1.699066e+04
-2.035392e+05 -7.383218e+04 -2.450607e+04
-1.950984e+05 -6.706726e+04 -2.644278e+04
-1.881393e+05 -3.140519e+04 0.000000e+00
-2.039288e+05 -3.843511e+04 0.000000e+00
-1.664397e+05 -2.988349e+04 -8.703055e+03
-1.718168e+05 -2.465833e+04 0.000000e+00
-1.578947e+05 -3.468097e+04 0.000000e+00
-1.509844e+05 -3.091555e+04 -1.301886e+04
-1.526677e+05 -2.069878e+04 -1.213517e+04
-1.421053e+05 -2.765104e+04 0.000000e+00
-1.433478e+05 -3.294417e+04 -2.500000e+03
-1.560273e+05 -1.762840e+04 0.000000e+00
-1.371051e+05 -2.560761e+04 -1.476663e+04
-1.422803e+05 -1.719360e+04 -1.024358e+04
-1.300893e+05 -2.704110e+04 -2.500000e+03
-1.313739e+05 -1.467990e+04 -1.030141e+04
-1.240955e+05 -2.858708e+04 -1.575986e+04
-1.402379e+05 -1.059847e+04 0.000000e+00
-1.313318e+05 -3.233423e+04 -5.000000e+03
-1.399270e+05 -3.505452e+04 -1.448121e+04
-1.263158e+05 -2.062112e+04 0.000000e+00
-1.244484e+05 -3.568547e+03 0.000000e+00
-9.286944e+04 1.049131e+04 0.000000e+00
-1.086589e+05 3.461379e+03 0.000000e+00
-6.760151e+04 7.942071e+03 -1.134411e+04
-5.954760e+04 -7.190673e+02 -2.092757e+04
-7.707996e+04 1.752123e+04 0.000000e+00
-6.315789e+04 7.498588e+03 0.000000e+00
-5.460928e+04 1.645551e+04 -1.174653e+04
-6.129049e+04 2.455116e+04 0.000000e+00
-4.736842e+04 1.452851e+04 0.000000e+00
-4.961762e+04 -1.900372e+03 -8.137004e+03
-1.578947e+04 2.858837e+04 0.000000e+00
-1.727582e+04 1.255400e+04 -8.108063e+03
-3.157895e+04 2.155844e+04 0.000000e+00
-1.692803e+04 2.893171e+04 -1.379516e+04
-1.876216e+04 -3.480374e+03 -1.621613e+04
-3.306529e+04 5.524071e+03 -8.108063e+03
-2.226094e+04 1.393487e+04 -1.955144e+04
-3.723166e+04 2.454120e+04 -1.400525e+04
-4.550102e+04 3.158109e+04 0.000000e+00
-2.971154e+04 3.861101e+04 0.000000e+00
-3.975298e+04 7.464005e+03 -2.363781e+04
-3.531449e+04 -1.090482e+04 -1.624507e+04
-2.320046e+03 3.574127e+04 -1.226832e+04
-1.392207e+04 4.564094e+04 0.000000e+00
1.578947e+04 4.264822e+04 0.000000e+00
1.435497e+04 2.663576e+04 -8.108679e+03
-1.309672e-10 3.561829e+04 0.000000e+00
9.711026e+03 4.478551e+04 -1.197566e+04
1.292047e+04 1.062331e+04 -1.621736e+04
-1.434499e+03 1.960584e+04 -8.108679e+03
9.579733e+03 2.715372e+04 -2.296526e+04
1.867406e+03 5.267087e+04 0.000000e+00
-2.920843e+03 3.571466e+03 -1.621674e+04
-5.581067e+03 1.661503e+04 -2.296587e+04
3.011014e+04 3.365142e+04 -8.108150e+03
4.443080e+04 2.465461e+04 -1.621630e+04
2.867564e+04 1.763896e+04 -1.621683e+04
2.523514e+04 3.621133e+04 -2.046218e+04
1.765688e+04 5.970079e+04 0.000000e+00
2.832149e+04 5.217031e+04 -1.302284e+04
4.250367e+04 4.152000e+04 -2.021073e+04
3.157895e+04 4.967815e+04 0.000000e+00
4.796395e+04 5.810822e+04 -1.323496e+04
3.344635e+04 6.673072e+04 0.000000e+00
4.736842e+04 5.670807e+04 0.000000e+00
4.589961e+04 4.068134e+04 -8.108150e+03
6.315789e+04 6.373800e+04 0.000000e+00
4.923583e+04 7.376065e+04 0.000000e+00
6.113267e+04 6.715944e+04 -1.087757e+04
7.550936e+04 7.112657e+04 -1.147576e+04
6.502530e+04 8.079057e+04 0.000000e+00
7.894737e+04 7.076793e+04 0.000000e+00
6.172217e+04 4.772695e+04 -8.107649e+03
5.779919e+04 4.568801e+04 -2.258324e+04
6.963268e+04 5.596292e+04 -2.035699e+04
7.607591e+04 3.874582e+04 -1.621530e+04
7.751164e+04 5.475688e+04 -8.107649e+03
5.379504e+04 7.258874e+04 -1.480018e+04
6.025336e+04 3.170022e+04 -1.621580e+04
8.081477e+04 8.782050e+04 0.000000e+00
8.985234e+04 8.051505e+04 -1.376264e+04
9.330558e+04 6.178889e+04 -8.107598e+03
8.770991e+04 6.312261e+04 -2.344066e+04
1.042344e+05 6.947068e+04 -1.983974e+04
1.076638e+05 5.280985e+04 -1.621520e+04
9.473684e+04 7.779785e+04 0.000000e+00
1.094983e+05 8.464047e+04 -1.331761e+04
9.660425e+04 9.485042e+04 0.000000e+00
1.105263e+05 8.482778e+04 0.000000e+00
1.090951e+05 6.881882e+04 -8.107598e+03
9.186986e+04 4.577784e+04 -1.621525e+04
1.237501e+05 9.138954e+04 -1.178600e+04
1.123937e+05 1.018804e+05 0.000000e+00
1.263158e+05 9.185771e+04 0.000000e+00
1.248849e+05 7.584897e+04 -8.107574e+03
1.421053e+05 9.888763e+04 0.000000e+00
1.406744e+05 8.287890e+04 -8.107574e+03
1.370433e+05 1.034252e+05 -1.377140e+04
1.392436e+05 6.687016e+04 -1.621515e+04
1.321695e+05 8.288874e+04 -2.138719e+04
1.203213e+05 7.255349e+04 -2.293244e+04
1.281832e+05 1.089103e+05 0.000000e+00
1.234537e+05 5.984001e+04 -1.621517e+04
1.439727e+05 1.159402e+05 0.000000e+00
1.578947e+05 1.059176e+05 0.000000e+00
1.564627e+05 8.990872e+04 -8.107353e+03
1.523148e+05 1.118782e+05 -1.117358e+04
1.736842e+05 1.129475e+05 0.000000e+00
1.722522e+05 9.693864e+04 -8.107353e+03
1.683014e+05 1.184962e+05 -1.295401e+04
1.708202e+05 8.092980e+04 -1.621471e+04
1.608591e+05 1.018159e+05 -1.929095e+04
1.550319e+05 7.389998e+04 -1.621493e+04
1.501407e+05 8.767408e+04 -2.210285e+04
1.597621e+05 1.229701e+05 0.000000e+00
1.894737e+05 1.199774e+05 0.000000e+00
1.755516e+05 1.300001e+05 0.000000e+00
1.832685e+05 1.203601e+05 -1.183880e+04
2.021800e+05 1.261647e+05 -1.402913e+04
1.913411e+05 1.370300e+05 0.000000e+00
2.052632e+05 1.270073e+05 0.000000e+00
1.865943e+05 8.795783e+04 -1.621211e+04
1.773817e+05 1.066603e+05 -1.969169e+04
1.880263e+05 1.039667e+05 -8.104759e+03
2.023685e+05 9.498586e+04 -1.620952e+04
1.949553e+05 1.090372e+05 -2.058601e+04
2.038158e+05 1.109966e+05 -8.104759e+03
2.195599e+05 1.179641e+05 -8.127028e+03
2.144461e+05 1.385198e+05 -1.111674e+04
2.132220e+05 1.152883e+05 -2.346287e+04
2.239639e+05 1.278014e+05 -1.949266e+04
2.338566e+05 1.089208e+05 -1.625406e+04
1.994347e+05 1.444095e+05 -1.356249e+04
2.210526e+05 1.340373e+05 0.000000e+00
2.368421e+05 1.410672e+05 0.000000e+00
2.353494e+05 1.249940e+05 -8.127028e+03
2.321606e+05 1.419619e+05 -1.339267e+04
2.071306e+05 1.440599e+05 0.000000e+00
2.229200e+05 1.510898e+05 0.000000e+00
2.181126e+05 1.019534e+05 -1.623179e+04
2.496935e+05 1.160532e+05 -1.621116e+04
2.420326e+05 1.294133e+05 -2.058915e+04
2.511862e+05 1.321264e+05 -8.084134e+03
2.473235e+05 1.461576e+05 -1.241266e+04
2.386890e+05 1.576652e+05 0.000000e+00
2.526316e+05 1.480971e+05 0.000000e+00
2.544785e+05 1.646951e+05 0.000000e+00
2.387461e+05 1.531116e+05 -1.503315e+04
2.754968e+05 1.753880e+05 -1.426230e+04
2.589745e+05 8.437983e+04 -4.273427e+04
2.544990e+05 7.035141e+04 -5.000000e+04
2.405769e+05 8.037405e+04 -5.000000e+04
2.546526e+05 8.404185e+04 -3.425964e+04
2.539704e+05 6.911989e+04 -4.196981e+04
2.395198e+05 7.791102e+04 -3.393962e+04
2.428759e+05 8.121313e+04 -4.114295e+04
2.526316e+05 5.329884e+04 -5.000000e+04
2.368421e+05 4.626891e+04 -5.000000e+04
2.381809e+05 6.208997e+04 -4.196981e+04
2.387095e+05 6.332148e+04 -5.000000e+04
2.239034e+05 7.096170e+04 -3.393776e+04
2.272671e+05 7.082566e+04 -4.238193e+04
2.225646e+05 5.514064e+04 -4.196795e+04
2.229200e+05 5.629156e+04 -5.000000e+04
2.082870e+05 6.401237e+04 -3.393590e+04
2.090774e+05 6.717199e+04 -4.126509e+04
2.089980e+05 6.631420e+04 -5.000000e+04
2.210526e+05 3.923898e+04 -5.000000e+04
2.052632e+05 3.220906e+04 -5.000000e+04
2.067751e+05 4.811071e+04 -4.196795e+04
2.071306e+05 4.926163e+04 -5.000000e+04
1.925205e+05 5.699313e+04 -3.393564e+04
1.958033e+05 5.656419e+04 -4.255704e+04
1.910085e+05 4.109147e+04 -4.196769e+04
1.913411e+05 4.223170e+04 -5.000000e+04
1.767539e+05 4.997389e+04 -3.393539e+04
1.776072e+05 5.302977e+04 -4.123135e+04
1.774190e+05 5.225435e+04 -5.000000e+04
1.894737e+05 2.517913e+04 -5.000000e+04
1.736842e+05 1.814920e+04 -5.000000e+04
1.752191e+05 3.406155e+04 -4.196769e+04
1.755516e+05 3.520178e+04 -5.000000e+04
1.578947e+05 1.111928e+04 -5.000000e+04
1.594321e+05 2.703279e+04 -4.196766e+04
1.597621e+05 2.817185e+04 -5.000000e+04
1.421053e+05 4.089352e+03 -5.000000e+04
1.436426e+05 2.000287e+04 -4.196766e+04
1.439727e+05 2.114192e+04 -5.000000e+04
1.451800e+05 3.591638e+04 -3.393531e+04
1.485716e+05 3.898415e+04 -4.115424e+04
1.458401e+05 3.819449e+04 -5.000000e+04
1.609669e+05 4.294514e+04 -3.393535e+04
1.646993e+05 4.244173e+04 -4.270367e+04
1.293903e+05 2.888653e+04 -3.393523e+04
1.336537e+05 2.807691e+04 -4.266433e+04
1.278529e+05 1.297301e+04 -4.196757e+04
1.281832e+05 1.411200e+04 -5.000000e+04
1.136006e+05 2.185667e+04 -3.393514e+04
1.173578e+05 2.405249e+04 -4.167730e+04
1.142611e+05 2.413464e+04 -5.000000e+04
1.263158e+05 -2.940575e+03 -5.000000e+04
1.105263e+05 -9.970501e+03 -5.000000e+04
1.120634e+05 5.943085e+03 -4.196757e+04
1.123937e+05 7.082069e+03 -5.000000e+04
9.780823e+04 1.482691e+04 -3.393438e+04
1.016544e+05 1.500269e+04 -4.252257e+04
9.627111e+04 -1.086677e+03 -4.196681e+04
9.660425e+04 5.214249e+01 -5.000000e+04
8.201590e+04 7.797147e+03 -3.393362e+04
8.537849e+04 1.119879e+04 -4.104597e+04
8.268218e+04 1.007479e+04 -5.000000e+04
9.473684e+04 -1.700043e+04 -5.000000e+04
7.894737e+04 -2.403035e+04 -5.000000e+04
8.048163e+04 -8.116604e+03 -4.196681e+04
8.081477e+04 -6.977784e+03 -5.000000e+04
6.622913e+04 7.658136e+02 -3.393500e+04
6.997524e+04 6.075199e+02 -4.247827e+04
6.469486e+04 -1.514794e+04 -4.196819e+04
6.502530e+04 -1.400771e+04 -5.000000e+04
5.044236e+04 -6.265520e+03 -3.393637e+04
5.371143e+04 -2.893965e+03 -4.101841e+04
5.110323e+04 -3.985067e+03 -5.000000e+04
6.315789e+04 -3.106028e+04 -5.000000e+04
4.736842e+04 -3.809021e+04 -5.000000e+04
4.890539e+04 -2.217786e+04 -4.196819e+04
4.923583e+04 -2.103764e+04 -5.000000e+04
3.464987e+04 -1.329455e+04 -3.393519e+04
3.838487e+04 -1.345755e+04 -4.249609e+04
3.311290e+04 -2.920689e+04 -4.196701e+04
3.344635e+04 -2.806756e+04 -5.000000e+04
1.885739e+04 -2.032358e+04 -3.393401e+04
2.217512e+04 -1.711978e+04 -4.112877e+04
1.952429e+04 -1.804492e+04 -5.000000e+04
1.732343e+04 -3.623682e+04 -4.196701e+04
3.157895e+04 -4.512013e+04 -5.000000e+04
1.578947e+04 -5.215006e+04 -5.000000e+04
1.765688e+04 -3.509749e+04 -5.000000e+04
6.753005e+03 -2.765728e+04 -4.246223e+04
1.867406e+03 -4.212742e+04 -5.000000e+04
-1.205466e+04 -3.210477e+04 -5.000000e+04
3.085763e+03 -2.731145e+04 -3.391602e+04
1.551807e+03 -4.322469e+04 -4.194902e+04
-1.268586e+04 -3.429933e+04 -3.389804e+04
-1.055171e+04 -3.096457e+04 -4.152865e+04
-1.578947e+04 -6.620991e+04 -5.000000e+04
-1.423767e+04 -5.025462e+04 -4.194902e+04
5.093170e-11 -5.917999e+04 -5.000000e+04
-1.392207e+04 -4.915734e+04 -5.000000e+04
-2.860990e+04 -5.769338e+04 -4.249746e+04
-2.971154e+04 -5.618727e+04 -5.000000e+04
-2.705810e+04 -4.173808e+04 -3.444648e+04
-2.677435e+04 -4.076213e+04 -4.333028e+04
-3.157895e+04 -7.323984e+04 -5.000000e+04
-9.286944e+04 -8.430698e+04 -5.000000e+04
-1.016755e+05 -6.955090e+04 -4.201781e+04
-1.067915e+05 -7.428433e+04 -5.000000e+04
-9.473684e+04 -1.013595e+05 -5.000000e+04
-1.034149e+05 -8.626359e+04 -4.000000e+04
-1.086589e+05 -9.133690e+04 -5.000000e+04
-1.095619e+05 -7.004079e+04 -3.000000e+04
-1.138993e+05 -7.865625e+04 -4.021776e+04
-1.578947e+05 -1.294793e+05 -5.000000e+04
-1.736842e+05 -1.365092e+05 -5.000000e+04
-1.715110e+05 -1.218637e+05 -4.278577e+04
-1.718168e+05 -1.194566e+05 -5.000000e+04
-1.817428e+05 -1.135061e+05 -4.300364e+04
-1.881112e+05 -1.261865e+05 -5.000000e+04
-2.025382e+05 -1.158637e+05 -5.000000e+04
-1.853170e+05 -1.122887e+05 -3.449352e+04
-1.874902e+05 -1.269342e+05 -4.170776e+04
-2.012962e+05 -1.173592e+05 -3.341552e+04
-2.019315e+05 -1.154754e+05 -4.134480e+04
-1.894737e+05 -1.435391e+05 -5.000000e+04
-2.052632e+05 -1.505690e+05 -5.000000e+04
-2.032797e+05 -1.339641e+05 -4.170776e+04
-2.039007e+05 -1.332164e+05 -5.000000e+04
-2.177387e+05 -1.250499e+05 -3.361070e+04
-2.197221e+05 -1.416548e+05 -4.190294e+04
-2.341811e+05 -1.327406e+05 -3.380588e+04
-2.152028e+05 -1.269596e+05 -4.148498e+04
-2.287221e+05 -1.308857e+05 -4.328408e+04
-2.200945e+05 -1.401080e+05 -5.000000e+04
-2.349258e+05 -1.296470e+05 -5.000000e+04
-2.355116e+05 -1.486848e+05 -4.190294e+04
-2.210526e+05 -1.575990e+05 -5.000000e+04
-2.368421e+05 -1.646289e+05 -5.000000e+04
-2.358840e+05 -1.471379e+05 -5.000000e+04
-2.463172e+05 -1.387198e+05 -4.222568e+04
-2.528794e+05 -1.529157e+05 -5.000000e+04
-2.689166e+05 -1.412024e+05 -5.000000e+04
-2.526316e+05 -1.716588e+05 -5.000000e+04
-2.686688e+05 -1.599456e+05 -5.000000e+04
-2.529593e+05 -1.544407e+05 -4.084162e+04
-2.644939e+05 -1.408226e+05 -4.036859e+04
-2.516288e+05 -1.384966e+05 -3.274456e+04
-1.082059e+05 -5.592248e+04 -2.287193e+04
-1.126900e+05 -6.245956e+04 -3.645831e+04
-1.214644e+05 -6.182556e+04 -2.287193e+04
-1.201084e+05 -4.770725e+04 -1.574386e+04
-1.233301e+05 -5.290961e+04 -3.178889e+04
-1.335709e+05 -5.408671e+04 -1.594724e+04
-1.132333e+05 -4.358726e+04 -2.959114e+04
-1.067140e+05 -4.491807e+04 -1.741816e+04
-1.190909e+05 -3.706920e+04 -1.037193e+04
-1.323494e+05 -4.297228e+04 -1.037193e+04
-1.261160e+05 -4.103914e+04 -2.183004e+04
-1.101191e+05 -3.433726e+04 -2.518044e+04
-1.395892e+05 -4.626182e+04 -2.035022e+04
-2.667193e+05 -9.574885e+04 -2.808744e+04
-2.672577e+05 -1.095948e+05 -3.234213e+04
-2.492975e+05 -1.087897e+05 -2.992743e+04
-2.512326e+05 -9.314128e+04 -3.075835e+04
-2.519968e+05 -1.229126e+05 -2.443855e+04
-2.368207e+05 -1.172362e+05 -2.500844e+04
-2.479453e+05 -1.212091e+05 -3.966358e+04
-2.680620e+05 -1.252078e+05 -3.814726e+04
4.743658e+04 9.194546e+03 -2.507634e+04
5.018599e+04 3.017692e+04 -3.176418e+04
3.242071e+04 2.242142e+04 -3.356342e+04
3.630287e+04 1.575604e+03 -4.011140e+04
5.020969e+04 1.206889e+04 -3.980435e+04
3.409341e+04 4.033640e+04 -3.146438e+04
6.825704e+04 3.297334e+04 -3.264294e+04
6.322335e+04 1.622588e+04 -2.507496e+04
7.904591e+04 2.327149e+04 -2.507446e+04
6.801318e+04 1.549580e+04 -4.007417e+04
3.168142e+04 2.178893e+03 -2.507687e+04
2.018044e+04 1.104184e+04 -3.127119e+04
6.595980e+04 5.019285e+04 -3.572019e+04
8.268185e+04 4.314096e+04 -3.066724e+04
8.199406e+04 2.611690e+04 -3.970275e+04
9.483824e+04 3.030125e+04 -2.507522e+04
1.004738e+05 3.207698e+04 -3.997782e+04
1.106322e+05 3.733326e+04 -2.507517e+04
9.755902e+04 4.686117e+04 -2.981407e+04
9.839285e+04 6.269979e+04 -3.257666e+04
1.264219e+05 4.436312e+04 -2.507526e+04
1.125663e+05 5.508216e+04 -3.330739e+04
1.318462e+05 4.229534e+04 -4.105140e+04
1.178491e+05 3.784430e+04 -3.901981e+04
1.422118e+05 5.139327e+04 -2.507523e+04
1.311642e+05 6.018121e+04 -3.287712e+04
1.459239e+05 7.050624e+04 -3.085266e+04
1.629927e+05 7.508974e+04 -3.308103e+04
1.293758e+05 7.686616e+04 -3.593604e+04
1.579987e+05 5.842203e+04 -2.507527e+04
1.610645e+05 5.614932e+04 -3.969423e+04
1.445251e+05 5.305192e+04 -3.964171e+04
1.737870e+05 6.545184e+04 -2.507505e+04
1.585426e+05 9.309817e+04 -3.319542e+04
1.758678e+05 1.034666e+05 -3.140732e+04
1.767788e+05 8.655262e+04 -3.337850e+04
1.811538e+05 8.635949e+04 -5.000000e+04
1.951024e+05 8.771285e+04 -3.378801e+04
1.914675e+05 1.011589e+05 -3.246465e+04
1.770393e+05 6.755191e+04 -3.900672e+04
1.895536e+05 7.247108e+04 -2.507530e+04
2.053278e+05 7.949911e+04 -2.507271e+04
1.924785e+05 7.012506e+04 -3.988072e+04
1.631746e+05 8.690051e+04 -4.353416e+04
2.209441e+05 8.644844e+04 -2.507457e+04
2.066939e+05 9.939656e+04 -3.142044e+04
2.256400e+05 8.556803e+04 -4.039523e+04
2.090241e+05 8.165735e+04 -3.897341e+04
2.366882e+05 9.341594e+04 -2.509684e+04
2.253715e+05 1.034542e+05 -3.254385e+04
1.949937e+05 9.943429e+04 -4.430523e+04
2.209667e+05 1.209343e+05 -3.550998e+04
2.393238e+05 1.161137e+05 -3.092655e+04
2.390248e+05 9.599071e+04 -3.965107e+04
2.518210e+05 9.954676e+04 -2.541686e+04
2.547445e+05 1.170095e+05 -3.003107e+04
2.571342e+05 1.009295e+05 -3.999020e+04
-2.756738e+05 -1.293102e+05 -4.457094e+04
2.936610e+03 2.012439e+04 -3.641048e+04
1.588893e+04 -4.850136e+03 -2.507569e+04
1.870868e+04 -2.860696e+03 -3.962978e+04
5.107720e+03 4.017739e+03 -3.283592e+04
-1.250961e+04 1.337703e+03 -3.141516e+04
4.761247e+01 -1.190198e+04 -2.507507e+04
4.943049e+03 -1.317747e+04 -4.050506e+04
-2.715849e+04 9.505256e+03 -3.042695e+04
-2.861989e+04 -7.939524e+03 -3.367716e+04
-1.572401e+04 -1.888985e+04 -2.505708e+04
-3.227634e+04 -2.631429e+04 -2.508602e+04
-2.749872e+04 -2.646973e+04 -3.922460e+04
-1.145755e+04 -1.639455e+04 -3.934789e+04
-6.676905e+04 -7.534889e+03 -3.554412e+04
2.337288e+05 9.289395e+04 -4.556714e+04
1.929857e+05 6.764353e+04 -4.665440e+04
1.614118e+05 5.364800e+04 -4.662133e+04
1.395973e+05 5.098822e+04 -4.600231e+04
7.639425e+04 2.275268e+04 -4.555713e+04
4.473662e+04 8.707271e+03 -4.562904e+04
1.319174e+04 -5.443844e+03 -4.576214e+04
-2.054620e+05 -8.495826e+04 -3.030614e+04
-2.061177e+05 -1.021977e+05 -2.428656e+04
-2.208116e+05 -8.998446e+04 -3.183120e+04
-2.203782e+05 -1.095455e+05 -2.481326e+04
-2.166265e+05 -1.072401e+05 -3.851061e+04
-2.363250e+05 -1.005593e+05 -3.455091e+04
-2.001918e+05 -9.842098e+04 -3.941215e+04
-1.915176e+05 -9.917274e+04 -2.611962e+04
-2.269733e+05 -1.167384e+05 -4.059042e+04
-1.547033e+05 -5.311055e+04 -3.594182e+04
-1.226862e+05 -4.293465e+04 -3.713261e+04
2.782032e+05 -8.664966e+04 -2.519435e+04
2.764903e+05 -6.306127e+04 -2.586362e+04
2.683706e+05 -8.216322e+04 0.000000e+00
2.516038e+05 -8.729604e+04 -2.491590e+04
-8.908158e+04 -1.431928e+05 0.000000e+00
-5.673485e+04 -1.327840e+05 0.000000e+00
-7.033104e+04 -1.500584e+05 -2.470009e+04
-6.002897e+04 -1.068315e+05 -2.095864e+04
2.680523e+05 -7.877036e+04 -5.000000e+04
2.798230e+05 -1.082988e+05 -2.354783e+04
2.680523e+05 -1.128057e+05 -5.000000e+04
2.778156e+05 -1.325377e+05 -2.517616e+04
2.683706e+05 -1.156766e+05 0.000000e+00
-1.798842e+05 -2.072977e+05 -5.000000e+04
-1.886820e+05 -2.189265e+05 -2.460770e+04
-1.643395e+05 -1.830717e+05 -2.536812e+04
-1.949091e+05 -1.752897e+05 -2.879482e+04
-2.001020e+05 -1.599234e+05 0.000000e+00
-2.246714e+05 -1.844977e+05 -2.687137e+04
-2.193475e+05 -1.570800e+05 -1.767537e+04
-1.840240e+05 -1.532377e+05 -1.931759e+04
-1.698616e+05 -1.693762e+05 0.000000e+00
-1.982572e+05 -1.997024e+05 0.000000e+00
-2.417854e+04 -8.005048e+04 0.000000e+00
7.400407e+03 -6.599062e+04 0.000000e+00
3.781307e+03 -1.034650e+05 0.000000e+00
1.703010e+03 -7.784664e+04 -2.263875e+04
1.017100e+04 -1.245181e+05 -5.000000e+04
-6.306044e+03 -1.504505e+05 -2.512523e+04
6.821828e+03 -1.634485e+05 -5.000000e+04
2.359456e+04 -1.541751e+05 -2.516805e+04
1.743738e+04 -1.367855e+05 0.000000e+00
4.600029e+04 -1.239853e+05 -2.535613e+04
8.489260e+03 -1.290368e+05 -2.152027e+04
-1.655136e+04 -1.393247e+05 0.000000e+00
-1.253447e+04 -1.191734e+05 -2.696496e+04
1.918179e+04 -1.050536e+05 -2.648427e+04
-2.140795e+04 -1.385779e+05 -5.000000e+04
-6.670018e+04 -1.713993e+05 0.000000e+00
-3.738092e+04 -1.443344e+05 -2.428515e+04
-2.507811e+04 -1.739847e+05 -5.000000e+04
-3.415489e+04 -1.703024e+05 0.000000e+00
-7.072157e+03 -1.841043e+05 -2.516484e+04
2.361510e+05 -6.540655e+04 0.000000e+00
2.190844e+05 -3.657961e+04 -2.466921e+04
2.499952e+05 -5.319983e+04 -2.514585e+04
2.169627e+05 -6.530175e+04 -2.488918e+04
2.039231e+05 -8.216322e+04 0.000000e+00
2.189779e+05 -9.343049e+04 -2.504111e+04
1.865992e+05 -8.534444e+04 -2.500845e+04
2.021175e+05 -7.678993e+04 -5.000000e+04
2.009787e+05 -4.046259e+04 -5.000000e+04
1.898971e+05 -5.531043e+04 -2.324426e+04
1.708398e+05 -1.795586e+04 -5.000000e+04
2.024209e+05 -3.900806e+03 -5.000000e+04
1.816594e+05 9.540277e+03 -1.851482e+04
1.873316e+05 -2.629093e+04 -2.573492e+04
1.686142e+05 -5.451437e+04 -5.000000e+04
1.671706e+05 4.151734e+03 0.000000e+00
1.695670e+05 -3.130073e+04 0.000000e+00
1.542858e+05 -5.553544e+03 -2.221473e+04
2.039231e+05 -4.864987e+04 0.000000e+00
1.552992e+05 -5.193717e+04 -2.524291e+04
-2.518143e+05 -2.692901e+05 0.000000e+00
-2.166667e+05 -2.684836e+05 0.000000e+00
-2.373739e+05 -2.752332e+05 -2.489583e+04
-2.168265e+05 -2.670634e+05 -5.000000e+04
-2.021362e+05 -2.668691e+05 -2.517230e+04
-2.258288e+05 -2.469584e+05 -2.493520e+04
-2.519854e+05 -2.692705e+05 -5.000000e+04
-2.575964e+05 -2.516454e+05 -2.521415e+04
-2.740508e+05 -2.752248e+05 -3.441663e+04
-2.345763e+05 -1.683034e+05 0.000000e+00
-2.508246e+05 -1.876024e+05 -2.062986e+04
-2.207561e+05 -2.123931e+05 -2.538501e+04
-2.081075e+05 -1.866741e+05 -5.000000e+04
-2.393846e+05 -2.008286e+05 -5.000000e+04
3.892148e+04 -1.460198e+05 -5.000000e+04
3.852126e+04 -1.767266e+05 -5.000000e+04
5.545624e+04 -1.554532e+05 -2.524442e+04
-9.313226e-10 -1.716781e+05 0.000000e+00
4.929741e+04 -1.377476e+05 0.000000e+00
3.333333e+04 -1.716781e+05 0.000000e+00
2.797431e+04 -1.876427e+05 -2.504330e+04
2.776191e+05 -2.374508e+05 -2.651173e+04
2.683706e+05 -2.162166e+05 0.000000e+00
2.502961e+05 -2.237299e+05 -2.525785e+04
2.769210e+05 -2.033894e+05 -2.431818e+04
2.695501e+05 -2.484215e+05 0.000000e+00
2.719389e+05 -2.706450e+05 -3.394900e+04
2.692785e+05 -2.476265e+05 -5.000000e+04
2.530812e+05 -2.519151e+05 -2.500503e+04
2.715706e+05 -2.708050e+05 -1.523195e+04
2.366561e+05 -2.758905e+05 -2.437911e+04
2.517402e+05 -2.693272e+05 0.000000e+00
2.166667e+05 -2.684836e+05 -5.000000e+04
2.224364e+05 -2.483761e+05 -2.493402e+04
2.013727e+05 -2.769837e+05 -2.430507e+04
2.518754e+05 -2.693153e+05 -5.000000e+04
-9.251668e+04 -1.282862e+05 -2.480701e+04
-1.666667e+04 -2.684836e+05 -5.000000e+04
-3.229093e+04 -2.476896e+05 -2.508362e+04
-5.000000e+04 -2.684836e+05 -5.000000e+04
-2.801135e+04 -2.769340e+05 -2.316635e+04
-1.666667e+04 -2.684836e+05 0.000000e+00
5.090430e+03 -2.485622e+05 -2.486426e+04
6.043117e+03 -2.779466e+05 -2.330236e+04
-5.000000e+04 -2.684836e+05 0.000000e+00
-5.742607e+04 -2.570511e+05 -2.660933e+04
-1.477237e+05 -1.000191e+05 0.000000e+00
-1.265169e+05 -1.410287e+05 -2.149857e+04
-1.504554e+05 -1.373289e+05 0.000000e+00
-1.585518e+05 -1.425258e+05 -2.219402e+04
2.499453e+05 -1.213405e+05 -2.495266e+04
2.683706e+05 -1.513652e+04 0.000000e+00
2.765531e+05 3.193214e+03 -2.469874e+04
2.680469e+05 -1.069970e+04 -5.000000e+04
2.500051e+05 -1.942331e+04 -2.470809e+04
2.763625e+05 -3.111869e+04 -2.566522e+04
2.513328e+05 1.620286e+04 -2.255929e+04
-2.776497e+05 -2.245432e+05 -2.244461e+04
-2.796807e+05 -1.882247e+05 -1.911885e+04
-2.682710e+05 -2.158126e+05 0.000000e+00
1.680625e+05 -2.764949e+05 -2.435380e+04
1.500000e+05 -2.684836e+05 0.000000e+00
1.354054e+05 -2.677725e+05 -2.458787e+04
1.609064e+05 -2.501195e+05 -2.482427e+04
1.833333e+05 -2.684836e+05 -5.000000e+04
1.500000e+05 -2.684836e+05 -5.000000e+04
2.683706e+05 1.837683e+04 0.000000e+00
2.683718e+05 5.189018e+04 0.000000e+00
2.807189e+05 3.791766e+04 -2.861871e+04
2.664044e+05 2.419918e+04 -5.000000e+04
2.634975e+05 5.337189e+04 -1.673405e+04
2.166667e+05 -2.684836e+05 0.000000e+00
1.906160e+05 -2.528216e+05 -2.478194e+04
-6.666667e+04 -2.362260e+05 0.000000e+00
3.897935e+04 -5.193077e+04 0.000000e+00
3.089445e+04 -4.727978e+04 -1.794781e+04
6.044066e+04 -4.969650e+04 -2.236964e+04
2.782450e+04 -7.530720e+04 -2.816471e+04
4.174994e+04 -1.565995e+04 0.000000e+00
7.055830e+04 -3.787092e+04 0.000000e+00
-3.333333e+04 -2.362260e+05 0.000000e+00
-5.000000e+04 -2.039587e+05 0.000000e+00
-5.763290e+04 -2.198909e+05 -2.508065e+04
-1.068470e+05 -2.783259e+05 -2.315215e+04
-1.440954e+05 -2.787953e+05 -2.244724e+04
-1.166667e+05 -2.684836e+05 0.000000e+00
-1.390666e+05 -2.512508e+05 -2.495421e+04
-1.166667e+05 -2.684836e+05 -5.000000e+04
1.332961e+05 -4.614655e+04 0.000000e+00
1.006008e+05 -6.081302e+04 0.000000e+00
1.203555e+05 -1.884526e+04 -2.034111e+04
1.192753e+05 -5.747391e+04 -2.615150e+04
-1.500000e+05 -2.684836e+05 0.000000e+00
-1.722556e+05 -2.534518e+05 -2.525742e+04
-7.416395e+04 -2.759376e+05 -2.196233e+04
-8.333333e+04 -2.684836e+05 0.000000e+00
-1.066613e+05 -2.503004e+05 -2.485761e+04
-8.333333e+04 -2.684836e+05 -5.000000e+04
-8.112087e+04 -2.450282e+05 -2.533178e+04
2.680477e+05 -2.149117e+05 -5.000000e+04
2.511766e+05 -1.898759e+05 -2.495179e+04
2.680523e+05 -1.808763e+05 -5.000000e+04
2.680523e+05 -1.468410e+05 -5.000000e+04
2.550799e+05 -1.575927e+05 -2.511947e+04
2.683706e+05 -1.491899e+05 0.000000e+00
2.683706e+05 -4.864987e+04 0.000000e+00
2.680498e+05 -4.473503e+04 -5.000000e+04
2.035165e+05 -1.518932e+05 0.000000e+00
1.882750e+05 -1.222410e+05 -2.518393e+04
2.198345e+05 -1.215178e+05 -2.502667e+04
2.227369e+05 -1.478551e+05 -2.519098e+04
2.359410e+05 -1.298234e+05 -5.000000e+04
2.026370e+05 -1.469433e+05 -5.000000e+04
2.345953e+05 -1.674597e+05 0.000000e+00
2.191598e+05 -1.773109e+05 -2.502530e+04
2.361510e+05 -1.324332e+05 0.000000e+00
-2.697733e+05 -2.144548e+05 -5.000000e+04
1.686591e+05 -1.280451e+05 -5.000000e+04
1.543439e+05 -1.001019e+05 -2.403532e+04
1.554495e+05 -1.386464e+05 -2.558262e+04
-2.682695e+05 -1.821377e+05 0.000000e+00
-2.494334e+05 -2.235457e+05 -2.438924e+04
-5.282335e+04 -1.547010e+05 -5.000000e+04
-5.095017e+04 -2.002954e+05 -5.000000e+04
-4.124562e+04 -1.846374e+05 -2.492051e+04
-7.386435e+04 -1.862295e+05 -2.496120e+04
-8.333333e+04 -2.039587e+05 0.000000e+00
-1.046873e+05 -1.909944e+05 -2.465985e+04
-1.012411e+05 -1.706303e+05 0.000000e+00
-8.309057e+04 -1.683601e+05 -5.000000e+04
-1.030215e+05 -1.576277e+05 -2.562854e+04
1.385524e+05 -1.144767e+05 0.000000e+00
1.229056e+05 -1.247919e+05 -2.346572e+04
9.920121e+04 -9.899617e+04 0.000000e+00
1.177751e+05 -9.267086e+04 -2.469336e+04
8.743969e+04 -7.623558e+04 -2.488660e+04
1.366838e+05 -8.133611e+04 0.000000e+00
1.022323e+05 -1.210628e+05 -5.000000e+04
8.574671e+04 -1.153651e+05 -2.519564e+04
1.049078e+05 -8.233852e+04 -5.000000e+04
-1.333333e+05 -2.362260e+05 0.000000e+00
1.666667e+04 -2.684836e+05 -5.000000e+04
3.756080e+04 -2.525383e+05 -2.483966e+04
4.012479e+04 -2.785801e+05 -2.352030e+04
1.666667e+04 -2.684836e+05 0.000000e+00
5.000000e+04 -2.684836e+05 0.000000e+00
7.328244e+04 -2.494704e+05 -2.517256e+04
7.961911e+04 -2.779566e+05 -2.794947e+04
-1.500000e+05 -2.684836e+05 -5.000000e+04
-1.845072e+05 -2.662907e+05 -5.000000e+04
1.166667e+05 -2.684836e+05 0.000000e+00
1.079420e+05 -2.528631e+05 -2.524760e+04
8.333333e+04 -2.684836e+05 0.000000e+00
1.166667e+05 -2.684836e+05 -5.000000e+04
8.333333e+04 -2.684836e+05 -5.000000e+04
5.000000e+04 -2.684836e+05 -5.000000e+04
2.196650e+05 -3.586969e+03 -2.130054e+04
2.341320e+05 9.864746e+03 -5.000000e+04
2.080037e+05 2.374036e+04 -2.014378e+04
2.358292e+05 3.525121e+04 0.000000e+00
2.024488e+05 1.878369e+04 0.000000e+00
-2.809351e+04 -1.140718e+05 0.000000e+00
-2.811235e+04 -9.642592e+04 -2.213692e+04
2.361510e+05 -3.189320e+04 0.000000e+00
2.348621e+05 -2.662133e+04 -5.000000e+04
2.361479e+05 1.620150e+03 0.000000e+00
2.042769e+05 -1.804034e+05 -5.000000e+04
1.869356e+05 -1.589637e+05 -2.529581e+04
1.683078e+05 -1.685229e+05 -5.000000e+04
1.815622e+05 -1.923857e+05 -2.697399e+04
1.500000e+05 -2.039551e+05 -5.000000e+04
1.517861e+05 -1.743971e+05 -2.524116e+04
1.528536e+05 -2.031824e+05 0.000000e+00
1.458107e+05 -2.199055e+05 -2.570950e+04
1.816390e+05 -2.040111e+05 -5.000000e+04
1.850873e+05 -2.236024e+05 -2.489447e+04
1.993796e+05 -1.994472e+05 0.000000e+00
-1.166667e+05 -2.039587e+05 0.000000e+00
-9.161187e+04 -2.191382e+05 -2.498722e+04
-1.158105e+05 -1.794687e+05 -5.000000e+04
-1.140579e+05 -2.075682e+05 -5.000000e+04
-8.356611e+04 -2.038239e+05 -5.000000e+04
-1.335212e+05 -1.694951e+05 0.000000e+00
3.586278e+04 -9.277130e+04 0.000000e+00
4.174994e+04 -1.104582e+05 -5.000000e+04
-6.666667e+04 -2.362260e+05 -5.000000e+04
-9.989695e+04 -2.364853e+05 -5.000000e+04
-1.243236e+05 -2.191007e+05 -2.558056e+04
-1.000000e+05 -2.362260e+05 0.000000e+00
1.345130e+05 -1.051402e+05 -5.000000e+04
1.325931e+05 -1.417881e+05 -5.000000e+04
-1.449497e+05 -1.585544e+05 -5.000000e+04
-1.133707e+05 -1.444945e+05 -5.000000e+04
1.728196e+05 -1.318989e+05 0.000000e+00
1.501999e+05 -1.491176e+05 0.000000e+00
1.214328e+05 -1.578578e+05 -2.504068e+04
1.744151e+05 -1.721815e+05 0.000000e+00
-1.522311e+05 -2.033914e+05 0.000000e+00
-1.567005e+05 -2.223547e+05 -2.674984e+04
-1.477766e+05 -1.970206e+05 -5.000000e+04
-1.335737e+05 -2.355388e+05 -5.000000e+04
-1.678299e+05 -2.349983e+05 0.000000e+00
-2.691718e+05 -2.458672e+05 -5.000000e+04
1.333333e+05 -2.362260e+05 0.000000e+00
1.680967e+05 -2.346965e+05 0.000000e+00
1.333333e+05 -2.362260e+05 -5.000000e+04
1.068842e+05 -2.195171e+05 -2.507169e+04
1.166667e+05 -2.039587e+05 -5.000000e+04
1.666667e+05 -2.362260e+05 -5.000000e+04
2.359381e+05 -1.981416e+05 -5.000000e+04
2.180056e+05 -2.129185e+05 -2.557838e+04
7.610298e+04 -6.013542e+04 -5.000000e+04
5.630133e+04 -8.944943e+04 -2.625121e+04
6.567672e+04 -1.094376e+05 0.000000e+00
2.344271e+05 -2.357114e+05 -5.000000e+04
2.340719e+05 -2.341391e+05 0.000000e+00
2.359405e+05 -9.578803e+04 -5.000000e+04
1.294509e+04 -8.825513e+04 -5.000000e+04
7.332889e+04 -9.639838e+04 -5.000000e+04
-1.794183e+05 -1.191546e+05 0.000000e+00
-2.098504e+05 -1.269821e+05 0.000000e+00
-2.000000e+05 -2.360683e+05 0.000000e+00
-2.361833e+05 -2.364538e+05 -5.000000e+04
-2.361770e+05 -1.998784e+05 0.000000e+00
-1.544007e+04 -2.031974e+05 -5.000000e+04
-5.820766e-11 -2.362260e+05 -5.000000e+04
8.036474e+03 -2.163714e+05 -2.501155e+04
-2.344684e+04 -2.181436e+05 -2.509959e+04
-3.333333e+04 -2.362260e+05 -5.000000e+04
-2.328306e-10 -2.362260e+05 0.000000e+00
-1.666667e+04 -2.039587e+05 0.000000e+00
1.251647e+05 -1.891961e+05 -2.507551e+04
1.332085e+05 -1.727140e+05 0.000000e+00
1.337090e+05 -1.731654e+05 -5.000000e+04
2.039231e+05 -1.156766e+05 0.000000e+00
2.361510e+05 -9.891990e+04 0.000000e+00
2.026043e+05 -1.119494e+05 -5.000000e+04
2.032105e+05 -1.487035e+04 0.000000e+00
2.353380e+05 -6.131522e+04 -5.000000e+04
1.000000e+05 -2.362260e+05 0.000000e+00
2.066817e+05 -2.135690e+05 -5.000000e+04
2.359410e+05 -1.638587e+05 -5.000000e+04
-1.833333e+05 -2.684836e+05 0.000000e+00
1.704017e+05 -6.488255e+04 0.000000e+00
1.994222e+05 -2.383919e+05 -5.000000e+04
1.671104e+05 -9.096646e+04 -5.000000e+04
1.716797e+05 -9.891990e+04 0.000000e+00
3.333333e+04 -2.362260e+05 0.000000e+00
3.333333e+04 -2.362260e+05 -5.000000e+04
4.195619e+04 -2.208384e+05 -2.497855e+04
-1.863386e+04 -1.023150e+05 -5.000000e+04
-5.021281e+04 -1.163748e+05 -5.000000e+04
2.307373e+05 3.763263e+04 -2.130607e+04
1.166667e+05 -2.039587e+05 0.000000e+00
1.000000e+05 -1.716778e+05 0.000000e+00
9.348514e+04 -1.873323e+05 -2.508000e+04
1.000203e+05 -1.674616e+05 -5.000000e+04
-8.179176e+04 -1.304347e+05 -5.000000e+04
2.683726e+05 8.540353e+04 0.000000e+00
2.009048e+05 5.434093e+04 0.000000e+00
6.666667e+04 -2.362260e+05 -5.000000e+04
-2.332910e+05 -2.346820e+05 0.000000e+00
-2.077167e+05 -2.260550e+05 -5.000000e+04
-1.670131e+05 -2.354630e+05 -5.000000e+04
4.452403e+04 -7.419527e+04 -5.000000e+04
-2.717452e+05 -2.733515e+05 -1.551736e+04
-2.693583e+05 -2.481586e+05 0.000000e+00
-1.765286e+05 -1.726142e+05 -5.000000e+04
1.833333e+05 -2.684836e+05 0.000000e+00
2.000000e+05 -2.362268e+05 0.000000e+00
2.361519e+05 -1.994599e+05 0.000000e+00
2.683706e+05 -1.827033e+05 0.000000e+00
8.333333e+04 -2.039587e+05 -5.000000e+04
6.082738e+04 -1.877942e+05 -2.491784e+04
7.440581e+04 -2.172929e+05 -2.499919e+04
8.333333e+04 -2.039587e+05 0.000000e+00
6.666667e+04 -1.716781e+05 0.000000e+00
-2.140795e+04 -4.377965e+04 0.000000e+00
-2.610200e+04 -6.928014e+04 -1.653004e+04
-5.575749e+04 -9.411033e+04 0.000000e+00
7.150617e+04 -1.345130e+05 -5.000000e+04
6.693048e+04 -1.713711e+05 -5.000000e+04
8.883238e+04 -1.531765e+05 -2.509052e+04
8.350105e+04 -1.387004e+05 0.000000e+00
1.076819e+05 -4.607557e+04 -5.000000e+04
1.392609e+05 -3.201571e+04 -5.000000e+04
8.935543e+04 -3.314254e+04 -2.104333e+04
1.364868e+05 -6.827867e+04 -5.000000e+04
1.021372e+05 -2.381106e+04 0.000000e+00
1.000000e+05 -2.362260e+05 -5.000000e+04
1.155665e+05 -1.383501e+05 0.000000e+00
-1.186449e+05 -1.263820e+05 0.000000e+00
6.779393e+04 -7.415570e+04 0.000000e+00
1.348102e+05 -1.019000e+04 0.000000e+00
5.000000e+04 -2.039587e+05 0.000000e+00
5.047375e+04 -2.050185e+05 -5.000000e+04
6.666667e+04 -2.362260e+05 0.000000e+00
-8.733643e+04 -1.081702e+05 0.000000e+00
2.352080e+05 6.897589e+04 0.000000e+00
1.666667e+04 -2.039587e+05 0.000000e+00
1.668760e+04 -2.032390e+05 -5.000000e+04
-2.344210e+05 -1.402319e+05 0.000000e+00
1.364868e+05 2.651961e+04 0.000000e+00
1.686127e+05 4.022864e+04 0.000000e+00
-2.681010e+05 -1.494123e+05 0.000000e+00
-5.298690e+04 -5.783951e+04 0.000000e+00
1.049078e+05 1.245976e+04 0.000000e+00
1.017100e+04 -2.971980e+04 0.000000e+00
-8.456585e+04 -7.189936e+04 0.000000e+00
7.332889e+04 -1.600093e+03 0.000000e+00
-2.880683e+05 -1.874113e+05 -3.917977e+04
-2.848867e+05 -2.036017e+05 -5.000000e+04
-2.736841e+05 -1.836562e+05 -3.596413e+04
-2.690972e+05 -1.965718e+05 -5.000000e+04
-2.921745e+05 -2.142770e+05 -4.245521e+04
-2.889476e+05 -1.735985e+05 -2.821395e+04
-2.673007e+05 -1.165932e+05 -7.618501e+03
-2.849565e+05 -1.085837e+05 0.000000e+00
-2.850116e+05 -1.250761e+05 -9.824086e+03
-2.699129e+05 -1.192170e+05 0.000000e+00
-2.691670e+05 -1.015537e+05 0.000000e+00
2.842105e+05 1.454003e+05 0.000000e+00
2.869915e+05 5.595464e+04 -3.863909e+04
2.852163e+05 6.948785e+04 -3.734695e+04
2.842105e+05 5.034103e+04 -5.000000e+04
2.820469e+05 8.323049e+04 -3.138241e+04
-1.267676e+05 -1.057861e+05 -2.509195e+04
-1.493698e+05 -9.469043e+04 -1.825882e+04
-1.423566e+05 -1.172692e+05 -2.857608e+04
-1.573485e+05 -5.929547e+04 -5.036979e+03
-1.441101e+05 -7.698608e+04 -1.486983e+04
-1.425729e+05 -6.240384e+04 -1.052546e+04
-1.449497e+05 -6.375611e+04 0.000000e+00
-1.621478e+05 -7.754584e+04 -1.029679e+04
-1.291914e+05 -6.794159e+04 -1.407592e+04
-1.108276e+05 -9.591316e+04 -2.564352e+04
-1.223592e+05 -8.126335e+04 -1.755025e+04
-1.313528e+05 -9.158739e+04 -2.020463e+04
-1.161448e+05 -8.595921e+04 0.000000e+00
-1.595432e+05 -1.050225e+05 -2.446029e+04
-1.678958e+05 -9.443020e+04 -1.531443e+04
-1.380545e+05 -8.683660e+04 -6.401856e+03
-4.563009e+04 -7.844737e+04 -2.240300e+04
-5.481777e+04 -8.706026e+04 -3.449476e+04
-6.660647e+04 -7.721061e+04 -2.984111e+04
-5.984473e+04 -7.480578e+04 -2.167895e+04
-7.455666e+04 -6.531167e+04 -1.472722e+04
-9.101689e+04 -7.076393e+04 -1.887281e+04
-8.128155e+04 -8.022012e+04 -2.688688e+04
-9.065570e+04 -5.624890e+04 -1.355461e+04
-7.207367e+04 -4.358000e+04 -1.313356e+04
-9.059208e+04 -4.250280e+04 -8.414750e+03
-8.179176e+04 -3.563640e+04 0.000000e+00
-4.609941e+04 -6.503769e+04 -2.638723e+04
-4.573623e+04 -4.804608e+04 -1.949087e+04
-5.893673e+04 -5.754581e+04 -1.837409e+04
-5.535084e+04 -3.650146e+04 -1.050712e+04
-8.754046e+04 -2.446893e+04 -4.153340e+03
-6.645659e+04 -2.567294e+04 -8.057649e+03
-7.081067e+04 -9.960099e+04 -3.188723e+04
-1.429044e+05 -4.928675e+04 -3.940149e+03
-1.751081e+05 -5.991056e+04 0.000000e+00
-1.908975e+05 -6.694049e+04 0.000000e+00
-1.723704e+05 -6.489737e+04 -4.501024e+03
-1.765319e+05 -7.811023e+04 0.000000e+00
-1.593169e+05 -5.273350e+04 0.000000e+00
-1.781729e+05 -8.039622e+04 -1.016669e+04
-8.036956e+04 -1.758387e+04 0.000000e+00
-1.012497e+05 -3.038869e+04 -5.246815e+03
-9.615904e+04 -2.461380e+04 0.000000e+00
-2.839777e+05 -1.567762e+05 -2.069210e+04
-2.655328e+05 -1.530267e+05 -1.819356e+04
-2.753040e+05 -1.658606e+05 -2.748374e+04
-2.851174e+05 -1.426134e+05 -9.747259e+03
-2.858555e+05 -1.667022e+05 -1.206914e+04
-2.719619e+05 -1.346909e+05 -1.401393e+04
2.679588e+05 1.207580e+05 -9.523809e+03
2.857068e+05 1.125855e+05 -1.670815e+04
2.855724e+05 1.271837e+05 -8.017653e+03
2.681888e+05 1.191711e+05 0.000000e+00
2.683049e+05 1.371491e+05 0.000000e+00
2.840377e+05 9.376034e+04 -2.085814e+04
2.687610e+05 1.029725e+05 -1.320157e+04
-2.382645e+05 -8.788259e+04 0.000000e+00
-2.540540e+05 -9.491252e+04 0.000000e+00
-2.369741e+05 -1.030867e+05 -9.092553e+03
-2.396870e+05 -1.059346e+05 0.000000e+00
-2.525855e+05 -1.092959e+05 -8.353905e+03
-2.066854e+05 -7.382328e+04 0.000000e+00
-2.224748e+05 -8.085321e+04 0.000000e+00
-2.067075e+05 -8.546252e+04 -6.732569e+03
-2.081075e+05 -9.187582e+04 0.000000e+00
-2.239928e+05 -9.195139e+04 -6.782028e+03
-1.923251e+05 -8.494540e+04 -9.521041e+03
-1.435275e+05 -4.570358e+04 0.000000e+00
-1.119485e+05 -3.164372e+04 0.000000e+00
-1.277380e+05 -3.867365e+04 0.000000e+00
-1.143777e+05 -3.672471e+04 -3.987860e+03
-1.133707e+05 -4.969626e+04 0.000000e+00
-1.290098e+05 -4.218403e+04 -4.779920e+03
-4.879061e+04 -3.524018e+03 0.000000e+00
-6.458009e+04 -1.055394e+04 0.000000e+00
-4.665687e+04 -1.831902e+04 -7.376231e+03
-5.021281e+04 -2.157655e+04 0.000000e+00
-1.709295e+04 -1.821911e+03 -7.291922e+03
-3.300114e+04 3.505909e+03 0.000000e+00
-3.294868e+04 -1.244510e+04 -8.790425e+03
-1.863386e+04 -7.516698e+03 0.000000e+00
-1.721167e+04 1.053584e+04 0.000000e+00
1.436728e+04 2.459569e+04 0.000000e+00
-1.422194e+03 1.756576e+04 0.000000e+00
1.362465e+04 1.223217e+04 -6.902074e+03
1.294509e+04 6.543155e+03 0.000000e+00
-7.832576e+02 1.285021e+03 -9.175993e+03
3.015675e+04 3.162561e+04 0.000000e+00
2.745474e+04 1.885899e+04 -8.628646e+03
4.452403e+04 2.060301e+04 0.000000e+00
4.561506e+04 2.134942e+04 -7.837987e+03
4.594623e+04 3.865554e+04 0.000000e+00
6.173570e+04 4.568547e+04 0.000000e+00
6.174341e+04 2.974469e+04 -8.611700e+03
7.610298e+04 3.466286e+04 0.000000e+00
7.676426e+04 4.034922e+04 -6.870670e+03
7.752517e+04 5.271539e+04 0.000000e+00
9.064311e+04 4.699382e+04 -8.605309e+03
9.331465e+04 5.974532e+04 0.000000e+00
1.076819e+05 4.872271e+04 0.000000e+00
1.087262e+05 4.964943e+04 -7.764422e+03
1.091041e+05 6.677525e+04 0.000000e+00
1.248259e+05 5.792452e+04 -8.598107e+03
1.248936e+05 7.380517e+04 0.000000e+00
1.392609e+05 6.278257e+04 0.000000e+00
1.399136e+05 6.841733e+04 -6.878064e+03
1.406831e+05 8.083510e+04 0.000000e+00
1.538056e+05 7.502466e+04 -8.624028e+03
1.564725e+05 8.786503e+04 0.000000e+00
1.708398e+05 7.684242e+04 0.000000e+00
1.719586e+05 7.759729e+04 -7.805373e+03
1.722620e+05 9.489495e+04 0.000000e+00
1.881338e+05 8.584005e+04 -8.615834e+03
1.881180e+05 1.017766e+05 0.000000e+00
2.025519e+05 9.060577e+04 0.000000e+00
2.032595e+05 9.589298e+04 -7.066580e+03
2.039075e+05 1.088066e+05 0.000000e+00
2.194022e+05 9.826944e+04 -9.723466e+03
2.200167e+05 1.158113e+05 0.000000e+00
2.347702e+05 1.046153e+05 0.000000e+00
2.380858e+05 1.072287e+05 -8.578738e+03
2.358062e+05 1.228413e+05 0.000000e+00
2.512728e+05 1.147921e+05 -9.301804e+03
2.525155e+05 1.301191e+05 0.000000e+00
2.760216e+05 5.061657e+04 -4.135803e+04
2.696968e+05 5.934720e+04 -3.285665e+04
2.674127e+05 4.226397e+04 -5.000000e+04
2.516232e+05 3.523405e+04 -5.000000e+04
2.508441e+05 4.750358e+04 -3.468160e+04
2.649575e+05 7.423980e+04 -2.932155e+04
2.513074e+05 6.651036e+04 -2.439867e+04
2.451504e+05 3.023707e+04 -3.737358e+04
2.329099e+05 4.474303e+04 -3.725985e+04
2.354871e+05 2.806683e+04 -5.000000e+04
2.196976e+05 2.103690e+04 -5.000000e+04
2.209241e+05 3.589463e+04 -3.877652e+04
2.350812e+05 5.815967e+04 -2.625798e+04
2.183518e+05 4.978161e+04 -2.968751e+04
2.050985e+05 4.680710e+04 -2.877265e+04
2.077546e+05 2.950205e+04 -3.590986e+04
1.913688e+05 3.825339e+04 -2.592964e+04
1.917887e+05 2.210668e+04 -3.826905e+04
2.038420e+05 1.415413e+04 -5.000000e+04
1.880526e+05 7.124199e+03 -5.000000e+04
1.802906e+05 1.620772e+04 -3.430788e+04
1.763267e+05 3.441063e+04 -2.865198e+04
1.497072e+05 1.767188e+04 -3.163653e+04
1.658200e+05 2.620340e+04 -2.785134e+04
1.645652e+05 1.093759e+04 -3.606417e+04
1.722620e+05 9.667189e+01 -5.000000e+04
1.497309e+05 1.900820e+03 -3.781109e+04
1.564725e+05 -6.933255e+03 -5.000000e+04
1.159260e+05 4.796809e+03 -2.835738e+04
1.341175e+05 1.061831e+04 -2.524196e+04
1.330432e+05 -3.141673e+03 -3.543627e+04
1.406831e+05 -1.396318e+04 -5.000000e+04
1.176381e+05 -1.203134e+04 -3.757650e+04
1.248936e+05 -2.099311e+04 -5.000000e+04
1.012580e+05 -4.102766e+03 -2.871065e+04
8.450604e+04 -9.763720e+03 -2.879345e+04
1.011167e+05 -1.743257e+04 -3.638200e+04
1.091041e+05 -2.802303e+04 -5.000000e+04
9.331465e+04 -3.505296e+04 -5.000000e+04
8.634333e+04 -2.630730e+04 -3.800308e+04
5.566240e+04 -2.815418e+04 -3.086323e+04
7.073459e+04 -1.917811e+04 -2.963025e+04
7.057926e+04 -3.230523e+04 -3.733741e+04
7.752517e+04 -4.208289e+04 -5.000000e+04
5.782881e+04 -4.267344e+04 -3.919245e+04
6.173570e+04 -4.911281e+04 -5.000000e+04
4.594623e+04 -5.614274e+04 -5.000000e+04
3.979869e+04 -3.995685e+04 -3.616083e+04
2.469144e+04 -3.004751e+04 -2.507117e+04
2.564698e+04 -5.128738e+04 -3.657082e+04
4.114636e+04 -2.506280e+04 -2.969385e+04
3.015675e+04 -6.317267e+04 -5.000000e+04
2.085875e+04 -6.203267e+04 -4.191723e+04
1.039363e+04 -6.022081e+04 -3.581845e+04
1.436728e+04 -7.020259e+04 -5.000000e+04
9.292739e+03 -4.391667e+04 -2.818019e+04
-1.422194e+03 -7.723252e+04 -5.000000e+04
-7.494521e+03 -7.034438e+04 -3.608181e+04
-3.670486e+03 -5.375224e+04 -3.216877e+04
-2.339168e+04 -7.793238e+04 -3.680186e+04
-2.219677e+04 -6.536799e+04 -3.530277e+04
-3.300114e+04 -9.129237e+04 -5.000000e+04
-3.739574e+04 -9.121712e+04 -3.728491e+04
-1.721167e+04 -8.426245e+04 -5.000000e+04
-3.401944e+04 -5.811675e+04 -2.744765e+04
-1.720515e+04 -5.386836e+04 -2.456012e+04
-3.486843e+04 -7.299294e+04 -3.363043e+04
-4.879061e+04 -9.832230e+04 -5.000000e+04
-4.596589e+04 -9.251301e+04 -2.206943e+04
-6.458009e+04 -1.053522e+05 -5.000000e+04
-8.036956e+04 -1.123822e+05 -5.000000e+04
-8.672082e+04 -1.083504e+05 -3.364497e+04
-8.789371e+04 -9.651764e+04 -2.174967e+04
-9.502526e+04 -8.721416e+04 -2.563378e+04
-9.903025e+04 -1.177812e+05 -3.819290e+04
-9.886022e+04 -1.075918e+05 -2.760172e+04
-9.615904e+04 -1.194121e+05 -5.000000e+04
-1.056085e+05 -7.603005e+04 -1.935994e+04
-1.203882e+05 -1.227863e+05 -2.849127e+04
-1.326843e+05 -1.334097e+05 -3.674141e+04
-1.111763e+05 -1.124822e+05 -1.708426e+04
-1.119485e+05 -1.264420e+05 -5.000000e+04
-1.277380e+05 -1.334719e+05 -5.000000e+04
-1.435275e+05 -1.405019e+05 -5.000000e+04
-1.503704e+05 -1.289797e+05 -3.740866e+04
-1.593169e+05 -1.475318e+05 -5.000000e+04
-1.649000e+05 -1.379168e+05 -3.819980e+04
-1.643541e+05 -1.213670e+05 -2.766118e+04
-1.952506e+05 -1.357695e+05 -2.514992e+04
-1.797520e+05 -1.298498e+05 -3.018614e+04
-1.807983e+05 -1.428379e+05 -3.632286e+04
-1.751064e+05 -1.545617e+05 -5.000000e+04
-1.908959e+05 -1.615916e+05 -5.000000e+04
-1.917652e+05 -1.527972e+05 -3.718499e+04
-1.998700e+05 -1.605360e+05 -4.151328e+04
-2.091201e+05 -1.523402e+05 -3.405200e+04
-2.066854e+05 -1.686216e+05 -5.000000e+04
-2.110549e+05 -1.358321e+05 -2.667841e+04
-2.297798e+05 -1.433380e+05 -2.683594e+04
-2.263870e+05 -1.617282e+05 -3.668388e+04
-2.224748e+05 -1.756515e+05 -5.000000e+04
-2.317091e+05 -1.736134e+05 -4.125079e+04
-2.425382e+05 -1.715056e+05 -3.511577e+04
-2.381134e+05 -1.827287e+05 -5.000000e+04
-2.435235e+05 -1.547769e+05 -2.871901e+04
-2.596262e+05 -1.680424e+05 -3.087915e+04
-2.539028e+05 -1.897586e+05 -5.000000e+04
-2.557752e+05 -1.818974e+05 -3.951340e+04
-2.549724e+05 -1.964158e+05 -4.157622e+04
-1.155787e+05 -6.724618e+04 -1.619198e+04
-1.318812e+05 -5.562366e+04 -1.025626e+04
-1.192730e+05 -5.180166e+04 -9.201582e+03
-1.025760e+05 -5.997358e+04 -1.600122e+04
-1.229692e+05 -7.006599e+04 -5.336837e+03
-1.036935e+05 -4.670756e+04 -1.094988e+04
-1.027969e+05 -6.913339e+04 -6.139910e+03
-2.541795e+05 -1.232650e+05 -1.331458e+04
-2.418883e+05 -1.169789e+05 -1.329952e+04
-2.537923e+05 -1.395399e+05 -1.558594e+04
-2.371025e+05 -1.301771e+05 -1.773842e+04
4.156832e+04 6.366286e+03 -1.385801e+04
5.842065e+04 1.073041e+04 -1.269443e+04
6.568611e+04 -4.121368e+03 -1.968984e+04
4.625010e+04 -1.352790e+04 -1.691978e+04
7.358765e+04 2.287710e+04 -1.247183e+04
7.852151e+04 7.772463e+03 -1.732488e+04
2.716994e+04 1.732496e+02 -1.007982e+04
9.063108e+04 2.823188e+04 -1.011128e+04
9.691816e+04 1.117919e+04 -1.928868e+04
1.090542e+05 2.197511e+04 -1.798740e+04
1.046214e+05 3.573000e+04 -1.395442e+04
1.209704e+05 3.968078e+04 -1.274324e+04
1.246472e+05 2.685256e+04 -2.067810e+04
1.409996e+05 3.047712e+04 -1.618537e+04
1.366442e+05 5.049241e+04 -1.253141e+04
1.536653e+05 5.589659e+04 -9.918056e+03
1.723279e+05 4.650602e+04 -1.809124e+04
1.678442e+05 6.300999e+04 -1.396713e+04
1.561273e+05 3.727481e+04 -1.752574e+04
1.843714e+05 6.731665e+04 -1.275545e+04
1.872018e+05 5.528154e+04 -2.110174e+04
2.000243e+05 7.793124e+04 -1.265829e+04
2.051950e+05 5.831721e+04 -1.715703e+04
2.171795e+05 8.060511e+04 -9.809746e+03
2.203438e+05 6.591228e+04 -2.015670e+04
2.379352e+05 8.773739e+04 -1.475209e+04
2.328154e+05 7.376944e+04 -1.991823e+04
2.550178e+05 9.334866e+04 -1.860372e+04
-2.459781e+05 -1.575827e+05 -1.709995e+04
-2.501835e+05 -1.503290e+05 -6.943842e+03
-2.674445e+05 -1.715066e+05 -1.857692e+04
1.025292e+04 -5.142079e+03 -1.284263e+04
-6.413467e+03 -1.637539e+04 -1.271479e+04
1.430978e+04 -1.860097e+04 -1.742318e+04
2.834825e+04 -1.325386e+04 -2.061164e+04
-2.181140e+04 -1.984555e+04 -1.284709e+04
-3.713076e+04 -3.240116e+04 -1.342163e+04
-1.642107e+04 -3.495820e+04 -1.762199e+04
-3.971366e+03 -9.725565e+03 -3.913666e+03
2.385145e+03 -3.036177e+04 -1.942000e+04
2.675373e+05 8.433215e+04 -1.667142e+04
2.475751e+05 7.769768e+04 -1.701281e+04
-2.995017e+04 -4.484155e+04 -2.107793e+04
-4.374525e+04 -3.598556e+04 -5.070486e+03
1.571957e+05 1.772956e+04 -1.912088e+04
1.680620e+05 2.114892e+04 -1.313908e+04
1.228575e+05 1.070375e+04 -1.366491e+04
9.375967e+04 -5.957048e+03 -1.373944e+04
6.489013e+04 -2.287138e+04 -1.626850e+04
-9.791808e+01 -4.786035e+04 -1.514872e+04
-3.427637e+04 -5.440782e+04 -1.221701e+04
-2.152555e+05 -1.031069e+05 -9.595252e+03
-2.263930e+05 -1.153890e+05 -1.364899e+04
-2.072892e+05 -1.187328e+05 -1.789970e+04
-1.996634e+05 -1.016637e+05 -1.230872e+04
-1.869079e+05 -1.162713e+05 -1.974590e+04
-1.838605e+05 -9.640617e+04 -1.383851e+04
-1.946325e+05 -9.493055e+04 -3.967238e+03
-1.740534e+05 -1.081176e+05 -2.021196e+04
-2.217157e+05 -1.282186e+05 -2.088907e+04
-2.323069e+05 -1.190828e+05 -5.594040e+03
-1.802085e+05 -1.341989e+05 -1.831173e+04
-2.250309e+05 -1.380009e+05 -1.214124e+04
-1.716852e+05 -9.675344e+04 -5.595751e+03
-3.341388e+05 2.564093e+04 -8.227186e+04
-3.667056e+05 3.907194e+04 -8.004233e+04
-3.530941e+05 1.280604e+04 -7.481803e+04
-3.493110e+05 5.114256e+04 -6.739683e+04
-3.539819e+05 8.151274e+04 -7.288184e+04
-3.412989e+05 6.492339e+04 -9.643316e+04
-3.212965e+05 5.792288e+04 -7.558431e+04
7.590404e+04 -3.337728e+05 -1.144597e+05
9.040226e+04 -3.494598e+05 -1.408225e+05
1.046048e+05 -3.259536e+05 -1.366260e+05
1.042419e+05 -3.520940e+05 -1.207785e+05
1.062773e+05 -3.717853e+05 -9.235972e+04
1.023186e+05 -3.833297e+05 -1.087319e+05
8.271869e+04 -3.723975e+05 -1.221108e+05
7.896055e+04 -3.482451e+05 -9.590900e+04
1.227850e+05 -3.567303e+05 -1.393138e+05
1.272733e+05 -3.220524e+05 -1.344329e+05
1.370776e+05 -3.361677e+05 -1.143125e+05
1.101500e+05 -3.818110e+05 -1.359921e+05
1.290453e+05 -3.647187e+05 -1.089023e+05
-4.000000e+05 1.742320e+04 -9.927559e+04
-3.737244e+05 1.424868e+04 -1.042235e+05
-3.750197e+05 4.315852e+04 -1.039103e+05
-4.000000e+05 3.481145e+04 -7.886354e+04
-3.800879e+05 6.535091e+04 -8.386412e+04
-3.403895e+05 1.074401e+05 -1.125813e+05
-3.533489e+05 9.584199e+04 -9.309787e+04
-3.238404e+05 1.033238e+05 -7.258147e+04
-3.480529e+05 1.309430e+05 -9.342338e+04
-3.234200e+05 1.188187e+05 -1.034093e+05
-4.000000e+05 8.698509e+04 -9.927827e+04
-4.000000e+05 1.043478e+05 -1.280850e+05
-4.000000e+05 1.217663e+05 -9.927598e+04
-3.755403e+05 1.148484e+05 -1.131170e+05
-3.783900e+05 1.485984e+05 -8.283396e+04
-3.547571e+05 1.623943e+05 -9.881063e+04
-3.557957e+05 1.531919e+05 -7.208140e+04
-3.222581e+05 1.374025e+05 -7.419343e+04
-3.404138e+05 1.385027e+05 -1.110586e+05
3.000000e+05 -1.132552e+05 -8.357752e+04
3.000000e+05 -7.930021e+04 -8.358651e+04
3.274908e+05 -7.829351e+04 -7.735422e+04
2.936400e+05 -3.793458e+05 -7.765646e+04
2.699243e+05 -3.515312e+05 -7.534882e+04
3.045935e+05 -3.579859e+05 -8.418688e+04
3.109766e+05 -3.364616e+05 -7.435601e+04
3.338454e+05 -3.558050e+05 -7.301842e+04
2.928836e+05 -3.655048e+05 -1.066323e+05
3.277621e+05 -3.757798e+05 -8.509764e+04
2.814252e+05 -3.263403e+05 -9.482346e+04
3.431255e+05 2.772280e+05 -1.185999e+05
3.245083e+05 2.496245e+05 -1.075998e+05
3.204661e+05 2.647775e+05 -1.375275e+05
3.581654e+05 2.527641e+05 -1.087124e+05
3.562283e+05 2.575043e+05 -1.384346e+05
3.611554e+05 2.872715e+05 -1.358438e+05
3.788434e+05 2.606907e+05 -1.239637e+05
3.775102e+05 2.257422e+05 -1.381498e+05
3.813434e+05 2.384238e+05 -1.042346e+05
-1.163554e+05 1.388634e+05 -1.200000e+05
-8.333333e+04 1.380126e+05 -1.200000e+05
-1.023403e+05 1.228602e+05 -1.405136e+05
-1.149398e+05 1.560297e+05 -1.385731e+05
-3.045569e+05 3.768147e+05 -1.110781e+05
-2.803501e+05 3.583052e+05 -1.063451e+05
-2.727748e+05 3.685000e+05 -1.254354e+05
-2.771567e+05 3.823103e+05 -9.408175e+04
-2.782569e+05 4.000000e+05 -7.878860e+04
-2.938606e+05 3.781098e+05 -7.799845e+04
-2.945883e+05 4.000000e+05 -9.902611e+04
-2.782176e+05 4.000000e+05 -1.283450e+05
-2.607573e+05 4.000000e+05 -9.928420e+04
3.702780e+05 -2.749910e+04 -8.841303e+04
3.709600e+05 -5.354659e+04 -1.067024e+05
3.602761e+05 -3.193351e+04 -1.285488e+05
3.813107e+05 -1.358329e+04 -1.137461e+05
4.000000e+05 -5.220474e+04 -9.927827e+04
4.000000e+05 -1.742320e+04 -9.927559e+04
-6.956522e+04 2.395442e+05 -1.600000e+05
-9.533602e+04 2.561800e+05 -1.415132e+05
-7.475226e+04 2.204091e+05 -1.395019e+05
-6.382278e+04 2.557554e+05 -1.406845e+05
3.746308e+05 2.422632e+04 -1.122574e+05
3.677722e+05 -3.355109e+03 -9.478067e+04
3.690448e+05 -4.943007e+03 -1.358184e+05
4.000000e+05 1.739649e+04 -9.927617e+04
-4.000000e+05 -3.304348e+05 -1.600000e+05
-3.623088e+05 -3.273270e+05 -1.403155e+05
-3.681566e+05 -3.130435e+05 -1.600000e+05
-3.760508e+05 -3.217442e+05 -1.267819e+05
3.775219e+05 -1.186470e+05 -1.139664e+05
3.521935e+05 -1.319206e+05 -9.616733e+04
3.809033e+05 -1.202540e+05 -8.414172e+04
3.556304e+05 -9.885056e+04 -9.787918e+04
3.534400e+05 -1.459449e+05 -6.928615e+04
3.520186e+05 -1.189443e+05 -7.124974e+04
3.303124e+05 -1.254666e+05 -9.237750e+04
3.496054e+05 -9.225588e+04 -7.189501e+04
-5.471991e+04 3.284938e+05 -9.071215e+04
-5.660514e+04 3.507757e+05 -7.546367e+04
-3.359639e+04 3.263311e+05 -7.100303e+04
-2.460869e+04 3.538581e+05 -7.590474e+04
-4.609231e+04 3.704601e+05 -1.074821e+05
-4.710501e+04 3.802584e+05 -8.371835e+04
-7.864774e+03 3.658365e+05 -1.087372e+05
-2.199056e+04 3.301055e+05 -9.632152e+04
-6.055654e+01 3.394853e+05 -7.316881e+04
-1.673804e+04 3.793506e+05 -8.059419e+04
-1.762330e+05 -3.342690e+05 -1.149119e+05
-1.917158e+05 -3.163047e+05 -1.393024e+05
-1.660139e+05 -3.195823e+05 -1.381908e+05
-1.896773e+05 -3.529697e+05 -1.396979e+05
-1.739130e+05 -3.681566e+05 -1.600000e+05
-2.086957e+05 -3.681566e+05 -1.600000e+05
-1.898515e+05 -3.719356e+05 -1.296368e+05
-1.913043e+05 -3.362016e+05 -1.600000e+05
-2.250667e+05 -3.583771e+05 -1.398106e+05
-1.881623e+05 -3.681907e+05 -1.075486e+05
-2.063864e+05 -3.420682e+05 -1.241786e+05
-2.075055e+05 -3.686153e+05 -1.291122e+05
6.956522e+04 -3.681566e+05 -1.600000e+05
1.043478e+05 -3.681566e+05 -1.600000e+05
1.217391e+05 -4.000000e+05 -1.600000e+05
8.695652e+04 -4.000000e+05 -1.600000e+05
-3.303957e+05 -4.434418e+04 -1.114753e+05
-3.444185e+05 -5.146976e+04 -9.740293e+04
-3.675572e+05 -3.964373e+04 -9.787116e+04
-3.614134e+05 -5.460655e+04 -1.304350e+05
-3.089821e+05 -3.281249e+05 -7.338010e+04
-2.725804e+05 -3.503006e+05 -7.283334e+04
-3.120481e+05 -3.525773e+05 -8.589394e+04
-2.984802e+05 -3.356507e+05 -1.088096e+05
-3.190022e+05 -3.216923e+05 -1.040063e+05
-3.200418e+05 -3.500556e+05 -1.125919e+05
-3.212803e+05 -3.785594e+05 -9.110508e+04
-3.513059e+05 -3.519423e+05 -1.068557e+05
-3.395469e+05 -3.284215e+05 -8.389988e+04
-3.312709e+05 -3.508983e+05 -7.453722e+04
-1.398440e+05 8.944303e+04 -1.600000e+05
-1.402315e+05 5.217391e+04 -1.600000e+05
-1.049093e+05 7.202634e+04 -1.600000e+05
-1.203890e+05 5.782671e+04 -1.392568e+05
1.760294e+05 -3.267193e+05 -1.043321e+05
1.442875e+05 -3.302458e+05 -7.882335e+04
1.341194e+05 -3.214957e+05 -8.850150e+04
-3.229808e+05 1.535477e+05 -1.016232e+05
-3.000000e+05 1.666667e+05 -1.200000e+05
-3.172961e+05 1.921060e+05 -1.053001e+05
-3.421251e+05 1.765741e+05 -1.146765e+05
-3.000000e+05 1.333333e+05 -1.200000e+05
-3.192469e+05 1.626624e+05 -1.382210e+05
-1.833382e+05 -3.000000e+05 -8.603968e+04
-2.108917e+05 -3.387415e+05 -9.489681e+04
-1.762687e+05 -3.432383e+05 -7.438007e+04
-1.928429e+05 -3.166995e+05 -7.012550e+04
-2.168930e+05 -3.000000e+05 -8.327552e+04
-2.440147e+05 -3.355623e+05 -9.390731e+04
-1.383437e+05 3.308029e+05 -1.100971e+05
-1.039092e+05 3.265653e+05 -1.019817e+05
-1.095865e+05 3.287667e+05 -8.170973e+04
-1.240026e+05 3.124550e+05 -1.009283e+05
3.215564e+05 -2.373438e+04 -6.853587e+04
3.000000e+05 -1.148347e+04 -8.361060e+04
3.506732e+05 -3.047152e+04 -7.301808e+04
3.313953e+05 -3.972192e+04 -9.073268e+04
3.000000e+05 -4.532930e+04 -8.359831e+04
3.193489e+05 -5.801588e+04 -9.208351e+04
2.270076e+05 2.729557e+05 -1.600000e+05
1.942726e+05 2.522901e+05 -1.392916e+05
2.091380e+05 2.390844e+05 -1.600000e+05
2.333609e+05 2.558656e+05 -1.424160e+05
-3.369378e+05 -2.096157e+05 -8.180000e+04
-3.509013e+05 -1.876827e+05 -7.940496e+04
-3.198897e+05 -1.853826e+05 -7.073183e+04
-3.000000e+05 -2.150717e+05 -8.612403e+04
-3.243112e+05 -1.965185e+05 -9.700915e+04
3.514617e+05 -3.359393e+05 -7.301943e+04
3.532977e+05 -3.262610e+05 -9.863928e+04
3.274583e+05 -3.022963e+05 -7.470439e+04
3.517930e+05 -3.028616e+05 -7.311503e+04
3.315473e+05 -2.993444e+05 -1.090839e+05
3.471541e+05 -2.674803e+05 -7.316281e+04
3.477286e+05 -2.791356e+05 -9.374954e+04
3.785186e+05 -2.949543e+05 -7.224349e+04
-3.708643e+05 1.482920e+05 -1.134412e+05
-3.582850e+05 1.563135e+05 -1.381212e+05
-1.378368e+05 8.355785e+04 -1.200000e+05
-1.559706e+05 7.759752e+04 -1.387612e+05
-1.232593e+05 9.958164e+04 -1.386536e+05
-1.405259e+05 4.000000e+05 -1.298366e+05
-1.289609e+05 3.627909e+05 -1.100422e+05
-1.525533e+05 3.596109e+05 -1.378606e+05
-1.165350e+05 3.768530e+05 -1.247017e+05
-8.674306e+04 4.000000e+05 -1.107005e+05
-7.879910e+04 3.679582e+05 -1.112727e+05
-1.044485e+05 3.723968e+05 -9.553540e+04
-8.695652e+04 4.000000e+05 -1.600000e+05
-1.043457e+05 4.000000e+05 -1.313395e+05
-1.043478e+05 3.681566e+05 -1.600000e+05
-8.726732e+04 3.606497e+05 -1.395029e+05
1.748484e+05 2.384997e+05 -1.600000e+05
1.851880e+05 2.190570e+05 -1.406938e+05
-1.151815e+05 3.549788e+05 -1.282008e+05
-1.218925e+05 4.000000e+05 -1.107028e+05
-3.787295e+05 1.807886e+05 -1.127811e+05
-3.520859e+05 1.983443e+05 -9.928831e+04
-3.798809e+05 1.874889e+05 -8.422150e+04
-3.260428e+05 1.730976e+05 -8.315845e+04
-3.301411e+05 -3.781628e+05 -1.265926e+05
-3.764501e+05 -3.750861e+05 -1.338206e+05
-3.483331e+05 -3.758072e+05 -9.850281e+04
-1.387996e+05 1.191100e+05 -1.200000e+05
-1.346767e+05 1.346077e+05 -1.600000e+05
-2.666667e+05 3.000000e+05 -1.200000e+05
-2.929745e+05 3.278980e+05 -1.039849e+05
-2.526831e+05 3.000000e+05 -8.595526e+04
-2.546616e+05 3.374722e+05 -9.271075e+04
-4.000000e+05 -3.680273e+05 -1.051488e+05
-3.701072e+05 -3.677545e+05 -7.863674e+04
-3.680197e+05 -4.000000e+05 -1.051716e+05
1.076749e+04 -3.685738e+05 -1.060918e+05
4.255183e+04 -3.714099e+05 -1.068300e+05
2.899544e+04 -3.492243e+05 -7.207938e+04
1.743523e+04 -3.778675e+05 -7.597812e+04
5.007608e+04 -3.798337e+05 -8.233351e+04
2.000060e+05 2.356097e+05 -1.200000e+05
1.980870e+05 1.978571e+05 -1.200000e+05
1.678503e+05 2.343986e+05 -1.200000e+05
5.197702e+01 -3.287631e+05 -7.435279e+04
-2.655909e+01 -4.000000e+05 -7.886343e+04
1.739649e+04 -4.000000e+05 -9.927617e+04
-3.799683e+05 1.202217e+05 -8.441357e+04
-3.550522e+05 1.169575e+05 -7.366913e+04
-3.795459e+05 9.557837e+04 -8.487657e+04
-3.240072e+05 8.499528e+04 -1.050587e+05
-3.712678e+05 8.231320e+04 -1.101459e+05
-3.564025e+05 2.058553e+05 -6.673998e+04
3.502330e+05 -4.000000e+05 -1.288831e+05
3.291802e+05 -3.794961e+05 -1.290640e+05
3.243637e+05 -4.000000e+05 -1.049024e+05
3.535351e+05 -3.733314e+05 -1.082499e+05
4.000000e+05 -3.680197e+05 -1.051716e+05
3.798330e+05 -3.460289e+05 -9.900801e+04
3.608265e+05 -3.514935e+05 -1.236441e+05
3.609164e+05 -3.530763e+05 -7.997330e+04
3.311737e+05 -3.585054e+05 -1.099914e+05
3.343289e+05 -3.565347e+05 -1.371108e+05
3.722926e+05 -3.723870e+05 -1.334391e+05
1.833333e+05 2.678710e+05 -1.200000e+05
1.500000e+05 2.678710e+05 -1.200000e+05
1.808808e+05 2.875283e+05 -1.405176e+05
1.608518e+05 2.525032e+05 -1.404517e+05
4.000000e+05 2.434429e+05 -7.886194e+04
3.785193e+05 2.627594e+05 -7.758894e+04
4.000000e+05 2.607573e+05 -9.928420e+04
3.615355e+05 2.178521e+05 -1.011317e+05
3.573871e+05 2.398432e+05 -8.508132e+04
3.813154e+05 2.226700e+05 -8.166393e+04
-8.949834e+04 1.398020e+05 -1.600000e+05
-1.093100e+05 1.090522e+05 -1.600000e+05
-7.194872e+04 1.050311e+05 -1.600000e+05
4.000000e+05 2.434783e+05 -1.280850e+05
1.062500e+05 -3.301584e+05 -1.058184e+05
1.147641e+05 -3.388882e+05 -8.770154e+04
8.340940e+04 -3.000000e+05 -8.329152e+04
6.919787e+04 -3.264191e+05 -7.176189e+04
5.633544e+04 -3.287309e+05 -8.984890e+04
3.681566e+05 -1.043478e+05 -1.600000e+05
3.555367e+05 -1.267585e+05 -1.375712e+05
3.640905e+05 -8.557395e+04 -1.371035e+05
3.280674e+05 -1.037829e+05 -1.374208e+05
3.362016e+05 -1.217391e+05 -1.600000e+05
3.041301e+05 -1.043478e+05 -1.600000e+05
3.247182e+05 -1.373176e+05 -1.384248e+05
3.362016e+05 -8.695652e+04 -1.600000e+05
-7.756879e+04 3.386264e+05 -9.352008e+04
-8.051801e+04 3.778494e+05 -8.694469e+04
-8.586274e+04 3.556735e+05 -7.272505e+04
-5.255098e+04 4.000000e+05 -9.946212e+04
-1.043478e+05 4.000000e+05 -8.191444e+04
2.978034e+05 3.379508e+05 -1.089699e+05
3.263608e+05 3.537693e+05 -1.371938e+05
2.915876e+05 3.598025e+05 -1.365890e+05
3.270008e+05 3.579631e+05 -1.104777e+05
2.922097e+05 3.766513e+05 -1.117259e+05
3.276035e+05 3.780433e+05 -1.271110e+05
-3.666473e+05 -2.511135e+05 -1.003011e+05
-3.821239e+05 -2.769186e+05 -9.663716e+04
-3.662967e+05 -2.712300e+05 -1.249490e+05
-3.597704e+05 -2.689182e+05 -9.360834e+04
-3.000000e+05 -1.079904e+05 -8.381692e+04
-3.000000e+05 -7.997200e+04 -8.619990e+04
-3.000000e+05 -1.000000e+05 -1.200000e+05
-3.290457e+05 -7.122324e+04 -9.708520e+04
-3.381770e+05 -2.934302e+05 -1.079475e+05
-3.774555e+05 -2.955500e+05 -1.175914e+05
1.666667e+05 3.000000e+05 -1.200000e+05
-3.294087e+05 -2.765577e+05 -1.208430e+05
-3.295211e+05 -2.615007e+05 -9.357377e+04
-1.891464e+05 3.802059e+05 -8.419331e+04
-1.563047e+05 3.786883e+05 -7.082963e+04
-1.818534e+05 3.548570e+05 -7.297487e+04
-1.543488e+05 3.569033e+05 -7.104189e+04
-1.506206e+05 3.290934e+05 -9.351332e+04
-1.954181e+05 3.282329e+05 -8.694853e+04
-2.086109e+05 3.534692e+05 -7.858256e+04
-3.357190e+05 -9.527970e+04 -8.917356e+04
-3.638850e+05 -1.160646e+05 -9.889427e+04
-3.708667e+05 -8.823477e+04 -9.848397e+04
-3.348099e+05 -1.084607e+05 -1.057005e+05
3.561537e+05 2.223696e+05 -7.226579e+04
3.324642e+05 2.224786e+05 -9.328193e+04
3.313172e+05 2.364118e+05 -7.130302e+04
1.391304e+05 2.395442e+05 -1.600000e+05
1.217391e+05 2.068996e+05 -1.600000e+05
1.580089e+05 2.069782e+05 -1.600000e+05
1.439407e+05 2.202913e+05 -1.399933e+05
-3.698177e+05 2.202227e+05 -1.102264e+05
-3.319382e+05 2.246704e+05 -8.569668e+04
-3.766542e+05 2.172327e+05 -8.510883e+04
-3.543959e+05 2.380375e+05 -7.968660e+04
-3.257011e+05 2.144203e+05 -1.129925e+05
-3.576698e+05 1.907268e+05 -1.378665e+05
3.000000e+05 3.000000e+05 -8.447793e+04
3.254320e+05 2.766150e+05 -8.759455e+04
3.287632e+05 3.070558e+05 -1.097909e+05
3.475197e+05 2.997044e+05 -8.332525e+04
3.000000e+05 3.000000e+05 -1.200000e+05
3.000000e+05 2.666667e+05 -1.200000e+05
3.271738e+05 3.163139e+05 -7.249922e+04
1.356993e+05 3.432184e+05 -7.333829e+04
1.492615e+05 3.796175e+05 -8.345307e+04
1.434782e+05 3.634767e+05 -1.048534e+05
1.702351e+05 3.565956e+05 -8.609425e+04
1.782547e+05 3.331680e+05 -1.115251e+05
1.962041e+05 3.323180e+05 -8.993129e+04
1.811044e+05 3.699402e+05 -1.037112e+05
1.872281e+05 3.793328e+05 -8.111610e+04
1.898586e+05 3.548601e+05 -7.332346e+04
-3.000000e+05 3.000000e+05 -8.477016e+04
-3.282169e+05 3.096733e+05 -7.413200e+04
3.505272e+05 4.000000e+05 -8.132527e+04
4.000000e+05 4.000000e+05 -8.686567e+04
3.720513e+05 3.712938e+05 -7.914049e+04
-3.344744e+05 3.362564e+05 -8.392459e+04
-3.559350e+05 3.207378e+05 -1.064217e+05
-3.256661e+05 3.182586e+05 -1.084444e+05
-3.050270e+05 3.490506e+05 -7.219476e+04
-1.391304e+05 -2.395442e+05 -1.600000e+05
-1.749066e+05 -2.384977e+05 -1.600000e+05
-1.620126e+05 -2.533392e+05 -1.409474e+05
-1.435330e+05 -2.200255e+05 -1.400964e+05
-1.333333e+05 -2.356282e+05 -1.200000e+05
-1.296239e+05 -2.548942e+05 -1.403221e+05
-1.581117e+05 -2.067848e+05 -1.600000e+05
-1.641289e+05 -1.881903e+05 -1.398096e+05
-1.860642e+05 -2.206214e+05 -1.406176e+05
-1.677958e+05 -2.344463e+05 -1.200000e+05
-2.228879e+05 -3.672488e+05 -1.114918e+05
-1.996310e+05 -3.753570e+05 -7.985720e+04
-2.272053e+05 -3.719416e+05 -7.958977e+04
-2.100158e+05 -3.828764e+05 -1.008271e+05
-2.086686e+05 -4.000000e+05 -7.886305e+04
-2.261070e+05 -4.000000e+05 -9.928569e+04
-1.913303e+05 -4.000000e+05 -9.927549e+04
-2.333333e+05 -3.000000e+05 -1.200000e+05
-2.349723e+05 -3.192292e+05 -1.383811e+05
-2.086957e+05 -3.041301e+05 -1.600000e+05
-1.795847e+05 -2.865200e+05 -1.406450e+05
-2.085291e+05 -2.823477e+05 -1.396807e+05
-2.000000e+05 -3.000000e+05 -1.200000e+05
-1.666667e+05 -3.000000e+05 -1.200000e+05
2.833104e+05 3.526715e+05 -7.332917e+04
3.042821e+05 3.378425e+05 -7.801239e+04
2.765905e+05 3.219558e+05 -8.543112e+04
2.699739e+05 3.499211e+05 -9.558762e+04
-5.000000e+04 1.380126e+05 -1.200000e+05
-4.501050e+04 1.579575e+05 -1.407262e+05
-1.735598e+04 1.298668e+05 -1.400506e+05
-6.837447e+04 1.267808e+05 -1.397621e+05
4.000000e+05 -1.391011e+05 -7.886349e+04
3.723473e+05 -1.555865e+05 -7.831524e+04
-7.887679e+04 1.562738e+05 -1.400031e+05
-6.896416e+04 1.033511e+05 -1.200000e+05
-2.380535e+05 -3.360998e+05 -1.160614e+05
-2.209814e+05 -3.214284e+05 -1.020184e+05
2.395442e+05 -1.043478e+05 -1.600000e+05
2.212546e+05 -1.105057e+05 -1.398087e+05
2.537705e+05 -9.229529e+04 -1.407240e+05
2.221525e+05 -7.816634e+04 -1.402411e+05
2.068996e+05 -1.217391e+05 -1.600000e+05
1.870636e+05 -9.142906e+04 -1.389791e+05
1.721038e+05 -1.057896e+05 -1.600000e+05
1.889486e+05 -1.303201e+05 -1.399050e+05
3.806351e+05 -8.462439e+04 -8.387554e+04
3.472585e+05 -6.178227e+04 -7.816919e+04
2.068996e+05 -8.695652e+04 -1.600000e+05
1.738276e+05 -6.956522e+04 -1.600000e+05
3.787980e+05 -5.213195e+04 -7.280995e+04
-3.140961e+05 -4.000000e+05 -7.845318e+04
-2.946250e+05 -4.000000e+05 -9.901240e+04
-2.959946e+05 -3.791697e+05 -8.233253e+04
-2.783777e+05 -4.000000e+05 -7.878626e+04
-2.672573e+05 -3.800996e+05 -8.637079e+04
3.323527e+05 3.280949e+05 -9.277541e+04
3.331264e+05 3.497539e+05 -7.739036e+04
3.645834e+05 3.505442e+05 -1.078514e+05
3.328939e+05 -1.667507e+05 -8.674222e+04
3.000000e+05 -1.472095e+05 -8.357005e+04
3.497026e+05 3.689762e+05 -1.304033e+05
-3.362016e+05 -2.608696e+05 -1.600000e+05
-3.039924e+05 -2.775377e+05 -1.600000e+05
-3.035529e+05 -2.439984e+05 -1.600000e+05
-3.163362e+05 -2.614791e+05 -1.389361e+05
3.262578e+05 3.787252e+05 -8.672984e+04
3.469428e+05 3.755770e+05 -1.061601e+05
-3.593271e+04 3.331281e+05 -1.155525e+05
-1.166667e+05 -2.678710e+05 -1.200000e+05
-1.000000e+05 -2.356282e+05 -1.200000e+05
-6.785710e+04 3.358941e+05 -7.172171e+04
2.032595e+05 5.000000e+04 -1.200000e+05
2.232034e+05 7.951566e+04 -1.397213e+05
2.233190e+05 4.706524e+04 -1.408580e+05
1.905129e+05 6.309421e+04 -1.405858e+05
2.068996e+05 8.695652e+04 -1.600000e+05
1.878933e+05 9.439470e+04 -1.397216e+05
1.738276e+05 6.956522e+04 -1.600000e+05
2.068996e+05 5.217391e+04 -1.600000e+05
1.738276e+05 3.478261e+04 -1.600000e+05
1.836253e+05 2.419331e+04 -1.410810e+05
-2.992655e+05 3.249468e+05 -1.332438e+05
-3.398621e+05 3.390967e+05 -1.089212e+05
-3.222929e+05 3.563342e+05 -1.100655e+05
-3.312037e+05 3.547830e+05 -1.364314e+05
-3.527273e+05 3.767041e+05 -1.082723e+05
-3.723532e+05 3.718054e+05 -1.336968e+05
-3.540388e+05 3.586125e+05 -8.786143e+04
-3.767612e+05 3.487046e+05 -1.099469e+05
2.549990e+05 -3.615251e+05 -1.068395e+05
2.699412e+05 -3.634161e+05 -1.288986e+05
2.768203e+05 -3.824774e+05 -9.512908e+04
2.782176e+05 -4.000000e+05 -1.283450e+05
-3.631394e+05 -4.711432e+04 -7.086801e+04
2.607573e+05 -4.000000e+05 -9.928420e+04
2.782569e+05 -4.000000e+05 -7.878860e+04
2.579962e+05 -3.793488e+05 -8.447198e+04
2.945883e+05 -4.000000e+05 -9.902611e+04
1.043457e+05 -4.000000e+05 -1.313395e+05
1.218925e+05 -4.000000e+05 -1.107028e+05
1.043478e+05 -4.000000e+05 -8.191444e+04
7.151458e+04 -3.800798e+05 -9.860675e+04
6.817304e+04 -4.000000e+05 -1.298395e+05
8.674306e+04 -4.000000e+05 -1.107005e+05
-2.761556e+05 -3.261682e+05 -8.988170e+04
-2.788932e+05 -3.526979e+05 -9.704945e+04
-3.363066e+05 -3.098910e+05 -7.433048e+04
3.251419e+05 -2.765126e+05 -8.596847e+04
3.360678e+05 2.080915e+05 -1.150845e+05
3.685513e+05 1.940603e+05 -1.370754e+05
3.362016e+05 2.260870e+05 -1.600000e+05
3.278602e+05 2.353954e+05 -1.363208e+05
3.041301e+05 2.086957e+05 -1.600000e+05
3.433464e+05 2.085870e+05 -1.392086e+05
3.362016e+05 1.913043e+05 -1.600000e+05
3.161781e+05 1.919635e+05 -1.370911e+05
3.681566e+05 2.086957e+05 -1.600000e+05
-8.333333e+04 -2.678710e+05 -1.200000e+05
-9.189294e+04 -2.524259e+05 -1.401433e+05
1.678879e+05 3.290144e+05 -7.142946e+04
2.320865e+05 3.542019e+05 -7.331743e+04
2.256257e+05 3.325744e+05 -8.669518e+04
2.241427e+05 3.789395e+05 -8.217795e+04
-2.667050e+05 3.384803e+05 -1.254327e+05
-2.567575e+05 3.213764e+05 -1.401709e+05
-2.495432e+05 2.884069e+05 -1.398345e+05
-2.782921e+05 3.040519e+05 -1.600000e+05
-2.260870e+05 3.362016e+05 -1.600000e+05
-2.267583e+05 3.147901e+05 -1.381187e+05
-2.246534e+05 3.573084e+05 -1.385102e+05
-2.440843e+05 3.311728e+05 -1.115493e+05
-2.510845e+05 3.610282e+05 -1.356187e+05
-2.440810e+05 3.035467e+05 -1.600000e+05
-3.686829e+05 -3.543778e+04 -1.212012e+05
-3.480711e+05 -2.913304e+04 -1.380967e+05
-3.341013e+05 -7.590050e+04 -1.166505e+05
-3.237456e+05 -3.742742e+04 -1.389367e+05
-3.681566e+05 -3.478261e+04 -1.600000e+05
-4.000000e+05 -3.469557e+04 -1.283199e+05
-3.362016e+05 -5.217391e+04 -1.600000e+05
-3.533285e+05 -8.954520e+04 -1.389589e+05
-3.164589e+05 -7.686886e+04 -1.430457e+05
-3.800231e+05 -6.258985e+04 -1.118455e+05
-4.000000e+05 -6.817304e+04 -1.298395e+05
-3.806323e+05 -8.714127e+04 -1.261515e+05
-1.201484e+05 -3.558831e+05 -7.401891e+04
-1.523048e+05 -3.558157e+05 -7.230390e+04
-1.335830e+05 -3.349010e+05 -7.310735e+04
-1.499762e+05 -3.000000e+05 -8.326915e+04
-1.639932e+05 -3.234492e+05 -8.964893e+04
-1.263854e+05 -3.332328e+05 -9.032530e+04
-1.166148e+05 -3.000000e+05 -8.327753e+04
-9.998724e+04 -3.242618e+05 -7.133484e+04
-3.346111e+05 -1.567166e+05 -8.373992e+04
-3.000000e+05 -1.771271e+05 -8.396113e+04
-3.682060e+05 -1.462722e+05 -1.073807e+05
-3.779889e+05 -1.535325e+05 -8.193313e+04
-3.494783e+05 -1.290365e+05 -8.621830e+04
-3.000000e+05 -1.414990e+05 -8.388101e+04
-3.211523e+05 -1.190447e+05 -7.511940e+04
-3.366207e+05 -1.390533e+05 -1.161852e+05
1.574511e+05 3.304174e+05 -9.272754e+04
1.499881e+05 3.000000e+05 -8.604035e+04
1.832863e+05 3.000000e+05 -8.327200e+04
-3.111299e+05 -3.056411e+05 -1.600000e+05
-2.783150e+05 -3.040582e+05 -1.600000e+05
-2.875071e+05 -2.882104e+05 -1.425344e+05
3.532921e+05 -3.229224e+05 -1.341708e+05
3.792462e+05 -3.285106e+05 -1.302429e+05
3.341729e+05 -3.308775e+05 -1.245851e+05
3.317230e+05 -3.379784e+05 -8.761139e+04
3.184187e+05 -3.170841e+05 -1.095771e+05
-3.710224e+05 -1.889287e+04 -7.387377e+04
-3.342650e+05 -1.899623e+04 -8.449193e+04
-3.000000e+05 -2.666667e+05 -1.200000e+05
-2.666667e+05 -3.000000e+05 -1.200000e+05
-3.000000e+05 -3.000000e+05 -1.200000e+05
-1.500199e+05 3.000000e+05 -8.329324e+04
-1.167392e+05 3.000000e+05 -8.329156e+04
-1.913043e+05 -2.719249e+05 -1.600000e+05
-1.955028e+05 -2.533827e+05 -1.401581e+05
-1.163532e+05 -2.891809e+05 -1.408800e+05
-1.333333e+05 3.000000e+05 -1.200000e+05
3.764891e+05 -2.953711e+05 -1.135458e+05
3.441759e+05 -2.710687e+05 -1.233767e+05
3.631339e+05 -2.502601e+05 -1.000750e+05
3.689637e+05 -2.665267e+05 -1.251194e+05
3.773827e+05 -2.677073e+05 -8.275623e+04
3.357970e+05 -2.577401e+05 -9.164133e+04
3.362016e+05 1.565217e+05 -1.600000e+05
3.041301e+05 1.391304e+05 -1.600000e+05
3.231262e+05 1.317401e+05 -1.395569e+05
3.154306e+05 1.574487e+05 -1.362685e+05
-3.583562e+05 -3.309931e+05 -6.516351e+04
-3.547227e+05 -3.090221e+05 -9.434982e+04
-3.460886e+05 -2.698477e+05 -7.617337e+04
-3.000000e+05 -3.000000e+05 -8.477016e+04
-3.762514e+05 -1.213445e+05 -7.383178e+04
-3.514532e+05 -1.139176e+05 -7.250819e+04
-3.725134e+05 -8.750805e+04 -7.073321e+04
3.041301e+05 1.043478e+05 -1.600000e+05
2.902605e+05 1.070378e+05 -1.379789e+05
-4.000000e+05 -1.043478e+05 -8.191444e+04
-4.000000e+05 -1.218925e+05 -1.107028e+05
-3.000000e+05 -1.666667e+05 -1.200000e+05
-3.338002e+05 -1.747110e+05 -1.128664e+05
-3.340023e+05 -2.076674e+05 -1.166477e+05
-3.773567e+05 -1.790523e+05 -1.100154e+05
-3.646277e+05 -2.172552e+05 -1.081540e+05
-3.813694e+05 -1.841637e+05 -8.302681e+04
3.000000e+05 6.666667e+04 -1.200000e+05
3.000000e+05 1.000000e+05 -1.200000e+05
3.430932e+05 6.766006e+04 -1.221785e+05
3.221443e+05 7.664251e+04 -1.425819e+05
3.657084e+05 -1.831482e+05 -1.056144e+05
3.485705e+05 -1.774599e+05 -7.041783e+04
3.792009e+05 -1.868822e+05 -8.232744e+04
3.520585e+05 -2.153832e+05 -7.657591e+04
-2.434889e+05 -4.000000e+05 -7.885642e+04
-4.000000e+05 -7.100429e+04 -8.036529e+04
-3.647043e+05 -6.148592e+04 -9.086403e+04
-4.000000e+05 -5.255098e+04 -9.946212e+04
-4.000000e+05 3.505272e+05 -8.132527e+04
-3.791298e+05 3.219418e+05 -8.942379e+04
-4.000000e+05 3.243565e+05 -1.049219e+05
-4.000000e+05 3.501965e+05 -1.288965e+05
-3.787713e+05 3.303610e+05 -1.342773e+05
-3.000000e+05 -2.333333e+05 -1.200000e+05
-3.157867e+05 -2.262601e+05 -1.377360e+05
-2.856292e+05 -2.475933e+05 -1.375260e+05
-3.362016e+05 -2.260870e+05 -1.600000e+05
-3.220200e+05 -2.972328e+05 -1.370882e+05
-3.378229e+05 -2.953198e+05 -1.600000e+05
-3.307828e+05 -3.540605e+05 -1.364479e+05
-3.243565e+05 -4.000000e+05 -1.049219e+05
-3.688221e+05 -3.500681e+05 -1.600000e+05
-3.799835e+05 -3.491799e+05 -1.319838e+05
-3.777861e+05 -3.280736e+05 -9.184864e+04
3.751815e+05 1.336168e+05 -1.039765e+05
3.802133e+05 1.164249e+05 -1.236315e+05
3.691627e+05 1.037456e+05 -9.496149e+04
3.522912e+05 1.115837e+05 -1.138111e+05
3.000000e+05 -6.666667e+04 -1.200000e+05
3.345453e+05 -7.672619e+04 -1.076216e+05
3.263723e+05 1.030471e+05 -1.375253e+05
3.307112e+05 -4.188274e+04 -1.289933e+05
3.000000e+05 -3.333333e+04 -1.200000e+05
1.208981e+05 3.295614e+05 -9.516294e+04
1.009990e+05 3.292041e+05 -7.053900e+04
1.037422e+05 3.528338e+05 -8.123783e+04
1.166101e+05 3.000000e+05 -8.325382e+04
9.270726e+04 3.264649e+05 -9.360781e+04
8.337478e+04 3.000000e+05 -8.611467e+04
6.121851e+04 3.424872e+05 -7.298073e+04
3.000000e+05 1.837778e+05 -8.595623e+04
3.217115e+05 1.548983e+05 -1.018165e+05
3.344391e+05 1.776011e+05 -9.788738e+04
3.287895e+05 1.696432e+05 -7.274053e+04
2.166916e+05 2.677851e+05 -1.200000e+05
3.000000e+05 1.333333e+05 -1.200000e+05
3.331105e+05 1.327133e+05 -1.150217e+05
-1.217391e+05 -2.719249e+05 -1.600000e+05
-1.043478e+05 -2.395442e+05 -1.600000e+05
3.000000e+05 1.506042e+05 -8.594365e+04
3.365786e+05 1.509890e+05 -8.498207e+04
3.000000e+05 1.174198e+05 -8.592366e+04
3.000000e+05 1.666667e+05 -1.200000e+05
3.359018e+05 1.709279e+05 -1.157309e+05
-3.681566e+05 2.782609e+05 -1.600000e+05
-3.362016e+05 2.608696e+05 -1.600000e+05
-3.673074e+05 2.643274e+05 -1.288309e+05
-3.659299e+05 2.490781e+05 -1.346750e+05
-1.695534e+05 1.357959e+05 -1.200000e+05
-1.886319e+05 1.296265e+05 -1.402268e+05
-1.722842e+05 1.404513e+05 -1.600000e+05
-1.542263e+05 1.143737e+05 -1.367396e+05
-4.000000e+05 2.782143e+05 -1.283436e+05
-4.000000e+05 2.608696e+05 -1.600000e+05
-4.000000e+05 2.434775e+05 -1.283328e+05
-3.701471e+05 2.514317e+05 -1.004025e+05
-3.320316e+05 2.685599e+05 -1.229134e+05
-3.386499e+05 2.422523e+05 -1.119362e+05
-3.608477e+05 2.256205e+05 -1.386072e+05
-2.723131e+05 3.432662e+05 -7.392162e+04
-4.000000e+05 2.434889e+05 -7.885642e+04
-3.464665e+05 2.678316e+05 -7.312708e+04
-3.282059e+05 2.513063e+05 -9.267304e+04
-3.476234e+05 2.832669e+05 -9.379917e+04
-3.803174e+05 2.690836e+05 -8.086857e+04
-3.402895e+05 7.389033e+04 -1.208629e+05
-3.303506e+05 1.020195e+05 -1.345526e+05
-3.159621e+05 8.362069e+04 -1.393302e+05
-3.681566e+05 1.043478e+05 -1.600000e+05
-3.585543e+05 8.757860e+04 -1.389333e+05
-3.362016e+05 8.695652e+04 -1.600000e+05
3.832911e+05 2.968004e+03 -6.999708e+04
4.000000e+05 -2.655909e+01 -7.886343e+04
3.691015e+05 2.549241e+04 -7.820993e+04
4.000000e+05 3.490296e+04 -7.889057e+04
3.378260e+05 -1.836047e+03 -7.503968e+04
4.000000e+05 -2.434889e+05 -7.885642e+04
3.797653e+05 -2.191658e+05 -8.620880e+04
3.539577e+05 -2.444577e+05 -8.109538e+04
3.298314e+05 -2.385772e+05 -1.127947e+05
3.659868e+05 -2.184948e+05 -1.063525e+05
3.290552e+05 -2.271398e+05 -8.814079e+04
-1.581177e+05 2.067783e+05 -1.600000e+05
-1.217391e+05 2.068996e+05 -1.600000e+05
-1.462677e+05 2.215562e+05 -1.405466e+05
-1.283569e+05 1.876353e+05 -1.398899e+05
4.000000e+05 5.255098e+04 -9.946212e+04
-1.527779e+05 1.499367e+05 -1.438162e+05
-1.899908e+05 1.662932e+05 -1.394599e+05
3.364638e+05 1.937533e+04 -8.350583e+04
2.198726e+05 3.712756e+05 -1.108021e+05
2.476541e+05 3.701718e+05 -1.061304e+05
2.514777e+05 3.317046e+05 -8.798892e+04
2.638403e+05 3.794969e+05 -8.421205e+04
3.505277e+05 -4.000000e+05 -8.131819e+04
4.000000e+05 -3.505272e+05 -8.132527e+04
3.757607e+05 -3.746051e+05 -7.639562e+04
3.793140e+05 -3.244353e+05 -8.713168e+04
3.732751e+05 -1.462263e+05 -1.043119e+05
3.281685e+05 -1.527154e+05 -1.125923e+05
3.555375e+05 8.759486e+04 -7.330741e+04
3.793923e+05 8.698011e+04 -7.407004e+04
4.000000e+05 1.043478e+05 -8.191444e+04
4.000000e+05 8.674306e+04 -1.107005e+05
3.674316e+05 8.022251e+04 -1.089704e+05
3.606710e+05 5.555707e+04 -7.554768e+04
3.293339e+05 -1.980132e+05 -8.920431e+04
-3.000000e+05 1.426288e+05 -8.383372e+04
-3.000000e+05 3.737808e+04 -8.404538e+04
-3.000000e+05 7.265549e+04 -8.395592e+04
-3.000000e+05 6.666667e+04 -1.200000e+05
3.000000e+05 2.529144e+05 -8.582382e+04
3.000000e+05 2.171651e+05 -8.596990e+04
3.285599e+05 2.002712e+05 -7.251982e+04
3.486107e+05 2.717368e+05 -7.415093e+04
-1.357700e+05 1.673367e+05 -1.200000e+05
3.077994e+05 -3.372990e+05 -1.146846e+05
-1.666667e+04 -2.032595e+05 -1.200000e+05
-5.000000e+04 -2.032595e+05 -1.200000e+05
-3.333333e+04 -1.707417e+05 -1.200000e+05
-2.454693e+04 -1.842966e+05 -1.395608e+05
1.166667e+05 2.678710e+05 -1.200000e+05
1.266143e+05 2.531719e+05 -1.392515e+05
1.468861e+05 2.873594e+05 -1.394947e+05
3.000000e+05 -3.000000e+05 -8.495216e+04
1.947951e+05 -3.293734e+05 -9.056746e+04
2.055786e+05 -3.526835e+05 -8.598289e+04
1.876248e+05 -3.524675e+05 -7.333211e+04
2.191741e+05 -3.712512e+05 -1.089046e+05
2.401431e+05 -3.419276e+05 -7.611501e+04
2.290885e+05 -3.273956e+05 -8.918546e+04
1.901796e+05 -3.806472e+05 -8.261454e+04
4.000000e+05 -9.262680e-02 -1.280849e+05
4.000000e+05 -3.478257e+04 -1.280850e+05
3.681566e+05 -3.478261e+04 -1.600000e+05
3.362016e+05 -1.739130e+04 -1.600000e+05
3.409571e+05 -1.040866e+04 -1.095925e+05
3.225132e+05 -9.466482e+03 -1.389363e+05
3.571062e+05 1.784162e+04 -1.390859e+05
-4.000000e+05 2.946250e+05 -9.901240e+04
-3.746843e+05 3.009386e+05 -1.051552e+05
-3.691820e+05 2.960899e+05 -7.168998e+04
-4.000000e+05 3.140961e+05 -7.845318e+04
-1.040158e+05 1.038876e+05 -1.200000e+05
-8.370551e+04 7.792756e+04 -1.426682e+05
3.744845e+05 -8.504371e+04 -1.072511e+05
3.681566e+05 -2.782609e+05 -1.600000e+05
3.362016e+05 -2.608696e+05 -1.600000e+05
3.622858e+05 -2.470916e+05 -1.314283e+05
-3.681566e+05 1.739130e+05 -1.600000e+05
-3.362016e+05 1.565217e+05 -1.600000e+05
-3.362016e+05 1.913043e+05 -1.600000e+05
4.000000e+05 -2.608696e+05 -1.600000e+05
4.000000e+05 -2.782143e+05 -1.283436e+05
4.000000e+05 -2.434775e+05 -1.283328e+05
3.572537e+05 -2.276895e+05 -1.388697e+05
4.000000e+05 -3.652174e+05 -1.600000e+05
4.000000e+05 -3.501965e+05 -1.288965e+05
3.688242e+05 -3.500640e+05 -1.600000e+05
-3.373571e+05 -2.370947e+05 -1.146821e+05
-3.212142e+05 2.353289e+05 -1.375721e+05
4.000000e+05 -3.304348e+05 -1.600000e+05
0.000000e+00 -1.738276e+05 -1.600000e+05
1.739130e+04 -1.402315e+05 -1.600000e+05
-1.739130e+04 -1.402315e+05 -1.600000e+05
2.328923e+02 -1.516741e+05 -1.385880e+05
-3.000000e+05 -2.000000e+05 -1.200000e+05
-3.243379e+05 -2.289507e+05 -9.341133e+04
4.000000e+05 -2.783777e+05 -7.878626e+04
4.000000e+05 -3.140961e+05 -7.845318e+04
4.000000e+05 -2.946250e+05 -9.901240e+04
-2.512900e+05 -3.666929e+05 -1.091936e+05
2.215888e+05 -3.764167e+05 -8.542567e+04
-2.608696e+05 3.362016e+05 -1.600000e+05
-2.434783e+05 4.000000e+05 -1.280850e+05
-2.176997e+05 3.687819e+05 -1.045564e+05
-2.608696e+05 4.000000e+05 -1.600000e+05
6.984919e-10 -1.707417e+05 -1.200000e+05
-2.970628e+03 -2.109943e+05 -1.393211e+05
-2.782609e+05 3.681566e+05 -1.600000e+05
-5.001457e+04 3.000000e+05 -8.328945e+04
-3.477740e+05 -2.336251e+05 -7.738749e+04
-4.525383e+04 -1.573702e+05 -1.390893e+05
-3.000000e+05 -2.521358e+05 -8.616184e+04
-3.350722e+05 3.885278e+03 -1.097407e+05
-3.698652e+05 -1.514522e+04 -1.039508e+05
2.608696e+05 -3.362016e+05 -1.600000e+05
2.783186e+05 -3.040552e+05 -1.600000e+05
2.440764e+05 -3.035382e+05 -1.600000e+05
2.786424e+05 -3.241317e+05 -1.291620e+05
-3.753421e+05 -1.328565e+04 -1.382935e+05
-3.567053e+05 2.019063e+04 -1.387623e+05
-3.681566e+05 -2.328306e-10 -1.600000e+05
-3.362016e+05 -1.739130e+04 -1.600000e+05
-3.362016e+05 1.739130e+04 -1.600000e+05
-3.247186e+05 -1.336629e+03 -1.370265e+05
-3.000000e+05 -3.333333e+04 -1.200000e+05
3.368438e+05 3.308135e+05 -1.241722e+05
2.953940e+05 3.798756e+05 -8.116227e+04
3.140961e+05 4.000000e+05 -7.845318e+04
2.946250e+05 4.000000e+05 -9.901240e+04
2.783777e+05 4.000000e+05 -7.878626e+04
-2.915182e+05 -3.794334e+05 -1.123217e+05
-2.704982e+05 -3.661461e+05 -1.281402e+05
-2.750707e+05 -3.267194e+05 -1.350808e+05
1.913043e+05 3.362016e+05 -1.600000e+05
1.930142e+05 3.142204e+05 -1.368911e+05
2.086957e+05 3.041301e+05 -1.600000e+05
2.083371e+05 3.389308e+05 -1.386836e+05
2.102408e+05 3.362911e+05 -1.154099e+05
1.772410e+05 3.355218e+05 -1.397028e+05
1.923862e+05 3.662077e+05 -1.363302e+05
2.277380e+05 3.587784e+05 -1.386324e+05
2.331527e+05 3.193952e+05 -1.364033e+05
2.363113e+05 3.369553e+05 -1.175311e+05
-2.782609e+05 -3.681566e+05 -1.600000e+05
-2.608696e+05 -3.362016e+05 -1.600000e+05
-2.518079e+05 -3.601170e+05 -1.363143e+05
-2.608696e+05 -4.000000e+05 -1.600000e+05
-2.782143e+05 -4.000000e+05 -1.283436e+05
-2.434775e+05 -4.000000e+05 -1.283328e+05
2.434783e+05 -4.000000e+05 -1.280850e+05
2.086957e+05 -4.000000e+05 -1.280849e+05
2.260443e+05 -4.000000e+05 -9.927425e+04
-3.000000e+05 2.000000e+05 -1.200000e+05
-3.000000e+05 2.333333e+05 -1.200000e+05
-2.847117e+05 2.100296e+05 -1.404363e+05
-4.000000e+05 3.680197e+05 -1.051716e+05
-3.742802e+05 3.722268e+05 -7.599621e+04
2.260870e+05 -3.362016e+05 -1.600000e+05
2.250990e+05 -3.579192e+05 -1.385666e+05
2.340993e+05 -3.215902e+05 -1.359762e+05
-3.505277e+05 4.000000e+05 -8.131819e+04
-3.332349e+05 3.628973e+05 -6.953782e+04
-3.274319e+05 3.787235e+05 -8.884811e+04
-3.000000e+05 2.129565e+05 -8.376949e+04
-3.000000e+05 1.776184e+05 -8.379031e+04
-5.217391e+04 -2.068996e+05 -1.600000e+05
-3.478261e+04 -1.738276e+05 -1.600000e+05
-6.956522e+04 -1.738276e+05 -1.600000e+05
-6.248953e+04 -1.903911e+05 -1.400155e+05
-3.241054e+05 2.054218e+05 -1.380056e+05
-4.000000e+05 -2.608696e+05 -1.600000e+05
-4.000000e+05 -2.782176e+05 -1.283450e+05
-3.681566e+05 -2.782609e+05 -1.600000e+05
-3.613538e+05 -2.505791e+05 -1.315295e+05
-3.466543e+04 -2.181602e+05 -1.404224e+05
-3.558262e+05 -2.297935e+05 -1.387320e+05
-1.113036e+05 -3.335707e+05 -1.207207e+05
-1.130399e+05 -3.231912e+05 -1.421775e+05
-1.226624e+05 -3.669132e+05 -1.376710e+05
-1.381005e+05 -3.290059e+05 -1.375651e+05
-1.333333e+05 -3.000000e+05 -1.200000e+05
-1.391304e+05 -3.041301e+05 -1.600000e+05
-1.461696e+05 -3.327904e+05 -1.122145e+05
-1.565228e+05 -3.631847e+05 -1.388805e+05
-1.565217e+05 -3.362016e+05 -1.600000e+05
3.612913e+05 8.616436e+04 -1.367144e+05
3.560424e+05 1.198592e+05 -1.390663e+05
3.393707e+05 1.200982e+05 -8.860822e+04
3.340923e+05 9.909111e+04 -1.000678e+05
3.500648e+05 3.688250e+05 -1.600000e+05
3.572063e+05 3.261870e+05 -1.370374e+05
3.732521e+05 3.743505e+05 -1.326627e+05
3.501965e+05 4.000000e+05 -1.288965e+05
3.243565e+05 4.000000e+05 -1.049219e+05
3.652174e+05 4.000000e+05 -1.600000e+05
2.434783e+05 -3.681566e+05 -1.600000e+05
2.086957e+05 -3.041301e+05 -1.600000e+05
3.304348e+05 4.000000e+05 -1.600000e+05
1.574620e+05 -3.736425e+05 -8.257754e+04
1.239203e+05 -3.791949e+05 -7.279705e+04
1.293872e+05 -3.539365e+05 -7.349330e+04
1.376571e+05 -4.000000e+05 -8.037280e+04
1.497014e+05 -3.720707e+05 -1.054490e+05
7.842308e+04 3.654356e+05 -1.078838e+05
8.070185e+04 3.803832e+05 -8.281993e+04
1.103594e+05 3.288344e+05 -1.111813e+05
1.147762e+05 3.687440e+05 -1.028752e+05
1.201940e+05 3.785880e+05 -8.424829e+04
2.693215e+05 3.651160e+05 -1.219452e+05
2.640179e+05 3.256754e+05 -1.332373e+05
-3.378557e+05 -3.232122e+05 -1.231080e+05
-3.045138e+05 -3.246566e+05 -1.354513e+05
-3.238850e+05 2.788280e+05 -8.824390e+04
-7.514226e+04 3.325278e+05 -1.182302e+05
-8.335315e+04 3.000000e+05 -8.338916e+04
-2.356282e+05 6.666667e+04 -1.200000e+05
-2.177089e+05 7.605615e+04 -1.375699e+05
-2.527319e+05 5.891821e+04 -1.401266e+05
-2.549722e+05 9.601381e+04 -1.403912e+05
-2.678710e+05 8.333333e+04 -1.200000e+05
-2.826208e+05 7.227413e+04 -1.405711e+05
-2.719249e+05 8.695652e+04 -1.600000e+05
-2.395442e+05 6.956522e+04 -1.600000e+05
1.333333e+05 -3.000000e+05 -1.200000e+05
1.500160e+05 -3.000000e+05 -8.329323e+04
1.166851e+05 -3.000000e+05 -8.329322e+04
1.666667e+05 -3.000000e+05 -1.200000e+05
-4.000000e+05 -2.782569e+05 -7.878860e+04
-3.801072e+05 -2.580205e+05 -8.194563e+04
-3.786804e+05 -2.927158e+05 -8.549658e+04
-4.000000e+05 -2.945883e+05 -9.902611e+04
-4.000000e+05 -2.607573e+05 -9.928420e+04
-8.333333e+04 2.032595e+05 -1.200000e+05
-6.666667e+04 1.707417e+05 -1.200000e+05
-9.240686e+04 1.879445e+05 -1.395075e+05
-6.015780e+04 1.894764e+05 -1.398766e+05
-5.217391e+04 2.068996e+05 -1.600000e+05
-3.478261e+04 1.738276e+05 -1.600000e+05
-2.462946e+04 1.844445e+05 -1.401020e+05
-3.415773e+04 2.210329e+05 -1.389349e+05
-8.695652e+04 2.068996e+05 -1.600000e+05
-6.956522e+04 1.738276e+05 -1.600000e+05
3.681566e+05 -2.434783e+05 -1.600000e+05
-2.086956e+05 -4.000000e+05 -1.280850e+05
-1.499481e+05 -3.678492e+05 -1.067177e+05
-1.739130e+05 -4.000000e+05 -1.280850e+05
-1.014285e+05 6.872078e+04 -1.200000e+05
-1.049358e+05 3.333333e+04 -1.200000e+05
-9.281672e+04 4.241584e+04 -1.351910e+05
-1.666667e+04 -1.380126e+05 -1.200000e+05
-5.217391e+04 -1.402315e+05 -1.600000e+05
-2.538292e+04 -1.264180e+05 -1.410184e+05
-6.482558e+04 -1.288556e+05 -1.395949e+05
-3.650838e+04 -1.045550e+05 -1.600000e+05
-8.944324e+04 -1.398423e+05 -1.600000e+05
-7.202360e+04 -1.049081e+05 -1.600000e+05
-9.717694e+04 -1.222894e+05 -1.388982e+05
-8.333333e+04 -1.380126e+05 -1.200000e+05
-6.860613e+04 -1.033445e+05 -1.200000e+05
3.362016e+05 -2.260870e+05 -1.600000e+05
-2.463658e+05 3.660828e+05 -9.950303e+04
-2.574255e+05 3.727610e+05 -7.594860e+04
-1.227056e+05 3.787655e+05 -7.154868e+04
-1.230100e+05 3.532281e+05 -7.256050e+04
-1.376571e+05 4.000000e+05 -8.037280e+04
8.773983e+04 -3.608001e+05 -7.184877e+04
5.404569e+04 -3.539007e+05 -7.333544e+04
5.007046e+04 -3.000000e+05 -8.338765e+04
3.490296e+04 -4.000000e+05 -7.889057e+04
-1.670464e+04 -3.723948e+05 -7.765124e+04
2.119905e+05 -3.293066e+05 -1.117088e+05
1.892308e+05 -3.756589e+05 -1.120792e+05
3.000000e+05 -3.000000e+05 -1.200000e+05
3.269858e+05 -3.039293e+05 -1.344659e+05
1.413249e+05 3.373432e+05 -1.203126e+05
1.565245e+05 3.699009e+05 -1.389790e+05
1.739130e+05 3.681566e+05 -1.600000e+05
1.565217e+05 3.362016e+05 -1.600000e+05
2.168706e+05 3.000000e+05 -8.338121e+04
1.545792e+05 3.186341e+05 -1.392854e+05
1.739130e+05 3.041301e+05 -1.600000e+05
-4.000000e+05 9.262680e-02 -1.280849e+05
-4.000000e+05 1.739130e+04 -1.600000e+05
3.506790e+05 3.989326e+04 -9.954368e+04
3.285874e+05 7.164863e+04 -9.648133e+04
3.315700e+05 3.164535e+04 -1.141163e+05
3.731482e+05 6.134264e+04 -1.029368e+05
3.217529e+05 6.070648e+04 -7.696031e+04
3.767123e+05 4.977010e+04 -1.245563e+05
3.591659e+05 3.276433e+05 -7.492319e+04
4.000000e+05 3.680273e+05 -1.051488e+05
3.795622e+05 3.303552e+05 -8.873753e+04
4.000000e+05 -2.261070e+05 -9.928569e+04
4.000000e+05 -2.086956e+05 -1.280850e+05
4.000000e+05 3.243637e+05 -1.049024e+05
3.705281e+05 3.203533e+05 -1.105524e+05
4.000000e+05 3.502330e+05 -1.288831e+05
3.563795e+05 1.555055e+05 -7.276706e+04
3.716619e+05 1.579453e+05 -1.098917e+05
2.969455e+05 -3.583921e+05 -1.354118e+05
-3.680273e+05 4.000000e+05 -1.051488e+05
-3.243637e+05 4.000000e+05 -1.049024e+05
-9.213892e+04 -3.673154e+05 -7.878447e+04
-9.597364e+04 -3.290661e+05 -9.711638e+04
-8.337721e+04 -3.000000e+05 -8.611476e+04
-2.297599e+05 3.507667e+05 -7.442660e+04
-2.196375e+05 3.808134e+05 -8.528314e+04
-1.834238e+05 3.730225e+05 -1.056314e+05
-2.117108e+05 3.305355e+05 -1.083620e+05
-2.311673e+05 3.281324e+05 -9.150690e+04
-2.434429e+05 4.000000e+05 -7.886194e+04
-3.244399e+05 -5.760197e+04 -7.454715e+04
-3.309748e+05 -8.818710e+04 -6.908665e+04
-3.488108e+05 -6.813939e+04 -7.286586e+04
2.608696e+05 3.362016e+05 -1.600000e+05
2.782609e+05 3.681566e+05 -1.600000e+05
2.516214e+05 3.573209e+05 -1.369814e+05
4.000000e+05 -3.125173e+05 -1.301628e+05
3.659292e+05 -2.918947e+05 -1.374439e+05
2.782143e+05 4.000000e+05 -1.283436e+05
2.608696e+05 4.000000e+05 -1.600000e+05
2.434775e+05 4.000000e+05 -1.283328e+05
-4.000000e+05 -3.490296e+04 -7.889057e+04
-4.000000e+05 -1.739649e+04 -9.927617e+04
-3.566732e+05 3.315981e+05 -1.384142e+05
-3.502330e+05 4.000000e+05 -1.288831e+05
-3.304924e+05 3.796102e+05 -1.313111e+05
3.041301e+05 -3.478261e+04 -1.600000e+05
-3.383812e+05 2.966534e+05 -1.083372e+05
-3.281603e+05 3.093461e+05 -1.374219e+05
-3.536949e+05 3.352394e+05 -6.797096e+04
-4.000000e+05 -3.652174e+05 -1.600000e+05
-4.000000e+05 -3.502330e+05 -1.288831e+05
2.214501e+05 1.109134e+05 -1.399124e+05
-4.000000e+05 -3.243637e+05 -1.049024e+05
3.275952e+05 -1.132801e+05 -1.078695e+05
2.068171e+05 -1.581054e+05 -1.600000e+05
1.888170e+05 -1.640517e+05 -1.401840e+05
2.213710e+05 -1.456013e+05 -1.397731e+05
1.693969e+05 -1.358438e+05 -1.200000e+05
1.723503e+05 -1.404896e+05 -1.600000e+05
1.538763e+05 -1.138649e+05 -1.365500e+05
2.032595e+05 -1.166667e+05 -1.200000e+05
3.681566e+05 1.739130e+05 -1.600000e+05
3.352355e+05 1.791015e+05 -1.395183e+05
3.041301e+05 1.739130e+05 -1.600000e+05
3.671343e+05 1.558048e+05 -1.342166e+05
3.737421e+05 1.843302e+05 -1.092982e+05
2.067812e+05 1.581076e+05 -1.600000e+05
1.722540e+05 1.406055e+05 -1.600000e+05
2.068996e+05 1.217391e+05 -1.600000e+05
1.878436e+05 1.286582e+05 -1.398186e+05
1.561033e+05 -4.000000e+05 -9.947019e+04
1.736685e+05 -4.000000e+05 -7.888604e+04
3.361297e+05 2.960439e+05 -1.600000e+05
3.056438e+05 3.111328e+05 -1.600000e+05
3.040554e+05 2.783185e+05 -1.600000e+05
3.194875e+05 3.019328e+05 -1.380983e+05
-3.000000e+05 -6.666667e+04 -1.200000e+05
-2.889945e+05 -4.597707e+04 -1.387736e+05
-2.844586e+05 -7.616262e+04 -1.398142e+05
-3.207242e+05 -1.123871e+05 -1.370312e+05
-3.041301e+05 -6.956522e+04 -1.600000e+05
-3.191552e+05 -1.924082e+05 -1.352226e+05
-2.032595e+05 8.333333e+04 -1.200000e+05
-1.707417e+05 6.666667e+04 -1.200000e+05
-2.032595e+05 5.000000e+04 -1.200000e+05
-1.870585e+05 5.622081e+04 -1.388692e+05
-1.978658e+05 1.980874e+05 -1.200000e+05
-1.639737e+05 1.886022e+05 -1.402205e+05
-1.707431e+05 1.715793e+05 -1.200000e+05
-3.000000e+05 3.000000e+05 -1.200000e+05
-2.069497e+05 1.580081e+05 -1.600000e+05
-2.395442e+05 1.391304e+05 -1.600000e+05
-2.068996e+05 1.217391e+05 -1.600000e+05
-2.214116e+05 1.455355e+05 -1.398072e+05
-2.389559e+05 2.099792e+05 -1.600000e+05
-2.016184e+05 2.015286e+05 -1.600000e+05
-2.091376e+05 2.390795e+05 -1.600000e+05
-2.150307e+05 2.199044e+05 -1.422189e+05
-3.630852e+05 -2.947825e+05 -1.396683e+05
-3.780299e+05 -2.214823e+05 -8.168989e+04
-1.721062e+05 1.058906e+05 -1.600000e+05
3.000000e+05 -2.666667e+05 -1.200000e+05
3.166057e+05 -2.575323e+05 -1.387318e+05
3.039911e+05 -2.775321e+05 -1.600000e+05
2.868666e+05 -2.478473e+05 -1.381193e+05
3.148552e+05 -2.269354e+05 -1.377770e+05
3.035370e+05 -2.439911e+05 -1.600000e+05
-3.000000e+05 -4.553558e+04 -8.579556e+04
3.245413e+05 1.001683e+05 -6.921245e+04
3.566332e+05 1.875304e+05 -7.276918e+04
3.777028e+05 2.903835e+05 -1.093009e+05
3.000000e+05 2.333333e+05 -1.200000e+05
-1.754526e+05 1.747151e+05 -1.600000e+05
2.535298e+05 -3.579729e+05 -1.349707e+05
2.454382e+05 -3.298672e+05 -1.137109e+05
2.608696e+05 -4.000000e+05 -1.600000e+05
2.782609e+05 -3.681566e+05 -1.600000e+05
-1.404230e+05 1.722861e+05 -1.600000e+05
-3.829041e+05 1.316860e+04 -8.068962e+04
-3.000000e+05 1.000000e+05 -1.200000e+05
-3.000000e+05 1.076556e+05 -8.388880e+04
-3.212714e+05 1.273275e+05 -1.354903e+05
-3.501965e+05 -4.000000e+05 -1.288965e+05
-1.000000e+05 1.707417e+05 -1.200000e+05
3.027452e+05 1.716633e+04 -1.387122e+05
3.178026e+05 4.644877e+03 -1.057288e+05
3.000000e+05 3.333333e+04 -1.200000e+05
3.000000e+05 2.166876e+04 -8.350450e+04
1.014276e+05 -6.872055e+04 -1.200000e+05
8.176132e+04 -7.579700e+04 -1.416088e+05
1.050118e+05 -7.193059e+04 -1.600000e+05
1.248113e+05 -1.011748e+05 -1.386234e+05
-1.217391e+05 3.362016e+05 -1.600000e+05
-8.695652e+04 3.362016e+05 -1.600000e+05
-1.040101e+05 3.248975e+05 -1.370718e+05
1.400516e+05 -5.239500e+04 -1.600000e+05
1.045284e+05 -3.653090e+04 -1.600000e+05
1.264467e+05 -6.074142e+04 -1.390975e+05
-1.391304e+05 3.681566e+05 -1.600000e+05
-1.217391e+05 4.000000e+05 -1.600000e+05
-1.565217e+05 3.362016e+05 -1.600000e+05
-1.239116e+05 3.162190e+05 -1.368903e+05
-4.000000e+05 2.783777e+05 -7.878626e+04
1.707417e+05 -6.666667e+04 -1.200000e+05
1.707417e+05 -1.000000e+05 -1.200000e+05
1.548794e+05 -7.592928e+04 -1.398748e+05
1.378370e+05 -8.355805e+04 -1.200000e+05
-8.698509e+04 -4.000000e+05 -9.927827e+04
-7.923069e+04 -3.736280e+05 -1.075896e+05
-1.181919e+05 -3.720764e+05 -1.106381e+05
-6.956677e+04 -4.000000e+05 -7.886432e+04
-5.152184e+04 -3.772657e+05 -8.177394e+04
-6.766572e+04 -3.428974e+05 -7.276943e+04
4.000000e+05 -1.565486e+05 -9.927571e+04
1.346492e+05 -1.345454e+05 -1.600000e+05
1.397935e+05 -8.944397e+04 -1.600000e+05
-1.191065e+05 -1.387833e+05 -1.200000e+05
-1.346052e+05 -1.346505e+05 -1.600000e+05
-1.140298e+05 -1.542375e+05 -1.369460e+05
-1.058975e+05 -1.721035e+05 -1.600000e+05
-9.194348e+04 -1.866169e+05 -1.389413e+05
-7.468856e+04 -1.540058e+05 -1.399096e+05
-1.504261e+05 -1.535296e+05 -1.447036e+05
-1.358416e+05 -1.693970e+05 -1.200000e+05
-1.297363e+05 -1.886396e+05 -1.389487e+05
-1.405423e+05 -1.722713e+05 -1.600000e+05
-8.695652e+04 2.719249e+05 -1.600000e+05
-1.108504e+05 2.912030e+05 -1.413730e+05
-8.150999e+04 2.880753e+05 -1.419302e+05
-1.217391e+05 2.719249e+05 -1.600000e+05
-1.290848e+05 2.554200e+05 -1.404664e+05
-1.043478e+05 2.395442e+05 -1.600000e+05
3.362016e+05 2.608696e+05 -1.600000e+05
3.035218e+05 2.440674e+05 -1.600000e+05
2.819232e+05 2.813861e+05 -1.427011e+05
1.666667e+04 1.380126e+05 -1.200000e+05
3.458726e+04 1.545844e+05 -1.410361e+05
1.739130e+04 1.402315e+05 -1.600000e+05
7.586578e+01 1.523296e+05 -1.381456e+05
5.000000e+04 1.380126e+05 -1.200000e+05
6.001897e+04 1.210100e+05 -1.378431e+05
2.418742e+04 1.209865e+05 -1.376048e+05
6.956522e+04 1.738276e+05 -1.600000e+05
5.239457e+04 1.400489e+05 -1.600000e+05
7.480433e+04 1.533141e+05 -1.382794e+05
6.666667e+04 1.707417e+05 -1.200000e+05
-4.000000e+05 -3.126723e+05 -1.301611e+05
-2.719249e+05 -5.217391e+04 -1.600000e+05
-2.532115e+05 -5.649048e+04 -1.384994e+05
1.523952e+05 -2.026607e+05 -1.200000e+05
1.455444e+05 -2.214351e+05 -1.398221e+05
1.285968e+05 -1.878367e+05 -1.398461e+05
1.640523e+05 -1.882351e+05 -1.399705e+05
1.815964e+05 -2.172007e+05 -1.404591e+05
1.580297e+05 -2.069484e+05 -1.600000e+05
2.016386e+05 -2.015772e+05 -1.600000e+05
6.666667e+04 -2.356282e+05 -1.200000e+05
7.792016e+04 -2.219704e+05 -1.401372e+05
9.342384e+04 -2.549533e+05 -1.416625e+05
6.150959e+04 -2.546753e+05 -1.402732e+05
5.000000e+04 -2.032595e+05 -1.200000e+05
3.563657e+04 -2.234097e+05 -1.392513e+05
6.956522e+04 -2.395442e+05 -1.600000e+05
5.217391e+04 -2.068996e+05 -1.600000e+05
1.738276e+05 -3.478261e+04 -1.600000e+05
1.541180e+05 -3.479234e+04 -1.404933e+05
1.882086e+05 -5.799527e+04 -1.387523e+05
1.851959e+05 -2.699848e+04 -1.375068e+05
1.565217e+05 4.000000e+05 -1.600000e+05
1.739130e+05 4.000000e+05 -1.280850e+05
1.391304e+05 4.000000e+05 -1.280850e+05
-2.032595e+05 -1.166667e+05 -1.200000e+05
-2.032595e+05 -8.333333e+04 -1.200000e+05
-1.707390e+05 -1.000178e+05 -1.200000e+05
-1.824760e+05 -8.563152e+04 -1.392723e+05
4.000000e+05 -1.043478e+05 -1.280850e+05
3.333333e+04 1.049358e+05 -1.200000e+05
4.252135e+04 9.102074e+04 -1.376062e+05
3.643424e+04 1.045196e+05 -1.600000e+05
8.355658e+04 1.378391e+05 -1.200000e+05
9.742439e+04 1.230520e+05 -1.389977e+05
6.872326e+04 1.014265e+05 -1.200000e+05
-6.666667e+04 3.000000e+05 -1.200000e+05
2.690028e+05 -2.516963e+05 -1.200000e+05
2.686869e+05 -2.686612e+05 -1.600000e+05
2.546065e+05 -2.329483e+05 -1.418467e+05
2.834492e+05 -2.857655e+05 -1.442453e+05
-2.069555e+05 -1.580129e+05 -1.600000e+05
-1.722874e+05 -1.402878e+05 -1.600000e+05
-2.068996e+05 -1.217391e+05 -1.600000e+05
-1.868685e+05 -1.265149e+05 -1.389859e+05
-2.000000e+05 3.000000e+05 -1.200000e+05
-2.002254e+05 3.199891e+05 -1.379257e+05
-2.333333e+05 3.000000e+05 -1.200000e+05
-2.150008e+05 2.875338e+05 -1.402148e+05
2.086956e+05 4.000000e+05 -1.280850e+05
1.913303e+05 4.000000e+05 -9.927549e+04
-1.634344e+05 3.221862e+05 -1.381749e+05
-1.739130e+05 3.041301e+05 -1.600000e+05
-1.797281e+05 2.865790e+05 -1.418414e+05
-1.468550e+05 2.855875e+05 -1.416729e+05
-1.913043e+05 3.362016e+05 -1.600000e+05
-1.666667e+05 3.000000e+05 -1.200000e+05
7.076409e+04 -1.689796e+04 -1.200000e+05
7.152041e+04 -1.990616e+04 -1.600000e+05
8.320346e+04 -2.660058e+02 -1.392325e+05
9.108732e+04 -4.264433e+04 -1.376870e+05
7.153091e+04 -4.999401e+04 -1.200000e+05
6.697243e+04 -6.709626e+04 -1.600000e+05
1.565486e+05 4.000000e+05 -9.927571e+04
3.478261e+04 3.041301e+05 -1.600000e+05
1.739130e+04 2.719249e+05 -1.600000e+05
3.774304e+04 2.828879e+05 -1.399406e+05
1.748531e+04 3.089714e+05 -1.415114e+05
-5.093170e-11 3.000000e+05 -1.200000e+05
-1.461034e+04 3.133722e+05 -1.386679e+05
4.924647e+03 3.281592e+05 -1.117687e+05
-1.833333e+05 -2.678710e+05 -1.200000e+05
-1.999895e+05 -2.356494e+05 -1.200000e+05
-1.090331e+05 -1.092915e+05 -1.600000e+05
-1.258091e+05 -1.017210e+05 -1.419828e+05
-1.025121e+05 -1.048189e+05 -1.200000e+05
6.666667e+04 3.000000e+05 -1.200000e+05
8.050916e+04 2.881328e+05 -1.403394e+05
5.000000e+04 2.678710e+05 -1.200000e+05
6.069366e+04 2.537547e+05 -1.406609e+05
1.728735e+04 2.479678e+05 -1.402810e+05
1.666667e+04 2.678710e+05 -1.200000e+05
-3.590736e+05 2.936555e+05 -1.391505e+05
-4.000000e+05 3.125173e+05 -1.301628e+05
-4.000000e+05 2.607512e+05 -9.928644e+04
-2.032595e+05 -5.000000e+04 -1.200000e+05
-1.851519e+05 -5.589732e+04 -1.396339e+05
-2.167839e+05 -3.475496e+04 -1.407589e+05
-1.852305e+05 -2.717218e+04 -1.410537e+05
-2.032595e+05 -1.666667e+04 -1.200000e+05
-2.191661e+05 -7.683632e+04 -1.367961e+05
-2.356282e+05 -6.666667e+04 -1.200000e+05
4.000000e+05 1.405259e+05 -1.298366e+05
4.000000e+05 1.565217e+05 -1.600000e+05
4.000000e+05 1.739894e+05 -1.283231e+05
3.681566e+05 1.391304e+05 -1.600000e+05
-2.796287e+05 2.806843e+05 -1.427192e+05
-2.686814e+05 2.686452e+05 -1.600000e+05
-2.270144e+05 2.729494e+05 -1.600000e+05
-2.517645e+05 2.689526e+05 -1.200000e+05
2.678710e+05 -8.333333e+04 -1.200000e+05
2.545756e+05 -6.156412e+04 -1.407680e+05
2.678710e+05 -5.000000e+04 -1.200000e+05
2.863423e+05 -8.051017e+04 -1.381678e+05
3.041301e+05 -6.956522e+04 -1.600000e+05
2.719249e+05 -5.217391e+04 -1.600000e+05
2.769542e+05 -4.394578e+04 -1.403086e+05
-5.000000e+04 2.678710e+05 -1.200000e+05
-4.963462e+04 2.893076e+05 -1.409278e+05
-7.894620e+04 3.198269e+05 -1.394928e+05
-6.956522e+04 3.041301e+05 -1.600000e+05
-5.217391e+04 2.719249e+05 -1.600000e+05
8.695652e+04 3.362016e+05 -1.600000e+05
5.217473e+04 3.578955e+05 -1.390309e+05
5.217391e+04 3.362016e+05 -1.600000e+05
8.459382e+04 3.169918e+05 -1.382326e+05
6.956517e+04 4.000000e+05 -1.280850e+05
8.697766e+04 3.581055e+05 -1.391197e+05
5.217391e+04 4.000000e+05 -1.600000e+05
3.478261e+04 3.681566e+05 -1.600000e+05
6.956522e+04 3.681566e+05 -1.600000e+05
4.642010e+04 3.708854e+05 -1.074608e+05
3.218715e+04 3.431666e+05 -7.347079e+04
4.536627e+04 3.792859e+05 -8.460160e+04
1.321152e+04 3.781269e+05 -8.474907e+04
1.742320e+04 4.000000e+05 -9.927559e+04
5.220474e+04 4.000000e+05 -9.927827e+04
3.481145e+04 4.000000e+05 -7.886354e+04
6.956677e+04 4.000000e+05 -7.886432e+04
-3.362016e+05 -8.695652e+04 -1.600000e+05
-3.362016e+05 -1.217391e+05 -1.600000e+05
-3.572627e+05 -1.189378e+05 -1.354148e+05
-3.681566e+05 -1.043478e+05 -1.600000e+05
-3.681566e+05 -6.956522e+04 -1.600000e+05
1.707417e+05 1.000000e+05 -1.200000e+05
1.558483e+05 7.788376e+04 -1.380979e+05
1.534619e+05 1.111547e+05 -1.381228e+05
1.673258e+05 1.357752e+05 -1.200000e+05
1.507649e+05 1.536758e+05 -1.446214e+05
1.388648e+05 1.163560e+05 -1.200000e+05
1.345503e+05 1.346733e+05 -1.600000e+05
1.247908e+05 1.015719e+05 -1.416919e+05
2.678710e+05 1.666667e+04 -1.200000e+05
2.719249e+05 1.739130e+04 -1.600000e+05
2.444055e+05 1.886634e+04 -1.400693e+05
2.823774e+05 3.482447e+04 -1.390450e+05
2.678710e+05 5.000000e+04 -1.200000e+05
2.356282e+05 3.333333e+04 -1.200000e+05
2.509551e+05 5.152337e+04 -1.397684e+05
2.395442e+05 3.478261e+04 -1.600000e+05
2.068996e+05 1.739130e+04 -1.600000e+05
-1.058741e+05 1.720765e+05 -1.600000e+05
2.356493e+05 -1.999894e+05 -1.200000e+05
2.344454e+05 -1.677972e+05 -1.200000e+05
2.514965e+05 -1.935939e+05 -1.390579e+05
2.187696e+05 -1.861343e+05 -1.404673e+05
2.196922e+05 -2.153686e+05 -1.422176e+05
2.389380e+05 -2.098709e+05 -1.600000e+05
-2.166667e+05 -2.678710e+05 -1.200000e+05
2.720042e+05 -2.275154e+05 -1.600000e+05
-3.382852e+04 3.629223e+04 -1.200000e+05
1.718808e+02 3.768899e+04 -1.200000e+05
1.719833e+00 3.550959e+04 -1.600000e+05
1.973497e+02 5.957020e+04 -1.397196e+05
-7.318652e+04 -3.349156e+05 -1.176329e+05
-8.800956e+04 -3.592050e+05 -1.388753e+05
-1.191642e+05 -3.810734e+05 -8.293511e+04
-4.000000e+05 1.739130e+05 -1.280850e+05
-4.000000e+05 1.565217e+05 -1.600000e+05
-4.000000e+05 1.391304e+05 -1.280850e+05
-3.611794e+05 1.270259e+05 -1.402582e+05
-2.678710e+05 1.666667e+04 -1.200000e+05
-2.356282e+05 -2.328306e-10 -1.200000e+05
-2.634746e+05 1.089198e+03 -1.395771e+05
-2.364159e+05 1.616203e+04 -1.389152e+05
-2.719249e+05 1.739130e+04 -1.600000e+05
-2.752544e+05 3.906050e+04 -1.404882e+05
-2.395442e+05 3.478261e+04 -1.600000e+05
-2.068996e+05 1.739130e+04 -1.600000e+05
-2.170629e+05 3.591787e+04 -1.395671e+05
1.707417e+05 3.333333e+04 -1.200000e+05
1.570920e+05 4.535056e+04 -1.403970e+05
1.524451e+05 -9.252872e+01 -1.391984e+05
-3.481145e+04 -4.000000e+05 -7.886354e+04
1.380126e+05 -1.666667e+04 -1.200000e+05
1.402315e+05 -1.739130e+04 -1.600000e+05
1.268868e+05 1.455745e+04 -1.389654e+05
1.707417e+05 -3.333333e+04 -1.200000e+05
1.402315e+05 1.739130e+04 -1.600000e+05
1.380126e+05 1.666667e+04 -1.200000e+05
-1.707417e+05 -8.149073e-10 -1.200000e+05
-1.738276e+05 -2.328306e-10 -1.600000e+05
-1.835884e+05 2.613655e+04 -1.399191e+05
-1.544325e+05 -1.628269e+03 -1.370209e+05
1.990620e+04 7.150684e+04 -1.600000e+05
4.144918e+04 4.128015e+04 -1.600000e+05
-1.707417e+05 3.333333e+04 -1.200000e+05
-1.523505e+05 3.572834e+04 -1.387081e+05
-1.707417e+05 -3.333333e+04 -1.200000e+05
-1.380126e+05 -1.666667e+04 -1.200000e+05
-1.579512e+05 -4.577390e+04 -1.391547e+05
-1.402315e+05 -1.739130e+04 -1.600000e+05
-1.279925e+05 -2.370233e+04 -1.403155e+05
-1.738276e+05 -3.478261e+04 -1.600000e+05
-2.356282e+05 -1.333333e+05 -1.200000e+05
-2.478980e+05 -1.261857e+05 -1.409912e+05
-2.226845e+05 -1.526927e+05 -1.386494e+05
-2.395442e+05 -1.391304e+05 -1.600000e+05
-2.026604e+05 -1.523941e+05 -1.200000e+05
-1.873166e+05 -1.639739e+05 -1.401574e+05
-1.999896e+05 2.356494e+05 -1.200000e+05
-1.938164e+05 2.518565e+05 -1.390821e+05
-2.319824e+05 2.568730e+05 -1.413989e+05
-1.851342e+05 2.191031e+05 -1.406714e+05
-2.191244e+05 1.845182e+05 -1.402669e+05
-2.356194e+05 2.000184e+05 -1.200000e+05
-2.566014e+05 2.332969e+05 -1.425677e+05
-2.332829e+05 2.346082e+05 -1.200000e+05
-1.666667e+04 7.133223e+04 -1.200000e+05
-5.226908e+04 7.188379e+04 -1.200000e+05
-4.139530e+04 4.128208e+04 -1.600000e+05
-2.328306e-10 2.395442e+05 -1.600000e+05
3.601121e+02 2.129965e+05 -1.397027e+05
3.502385e+04 2.178083e+05 -1.405985e+05
5.217391e+04 2.719249e+05 -1.600000e+05
3.478261e+04 2.395442e+05 -1.600000e+05
3.333333e+04 2.356282e+05 -1.200000e+05
2.356282e+05 -3.333333e+04 -1.200000e+05
2.218403e+05 -3.590586e+04 -1.392607e+05
2.525854e+05 -2.516988e+04 -1.400305e+05
2.719249e+05 -1.739130e+04 -1.600000e+05
2.602117e+05 1.172752e+03 -1.404146e+05
2.395442e+05 0.000000e+00 -1.600000e+05
2.395442e+05 -3.478261e+04 -1.600000e+05
-5.000000e+04 -2.678710e+05 -1.200000e+05
-5.775842e+04 -2.530759e+05 -1.393395e+05
-1.740089e+04 -2.501268e+05 -1.390884e+05
-4.596114e+04 -2.878879e+05 -1.401622e+05
-5.217391e+04 -2.719249e+05 -1.600000e+05
-1.666667e+04 -2.678710e+05 -1.200000e+05
-8.158380e+03 -2.854068e+05 -1.412794e+05
-3.478261e+04 -2.395442e+05 -1.600000e+05
-4.000000e+05 -1.912075e+05 -9.927319e+04
-4.000000e+05 -2.086957e+05 -1.280849e+05
-3.607874e+05 -1.904216e+05 -1.378878e+05
-4.000000e+05 2.655909e+01 -7.886343e+04
-3.378862e+05 2.955357e+05 -1.600000e+05
-3.039601e+05 2.776001e+05 -1.600000e+05
-4.000000e+05 2.086686e+05 -7.886305e+04
-4.000000e+05 1.913303e+05 -9.927549e+04
-4.000000e+05 2.261070e+05 -9.928569e+04
4.627355e+04 3.397754e+05 -9.578471e+04
4.997895e+04 3.000000e+05 -8.611758e+04
1.894571e+05 -3.624497e+05 -1.379311e+05
1.999624e+05 -3.222923e+05 -1.399056e+05
-1.739130e+04 1.402315e+05 -1.600000e+05
-3.333333e+04 1.707417e+05 -1.200000e+05
-1.666667e+04 1.380126e+05 -1.200000e+05
3.621117e+04 3.371749e+04 -1.200000e+05
1.000000e+05 3.000000e+05 -1.200000e+05
6.484835e+04 3.375301e+05 -1.171911e+05
3.962635e+04 3.229885e+05 -1.397482e+05
3.593511e+04 3.283950e+05 -1.173265e+05
3.469557e+04 -4.000000e+05 -1.283199e+05
3.478261e+04 -3.681566e+05 -1.600000e+05
1.738498e+04 -3.588912e+05 -1.373386e+05
5.654179e+04 -3.573995e+05 -1.371291e+05
5.217391e+04 -4.000000e+05 -1.600000e+05
2.028207e+05 1.522474e+05 -1.200000e+05
2.191406e+05 1.850954e+05 -1.406565e+05
2.213621e+05 1.455719e+05 -1.398040e+05
1.893582e+05 1.661013e+05 -1.407400e+05
2.016214e+05 2.015328e+05 -1.600000e+05
3.788042e+05 1.560676e+05 -7.078823e+04
4.000000e+05 2.086957e+05 -1.280849e+05
-1.707433e+05 -1.715771e+05 -1.200000e+05
-1.978701e+05 -1.980850e+05 -1.200000e+05
-1.523021e+05 -2.029314e+05 -1.200000e+05
2.032595e+05 1.666667e+04 -1.200000e+05
2.027242e+05 -1.525522e+03 -1.396844e+05
1.707417e+05 5.820766e-10 -1.200000e+05
1.738276e+05 0.000000e+00 -1.600000e+05
4.000000e+05 3.652174e+05 -1.600000e+05
3.688712e+05 3.466760e+05 -1.600000e+05
-2.689869e+05 -2.516625e+05 -1.200000e+05
-2.487110e+05 -2.693404e+05 -1.200000e+05
-2.686858e+05 -2.686614e+05 -1.600000e+05
-2.353389e+05 -2.545615e+05 -1.426264e+05
2.032595e+05 -5.000000e+04 -1.200000e+05
2.068996e+05 -5.217391e+04 -1.600000e+05
2.068996e+05 -1.739130e+04 -1.600000e+05
-2.339822e+05 -2.341240e+05 -1.200000e+05
2.168889e+05 -3.000000e+05 -8.329682e+04
2.526822e+05 -3.000000e+05 -8.596383e+04
5.093170e-11 -3.000000e+05 -1.200000e+05
1.666667e+04 -2.678710e+05 -1.200000e+05
-1.522496e+05 2.028205e+05 -1.200000e+05
-3.362016e+05 5.217391e+04 -1.600000e+05
-3.585614e+05 5.538595e+04 -1.394359e+05
-3.263667e+05 3.550668e+04 -1.391443e+05
-3.681566e+05 3.478261e+04 -1.600000e+05
-4.000000e+05 3.478257e+04 -1.280850e+05
-1.739130e+04 -2.068996e+05 -1.600000e+05
-2.068996e+05 -1.739130e+04 -1.600000e+05
-2.137480e+05 7.137603e+01 -1.404126e+05
8.944607e+04 1.398009e+05 -1.600000e+05
1.038957e+05 1.040933e+05 -1.200000e+05
7.201007e+04 1.050251e+05 -1.600000e+05
-3.333333e+04 -3.000000e+05 -1.200000e+05
-6.868599e+03 -3.289488e+05 -1.161676e+05
-4.710295e+04 -3.316378e+05 -1.155236e+05
-1.104185e+04 -3.202840e+05 -1.401030e+05
1.138567e+05 1.539089e+05 -1.365367e+05
-3.478257e+04 -4.000000e+05 -1.280850e+05
-4.698030e+04 -3.725057e+05 -1.114064e+05
-2.618487e+04 -3.605274e+05 -1.100236e+05
-5.274562e+04 -3.590468e+05 -1.386183e+05
-9.262680e-02 -4.000000e+05 -1.280849e+05
-2.071321e+04 -3.590472e+05 -1.393029e+05
-1.999279e+04 -3.359303e+05 -9.721410e+04
-3.324096e+04 -3.428711e+05 -7.405499e+04
-6.666667e+04 -3.000000e+05 -1.200000e+05
-7.884209e+04 -3.206556e+05 -1.390479e+05
-6.956522e+04 -3.041301e+05 -1.600000e+05
-4.813527e+04 -3.206893e+05 -1.389672e+05
-3.000000e+05 2.666667e+05 -1.200000e+05
-3.000000e+05 2.504440e+05 -8.401070e+04
1.400419e+05 5.238884e+04 -1.600000e+05
1.266757e+05 6.840106e+04 -1.394566e+05
1.707417e+05 6.666667e+04 -1.200000e+05
1.380126e+05 5.000000e+04 -1.200000e+05
4.000000e+05 -8.698509e+04 -9.927827e+04
4.000000e+05 -1.391304e+05 -1.280850e+05
4.000000e+05 -1.043221e+05 -7.886357e+04
3.039805e+05 -3.222205e+05 -1.383408e+05
1.380126e+05 -5.000000e+04 -1.200000e+05
1.173070e+05 -2.308375e+04 -1.368265e+05
3.186875e+05 4.758140e+04 -1.387402e+05
3.362016e+05 5.217391e+04 -1.600000e+05
3.041301e+05 6.956522e+04 -1.600000e+05
-6.666667e+04 -1.707417e+05 -1.200000e+05
-5.330862e+04 3.579719e+05 -1.389776e+05
-3.469557e+04 4.000000e+05 -1.283199e+05
-1.918872e+04 3.566719e+05 -1.387588e+05
2.686633e+05 2.686880e+05 -1.600000e+05
2.454756e+05 2.826385e+05 -1.412202e+05
2.516313e+05 2.688963e+05 -1.200000e+05
2.333333e+05 3.000000e+05 -1.200000e+05
2.150325e+05 2.879067e+05 -1.407093e+05
2.440477e+05 3.035535e+05 -1.600000e+05
2.666667e+05 3.000000e+05 -1.200000e+05
2.032595e+05 -8.333333e+04 -1.200000e+05
8.695652e+04 2.068996e+05 -1.600000e+05
9.165338e+04 1.874818e+05 -1.401966e+05
5.975297e+04 1.895958e+05 -1.383447e+05
5.000000e+04 2.032595e+05 -1.200000e+05
3.333333e+04 1.707417e+05 -1.200000e+05
2.459482e+04 1.854304e+05 -1.413047e+05
8.333333e+04 2.032595e+05 -1.200000e+05
1.666667e+04 2.032595e+05 -1.200000e+05
6.956522e+04 2.395442e+05 -1.600000e+05
5.217391e+04 2.068996e+05 -1.600000e+05
7.741677e+04 2.223115e+05 -1.390586e+05
6.666667e+04 2.356282e+05 -1.200000e+05
2.395442e+05 -6.956522e+04 -1.600000e+05
2.032595e+05 -1.666667e+04 -1.200000e+05
2.356282e+05 -6.666667e+04 -1.200000e+05
2.270575e+05 -2.729148e+05 -1.600000e+05
2.197569e+05 -2.500601e+05 -1.385134e+05
2.169098e+05 -2.894060e+05 -1.412815e+05
2.455623e+05 -2.823611e+05 -1.376892e+05
1.756384e+05 -2.838453e+05 -1.392162e+05
2.000000e+05 -3.000000e+05 -1.200000e+05
1.833333e+05 -2.678710e+05 -1.200000e+05
1.957705e+05 -2.537404e+05 -1.402772e+05
-1.719407e+05 3.305254e+05 -1.060143e+05
-1.833668e+05 3.000000e+05 -8.329350e+04
-5.471771e+04 -3.352991e+05 -9.857151e+04
-3.333333e+04 -2.356282e+05 -1.200000e+05
0.000000e+00 -2.395442e+05 -1.600000e+05
-6.956522e+04 -2.395442e+05 -1.600000e+05
-7.955419e+04 -2.232062e+05 -1.398341e+05
-6.666667e+04 -2.356282e+05 -1.200000e+05
4.000000e+05 7.100429e+04 -8.036529e+04
-1.907127e+05 3.578176e+05 -1.343028e+05
3.478261e+04 -2.395442e+05 -1.600000e+05
2.550113e+04 -2.531053e+05 -1.403459e+05
1.043478e+05 -2.395442e+05 -1.600000e+05
1.118616e+05 -2.220110e+05 -1.401277e+05
8.695652e+04 -2.068996e+05 -1.600000e+05
8.333333e+04 -2.032595e+05 -1.200000e+05
5.701229e+04 -1.875576e+05 -1.375174e+05
1.666667e+04 -2.032595e+05 -1.200000e+05
2.287014e+04 -1.834216e+05 -1.363969e+05
-3.041301e+05 -1.043478e+05 -1.600000e+05
2.956522e+05 4.000000e+05 -1.600000e+05
3.125173e+05 4.000000e+05 -1.301628e+05
-2.678710e+05 -5.000000e+04 -1.200000e+05
-2.678710e+05 -8.333333e+04 -1.200000e+05
-2.493055e+05 -8.754529e+04 -1.407095e+05
-2.719249e+05 -8.695652e+04 -1.600000e+05
-2.898769e+05 -1.167929e+05 -1.410565e+05
3.000000e+05 -1.000000e+05 -1.200000e+05
3.238648e+05 -8.232955e+04 -1.381376e+05
2.678710e+05 -1.166667e+05 -1.200000e+05
2.850545e+05 -1.432436e+05 -1.396395e+05
2.545976e+05 -1.289765e+05 -1.394516e+05
2.859596e+05 -1.115168e+05 -1.403328e+05
2.719249e+05 -8.695652e+04 -1.600000e+05
2.719249e+05 -1.217391e+05 -1.600000e+05
1.089297e+05 -1.091614e+05 -1.600000e+05
1.012964e+05 -1.264575e+05 -1.415875e+05
-8.333333e+04 2.678710e+05 -1.200000e+05
-1.166667e+05 2.678710e+05 -1.200000e+05
-1.000000e+05 3.000000e+05 -1.200000e+05
-1.043478e+05 3.041301e+05 -1.600000e+05
-1.391304e+05 3.041301e+05 -1.600000e+05
3.316974e+05 -1.804167e+05 -1.142213e+05
3.576306e+05 -1.565296e+05 -1.389700e+05
3.216057e+05 -1.689538e+05 -1.372341e+05
3.571458e+05 -1.909394e+05 -1.390063e+05
3.196203e+05 -1.999654e+05 -1.365805e+05
3.288256e+05 -2.123369e+05 -1.141709e+05
-1.043221e+05 -4.000000e+05 -7.886357e+04
-1.674171e+05 -1.357689e+05 -1.200000e+05
-1.561992e+05 -1.154133e+05 -1.386265e+05
-3.466457e+02 4.560365e+02 -1.200000e+05
-1.912075e+05 4.000000e+05 -9.927319e+04
-1.561033e+05 4.000000e+05 -9.947019e+04
-2.086377e+05 4.000000e+05 -7.886463e+04
2.678710e+05 8.333333e+04 -1.200000e+05
2.356282e+05 6.666667e+04 -1.200000e+05
2.557495e+05 9.693364e+04 -1.399209e+05
2.719249e+05 8.695652e+04 -1.600000e+05
2.889469e+05 8.169242e+04 -1.404970e+05
2.395442e+05 6.956522e+04 -1.600000e+05
4.000000e+05 -6.956517e+04 -1.280850e+05
-1.739649e+04 4.000000e+05 -9.927617e+04
-3.490296e+04 4.000000e+05 -7.889057e+04
-2.356282e+05 3.333333e+04 -1.200000e+05
-8.695652e+04 -2.719249e+05 -1.600000e+05
-8.271264e+04 -2.891514e+05 -1.407987e+05
1.624641e+05 -3.189256e+05 -1.393094e+05
1.565217e+05 -3.362016e+05 -1.600000e+05
1.562835e+05 -3.584435e+05 -1.372106e+05
1.913043e+05 -3.362016e+05 -1.600000e+05
1.739130e+05 -3.041301e+05 -1.600000e+05
-1.045588e+05 3.651038e+04 -1.600000e+05
-8.264964e+04 6.653411e+01 -1.379693e+05
-7.157111e+04 1.986197e+04 -1.600000e+05
-1.049358e+05 -3.333333e+04 -1.200000e+05
-7.033455e+04 -1.712183e+04 -1.200000e+05
-9.665966e+04 -4.099597e+04 -1.434505e+05
-2.275922e+05 -2.719319e+05 -1.600000e+05
-2.100029e+05 -2.389328e+05 -1.600000e+05
-3.554287e+04 1.464614e+02 -1.600000e+05
-7.150436e+04 -1.973126e+04 -1.600000e+05
8.698509e+04 4.000000e+05 -9.927827e+04
1.043221e+05 4.000000e+05 -7.886357e+04
-1.217663e+05 -4.000000e+05 -9.927598e+04
-1.391304e+05 -4.000000e+05 -1.280850e+05
-3.000000e+05 -5.093170e-11 -1.200000e+05
-2.948314e+05 -1.681621e+04 -1.393541e+05
-2.949668e+05 1.655967e+04 -1.396769e+05
-2.719249e+05 -1.739130e+04 -1.600000e+05
-2.395442e+05 -2.328306e-10 -1.600000e+05
-2.523970e+05 -2.357161e+04 -1.399305e+05
-2.678710e+05 -1.666667e+04 -1.200000e+05
-2.878524e+05 -2.153226e+05 -1.406579e+05
-8.695652e+04 -2.068996e+05 -1.600000e+05
-1.104787e+05 -2.212556e+05 -1.397903e+05
-8.333333e+04 -2.032595e+05 -1.200000e+05
-2.395442e+05 -3.478261e+04 -1.600000e+05
-2.395442e+05 -6.956522e+04 -1.600000e+05
-2.356282e+05 -1.000000e+05 -1.200000e+05
-2.395442e+05 -1.043478e+05 -1.600000e+05
-2.068996e+05 -8.695652e+04 -1.600000e+05
-1.166667e+05 2.032595e+05 -1.200000e+05
-1.107942e+05 2.213757e+05 -1.398187e+05
-1.333333e+05 2.356282e+05 -1.200000e+05
-1.000000e+05 2.356282e+05 -1.200000e+05
3.322610e+05 3.352834e+05 -1.600000e+05
3.074845e+05 3.254312e+05 -1.371682e+05
-2.027714e+05 1.524483e+05 -1.200000e+05
3.000000e+05 -2.518394e+05 -8.371149e+04
-1.974795e+04 7.152023e+04 -1.600000e+05
2.286435e+03 8.367578e+04 -1.417287e+05
1.718538e+04 7.022077e+04 -1.200000e+05
-1.217391e+05 -3.362016e+05 -1.600000e+05
-3.035270e+05 2.439898e+05 -1.600000e+05
-2.834514e+05 2.447546e+05 -1.392572e+05
-2.068996e+05 -5.217391e+04 -1.600000e+05
-2.032595e+05 1.666667e+04 -1.200000e+05
-3.802233e+05 -1.213951e+05 -1.267885e+05
-1.739130e+04 -2.719249e+05 -1.600000e+05
3.000000e+05 -2.152852e+05 -8.356192e+04
3.000000e+05 -1.811940e+05 -8.356352e+04
-2.416021e+05 2.453027e+05 -1.600000e+05
2.678710e+05 -2.166667e+05 -1.200000e+05
1.191105e+05 1.388027e+05 -1.200000e+05
1.357944e+05 1.695537e+05 -1.200000e+05
1.403667e+05 1.723665e+05 -1.600000e+05
1.284947e+05 1.877554e+05 -1.383883e+05
1.662651e+05 1.900617e+05 -1.394611e+05
2.416515e+05 -2.451064e+05 -1.600000e+05
1.715751e+05 1.707361e+05 -1.200000e+05
1.746658e+05 1.755961e+05 -1.600000e+05
-3.000000e+05 -1.333333e+05 -1.200000e+05
-2.678710e+05 -1.166667e+05 -1.200000e+05
-2.860684e+05 -1.452653e+05 -1.413341e+05
2.395442e+05 1.043478e+05 -1.600000e+05
2.356282e+05 1.000000e+05 -1.200000e+05
2.032595e+05 8.333333e+04 -1.200000e+05
6.666667e+04 -3.000000e+05 -1.200000e+05
8.274343e+04 -3.181396e+05 -1.392412e+05
4.769775e+04 -3.193546e+05 -1.364893e+05
-2.449095e+05 -2.813512e+05 -1.375228e+05
3.000000e+05 -2.333333e+05 -1.200000e+05
2.356282e+05 2.328306e-10 -1.200000e+05
1.387858e+05 -1.191167e+05 -1.200000e+05
1.040177e+05 -1.038868e+05 -1.200000e+05
1.049358e+05 -3.333333e+04 -1.200000e+05
-3.333333e+04 3.000000e+05 -1.200000e+05
-1.667104e+04 3.000000e+05 -8.338912e+04
2.340650e+05 -2.340612e+05 -1.200000e+05
2.000185e+05 -2.356194e+05 -1.200000e+05
1.980863e+05 -1.978837e+05 -1.200000e+05
1.092636e+04 3.369543e+05 -9.179482e+04
1.000000e+05 -1.707417e+05 -1.200000e+05
9.442448e+04 -1.879186e+05 -1.397291e+05
7.580921e+04 -1.551259e+05 -1.408100e+05
1.146238e+05 -1.558549e+05 -1.384938e+05
1.163598e+05 -1.388761e+05 -1.200000e+05
1.537436e+05 -1.507256e+05 -1.446285e+05
1.058206e+05 -1.720939e+05 -1.600000e+05
1.404758e+05 -1.722527e+05 -1.600000e+05
8.333333e+04 2.678710e+05 -1.200000e+05
9.223221e+04 2.524619e+05 -1.405555e+05
8.695652e+04 2.719249e+05 -1.600000e+05
1.166667e+05 2.032595e+05 -1.200000e+05
1.000000e+05 1.707417e+05 -1.200000e+05
1.107910e+05 2.213958e+05 -1.398270e+05
8.333333e+04 -2.678710e+05 -1.200000e+05
1.108407e+05 -2.887971e+05 -1.387373e+05
8.132621e+04 -2.880592e+05 -1.386804e+05
1.217391e+05 -2.719249e+05 -1.600000e+05
1.282857e+05 -2.539847e+05 -1.417735e+05
8.695652e+04 -2.719249e+05 -1.600000e+05
-1.176414e+05 1.892513e+04 -1.380897e+05
-1.380126e+05 5.000000e+04 -1.200000e+05
1.043478e+05 2.395442e+05 -1.600000e+05
1.333333e+05 2.356282e+05 -1.200000e+05
1.000000e+05 2.356282e+05 -1.200000e+05
-3.286699e+05 4.437471e+04 -1.083803e+05
1.333333e+05 3.000000e+05 -1.200000e+05
1.165761e+05 2.893093e+05 -1.409244e+05
-3.478261e+04 2.395442e+05 -1.600000e+05
-1.730072e+04 2.479969e+05 -1.403055e+05
-1.666667e+04 2.678710e+05 -1.200000e+05
-2.927569e+02 2.775160e+05 -1.405275e+05
-2.328306e-10 2.356282e+05 -1.200000e+05
-1.739130e+04 2.719249e+05 -1.600000e+05
1.712955e+04 -7.053013e+04 -1.200000e+05
5.229088e+04 -7.184117e+04 -1.200000e+05
1.985018e+04 -7.157278e+04 -1.600000e+05
4.125781e+04 -4.141257e+04 -1.600000e+05
3.041301e+05 3.478261e+04 -1.600000e+05
2.719249e+05 5.217391e+04 -1.600000e+05
2.031588e+05 1.169132e+05 -1.200000e+05
2.678710e+05 1.166667e+05 -1.200000e+05
2.546066e+05 1.291268e+05 -1.403230e+05
-1.913043e+05 4.000000e+05 -1.600000e+05
-2.086957e+05 4.000000e+05 -1.280849e+05
-2.086957e+05 3.681566e+05 -1.600000e+05
-5.217391e+04 1.402315e+05 -1.600000e+05
-1.565217e+05 4.000000e+05 -1.600000e+05
-1.739894e+05 4.000000e+05 -1.283231e+05
-1.739130e+05 3.681566e+05 -1.600000e+05
2.486724e+05 -2.693333e+05 -1.200000e+05
-2.260870e+05 -3.362016e+05 -1.600000e+05
1.057864e+05 1.721070e+05 -1.600000e+05
2.960439e+05 -3.361296e+05 -1.600000e+05
3.126723e+05 -4.000000e+05 -1.301611e+05
3.135024e+05 -3.674392e+05 -1.600000e+05
2.956522e+05 -4.000000e+05 -1.600000e+05
1.217391e+05 -2.068996e+05 -1.600000e+05
1.169197e+05 -2.031629e+05 -1.200000e+05
2.678710e+05 -1.833333e+05 -1.200000e+05
2.873674e+05 -2.144020e+05 -1.405381e+05
2.846437e+05 -1.767696e+05 -1.401917e+05
1.715846e+05 -1.707494e+05 -1.200000e+05
1.357905e+05 -1.674204e+05 -1.200000e+05
1.524483e+05 2.027705e+05 -1.200000e+05
2.156549e+05 2.192828e+05 -1.422134e+05
2.666667e+05 -3.000000e+05 -1.200000e+05
-2.928161e+05 3.580182e+05 -1.381051e+05
-2.607512e+05 -4.000000e+05 -9.928644e+04
2.166861e+05 -2.677974e+05 -1.200000e+05
3.681566e+05 -6.956522e+04 -1.600000e+05
4.000000e+05 -8.695652e+04 -1.600000e+05
2.719249e+05 1.217391e+05 -1.600000e+05
1.749878e+05 -1.755568e+05 -1.600000e+05
2.029307e+05 -1.523046e+05 -1.200000e+05
2.385089e+05 -1.749478e+05 -1.600000e+05
1.565217e+05 2.719249e+05 -1.600000e+05
1.391304e+05 3.041301e+05 -1.600000e+05
1.217391e+05 2.719249e+05 -1.600000e+05
2.389676e+05 2.100898e+05 -1.600000e+05
2.356490e+05 1.999842e+05 -1.200000e+05
2.385113e+05 1.749207e+05 -1.600000e+05
-2.356044e+05 -1.999995e+05 -1.200000e+05
-2.196071e+05 -1.851284e+05 -1.399900e+05
-2.153511e+05 -2.196972e+05 -1.422266e+05
-2.016233e+05 -2.015700e+05 -1.600000e+05
-2.392910e+05 -2.089820e+05 -1.600000e+05
-2.574755e+05 -2.316283e+05 -1.403093e+05
-2.453042e+05 -2.415858e+05 -1.600000e+05
3.041301e+05 -2.086957e+05 -1.600000e+05
3.041301e+05 -1.739130e+05 -1.600000e+05
2.719249e+05 -1.565217e+05 -1.600000e+05
2.719249e+05 -1.913043e+05 -1.600000e+05
-1.166667e+05 -2.032595e+05 -1.200000e+05
3.000000e+05 -2.000000e+05 -1.200000e+05
-1.560556e+05 -3.811650e+05 -8.422280e+04
1.678514e+05 -2.343965e+05 -1.200000e+05
-2.678710e+05 -1.500000e+05 -1.200000e+05
-2.514750e+05 -1.588342e+05 -1.391740e+05
-2.878008e+05 -1.813372e+05 -1.413069e+05
-3.041301e+05 -1.739130e+05 -1.600000e+05
-3.188707e+05 -1.598539e+05 -1.379730e+05
-2.719249e+05 -1.913043e+05 -1.600000e+05
-2.514623e+05 -1.933404e+05 -1.389330e+05
-1.738834e+05 -4.000000e+05 -7.886346e+04
-1.391011e+05 -4.000000e+05 -7.886349e+04
-1.565486e+05 -4.000000e+05 -9.927571e+04
-1.000000e+05 -1.707417e+05 -1.200000e+05
-1.217391e+05 -2.068996e+05 -1.600000e+05
-3.125173e+05 -4.000000e+05 -1.301628e+05
-2.939530e+05 -3.596410e+05 -1.387542e+05
-3.133062e+05 -3.676789e+05 -1.600000e+05
-2.960438e+05 -3.361295e+05 -1.600000e+05
-1.871331e+05 9.131661e+04 -1.390918e+05
-2.032595e+05 1.166667e+05 -1.200000e+05
-1.707417e+05 1.000000e+05 -1.200000e+05
-2.220031e+05 1.118226e+05 -1.401117e+05
2.000000e+05 3.000000e+05 -1.200000e+05
3.550533e+05 5.220725e+04 -1.375786e+05
3.362016e+05 8.695652e+04 -1.600000e+05
2.836702e+05 1.417480e+05 -1.388322e+05
2.678710e+05 1.500000e+05 -1.200000e+05
2.533124e+05 1.619709e+05 -1.404727e+05
2.888396e+05 1.829561e+05 -1.405095e+05
2.719249e+05 1.565217e+05 -1.600000e+05
4.000000e+05 -2.260870e+05 -1.600000e+05
3.681566e+05 -2.086957e+05 -1.600000e+05
-1.391304e+05 2.395442e+05 -1.600000e+05
-1.624519e+05 2.536520e+05 -1.411624e+05
-1.748442e+05 2.384935e+05 -1.600000e+05
2.356282e+05 -1.000000e+05 -1.200000e+05
2.395442e+05 -1.391304e+05 -1.600000e+05
2.678710e+05 -1.500000e+05 -1.200000e+05
2.530256e+05 -1.615729e+05 -1.407509e+05
-1.565217e+05 -2.719249e+05 -1.600000e+05
2.895038e+05 2.436858e+05 -1.388764e+05
2.719263e+05 2.275942e+05 -1.600000e+05
2.678710e+05 2.166667e+05 -1.200000e+05
2.693803e+05 2.487090e+05 -1.200000e+05
-2.356282e+05 1.000000e+05 -1.200000e+05
-2.531646e+05 1.267525e+05 -1.396557e+05
-2.719249e+05 1.565217e+05 -1.600000e+05
-2.539544e+05 1.631984e+05 -1.401750e+05
-2.356282e+05 1.333333e+05 -1.200000e+05
1.565217e+05 -2.719249e+05 -1.600000e+05
1.631591e+05 -2.539466e+05 -1.401930e+05
1.391304e+05 -2.395442e+05 -1.600000e+05
1.333333e+05 -2.356282e+05 -1.200000e+05
-2.719249e+05 -1.217391e+05 -1.600000e+05
6.956522e+04 -1.738276e+05 -1.600000e+05
3.333333e+04 -1.707417e+05 -1.200000e+05
3.478261e+04 -1.738276e+05 -1.600000e+05
3.139008e+05 -4.000000e+05 -7.844374e+04
1.739130e+04 3.362016e+05 -1.600000e+05
2.019556e+04 3.551592e+05 -1.375521e+05
3.478257e+04 4.000000e+05 -1.280850e+05
1.901770e+04 3.593006e+05 -1.113459e+05
1.739130e+04 4.000000e+05 -1.600000e+05
9.262680e-02 4.000000e+05 -1.280849e+05
-2.328306e-10 3.681566e+05 -1.600000e+05
-2.086957e+05 3.041301e+05 -1.600000e+05
-1.913043e+05 2.719249e+05 -1.600000e+05
-1.397986e+05 -8.949262e+04 -1.600000e+05
-1.050304e+05 -7.194551e+04 -1.600000e+05
-1.230083e+05 -6.116605e+04 -1.426551e+05
-1.546627e+05 -7.828831e+04 -1.392561e+05
2.333333e+05 -3.000000e+05 -1.200000e+05
-2.328306e-10 3.041301e+05 -1.600000e+05
3.333333e+04 3.000000e+05 -1.200000e+05
6.956522e+04 3.041301e+05 -1.600000e+05
-1.043478e+05 -3.041301e+05 -1.600000e+05
-8.695652e+04 -3.362016e+05 -1.600000e+05
-1.000000e+05 -3.000000e+05 -1.200000e+05
-5.000000e+04 -1.380126e+05 -1.200000e+05
-1.668807e+04 -3.000000e+05 -8.612083e+04
2.076845e+04 -3.182160e+05 -9.893260e+04
4.155822e+04 -3.285990e+05 -1.127337e+05
1.739130e+04 2.068996e+05 -1.600000e+05
-2.328306e-10 1.738276e+05 -1.600000e+05
3.478261e+04 1.738276e+05 -1.600000e+05
-5.820766e-10 1.707417e+05 -1.200000e+05
2.260870e+05 3.362016e+05 -1.600000e+05
3.680273e+05 -4.000000e+05 -1.051488e+05
3.466752e+05 -3.688682e+05 -1.600000e+05
5.238855e+04 -1.400419e+05 -1.600000e+05
3.640706e+04 -1.045471e+05 -1.600000e+05
1.787792e+04 -1.170008e+05 -1.378620e+05
6.764556e+04 -1.273611e+05 -1.398936e+05
5.000000e+04 -1.380126e+05 -1.200000e+05
3.333333e+04 -1.049358e+05 -1.200000e+05
2.095476e-09 -1.049358e+05 -1.200000e+05
0.000000e+00 -1.063301e+05 -1.600000e+05
6.017362e+01 -8.318351e+04 -1.369948e+05
3.000000e+05 -1.666667e+05 -1.200000e+05
-3.681566e+05 -1.391304e+05 -1.600000e+05
-3.661712e+05 -1.557079e+05 -1.350986e+05
-3.362016e+05 -1.565217e+05 -1.600000e+05
-2.395442e+05 1.043478e+05 -1.600000e+05
-2.068996e+05 8.695652e+04 -1.600000e+05
4.000000e+05 2.945883e+05 -9.902611e+04
3.815059e+05 2.922257e+05 -8.251481e+04
4.000000e+05 3.126723e+05 -1.301611e+05
3.378269e+05 -2.952146e+05 -1.600000e+05
2.527419e+05 3.000000e+05 -8.594652e+04
-1.402315e+05 1.739130e+04 -1.600000e+05
-1.380126e+05 -5.000000e+04 -1.200000e+05
-1.063301e+05 -2.328306e-10 -1.600000e+05
-1.045294e+05 -3.653312e+04 -1.600000e+05
-1.402315e+05 -5.217391e+04 -1.600000e+05
-2.328306e-10 1.063301e+05 -1.600000e+05
-2.444722e-09 1.049358e+05 -1.200000e+05
1.720917e+05 1.058328e+05 -1.600000e+05
1.398299e+05 8.943766e+04 -1.600000e+05
1.380126e+05 8.333333e+04 -1.200000e+05
4.000000e+05 1.376571e+05 -8.037280e+04
3.569389e+05 1.212700e+05 -7.308732e+04
1.432946e+05 -2.864422e+05 -1.404625e+05
1.500000e+05 -2.678710e+05 -1.200000e+05
1.748500e+05 -2.384967e+05 -1.600000e+05
1.912075e+05 -4.000000e+05 -9.927319e+04
1.049358e+05 2.095476e-09 -1.200000e+05
3.000000e+05 -1.333333e+05 -1.200000e+05
-3.333333e+04 -1.049358e+05 -1.200000e+05
-1.666667e+04 -7.134108e+04 -1.200000e+05
-1.969860e+04 -7.157166e+04 -1.600000e+05
-1.182563e+03 -5.835648e+04 -1.382396e+05
-1.472496e+05 3.687230e+05 -1.016938e+05
-1.500000e+05 -2.678710e+05 -1.200000e+05
-4.000000e+05 -2.434783e+05 -1.280850e+05
-4.000000e+05 -2.260443e+05 -9.927425e+04
-5.217391e+04 -3.362016e+05 -1.600000e+05
-1.425030e+05 -2.845689e+05 -1.400232e+05
-3.478261e+04 3.041301e+05 -1.600000e+05
2.346123e+05 2.332952e+05 -1.200000e+05
-2.856174e+05 1.778809e+05 -1.405217e+05
-3.041301e+05 1.739130e+05 -1.600000e+05
-3.333333e+04 2.356282e+05 -1.200000e+05
-6.666667e+04 2.356282e+05 -1.200000e+05
-2.863030e+05 1.454156e+05 -1.405686e+05
4.000000e+05 -4.000000e+05 -1.234328e+05
-3.466305e+05 -3.688687e+05 -1.600000e+05
-3.505272e+05 -4.000000e+05 -8.132527e+04
4.000000e+05 4.000000e+05 -1.600000e+05
2.090048e+05 -2.392770e+05 -1.600000e+05
3.681566e+05 3.478261e+04 -1.600000e+05
3.362016e+05 1.739130e+04 -1.600000e+05
3.681566e+05 0.000000e+00 -1.600000e+05
2.953182e+05 3.378247e+05 -1.600000e+05
4.000000e+05 1.561033e+05 -9.947019e+04
4.000000e+05 1.218925e+05 -1.107028e+05
2.678710e+05 -1.666667e+04 -1.200000e+05
3.000000e+05 5.093170e-11 -1.200000e+05
4.000000e+05 -6.956677e+04 -7.886432e+04
4.000000e+05 -5.217391e+04 -1.600000e+05
3.041301e+05 0.000000e+00 -1.600000e+05
3.681566e+05 -1.739130e+05 -1.600000e+05
3.681566e+05 -1.391304e+05 -1.600000e+05
3.362016e+05 -1.565217e+05 -1.600000e+05
-1.043478e+05 -4.000000e+05 -1.280850e+05
-1.043478e+05 -3.681566e+05 -1.600000e+05
1.217391e+05 -3.362016e+05 -1.600000e+05
1.391304e+05 -3.041301e+05 -1.600000e+05
5.000000e+04 -2.678710e+05 -1.200000e+05
-2.260870e+05 -4.000000e+05 -1.600000e+05
-2.434783e+05 -3.681566e+05 -1.600000e+05
1.565217e+05 -4.000000e+05 -1.600000e+05
1.739894e+05 -4.000000e+05 -1.283231e+05
1.739130e+05 -3.681566e+05 -1.600000e+05
-1.913043e+05 -4.000000e+05 -1.600000e+05
-2.343955e+05 -1.678482e+05 -1.200000e+05
-2.385126e+05 -1.748481e+05 -1.600000e+05
-4.000000e+05 -1.736685e+05 -7.888604e+04
-2.719249e+05 -1.565217e+05 -1.600000e+05
-6.817304e+04 4.000000e+05 -1.298395e+05
-2.678710e+05 -1.833333e+05 -1.200000e+05
-2.260870e+05 4.000000e+05 -1.600000e+05
-3.653383e+04 1.045305e+05 -1.600000e+05
7.110224e+04 1.684749e+04 -1.200000e+05
1.049358e+05 3.333333e+04 -1.200000e+05
3.041301e+05 -1.391304e+05 -1.600000e+05
-2.385189e+05 1.749640e+05 -1.600000e+05
1.739130e+04 -4.000000e+05 -1.600000e+05
0.000000e+00 -3.681566e+05 -1.600000e+05
-5.000809e+04 -3.000000e+05 -8.610262e+04
-2.343997e+05 1.678521e+05 -1.200000e+05
-2.678710e+05 1.166667e+05 -1.200000e+05
3.000000e+05 5.166536e+04 -8.627700e+04
4.000000e+05 4.000000e+05 -1.234328e+05
1.391011e+05 4.000000e+05 -7.886349e+04
1.217663e+05 4.000000e+05 -9.927598e+04
1.738834e+05 4.000000e+05 -7.886346e+04
-5.217391e+04 4.000000e+05 -1.600000e+05
-6.956522e+04 3.681566e+05 -1.600000e+05
-2.719228e+05 2.275803e+05 -1.600000e+05
-2.541081e+05 1.966254e+05 -1.401040e+05
-2.677974e+05 2.166861e+05 -1.200000e+05
2.775699e+05 3.039950e+05 -1.600000e+05
2.086957e+05 3.681566e+05 -1.600000e+05
1.913043e+05 4.000000e+05 -1.600000e+05
3.681566e+05 2.434783e+05 -1.600000e+05
3.681566e+05 2.782609e+05 -1.600000e+05
-1.739130e+04 2.068996e+05 -1.600000e+05
-3.333333e+04 1.049358e+05 -1.200000e+05
2.328306e-10 -2.356282e+05 -1.200000e+05
3.333333e+04 -2.356282e+05 -1.200000e+05
1.739130e+04 -2.068996e+05 -1.600000e+05
1.833667e+05 -3.000000e+05 -8.329350e+04
-3.041301e+05 -3.478261e+04 -1.600000e+05
-3.041301e+05 -2.328306e-10 -1.600000e+05
-2.356282e+05 -3.333333e+04 -1.200000e+05
-3.693033e+05 3.467098e+05 -1.600000e+05
-3.681566e+05 3.130435e+05 -1.600000e+05
-3.342262e+05 3.338343e+05 -1.600000e+05
2.498395e+05 1.919093e+05 -1.383482e+05
1.043478e+05 -3.041301e+05 -1.600000e+05
1.000000e+05 -3.000000e+05 -1.200000e+05
-4.000000e+05 -4.000000e+05 -8.686567e+04
2.719249e+05 1.913043e+05 -1.600000e+05
-6.956517e+04 -4.000000e+05 -1.280850e+05
1.913043e+05 -2.719249e+05 -1.600000e+05
-4.000000e+05 -1.739130e+04 -1.600000e+05
-1.677950e+05 2.344432e+05 -1.200000e+05
-4.000000e+05 -3.139008e+05 -7.844374e+04
-4.000000e+05 -1.561033e+05 -9.947019e+04
-3.139008e+05 4.000000e+05 -7.844374e+04
-3.119811e+05 3.063039e+05 -1.600000e+05
-4.000000e+05 -2.086377e+05 -7.886463e+04
4.000000e+05 1.739130e+04 -1.600000e+05
4.000000e+05 3.469557e+04 -1.283199e+05
-4.000000e+05 -4.000000e+05 -1.234328e+05
4.000000e+05 3.505277e+05 -8.131819e+04
4.000000e+05 3.304348e+05 -1.600000e+05
4.000000e+05 2.956522e+05 -1.600000e+05
3.674401e+05 3.135020e+05 -1.600000e+05
-3.041301e+05 -1.391304e+05 -1.600000e+05
-1.738276e+05 6.956522e+04 -1.600000e+05
-3.000000e+05 -8.463223e+02 -8.584540e+04
-3.000000e+05 3.333333e+04 -1.200000e+05
-2.678710e+05 1.833333e+05 -1.200000e+05
-2.168888e+05 3.000000e+05 -8.329679e+04
-3.041301e+05 2.086957e+05 -1.600000e+05
3.352865e+05 -3.322238e+05 -1.600000e+05
3.681566e+05 -3.130435e+05 -1.600000e+05
3.362016e+05 -1.913043e+05 -1.600000e+05
4.000000e+05 1.912075e+05 -9.927319e+04
4.000000e+05 2.260443e+05 -9.927425e+04
5.255098e+04 -4.000000e+05 -9.946212e+04
-3.352637e+05 -3.322868e+05 -1.600000e+05
7.100429e+04 -4.000000e+05 -8.036529e+04
-1.742320e+04 -4.000000e+05 -9.927559e+04
-5.220474e+04 -4.000000e+05 -9.927827e+04
-3.304348e+05 -4.000000e+05 -1.600000e+05
-4.000000e+05 1.565486e+05 -9.927571e+04
-4.000000e+05 1.391011e+05 -7.886349e+04
-4.000000e+05 1.738834e+05 -7.886346e+04
-1.739130e+05 -3.041301e+05 -1.600000e+05
6.956522e+04 -3.041301e+05 -1.600000e+05
4.295217e+04 -2.860976e+05 -1.401923e+05
-3.041301e+05 6.956522e+04 -1.600000e+05
3.333333e+04 -3.000000e+05 -1.200000e+05
1.683785e+04 -3.081194e+05 -1.377135e+05
5.217391e+04 -3.362016e+05 -1.600000e+05
-4.000000e+05 2.086956e+05 -1.280850e+05
2.543327e+05 2.324406e+05 -1.409441e+05
-3.681566e+05 2.086957e+05 -1.600000e+05
-3.362016e+05 2.260870e+05 -1.600000e+05
-1.739130e+04 -3.362016e+05 -1.600000e+05
1.739130e+04 -3.362016e+05 -1.600000e+05
-7.149951e+04 4.972950e+04 -1.200000e+05
-2.678710e+05 5.000000e+04 -1.200000e+05
-1.217391e+05 -4.000000e+05 -1.600000e+05
-2.677786e+05 -2.166944e+05 -1.200000e+05
4.000000e+05 -2.607512e+05 -9.928644e+04
-4.000000e+05 -8.674306e+04 -1.107005e+05
4.000000e+05 -2.956522e+05 -1.600000e+05
1.913043e+05 2.719249e+05 -1.600000e+05
-2.678710e+05 1.500000e+05 -1.200000e+05
1.091743e+05 1.089504e+05 -1.600000e+05
-2.719249e+05 1.913043e+05 -1.600000e+05
-4.460349e+04 3.218434e+05 -1.377175e+05
-2.719249e+05 1.217391e+05 -1.600000e+05
4.000000e+05 -1.738834e+05 -7.886346e+04
4.000000e+05 -1.739130e+05 -1.280850e+05
4.000000e+05 1.217391e+05 -1.600000e+05
3.681566e+05 1.043478e+05 -1.600000e+05
-4.000000e+05 1.913043e+05 -1.600000e+05
-2.863098e+05 1.112407e+05 -1.400891e+05
4.000000e+05 2.782176e+05 -1.283450e+05
6.896267e+04 -1.033480e+05 -1.200000e+05
7.208942e+04 -1.048952e+05 -1.600000e+05
2.260870e+05 4.000000e+05 -1.600000e+05
2.434783e+05 3.681566e+05 -1.600000e+05
-1.384128e+05 -1.165380e+05 -1.200000e+05
-1.754511e+05 -1.747225e+05 -1.600000e+05
3.745283e+04 -2.816634e+02 -1.200000e+05
5.826581e+04 -1.514664e+03 -1.384577e+05
-2.260443e+05 4.000000e+05 -9.927425e+04
-1.013863e+05 -6.891233e+04 -1.200000e+05
-8.156753e+04 -8.232407e+04 -1.434904e+05
-2.526823e+05 -3.000000e+05 -8.595515e+04
-8.695652e+04 -4.000000e+05 -1.600000e+05
1.657547e+04 -3.000000e+05 -8.336044e+04
3.813321e+05 1.869559e+05 -8.273240e+04
4.000000e+05 -3.243565e+05 -1.049219e+05
4.000000e+05 -4.000000e+05 -8.686567e+04
-3.041301e+05 3.478261e+04 -1.600000e+05
3.000000e+05 2.000000e+05 -1.200000e+05
-1.739130e+04 3.362016e+05 -1.600000e+05
4.000000e+05 1.043457e+05 -1.313395e+05
4.000000e+05 8.695652e+04 -1.600000e+05
4.000000e+05 6.817304e+04 -1.298395e+05
4.000000e+05 -1.913303e+05 -9.927549e+04
4.000000e+05 -2.086686e+05 -7.886305e+04
3.500528e+04 -1.518763e+05 -1.387488e+05
1.666667e+04 -1.380126e+05 -1.200000e+05
-1.739130e+04 -4.000000e+05 -1.600000e+05
2.356282e+05 1.333333e+05 -1.200000e+05
2.395442e+05 1.391304e+05 -1.600000e+05
0.000000e+00 -3.041301e+05 -1.600000e+05
-3.478261e+04 -3.041301e+05 -1.600000e+05
8.943287e+04 -1.398293e+05 -1.600000e+05
3.652174e+05 -4.000000e+05 -1.600000e+05
6.666667e+04 -1.707417e+05 -1.200000e+05
3.478261e+04 -3.041301e+05 -1.600000e+05
-3.041301e+05 -2.086957e+05 -1.600000e+05
3.304348e+05 -4.000000e+05 -1.600000e+05
-3.681566e+05 -2.434783e+05 -1.600000e+05
-3.681566e+05 -2.086957e+05 -1.600000e+05
-4.000000e+05 -2.260870e+05 -1.600000e+05
4.972630e+04 7.148924e+04 -1.200000e+05
6.709380e+04 6.696860e+04 -1.600000e+05
8.231200e+04 8.102750e+04 -1.434162e+05
2.344438e+05 1.677931e+05 -1.200000e+05
3.362016e+05 -5.217391e+04 -1.600000e+05
3.362016e+05 1.217391e+05 -1.600000e+05
2.678710e+05 1.833333e+05 -1.200000e+05
4.000000e+05 2.086377e+05 -7.886463e+04
4.000000e+05 -1.217391e+05 -1.600000e+05
4.000000e+05 1.736685e+05 -7.888604e+04
-3.500253e+05 3.687974e+05 -1.600000e+05
-3.133237e+05 3.678989e+05 -1.600000e+05
8.333333e+04 -1.380126e+05 -1.200000e+05
1.125931e+05 3.198529e+05 -1.390001e+05
1.217391e+05 3.362016e+05 -1.600000e+05
1.233851e+05 3.593391e+05 -1.389171e+05
-2.719249e+05 5.217391e+04 -1.600000e+05
-1.833333e+05 2.678710e+05 -1.200000e+05
-1.738276e+05 -6.956522e+04 -1.600000e+05
-1.707417e+05 -6.666667e+04 -1.200000e+05
-2.692466e+05 2.486538e+05 -1.200000e+05
-5.225433e+04 -7.189412e+04 -1.200000e+05
1.000000e+05 -2.356282e+05 -1.200000e+05
3.111347e+05 -3.056378e+05 -1.600000e+05
-1.666667e+04 2.032595e+05 -1.200000e+05
-5.000000e+04 2.032595e+05 -1.200000e+05
-3.759525e+04 -1.001944e+02 -1.200000e+05
-1.803418e+04 -2.138046e+04 -1.392745e+05
1.434252e+04 -1.386000e+04 -1.374660e+05
1.994575e+02 -3.749067e+04 -1.200000e+05
8.069815e+01 -3.564421e+04 -1.600000e+05
-1.374810e+05 -8.373833e+04 -1.200000e+05
-3.373680e+04 -3.616091e+04 -1.200000e+05
-4.125419e+04 -4.138280e+04 -1.600000e+05
2.747606e+02 -5.813291e+02 -1.600000e+05
3.518316e+04 -3.527438e+04 -1.200000e+05
3.560177e+04 7.008440e+01 -1.600000e+05
1.812420e+04 1.388282e+04 -1.415426e+05
-4.000000e+05 4.000000e+05 -8.686567e+04
7.187047e+04 5.226037e+04 -1.200000e+05
1.033538e+05 6.893700e+04 -1.200000e+05
1.045436e+05 3.640608e+04 -1.600000e+05
3.680197e+05 4.000000e+05 -1.051716e+05
-2.959249e+05 3.361641e+05 -1.600000e+05
-3.126723e+05 4.000000e+05 -1.301611e+05
-1.500000e+05 2.678710e+05 -1.200000e+05
-1.565217e+05 2.719249e+05 -1.600000e+05
-7.100429e+04 4.000000e+05 -8.036529e+04
3.000000e+05 8.438818e+04 -8.609555e+04
-3.041301e+05 1.043478e+05 -1.600000e+05
-3.041301e+05 1.391304e+05 -1.600000e+05
8.695652e+04 -3.362016e+05 -1.600000e+05
-3.478261e+04 -3.681566e+05 -1.600000e+05
-5.217391e+04 -4.000000e+05 -1.600000e+05
-6.956522e+04 -3.681566e+05 -1.600000e+05
1.405259e+05 -4.000000e+05 -1.298366e+05
2.086957e+05 -3.681566e+05 -1.600000e+05
1.166667e+05 -2.678710e+05 -1.200000e+05
2.356282e+05 -1.333333e+05 -1.200000e+05
-2.729443e+05 -2.270052e+05 -1.600000e+05
-3.652174e+05 4.000000e+05 -1.600000e+05
-4.000000e+05 4.000000e+05 -1.234328e+05
-4.000000e+05 4.000000e+05 -1.600000e+05
-4.000000e+05 2.956522e+05 -1.600000e+05
-4.000000e+05 3.304348e+05 -1.600000e+05
-5.217391e+04 3.362016e+05 -1.600000e+05
4.000000e+05 -1.739130e+04 -1.600000e+05
-2.068996e+05 5.217391e+04 -1.600000e+05
-1.738276e+05 3.478261e+04 -1.600000e+05
2.607512e+05 4.000000e+05 -9.928644e+04
2.261070e+05 4.000000e+05 -9.928569e+04
4.000000e+05 2.782569e+05 -7.878860e+04
4.000000e+05 3.139008e+05 -7.844374e+04
1.043478e+05 3.041301e+05 -1.600000e+05
1.391304e+05 -3.681566e+05 -1.600000e+05
-1.720780e+05 -1.058531e+05 -1.600000e+05
-4.000000e+05 -5.217391e+04 -1.600000e+05
4.000000e+05 -1.217663e+05 -9.927598e+04
5.217391e+04 -2.719249e+05 -1.600000e+05
1.739130e+04 -2.719249e+05 -1.600000e+05
7.158057e+04 1.970622e+04 -1.600000e+05
1.063301e+05 0.000000e+00 -1.600000e+05
1.049003e+05 7.208962e+04 -1.600000e+05
-4.000000e+05 -8.695652e+04 -1.600000e+05
-6.696770e+04 -6.708310e+04 -1.600000e+05
-6.708374e+04 6.697873e+04 -1.600000e+05
-1.380126e+05 1.666667e+04 -1.200000e+05
2.655909e+01 4.000000e+05 -7.886343e+04
-4.000000e+05 -1.913043e+05 -1.600000e+05
-4.000000e+05 1.217391e+05 -1.600000e+05
-3.681566e+05 1.391304e+05 -1.600000e+05
-4.000000e+05 5.220474e+04 -9.927827e+04
-2.440698e+05 -3.035211e+05 -1.600000e+05
-4.000000e+05 -2.956522e+05 -1.600000e+05
-4.000000e+05 1.043221e+05 -7.886357e+04
-4.000000e+05 -2.434429e+05 -7.886194e+04
-1.736685e+05 4.000000e+05 -7.888604e+04
2.434429e+05 -4.000000e+05 -7.886194e+04
-2.434783e+05 3.681566e+05 -1.600000e+05
-3.304348e+05 4.000000e+05 -1.600000e+05
2.086377e+05 -4.000000e+05 -7.886463e+04
8.695652e+04 4.000000e+05 -1.600000e+05
4.000000e+05 -3.481145e+04 -7.886354e+04
2.260870e+05 -4.000000e+05 -1.600000e+05
2.434889e+05 4.000000e+05 -7.885642e+04
2.086686e+05 4.000000e+05 -7.886305e+04
3.681566e+05 6.956522e+04 -1.600000e+05
-4.000000e+05 8.695652e+04 -1.600000e+05
-4.000000e+05 6.956517e+04 -1.280850e+05
-4.000000e+05 2.260870e+05 -1.600000e+05
-3.681566e+05 2.434783e+05 -1.600000e+05
2.416112e+05 2.453977e+05 -1.600000e+05
1.913043e+05 -4.000000e+05 -1.600000e+05
1.676484e+04 3.000000e+05 -8.327257e+04
-7.024570e+04 1.715146e+04 -1.200000e+05
4.000000e+05 5.217391e+04 -1.600000e+05
1.391304e+05 3.681566e+05 -1.600000e+05
-4.000000e+05 -1.043457e+05 -1.313395e+05
-4.000000e+05 6.956677e+04 -7.886432e+04
-4.000000e+05 3.652174e+05 -1.600000e+05
3.130435e+05 3.681566e+05 -1.600000e+05
-3.652174e+05 -4.000000e+05 -1.600000e+05
-4.000000e+05 -1.376571e+05 -8.037280e+04
-4.000000e+05 -1.739894e+05 -1.283231e+05
-3.362016e+05 -1.913043e+05 -1.600000e+05
-4.000000e+05 -1.565217e+05 -1.600000e+05
-4.000000e+05 -1.405259e+05 -1.298366e+05
-3.362016e+05 1.217391e+05 -1.600000e+05
1.043478e+05 4.000000e+05 -1.280850e+05
-3.478261e+04 3.681566e+05 -1.600000e+05
4.000000e+05 1.913043e+05 -1.600000e+05
-3.681566e+05 -1.739130e+05 -1.600000e+05
-4.000000e+05 -1.217391e+05 -1.600000e+05
4.000000e+05 -1.565217e+05 -1.600000e+05
-1.391304e+05 -3.681566e+05 -1.600000e+05
1.217391e+05 4.000000e+05 -1.600000e+05
1.043478e+05 3.681566e+05 -1.600000e+05
-4.000000e+05 -3.505277e+05 -8.131819e+04
-1.739130e+04 4.000000e+05 -1.600000e+05
4.000000e+05 2.608696e+05 -1.600000e+05
-3.681566e+05 6.956522e+04 -1.600000e+05
-7.153514e+04 -4.999860e+04 -1.200000e+05
-2.956522e+05 -4.000000e+05 -1.600000e+05
-1.565217e+05 -4.000000e+05 -1.600000e+05
4.000000e+05 -4.000000e+05 -1.600000e+05
-2.166667e+05 2.678710e+05 -1.200000e+05
-4.000000e+05 5.217391e+04 -1.600000e+05
4.000000e+05 2.260870e+05 -1.600000e+05
-4.000000e+05 -4.000000e+05 -1.600000e+05
-2.956522e+05 4.000000e+05 -1.600000e+05
-1.049358e+05 -2.211891e-09 -1.200000e+05
4.000000e+05 -1.913043e+05 -1.600000e+05
-3.000000e+05 -2.039101e+05 -6.806201e+04
-3.099448e+05 -1.890656e+05 -6.036592e+04
-3.000000e+05 -1.849378e+05 -6.698057e+04
3.000000e+05 7.938840e+04 -6.804778e+04
3.122706e+05 8.727847e+04 -5.960623e+04
3.108764e+05 6.754755e+04 -6.348016e+04
3.215299e+05 7.042289e+04 -5.674008e+04
3.000000e+05 6.302699e+04 -6.813850e+04
2.431653e+05 -2.556420e+05 -9.834673e+04
2.442240e+05 -2.243075e+05 -9.699590e+04
2.721669e+05 -2.276431e+05 -9.626398e+04
2.483456e+05 -1.838580e+05 -9.740834e+04
2.374524e+05 -2.469889e+05 -7.415442e+04
2.488879e+05 -2.100650e+05 -7.388011e+04
2.671414e+05 -2.332928e+05 -7.343710e+04
2.191421e+05 -2.140388e+05 -7.055328e+04
2.179976e+05 -2.315013e+05 -9.268426e+04
2.165268e+05 -2.046984e+05 -9.647874e+04
8.816990e+04 -8.252856e+04 -8.309446e+04
9.160003e+04 -4.448844e+04 -9.579914e+04
6.335593e+04 -7.264143e+04 -8.677699e+04
6.115890e+04 -4.500603e+04 -8.156447e+04
8.921583e+04 -4.893745e+04 -7.380562e+04
2.925540e+04 -5.322187e+04 -9.594610e+04
3.504538e+04 -8.675302e+04 -8.463480e+04
3.358735e+04 -6.097782e+04 -7.248755e+04
8.866874e+04 -1.123213e+05 -8.428430e+04
6.047698e+04 -1.077792e+05 -7.189152e+04
3.263177e+04 -1.219536e+05 -7.155125e+04
5.428724e+04 -1.120061e+05 -9.632431e+04
-6.482301e+04 -1.247688e+05 -9.234299e+04
-4.513592e+04 -1.307714e+05 -7.222892e+04
-4.513829e+04 -9.628856e+04 -8.192580e+04
-7.441836e+04 -1.082352e+05 -7.128719e+04
-1.339791e+05 2.689880e+05 -8.312292e+04
-1.434074e+05 2.340156e+05 -9.664303e+04
-1.197077e+05 2.483945e+05 -9.911722e+04
-1.038698e+05 2.727345e+05 -9.962792e+04
-1.803215e+05 1.933111e+05 -7.288919e+04
-2.261101e+05 2.066979e+05 -7.129888e+04
-1.206999e+05 2.204200e+05 -9.859289e+04
-9.075583e+04 2.359381e+05 -9.552916e+04
-9.890840e+04 2.657109e+05 -7.490935e+04
3.881911e+03 -7.717686e+04 -8.755750e+04
-1.488344e+03 -5.886591e+04 -7.458439e+04
2.043848e+05 -9.148731e+04 -9.913114e+04
1.894713e+05 -5.464329e+04 -9.791243e+04
1.812830e+05 -8.516387e+04 -7.941979e+04
2.062665e+04 2.369287e+05 -7.362693e+04
4.886933e+04 2.378155e+05 -9.443439e+04
3.220324e+04 2.649072e+05 -9.559349e+04
3.944115e+04 2.607494e+05 -7.017859e+04
6.558128e+04 2.702204e+05 -7.333761e+04
5.914083e+04 2.251271e+05 -7.101436e+04
7.866951e+04 2.428568e+05 -7.196232e+04
-1.998879e+05 -2.742261e+05 -9.001162e+04
-2.156303e+05 -2.493683e+05 -9.789122e+04
-1.737673e+05 -1.432284e+05 -7.550991e+04
-1.592529e+05 -1.679913e+05 -8.565662e+04
-1.899084e+05 -1.749903e+05 -6.945342e+04
-1.753608e+05 -2.004052e+05 -8.708714e+04
-1.927118e+05 -2.166272e+05 -7.128995e+04
-2.089625e+05 -1.919608e+05 -9.065466e+04
-2.493390e+05 9.774179e+04 -7.328473e+04
-2.737585e+05 1.240893e+05 -8.303091e+04
-2.342990e+05 1.178626e+05 -9.541703e+04
-2.659604e+05 9.771641e+04 -9.776055e+04
-2.517562e+05 1.397509e+05 -9.980622e+04
-2.499697e+05 6.532428e+04 -9.184795e+04
-2.788854e+05 6.897511e+04 -9.897468e+04
-2.734577e+05 8.493190e+04 -7.510597e+04
-2.760693e+05 2.071769e+04 -8.780309e+04
-2.216240e+05 2.017590e+05 -9.387940e+04
-1.910217e+05 2.171546e+05 -9.075708e+04
-2.503378e+05 3.489124e+04 -9.601869e+04
-2.740125e+05 5.239653e+04 -7.678347e+04
-2.768665e+05 4.311920e+04 -1.010994e+05
-5.350809e+04 2.694262e+04 -8.258098e+04
-7.910606e+03 1.475078e+04 -7.341272e+04
-4.360046e+04 -2.375192e+03 -8.482742e+04
-2.411968e+05 -2.580949e+05 -7.372902e+04
-5.346961e+04 -3.401042e+04 -8.775875e+04
-2.262231e+04 -2.527474e+04 -8.587406e+04
-2.464841e+05 -2.572030e+05 -9.902419e+04
-6.170859e+04 -4.331648e+03 -7.012661e+04
1.193145e+05 4.709316e+03 -9.719867e+04
1.202299e+05 -3.333922e+04 -9.864950e+04
9.503217e+04 -1.711265e+04 -7.427491e+04
9.107195e+04 -5.026869e+03 -9.806323e+04
6.742777e+04 -5.451372e+03 -7.961520e+04
7.021899e+04 3.849771e+04 -8.455400e+04
1.920149e+05 -2.177758e+04 -9.537148e+04
2.134948e+05 -3.475504e+04 -7.566849e+04
2.180698e+05 -4.386870e+04 -1.013387e+05
-2.249916e+05 -2.178947e+05 -8.530799e+04
-2.555680e+05 -2.287206e+05 -9.498399e+04
2.221762e+05 -8.305576e+03 -9.836124e+04
2.160284e+05 -6.343703e+04 -8.147920e+04
2.449618e+05 -7.224635e+04 -9.506967e+04
2.516679e+05 -4.069943e+04 -7.170494e+04
2.452750e+05 -3.708276e+04 -9.632559e+04
2.195738e+05 2.141700e+05 -7.224398e+04
2.480924e+05 2.385178e+05 -7.135437e+04
2.301762e+05 2.303331e+05 -8.864707e+04
2.177264e+05 2.474568e+05 -6.965796e+04
1.917099e+05 2.525315e+05 -8.102827e+04
2.020411e+05 2.764177e+05 -8.216124e+04
2.591606e+05 1.321236e+05 -7.287601e+04
2.593018e+05 1.587880e+05 -9.428053e+04
-8.909038e+04 3.837587e+04 -9.398738e+04
-1.346881e+05 2.904398e+04 -9.550912e+04
-1.286538e+05 3.946674e+04 -7.334384e+04
-1.090681e+05 5.849371e+04 -8.466088e+04
-2.474689e+05 2.412147e+05 -7.181126e+04
-2.706535e+05 2.284920e+05 -8.311362e+04
-2.440279e+05 2.203480e+05 -9.570172e+04
2.339989e+05 2.734140e+05 -7.254009e+04
-2.519158e+05 6.479716e+04 -6.755589e+04
-2.081719e+05 6.241963e+04 -8.175913e+04
-1.920188e+05 2.781993e+04 -7.272263e+04
-2.274516e+05 4.579725e+04 -7.314460e+04
-2.246610e+05 1.518390e+04 -7.779987e+04
-2.221152e+05 8.201422e+04 -7.125447e+04
-1.956916e+05 3.853856e+04 -9.556606e+04
-2.200549e+05 4.874615e+04 -1.011667e+05
-2.528256e+05 3.415057e+04 -7.058467e+04
1.053594e+05 2.562654e+05 -1.000508e+05
8.563211e+04 2.336427e+05 -9.589528e+04
1.193850e+05 2.215837e+05 -9.804156e+04
1.460093e+05 2.346335e+05 -9.518091e+04
1.415369e+05 1.882177e+05 -9.576916e+04
1.324212e+05 2.070086e+05 -7.174084e+04
9.902333e+04 2.025151e+05 -1.016213e+05
-2.504332e+05 1.371476e+05 -7.318138e+04
-2.245608e+05 1.509775e+05 -8.110064e+04
-2.191308e+05 1.149553e+05 -7.259881e+04
-2.291086e+05 8.716707e+04 -9.795162e+04
1.910060e+05 1.294934e+05 -7.284933e+04
1.112439e+05 -6.171905e+04 -7.238788e+04
1.836180e+05 7.021198e+04 -9.660596e+04
1.606718e+05 9.171163e+04 -9.970637e+04
1.912898e+05 9.641615e+04 -7.447132e+04
1.876866e+05 1.093375e+05 -9.946146e+04
1.619343e+05 1.159958e+05 -8.743265e+04
1.702723e+05 1.525530e+05 -8.391543e+04
1.223661e+05 -8.065906e+04 -9.152035e+04
2.159509e+05 1.144493e+05 -9.716306e+04
1.978774e+05 1.425990e+05 -9.852163e+04
2.044807e+05 -2.480939e+05 -7.435098e+04
1.890493e+05 -2.226474e+05 -7.181625e+04
1.889330e+05 -2.269684e+05 -9.590157e+04
2.109880e+05 -2.528085e+05 -9.850792e+04
-8.013012e+04 6.755899e+03 -9.763136e+04
-1.163886e+05 -8.816830e+03 -9.722441e+04
-8.719541e+04 2.825602e+03 -7.196331e+04
-1.098486e+05 1.581476e+04 -7.841854e+04
-1.445212e+05 -4.891020e+02 -9.034990e+04
-8.749844e+04 3.999535e+04 -7.003327e+04
1.466971e+05 -1.111417e+05 -8.553773e+04
1.510119e+05 -8.549339e+04 -8.546416e+04
1.587622e+05 -6.560269e+04 -9.840915e+04
1.103609e+05 -9.749813e+04 -6.918870e+04
-2.462896e+05 -1.844075e+05 -7.999960e+04
-2.161554e+05 -1.652134e+05 -8.006726e+04
-1.912236e+05 -2.271024e+05 -9.377591e+04
4.584896e+04 2.170086e+04 -7.161722e+04
1.529247e+04 4.100273e+04 -8.331126e+04
4.011409e+04 6.227646e+04 -7.127124e+04
4.072843e+04 5.375002e+04 -9.799883e+04
7.020923e+04 7.482439e+04 -9.672585e+04
4.689892e+04 1.500167e+04 -9.695548e+04
3.906745e+04 8.416738e+04 -8.701907e+04
-2.611102e+05 -1.541221e+05 -9.480209e+04
-2.555424e+05 -1.572581e+05 -7.321182e+04
-2.802911e+05 -1.689901e+05 -7.619503e+04
1.211975e+05 -2.920113e+04 -7.307640e+04
1.358934e+05 -2.199533e+05 -9.661036e+04
1.646518e+05 -2.140376e+05 -9.507037e+04
1.701304e+05 -2.480906e+05 -7.309462e+04
1.524400e+05 -2.193240e+05 -7.138306e+04
1.524645e+05 -2.430337e+05 -9.634907e+04
1.464838e+05 -2.702385e+05 -8.505069e+04
1.778661e+05 -2.574714e+05 -9.883484e+04
1.153393e+05 -1.269219e+05 -8.612701e+04
-8.782890e+04 1.817536e+05 -7.334517e+04
2.203222e+04 -2.526978e+05 -9.960462e+04
1.266011e+05 2.725134e+05 -9.733425e+04
1.163301e+05 2.399872e+05 -7.436321e+04
9.881625e+04 2.668589e+05 -7.457972e+04
-1.636243e+05 2.703971e+05 -9.781854e+04
6.992297e+04 2.653881e+05 -9.679270e+04
2.791590e+05 2.364644e+05 -9.920153e+04
2.519077e+05 2.307739e+05 -9.804839e+04
2.218829e+05 2.069912e+05 -9.745470e+04
2.616011e+05 1.965078e+05 -9.752680e+04
2.473071e+05 1.995415e+05 -7.445811e+04
2.740711e+05 2.252066e+05 -7.632696e+04
-2.461544e+05 -2.647168e+03 -9.787252e+04
-2.532347e+05 3.534403e+03 -7.397679e+04
-1.376489e+05 -1.491389e+05 -9.071283e+04
-4.520620e+04 -2.138741e+05 -9.833294e+04
-4.348065e+04 -2.409074e+05 -9.529708e+04
-1.892763e+04 -2.198874e+05 -9.448355e+04
-2.743599e+05 -2.406288e+05 -7.741003e+04
-2.730999e+05 -2.053703e+05 -7.364511e+04
-6.698221e+04 -2.484361e+05 -7.436773e+04
-3.289765e+04 -2.648070e+05 -7.376544e+04
-3.639205e+04 -2.681778e+05 -9.833517e+04
-7.665435e+04 -2.514299e+05 -9.979882e+04
-1.174947e+04 -2.495393e+05 -1.003832e+05
1.596204e+03 -2.738055e+05 -8.754767e+04
2.664500e+04 -2.462207e+05 -7.458304e+04
-7.815923e+03 -2.453791e+05 -7.588371e+04
3.593192e+04 -2.728219e+05 -8.228309e+04
-2.493384e+05 1.737093e+05 -7.172737e+04
-2.250393e+05 1.767632e+05 -7.318245e+04
-1.977577e+05 1.723003e+05 -7.441171e+04
-2.216926e+05 -7.389014e+04 -9.835017e+04
-2.107874e+05 -4.425865e+04 -9.667482e+04
-2.366489e+05 -4.156443e+04 -8.249431e+04
-2.072548e+05 1.777093e+05 -9.936153e+04
-2.450384e+05 1.712728e+05 -9.611533e+04
-1.916519e+05 1.414382e+05 -8.710642e+04
-1.759134e+05 1.855774e+05 -9.785504e+04
-1.402456e+05 1.919388e+05 -9.671910e+04
-1.625106e+05 2.138506e+05 -8.669513e+04
-1.590592e+05 2.392988e+05 -7.595547e+04
-1.869915e+05 2.494716e+05 -9.622096e+04
-1.351555e+05 2.080650e+05 -7.386014e+04
-2.161057e+05 2.397811e+05 -8.178143e+04
-2.509953e+05 2.443738e+05 -9.870827e+04
-2.379453e+05 2.679944e+05 -9.277381e+04
-2.648393e+05 1.956841e+05 -8.566054e+04
1.994362e+05 -2.759108e+05 -8.729810e+04
2.319439e+05 2.610884e+05 -9.500007e+04
2.077927e+05 2.345469e+05 -9.697846e+04
2.743676e+05 1.099466e+05 -9.382151e+04
2.462234e+05 9.772522e+04 -9.458536e+04
2.550081e+05 9.492992e+04 -7.135063e+04
2.767442e+05 7.399121e+04 -8.462631e+04
2.459493e+05 1.241522e+05 -9.818776e+04
2.306676e+05 -2.734038e+05 -8.029863e+04
2.710321e+05 -2.703777e+05 -8.400034e+04
7.638011e+03 -2.054546e+04 -8.544458e+04
2.104299e+04 -3.511645e+04 -7.161853e+04
4.689951e+04 -1.925978e+04 -8.205267e+04
2.799513e+04 -2.433811e+03 -7.286921e+04
-2.734965e+05 1.604762e+05 -8.437637e+04
2.489446e+05 -7.411547e+04 -7.008201e+04
2.475446e+05 -1.090149e+05 -7.886764e+04
4.997168e+04 -1.511158e+05 -7.541464e+04
5.060211e+04 -1.703842e+05 -9.730251e+04
8.032473e+04 -1.412346e+05 -8.118889e+04
-1.070477e+05 -1.311372e+05 -9.822445e+04
-1.012779e+05 -9.700493e+04 -7.770248e+04
-9.934983e+04 -1.320545e+05 -7.337295e+04
-8.615460e+04 -1.111617e+05 -9.602489e+04
-7.575591e+04 -7.953305e+04 -7.985850e+04
1.276236e+05 -2.468007e+05 -7.433595e+04
1.242166e+05 -2.545413e+05 -9.872396e+04
1.006405e+05 -2.743310e+05 -8.768246e+04
6.981914e+04 -2.739744e+05 -8.725758e+04
8.700650e+04 -2.494825e+05 -9.898089e+04
-1.560575e+05 -2.259384e+05 -8.111069e+04
-1.219650e+05 -2.276018e+05 -9.509336e+04
-1.373347e+05 -2.493270e+05 -7.381530e+04
-1.196647e+05 -2.169912e+05 -7.375171e+04
-1.447880e+05 -2.509333e+05 -9.823404e+04
-1.736721e+05 -2.543032e+05 -7.245839e+04
-1.794518e+05 -2.528969e+05 -9.820397e+04
1.090959e+05 -1.631734e+05 -9.657128e+04
7.968890e+04 -1.677431e+05 -8.572347e+04
1.147439e+05 -1.669879e+05 -7.214784e+04
-1.927188e+05 -1.114605e+05 -9.522600e+04
-2.268253e+05 -1.392063e+05 -9.650315e+04
-1.890777e+05 -1.487526e+05 -9.700550e+04
-2.206730e+05 -1.362491e+05 -7.470202e+04
-1.775929e+05 -1.818629e+05 -1.000228e+05
-8.479143e+04 -2.053241e+04 -9.208058e+04
-1.898129e+04 4.339363e+04 -7.829066e+04
-1.895814e+04 9.887224e+03 -9.697808e+04
-2.960328e+03 2.749743e+04 -9.956873e+04
1.672164e+04 1.267813e+04 -9.287819e+04
2.680186e+05 2.657491e+05 -8.484146e+04
9.527686e+04 1.765764e+04 -7.348463e+04
-2.200738e+05 -1.080632e+05 -7.213202e+04
-2.250194e+05 -1.076653e+05 -9.846589e+04
9.765718e+04 2.569736e+04 -9.797811e+04
-2.893898e+04 -6.504791e+04 -9.599249e+04
-1.712729e+04 -9.214121e+04 -9.938443e+04
-1.810904e+04 -1.144336e+05 -7.376863e+04
1.143580e+04 -1.053592e+05 -9.019250e+04
-2.861058e+04 -1.190700e+05 -9.912367e+04
-1.068643e+05 8.450080e+04 -7.748348e+04
-1.310953e+05 6.549953e+04 -6.865385e+04
-1.347626e+05 6.543619e+04 -9.521329e+04
-1.357097e+05 1.026717e+05 -8.466997e+04
-1.093285e+05 1.034403e+05 -9.806325e+04
-7.980384e+04 7.818481e+04 -8.573865e+04
-8.621860e+04 1.179747e+05 -7.338098e+04
2.719286e+05 -9.494474e+04 -8.617924e+04
2.753396e+05 -1.298920e+05 -8.457428e+04
-1.135616e+05 1.165775e+05 -7.096215e+04
2.739211e+05 -1.655623e+05 -8.330193e+04
5.376860e+04 -2.502545e+05 -9.910669e+04
5.861024e+04 -2.464965e+05 -7.502018e+04
1.778593e+05 2.375288e+05 -9.434166e+04
1.825501e+05 2.100026e+05 -9.780666e+04
1.661094e+05 2.079064e+05 -7.424302e+04
1.884697e+05 1.766756e+05 -9.525009e+04
1.923734e+05 2.238682e+05 -7.122257e+04
1.937443e+05 1.861367e+05 -7.257055e+04
-2.014092e+05 2.736526e+05 -8.586016e+04
-2.033543e+04 -8.264126e+04 -7.160118e+04
2.750141e+05 -1.978903e+05 -8.330837e+04
7.452085e+03 2.336419e+05 -9.732705e+04
2.563484e+04 2.014015e+05 -9.691463e+04
-2.275410e+05 -2.765852e+05 -9.239293e+04
2.460809e+04 -8.668163e+03 -9.975297e+04
1.389094e+05 -1.241601e+04 -9.097091e+04
1.569136e+05 -3.366954e+04 -8.509941e+04
1.645201e+05 -9.211095e+03 -9.246682e+04
1.507825e+05 1.241501e+04 -9.634223e+04
1.482946e+05 -1.100816e+04 -7.048864e+04
-1.191037e+05 -1.989192e+04 -7.247548e+04
-9.019498e+04 -4.122700e+04 -7.199867e+04
-1.203256e+05 -4.618190e+04 -9.048905e+04
2.780232e+05 1.863783e+05 -7.064432e+04
2.548744e+05 1.633044e+05 -6.920462e+04
1.562943e+05 2.421643e+05 -7.160328e+04
2.017876e+04 1.737539e+05 -7.907454e+04
5.285704e+04 1.738653e+05 -9.638032e+04
5.850505e+04 1.919874e+05 -7.314382e+04
6.050928e+04 1.557198e+05 -7.191191e+04
8.440996e+04 1.722237e+05 -7.390167e+04
6.471698e+04 2.091104e+05 -9.491656e+04
7.858451e+04 1.840712e+05 -9.873204e+04
2.523490e+05 -1.445634e+05 -7.483690e+04
2.438970e+05 -1.350911e+05 -9.780948e+04
2.429016e+05 -1.810049e+05 -7.116765e+04
1.082124e+05 1.655703e+05 -9.710012e+04
1.196216e+05 1.633443e+05 -7.300217e+04
1.413107e+05 1.471486e+05 -9.704219e+04
1.438409e+05 1.331568e+05 -7.194386e+04
1.135796e+05 1.277124e+05 -9.535040e+04
1.941238e+05 1.546275e+05 -7.156756e+04
-1.603942e+05 -2.748630e+05 -8.816030e+04
-1.284768e+05 -2.750072e+05 -8.768577e+04
9.333543e+04 -2.420076e+05 -7.400847e+04
2.238806e+05 4.682676e+04 -7.579897e+04
2.491739e+05 1.275540e+04 -7.938073e+04
2.605063e+05 4.718954e+04 -9.677963e+04
2.580758e+05 3.858261e+04 -7.490182e+04
2.707852e+05 1.519799e+04 -1.012653e+05
2.650713e+05 -1.331494e+04 -8.262964e+04
-5.557959e+04 2.365877e+05 -9.570555e+04
2.198716e+05 -9.386681e+04 -7.587136e+04
1.831590e+05 -4.878600e+04 -7.315540e+04
-2.696645e+05 -9.650459e+04 -8.449141e+04
-2.606901e+05 -1.246207e+05 -9.605967e+04
-2.430289e+05 -9.046112e+04 -8.884189e+04
-2.448867e+05 -1.212832e+05 -7.471400e+04
-2.587666e+05 -6.322010e+04 -7.324023e+04
-2.618454e+05 -6.245762e+04 -9.824501e+04
-2.168400e+05 -7.630793e+04 -7.416864e+04
-1.654947e+05 5.192776e+04 -9.555294e+04
-1.630462e+05 8.646509e+04 -9.679762e+04
-1.880895e+05 6.632393e+04 -1.021630e+05
-1.842640e+05 6.936656e+04 -7.651904e+04
-1.953927e+05 9.937062e+04 -9.497075e+04
-1.837202e+05 1.005099e+05 -7.136590e+04
-1.574149e+05 7.848793e+04 -7.171701e+04
-2.024195e+04 -1.571821e+05 -7.344398e+04
1.283169e+04 -1.632337e+05 -8.979673e+04
8.974995e+02 -1.327779e+05 -8.752733e+04
1.719983e+04 -1.464321e+05 -6.956438e+04
2.883950e+04 -1.353127e+05 -9.732827e+04
2.225794e+05 -9.930749e+03 -7.403668e+04
2.204363e+05 1.952067e+04 -7.276728e+04
1.912648e+05 7.643171e+03 -8.577607e+04
-1.036517e+05 1.982928e+05 -9.622734e+04
1.594751e+05 1.322577e+04 -7.386992e+04
1.815501e+05 -8.293953e+03 -6.906335e+04
1.264875e+05 4.527602e+03 -7.635527e+04
2.226423e+05 1.495034e+05 -7.691406e+04
2.260886e+05 1.762919e+05 -9.152582e+04
-1.254724e+04 1.132757e+05 -9.554281e+04
5.287526e+03 1.431255e+05 -9.834541e+04
-3.464105e+03 1.470915e+05 -7.457378e+04
1.971000e+04 1.220736e+05 -8.285355e+04
-2.409157e+04 1.190547e+05 -7.362703e+04
3.063118e+04 1.441612e+05 -6.968989e+04
3.756980e+04 1.434074e+05 -9.571806e+04
1.246666e+04 9.469911e+04 -7.402446e+04
2.097632e+05 -1.740214e+05 -8.661833e+04
2.140546e+05 -1.456440e+05 -9.257801e+04
2.298020e+05 -1.543998e+05 -7.814859e+04
2.235495e+05 -1.251796e+05 -7.335662e+04
2.486428e+05 6.827959e+04 -7.791730e+04
2.104736e+05 4.805555e+04 -9.585604e+04
3.565495e+04 2.098189e+05 -7.203261e+04
1.437724e+05 -1.878964e+05 -8.300005e+04
1.479932e+05 -1.476559e+05 -8.916895e+04
1.112948e+04 9.640291e+04 -9.919687e+04
-2.051836e+04 8.246579e+04 -7.983453e+04
1.007910e+05 1.322472e+05 -7.211475e+04
7.400584e+04 1.491269e+05 -9.625294e+04
7.993980e+04 1.154037e+05 -8.389166e+04
5.003844e+04 1.091865e+05 -9.269370e+04
-6.329914e+03 -5.069205e+04 -9.838746e+04
-7.568059e+02 2.060267e+05 -7.650608e+04
-1.594180e+05 4.548953e+04 -7.268504e+04
-4.622463e+04 1.037909e+05 -9.646880e+04
-1.533427e+05 1.667533e+05 -8.148514e+04
-1.333515e+05 1.408750e+05 -8.324694e+04
-1.628295e+05 1.222288e+05 -8.687833e+04
-1.156016e+05 1.689304e+05 -9.652674e+04
-1.183144e+05 1.805626e+05 -7.255482e+04
-1.725507e+05 1.763882e+04 -9.606046e+04
-1.785593e+05 -2.093446e+04 -9.341610e+04
-1.473592e+05 -2.748588e+04 -9.605868e+04
-1.531540e+05 -1.376113e+04 -7.021988e+04
1.606403e+05 8.247358e+04 -7.419224e+04
5.162495e+04 1.284876e+05 -7.529939e+04
-2.065725e+05 7.477216e+03 -9.927867e+04
-9.607935e+04 1.507759e+05 -7.367351e+04
-6.381999e+04 1.407499e+05 -9.439514e+04
-6.066051e+04 1.755999e+05 -7.220596e+04
-5.929228e+04 1.310323e+05 -7.024946e+04
-2.843345e+04 1.428669e+05 -9.632769e+04
-3.663822e+04 1.510423e+05 -7.112164e+04
-5.401624e+04 9.757855e+04 -7.094209e+04
-7.852226e+04 1.099957e+05 -9.644935e+04
-5.767362e+04 -6.152932e+04 -7.613495e+04
-8.634959e+04 -4.758320e+04 -9.716730e+04
7.919576e+04 -1.916435e+05 -9.839128e+04
9.138798e+04 -1.935116e+05 -7.524672e+04
1.110890e+05 -1.930230e+05 -9.602467e+04
1.165256e+05 -2.147638e+05 -7.319356e+04
1.053385e+05 -2.223031e+05 -9.679018e+04
-2.725291e+05 2.704036e+05 -8.520999e+04
-6.424252e+04 -2.773862e+05 -8.925179e+04
1.072234e+04 -2.173665e+05 -7.241871e+04
-3.826311e+04 -2.221019e+05 -7.286174e+04
-4.341667e+03 -1.904657e+05 -7.394034e+04
8.146387e+03 -2.221821e+05 -9.816430e+04
-1.616661e+05 1.311046e+04 -7.138414e+04
7.302842e+04 7.949464e+04 -7.197109e+04
1.032046e+05 9.201004e+04 -8.451319e+04
-3.785293e+04 -1.855455e+05 -8.797854e+04
-6.862033e+04 -1.909311e+05 -8.306064e+04
-6.379116e+04 -1.537342e+05 -8.646808e+04
-9.926631e+04 -1.978451e+05 -9.432923e+04
-9.285438e+04 -1.660088e+05 -8.488426e+04
-1.015221e+05 -1.922963e+05 -7.010100e+04
9.697195e+04 2.054960e+05 -7.650180e+04
-9.560090e+04 -2.751095e+05 -8.843020e+04
-1.116701e+05 -2.512458e+05 -9.956205e+04
-7.141919e+04 -2.236838e+05 -9.732375e+04
-9.622519e+04 -2.273310e+05 -9.472818e+04
-1.050839e+05 -2.472691e+05 -7.460569e+04
-8.176541e+04 -2.170492e+05 -7.172937e+04
2.741285e+05 -6.329552e+04 -8.151645e+04
1.810284e+05 -1.565415e+05 -8.314245e+04
1.899780e+05 -1.225563e+05 -8.672119e+04
2.194004e+05 -1.190777e+05 -9.902701e+04
-2.657592e+05 -2.600397e+04 -8.368927e+04
1.748168e+05 -1.880855e+05 -9.711091e+04
1.840739e+05 -1.927953e+05 -7.366458e+04
-2.071880e+05 -2.552256e+05 -7.415612e+04
-2.743187e+04 -1.494988e+05 -9.648886e+04
-2.741583e+05 -2.734548e+05 -8.473662e+04
1.470795e+05 -6.087306e+04 -7.511194e+04
-1.047779e+05 -7.349901e+04 -8.412362e+04
-1.262447e+05 -9.970169e+04 -9.783335e+04
-1.256958e+05 -1.065173e+05 -7.279937e+04
-1.325957e+05 -7.407925e+04 -8.345566e+04
-1.550323e+05 -4.961444e+04 -7.211164e+04
-1.008968e+05 1.368399e+05 -9.513393e+04
-1.219148e+05 -1.718348e+05 -8.650652e+04
-2.163176e+05 -1.596087e+04 -9.577761e+04
-2.251956e+05 -1.736725e+04 -7.359987e+04
1.355847e+05 7.389629e+04 -9.616811e+04
1.348962e+05 1.061661e+05 -9.609295e+04
1.328602e+05 4.034381e+04 -9.701250e+04
1.295283e+05 6.638935e+04 -7.137045e+04
1.007738e+05 5.473672e+04 -8.488208e+04
-1.205785e+04 5.725605e+04 -9.992561e+04
1.164432e+04 6.881907e+04 -8.479786e+04
3.868108e+04 -2.250567e+05 -9.676147e+04
2.329996e+04 -1.932884e+05 -9.646328e+04
4.949054e+04 -2.104885e+05 -7.674427e+04
7.329169e+04 -2.235944e+05 -9.202413e+04
-1.408133e+05 -2.011195e+05 -9.514947e+04
-1.576814e+05 -9.647787e+04 -9.862876e+04
-1.781852e+05 -1.115582e+05 -7.160994e+04
-1.447461e+05 -1.283796e+05 -8.177924e+04
-1.626382e+05 -5.584906e+04 -9.757854e+04
-1.538031e+05 -9.044720e+04 -7.499673e+04
6.006964e+04 -1.841172e+05 -7.104687e+04
-1.178270e+05 2.380840e+05 -7.408724e+04
-7.356691e+04 2.691411e+05 -9.769906e+04
-8.549174e+03 -1.858570e+05 -9.896722e+04
1.319325e+05 2.659280e+04 -6.956092e+04
2.145769e+05 8.242358e+04 -9.615901e+04
2.240108e+05 8.257708e+04 -7.168060e+04
1.934773e+05 6.501170e+04 -7.334426e+04
1.599528e+05 4.700579e+04 -7.927762e+04
1.898171e+05 3.225899e+04 -7.545487e+04
-1.946032e+05 -1.078265e+04 -7.277971e+04
-1.008844e+05 2.117596e+05 -7.268000e+04
3.287674e+04 -1.882580e+05 -7.361325e+04
-2.720367e+05 -1.972910e+05 -9.821158e+04
-5.423193e+04 5.888303e+04 -8.263164e+04
-3.344459e+04 -5.860772e+04 -7.299583e+04
-3.772986e+04 2.133728e+05 -7.372317e+04
-4.620330e+04 2.439175e+05 -7.159119e+04
-2.629755e+04 2.380080e+05 -9.731250e+04
-6.920685e+04 2.052922e+05 -9.040578e+04
-7.693300e+04 2.358561e+05 -7.266256e+04
-2.851633e+04 2.051070e+05 -9.530183e+04
-1.134632e+04 1.741244e+05 -9.726741e+04
-2.019692e+04 1.789008e+05 -7.348915e+04
-8.287818e+04 1.703944e+05 -9.694454e+04
-6.362231e+04 2.676388e+05 -7.340508e+04
1.330328e+05 1.023047e+05 -7.163783e+04
-1.691914e+05 2.691503e+05 -7.263072e+04
-1.988604e+05 -4.110452e+04 -7.533525e+04
-1.549475e+04 2.373193e+05 -7.364673e+04
-7.161749e+03 2.684512e+05 -9.715487e+04
3.363728e+03 2.661336e+05 -7.374372e+04
-3.046321e+04 2.678419e+05 -7.344305e+04
1.521168e+05 1.741550e+05 -7.151147e+04
-1.856702e+05 -7.491077e+04 -8.718615e+04
-4.085567e+04 2.693956e+05 -9.760861e+04
1.343160e+05 2.683147e+05 -7.311754e+04
1.657662e+05 2.690152e+05 -9.120121e+04
-2.293002e+05 2.697664e+05 -7.087185e+04
2.262975e+05 1.148907e+05 -7.339769e+04
1.823752e+05 3.258468e+04 -9.883225e+04
-1.883492e+05 2.474622e+05 -7.001814e+04
-4.631676e+04 1.738273e+05 -9.518210e+04
-2.673008e+05 -1.937676e+05 -6.141058e+04
-2.719269e+05 -1.767804e+05 -6.403700e+04
-2.893339e+05 -1.788294e+05 -6.068302e+04
-2.853575e+05 -1.944050e+05 -6.267620e+04
2.811041e+05 5.803543e+04 -6.537066e+04
2.709842e+05 6.975803e+04 -6.411615e+04
2.873332e+05 7.147938e+04 -6.737909e+04
2.592297e+05 6.117886e+04 -5.900586e+04
2.653999e+05 5.016592e+04 -6.436551e+04
2.593474e+05 7.605949e+04 -6.094146e+04
2.476695e+05 4.374259e+04 -6.075361e+04
2.442979e+05 5.639972e+04 -6.325538e+04
2.417957e+05 2.805311e+04 -6.412551e+04
2.143597e+05 4.336312e+04 -6.028211e+04
2.142089e+05 2.991663e+04 -6.073936e+04
2.271326e+05 2.956541e+04 -5.950751e+04
2.303987e+05 4.374159e+04 -6.256480e+04
2.310924e+05 6.309847e+04 -6.272412e+04
1.997655e+05 2.959690e+04 -6.246037e+04
1.994905e+05 4.786745e+04 -6.295728e+04
1.804030e+05 2.801383e+04 -6.220186e+04
1.766200e+05 7.176745e+03 -5.810971e+04
1.665439e+05 1.136179e+04 -6.122685e+04
1.805062e+05 1.257332e+04 -6.774097e+04
1.654623e+05 3.280522e+04 -6.309189e+04
1.496466e+05 1.118933e+04 -6.089763e+04
1.170113e+05 -1.742183e+03 -6.348734e+04
1.300773e+05 -1.220017e+04 -6.269774e+04
1.424688e+05 -3.284696e+03 -5.864374e+04
1.350803e+05 4.656034e+03 -6.329688e+04
1.386212e+05 1.249739e+04 -5.744199e+04
1.181737e+05 -2.067851e+04 -6.119077e+04
1.037451e+05 -1.746568e+04 -6.166638e+04
8.749713e+04 -1.769618e+04 -6.015436e+04
1.021655e+05 3.688947e+03 -6.157141e+04
7.405518e+04 -3.435696e+04 -6.546705e+04
7.695713e+04 -1.281131e+04 -6.284100e+04
6.412198e+04 -2.424791e+04 -6.498150e+04
4.899209e+04 -2.722459e+04 -6.246565e+04
5.275034e+04 -4.013499e+04 -6.552523e+04
8.730653e+04 -3.693393e+04 -6.162614e+04
6.922925e+04 -3.674431e+03 -5.891378e+04
4.083885e+04 -4.659907e+04 -5.921244e+04
3.511130e+04 -3.342019e+04 -6.095218e+04
1.890859e+04 -4.418327e+04 -5.934040e+04
2.699946e+04 -5.514987e+04 -6.068885e+04
9.832004e+03 -5.779218e+04 -6.260145e+04
-8.477563e+03 -6.063322e+04 -6.143638e+04
-1.634706e+04 -7.603714e+04 -6.030230e+04
-2.568146e+04 -6.117043e+04 -6.156914e+04
-4.193651e+04 -7.070106e+04 -6.103133e+04
-3.195288e+04 -7.760137e+04 -6.056808e+04
-4.329325e+04 -8.517851e+04 -6.595807e+04
-5.488413e+04 -6.693155e+04 -6.057927e+04
-6.033394e+04 -8.281086e+04 -6.693323e+04
-5.827292e+04 -9.606850e+04 -6.086480e+04
-7.334084e+04 -8.408456e+04 -6.121383e+04
-7.517988e+04 -9.806310e+04 -6.037696e+04
-4.581658e+04 -5.972414e+04 -6.354645e+04
-6.450766e+04 -7.032202e+04 -6.605369e+04
-8.861753e+04 -9.028654e+04 -6.240929e+04
-1.035899e+05 -1.033652e+05 -6.235489e+04
-9.078607e+04 -1.083963e+05 -6.053048e+04
-1.015388e+05 -1.191475e+05 -6.397445e+04
-1.161912e+05 -1.109194e+05 -6.118426e+04
-1.329695e+05 -1.109216e+05 -5.969105e+04
-1.543002e+05 -1.354742e+05 -6.164856e+04
-1.397626e+05 -1.248834e+05 -6.515171e+04
-1.580278e+05 -1.195228e+05 -6.140052e+04
-1.485335e+05 -1.081408e+05 -6.364772e+04
-1.730376e+05 -1.220869e+05 -5.940490e+04
-1.724701e+05 -1.374857e+05 -6.113662e+04
-1.926250e+05 -1.482005e+05 -6.387692e+04
-1.812539e+05 -1.139265e+05 -5.641256e+04
-2.093892e+05 -1.622203e+05 -6.393374e+04
-1.993440e+05 -1.599820e+05 -5.756774e+04
-2.115684e+05 -1.454723e+05 -6.247689e+04
-2.255332e+05 -1.618245e+05 -6.431326e+04
-2.294484e+05 -1.486285e+05 -6.096872e+04
-2.167556e+05 -1.322253e+05 -5.702868e+04
-2.441115e+05 -1.591092e+05 -6.261576e+04
-2.385397e+05 -1.742313e+05 -6.463445e+04
-2.609751e+05 -1.684673e+05 -5.943482e+04
-2.558934e+05 -1.796499e+05 -6.340384e+04
-1.481854e+05 -7.410809e+04 -2.307531e+04
-1.470333e+05 -6.046616e+04 -1.615061e+04
-1.349269e+05 -6.820501e+04 -2.307531e+04
-1.590704e+05 -5.525481e+04 -1.057531e+04
-9.243792e+04 -2.837695e+04 -1.204623e+04
-8.155297e+04 -4.723023e+04 -2.454623e+04
-9.331958e+04 -4.212890e+04 -1.909245e+04
-9.481150e+04 -5.313331e+04 -2.454623e+04
-1.458118e+05 -4.935173e+04 -1.057531e+04
-1.056964e+05 -3.428003e+04 -1.204623e+04
-1.082059e+05 -5.592248e+04 -2.287193e+04
-1.214644e+05 -6.182556e+04 -2.287193e+04
-1.201084e+05 -4.770725e+04 -1.574386e+04
-1.335709e+05 -5.408671e+04 -1.594724e+04
-1.067140e+05 -4.491807e+04 -1.741816e+04
-1.190909e+05 -3.706920e+04 -1.037193e+04
-1.323494e+05 -4.297228e+04 -1.037193e+04
CELLS 16430 82150
4  2882 2883 2884 2885
4  611 2883 612 2885
4  612 2886 553 2885
4  2887 2882 2888 2885
4  553 2886 2888 2885
4  2889 2890 2891 2892
4  2893 2894 2895 2892
4  2893 2895 2896 2892
4  2897 2898 2891 2892
4  2899 2898 2897 2892
4  2895 2894 2900 2892
4  2899 2897 2901 2892
4  2902 2903 2904 2883
4  2904 2882 2887 2883
4  880 2882 2884 2885
4  2905 2902 2904 2883
4  615 2905 2906 2883
4  615 611 2905 2883
4  2907 2908 2909 2910
4  2907 2909 2911 2910
4  2912 2913 2914 2915
4  2916 2917 2918 2910
4  2919 2911 2909 2910
4  2920 2919 2917 2910
4  189 2921 2922 2923
4  544 2924 2925 2926
4  544 2925 2927 2926
4  998 2927 2928 2926
4  2929 2924 2930 2926
4  2931 2927 2925 2926
4  2929 2931 2925 2926
4  2932 2933 2934 2935
4  2932 2936 2937 2935
4  2938 2939 2940 2935
4  2941 2942 2943 2944
4  2945 2946 2947 2948
4  2949 2950 2951 2948
4  2952 2945 2947 2948
4  2952 2947 2953 2948
4  2954 2955 2956 2957
4  2958 2954 2959 2957
4  2960 2961 2962 2963
4  2964 2965 2966 2957
4  2959 2965 2967 2957
4  2954 2956 2965 2957
4  2968 2969 2970 2971
4  2972 2973 2974 2975
4  464 2974 2976 2977
4  0 2976 2978 2977
4  2974 2973 2976 2977
4  2974 2979 2975 2977
4  2980 2981 2982 2983
4  2984 2985 2981 2983
4  2986 2987 2988 2983
4  822 2981 2985 2983
4  117 2988 123 2983
4  123 2988 2982 2983
4  822 2989 117 2983
4  2990 2991 2992 2993
4  2994 2995 2996 2993
4  2995 2997 2998 2993
4  2990 2999 3000 2996
4  2999 3001 3000 2996
4  3000 3001 2998 2993
4  3002 2890 2895 2900
4  3003 2890 3002 2900
4  3004 3003 3005 2900
4  3006 3007 3008 3009
4  135 3010 3011 3012
4  3013 3014 3015 3012
4  3016 3015 3017 3012
4  3018 3019 3017 3012
4  3018 3015 3014 3012
4  3020 3021 3022 3023
4  135 3019 3010 3012
4  3024 2899 3025 3026
4  2920 2917 2919 3027
4  2920 2919 2911 3027
4  3028 3029 3030 3027
4  3031 2920 2911 3027
4  3030 2920 3032 3027
4  3028 3030 3032 3027
4  3031 3028 3032 3027
4  3033 3034 3035 3036
4  170 3035 3034 3036
4  170 3034 3037 3036
4  170 3037 3034 3038
4  3033 3037 3034 3036
4  987 170 3037 3036
4  3039 3040 3041 3042
4  839 600 601 3043
4  839 3044 600 3043
4  98 3045 3046 3043
4  98 3046 3047 3043
4  98 3047 3046 3048
4  3047 3046 3044 3043
4  839 98 97 3047
4  3049 3050 3051 3052
4  25 3053 3054 3055
4  25 3056 3053 3055
4  3056 3057 3053 3055
4  3058 3059 3060 3061
4  824 3058 3060 3061
4  3062 3060 3059 3061
4  501 824 3060 3061
4  709 501 3063 3061
4  3062 3064 3060 3061
4  709 3063 3065 3061
4  3063 3060 3064 3061
4  3030 2920 3066 3067
4  3068 3069 3070 3023
4  3071 3072 3073 3074
4  3075 3076 3077 3074
4  3078 3079 3080 3081
4  3080 3081 3079 3074
4  3082 3083 3051 3050
4  3077 3076 3084 3074
4  3071 3085 3072 3074
4  3086 3087 3088 2917
4  2919 2918 2917 2910
4  3030 3089 3087 2917
4  3030 2917 2920 3027
4  2920 2917 3066 2910
4  3090 3017 3091 3092
4  3093 3094 2941 2943
4  3016 3019 3017 3092
4  3095 3096 3097 3098
4  3099 3017 3100 3092
4  3101 3099 3100 3092
4  3102 3103 3104 3105
4  108 3104 3106 3105
4  3107 3108 3109 3083
4  756 3110 3104 3105
4  3111 3112 3102 3105
4  3102 3104 3110 3105
4  3113 3114 2908 2910
4  335 374 2918 3114
4  374 2916 2918 3114
4  335 2919 413 3114
4  665 2886 3115 3114
4  413 2909 2886 3114
4  2887 2909 3116 2908
4  2909 2908 2886 3114
4  2907 3116 2909 2908
4  2907 2915 2908 2910
4  3117 2886 2887 2908
4  323 372 3118 2918
4  3088 2918 2916 2917
4  3088 3089 2918 2917
4  2916 2918 3114 2910
4  2909 2908 3114 2910
4  335 2918 2919 3114
4  2919 2918 3089 2917
4  323 3118 3089 2918
4  3119 3120 3121 3122
4  3123 3124 3125 3122
4  3126 3127 3059 3122
4  3128 3129 3125 3122
4  3128 3127 3120 3122
4  3130 3131 3132 3133
4  3119 3129 3120 3122
4  3134 3135 3136 2940
4  3137 2933 3138 2935
4  3134 3139 3135 2940
4  3140 3141 3142 2943
4  3139 3138 3135 2940
4  3143 2938 2939 2940
4  3143 3136 2938 2940
4  3144 2893 3145 2896
4  3146 3147 3148 2896
4  3146 3145 3147 2896
4  3149 3150 3151 3152
4  3153 3154 3155 3152
4  3153 3155 3150 3152
4  3149 3151 3156 3152
4  2984 3157 2981 3158
4  2984 3076 3157 3158
4  3077 3159 3157 3158
4  3160 3076 2984 3158
4  3161 3077 3075 3158
4  3160 3075 3076 3158
4  3162 3163 3164 3165
4  3166 3164 3167 3165
4  3168 3169 3170 3171
4  3172 3173 3174 3175
4  3176 3170 3177 3171
4  3130 3131 3178 3132
4  3168 3179 3180 3171
4  3176 3180 3179 3171
4  629 3181 3182 3183
4  589 3184 3185 3183
4  454 3186 3187 3183
4  3188 3189 3190 3191
4  629 3184 589 3183
4  3137 3192 3139 3138
4  3193 2933 3194 3138
4  3195 3196 3197 3198
4  3135 2940 3138 2935
4  626 3135 3139 3138
4  3088 3118 3089 3087
4  3030 3087 3089 3029
4  3199 3200 3201 3087
4  3200 3201 3118 3202
4  3203 3200 3087 3029
4  3030 3204 3086 3087
4  3199 3086 3204 3087
4  813 814 3205 3206
4  813 814 988 3205
4  3207 2932 3208 3206
4  3209 2932 3207 3206
4  3210 2933 2932 3206
4  3210 2932 3209 3206
4  813 3205 3208 3206
4  813 3208 3205 3211
4  493 155 3212 3213
4  3214 3213 3212 3215
4  3216 3217 3218 3215
4  155 3219 3220 3215
4  3218 3220 3219 3215
4  422 919 3221 3222
4  952 3223 3224 3225
4  422 849 919 3222
4  3226 3227 3228 3222
4  3096 3229 3226 3222
4  849 3226 3229 3222
4  3230 3231 3232 3233
4  3234 3235 3232 3233
4  3236 3237 3238 3233
4  3239 3231 3238 3233
4  3240 3241 3242 3243
4  3034 3240 3241 3242
4  3244 3242 3241 3243
4  3245 3240 3242 3243
4  3244 3241 3246 3243
4  3247 3000 3248 2991
4  3249 3250 3251 2991
4  3252 3251 3250 2991
4  3253 2992 2990 2991
4  3253 3252 3250 2991
4  771 490 3254 3255
4  3162 3256 3255 3257
4  3258 3259 3260 3261
4  464 2974 3262 3263
4  3258 3264 3259 3261
4  3140 2943 3142 3261
4  2942 3265 2943 3261
4  3266 3038 3034 3267
4  3268 3269 3270 3271
4  3033 3037 3252 3034
4  3272 3273 3274 3275
4  3247 3266 3000 3267
4  3247 3000 3252 3267
4  41 3276 2979 3277
4  3278 3279 3274 3273
4  98 3046 3045 3277
4  3046 2954 3045 3277
4  2954 3280 3045 3277
4  3281 3282 3016 3283
4  871 3284 3281 3283
4  720 3011 3285 3283
4  871 720 3284 3283
4  3286 3287 3288 3165
4  0 3289 3290 2978
4  3163 3288 3291 3165
4  3292 3293 3294 3295
4  1005 3287 3296 3225
4  3288 3297 3291 3165
4  822 2982 2981 2983
4  3298 2980 2987 2983
4  3299 3234 3300 3235
4  2980 2981 3301 2982
4  822 562 2981 2982
4  3302 3303 3304 3305
4  3306 3307 3308 3305
4  3309 3310 3311 3305
4  3302 3304 3311 3305
4  3096 3312 3313 3314
4  3096 3229 2945 3314
4  3313 3315 3316 3314
4  3313 3315 3317 3316
4  3313 3314 3316 3318
4  3313 3316 3319 3318
4  2929 3320 3321 3322
4  3323 2929 3321 3322
4  274 273 903 3324
4  3323 3321 3325 3322
4  3326 3327 2924 3322
4  3326 2924 3328 3322
4  3003 2897 2890 2900
4  3329 2894 3330 2900
4  3331 3332 2893 2894
4  2893 3332 2895 2894
4  2890 2900 2897 2892
4  3329 3005 3333 2895
4  3329 2895 3334 2894
4  3331 2893 3330 2894
4  3330 2893 2901 2894
4  999 136 137 3010
4  3011 3010 3335 3336
4  3013 3010 3014 3012
4  3018 3337 3010 3014
4  137 3018 3337 3010
4  501 843 3338 3060
4  3339 3137 3340 2939
4  3341 3342 3343 3344
4  3345 3343 3346 3344
4  3347 2939 3341 3344
4  3339 3342 2939 3344
4  3299 3300 3348 3349
4  676 3217 3350 3220
4  723 3351 3352 3220
4  676 723 3217 3220
4  3217 3350 3220 3215
4  983 3353 3351 3220
4  3095 3312 3354 3355
4  3095 3356 3357 3355
4  3358 3359 3360 3355
4  3361 3354 3362 3355
4  3358 3363 3359 3355
4  3006 3009 3364 3365
4  3366 3006 3367 3009
4  3368 3364 3369 3009
4  3370 3371 3372 3009
4  3369 3364 3373 3009
4  3374 3373 3375 3009
4  3239 3232 3231 3233
4  973 3376 3377 3378
4  3379 3380 3381 3378
4  3382 3381 3383 3378
4  3382 3379 3381 3378
4  3381 3376 3383 3378
4  973 605 3376 3378
4  390 797 3054 3384
4  1050 3384 3385 3055
4  3386 3387 3054 3384
4  319 3384 3387 3388
4  1050 244 3389 3384
4  3389 3390 3391 3384
4  244 3390 3384 3388
4  3392 3212 3350 3215
4  3393 3394 3392 3350
4  3395 3396 3293 3397
4  3393 3392 3212 3350
4  3394 3217 3392 3350
4  934 676 3394 3350
4  3398 3125 3399 3059
4  3400 3401 3059 3402
4  3062 3400 3059 3402
4  3401 3059 3126 3127
4  256 3403 3404 3324
4  3401 3058 3126 3059
4  3405 3406 3407 3397
4  589 180 926 3408
4  180 3409 3408 3041
4  3039 3072 3040 3084
4  3410 3411 3250 3232
4  3299 3235 3349 3412
4  3413 3039 3185 3042
4  3413 3185 3408 3042
4  3062 3414 3415 3064
4  3416 3417 3418 3064
4  3416 3419 3415 3064
4  3420 3421 3422 3423
4  10 3424 191 3337
4  3176 3425 3426 3171
4  3018 3425 3337 3014
4  3427 3337 3176 3014
4  10 137 3018 3337
4  999 137 712 3337
4  999 712 3427 3337
4  3189 3428 3386 3388
4  319 3428 3429 3388
4  3190 3429 3430 3428
4  317 3430 3429 3428
4  317 3429 319 3428
4  3190 3189 3429 3428
4  3431 3422 3421 3432
4  3433 3434 3189 3428
4  319 390 3387 3384
4  3385 3435 3436 3384
4  3437 3057 3054 3053
4  3385 3436 3057 3384
4  3391 3386 3384 3388
4  3437 3438 3439 3054
4  719 3284 720 3285
4  390 162 3440 3054
4  3441 3442 3443 3444
4  3436 3386 3438 3054
4  3445 3263 3289 3446
4  3289 3263 2976 3446
4  961 0 2976 3446
4  706 3447 3448 3446
4  706 3448 329 3446
4  3244 3245 3449 3242
4  3190 3366 3371 3009
4  3364 3008 3373 3009
4  3369 3373 3364 3008
4  3450 3451 3190 3373
4  3190 3373 3451 3009
4  3452 3451 3373 3008
4  3374 3369 3373 3009
4  3450 3452 3451 3373
4  3453 3454 3455 3319
4  3456 3455 3457 3319
4  3456 3457 3317 3319
4  3454 3227 3319 3318
4  3458 3459 3460 3295
4  3461 3294 3459 3295
4  3405 3407 3179 3462
4  3292 3179 3463 3295
4  3405 3460 3293 3295
4  3464 3090 3015 3017
4  3016 3017 3090 3092
4  3465 3016 3090 3092
4  3018 3019 3424 3100
4  3466 3091 3464 3017
4  3099 3017 3091 3467
4  3018 3424 3468 3100
4  3018 3017 3015 3012
4  3019 3100 3017 3092
4  98 97 3047 3048
4  3469 3470 3471 3472
4  3473 2922 3474 3048
4  3442 3475 3444 3432
4  3473 3476 3477 3048
4  3474 3046 3476 3048
4  3477 3046 3047 3048
4  3478 3479 3212 3480
4  3481 3482 3483 3479
4  3482 3484 3479 3480
4  103 3212 3481 3479
4  3483 3482 3484 3479
4  3485 3486 3487 3488
4  3130 3489 3107 3050
4  3490 3491 3422 3423
4  3492 3493 3230 3235
4  3494 3495 3496 3486
4  3490 3494 3496 3486
4  3497 3498 3487 3486
4  3498 3423 3491 3486
4  3499 3500 3501 3502
4  3503 3504 3505 3506
4  3499 3507 3508 3501
4  3508 3507 3509 3501
4  3510 3501 3511 3502
4  3512 3513 3199 3502
4  3509 3199 3513 3502
4  913 3514 802 3229
4  3096 2945 3229 2946
4  3221 3096 3228 3222
4  3221 3229 3096 3222
4  780 849 3226 3229
4  919 802 3221 3222
4  3093 3094 2943 3070
4  802 3229 3221 3222
4  3515 3201 3510 3202
4  3510 3516 3517 3518
4  3510 3516 3519 3202
4  418 3516 3517 3202
4  541 3201 3515 3202
4  2907 3116 3520 3521
4  3520 3116 3522 3521
4  3523 3524 3525 3521
4  2907 3520 3524 3521
4  684 2954 3045 3526
4  958 837 3527 3526
4  2967 3528 2965 3526
4  2967 2964 2965 3528
4  837 3528 3529 3526
4  837 3529 3527 3526
4  3527 2965 2954 3526
4  3527 3529 2967 3526
4  3530 2965 3528 3526
4  837 652 3528 3526
4  3531 3532 3416 3533
4  3534 3416 3535 3533
4  3534 3536 3419 3533
4  3535 3532 3448 3533
4  149 3536 3448 3533
4  413 2886 665 3114
4  413 2909 553 2886
4  2915 3113 2908 2910
4  2887 2886 2909 2908
4  3117 3115 2906 2886
4  612 2906 3115 2886
4  612 3115 665 2886
4  553 2909 2888 2886
4  3537 3538 3539 3540
4  3541 2964 2967 3528
4  3503 3542 3505 3543
4  2964 3544 2965 3528
4  837 652 834 3528
4  723 3352 3217 3220
4  3545 3351 3353 3220
4  3546 3353 3545 3351
4  3546 3547 3548 3351
4  3547 3254 3548 3351
4  488 3254 3547 3351
4  723 488 3352 3351
4  3545 3352 3351 3220
4  3549 3121 2930 3122
4  3549 2930 3126 3122
4  3550 3124 3551 3126
4  3552 3124 3126 3059
4  3550 3552 3124 3126
4  574 3551 3549 3126
4  566 3551 574 3126
4  3124 3126 3059 3122
4  3400 3059 3401 3127
4  2974 2975 2973 2977
4  3289 2976 3263 2973
4  2974 3263 2976 2973
4  3553 2972 3150 2973
4  3554 3289 3553 2973
4  262 3555 3471 3556
4  3557 3471 3558 3556
4  3558 3471 3559 3556
4  3471 3555 3559 3556
4  436 3560 3555 3556
4  850 2979 2974 2977
4  850 189 2979 2977
4  3553 3289 3263 2973
4  3445 3447 3263 3446
4  3445 3289 3561 3446
4  961 2976 3263 3446
4  189 0 2978 2977
4  961 464 3263 2976
4  3562 2919 2911 2909
4  412 413 2919 2909
4  2919 3114 2918 2910
4  2920 2907 2911 2910
4  880 3563 2882 2888
4  2887 2888 2909 2886
4  414 3564 2888 2909
4  3563 3564 3565 2888
4  553 2888 880 2885
4  414 3564 943 2888
4  3564 3116 2888 2909
4  3566 3567 3193 3194
4  3567 3193 3194 3568
4  3569 3194 2933 3138
4  626 645 3569 3194
4  3569 2933 3194 3206
4  3193 3192 3194 3568
4  3401 2928 2927 2926
4  3503 3570 3093 3542
4  3571 3127 3401 2926
4  998 544 2927 2926
4  3572 3573 3574 3575
4  544 2925 658 2927
4  3576 3131 3577 3578
4  658 3579 843 2927
4  843 824 2927 3060
4  998 825 2928 2927
4  825 824 3401 2927
4  357 3580 3581 3582
4  3583 3584 3585 3581
4  272 3581 3586 3582
4  3587 2964 2966 2957
4  2956 2966 2965 2957
4  3588 3587 2966 2957
4  3589 3590 2956 2966
4  2964 2965 3591 2966
4  3591 2965 2956 2966
4  2954 2956 3591 2965
4  3591 2956 3592 2966
4  3590 3593 3592 2966
4  3590 3476 2956 3592
4  3594 3519 3595 3596
4  3594 3595 3454 3596
4  3519 3596 3516 3518
4  683 3516 3519 3596
4  682 3597 848 3596
4  95 2979 2923 3277
4  3598 2943 3599 3070
4  2978 2923 2979 2975
4  189 2923 95 2979
4  41 3280 3276 3277
4  3474 2923 2975 3277
4  3600 2975 3276 3277
4  2974 2979 3276 2975
4  3601 3602 3417 3603
4  3604 3605 3606 3067
4  3607 3601 3608 3417
4  3607 3608 3609 3417
4  3416 3417 3415 3603
4  3534 3610 3535 3603
4  3609 3535 3610 3603
4  3200 3089 3118 3087
4  3611 3612 3613 3129
4  3458 3614 3437 3459
4  3500 3615 3511 3502
4  3616 3613 3612 3399
4  3123 3125 3129 3122
4  3617 3618 3619 3620
4  3123 3124 3612 3125
4  3399 3125 3124 3059
4  3621 3622 3056 3057
4  749 3623 3624 3065
4  3062 3064 3338 3060
4  3624 3625 3552 3065
4  3625 3418 3414 3065
4  3245 3240 3626 3242
4  3449 3626 3285 3242
4  3038 3011 3285 3242
4  170 47 3038 3242
4  685 3034 3241 3242
4  685 170 3034 3242
4  3266 3240 3034 3242
4  3583 3627 3584 3581
4  3628 3360 3362 3355
4  3361 3360 3359 3355
4  3629 3360 3630 3362
4  3631 3629 2947 3362
4  3632 3575 3617 3633
4  3634 3631 2947 3362
4  3634 2947 3628 3362
4  3041 3159 3301 3157
4  562 3635 3301 2982
4  2980 3301 2981 3157
4  639 3159 2981 3301
4  639 2981 562 3301
4  656 3622 3180 3636
4  3574 3575 3637 3620
4  25 3056 3622 3053
4  3458 3437 3614 3622
4  3621 3458 3437 3459
4  3621 3437 3458 3622
4  3405 3458 3614 3622
4  3405 3180 3638 3622
4  3639 3006 3640 3365
4  3641 3642 3643 3644
4  3368 3645 3364 3365
4  3639 3645 3646 3365
4  3647 3646 3645 3365
4  3647 3645 3368 3365
4  3648 3649 3646 3650
4  3648 3650 3646 3365
4  3651 3006 3650 3367
4  3419 3338 3415 3064
4  3205 3286 3162 3255
4  3162 3286 3652 3165
4  3254 3255 3257 3653
4  3254 3257 3548 3653
4  3654 3655 3296 3653
4  3656 3548 3655 3653
4  3038 3285 3011 3336
4  3013 3657 3658 3336
4  3038 3335 3659 3336
4  3038 3011 3335 3336
4  3660 3661 3662 3663
4  3664 3661 3665 3663
4  3664 3666 3545 3667
4  3664 3666 3667 3663
4  3662 3661 3668 3663
4  3669 3667 3668 3663
4  3669 3664 3667 3663
4  3670 3671 3658 3672
4  3673 3670 3674 3658
4  3673 3674 3675 3658
4  3676 3677 3678 3583
4  3626 3658 3659 3672
4  3266 2998 3240 3672
4  3675 3240 2998 3672
4  3313 3227 3226 3318
4  3679 3680 3681 3615
4  3682 3319 3317 3316
4  775 3454 3683 3318
4  3684 3685 3641 3686
4  779 3687 3688 3318
4  3689 3316 3314 3318
4  3682 3683 3319 3316
4  775 3683 779 3318
4  3200 3089 3087 3029
4  323 3690 3691 3089
4  3691 3089 3690 3029
4  3690 3203 3679 3029
4  3692 3693 3694 3695
4  3203 3087 3030 3029
4  3028 3696 3030 3029
4  3203 3030 3696 3029
4  3028 3679 3696 3029
4  3691 3029 3028 3027
4  3697 3698 3699 3170
4  3614 3168 3439 3700
4  3697 3170 3699 3700
4  3168 3179 3170 3700
4  3572 3701 3575 3633
4  3292 3295 3702 3700
4  3614 3702 3459 3295
4  3699 3170 3292 3700
4  3703 3704 3705 3706
4  3707 3708 3704 3706
4  3709 3710 2992 3706
4  3711 3708 2992 3706
4  3559 3470 3712 3472
4  3712 3713 3475 3472
4  3469 3471 3714 3472
4  3715 3475 3491 3472
4  3469 3714 3491 3472
4  332 3691 323 3690
4  3030 3089 2917 3027
4  334 3562 2919 3089
4  3503 3505 3542 3506
4  3562 2919 3089 3027
4  3716 3717 3718 3291
4  3719 3720 3167 3297
4  3717 3288 3718 3291
4  3718 3288 3297 3291
4  3721 3719 3716 3718
4  3722 3641 3684 3685
4  3684 3643 3723 3686
4  3716 3719 3724 3167
4  366 365 3725 3726
4  378 2893 3727 3726
4  3728 3725 3729 3726
4  3331 3330 2893 3726
4  3728 3729 3330 3726
4  3730 3731 3484 3480
4  3730 3482 3732 3480
4  701 3212 103 3479
4  3732 3482 3478 3480
4  3733 3212 3734 3480
4  3162 3735 3736 3257
4  3162 3736 3256 3257
4  3547 3548 3254 3257
4  3254 3255 3256 3257
4  3737 3425 3018 3014
4  3176 3337 3425 3014
4  3018 3014 3010 3012
4  3427 3013 3010 3014
4  3737 3738 3462 3014
4  3737 3015 3738 3014
4  3512 3510 3517 3511
4  3516 3739 3518 3222
4  3517 3739 3511 3518
4  3040 3077 3041 3157
4  2984 3740 2980 3157
4  3741 3635 2980 3301
4  3040 3076 3077 3157
4  3741 2980 3740 3157
4  3742 3743 3744 3745
4  3746 3744 3747 3745
4  3748 3744 3749 3745
4  3746 3742 3744 3745
4  3607 3601 3417 3603
4  3750 2899 3144 2898
4  2899 3144 3145 3026
4  832 986 3751 3025
4  521 3145 3752 3026
4  3753 3750 2899 3026
4  3751 3024 3025 3026
4  3754 3755 3756 3169
4  3754 3756 3757 3169
4  3177 3170 3169 3171
4  3698 3177 3170 3169
4  3698 3170 3758 3169
4  3759 3760 3761 3762
4  3763 3764 3765 3762
4  3763 3765 3766 3762
4  3767 3761 3768 3762
4  3601 3769 3602 3603
4  3770 3001 2999 2996
4  2990 3710 3771 2996
4  3772 2999 3771 2996
4  3773 3774 3023 3775
4  3632 3574 3776 3620
4  3772 3710 2994 2996
4  3777 3637 3778 3779
4  3777 3778 3780 3779
4  3781 3782 3783 3779
4  3784 3783 3785 3779
4  3769 3786 3602 3610
4  3698 3758 3757 3169
4  3787 3354 3098 2946
4  3787 2947 2946 2948
4  2950 3788 2946 2948
4  3514 2950 3788 2946
4  3787 3098 3788 2946
4  233 230 3182 3789
4  230 72 3790 3789
4  233 3791 65 3789
4  3103 3106 3332 2896
4  3146 2889 3144 2896
4  3146 3144 3145 2896
4  752 3792 3793 3147
4  3146 3794 3148 3147
4  20 3145 3792 3147
4  108 409 3793 3104
4  108 3106 3795 3105
4  3102 3110 3796 3105
4  756 3110 970 3104
4  3103 3793 3148 3104
4  3103 3106 3793 3104
4  3797 3798 3583 3581
4  272 3627 3586 3581
4  357 3580 3585 3581
4  932 3580 357 3582
4  3580 3025 3725 3582
4  367 3725 832 3582
4  3798 3725 3586 3582
4  3798 3580 3725 3582
4  3799 3062 3579 3402
4  3579 3402 3062 3060
4  3799 3800 3062 3402
4  3062 3402 3059 3060
4  3062 3800 3400 3402
4  3391 3384 3390 3388
4  319 3387 3428 3388
4  319 3429 244 3388
4  3188 3191 3390 3388
4  3386 3387 3384 3388
4  3189 3391 3191 3388
4  3189 3429 3428 3388
4  3216 3801 3802 3665
4  3803 3802 3804 3665
4  723 3805 3217 3352
4  3664 3665 3666 3663
4  3216 3664 3661 3665
4  3803 3666 3802 3665
4  3804 3801 3806 3665
4  3807 3806 3661 3665
4  3660 3807 3661 3665
4  3639 2903 3646 3645
4  3369 3640 3364 3645
4  3647 3646 3808 3645
4  3809 3808 3647 3646
4  3808 3646 2903 3645
4  2964 3544 3528 3810
4  834 3560 3529 3528
4  3811 3812 3443 3810
4  3811 3443 3813 3810
4  3657 3090 3016 3015
4  3811 3560 3814 3810
4  3541 3560 3813 3528
4  3544 3814 3560 3810
4  3813 2964 3528 3810
4  3812 2964 3815 3810
4  3286 3287 3816 3288
4  3817 3818 3225 3288
4  3609 3819 3820 3535
4  3717 3163 3288 3291
4  3817 3821 3818 3288
4  3822 3286 3816 3288
4  3823 3718 3717 3288
4  3823 3822 3821 3288
4  258 3824 403 3488
4  3495 3824 3487 3488
4  3495 3825 3487 3824
4  3485 3487 3568 3488
4  404 3485 406 3488
4  3495 3487 3486 3488
4  404 3494 3485 3488
4  3826 3120 3128 3127
4  3124 3059 3125 3122
4  3128 3120 3129 3122
4  3571 2929 3127 2926
4  1050 797 3384 3055
4  3614 3180 3622 3636
4  3439 3636 3622 3053
4  3687 3827 3828 3316
4  25 3622 3636 3053
4  3385 3057 3056 3055
4  346 3376 605 3383
4  3381 3376 3829 3383
4  3382 3830 3831 3383
4  3609 3535 3820 3610
4  605 3382 604 3383
4  287 3832 3833 3187
4  3630 3833 3832 3187
4  3834 3187 3186 3183
4  3835 3836 3186 3187
4  454 3836 3832 3187
4  2945 2950 3229 2946
4  3096 3229 3514 2946
4  3837 3787 3833 3788
4  913 3514 2950 3788
4  1016 913 2949 3788
4  2953 3787 3788 2948
4  3837 2953 3787 3788
4  407 3838 3839 3840
4  3175 3007 3451 3840
4  3190 3175 3451 3840
4  3190 3451 3430 3840
4  903 3430 3451 3840
4  3188 3430 3839 3840
4  3188 3175 3190 3840
4  3838 3324 3007 3840
4  3841 3735 3842 3843
4  3844 3414 3845 3399
4  3842 3846 3847 3735
4  3847 3846 3848 3735
4  3546 3735 3736 3843
4  3669 3667 3545 3843
4  3848 3545 3667 3843
4  3849 3850 3403 3008
4  3404 3007 3324 3008
4  3369 3640 3850 3008
4  3849 3403 3324 3008
4  3451 3008 3007 3009
4  3404 3324 3403 3008
4  3451 3324 3007 3008
4  3313 3851 3227 3319
4  3454 3319 3683 3318
4  3313 3319 3227 3318
4  3852 3317 3853 3316
4  3682 3827 3683 3316
4  3852 3853 3828 3316
4  3473 3854 3477 3476
4  3687 3683 3316 3318
4  3687 3828 3689 3316
4  3855 3228 3856 3227
4  3313 3228 3226 3227
4  3855 3227 3595 3222
4  3595 3457 3454 3227
4  3857 3596 3454 3222
4  1016 3837 301 3788
4  3737 3018 3425 3017
4  3018 3468 3425 3017
4  3099 3468 3100 3017
4  3858 3859 3091 3467
4  3306 3860 3307 3303
4  3068 3598 3773 3070
4  3858 3466 2968 3467
4  3859 2971 3468 3467
4  3859 2971 3861 3468
4  189 2978 2923 2979
4  2923 2979 2975 3277
4  3862 2972 3151 2975
4  3474 2975 3600 3277
4  2972 3276 3600 2975
4  2972 2974 3276 2975
4  3862 2978 2973 2975
4  3863 3864 3865 3275
4  3866 3867 3868 3275
4  3272 3269 3273 3275
4  3869 3269 3865 3275
4  3863 3867 3864 3275
4  3870 3340 3345 3871
4  3872 3346 3423 3871
4  3420 3345 3872 3871
4  3870 3420 3873 3871
4  3339 3871 3346 3344
4  3339 3340 3498 3871
4  3498 3340 3874 3873
4  3875 3876 3877 3878
4  3879 3586 3798 3725
4  3729 3725 3727 3726
4  366 3725 3728 3726
4  3728 3879 3729 3725
4  366 3880 3728 3725
4  3881 3882 3883 3884
4  3885 3886 3887 3372
4  3174 3888 3366 3372
4  3370 3889 3367 3372
4  3885 3367 3886 3372
4  3889 3887 3886 3372
4  3435 3436 3890 3057
4  3437 3890 3436 3057
4  3385 3436 3435 3057
4  3891 3892 3893 3894
4  3057 3054 3053 3055
4  3621 3437 3622 3057
4  3895 3896 3897 3543
4  3855 3228 3227 3222
4  3096 3226 3228 3222
4  3313 3856 3228 3227
4  3221 3096 3898 3228
4  3898 3856 3855 3228
4  3899 3900 3901 3902
4  3018 3425 3424 3337
4  3903 3904 3905 3906
4  3176 3177 3907 2971
4  3737 3907 2969 2971
4  3177 3756 3468 3425
4  3176 2971 3737 3425
4  3177 3468 2971 3425
4  656 25 24 3622
4  656 3638 3180 3622
4  162 25 3636 3053
4  759 3908 162 3636
4  3505 3909 3094 3506
4  3168 3180 3636 3171
4  3614 3437 3439 3622
4  3614 3439 3168 3636
4  3168 3908 3755 3636
4  3910 3415 3800 3911
4  3910 3912 3913 3911
4  3786 3610 3914 3911
4  3786 3914 3915 3911
4  3640 3404 3403 3008
4  3006 3007 3404 3008
4  3366 3007 3006 3009
4  256 3404 3916 3838
4  3916 3404 3006 3838
4  891 1092 307 3917
4  3175 3366 3451 3007
4  3175 3838 3007 3840
4  3485 3487 3567 3568
4  3487 3918 3193 3568
4  3193 3918 3192 3568
4  621 3918 406 3568
4  508 3567 506 3568
4  2932 3919 3569 2935
4  626 3569 3135 3138
4  3342 2934 2933 2935
4  3920 3342 2934 2933
4  645 3194 3566 3206
4  3920 3339 3342 2933
4  3210 3920 2934 2933
4  3920 3566 3193 2933
4  3904 3921 3537 3896
4  3320 3644 3321 3922
4  3923 3320 3583 3922
4  3676 3583 3320 3922
4  3924 3321 3925 3922
4  3924 3676 3321 3922
4  3570 3542 3926 2944
4  3925 3321 3641 3922
4  652 601 3530 3045
4  41 98 3045 3277
4  41 684 3280 3045
4  98 601 3045 3043
4  2954 3530 3045 3526
4  2954 2955 3280 3277
4  3033 3034 2990 3035
4  798 3035 170 3036
4  685 3034 170 3035
4  3926 3505 3094 3542
4  57 3380 3377 3035
4  209 57 3377 3035
4  209 3241 685 3035
4  209 798 57 3035
4  3640 3927 3403 2884
4  2903 2884 2882 2883
4  546 3403 3927 2884
4  611 2884 2883 2885
4  2903 3927 2884 2883
4  880 2882 856 2884
4  611 880 2884 2885
4  611 2884 3927 2883
4  3928 2907 3116 2911
4  3929 3562 2911 2909
4  2920 2907 3930 2911
4  3031 2920 3930 2911
4  3928 3031 3930 2911
4  3562 3031 2911 3027
4  3565 3522 3520 3116
4  3928 3522 3116 3521
4  3565 3520 2887 3116
4  374 665 3113 3114
4  2907 3520 3116 2908
4  414 2888 553 2909
4  3115 2908 3113 3114
4  3928 3116 2907 3521
4  3331 3334 3332 2894
4  3333 2895 3103 3332
4  3792 3332 3106 2896
4  3333 3334 2895 3332
4  3103 3332 2895 2896
4  454 3186 3836 3187
4  3098 3514 3788 2946
4  3630 3832 3836 3187
4  3787 3630 3833 3832
4  741 3098 3514 3832
4  741 454 3836 3832
4  287 3833 3181 3187
4  946 3816 3208 3211
4  852 3816 946 3211
4  3286 3816 3287 3211
4  890 3287 3211 3255
4  3101 3931 3091 3092
4  852 890 3287 3211
4  3205 3208 3286 3211
4  3932 2942 2941 2944
4  3205 3211 3286 3255
4  813 3205 988 3211
4  813 988 890 3211
4  3812 3933 3592 3934
4  3935 3933 3812 3934
4  3935 3812 3936 3934
4  3937 3938 3939 3940
4  3044 3544 3591 3934
4  3044 3936 3544 3934
4  3941 3942 3081 3943
4  3944 3945 3939 3946
4  3947 3948 3071 3074
4  3949 3941 3073 3950
4  3085 3075 3077 3074
4  3072 3084 3073 3074
4  3947 3080 3948 3074
4  3947 3949 3941 3073
4  3587 2967 2964 2957
4  2964 3544 3591 2965
4  3544 3530 2965 3528
4  3527 2967 2965 3526
4  652 3530 3528 3526
4  2954 2965 3530 3526
4  3066 3113 2915 2910
4  334 2919 335 3089
4  2920 2915 2907 2910
4  413 2919 2909 3114
4  2920 2911 2919 2910
4  412 414 413 2909
4  334 412 335 2919
4  3612 3124 3399 3125
4  682 3951 3597 3596
4  3125 3059 3127 3122
4  3128 3125 3127 3122
4  3952 3273 3953 3954
4  3535 3447 3445 3448
4  329 3448 3561 3446
4  3952 3953 3955 3954
4  327 3561 329 3448
4  149 3419 3536 3533
4  3535 3532 3447 3448
4  327 149 3536 3448
4  131 3532 3531 3533
4  3956 3957 3958 3829
4  3959 3960 3957 3829
4  68 346 67 3829
4  583 3961 3829 3383
4  3957 3960 3961 3829
4  67 583 3961 3829
4  335 3089 2919 2918
4  3030 3087 3086 2917
4  3199 3201 3200 3202
4  3200 3118 3201 3087
4  541 363 3118 3202
4  372 3088 3118 2918
4  364 372 3088 3118
4  363 418 3200 3202
4  363 3200 323 3118
4  3013 3336 3010 3012
4  3737 3015 3018 3017
4  3737 3464 3738 3015
4  329 3289 0 3446
4  3553 3263 2974 2973
4  3553 2974 2972 2973
4  3861 2971 3177 3468
4  3962 3553 3445 3263
4  329 3561 3289 3446
4  683 422 418 3516
4  3963 3964 3940 3868
4  3965 3966 3783 3967
4  3968 3969 3970 3967
4  3965 3971 3966 3967
4  3972 3973 3974 3967
4  3968 3973 3969 3967
4  3975 3976 2961 3977
4  3978 3979 3980 2961
4  3975 2961 2960 2963
4  3975 2961 2963 3977
4  3981 3982 3342 2934
4  2932 3884 2937 2934
4  2936 2934 3342 2935
4  3881 3884 3883 2934
4  3210 3983 3884 2934
4  3984 3985 3986 3987
4  3988 3989 3990 3985
4  3991 3992 3993 3985
4  3992 3989 3993 3985
4  3994 3993 3988 3985
4  2968 2970 3995 2971
4  3816 3225 3818 3288
4  3822 3286 3208 3816
4  988 490 890 3255
4  3286 3208 3816 3211
4  2915 3113 3115 2908
4  2913 2915 3117 3524
4  2907 3117 2915 3524
4  3996 3887 3997 3886
4  3998 3999 4000 4001
4  3998 4002 3999 4001
4  4003 4002 4004 4001
4  4005 4006 4007 4008
4  4005 4009 4006 4010
4  709 3418 3623 3065
4  4011 4006 4012 4010
4  4005 4006 4008 4010
4  3451 3007 3324 3840
4  4013 4014 4015 4016
4  903 694 3430 3840
4  903 3451 3450 3324
4  4017 4018 4019 3802
4  274 3849 273 3324
4  4020 4021 4022 4023
4  850 3276 2974 2979
4  3554 3553 3150 2973
4  4024 2972 3600 3151
4  2972 3600 3151 2975
4  3173 3838 3175 3839
4  407 1022 3173 3838
4  256 1022 407 3838
4  4025 3990 3989 4026
4  3992 3990 4027 3989
4  4028 4029 4030 3989
4  3988 4025 3990 3989
4  2984 2981 2985 3158
4  2984 2980 2981 3157
4  2984 3076 3740 3157
4  77 3041 3159 3301
4  2984 2981 2980 2983
4  4031 3740 3741 2980
4  4031 3298 3740 2980
4  4032 4033 4034 3913
4  3912 4033 4035 3913
4  3910 3912 4035 3913
4  3910 4035 4032 3913
4  244 3429 3390 3388
4  318 3433 317 3428
4  991 244 3429 3390
4  4036 4037 4038 4039
4  318 317 319 3428
4  4040 3835 4041 3359
4  4042 3359 4043 3356
4  3095 3354 3361 3355
4  3095 4042 3356 3355
4  4018 4044 4045 3218
4  3361 3362 3360 3355
4  3413 3039 3950 4046
4  3039 3073 3950 4046
4  4047 4046 4048 4049
4  4050 4047 4046 4041
4  4051 4046 4048 4041
4  4052 4053 4054 4055
4  3937 3946 3939 4055
4  4056 4057 4053 4055
4  3910 3415 3062 3800
4  4058 4018 4045 3218
4  4056 3938 4057 4055
4  3939 4057 3938 4055
4  4059 4060 4061 4062
4  4063 4064 4065 4062
4  3703 3381 3958 3830
4  3707 3709 3703 3381
4  3382 3707 3703 3381
4  3379 3380 3709 3381
4  2968 3995 3859 2971
4  3381 3377 3376 3378
4  3781 3777 3782 3779
4  3785 3783 3782 3779
4  4066 4067 3239 3411
4  3966 4068 4069 3783
4  3965 4069 4070 3783
4  2945 3229 3689 3314
4  3784 3965 3783 3967
4  3966 3781 4068 3783
4  4071 4072 4073 4061
4  4073 4074 4075 4061
4  4076 4061 4060 4062
4  4073 4075 4076 4061
4  3409 3741 3040 3041
4  3039 3040 3072 3041
4  3040 3740 3943 3084
4  3077 3157 3076 3158
4  3741 3040 3041 3157
4  3851 3457 3227 3319
4  3226 3227 3454 3318
4  3595 3596 3519 3518
4  3516 3518 3596 3222
4  4077 3851 3457 3227
4  4078 3595 4077 3457
4  4078 3455 3595 3457
4  3507 3595 4079 3501
4  4078 3595 3507 4077
4  3455 3454 3595 3457
4  3594 4079 3595 3519
4  4079 3501 3595 3519
4  4080 4081 4082 4083
4  4080 4082 4084 4083
4  4080 4085 4082 4081
4  4086 4080 4085 4082
4  4087 3469 3825 3873
4  4088 4087 4089 3873
4  3498 3874 3825 3873
4  3420 3423 3873 3871
4  4089 3825 3874 3873
4  4087 3469 3873 3470
4  4088 4090 4087 3873
4  3095 4091 3357 3356
4  3357 4091 4092 3356
4  3363 4093 4043 3356
4  4094 4092 4091 3356
4  3363 3356 3359 3355
4  4095 4096 4097 4098
4  4099 4100 4098 4101
4  3473 4098 4097 4101
4  4102 3977 4031 4103
4  4031 4104 4105 3977
4  4105 3977 4106 4103
4  4107 4108 4109 4110
4  4111 4112 3730 4108
4  4113 4114 4115 4108
4  4115 4107 4112 4108
4  3209 3207 2932 3884
4  2932 2933 3569 3206
4  538 3515 3951 3519
4  3981 3342 2936 2934
4  645 3569 3194 3206
4  4116 4117 4118 4119
4  4120 4116 4118 4119
4  4121 4120 4116 4118
4  860 3731 3484 4118
4  214 119 4122 4118
4  214 4122 4123 4118
4  4124 3371 4125 3888
4  3191 4126 3371 3888
4  3512 3199 3510 3502
4  4127 3371 4128 3375
4  3190 3366 3191 3371
4  3006 3008 3364 3009
4  4128 3375 3371 3009
4  4124 3370 3371 3372
4  4129 3307 4130 4131
4  4132 3876 3878 4131
4  4132 4133 3876 4131
4  4134 4135 4133 4131
4  4134 4136 4135 4131
4  4137 4138 4139 4140
4  4141 4142 4143 4139
4  4141 4137 4139 4140
4  4144 3304 4145 4139
4  2941 3094 3542 2944
4  4146 3540 3926 2944
4  3932 3540 3761 2944
4  2942 3264 2943 2944
4  4146 3264 3761 2944
4  3932 3264 2942 2944
4  4147 4148 4149 4150
4  4147 4151 4152 4034
4  4066 4153 4067 3411
4  4154 4149 4152 4034
4  4147 4149 4152 4150
4  4155 4156 4157 4158
4  4159 3957 3703 4160
4  3958 3376 3771 4161
4  3709 3380 3771 3381
4  3703 4160 3705 3704
4  3707 3703 3709 3706
4  4159 3703 3957 3830
4  3703 3705 3709 3706
4  3703 3709 3958 3381
4  3030 3086 3204 3067
4  3606 3067 3605 3032
4  4162 3204 3086 3067
4  4163 3604 4162 3067
4  4164 3066 4165 3067
4  3604 3606 3204 3067
4  3799 3910 3579 3062
4  501 3060 3063 3061
4  3401 3402 2927 3060
4  3063 3064 3065 3061
4  3571 3401 2927 2926
4  3579 3062 3338 3060
4  4166 4167 4168 4169
4  4170 4168 4169 4171
4  4172 4173 4174 4169
4  4170 4169 4172 4171
4  4175 4176 3311 4177
4  69 74 4178 3960
4  4179 4180 4181 4177
4  4182 4016 4014 4177
4  3310 4176 4183 4177
4  4175 4184 4176 4177
4  4184 4181 4176 4177
4  4185 4186 4187 4188
4  4189 4157 4190 4158
4  4191 4187 4192 4188
4  4193 4194 4195 4188
4  4196 4195 4197 4188
4  4193 4195 4083 4188
4  4198 4083 4195 4188
4  4198 4195 4196 4188
4  629 589 457 3183
4  4199 4200 4038 4201
4  4202 4038 4200 4201
4  4203 4201 4039 4204
4  4203 4020 4039 4201
4  4199 4020 4203 4201
4  4205 4206 3905 4207
4  4205 4208 3895 3906
4  3588 2958 2959 2957
4  3895 3904 4209 3906
4  3904 4208 3905 3906
4  3903 4209 3904 3906
4  771 1005 852 3287
4  4210 4211 4212 3906
4  4213 4155 4214 4215
4  4216 4217 4218 4075
4  4219 4220 4074 4075
4  4220 4218 4074 4075
4  4073 4074 4221 4075
4  4222 4096 4223 4224
4  4097 4096 4222 4224
4  4225 4226 4227 4224
4  4100 4228 4096 4224
4  4229 4230 4231 4232
4  4233 4231 4230 4232
4  4234 4232 4231 4235
4  4233 4236 4230 4231
4  3162 3166 3255 3165
4  3287 3225 3288 3297
4  1005 3296 3223 3225
4  771 3296 1005 3287
4  771 3296 3287 3255
4  509 771 3254 3653
4  3166 3255 3296 3653
4  3655 3166 3296 3653
4  3720 3655 3166 3296
4  4237 3908 3439 3440
4  3439 3440 3908 3054
4  4238 4239 3439 3702
4  3437 3439 3438 4239
4  2903 3927 3640 2884
4  612 2906 2886 2885
4  3850 3403 3640 3927
4  3640 3403 3404 2884
4  990 4240 2905 3927
4  990 546 4240 3927
4  4241 3511 4242 3856
4  3313 3851 3315 3856
4  3313 3856 3315 3312
4  3898 3312 3856 3228
4  4243 4244 3201 3088
4  3515 3510 3519 3202
4  4244 3199 4245 3201
4  4245 3199 3510 3201
4  602 364 4243 3201
4  602 4243 3515 3201
4  3730 3484 3731 4118
4  860 4123 3731 4118
4  3483 4246 4247 3484
4  847 3484 4247 4117
4  119 3484 847 4117
4  860 701 3484 3731
4  701 3484 3731 3480
4  3483 3482 4246 3484
4  3797 3583 3798 4248
4  3797 3686 3685 4249
4  3923 3583 3797 3685
4  3764 3259 4250 3987
4  4251 3259 3765 3987
4  4251 4252 3259 3987
4  3760 4251 3259 3762
4  4156 4253 4157 4158
4  3760 3258 3264 3259
4  4254 4255 3732 4110
4  4071 4255 4110 4256
4  4255 4108 4112 4110
4  4255 4257 4116 4108
4  4255 3730 3732 4112
4  4255 3730 4116 4246
4  4258 4259 4260 4261
4  3333 4262 4258 4261
4  3333 3002 4262 4261
4  4263 4264 4265 4266
4  3875 4264 4267 4266
4  3108 4264 4263 4266
4  3874 3824 3825 4268
4  4269 3874 3137 3340
4  3874 3487 3825 3824
4  3339 3874 3498 3340
4  3339 3498 3874 3487
4  4270 3971 3237 4204
4  4271 4272 3238 3237
4  3236 3973 3237 3233
4  4145 3304 3309 3311
4  4273 4274 4275 3311
4  4273 3302 3304 3311
4  4145 4276 4274 3311
4  3652 3717 3163 3288
4  3716 3167 3163 3291
4  4277 4278 3823 3718
4  4279 4280 4281 4282
4  3469 3825 3824 4268
4  3495 3825 3469 3491
4  4283 4015 4182 4016
4  4284 4015 4223 4016
4  4285 4274 4276 4016
4  4284 4013 4015 4016
4  2990 3710 2996 2993
4  3252 2990 3000 2991
4  3000 2996 3001 2993
4  2995 3001 2996 2993
4  2990 3771 2999 2996
4  4153 4280 4286 4282
4  2990 2999 3034 3000
4  3320 3584 3583 3627
4  357 4287 993 3585
4  993 4287 4288 3585
4  3320 2931 3584 2925
4  4288 3584 3923 2931
4  272 3584 3627 3581
4  272 357 3584 3581
4  4289 4234 4290 4235
4  3266 3626 3038 3659
4  686 3285 3011 3242
4  47 3011 136 3335
4  3849 3450 3451 3324
4  176 273 274 3849
4  3904 3537 4208 3896
4  3537 3539 4208 3896
4  3895 4208 4291 3896
4  4292 4293 3646 4294
4  3809 4295 4296 3646
4  4295 4292 4293 3646
4  3808 2903 3640 3645
4  3809 3647 4295 3646
4  3693 3695 3575 3637
4  3573 3695 3574 3575
4  4297 3617 3575 3633
4  3692 3693 3695 3575
4  4298 4083 4186 4299
4  4193 4081 4083 4195
4  4080 4193 4081 4083
4  4084 4185 4083 4299
4  4300 3993 3992 3989
4  4028 4301 4030 4029
4  4302 3989 4027 4026
4  4303 4304 4305 4306
4  4135 4300 4029 4307
4  4028 4029 3993 4307
4  4308 4309 4310 4311
4  4312 4310 3102 4313
4  4310 4314 4315 3796
4  4316 4317 4318 4319
4  4310 3102 4314 3796
4  4305 4304 4310 4313
4  4320 3511 3517 3739
4  3855 3511 3739 3518
4  4159 4305 4311 4319
4  3221 3898 4320 3739
4  3595 3227 3454 3222
4  418 4321 3517 3739
4  4321 4320 3517 3739
4  3310 4276 3311 4177
4  4183 4176 4181 4177
4  3308 4130 4322 4176
4  4322 4323 4181 4176
4  4324 4325 4130 4176
4  4325 4323 4130 4176
4  4326 3600 2972 3276
4  4024 4327 2972 3150
4  3289 2978 2976 2973
4  464 2974 3263 2976
4  526 464 850 2974
4  2978 2975 2979 2977
4  4328 4326 2974 3276
4  526 3262 464 2974
4  3323 3925 3321 3826
4  3571 3826 3128 3127
4  3571 3128 3826 4329
4  3571 2929 3644 3826
4  3571 3826 3644 4329
4  4276 4014 4013 4016
4  4330 4331 4179 4014
4  3944 4331 3946 4014
4  3279 3944 3954 4014
4  4330 3952 3954 4014
4  3944 3946 3954 4014
4  3935 4140 4332 3933
4  4333 3444 4334 4332
4  3692 3701 4297 3575
4  4335 3695 3970 3637
4  4335 3574 3695 3637
4  3693 3637 3575 3620
4  2984 3740 3076 4336
4  4337 4338 2984 4336
4  3298 2984 4338 4336
4  4339 3049 3052 4340
4  4341 3983 4339 4340
4  4342 3489 4343 4340
4  4344 3668 4343 4340
4  4345 4342 3668 4340
4  3278 3273 3271 4015
4  4346 3273 3952 4015
4  3952 3273 3954 4015
4  3278 3279 3273 4015
4  4347 3991 4348 4349
4  4350 4349 4351 4352
4  4353 4348 3994 4349
4  3994 4348 3993 4349
4  4354 4217 4218 4352
4  4355 4356 4357 4218
4  4358 4357 4350 4218
4  4354 4218 4350 4352
4  4216 4218 4220 4075
4  4350 4218 4349 4352
4  4285 4223 4274 4016
4  4228 4227 4285 4223
4  4359 4284 3271 4223
4  4283 4360 4223 4016
4  4284 4285 4013 4016
4  4283 3952 4182 4015
4  4283 4361 3271 4223
4  4362 4363 4364 4365
4  3723 4364 4366 4249
4  4367 4366 4368 4364
4  4362 4369 4364 4363
4  4370 3834 3186 3183
4  4051 4370 4371 3185
4  457 3185 3186 3183
4  3039 3041 3185 3042
4  3957 4309 4372 3960
4  4051 3039 4370 3185
4  4373 4230 3701 4231
4  4236 4374 4297 3701
4  4297 3575 3701 3633
4  4375 3692 4376 3701
4  3573 3701 4376 3695
4  3692 4297 3693 3575
4  3572 3701 3573 3575
4  4377 4376 3573 3701
4  834 596 3560 3528
4  1019 3560 436 3556
4  3813 3815 2964 3810
4  4378 3813 3541 3560
4  1019 3529 834 3560
4  4040 3835 4370 4041
4  4371 4370 3186 3185
4  3835 3834 4370 4379
4  3039 3185 3041 3790
4  4380 4010 4374 4381
4  4382 4383 4384 4006
4  4009 4385 4006 4386
4  4009 4010 4387 4388
4  4012 4010 4386 4388
4  3889 4389 3887 3372
4  4390 4391 3846 3164
4  3174 4389 3888 3372
4  4392 3997 4393 3887
4  4393 3997 4394 3887
4  4395 4389 4396 3887
4  4395 4396 4394 3887
4  4397 4398 3154 4098
4  4399 4400 4401 4402
4  77 81 3741 3301
4  4403 3270 4402 4098
4  4399 3270 4095 4402
4  4397 3473 4398 4098
4  4404 3270 4401 4402
4  3964 3940 3954 3946
4  3963 4405 4406 3940
4  3964 3954 3940 3868
4  3963 3964 4405 3940
4  4407 2961 4408 3976
4  4407 4408 4409 3976
4  4105 4104 4410 3977
4  4410 4104 3976 3977
4  4411 4049 3978 3976
4  4410 3943 3950 3976
4  4409 3950 3943 3976
4  4105 4410 3975 3977
4  4412 3554 3553 4413
4  4412 4414 4415 4416
4  4417 3445 4412 3561
4  3959 3956 4418 3829
4  4419 4037 4039 4420
4  4421 4155 4156 4157
4  4036 4039 4201 4204
4  4036 4037 4039 4204
4  4020 4038 4023 4039
4  59 3379 3382 3378
4  3958 3376 4161 3829
4  973 3377 57 3378
4  346 973 3376 4161
4  3771 3381 3380 3377
4  57 3377 3380 3378
4  3771 3381 3377 3376
4  3835 3186 3834 3187
4  4422 3833 3630 3181
4  4423 3181 3834 3182
4  4423 4422 3834 3181
4  630 629 287 3181
4  630 287 4424 3181
4  4425 4426 4427 4143
4  4428 4427 4143 4429
4  4428 4427 4430 4143
4  4431 4024 3600 3151
4  4431 3600 2958 2955
4  3474 3151 3600 2975
4  2958 2955 3600 3276
4  3600 3276 2955 3277
4  72 3077 3161 3158
4  4432 2984 2989 2985
4  3298 2984 3740 2980
4  562 3635 81 3301
4  2986 2989 2984 2983
4  4432 2984 2986 2989
4  639 822 2981 2985
4  639 2981 3159 3158
4  822 2985 2989 2983
4  4433 4432 2989 2985
4  4434 3744 3742 4174
4  3742 3744 3743 4174
4  4375 4376 3349 4230
4  4435 4230 3349 4436
4  3348 3349 4377 4230
4  4435 4375 3349 4230
4  3750 2899 2898 4437
4  4438 2898 4439 4437
4  3024 4248 4437 4249
4  4440 4441 4437 4249
4  3753 4437 4366 4249
4  4442 4443 4444 3775
4  4445 4443 4446 4447
4  4448 3411 4449 4282
4  4446 4450 4451 4443
4  4121 4116 3730 4118
4  3730 3484 3482 3480
4  701 807 3484 3479
4  3730 4246 3482 3484
4  4121 3730 4452 3731
4  1002 860 4123 3731
4  1002 4123 4453 3731
4  4454 3958 4455 3771
4  4455 3772 3771 3710
4  2990 3771 3380 3035
4  4455 3771 3958 3705
4  3958 3771 3709 3705
4  4456 4168 4457 4458
4  4459 4460 4168 4461
4  4167 4168 4460 4461
4  4456 4166 4168 4458
4  4462 4168 4167 4461
4  3405 3179 3614 3295
4  3294 3460 3459 3295
4  3294 4463 3459 3460
4  3621 3459 3437 3890
4  3461 3702 3459 3890
4  3621 4463 3459 3890
4  4375 4236 3692 3701
4  3493 4464 4465 4376
4  4377 3349 4376 4230
4  4466 4376 3969 3695
4  4466 3573 4376 3695
4  4464 3969 4465 4376
4  4467 3997 4468 4082
4  4469 4038 4470 4471
4  4020 4023 4471 4085
4  4469 4020 4471 4085
4  4468 4394 4085 3997
4  4468 4394 4471 4085
4  4472 3761 3540 4473
4  4474 3979 4475 4473
4  4475 3759 4473 2962
4  4472 3540 3539 4473
4  3207 2937 2932 3884
4  3881 2937 3717 3884
4  3981 3881 3883 2934
4  3210 3983 3209 3884
4  3209 3983 3882 3884
4  4476 4477 3882 3884
4  3904 4209 3899 3543
4  4478 3902 4209 3543
4  3899 3902 3504 3543
4  3921 3505 3542 3543
4  4359 3271 4096 4223
4  3278 3273 3269 3271
4  4283 4222 4361 4223
4  3278 3271 4284 4015
4  4283 4361 4346 3271
4  3419 3063 3338 3064
4  3910 3062 3415 3338
4  501 3338 3063 3060
4  501 149 3063 3338
4  843 3579 3338 3060
4  499 501 843 3338
4  149 4479 3419 3338
4  3910 3419 4479 3338
4  4480 4189 4481 4158
4  4025 4482 4481 4026
4  3711 4483 3708 3706
4  4484 3681 4485 3615
4  4027 4481 4189 4026
4  4482 4481 4189 4158
4  4460 4082 4299 4461
4  4468 3997 4085 4082
4  541 363 364 3118
4  4084 4185 4193 4083
4  4468 4085 4486 4082
4  4298 4198 4186 4083
4  4173 4186 4187 4299
4  4298 4082 4083 4299
4  4487 4187 4185 4299
4  3434 3375 3190 4488
4  3433 3434 3190 3189
4  3450 3190 3451 3430
4  3190 3451 3175 3366
4  3190 3371 3191 4126
4  4489 4231 4232 4235
4  327 4490 4491 3561
4  4205 3905 3906 4207
4  4093 4207 4043 3356
4  4092 4211 4492 4207
4  4092 4492 4093 4207
4  4032 4034 4493 3913
4  4492 4211 3906 4207
4  4494 4133 4135 4307
4  4495 4496 4497 4498
4  4033 4499 4362 4365
4  4495 4496 4133 4307
4  4500 4266 4133 4498
4  3876 4133 4135 4131
4  4132 3878 3876 4266
4  4500 4132 4133 4266
4  4501 4133 3876 4266
4  3174 4396 4389 3887
4  3889 4389 4395 3887
4  4502 3888 3174 4396
4  4503 4396 4200 4504
4  4505 4427 3860 3303
4  4505 3860 3306 3303
4  3877 4265 3878 3860
4  4506 4507 3860 3303
4  3146 3148 2889 2896
4  4508 4509 2889 4510
4  2889 2891 2890 4509
4  3144 2896 2889 2892
4  3103 2895 2889 2896
4  3103 2889 3148 2896
4  4153 3251 4511 4282
4  4153 4067 3411 4282
4  4448 3251 3411 4282
4  3910 4032 4512 3913
4  4378 3813 3560 3556
4  4227 4285 4223 4274
4  4142 4273 3304 4139
4  4138 4227 4226 4139
4  4513 4227 4274 4139
4  4360 4182 4275 4016
4  4275 4274 4276 3311
4  4360 4274 4223 4016
4  4175 3311 4176 3305
4  4273 4145 4274 3311
4  4514 4406 4515 3940
4  4330 3954 3946 4014
4  850 2974 464 2977
4  3937 4515 3938 3940
4  4516 4331 3946 4055
4  3944 4331 3945 3946
4  4330 4516 4331 3946
4  4517 4518 4065 2987
4  4519 4520 4521 4151
4  2987 2980 2982 2983
4  123 4518 1011 2982
4  4065 4522 2986 2987
4  4518 4522 2987 2988
4  526 4328 3262 2974
4  4517 4065 3298 2987
4  3635 2987 3298 2980
4  4523 4524 4525 4526
4  258 403 406 3488
4  4527 4406 3963 4526
4  4527 3963 4528 4526
4  4529 4000 4530 4526
4  4523 4000 4524 4526
4  4073 4072 4074 4061
4  4531 4532 4358 4074
4  4355 4357 4532 4074
4  4533 4074 4532 4072
4  4219 4060 4220 4075
4  4533 4355 4532 4074
4  4534 4535 4348 4497
4  3196 4497 3198 4536
4  4495 4497 4496 4307
4  3196 4348 4497 4536
4  356 3584 2925 3327
4  2928 3127 2930 2926
4  3571 2931 2927 3402
4  544 356 2925 3327
4  3579 2927 3402 3060
4  658 474 661 2931
4  658 474 2931 2925
4  998 2924 544 2926
4  4537 4007 4538 4539
4  4540 4541 4382 4007
4  4542 4007 4011 4008
4  4537 4008 4007 4539
4  3021 4442 3023 4543
4  4544 3023 3774 4543
4  3774 4543 3023 3775
4  4545 4347 4536 4357
4  4545 4536 4532 4357
4  4546 3198 4534 4536
4  4547 4536 4353 4357
4  457 590 4371 3408
4  2903 4548 2904 2882
4  3639 2903 4548 3646
4  4296 4293 2904 3646
4  3576 4254 4549 4550
4  3565 4548 3520 4294
4  4548 2887 2904 2882
4  4551 2963 3766 4552
4  4553 4554 4555 4552
4  4106 2963 4551 4552
4  4556 4216 4554 4552
4  4137 4138 4140 3933
4  3441 4141 4429 4140
4  4557 4558 4559 4560
4  3441 4332 3935 4140
4  4561 4140 4138 3933
4  4334 4429 4562 4140
4  3266 3034 3000 3267
4  3723 3643 4364 3686
4  987 3037 3033 3036
4  2990 2999 3771 3035
4  685 3241 3034 3035
4  60 987 3033 3036
4  4563 3307 4129 3878
4  4563 3307 3878 3860
4  4563 4263 4265 3878
4  3875 3876 3878 4266
4  4501 4133 4266 4498
4  4263 4132 4500 4266
4  3431 3475 3422 3432
4  3442 3422 3475 3432
4  4564 4427 4565 3432
4  4566 4567 4568 4379
4  4425 3432 3442 4429
4  3431 3432 4428 4429
4  3768 4569 3764 3259
4  4570 4571 4572 3073
4  3981 3341 2936 3342
4  3760 3258 2942 3264
4  3258 2942 3264 3261
4  3140 2943 3264 2944
4  4146 3140 3264 2944
4  3768 3761 3264 3762
4  3406 3266 3659 3248
4  3406 3247 3248 4511
4  3671 3248 3659 3672
4  4412 3561 3445 3289
4  4573 4499 4363 4034
4  4574 3000 2997 2991
4  2990 2992 3710 2993
4  3266 3000 2998 3248
4  4300 3993 4029 4307
4  4535 4348 4497 4307
4  4575 4348 3993 4307
4  4032 4493 4512 3913
4  4494 4135 4029 4307
4  3925 3641 3321 3826
4  3924 3722 3676 3922
4  3641 4576 3644 3826
4  3095 3097 4042 3361
4  4577 3826 2929 3120
4  4577 4578 4579 3826
4  3924 3925 3722 3922
4  3676 3320 3325 3321
4  2929 2925 3320 3322
4  3323 3328 2929 3322
4  4577 4579 3323 3826
4  4580 3999 4003 4000
4  4529 4524 4000 4526
4  4581 4524 4523 4000
4  4003 4530 4000 4001
4  4582 4583 4149 4584
4  4585 4586 4528 4001
4  4587 3198 3083 4498
4  3107 3108 3083 4588
4  4267 3083 3197 4498
4  4587 3083 3108 4498
4  3799 4329 3800 3402
4  3400 3800 4329 3402
4  2929 3321 3644 3826
4  4578 3128 3826 3120
4  3799 4589 3644 2931
4  3799 3644 3571 2931
4  3571 3400 3128 4329
4  658 2925 2931 2927
4  3571 2927 3401 3402
4  3097 3098 3096 3514
4  2945 4590 2947 2946
4  301 3833 3832 3788
4  3095 3098 3361 3354
4  301 741 3514 3832
4  741 3098 3097 3514
4  3011 3336 3283 3012
4  3626 3659 3658 3336
4  135 3016 3019 3012
4  686 3011 47 3242
4  720 135 3011 3283
4  4591 3658 3657 3285
4  3282 4591 3657 3285
4  3285 3283 3011 3336
4  3282 3657 3016 3283
4  3626 3658 3285 3336
4  3013 3658 3659 3336
4  135 3011 3283 3012
4  136 3427 3335 3010
4  3013 3657 3336 3012
4  3773 3023 3022 3775
4  4544 3023 4543 4192
4  3020 3070 3069 3023
4  4544 3069 3023 4192
4  3068 3070 3773 3023
4  3020 3022 3070 3023
4  3493 3235 3349 4465
4  3300 3349 4465 4376
4  3300 4377 3349 4376
4  3492 3493 3235 3349
4  3348 3412 3349 4436
4  4573 4363 4499 4365
4  4573 4363 4519 4034
4  4592 4364 4369 4363
4  4592 4363 4573 4365
4  4431 4593 4594 3151
4  3474 3476 3151 4398
4  4024 4594 3149 3151
4  3474 3476 2955 3151
4  4531 4358 4073 4074
4  3576 3577 4547 4532
4  4547 4358 4532 4357
4  4547 4532 4536 4357
4  4403 4359 3270 4096
4  4399 4401 3270 4402
4  4404 3268 4401 3270
4  4397 4402 4095 4098
4  4399 4095 4397 4402
4  4595 4565 4505 4427
4  4595 4565 4427 3432
4  4505 4427 4565 3860
4  4428 3432 4427 4429
4  4586 4527 4528 4526
4  4585 4528 3866 3864
4  3866 3867 4528 3868
4  4585 4528 3864 4001
4  3998 4000 4586 4001
4  3361 3630 3360 3362
4  3998 4586 4585 4001
4  4596 4528 4530 4001
4  4530 4528 3963 4526
4  3272 3865 3269 3275
4  4597 3865 3864 3275
4  4148 4598 4150 3865
4  4597 3865 4150 3864
4  4599 3577 3133 3578
4  3576 4549 3578 4550
4  4549 4600 3806 3578
4  4600 4601 3578 4550
4  4602 4267 4264 4588
4  3875 4265 4264 4266
4  4603 4264 3108 4588
4  3108 4267 4264 4266
4  4604 4264 3875 4265
4  3040 3943 3950 3084
4  3409 3041 3040 3042
4  4409 3950 3413 3042
4  4409 3409 3040 3042
4  3740 3076 3081 3084
4  3040 3076 3740 3084
4  4410 4104 3943 3976
4  4271 4605 4606 4607
4  4608 4606 4609 4607
4  4286 4610 4607 4282
4  4271 4608 3238 4607
4  4611 4449 4607 4282
4  4067 4286 4607 4282
4  4612 4416 4583 3914
4  3534 3416 3419 3415
4  4067 3238 4449 4607
4  4004 4150 3863 3864
4  4147 4151 4521 4150
4  4521 4597 4150 3864
4  4613 4614 4615 4584
4  4148 4598 4149 4150
4  3300 4616 4466 4465
4  3493 3349 4375 4376
4  3493 4375 4464 4376
4  3230 3235 4465 3233
4  3493 3230 3235 4465
4  4272 3237 3973 3233
4  3300 3349 3235 4465
4  4512 4583 3914 3913
4  3602 3603 3610 3911
4  3910 4512 3534 3911
4  4617 4583 4416 3914
4  4617 4416 4417 3914
4  3786 3610 4416 3914
4  3959 3957 3956 3829
4  2999 3241 4618 3035
4  4368 4619 4520 4369
4  3771 3377 3380 3035
4  60 57 798 3035
4  3380 3377 3381 3378
4  3771 4618 3377 3035
4  2997 3000 2998 2993
4  4574 2997 3000 2998
4  3671 3659 3658 3672
4  3240 3000 3001 2998
4  4574 3671 2998 3248
4  4620 4621 4622 4504
4  4623 4624 4622 4504
4  4625 4626 4621 4622
4  3435 4620 4622 4504
4  3167 3291 3297 3165
4  3162 3652 3163 3165
4  3822 3816 3818 3288
4  988 3256 490 3255
4  3652 3286 3288 3165
4  3162 3652 3207 4477
4  4454 3958 3771 4161
4  972 4627 209 4618
4  209 4618 3241 3035
4  973 4618 3377 4161
4  4628 4454 4618 4161
4  209 3377 4618 3035
4  4627 4629 2999 4618
4  4630 3969 3973 3967
4  4631 3969 3973 4465
4  3972 3971 3974 3237
4  4270 3971 3972 3237
4  3236 3973 3974 3237
4  3236 4631 3973 3233
4  4608 3238 3236 3237
4  4632 4633 4634 3090
4  3674 3658 3670 4633
4  3671 3658 3659 4633
4  4635 3671 3659 4633
4  3013 3659 4633 3738
4  4635 3464 4633 3738
4  3899 3901 3504 3902
4  3895 4478 4209 3543
4  3909 3504 4636 3506
4  4637 4638 4636 3504
4  4637 3902 3504 4639
4  3899 3504 3505 3543
4  4637 3504 4636 4639
4  3130 3050 3132 4343
4  4640 4343 3661 3668
4  3662 3132 4343 3661
4  3130 3132 4640 4343
4  3441 4334 4332 4140
4  3441 4334 3444 4332
4  3443 3712 4641 3444
4  3443 3444 4641 4332
4  3442 3475 3443 3444
4  3443 3475 3712 3444
4  4642 3475 3431 3444
4  4562 4428 4430 4143
4  4425 4143 4427 4429
4  4425 4141 4143 4429
4  4334 3444 3431 4429
4  4561 4334 4562 4140
4  4564 4565 4643 3432
4  4564 4425 4427 3432
4  4334 3431 4428 4429
4  3441 3442 3444 4429
4  3095 3312 3357 4091
4  3490 3423 3422 4643
4  4644 4565 4645 4643
4  3872 4646 4647 4643
4  4644 4645 4646 4643
4  60 3033 3035 3036
4  3252 3000 3034 3267
4  3244 3245 3242 3243
4  4627 2999 3246 3241
4  3252 2990 3034 3000
4  2990 2996 3000 2993
4  3772 3770 2999 2996
4  2999 3240 3034 3000
4  2990 3771 3709 3380
4  4648 3609 3820 3610
4  4417 4416 3610 3914
4  4417 4415 3610 4416
4  3534 4417 3535 3610
4  3786 3602 3610 3911
4  4648 4649 3769 3610
4  3820 3535 4415 3610
4  4650 3980 3979 4473
4  4474 3539 3979 4473
4  4291 4208 3539 3896
4  77 3741 3041 3301
4  4650 4651 4652 3539
4  4474 4651 3979 3539
4  4403 3270 4404 4402
4  4653 3270 3269 3271
4  3268 4654 4401 3269
4  4655 4401 4399 4400
4  4654 4656 4401 3865
4  4657 3230 3232 3235
4  3230 4465 4631 3233
4  3493 4631 3230 4465
4  3300 3235 3234 4465
4  3299 3235 3300 3349
4  3230 3232 3235 3233
4  3883 3983 4339 4658
4  3982 4659 3343 4658
4  4660 3343 4659 4658
4  4660 3920 3343 4658
4  4661 4339 3983 4658
4  3920 3342 3343 4658
4  3982 4658 3342 2934
4  3547 3256 3736 3257
4  3669 3546 3547 3257
4  3286 3211 3287 3255
4  3162 3164 3166 3165
4  3822 3652 3286 3288
4  3162 3255 3286 3165
4  771 3296 3255 3653
4  3209 3162 3205 3207
4  4320 3512 3511 3615
4  4320 4484 4485 3615
4  3679 3681 3696 3615
4  3512 3615 3513 3502
4  3679 3696 3203 3615
4  3203 3696 3513 3615
4  4662 4663 4639 3745
4  3900 3902 4663 4639
4  4664 3900 4665 4663
4  4666 4663 4665 3902
4  4382 4007 4541 4383
4  4667 4668 4669 4541
4  4669 4541 3999 4383
4  4670 4668 4541 3999
4  4671 4200 4470 4394
4  4199 4469 4038 4200
4  4470 4202 4038 4200
4  4620 4503 4200 4504
4  4202 4200 4621 4201
4  4384 4006 4524 4386
4  4384 4524 4672 4386
4  4009 4673 4386 4388
4  4674 4012 4386 4388
4  574 2930 2928 3126
4  4152 4151 4499 4034
4  3858 2968 3859 3467
4  998 2928 2930 2926
4  4675 3328 2924 2930
4  2929 2930 3120 3127
4  566 3550 3551 3126
4  2930 3127 3126 3122
4  3121 3120 2930 3122
4  4676 4677 4064 4062
4  4257 4065 4677 4256
4  4678 4116 4679 4677
4  4257 4677 4108 4256
4  4680 4681 4682 4677
4  4257 4679 4116 4677
4  4114 4109 4108 4677
4  4683 4684 4048 4043
4  4051 4048 4046 4049
4  4051 4048 4040 4041
4  4685 4069 4686 4687
4  4685 4688 4069 4687
4  4685 4069 4688 4420
4  4573 4499 4033 4365
4  3381 3829 3830 3383
4  4592 4369 4520 4363
4  4589 3686 4689 4365
4  4589 4035 3642 4365
4  3642 4035 4033 4365
4  4589 4573 4035 4365
4  4676 4064 4690 4062
4  4691 4065 4257 4256
4  4071 4257 4255 4256
4  4109 4692 4110 4256
4  4109 4677 4676 4256
4  3687 3316 3689 3318
4  779 3683 3687 3318
4  780 3226 3688 3229
4  3226 3857 3688 3318
4  923 967 3688 3689
4  779 3687 923 3688
4  780 3226 3857 3688
4  3707 2992 3708 3706
4  3708 3704 4693 3412
4  4694 3704 4160 4317
4  4695 3704 3707 3412
4  4694 4693 3704 4317
4  4335 3969 3970 3695
4  3968 3970 3781 3967
4  3694 3777 3970 3637
4  4696 3637 3970 3779
4  4335 3970 4696 3637
4  3910 3913 4512 3911
4  4697 4304 4289 4698
4  4697 4303 4304 4314
4  4304 4699 3102 4260
4  4304 4260 4313 4306
4  4304 3102 4698 4314
4  3579 3910 4479 3338
4  4356 4218 4700 4352
4  4221 4350 4354 4218
4  4555 4221 4217 4075
4  4700 4217 4701 4352
4  4701 3985 4702 4352
4  4350 3994 4351 4349
4  4354 4703 4217 4352
4  3923 3685 3797 3686
4  4689 3923 3797 3686
4  3723 4366 4441 4249
4  4367 3686 3797 4249
4  3684 3685 3686 4249
4  3684 3686 3723 4249
4  207 4627 3244 3241
4  3339 2939 3340 3344
4  3178 3132 3806 3661
4  2999 3241 3240 3243
4  3178 3806 3216 3661
4  3660 3666 3665 3663
4  4704 3662 3668 3663
4  3807 3132 3662 3661
4  3549 3551 4705 3122
4  2929 3120 3826 3127
4  3401 3127 2928 2926
4  4706 3128 3120 3129
4  3119 4705 3129 3122
4  4707 4708 4709 4710
4  4711 4709 4712 4710
4  4713 4709 4714 4715
4  3619 4714 3778 4709
4  4714 4709 4708 4715
4  3910 3534 3415 3911
4  3786 3610 4415 4416
4  4417 4412 4415 4416
4  4512 4583 4617 3914
4  4716 4414 4416 4584
4  4617 4416 4583 4584
4  4717 4718 4719 4126
4  4125 4719 3391 4126
4  3190 3191 3189 4126
4  3391 4126 3191 3888
4  4124 3371 3888 3372
4  4127 3371 3375 4126
4  4717 4126 4127 4488
4  3534 3535 3536 3533
4  903 3451 3324 3840
4  995 903 317 3430
4  3188 3839 3175 3840
4  3175 3839 3838 3840
4  991 3429 3839 3390
4  694 991 3429 3839
4  4720 4721 4639 3743
4  3901 4721 4636 4639
4  4637 4636 3891 4639
4  3901 3504 3902 4639
4  4662 4639 3891 3743
4  4476 3652 3717 3163
4  3652 3288 3163 3165
4  4722 3822 4723 3818
4  3822 3816 4723 3818
4  3286 3255 3287 3165
4  3207 3652 3822 3717
4  4724 2937 3822 3717
4  3207 3822 2937 3717
4  569 3624 3552 3065
4  3608 3417 3601 3845
4  3602 3417 3415 3845
4  4725 3602 3415 3845
4  3414 3398 3845 3399
4  3500 3501 3511 4077
4  3500 3511 4241 4077
4  3499 3507 3501 4077
4  3855 3511 3501 4077
4  656 3180 711 3426
4  3855 4077 3595 3227
4  3166 3548 3735 3257
4  3162 3255 3166 3257
4  4345 3736 3547 3256
4  488 3547 3254 3256
4  4345 3547 4726 3256
4  4727 4196 4197 4188
4  4728 4197 4445 4687
4  4445 4687 4197 4447
4  4729 4197 4730 4447
4  4731 4730 4197 4687
4  4027 3989 3990 4026
4  3992 3986 4027 3990
4  4154 4152 4499 4034
4  3984 3986 3990 3260
4  4732 4027 3990 4481
4  3984 3990 4733 3260
4  4025 4733 3990 4481
4  4734 4735 4130 4131
4  4134 4736 4136 4131
4  4175 4325 4324 4176
4  4175 4275 4184 4177
4  4325 4736 4130 4323
4  4736 4136 4130 4323
4  3310 3308 4176 3305
4  125 4737 4738 4268
4  744 3557 262 4738
4  891 4738 3555 3917
4  3535 3445 3561 3448
4  262 891 4738 3555
4  262 3557 3471 4738
4  744 262 125 4738
4  262 4738 3471 3555
4  4667 4366 4668 4739
4  4740 4541 4668 4739
4  4619 4668 4670 3999
4  4669 4541 4668 3999
4  4619 4741 4668 3999
4  4742 3627 3583 3586
4  3798 3586 3581 3582
4  3923 3583 3685 3922
4  3923 3585 3583 3584
4  3797 3798 3024 4248
4  3677 3798 3583 4248
4  4330 3937 4516 3946
4  4180 4331 3944 4014
4  4743 4331 4516 4054
4  4179 4331 4743 4181
4  4516 4054 4331 4055
4  4179 4180 4331 4181
4  4655 4399 4744 4400
4  4744 4400 4399 4402
4  4613 4584 4414 4400
4  4613 4614 4584 4400
4  4744 3155 4414 4400
4  4714 4708 4559 4715
4  4557 4558 4708 4559
4  4745 4746 4713 4715
4  4559 4747 4715 4748
4  4557 4715 4746 4748
4  4051 4370 4046 4041
4  4570 3071 4571 3073
4  4571 3834 4379 3073
4  3949 3073 4379 4046
4  3039 3073 3072 3084
4  3949 3950 3073 4046
4  3039 3950 3073 3084
4  3071 3072 4749 3073
4  4570 3947 3071 3073
4  2887 2906 2883 2885
4  2904 2887 2906 2883
4  3639 2882 2903 2884
4  2893 3792 3145 2896
4  3230 3236 3231 3233
4  2914 4164 3066 2915
4  4750 3232 3234 3235
4  4751 4238 4752 3439
4  3234 3232 3239 3233
4  3427 3180 3176 3426
4  3239 3238 3231 3411
4  4694 4753 4318 4317
4  4750 3250 3232 4754
4  3410 3231 3411 3232
4  4603 4602 4264 4588
4  4602 4267 4604 4264
4  3108 4264 4267 4588
4  3107 4588 3051 3052
4  4385 4523 4581 4524
4  3082 4267 3051 3083
4  4517 4755 4556 4103
4  3107 3083 3051 4588
4  4756 3108 3107 4588
4  4097 4361 4222 4096
4  4359 4228 4284 4223
4  3507 4079 3509 3501
4  682 848 683 3596
4  4361 4096 3271 4223
4  4361 3270 4653 3271
4  4403 4096 3270 4098
4  4097 4098 4096 4101
4  4403 4100 4096 4098
4  3028 4757 3032 3696
4  541 418 363 3202
4  3606 3032 4758 3696
4  4102 4759 4760 2963
4  4758 4757 3032 4761
4  3031 3930 2920 3032
4  3991 4349 4702 3985
4  4762 4705 3123 3129
4  3030 2920 3067 3032
4  3031 3930 3032 4761
4  3418 3065 3063 3064
4  3915 4154 4033 3913
4  3737 3464 3015 3017
4  4763 3090 3464 3091
4  4764 3016 3465 3092
4  881 3016 4764 3092
4  3223 3296 3720 3297
4  3657 4633 3090 3015
4  4634 4633 3464 3090
4  3109 3083 4587 3198
4  3013 4633 3657 3015
4  3465 3282 3657 3016
4  3776 3637 3778 3620
4  3784 3970 3783 3779
4  3694 3777 3781 3970
4  4765 3721 4277 3718
4  3693 3619 3637 3620
4  3574 3637 3776 3620
4  3694 3695 3693 3637
4  4637 3891 4662 4639
4  3784 4696 3970 3779
4  4589 3644 3642 4035
4  3923 3686 3644 3922
4  3123 3551 3124 3122
4  3895 3897 4478 3543
4  390 3440 3387 3054
4  3554 3862 3150 3155
4  3923 3644 3320 3922
4  4576 3642 3644 4329
4  131 3063 149 3533
4  3676 3320 3321 3922
4  2929 2931 3320 2925
4  3915 3914 4583 3913
4  3863 4150 3865 3864
4  4152 4149 4598 4150
4  4589 3923 4689 3686
4  4521 4002 4004 4151
4  4716 3554 3290 3289
4  4520 4002 4521 4151
4  4520 4369 4766 4363
4  4519 4520 4151 4363
4  3109 3050 3082 3133
4  4767 4768 4769 3593
4  3197 3083 3198 4498
4  4587 4497 3198 4498
4  4587 4500 4495 4498
4  4500 4133 4495 4498
4  4770 3882 4476 4477
4  4267 3197 4501 4498
4  4737 4771 4772 3469
4  4587 3108 4500 4498
4  4587 4495 4497 4498
4  4773 4774 4225 4226
4  3498 3825 3495 3491
4  4097 4096 4224 4101
4  4137 4138 4226 4139
4  4344 3049 4339 4340
4  4617 4412 4491 3561
4  4775 2958 4326 3276
4  365 378 521 3727
4  752 20 378 3792
4  4513 4274 4273 4139
4  444 993 357 4287
4  4773 4222 4513 4224
4  4776 4431 3588 4593
4  3571 2931 2929 2926
4  4777 4138 4226 3933
4  4773 4226 4225 4224
4  4513 4226 4227 4139
4  4778 4779 4780 4413
4  4137 4774 4226 3933
4  3770 3001 3240 3243
4  4781 4160 4782 3705
4  106 3795 3111 3105
4  4783 4438 4784 2898
4  4785 4008 4537 4539
4  4786 2995 4787 2998
4  3033 2990 3380 3035
4  3266 3000 3240 2998
4  4786 3675 3770 2998
4  4788 4789 4790 4439
4  3711 3710 2992 2993
4  3772 2994 4791 2996
4  2995 2998 3001 2993
4  4309 4315 4372 3960
4  4791 2994 2995 2996
4  4792 4793 4606 4626
4  4564 3442 4425 3432
4  840 4794 390 3440
4  4671 4795 4200 4504
4  4507 3307 3860 3303
4  4620 4200 4621 4504
4  4796 4337 2984 4336
4  4625 4626 4793 4621
4  4797 4621 4626 4622
4  4795 4622 4621 4504
4  3835 3360 4379 4041
4  286 301 1016 3837
4  4050 4379 3360 4041
4  4408 2961 3979 3976
4  4347 4348 4536 4357
4  4568 4567 4798 3360
4  4740 4668 4366 4739
4  3361 3360 3835 3359
4  3628 3358 3360 3355
4  4568 4050 4379 3360
4  4736 4130 4136 4131
4  4567 4379 3630 3360
4  4397 3862 3155 3152
4  4462 4459 3886 4457
4  372 374 2916 2918
4  4250 4799 4732 3260
4  3862 3150 3155 3152
4  3554 3155 4413 4414
4  4743 4800 4801 4054
4  4614 4404 4401 4400
4  3964 3944 3939 3946
4  3154 4404 4802 4402
4  4780 3155 4802 4414
4  4637 4666 3902 4639
4  4803 4665 3900 3902
4  4804 4805 4312 4260
4  3831 4316 4806 4372
4  4784 4441 4667 4739
4  3274 3963 3867 3868
4  4807 4209 4478 3902
4  687 3449 686 3242
4  4173 4299 4174 4169
4  4808 4663 4662 3745
4  535 3936 4809 3814
4  3900 4720 3901 4639
4  4556 4551 4216 4552
4  4506 4565 4427 3860
4  4666 4665 4807 3902
4  4493 4149 4583 4034
4  4612 4583 4416 4584
4  4512 3913 3914 3911
4  3915 4583 4154 3913
4  4810 3823 3817 3718
4  3915 4612 4583 3914
4  4071 4256 4692 4061
4  4512 4493 4617 4583
4  493 3212 3734 3213
4  3279 3954 4015 4014
4  4811 3734 4812 3213
4  4058 3218 3219 3213
4  4812 3214 4058 3213
4  3602 3415 3417 3603
4  494 155 493 3213
4  494 4813 155 3213
4  4135 4136 4735 4131
4  4494 4135 4134 4136
4  4494 4134 4301 4136
4  4814 3078 4815 4796
4  4816 4211 3681 4817
4  3903 4803 4209 4817
4  4816 3903 4211 4817
4  4818 4211 4210 4817
4  489 4726 488 3256
4  3841 4344 4819 3736
4  4820 4821 3803 3666
4  2932 2934 2936 2935
4  3569 3138 2933 2935
4  4345 3669 4342 3547
4  3210 2934 2932 2933
4  2936 3342 2939 2935
4  117 119 118 4117
4  4822 4823 2936 2938
4  4690 4060 4059 4062
4  3361 3630 3835 3360
4  4816 3903 4492 4211
4  4823 2937 2936 2938
4  4690 4556 4060 4554
4  3341 2939 2936 3342
4  4640 3394 3805 3217
4  4824 4701 4700 4217
4  4825 4214 4799 4480
4  4822 2936 3341 2939
4  4826 4010 4827 4381
4  3573 3701 3695 3575
4  4409 3943 4104 3976
4  881 192 10 3019
4  4374 4297 3701 3633
4  4828 3617 3633 4388
4  932 4829 357 3580
4  4297 3617 3693 3575
4  544 474 658 2925
4  4373 3701 3572 3633
4  4387 3633 3632 4388
4  4345 3669 3547 3736
4  3410 4657 3231 3232
4  3011 3010 3336 3012
4  4771 3874 3825 4268
4  3821 3822 3818 3288
4  4066 3250 3251 3411
4  4067 4449 3238 3411
4  3410 4448 3251 3411
4  4153 3411 3251 4282
4  3527 2959 2954 2965
4  4067 4607 4449 4282
4  621 406 506 3568
4  4153 4286 4067 4282
4  4199 4038 4020 4201
4  4467 3997 4082 4461
4  3370 3889 4830 3367
4  4831 4457 4168 4458
4  4166 4171 4168 4458
4  4469 4471 4394 4085
4  4167 4460 4168 4169
4  4392 4832 3997 4461
4  4833 4834 4835 3851
4  3503 4478 3897 3543
4  3278 4284 3279 4015
4  3996 3997 4461 3886
4  4830 3886 4459 4457
4  41 850 95 2979
4  3955 4514 4515 3940
4  4602 4264 4604 4836
4  3996 3997 4467 4461
4  3284 3285 3282 3283
4  2899 3144 2898 2892
4  4837 2891 2898 4538
4  4838 2898 2891 4538
4  3759 3760 3932 3761
4  4839 3101 3099 3100
4  3343 4840 3872 4646
4  3750 4739 2898 4538
4  4841 4781 3956 3957
4  4783 4837 2891 2898
4  4581 4000 3999 4383
4  4283 4223 3271 4015
4  4003 3999 4002 4001
4  4837 4540 4542 4538
4  4842 4369 4741 4668
4  4740 4670 4619 4668
4  3941 3950 3943 3084
4  4669 4668 4741 3999
4  4669 3999 4580 4383
4  4358 4353 4350 4357
4  191 3468 3756 3425
4  4374 4828 4297 3633
4  3757 3177 3756 3468
4  940 3755 3426 3756
4  4145 3309 3310 3311
4  407 991 694 3839
4  3809 4843 3647 3808
4  3651 3886 3367 4457
4  4844 4652 4206 4651
4  941 4845 3754 3756
4  856 2882 3404 2884
4  941 3754 940 3756
4  4846 3438 3387 3440
4  4237 3439 3438 3440
4  4116 4679 4117 4119
4  826 72 3161 3158
4  4846 4237 3438 3440
4  2949 4847 2951 2950
4  4835 3856 4848 3312
4  840 390 162 3440
4  919 849 802 3222
4  840 162 4849 3440
4  4545 3195 3577 4536
4  848 3597 3454 3596
4  3576 4546 4547 3577
4  4547 3577 4546 4536
4  4601 3577 3578 4550
4  4546 3577 3133 3198
4  3474 2955 3600 3151
4  4431 3600 2955 3151
4  3935 3936 4774 3934
4  3474 3048 2923 3277
4  2958 2955 3276 3280
4  4850 3587 4851 2966
4  98 3048 3046 3277
4  3883 4819 4339 3983
4  850 4328 2974 3276
4  42 4328 850 3276
4  2958 3600 4326 3276
4  3729 3727 2901 3726
4  377 3728 3331 3726
4  832 521 3025 3727
4  4852 3859 3099 3091
4  161 953 83 4853
4  377 3331 378 3726
4  521 3145 3727 3792
4  852 813 890 3211
4  645 814 813 3206
4  521 3145 3025 3727
4  3982 4339 4659 4658
4  2893 3727 3145 3792
4  3366 3888 3371 3372
4  4854 4855 4724 4856
4  645 646 814 3566
4  4124 4389 3889 3372
4  4125 3888 3391 4624
4  4503 4394 4200 4396
4  3557 4772 3558 3471
4  4724 4722 3822 3919
4  4502 4857 4396 4504
4  4502 3888 4857 4624
4  4502 3191 3174 3888
4  481 3560 596 3814
4  1010 932 832 4829
4  658 2931 3579 2927
4  4783 4784 4837 2898
4  4829 3751 3753 3024
4  4125 3371 4126 3888
4  3797 3583 3585 3581
4  4125 4126 3391 3888
4  3278 3274 3272 3273
4  4346 3269 3273 3271
4  825 3401 824 3058
4  3866 3864 3867 3275
4  3869 3866 3953 3275
4  4346 3271 3273 4015
4  3279 3954 3273 4015
4  3274 3273 3279 3954
4  154 758 327 4490
4  3901 4636 3909 3504
4  4721 4636 4639 3743
4  4858 3909 4636 3069
4  709 501 149 3063
4  832 3751 4829 3025
4  519 4849 162 3908
4  3056 3057 3622 3053
4  3891 4636 3892 3894
4  3891 3743 4636 3894
4  4839 3101 4852 3099
4  3651 3639 3006 3404
4  3651 3006 3639 3650
4  301 454 741 3832
4  4859 2882 3639 3404
4  3649 3646 3650 4294
4  4860 3650 3639 4294
4  878 880 3563 2882
4  77 3741 78 3041
4  3651 4859 3639 3404
4  4861 4757 3681 4817
4  4040 4862 4371 3186
4  3679 4861 4757 3681
4  825 658 824 2927
4  4148 4150 4597 3865
4  3262 2974 3553 3263
4  4654 3272 3863 3865
4  4818 3681 4211 4817
4  4863 4757 3681 3696
4  3400 3125 3398 3059
4  4864 3400 3128 3398
4  356 3584 474 2925
4  3616 4865 3613 3399
4  3613 4865 3398 3399
4  3121 3120 2929 2930
4  4864 3398 4725 3800
4  474 993 661 4288
4  499 843 3579 3338
4  626 3139 3192 3138
4  3137 3138 3139 2940
4  626 3194 3569 3138
4  4778 4866 4415 4413
4  4867 4868 3137 3139
4  3569 3135 3138 2935
4  327 4490 758 4491
4  3333 4869 3334 3332
4  3137 3138 2940 2935
4  60 3033 3380 3035
4  3300 3234 4616 4465
4  60 3379 57 3380
4  2999 3034 3241 3035
4  135 10 137 3019
4  3466 3464 4870 2969
4  4557 4560 4559 4748
4  4871 3334 4869 3332
4  521 21 986 3752
4  4635 4870 3464 3738
4  4178 4872 4873 3960
4  881 3100 3019 3092
4  4632 3657 4633 3090
4  3437 3622 3057 3053
4  4874 4763 3931 3090
4  4500 4132 4495 4133
4  4874 4634 4763 3090
4  323 3118 3200 3089
4  4875 3086 3088 2916
4  2914 3066 4875 2916
4  373 374 4876 2916
4  3197 4497 4496 4498
4  4547 4546 4534 4536
4  373 4877 372 2916
4  4574 3248 3000 2991
4  3253 3709 2990 2992
4  3770 3001 2995 2998
4  2994 2996 3710 2993
4  2994 3710 3711 2993
4  645 506 646 3194
4  2997 2992 4878 2991
4  4508 4539 4879 4880
4  4699 4261 4260 4510
4  4210 3903 4209 4817
4  3565 4881 3522 3747
4  4474 4291 4844 3539
4  4508 2889 4699 4510
4  4882 4510 4699 4883
4  4884 4509 4879 4510
4  3168 3439 3908 3636
4  2942 2943 3264 3261
4  3140 3142 4569 3261
4  4885 3509 4245 3199
4  3265 3142 2943 3261
4  3093 2943 3598 3070
4  3094 3141 3140 2943
4  3284 3449 4591 3285
4  3812 3815 3443 3810
4  4851 2964 3593 2966
4  3812 2964 3591 3593
4  4851 3593 2964 3815
4  4660 4659 4836 4886
4  3221 3095 3898 3096
4  4660 4840 4646 4836
4  4887 3204 4888 3513
4  4840 4602 4604 4836
4  4603 4836 4602 4886
4  3564 3929 3928 3116
4  4889 4313 4260 4306
4  4804 4312 4258 4260
4  4699 3103 4260 4261
4  4884 4890 4260 4510
4  4259 4884 4260 4261
4  3773 4214 4891 3599
4  4860 4892 4166 4171
4  4805 4889 4313 4260
4  3563 4548 2882 2888
4  3929 3562 3031 2911
4  4312 4313 3102 4260
4  4258 3102 3103 4260
4  4804 4258 4259 4260
4  3808 3640 3369 3645
4  3831 4695 4159 3830
4  4159 4311 4317 4319
4  4159 3957 4309 4372
4  3449 3245 4591 3626
4  3957 4372 3830 3961
4  4781 4893 4455 3705
4  3957 3958 3703 4160
4  3699 3463 3292 3907
4  3433 3189 3190 3428
4  4894 4610 4279 3460
4  4316 4159 4317 4319
4  3414 3418 3417 3064
4  3608 3414 4895 3417
4  274 903 3450 3324
4  1000 4764 881 3016
4  4717 4125 4127 4126
4  871 3281 135 3283
4  3609 4895 3416 3417
4  4896 3190 3375 3373
4  4897 3844 3608 3845
4  3607 3769 3601 3603
4  3414 3417 3415 3064
4  3062 3415 3845 3800
4  2915 3115 3117 2908
4  4865 3845 4725 3398
4  3534 3416 3415 3603
4  3534 3610 3603 3911
4  3601 3417 3602 3845
4  413 665 374 3114
4  3639 3650 3646 4294
4  990 615 611 2905
4  2920 2907 2915 4165
4  3769 3610 3602 3603
4  3662 3132 4898 4343
4  4599 3133 3132 3578
4  3807 3806 4600 3578
4  3178 3806 3132 3578
4  4640 3132 3178 3661
4  329 9 3290 4491
4  3178 3132 3131 3578
4  373 372 374 2916
4  3028 4757 4899 4761
4  3723 4842 4441 4366
4  3723 4842 4366 4364
4  4592 4364 4368 4369
4  3753 4366 4437 4739
4  4047 4048 4046 4041
4  327 4490 3561 3536
4  4842 4366 4369 4668
4  735 3690 363 3200
4  589 3790 3185 3184
4  3679 4818 4861 3681
4  3028 3679 4757 3696
4  3028 3032 4757 4761
4  4300 4302 4900 4029
4  4475 4760 3759 2962
4  77 81 78 3741
4  4901 4757 4664 4665
4  4899 4807 4666 4665
4  3298 3740 4336 4902
4  286 301 3837 3833
4  4637 4478 3504 3902
4  4807 4665 4803 3902
4  837 834 3529 3528
4  4899 4665 4663 4761
4  4903 4663 4664 4761
4  4861 4210 4807 4817
4  4647 4646 4840 4645
4  4899 4757 4665 4761
4  4901 4803 4817 4665
4  4901 4817 4757 4665
4  4904 3962 3447 3263
4  4327 3553 3150 4413
4  4327 4905 3553 4413
4  125 262 307 4738
4  4906 4090 4907 3470
4  3445 3553 3289 3263
4  4905 3445 3553 4413
4  3410 3251 3250 3411
4  3253 3250 2992 2991
4  4878 4657 3410 3250
4  4512 4417 3534 3914
4  3557 3469 3471 4738
4  625 626 645 3569
4  3557 3469 4772 3471
4  3715 3714 3471 3472
4  3143 2938 4822 2939
4  952 1007 953 3225
4  4344 4339 4819 4340
4  771 890 490 3255
4  3811 3813 3559 3555
4  961 706 329 3446
4  3813 3559 3555 3556
4  3093 2941 3094 3542
4  3503 3542 3093 3506
4  3497 3485 3494 3486
4  3921 3505 3926 3542
4  4042 4862 3835 3836
4  4758 4757 4863 3696
4  3921 3542 3926 3896
4  3570 3540 3926 3896
4  4908 4885 4162 3204
4  3897 3570 3542 3896
4  3926 3542 3094 2944
4  3503 3505 3504 3543
4  4808 4761 4663 4909
4  3022 3023 4442 3775
4  3564 3928 3565 3116
4  4910 3136 4722 3919
4  3113 2916 3114 2910
4  4173 4187 4174 4299
4  4515 4911 3938 4406
4  546 611 856 2884
4  3563 4860 4859 3639
4  3680 4485 3681 3615
4  4056 4558 4057 3938
4  3937 4558 4056 3938
4  418 4321 3200 3517
4  735 418 731 4321
4  4462 4459 4168 4461
4  4912 3939 4057 3938
4  373 374 664 4876
4  4911 4912 4558 3938
4  3841 3668 3736 3843
4  3848 3735 3546 3843
4  4913 3848 4044 3667
4  4914 3848 4913 3667
4  4724 4855 4910 2937
4  3929 2911 3116 2909
4  3562 2911 2919 3027
4  3207 3822 3652 3286
4  4908 3604 4887 3204
4  4823 2937 3981 2936
4  961 0 464 2976
4  3119 3121 4705 3122
4  4044 3545 3666 3667
4  3323 3924 3676 3321
4  4419 4915 3971 4420
4  474 993 4288 3584
4  42 526 850 4328
4  3972 4419 3965 3971
4  4419 3971 4037 4420
4  4037 4916 3971 4204
4  4270 4419 3972 3971
4  521 986 3025 3026
4  4419 4039 4037 4204
4  4916 3974 3971 3237
4  3630 3834 3181 3187
4  658 661 843 3579
4  301 3832 3514 3788
4  4052 4917 4800 4918
4  4580 4529 4384 4524
4  4259 4884 4890 4260
4  3787 3098 3836 3832
4  4422 4919 3630 3833
4  4852 3858 3859 3091
4  3837 3787 4919 3833
4  4438 4784 2898 4437
4  286 4424 287 3833
4  2999 4618 3771 3035
4  3405 3397 3293 3460
4  4920 4686 4921 4069
4  286 3837 4424 3833
4  4229 4373 4234 4231
4  47 4922 3038 3335
4  47 3038 3011 3335
4  584 583 3831 3961
4  3657 3016 3283 3012
4  4841 4923 4781 4160
4  4694 4160 4311 4317
4  4924 4289 4882 4698
4  3013 3335 3010 3336
4  136 3335 3011 3010
4  3554 3862 2978 2973
4  4648 3820 4649 3610
4  3427 3013 3335 3010
4  131 3531 3418 3533
4  46 136 3427 3335
4  999 3427 136 3010
4  3406 3038 4922 3335
4  3872 4646 3423 3346
4  3345 3346 3872 3871
4  3149 3156 3153 3152
4  3490 3491 3423 3486
4  4361 4653 4346 3271
4  3421 3422 3423 4643
4  3491 3873 3422 3423
4  4203 4606 4201 4204
4  4793 4609 4608 4606
4  4578 4864 4576 3128
4  4792 4793 4626 4621
4  4203 4271 4606 4204
4  4792 4606 4793 4201
4  3741 3041 3301 3157
4  621 3192 3139 4925
4  3635 2980 3301 2982
4  3550 3624 4926 3552
4  639 77 3159 3301
4  4927 3123 4762 4705
4  562 3301 2981 2982
4  822 123 2982 2983
4  3649 4294 3650 4458
4  4860 4928 4171 4458
4  4860 4548 3565 4294
4  565 3624 3550 3552
4  3520 4293 3522 4294
4  3649 4928 4294 4458
4  3624 3623 3625 3065
4  4292 4881 3522 4294
4  4517 4902 3298 4064
4  3920 3567 4929 3339
4  4690 4755 4556 4064
4  4063 4517 4064 4554
4  4065 4064 4677 4062
4  4065 4338 4677 4064
4  4930 4902 4755 4064
4  3477 3591 3476 3592
4  2954 3476 3591 2956
4  4768 4777 3592 3933
4  3477 3591 3592 3934
4  72 3790 3077 3159
4  958 652 837 3526
4  262 436 3555 3556
4  4931 4932 4933 3712
4  744 437 262 3557
4  72 3159 3077 3158
4  3040 3077 3072 3041
4  601 3530 3045 3043
4  3077 3084 3072 3074
4  3075 3077 3076 3158
4  4324 4176 4130 3305
4  3587 2959 2967 2957
4  4744 2921 3290 2978
4  3862 2973 2972 2975
4  706 3447 3532 3448
4  4716 4744 3290 3554
4  3077 3072 3790 3789
4  4904 4934 4935 3447
4  72 3077 3790 3789
4  3085 3072 3077 3789
4  4696 3778 3637 3779
4  4412 3554 4413 4414
4  3617 3693 3575 3620
4  4673 4936 4388 3620
4  4577 3323 3328 2929
4  3617 4388 4936 3620
4  4904 3962 4934 3447
4  749 3624 569 3065
4  154 149 499 4479
4  4673 4937 4936 3620
4  3619 3618 4709 3620
4  3889 3886 3367 3372
4  366 367 1023 3880
4  4308 4872 4312 4310
4  73 74 756 3796
4  4789 3798 4248 4439
4  544 356 474 2925
4  3651 3367 3650 4457
4  3370 3009 3367 3365
4  3639 3640 3006 3404
4  3885 3366 3006 3367
4  73 69 74 4178
4  756 3111 3796 3105
4  3651 3885 3367 3886
4  4938 4312 4805 4313
4  469 752 4871 3106
4  3880 4742 3879 3586
4  4608 4449 3238 4607
4  4449 3231 3238 3411
4  4271 4272 3239 3238
4  4608 3236 4916 3237
4  754 3331 4871 3792
4  3004 3005 3329 2900
4  4067 4271 3239 3238
4  3231 3236 3238 3233
4  521 20 21 3146
4  752 108 409 3793
4  4178 3111 4872 3796
4  4647 4645 4565 4643
4  3795 4871 4869 3106
4  378 20 521 3792
4  4939 4265 4565 3860
4  4564 4506 4565 4427
4  4939 4565 4506 3860
4  3923 3685 3686 3922
4  4940 4565 4645 4265
4  4564 4643 3490 3432
4  4595 4643 4565 3432
4  4890 4941 4306 4883
4  3844 3625 3608 3414
4  4289 4883 4306 4235
4  4889 4942 4319 4306
4  4911 4712 4708 4710
4  3797 3580 3798 3581
4  3323 3925 3924 3321
4  4762 3119 4705 3129
4  4943 4707 4525 4710
4  3143 4269 4868 2940
4  626 3134 3139 3135
4  749 709 3623 3065
4  4762 4944 3119 3129
4  4707 4709 3618 4936
4  4943 4406 4912 4710
4  4911 4912 4406 4710
4  4707 4525 4710 4936
4  4673 4937 4711 4936
4  4674 4386 4936 4388
4  4308 4311 4310 4313
4  4672 4386 4525 4936
4  4945 4711 4525 4936
4  937 584 4806 3961
4  4672 4525 4707 4936
4  4837 4538 4542 4539
4  4838 4537 4538 4539
4  4879 4946 4510 4880
4  4838 4509 4508 4539
4  4358 4532 4357 4074
4  992 4628 973 4161
4  4279 4281 4610 4282
4  4271 3237 4608 4204
4  3957 3961 3830 3829
4  4531 4547 4358 4532
4  4355 4545 4532 4357
4  4221 4074 4218 4075
4  68 992 346 4418
4  583 605 604 3383
4  4418 3956 4454 4161
4  4308 4841 4309 4311
4  4358 4350 4221 4218
4  4358 4074 4357 4218
4  4353 4534 4348 4536
4  4350 4357 4353 4349
4  4353 4357 4348 4349
4  4864 4576 3128 4329
4  3621 4894 3458 4463
4  3461 3459 4947 3890
4  4576 3826 3128 4329
4  4605 4609 4607 4610
4  4947 3294 4463 3459
4  3613 4864 3128 3398
4  3120 3127 2930 3122
4  4303 4305 4319 4306
4  3119 4706 4948 3120
4  4949 4950 4951 3702
4  4948 4706 4578 3120
4  4575 3993 4300 4307
4  4170 4459 4460 4168
4  3885 3887 3174 3372
4  3994 4348 4535 3993
4  4535 4028 3993 4307
4  4535 4494 4028 4307
4  3991 4702 3992 3985
4  3621 3458 3056 3622
4  3988 3993 4028 3989
4  3991 3992 4300 3993
4  4952 4953 4189 4026
4  4764 3101 3100 3092
4  4952 4189 4953 4190
4  4732 4189 4027 4481
4  4482 4952 4189 4026
4  766 3254 488 3351
4  4302 4953 4954 4026
4  2936 2939 2938 2935
4  4952 4954 4953 4026
4  4660 4661 3920 4658
4  4724 4910 3919 2937
4  4025 3989 4030 4026
4  3709 3705 3710 3706
4  3253 3707 3709 2992
4  878 3563 4859 2882
4  3520 2904 3117 4293
4  508 646 506 3567
4  766 488 723 3351
4  611 3927 2905 2883
4  2887 2883 2882 2885
4  3520 4548 2904 4293
4  3565 4881 4928 4294
4  3639 3650 3006 3365
4  3639 4548 2903 2882
4  406 3568 3918 3488
4  4955 4604 4264 4836
4  4956 3151 3476 4398
4  3715 3712 3475 3472
4  4907 4090 4957 3713
4  3441 3443 3812 4332
4  4765 4277 4810 3718
4  3149 3153 3150 3152
4  403 404 406 3488
4  625 645 813 3569
4  4024 2972 3151 3150
4  4644 4955 4958 4645
4  4397 3155 3154 3152
4  4660 4646 4958 4836
4  4089 4771 4867 3874
4  4327 3553 2972 3150
4  620 3134 4959 3139
4  4024 3149 4960 3150
4  258 4925 4961 4268
4  4327 4960 4779 3150
4  4962 3315 3853 3317
4  4561 4138 4777 3933
4  3587 2967 4851 2964
4  4513 4227 4223 4274
4  3226 3688 3314 3318
4  3265 4825 4799 3261
4  3828 3853 3689 3316
4  3952 4015 3954 4014
4  4392 3997 3887 3886
4  4830 3996 4459 3886
4  4963 4962 3315 3853
4  327 149 4490 3536
4  4716 3554 4412 4414
4  4963 3315 4590 3853
4  4284 3271 4223 4015
4  43 41 684 3280
4  4769 4768 3590 3593
4  3962 4905 4934 3445
4  2945 3853 4590 3314
4  4494 4134 4135 4133
4  404 508 406 3485
4  3325 3320 3327 3322
4  3676 3722 3685 3922
4  4644 3490 4564 4643
4  4562 4428 4143 4429
4  4141 4139 4143 4140
4  4943 4406 4525 4526
4  3648 4830 4831 4457
4  4674 4386 4672 4936
4  3544 3560 3528 3810
4  4711 4964 4525 4710
4  4564 4425 4506 4427
4  4964 4406 4525 4710
4  4564 4506 4939 4565
4  4945 4525 4523 4524
4  4529 4943 4672 4525
4  3928 3031 4808 4909
4  4523 4525 4964 4526
4  4549 4965 4600 4550
4  4185 4194 4193 4188
4  4966 3801 4967 4965
4  332 334 323 3691
4  4683 4684 4047 4048
4  4928 4171 4968 3747
4  4549 4965 3801 3806
4  4969 4844 4206 4651
4  4254 3732 4965 4110
4  4549 4254 4965 4550
4  3044 3046 3591 3530
4  535 600 3936 3544
4  4170 4172 4968 4171
4  4462 4167 4832 4461
4  2914 3113 3066 2916
4  585 4806 4697 4315
4  3588 2966 2956 2957
4  3503 3897 3570 3542
4  3850 3640 2903 3927
4  4486 4082 4081 4083
4  3046 2954 3530 3045
4  878 193 856 4859
4  4794 4846 3387 3440
4  995 317 3433 3430
4  273 3403 256 3324
4  3369 3364 3640 3008
4  3046 2954 3591 3530
4  652 3530 596 3528
4  652 684 3045 3526
4  4667 4541 4540 4739
4  412 2919 3562 2909
4  4368 4369 4366 4668
4  4832 4084 4080 4082
4  3174 4393 4503 4396
4  3651 4462 4392 3886
4  4592 4368 4520 4369
4  4520 4766 4151 4363
4  4592 4520 4519 4363
4  214 119 397 4122
4  4842 4364 4362 4369
4  4842 4362 4766 4369
4  4520 4766 4369 4002
4  4084 4083 4082 4299
4  4198 4083 4081 4195
4  4471 4023 4970 4081
4  4970 4081 4688 4195
4  4971 4688 4023 4081
4  4212 3906 4211 4207
4  4021 4971 4023 4081
4  756 935 970 3110
4  3407 3738 3395 3397
4  3396 3738 3659 3397
4  3406 3396 3397 4511
4  3407 3293 3395 3462
4  4009 4387 4673 4388
4  4712 4709 4713 4715
4  4279 4281 3397 3460
4  3405 3293 3462 3295
4  4826 4373 3633 4231
4  3293 3397 4281 3460
4  4385 4524 4383 4006
4  4972 4091 4092 4485
4  4745 3785 4973 3780
4  4320 3095 4094 4091
4  3752 3144 3750 3026
4  4848 3357 3312 4091
4  3898 3312 3095 4091
4  3363 3357 3356 3355
4  2889 2896 2895 2892
4  4974 4005 4385 4006
4  3363 3357 4092 3356
4  4242 4092 4091 4485
4  4848 4242 3357 4091
4  4589 4032 3910 4035
4  4512 4493 4583 3913
4  3912 3915 4033 3913
4  3799 3910 3912 4035
4  4345 3209 3210 3983
4  3643 3642 4033 4365
4  4216 4551 4824 3766
4  4689 3686 4364 4365
4  4701 4250 3986 3987
4  3799 4329 3644 4035
4  3799 3912 4975 4035
4  4976 4703 4251 3765
4  4760 4977 3759 2962
4  3799 4975 4329 4035
4  4421 4978 4450 4979
4  4828 4010 4012 4388
4  4233 4230 4436 4232
4  970 936 971 4924
4  4421 4980 4981 4979
4  4981 4979 4982 4748
4  4983 4920 4070 4069
4  4984 4985 4978 4979
4  4982 4980 4986 4979
4  4964 4911 4515 4406
4  4987 4988 4560 4980
4  4838 4538 4509 4539
4  4981 4980 4982 4979
4  4421 4987 4981 4980
4  4421 4989 4917 4980
4  4421 4986 4989 4980
4  4714 3618 4708 4709
4  4917 4253 4988 4989
4  4917 4988 4253 4918
4  4253 4988 4190 4918
4  4421 4253 4917 4989
4  4557 4559 4715 4748
4  3588 4431 2955 2956
4  4514 3963 4527 4406
4  4253 4157 4190 4989
4  3955 4515 3937 3940
4  4421 4157 4156 4989
4  4421 4156 4253 4989
4  3952 4182 4015 4014
4  4276 4180 4013 4014
4  4385 4945 4524 4386
4  4557 4987 4558 4560
4  4276 4180 4014 4177
4  4945 4525 4524 4386
4  4384 4672 4012 4386
4  4672 4524 4525 4386
4  4580 4529 4524 4000
4  4385 4524 4581 4383
4  3953 4514 3955 3868
4  4529 4525 4524 4526
4  970 4924 4698 3110
4  775 3857 3454 3318
4  779 3688 3857 3318
4  4990 3682 3827 3683
4  4732 4480 4189 4481
4  3651 3916 4859 3404
4  4052 4560 4987 4918
4  4800 4253 4991 4190
4  567 574 566 3551
4  4644 4939 4955 4645
4  574 3549 2930 3126
4  3310 3308 4322 4176
4  4734 4735 3308 4130
4  574 2928 3058 3126
4  566 574 3058 3126
4  3964 3939 4405 3940
4  4988 4989 4986 4980
4  967 3689 2950 3229
4  4743 4052 4800 4054
4  4992 4801 4991 4993
4  4927 3550 3123 3551
4  3509 3501 3510 3502
4  3258 4252 4825 3260
4  3718 3288 3225 3297
4  4825 4732 4733 4481
4  161 3816 3287 3225
4  3093 3070 3068 3506
4  161 4853 3818 3225
4  4434 3893 4487 4174
4  3296 3225 3287 3297
4  4637 3503 4638 3504
4  3224 4994 3817 3225
4  4911 4708 4912 4710
4  4945 4386 4673 4936
4  3764 4569 4250 3259
4  4674 4012 4672 4386
4  3632 3633 3617 4388
4  3632 4673 4388 3620
4  4828 4012 4674 4388
4  4827 4387 4009 4010
4  3628 4995 3354 4590
4  967 4847 2950 3689
4  4996 4590 2945 3853
4  3632 3575 3574 3620
4  4568 3358 4050 3360
4  3413 4051 3408 3185
4  4828 3617 4297 3633
4  3835 3360 4041 3359
4  4370 4749 3039 3073
4  4567 3834 3630 4379
4  919 802 803 3221
4  4566 4571 4567 4379
4  3691 3679 3028 3029
4  3499 4241 4834 4077
4  3966 3781 3783 3967
4  2949 2951 2953 2948
4  3361 3354 3787 3362
4  3835 3630 3834 4379
4  4571 4749 3834 3073
4  4407 3976 4409 3977
4  4370 4749 3834 3183
4  3635 2987 2980 2982
4  4063 4517 4518 4065
4  4566 4572 4571 4379
4  4681 4677 2986 4338
4  4680 4114 4678 4677
4  4512 3534 4417 3536
4  4679 2986 4522 4119
4  317 903 694 3430
4  4725 3800 3415 3911
4  4679 4522 4117 4119
4  3416 3419 3063 3533
4  4065 2986 4677 4338
4  3608 3625 4895 3414
4  4120 4679 4116 4119
4  4650 4652 3537 3539
4  4844 4208 4652 3539
4  4997 3979 4651 4049
4  4684 4048 4206 4651
4  4684 4206 4652 4651
4  4998 4048 4651 4049
4  1092 3496 307 3917
4  307 3714 4738 3917
4  3588 3589 2956 2966
4  4138 4143 4139 4140
4  4095 3270 4361 4096
4  3811 3555 3917 3814
4  3715 3555 3714 3917
4  3935 4137 4140 3933
4  848 3596 3857 3222
4  4361 4222 4096 4223
4  4931 4907 3712 3470
4  3812 4641 3593 4332
4  3529 3541 2967 3528
4  2958 2955 2954 2957
4  4334 4428 4562 4429
4  4773 4224 4225 4101
4  3491 3713 3475 3422
4  3442 3491 3475 3422
4  149 4479 4490 3536
4  848 780 849 3857
4  4957 3431 3475 3422
4  3431 3444 3475 3432
4  683 3519 3951 3596
4  4590 3853 3315 3314
4  501 824 843 3060
4  3096 4590 3312 3314
4  3454 3227 3457 3319
4  3451 3007 3366 3009
4  4590 3315 3312 3314
4  474 3584 4288 2931
4  993 3585 4288 3584
4  3313 3851 3856 3227
4  3096 3226 3313 3228
4  4835 3315 3856 3312
4  407 694 857 3840
4  639 2985 2981 3158
4  4999 3160 2985 3158
4  3077 3159 3041 3157
4  4796 3076 3075 3081
4  4796 2984 3160 3076
4  3298 3740 2984 4336
4  3075 3081 3076 3074
4  596 3544 535 3814
4  596 3560 3544 3814
4  436 891 3555 3560
4  3811 3814 3812 3810
4  4949 3461 4950 3702
4  3812 3814 3544 3810
4  3175 3006 3366 3007
4  4949 4951 4751 3702
4  3811 3813 3560 3810
4  4809 3811 5000 3814
4  3437 3438 3436 4239
4  535 3544 3936 3814
4  4809 3812 3811 3814
4  5001 3748 4909 3747
4  5002 4903 4761 4909
4  3928 4909 3746 3747
4  3928 5001 3930 4909
4  4903 4663 4761 4909
4  3144 2891 2898 2892
4  4438 2897 4439 2898
4  3750 2898 4838 4538
4  4271 4608 4606 4204
4  4009 4386 4010 4388
4  3144 2889 2891 2892
4  3750 3144 4838 2898
4  5003 2891 4837 4509
4  2913 4164 2914 2915
4  3831 4159 4316 4372
4  4781 3958 3957 4160
4  67 583 937 3961
4  4382 4384 4011 4006
4  4841 4160 3957 4311
4  5004 4889 4753 4313
4  5005 4923 4841 5006
4  3188 3839 3429 3390
4  991 3839 997 3390
4  968 961 4904 3447
4  3391 3390 3191 3388
4  4502 3191 3391 3390
4  3389 4502 3391 3390
4  3003 4783 5003 2897
4  4304 4699 4260 4883
4  3005 3002 2895 2900
4  997 3172 1024 3390
4  4789 3879 4742 3798
4  1024 3389 244 3390
4  3361 3787 3630 3362
4  4785 4008 4539 4880
4  5007 3330 3879 3729
4  3628 3362 3354 3355
4  5008 4440 4790 4248
4  3095 3097 3361 3098
4  3097 3836 3361 3098
4  4367 3024 3753 4249
4  3361 3630 3787 3836
4  4699 3103 3148 3104
4  3361 3098 3787 3354
4  3885 4392 4393 3887
4  3750 5009 4739 4538
4  3996 4467 4459 4461
4  1010 4829 832 3751
4  4832 4082 3997 4461
4  3684 3723 4440 4249
4  4395 4394 4468 3997
4  3678 3325 3320 3327
4  4021 4023 4085 4081
4  4467 4468 4486 4082
4  3750 4437 2898 4739
4  973 209 57 3377
4  4086 3997 4832 4082
4  4393 4086 4394 3997
4  4148 4656 4598 3865
4  5010 3865 3869 3269
4  4582 4149 4148 4656
4  4582 4147 4148 4149
4  4582 4149 4656 4584
4  4486 4081 4198 4083
4  4614 4404 4654 4401
4  4795 4625 4793 4621
4  4655 4656 4401 4400
4  4949 3292 3461 3702
4  4695 3299 3348 3412
4  4655 4582 4656 4584
4  4615 4598 4149 4656
4  5011 4611 4609 4610
4  3771 3376 3377 4161
4  3427 3407 3176 3179
4  3956 3958 4454 4161
4  4781 4455 3958 3705
4  546 856 256 3404
4  5012 5013 5014 3317
4  3956 3958 4161 3829
4  3957 3830 3958 3829
4  3957 3703 3958 3830
4  372 4877 3088 2916
4  3499 4834 5015 4077
4  346 4161 3376 3829
4  59 57 3379 3378
4  4888 4863 4484 3615
4  3571 3644 2929 2931
4  3641 3644 3643 3686
4  4864 3800 4975 4329
4  4975 3642 4329 4035
4  3086 2916 3066 2917
4  4079 3510 3509 3501
4  5015 4834 5016 4078
4  4864 3128 3400 4329
4  3564 3116 3565 2888
4  3571 3400 3401 3127
4  3571 3128 3400 3127
4  3407 3406 3659 3397
4  3013 3738 3015 3014
4  3407 3462 3738 3014
4  4870 3395 3462 3738
4  3395 3738 3396 3397
4  3872 4840 4647 4646
4  3407 3738 3013 3014
4  3407 3659 3013 3738
4  3218 3213 3214 3215
4  3216 3214 3392 3215
4  4774 4777 4225 4226
4  3935 4774 3933 3934
4  4018 3218 3214 3802
4  3216 3218 3666 3802
4  3566 3194 2933 3206
4  645 3566 814 3206
4  3919 3569 3135 4723
4  3498 3340 3873 3871
4  4425 4427 3432 4429
4  3870 3420 4090 3873
4  4341 4345 3210 3983
4  946 3569 3208 4723
4  4679 4065 2986 4677
4  626 3192 3194 3138
4  3137 2939 3342 2935
4  946 813 3208 3569
4  625 626 3569 3135
4  4682 4930 4676 4338
4  3799 3910 3062 3800
4  5017 3942 4105 4104
4  4864 3400 3398 3800
4  4864 3400 3800 4329
4  3799 3571 4329 3402
4  4051 4040 4370 4041
4  4676 4930 4690 4064
4  4725 3912 3800 3911
4  4682 4676 4114 4677
4  4681 4432 4337 2986
4  123 142 4518 2988
4  4397 4398 3474 3152
4  68 4418 346 3829
4  4341 4661 4756 4886
4  4159 3957 4160 4311
4  3621 4797 4463 4622
4  3426 3755 3636 3171
4  3458 4894 4279 3460
4  4694 4311 4753 4317
4  5005 5004 5006 4311
4  4124 3888 4389 3372
4  5006 4694 4160 4311
4  4841 3957 4309 4311
4  3859 3468 3099 3467
4  5018 3587 4850 2966
4  3587 2964 4851 2966
4  684 98 601 3045
4  4225 4227 4228 4224
4  192 909 191 3468
4  4326 4024 2972 3600
4  4776 3588 5018 3589
4  192 3468 3424 3100
4  3477 4773 4774 4225
4  4933 3815 3559 3712
4  4099 4100 4403 4098
4  3018 3468 3424 3425
4  4716 4744 4414 4400
4  192 191 3424 3468
4  850 189 95 2979
4  4326 2972 2974 3276
4  3442 3490 3496 3491
4  4513 4227 4226 4224
4  3477 3592 4774 3934
4  652 684 601 3045
4  4845 3757 3756 3468
4  3563 4548 3639 2882
4  3757 3861 3177 3468
4  191 4845 3756 3468
4  3520 3117 3524 4293
4  4928 4968 4881 3747
4  5019 3894 4174 4187
4  3893 4174 3894 4187
4  3893 3894 4191 4187
4  4191 4187 3894 4192
4  3525 3522 5001 3521
4  4462 4166 4167 4168
4  4831 4168 4170 4458
4  4173 4298 4186 4299
4  5019 5020 3894 4187
4  3328 2929 2924 2930
4  2929 3644 3320 2931
4  3923 3583 3320 3584
4  4671 4200 4396 4504
4  4576 3644 3826 4329
4  3323 3321 2929 3826
4  4441 4842 4667 4366
4  4530 3867 3963 4528
4  3799 3579 2931 3402
4  4578 4576 3826 3128
4  825 3401 2928 2927
4  4784 4667 4540 4739
4  825 3401 3058 2928
4  4580 4003 4530 4000
4  3656 5021 3655 3548
4  3328 3121 2929 2930
4  3401 3058 2928 3126
4  976 3549 4675 2930
4  3848 5022 4044 3545
4  574 976 998 2930
4  4853 3817 3821 3818
4  3823 3717 3822 3288
4  1005 161 852 3287
4  3209 3162 3207 4477
4  3822 3208 4723 3816
4  4722 3822 3919 4723
4  161 83 946 3818
4  3847 3735 3848 3843
4  3920 3342 4658 2934
4  3497 3498 4929 3487
4  161 3818 3816 3225
4  3639 3404 2882 2884
4  947 1035 625 5023
4  3287 3225 3816 3288
4  3209 4819 3736 4477
4  946 4723 3816 3818
4  5024 4722 4723 3818
4  3823 4724 3822 3717
4  946 3208 813 3211
4  3205 3162 3256 3255
4  83 4853 5024 3818
4  852 3287 161 3816
4  4320 3898 3095 4091
4  83 5024 946 3818
4  4901 4803 3903 4817
4  4475 3979 2961 4473
4  4472 3932 3570 3540
4  4637 4478 3503 3504
4  3379 3709 3707 3381
4  3140 3264 2943 3261
4  4472 3570 4291 3540
4  3900 4665 4663 3902
4  4753 4318 4317 4319
4  4901 3903 4816 4817
4  4929 4646 3343 3346
4  4318 4693 4317 4436
4  4660 3920 4929 3343
4  4695 3704 4693 4317
4  4660 4958 4603 4836
4  3210 3920 4661 4658
4  4695 4159 3703 4317
4  4341 4756 3489 3052
4  4316 4318 4317 4436
4  390 3054 3387 3384
4  3621 3890 3437 3057
4  3421 3872 4647 4643
4  3345 3343 3872 3346
4  3497 4958 4929 4646
4  244 3390 3389 3384
4  4957 3420 3421 3422
4  3343 4646 3872 3346
4  3389 3391 3435 3384
4  4647 4646 4645 4643
4  4603 4602 4588 4886
4  4216 4700 4218 4217
4  4073 4076 4691 4061
4  3437 3436 3438 3054
4  3885 3366 3367 3372
4  3978 2961 3975 3976
4  4316 4436 4229 4232
4  4318 4233 4436 4232
4  4693 4435 3412 4436
4  4107 4692 5025 4110
4  4354 4703 4976 4217
4  4976 4251 4977 3765
4  4517 4755 4902 4064
4  4695 4693 3412 4436
4  4435 3349 3412 4436
4  3764 3259 3765 3762
4  5007 2901 4439 2897
4  4783 2897 4438 2898
4  4555 4217 4216 4075
4  4553 4759 4102 4552
4  3773 3598 3265 3599
4  5026 4439 4438 2897
4  2899 4439 2897 2898
4  3003 5003 2890 2897
4  3004 5007 2897 2900
4  4555 4216 3766 4552
4  3004 2897 3003 2900
4  230 3790 3184 3789
4  230 3184 3182 3789
4  4021 4971 4022 4023
4  3958 3709 3771 3381
4  3292 3294 3461 3295
4  4749 3790 3072 3789
4  3834 3182 3181 3183
4  4423 3834 4749 3182
4  3326 3325 3327 3322
4  4038 5027 4471 4023
4  4947 5011 4625 4463
4  1020 544 998 2924
4  3773 3599 4891 3775
4  4272 3238 3237 3233
4  998 2930 2924 2926
4  574 998 2928 2930
4  4635 3395 4870 3738
4  4907 4090 3713 3470
4  3715 3471 3559 3472
4  3469 3713 3470 3472
4  3712 3470 3713 3472
4  4144 4430 3309 3304
4  3469 3713 3873 3470
4  4425 4141 4426 4143
4  4931 3712 3558 3470
4  3558 3559 3471 3470
4  3477 4225 3854 4101
4  4906 4931 4087 3470
4  3156 4099 3154 4398
4  3420 3713 3873 3422
4  149 4479 3536 3419
4  4907 4642 3712 3713
4  4667 4741 4669 4668
4  4906 4907 4931 3470
4  3498 3825 3491 3873
4  3498 3495 3825 3487
4  4403 3268 4404 3270
4  2901 2897 2900 2892
4  4597 3869 3865 3275
4  5003 4261 2890 4509
4  4375 3692 4464 4376
4  4540 4669 4382 4541
4  4005 4009 4385 4006
4  4540 4739 4541 4538
4  4380 4828 4374 4010
4  2901 2900 2894 2892
4  3002 4261 2895 2890
4  3005 3003 3002 2900
4  4387 3632 4673 4388
4  4387 4010 3633 4388
4  2889 2895 2890 2892
4  3777 3619 3780 3778
4  5003 2897 4783 2891
4  3694 3970 3695 3637
4  5028 3368 3369 3009
4  3863 3867 4596 3864
4  704 706 968 4935
4  4843 3647 3808 3645
4  3368 3364 3009 3365
4  4964 4525 4406 4526
4  4514 4527 3963 4528
4  3648 3370 3367 3365
4  3368 3369 3364 3645
4  4843 3369 3368 3645
4  4426 4141 4142 4143
4  4403 4359 3268 3270
4  4780 4413 3150 3155
4  4100 4228 4359 4096
4  4397 2922 3862 3474
4  4095 4361 4097 4096
4  4228 4223 4096 4224
4  4773 4513 4226 4224
4  4397 3154 4398 3152
4  2921 2978 3862 2923
4  3268 3278 3269 3271
4  4744 3862 2921 2978
4  4744 3862 3554 3155
4  4345 3205 3209 3256
4  3209 3736 3162 4477
4  4359 3271 3270 4096
4  4097 4222 4773 4224
4  3669 3736 3546 3257
4  4456 4168 4462 4457
4  4295 3649 4292 3646
4  4770 3736 4819 4477
4  4968 4172 3749 3744
4  3669 3736 3668 3843
4  3651 3885 3916 3006
4  3162 3735 3166 3164
4  4968 3749 3748 3744
4  4770 3164 3736 4477
4  3066 2917 2916 2910
4  407 1022 997 3173
4  3669 3668 3667 3843
4  4125 4857 4389 3888
4  3749 3744 3743 3745
4  3262 5029 3553 2974
4  2922 3862 3474 2923
4  4744 3554 3862 2978
4  3749 5019 4721 3743
4  0 3289 2978 2976
4  4703 4701 3765 4217
4  3436 3386 3391 4718
4  4555 3766 4216 4217
4  2960 3763 4551 3766
4  4744 3290 3554 2978
4  3503 3897 3542 3543
4  189 0 2921 2978
4  4669 4741 4003 3999
4  4741 4004 4003 4002
4  189 0 6 2921
4  4785 4381 4008 4880
4  4670 4581 3998 3999
4  4586 4000 4523 4526
4  4380 4008 4010 4381
4  4004 3863 4596 3864
4  3274 3868 3867 3275
4  4529 3963 4943 4526
4  4785 4827 4008 4381
4  4290 4234 4826 4231
4  4373 3701 3633 4231
4  4290 4826 4827 4381
4  3785 4973 3780 3782
4  5030 4008 4380 4381
4  4011 4384 4012 4006
4  4229 4230 4373 4231
4  4236 3701 4230 4231
4  4462 4832 4392 4461
4  5031 4231 4489 4235
4  4858 3069 4636 3894
4  4608 4449 3231 3238
4  4721 3743 5019 3894
4  4781 4455 4454 3958
4  4721 4636 3743 3894
4  3300 4466 4377 4376
4  4826 4387 4010 3633
4  3503 4638 3504 3506
4  4056 4057 4558 4560
4  3893 4174 3743 3894
4  625 3135 3569 4723
4  4580 4530 4529 4000
4  4596 3867 4530 4528
4  4529 4530 3963 4526
4  946 4723 3208 3816
4  4722 3821 3822 3818
4  3136 4722 3919 4723
4  4146 3094 3140 2944
4  2960 2963 2962 3766
4  4755 4106 4556 4103
4  3759 3761 2962 3762
4  947 5023 625 4723
4  3895 4291 3897 3896
4  947 946 5024 4723
4  4703 4701 4352 3987
4  4216 4824 4700 4217
4  4976 4703 3765 4217
4  3413 4051 4046 4049
4  4047 4411 4046 4049
4  4047 4048 4998 4049
4  4998 4651 3979 4049
4  4997 4969 4048 4651
4  3619 4714 3780 3778
4  4199 4621 4200 4201
4  4685 4731 4688 4687
4  4997 4969 4051 4048
4  2970 3463 3907 2969
4  3450 4896 3452 3373
4  4442 4729 4444 4443
4  3176 3177 2971 3425
4  4721 4858 3909 4636
4  2941 2943 3094 2944
4  3466 3091 3017 3467
4  4870 3464 3737 2969
4  3679 3681 4757 3696
4  3737 2971 2969 3017
4  3021 4727 4543 4192
4  2968 2969 2971 3467
4  4460 4467 4298 4082
4  3746 3744 4892 3747
4  4442 3023 4543 3775
4  2968 3466 2970 2969
4  4531 4074 4073 4072
4  4254 4110 5025 4072
4  4692 4059 4219 4061
4  5025 4533 4550 4072
4  4254 4550 4531 4072
4  4228 4285 4284 4223
4  4330 3955 3937 3946
4  4053 5032 4988 4918
4  4254 4071 4110 4072
4  4183 4322 4181 4176
4  824 3401 2927 3060
4  4275 4276 4016 4177
4  4180 4183 5033 4181
4  4179 4516 4743 4331
4  4322 5034 4993 4323
4  4558 4912 4708 4057
4  4502 3174 4503 4396
4  4801 5032 5033 4054
4  4252 4733 4825 3260
4  3571 3401 3400 3402
4  3799 2931 3571 3402
4  3093 3094 3070 3506
4  4577 2929 3121 3120
4  3923 3584 3320 2931
4  2941 2942 3598 2943
4  4637 4638 3891 4636
4  574 825 3058 2928
4  3565 3116 2887 2888
4  4701 3764 4250 3987
4  2942 3265 3598 2943
4  3265 4214 3142 4799
4  3563 4860 3639 4548
4  4759 4977 4760 3766
4  2907 4165 3930 3521
4  4997 4844 4969 4651
4  3617 4674 4936 4388
4  3520 3117 2904 2887
4  3520 3117 2887 2908
4  4707 4912 4708 4710
4  4941 4883 5031 4235
4  5035 4128 3374 3375
4  4335 4696 3574 3637
4  4303 4232 4234 4235
4  4289 4290 4883 4235
4  4213 4155 4215 4158
4  3455 3594 3595 3454
4  4157 4988 4190 4989
4  4973 3780 5036 4747
4  3022 5037 3142 3599
4  3851 3317 3457 3319
4  4833 3457 3851 3317
4  4943 4525 4406 4710
4  3453 3682 3683 3319
4  5038 4727 4197 4188
4  4747 4982 4985 4748
4  3455 3454 3457 3319
4  4706 3613 3128 3129
4  3437 3439 4239 3702
4  824 3058 3401 3060
4  3612 3613 3129 3125
4  4944 3613 4706 3129
4  3382 3703 4695 3830
4  3401 3126 2928 3127
4  4763 4870 3466 3464
4  686 720 47 3011
4  3613 3398 3128 3125
4  4578 4706 3128 3120
4  3177 3756 3425 3171
4  4852 3101 3931 3091
4  2986 3298 2987 2983
4  3160 2984 4432 2985
4  4432 2986 4119 2989
4  728 117 822 2989
4  728 4433 5039 2989
4  4751 4752 3168 3439
4  3697 4949 4951 4751
4  3096 3313 3226 3314
4  940 191 3425 3337
4  3849 3452 3850 3008
4  176 546 273 3403
4  4752 3168 3908 3755
4  3180 3426 3636 3171
4  3404 3838 3324 3007
4  991 997 1024 3390
4  3523 4165 3524 3521
4  3648 3370 4830 3367
4  3563 3565 4860 4548
4  176 4240 546 3403
4  4951 4950 5040 4238
4  3188 3191 3190 3366
4  3649 4831 4928 4458
4  4752 3758 3168 3755
4  5041 5042 4163 4164
4  364 3088 3201 3118
4  1029 759 940 3755
4  5043 2904 3117 2906
4  5041 2913 3523 4165
4  1029 940 3754 3755
4  4878 3410 3249 3250
4  5044 3251 4448 4511
4  3247 3251 3248 4511
4  4067 3238 3239 3411
4  3410 4449 4448 3411
4  3247 4153 3251 4511
4  3929 3031 3928 2911
4  3247 3248 3251 2991
4  4876 2914 4875 2916
4  3507 3594 4079 3595
4  4758 3032 4757 3696
4  3690 3200 3203 3029
4  3066 2916 3113 2910
4  4875 3086 4244 3088
4  3916 3885 3173 3175
4  3115 2886 2908 3114
4  3221 3898 3855 3228
4  363 3200 3118 3202
4  4244 3086 3199 3088
4  3898 3511 3855 3856
4  1017 372 4877 3088
4  4078 3594 3507 3595
4  3499 5015 3507 4077
4  4834 4078 4077 3457
4  1017 4877 4243 3088
4  2919 2909 3114 2910
4  2907 2915 3117 2908
4  374 3113 2916 3114
4  665 3115 3113 3114
4  5045 3699 3698 3907
4  664 665 5046 3113
4  3293 3460 3294 3295
4  317 991 319 3429
4  759 162 25 3636
4  664 5046 4876 3113
4  4751 4752 3758 3168
4  3698 4751 3758 3170
4  5046 3115 2914 3113
4  3385 3621 3056 3057
4  3699 3292 4949 3700
4  519 5047 4849 3908
4  4462 4461 4392 3886
4  389 390 840 4794
4  3463 3737 3907 2969
4  2970 4870 3463 2969
4  4751 3168 3758 3170
4  3889 3887 3996 3886
4  3648 4831 3650 4457
4  695 4811 493 3734
4  3651 4456 4462 4457
4  4456 4457 3650 4458
4  192 3424 3019 3100
4  10 3019 192 3424
4  137 3019 3018 3010
4  3657 3283 3285 3336
4  3172 3839 3188 3390
4  881 4764 3100 3092
4  3216 3666 3664 3665
4  3178 4549 3393 3801
4  10 3018 137 3019
4  676 723 726 3394
4  3770 3240 3245 3243
4  207 209 4627 3241
4  494 4811 4813 3213
4  344 104 103 3481
4  3033 3252 2990 3034
4  3885 3174 3175 3366
4  3246 3241 2999 3243
4  4629 3772 2999 3771
4  3247 3038 3266 3267
4  3266 3034 3240 3000
4  2999 3034 3240 3241
4  519 759 5047 3908
4  3437 3439 3622 3053
4  3614 3622 3439 3636
4  3614 3168 3180 3636
4  3221 3097 3095 3096
4  3852 3828 3827 3316
4  4751 3439 3168 3700
4  519 162 759 3908
4  3437 3054 3439 3053
4  3434 3386 3189 3428
4  3413 3950 3039 3042
4  3385 3384 3057 3055
4  4572 3949 3947 3073
4  966 967 4847 2950
4  4846 3438 3386 3387
4  966 967 923 4847
4  3434 4846 3386 3387
4  389 319 390 3387
4  389 390 4794 3387
4  4109 4108 4677 4256
4  3923 3320 3644 2931
4  5048 4422 4423 3181
4  4567 4571 4422 3834
4  3678 3320 3627 3327
4  4572 4568 4050 4379
4  3161 3085 3075 3077
4  5049 3678 3627 3327
4  77 562 81 3301
4  3941 3073 3950 3084
4  537 5049 356 3327
4  5017 4105 4755 4902
4  4814 4337 4796 4336
4  2929 2925 2924 2926
4  4036 4039 4038 4201
4  4051 4040 4371 4370
4  3631 5050 4798 3629
4  913 741 802 3514
4  4608 4036 4606 4204
4  4270 4203 4419 4204
4  4270 4419 3971 4204
4  3221 3514 3096 3229
4  5051 3852 4962 3853
4  4792 4203 4271 4606
4  4608 4916 4036 4204
4  3628 3354 2947 4590
4  4996 2952 2951 2945
4  3361 3835 3630 3836
4  2952 2953 2951 2948
4  4270 4271 4203 4204
4  357 3585 3584 3581
4  301 3837 3833 3788
4  3879 3798 3729 3725
4  4742 3583 3798 3586
4  3879 4742 3798 3586
4  230 3790 589 3184
4  822 123 562 2982
4  1023 367 272 3586
4  1023 272 5052 3586
4  4561 4332 4140 3933
4  3172 3174 4502 3191
4  3835 3834 3630 3187
4  4561 4562 4138 4140
4  4433 4999 3160 2985
4  5053 4111 4115 4112
4  3812 4332 3593 3933
4  4796 3160 3075 3076
4  3812 3593 3591 3592
4  3477 4777 3854 4225
4  3079 3075 3085 3074
4  3039 3950 3040 3042
4  639 77 72 3159
4  3477 3476 3854 3592
4  4774 4777 4226 3933
4  3935 4774 4137 3933
4  3609 3416 3535 3603
4  3935 4332 3812 3933
4  4844 4208 4205 4206
4  3435 3391 3436 3384
4  3895 3904 3896 3543
4  3904 3537 4652 4208
4  3895 3904 4208 3896
4  3812 2964 3593 3815
4  3895 4208 3904 3906
4  43 4775 41 3280
4  3490 4643 3422 3432
4  4844 4291 4208 3539
4  752 3793 3792 3106
4  3792 3106 3793 2896
4  42 4775 4328 3276
4  958 43 684 5054
4  4774 3936 3044 3934
4  3134 5023 3136 3135
4  3590 3854 3476 3592
4  952 1005 3223 3225
4  3103 3793 3106 2896
4  4869 3103 3106 3332
4  108 3793 3106 3104
4  3112 3103 3102 3105
4  3721 3724 3716 3719
4  4869 3103 3112 3106
4  469 4871 3795 3106
4  409 970 4698 3104
4  3148 3147 3793 2896
4  752 20 3792 3147
4  752 108 3793 3106
4  3112 3106 3103 3105
4  469 108 752 3106
4  3491 3475 3713 3472
4  4642 4957 3431 3475
4  3497 3423 3490 4643
4  3442 3490 3491 3422
4  3431 3421 4595 3432
4  3421 4643 4595 3432
4  4820 4044 3666 3667
4  4957 3713 3420 3422
4  952 953 161 3225
4  5026 4790 4438 4439
4  3751 3750 3753 3026
4  357 3585 993 3584
4  233 5048 3791 3182
4  589 180 3185 3790
4  356 357 474 3584
4  457 589 3408 3185
4  5055 5008 3677 3685
4  4829 3753 4367 3024
4  3677 4742 3678 3583
4  947 5024 5023 4723
4  4749 3185 3184 3183
4  233 629 5048 3182
4  4749 3184 3790 3789
4  457 589 3185 3183
4  130 125 258 4268
4  3834 4749 3182 3183
4  287 454 3187 3183
4  3919 3208 3569 4723
4  1035 5023 3134 3135
4  3136 3135 2938 2940
4  4269 4089 3874 3340
4  5023 3136 3135 4723
4  1035 3134 626 3135
4  3535 3448 3536 3533
4  437 1019 436 3556
4  4934 3535 3819 3532
4  3819 3535 3416 3532
4  3442 3496 5000 3715
4  3531 3416 3418 3533
4  704 706 4935 3532
4  1019 834 436 3560
4  569 825 824 3058
4  4578 4706 4864 3128
4  3822 3208 3919 4723
4  998 4675 2924 2930
4  749 565 569 3624
4  4124 3889 3370 3372
4  4843 3368 3647 3645
4  4269 4867 4868 3137
4  704 4935 3531 3532
4  4871 3106 3792 3332
4  3234 4616 4465 3233
4  4871 4869 3106 3332
4  3333 3103 4869 3332
4  3329 3333 3334 2895
4  988 3211 3205 3255
4  490 3256 3254 3255
4  489 988 3205 3256
4  3143 4868 3136 2940
4  3292 3179 3295 3700
4  488 3254 490 3256
4  4874 3931 4632 3090
4  687 686 685 3242
4  3162 3736 3735 3164
4  488 4726 3547 3256
4  952 161 1005 3225
4  3546 3548 3547 3257
4  3210 3209 3205 3206
4  406 3485 508 3568
4  3546 3548 3353 3351
4  983 3219 3353 3220
4  4045 3545 5022 3353
4  5022 3545 3546 3353
4  5056 3546 3548 3353
4  766 5056 3548 3353
4  789 766 983 3353
4  343 3393 3212 3350
4  4347 4348 4357 4349
4  4025 4952 4482 4026
4  789 5057 5056 3353
4  41 2979 95 3277
4  95 2923 98 3277
4  3046 2955 2954 3277
4  2958 2954 2955 3280
4  43 5054 4775 3280
4  43 684 5054 3280
4  3096 3313 3312 3228
4  81 3635 3741 3301
4  4031 3635 3298 2980
4  4796 4337 3160 2984
4  639 562 77 3301
4  728 5039 117 2989
4  900 664 665 5046
4  3221 3228 3855 3222
4  3221 3097 3096 3514
4  3096 4590 2945 2946
4  3354 2947 4590 2946
4  990 611 546 3927
4  3688 3689 3229 3314
4  3095 3096 3354 3312
4  546 3404 3403 2884
4  4030 4954 4952 4026
4  4900 4302 4954 4029
4  4830 3367 3886 4457
4  4900 4954 5034 4136
4  5034 4302 4953 4954
4  4991 5034 4953 4954
4  317 3433 3430 3428
4  4301 4992 4954 4136
4  4127 4125 3371 4126
4  4826 3633 4374 4231
4  45 47 46 4922
4  256 407 857 3838
4  2971 3425 3468 3017
4  4992 5034 4136 4323
4  3137 3918 3874 4925
4  3433 4896 3450 3190
4  258 3918 4925 4268
4  4767 5058 4641 3815
4  125 4738 3824 4268
4  2907 3524 2915 4165
4  3874 3918 3824 4268
4  856 2882 4859 3404
4  3563 3565 4548 2888
4  3495 3469 3825 3824
4  3117 2904 2887 2906
4  3498 3825 3874 3487
4  620 626 3134 3139
4  3137 2933 3193 3138
4  4164 3066 2915 4165
4  5059 2913 5060 3524
4  4867 3139 3137 4925
4  665 3115 5046 3113
4  3741 3301 2980 3157
4  4433 3160 4432 2985
4  621 3918 3192 4925
4  823 639 4999 2985
4  823 728 822 4433
4  3161 3075 4999 3158
4  621 3192 3918 3568
4  3040 3077 3076 3084
4  3159 2981 3301 3157
4  626 506 645 3194
4  826 4999 639 3158
4  3137 3139 3192 4925
4  620 4959 621 3139
4  5061 3509 4885 3513
4  4888 3513 3204 3696
4  4840 4646 4836 4645
4  4888 3513 3696 3615
4  4681 4120 4432 2986
4  3512 3203 3199 3513
4  3500 3513 4888 3615
4  5061 5062 3509 3513
4  4885 3199 3204 3513
4  4289 4882 4698 4883
4  4961 4959 4867 4925
4  596 600 535 3544
4  3794 4882 4699 4698
4  3102 3103 4699 3104
4  981 1005 771 3296
4  4924 4697 4698 3110
4  409 4924 3794 4698
4  3794 4698 4699 3148
4  3715 3559 3712 3472
4  3724 3719 4391 3167
4  4321 3221 4320 3739
4  731 4321 418 3739
4  5058 4333 4641 3712
4  735 4321 3690 3200
4  4997 4651 4048 4049
4  4320 4094 4972 4091
4  3558 3559 3813 3556
4  4244 4885 3199 3086
4  3471 4738 3714 3555
4  307 3495 403 3824
4  5062 3509 3513 3502
4  3606 4863 4888 3696
4  4242 4484 4092 4485
4  735 418 4321 3200
4  3469 3824 4738 4268
4  4655 4656 5010 4401
4  932 832 3580 3582
4  4829 3751 3024 3025
4  4225 4228 4100 4224
4  4740 4619 4368 4668
4  4225 4224 4100 4101
4  4097 4224 4773 4101
4  3477 4774 4777 4225
4  3753 4740 4366 4739
4  4095 4097 3473 4098
4  3473 4099 4098 4101
4  4585 4586 3866 4528
4  4368 4619 4369 4668
4  444 932 1010 4829
4  3473 4099 3854 3476
4  3276 2975 2979 3277
4  3473 3477 3854 4101
4  4493 4147 4149 4034
4  3605 3067 3930 3032
4  2920 4165 3067 3930
4  3928 2907 3930 3521
4  4737 4772 3557 3469
4  5002 3032 3930 4761
4  3031 3930 4761 4909
4  3497 3494 3490 3486
4  1035 626 625 3135
4  4784 4739 4540 4538
4  4667 4668 4541 4739
4  4642 3712 3475 3444
4  3811 3559 3715 3555
4  4784 4437 4441 4739
4  4441 4366 4667 4739
4  4772 3471 3469 3470
4  4367 4368 4592 4364
4  744 125 130 4737
4  4088 3870 4090 3873
4  4740 4368 4366 4668
4  600 3044 3530 3043
4  4071 4691 4257 4256
4  4063 4076 4554 4062
4  262 3471 3557 3556
4  3495 4738 3469 3824
4  4549 4600 4965 3806
4  4107 5025 4965 4110
4  4254 3732 4255 3482
4  4071 4110 4692 4256
4  4254 5025 4550 4072
4  4219 4355 4533 4074
4  4725 3415 3602 3911
4  4569 3260 3259 3261
4  4251 3765 4703 3987
4  4706 3613 4864 3128
4  4701 3986 4702 3985
4  3984 3990 3986 3985
4  3984 3986 3260 3987
4  4351 3985 3984 3987
4  2932 3569 2933 2935
4  3339 3193 3137 2933
4  3119 4706 3120 3129
4  4929 3342 3339 3346
4  4929 3343 3342 3346
4  3137 2940 2939 2935
4  3920 4929 3343 3342
4  4032 4035 4033 3913
4  3981 3883 3982 2934
4  704 3531 131 3532
4  3883 3983 4658 2934
4  4944 4948 3119 4706
4  3534 3535 3416 3603
4  3341 3982 3343 3342
4  4841 3957 4873 4309
4  596 600 3544 3530
4  74 3960 4315 3796
4  4935 4934 3819 3532
4  658 843 824 2927
4  4897 3608 3607 3601
4  4872 4309 3960 3796
4  3623 4895 3625 3418
4  131 3418 3063 3533
4  4873 4872 4309 3960
4  4873 4309 3957 3960
4  69 67 74 3960
4  69 3959 67 3960
4  41 98 684 3045
4  3822 3717 3652 3288
4  3589 4769 3590 2966
4  3207 4477 3652 3884
4  652 596 834 3528
4  4476 3717 3716 3163
4  3716 3163 3717 3291
4  3855 3595 3518 3222
4  848 3857 849 3222
4  4716 4414 4584 4400
4  422 3221 3739 3222
4  848 422 683 3596
4  574 998 825 2928
4  3510 3517 3516 3202
4  541 3519 3516 3202
4  5000 3811 3917 3814
4  3951 3519 3594 3596
4  3221 3855 3739 3222
4  832 3727 3025 3725
4  4788 4790 5026 4439
4  4699 3103 2889 3148
4  832 4829 3580 3025
4  4452 3730 3733 3731
4  4452 3733 4812 3734
4  754 378 3331 3792
4  4812 3733 3214 3734
4  3214 3734 3212 3213
4  3798 3581 3580 3582
4  4789 5007 3729 4439
4  695 701 4453 3734
4  695 4453 4811 3734
4  3144 2901 2893 2892
4  3619 4709 3778 3620
4  4943 4912 4707 4710
4  4514 3963 4406 3940
4  4405 3938 4406 3940
4  537 285 356 5049
4  5052 3678 4742 3627
4  4515 4406 3938 3940
4  4943 3963 4405 4406
4  4483 3705 3704 3706
4  3024 3798 3729 4439
4  3703 4160 3958 3705
4  2990 3000 2991 2993
4  2899 2901 3025 3145
4  3958 3381 3771 3376
4  3201 3118 3088 3087
4  3028 3032 3030 3696
4  3030 3029 3089 3027
4  3004 5007 4788 5026
4  3753 2899 3024 3026
4  3004 5007 5026 2897
4  3641 3321 3644 3922
4  3679 3203 3696 3029
4  3005 3002 3333 2895
4  3677 5008 4248 3685
4  2919 2917 3089 3027
4  4809 3936 3812 3814
4  4659 4339 5063 4886
4  574 905 976 3549
4  3641 3644 3321 3826
4  4579 3924 3323 3925
4  537 544 3326 3327
4  5063 4588 4602 4886
4  3676 3677 3583 3685
4  5063 3051 4602 4588
4  4659 4602 4840 4836
4  4958 4955 4836 4645
4  4756 4603 4588 4886
4  4660 4836 4603 4886
4  3958 3830 3381 3829
4  4841 3956 4873 3957
4  4305 4309 4310 4372
4  4660 4661 4658 4886
4  4782 4160 4483 3705
4  4308 4873 4872 4309
4  4312 4805 4313 4260
4  937 3961 4806 4315
4  4923 5006 4782 4160
4  4362 4766 4369 4363
4  3956 3957 4781 3958
4  4841 5006 4923 4160
4  67 3961 3960 3829
4  4818 4861 3681 4817
4  3786 4866 4612 4416
4  5064 5008 4790 4248
4  4287 4367 3797 3580
4  3753 3024 2899 4437
4  4863 4757 4901 3681
4  3679 3203 3680 3615
4  4368 4364 4366 4369
4  3677 4789 4742 3798
4  2899 3729 2901 4439
4  3203 3204 3513 3696
4  3203 3030 3204 3696
4  499 149 501 3338
4  3606 3605 4758 3032
4  4287 4829 4367 3580
4  3923 3797 3583 3585
4  3545 3217 3352 3220
4  4612 4615 4154 4583
4  3545 3353 3219 3220
4  307 405 403 3494
4  4907 4957 4642 3713
4  4867 3137 3874 4925
4  3137 3487 3874 3918
4  159 983 155 3219
4  3529 3528 2967 3526
4  4660 4840 3343 4646
4  3920 3566 3567 3193
4  3143 2939 4269 2940
4  3345 3346 3871 3344
4  4018 4044 3218 3666
4  3497 4646 4929 3346
4  3880 5052 4742 3586
4  3217 3392 3350 3215
4  4341 4342 4345 4340
4  159 5057 983 3219
4  4341 3489 4342 4340
4  4813 4058 3219 3213
4  494 493 695 4811
4  4966 5025 4600 4965
4  4058 3218 4045 3219
4  3178 3393 3394 3392
4  3807 4599 4898 3132
4  4555 4216 4554 4075
4  4771 4925 3874 4268
4  4087 3469 4771 3825
4  4660 4658 4659 4886
4  3489 3052 4343 4340
4  701 103 807 3479
4  258 3824 3918 4268
4  621 258 3918 4925
4  3137 3192 3918 4925
4  4933 3541 3558 3813
4  3137 3193 3487 3918
4  4768 4561 4777 3933
4  356 272 357 3584
4  4100 4224 4096 4101
4  621 506 3192 3568
4  4137 4226 4138 3933
4  4142 4513 4273 4139
4  506 3194 3192 3568
4  3874 3918 3487 3824
4  4506 4425 4426 4427
4  4263 4265 3878 4266
4  3487 3824 3918 3488
4  4495 4133 4494 4307
4  672 621 4959 4925
4  672 4961 258 4925
4  4273 4175 3302 3311
4  3694 3970 3969 3695
4  4644 4958 3497 4646
4  4464 3692 3694 3695
4  4630 3970 4335 3969
4  4691 4063 5065 4065
4  4060 4556 4216 4554
4  4102 4759 2963 4552
4  4466 4630 4335 3969
4  4976 3765 3766 4217
4  4631 3968 3973 3969
4  4760 2962 2961 2963
4  4631 4464 3969 4465
4  4553 4552 4102 4103
4  3972 4630 3973 3967
4  4556 4106 4552 4103
4  4731 4686 4730 4687
4  4616 3973 4630 3969
4  5011 4626 4463 4610
4  3707 3708 4754 3412
4  3253 2992 3250 4754
4  4037 4916 3974 3971
4  3708 4878 2992 4754
4  4066 4750 3250 3232
4  937 584 585 4806
4  4894 4797 4605 4626
4  4657 3232 3250 4754
4  604 3382 3831 3383
4  4625 4609 4793 4626
4  4377 4230 4376 3701
4  3974 3973 3968 3967
4  3707 3708 2992 4754
4  4173 5020 5019 4187
4  4173 5019 4174 4187
4  4487 4174 3893 4187
4  4637 4662 4666 4639
4  4662 3891 3742 3743
4  4460 4299 4173 4169
4  3525 3524 3522 3521
4  4892 3742 4434 3744
4  3742 3743 3893 4174
4  4666 4807 4478 3902
4  3749 3743 3744 4174
4  4716 4412 4617 4416
4  3863 3272 3867 3275
4  3866 3868 3953 3275
4  4172 4460 4173 4169
4  4417 4415 3535 3610
4  4283 3271 4346 4015
4  4359 4284 3278 3271
4  3749 5019 3743 4174
4  4345 4342 4726 3547
4  3869 3953 4346 3273
4  489 3205 4726 3256
4  4653 3270 4401 3269
4  3984 4025 4733 3990
4  3546 3736 3735 3257
4  4129 4324 4736 4130
4  4701 3765 3764 3987
4  4250 3259 3260 3987
4  3547 3254 3256 3257
4  511 509 3656 3653
4  4221 4218 4354 4217
4  4703 4701 4217 4352
4  2912 3117 2915 3115
4  414 3929 3564 2909
4  2907 3117 3520 2908
4  3196 4497 3197 3198
4  4692 4219 4072 4061
4  4793 4036 4202 4201
4  3774 5066 4443 3775
4  4038 5027 4023 4039
4  4080 4971 4021 4081
4  5020 4186 4727 4192
4  4185 4193 4083 4188
4  414 943 553 2888
4  3889 4395 3996 3887
4  4166 4169 4168 4171
4  4080 4021 4085 4081
4  4460 4298 4173 4299
4  4186 4196 4727 4188
4  4022 4023 4688 4420
4  4487 4174 4299 4169
4  4797 4792 4605 4626
4  4022 4023 4971 4688
4  256 193 1022 3916
4  4080 4193 4971 4081
4  4727 4196 4729 4197
4  4351 4703 4352 3987
4  4486 4471 4970 4081
4  3842 3846 3735 3164
4  3841 3735 3736 3164
4  4175 3311 4275 4177
4  4992 4993 5034 4323
4  4025 4481 3990 4026
4  4801 4993 5033 5032
4  4701 3986 3985 3987
4  4025 4030 4952 4026
4  3988 4028 4030 3989
4  4535 4495 4494 4307
4  3162 3736 3164 4477
4  4575 4496 4497 4307
4  3164 3163 3167 3165
4  3841 3842 3735 3164
4  4933 3813 3559 3815
4  4933 3813 3558 3559
4  4945 4964 4523 4525
4  4911 4912 3938 4406
4  4964 4911 4406 4710
4  4619 3998 4002 3999
4  4943 3963 4406 4526
4  3813 3528 3560 3810
4  3529 3560 3541 3528
4  4003 4596 4530 4001
4  3998 4581 4586 4000
4  4767 4641 3593 3815
4  3812 3593 4641 3815
4  3443 3815 4641 3712
4  1023 5052 3880 3586
4  5067 5058 4767 3815
4  4772 3558 3471 3470
4  3715 3491 3714 3472
4  4052 4053 4560 4918
4  3988 4030 4025 3989
4  3984 3988 4025 3990
4  3495 3714 3469 4738
4  4482 4952 4253 4190
4  307 3714 3495 4738
4  3310 3311 4176 4177
4  3811 3555 3715 3917
4  3496 3715 3491 3714
4  4559 4982 4747 4748
4  285 1023 272 5052
4  20 22 21 3146
4  4052 4054 4053 4918
4  4288 3585 3923 3584
4  474 4288 661 2931
4  3549 3126 3551 3122
4  4712 4557 4558 4708
4  4911 4712 4558 4708
4  378 3727 2893 3792
4  4589 4288 3923 2931
4  661 4288 3579 2931
4  3400 3125 3059 3127
4  3855 3501 3595 4077
4  3313 3312 3315 3314
4  4031 4407 4409 3977
4  454 458 742 4862
4  3226 3688 3229 3314
4  4834 4077 4241 3851
4  3313 3856 3312 3228
4  4818 4211 3681 4485
4  4834 4077 3851 3457
4  3313 3226 3314 3318
4  3629 4567 3630 3360
4  4492 3906 3905 4207
4  4962 4833 3851 3317
4  741 454 4862 3836
4  741 4862 3097 3836
4  823 4999 4433 2985
4  4042 3097 4862 3836
4  180 77 78 3041
4  3835 3630 3836 3187
4  454 4371 4862 3186
4  4430 4143 3303 3304
4  454 3186 4862 3836
4  3413 4051 3039 4046
4  4273 4145 3304 4139
4  4407 4760 2961 2963
4  4410 3978 3975 3976
4  4144 4145 4227 4139
4  4997 4048 4051 4049
4  4409 3409 3741 3040
4  4071 3482 4255 4246
4  3835 4370 3834 3186
4  3080 3941 3942 3081
4  3079 4796 3075 3081
4  4430 3303 3309 3304
4  3309 3311 3304 3305
4  891 3917 3555 3814
4  4175 4176 4324 3305
4  4142 4273 3302 3304
4  4426 3302 3303 3304
4  3510 3501 3519 3518
4  849 3857 3226 3222
4  4933 5058 5067 3815
4  3477 3044 3047 3046
4  3512 3200 3517 3202
4  3515 3510 4079 3519
4  538 3951 683 3519
4  4894 4626 4605 4610
4  4992 4991 4030 4954
4  5011 4281 4610 3460
4  4279 4610 4281 3460
4  481 596 535 3814
4  4894 4463 4610 3460
4  4279 4286 4280 4282
4  3496 3715 3714 3917
4  4611 4607 4610 4282
4  3416 3415 3417 3064
4  3602 3915 3912 3911
4  3820 4415 4649 3610
4  3844 4926 3414 3399
4  569 3552 3058 3061
4  5029 4327 3962 3553
4  190 95 189 2922
4  3623 3418 3625 3065
4  3154 4403 4404 4402
4  3473 3047 2922 3048
4  4926 3552 3414 3399
4  3401 3058 3059 3060
4  329 3290 0 3289
4  3862 2923 2978 2975
4  3262 3962 4904 3263
4  0 3290 2921 2978
4  131 327 706 3448
4  4655 4716 4584 4400
4  4716 3290 4491 3289
4  4361 3270 3271 4096
4  4716 4491 4617 4412
4  4675 3549 3121 2930
4  3119 4948 4577 3120
4  3910 4512 4479 3534
4  3552 3059 3058 3061
4  3551 3126 3124 3122
4  569 3552 566 3058
4  566 3058 3552 3126
4  544 3327 2925 2924
4  4948 4579 4577 4578
4  3400 3128 3398 3125
4  3956 4781 4454 3958
4  3492 4435 3349 3412
4  4017 4019 5068 3802
4  4019 3214 4967 3802
4  4763 3464 3466 3091
4  3801 4967 3214 3802
4  3660 3666 3803 3665
4  3803 3666 4018 3802
4  4634 4635 4870 3464
4  4017 5068 3803 3802
4  3682 3456 3317 3319
4  3614 3702 3295 3700
4  3699 3292 3170 3907
4  162 3908 4849 3440
4  4281 4511 4448 4282
4  5016 4833 3456 3457
4  3682 3317 3827 3316
4  3315 3853 3317 3316
4  3226 3454 3857 3318
4  5069 3374 4896 3375
4  5013 3852 3827 3317
4  4838 3144 2889 2891
4  5016 4834 4833 3457
4  3226 3857 3454 3222
4  5051 4962 4963 3853
4  900 2906 5070 3115
4  3853 3689 3316 3314
4  5012 5071 4962 3317
4  4962 5071 4833 3317
4  4962 3851 3315 3317
4  3808 2902 3850 2903
4  4060 4216 4220 4075
4  4102 4552 2963 4103
4  5072 4391 4390 3164
4  789 5056 766 3353
4  4914 3842 3847 3843
4  3669 3545 3546 3843
4  3205 3207 3162 3286
4  4690 4064 4556 4554
4  4553 4556 4517 4554
4  3842 4390 3847 3846
4  4063 4554 4064 4062
4  988 3205 3256 3255
4  771 852 890 3287
4  5072 3724 4390 4391
4  4691 4076 4063 4062
4  4691 4061 4076 4062
4  4690 4554 4060 4062
4  4076 4555 4554 4075
4  4553 4556 4554 4552
4  4820 4914 4913 3667
4  3607 3609 3769 3603
4  3844 3845 4865 3399
4  3062 3415 3338 3064
4  4640 4343 3132 3661
4  3416 3418 3063 3064
4  710 3531 3623 3418
4  3531 3416 4895 3418
4  4503 4469 4200 4394
4  3614 3180 3168 3179
4  4947 4463 4625 4622
4  3435 4620 4797 4622
4  3435 4622 4624 4504
4  4857 4624 4623 4504
4  5073 3931 4763 3091
4  4870 3395 3463 3462
4  4835 3851 4241 3856
4  3595 4077 3457 3227
4  4393 4394 4503 4396
4  4857 4671 4389 4396
4  3435 4624 4502 4504
4  3546 3735 3548 3257
4  5051 4963 4996 3853
4  3221 3855 3898 3739
4  3683 3319 3316 3318
4  4962 4835 3315 3851
4  3313 3317 3319 3316
4  5021 3735 3166 3548
4  3655 5021 3166 3548
4  3787 2947 3354 2946
4  3655 3548 3166 3653
4  4358 4221 4074 4218
4  511 3654 771 3653
4  3296 3287 3255 3165
4  3166 3548 3257 3653
4  4660 4659 3343 4840
4  5056 3546 5021 3548
4  767 3656 509 3548
4  4345 3669 3736 3668
4  3546 3352 3547 3351
4  509 3254 3548 3653
4  4820 4913 4821 4044
4  3391 4718 3386 4126
4  5074 3387 3434 3428
4  5075 3386 3438 4718
4  967 2950 913 3229
4  4680 4678 4681 4677
4  3787 3832 3833 3788
4  4370 3185 4749 3183
4  3842 3735 3847 3843
4  803 3221 802 3514
4  3361 3836 3787 3098
4  741 3097 803 3514
4  3188 3190 3430 3840
4  4717 4719 4125 4126
4  4128 3370 3368 3009
4  3433 3190 3430 3428
4  997 3173 3172 3839
4  3172 3175 3188 3839
4  3172 3173 3175 3839
4  3368 3370 3648 3365
4  4548 2904 4293 3646
4  3190 3375 3373 3009
4  256 3838 857 3324
4  407 997 991 3839
4  4553 4556 4552 4103
4  4407 2963 2961 3977
4  4517 4902 4755 4103
4  4102 2963 4407 3977
4  4105 3975 4106 3977
4  4105 4755 4902 4103
4  4947 3890 4463 4622
4  4238 4237 4752 3439
4  5074 4846 3434 3387
4  2951 2950 2945 2948
4  4767 4333 3593 4641
4  2949 2953 3788 2948
4  2945 2950 2946 2948
4  5051 4996 3852 3853
4  4128 3374 3375 3009
4  3190 3451 3366 3009
4  3188 3190 3175 3366
4  967 780 3688 3229
4  4995 4590 3315 3312
4  5076 3461 4947 3890
4  3828 3853 2945 3689
4  5076 4719 4239 4624
4  3096 2945 4590 3314
4  4125 4719 4857 4624
4  970 935 936 3110
4  4333 3593 4641 4332
4  4728 4687 4688 4195
4  3474 3046 2955 3476
4  4970 4688 4731 4195
4  4971 4728 4688 4195
4  4789 3729 3798 4439
4  2899 4439 2901 2897
4  4686 4068 4921 4069
4  5007 2901 3729 4439
4  4788 5026 5007 4439
4  5005 5006 4841 4311
4  4309 4315 3960 3796
4  3957 4372 3961 3960
4  3024 3729 2899 4439
4  2899 4439 2898 4437
4  377 365 366 3726
4  4781 4923 4782 4160
4  5077 4717 5078 4718
4  4316 4159 4695 4317
4  4289 4304 4303 4306
4  4308 4312 4938 4313
4  3436 4718 3391 4624
4  4879 4542 5030 4539
4  5075 3438 4239 4718
4  5006 5004 4753 4311
4  3831 4695 4316 4159
4  4305 4310 4311 4313
4  961 3263 3447 3446
4  327 329 706 3448
4  4719 4718 3391 4126
4  3130 3050 3109 3133
4  4762 3123 3612 3129
4  3607 3417 3609 3603
4  3107 3051 3083 3050
4  4898 3082 3050 3133
4  706 3447 4935 3532
4  3130 3489 3050 4343
4  4716 4416 4617 4584
4  913 2950 2949 3788
4  4689 4367 4592 4364
4  4042 3361 3359 3355
4  2949 3788 2950 2948
4  3882 4819 3883 3983
4  3841 3667 3668 3843
4  3981 3982 3341 3342
4  5050 3360 3629 3362
4  3883 4658 3982 2934
4  4341 3210 4661 3983
4  3629 4919 3787 3630
4  378 3331 2893 3726
4  4929 3339 3498 3346
4  4919 3787 3630 3833
4  4704 4820 3660 3663
4  3130 4640 3489 4343
4  3660 4820 3803 3666
4  3178 3801 3393 3392
4  4659 5063 4602 4886
4  4063 4517 4065 4064
4  3393 3801 3478 3392
4  3801 3732 4967 4965
4  3801 3733 3214 4967
4  4213 4215 4480 4158
4  4155 4157 4215 4158
4  4213 4480 4481 4158
4  4502 3391 3888 4624
4  3435 3391 4502 4624
4  3006 3650 3367 3365
4  4666 4662 4663 4639
4  3605 5079 5002 3930
4  4888 3696 4863 3615
4  5041 3523 5042 4165
4  5041 4164 2913 4165
4  4637 4666 4478 3902
4  3028 3679 4861 4757
4  3928 3930 3031 4909
4  4808 4666 4662 4663
4  3892 4636 3069 3894
4  546 856 3404 2884
4  4125 3391 4719 4624
4  3435 3436 4624 3890
4  5076 4624 4239 3890
4  3108 3083 4267 4498
4  5080 4019 4812 3733
4  4623 4622 4795 4504
4  4502 4396 4503 4504
4  5076 4623 4624 3890
4  3804 3806 3807 3665
4  3159 2981 3157 3158
4  377 754 378 3331
4  4345 4819 4344 3736
4  3660 3807 3662 3661
4  3740 3076 4336 3081
4  407 3173 997 3839
4  3889 3996 4830 3886
4  4240 3849 3850 3403
4  4456 4166 4462 4168
4  4620 4621 4797 4622
4  4814 5081 4337 4336
4  4814 4796 4815 4336
4  4599 3195 3133 3577
4  4036 4916 4037 4204
4  4599 4601 3195 3577
4  4620 4199 4621 4200
4  4792 4271 4605 4606
4  4631 3968 3974 3973
4  3195 3133 3577 3198
4  3109 4546 3133 3198
4  4574 2997 3249 2991
4  2995 2997 4574 2998
4  685 686 170 3242
4  4793 4608 4036 4606
4  3770 2999 3001 3243
4  3489 3050 4343 3052
4  4067 4286 4271 4607
4  3107 3083 3109 3050
4  3082 3133 3195 3198
4  3405 3458 4279 3460
4  4279 4610 4286 4282
4  4611 4449 4609 4607
4  4259 3002 4884 4261
4  4236 4297 3692 3701
4  4359 3278 3268 3271
4  4614 4654 4656 4401
4  4667 4669 4540 4541
4  4399 5010 4653 4401
4  4542 4540 4382 4007
4  4945 4525 4386 4936
4  4654 3272 3865 3269
4  4654 3865 4401 3269
4  3869 3273 4346 3269
4  4385 4524 4006 4386
4  4580 4524 4384 4383
4  4670 4581 3999 4383
4  4382 4580 4384 4383
4  4653 3269 4346 3271
4  4669 4003 4580 3999
4  4598 4656 4654 3865
4  5010 4597 3869 3865
4  4660 4929 4958 4646
4  4974 4007 4005 4006
4  4644 4958 4646 4645
4  4958 4836 4646 4645
4  3497 4646 3423 4643
4  3872 3423 4646 4643
4  5031 4380 4374 4381
4  4387 3572 3632 3633
4  5031 5030 4380 4381
4  4696 4745 3778 3779
4  3632 4937 4673 3620
4  3974 3966 3971 3967
4  4828 3633 4010 4388
4  3692 3695 3701 3575
4  4644 4646 3497 4643
4  4066 3251 4153 3411
4  4448 4511 3251 4282
4  3309 3304 3303 3305
4  4137 4513 4142 4139
4  3247 4280 4153 4511
4  3406 5044 3396 4511
4  4283 4360 4222 4223
4  4285 4145 4276 4274
4  3396 4281 3397 4511
4  4144 4143 3304 4139
4  3406 4280 3247 4511
4  4142 3304 4143 4139
4  4067 4449 3411 4282
4  4513 4222 4223 4224
4  3308 4735 4322 4130
4  4280 4511 4281 4282
4  3099 3091 3017 3092
4  4228 4227 4223 4224
4  4852 3099 3101 3091
4  4575 4497 4348 4307
4  4341 4756 3052 4886
4  3466 3464 2969 3017
4  3931 3090 4763 3091
4  5073 4763 3466 3091
4  5073 3466 3858 3091
4  3024 3729 3798 3725
4  4355 4347 4545 4357
4  3024 3025 3729 3725
4  3330 3729 2901 3726
4  4353 4535 3994 4348
4  4701 3985 4352 3987
4  4702 3986 3992 3985
4  4789 3879 3798 3729
4  4267 4501 4266 4498
4  4547 4534 4353 4536
4  3994 4028 3988 3993
4  4482 4189 4481 4026
4  4350 4218 4357 4349
4  4785 4005 4537 4008
4  5007 3330 3729 2901
4  4380 4008 4011 4010
4  4162 3086 3066 3067
4  4826 4010 4374 3633
4  3606 3204 3032 3696
4  4826 4387 4827 4010
4  4382 4011 4007 4006
4  4581 4524 4000 4383
4  3203 3204 3199 3513
4  4885 3199 3086 3204
4  2997 3711 2992 2993
4  4908 4887 4885 3204
4  4020 4038 4039 4201
4  4605 4626 4609 4610
4  4466 4616 3969 4465
4  4792 4606 4605 4626
4  3606 4888 3204 3696
4  4605 4609 4606 4607
4  4271 3238 4608 3237
4  2986 2988 4522 4119
4  2986 2987 4522 2988
4  4257 4065 4679 4677
4  519 840 162 4849
4  4671 4395 4389 4396
4  4471 5027 4970 4023
4  3869 3273 3269 3275
4  3268 3278 3272 3269
4  4257 4679 4065 4522
4  5065 4257 4065 4522
4  3937 3940 3939 3946
4  4275 4182 4179 4177
4  5003 4884 4261 4509
4  4404 3268 4654 4401
4  4691 5065 4257 4065
4  4283 4182 4360 4016
4  4518 4522 4065 2987
4  142 5065 4518 2988
4  4586 4514 3866 4528
4  142 118 5065 2988
4  3953 3868 3273 3275
4  3866 4514 3953 3868
4  3272 3274 3867 3275
4  5065 4117 4522 2988
4  4367 3753 4366 4249
4  4743 4516 4052 4054
4  3024 4439 2899 4437
4  3677 5064 4789 4248
4  4287 3580 3797 3585
4  4558 4057 4559 4560
4  4557 4559 4708 4715
4  3617 4936 3618 3620
4  3024 4248 3798 4439
4  4438 4248 4440 4437
4  4712 4713 4557 4715
4  4789 5064 4790 4248
4  4712 4708 4709 4715
4  3677 4248 3583 3685
4  3491 3873 3713 3422
4  4912 4405 3938 4406
4  3339 3137 3874 3340
4  4711 4937 4709 4936
4  4711 4712 4911 4710
4  4269 3340 3137 2939
4  4711 4911 4964 4710
4  2889 2890 4261 4509
4  4446 5066 4450 4443
4  3785 4070 4921 3783
4  3021 4727 4442 4543
4  3021 4442 3022 3023
4  4214 3142 4799 5037
4  3022 4442 5037 3775
4  3469 3491 3825 3873
4  3274 3964 3963 3868
4  4089 5082 3870 3340
4  5076 4239 3702 3890
4  3964 3954 3944 3946
4  4330 3954 3955 3946
4  5040 5075 4238 4239
4  4180 3945 3944 4331
4  4238 3438 3439 4239
4  5075 4846 3438 3386
4  5083 5075 5040 4239
4  4912 4405 3939 3938
4  4147 4519 4521 4151
4  4807 3895 4478 4209
4  4520 4766 4002 4151
4  3773 3265 4214 3599
4  4521 4002 3998 4001
4  4521 3998 4585 4001
4  4258 4260 3103 4261
4  4766 4741 4369 4002
4  4521 4004 4002 4001
4  4619 3998 4521 4002
4  4982 4450 4985 4979
4  5037 4442 4444 3775
4  4520 4619 4521 4002
4  4214 4891 5037 4215
4  4982 4988 4986 4980
4  4797 4792 4626 4621
4  5045 2968 2970 3995
4  4894 4463 4626 4610
4  5011 4626 4625 4463
4  4625 4463 4626 4622
4  4605 4606 4609 4626
4  4286 4605 4607 4610
4  4763 4634 3464 3090
4  5045 2970 3699 3907
4  4894 4605 4286 4610
4  3699 2970 3463 3907
4  2959 2954 2965 2957
4  3146 4838 3144 2889
4  5084 4127 5035 5069
4  5083 4717 5077 4718
4  3812 3591 2964 3544
4  958 3527 5054 2954
4  3374 3452 4896 3373
4  390 4794 3387 3440
4  4128 4124 3370 3371
4  3591 3544 3530 2965
4  3643 4033 4362 4365
4  4850 4851 4767 3593
4  4850 4851 3593 2966
4  3664 3668 3661 3663
4  5069 4896 3434 3375
4  4342 4640 3664 3668
4  3174 3188 3175 3366
4  5028 3374 4128 3009
4  5028 3369 3374 3009
4  4704 3841 3667 3668
4  4704 3668 3667 3663
4  4345 4342 3669 3668
4  4344 3662 4343 3668
4  4344 3662 3049 4343
4  3998 3999 4581 4000
4  3438 3387 3440 3054
4  4974 4385 4581 4383
4  390 797 162 3054
4  407 857 3838 3840
4  4974 4385 4383 4006
4  389 4794 5074 3387
4  4670 3999 4541 4383
4  4502 4503 4620 4504
4  390 244 797 3384
4  319 3387 5074 3428
4  4717 5084 5078 4488
4  5075 5078 4846 3386
4  4382 4541 4669 4383
4  5009 4974 4670 4541
4  5009 4974 4541 4007
4  3453 3455 3682 3319
4  5013 3827 3682 3317
4  4382 4007 4383 4006
4  4847 3828 2951 3689
4  4241 4242 4848 3856
4  963 4990 3687 3683
4  4009 4006 4010 4386
4  3631 5050 3629 3362
4  848 849 422 3222
4  3675 2998 4787 3672
4  3675 3626 3245 3240
4  3456 3455 4078 3457
4  3449 3245 3626 3242
4  4573 4033 4499 4034
4  3266 3626 3659 3672
4  3787 3098 3832 3788
4  4847 3687 3828 3689
4  4990 3827 3687 3683
4  3453 3597 3455 3454
4  3095 3096 3098 3354
4  3096 3354 4590 2946
4  3313 3317 3851 3319
4  963 964 4990 3683
4  4962 3853 3852 3317
4  3463 3179 3907 3462
4  3266 3248 2998 3672
4  47 3011 3038 3242
4  3626 3038 3285 3242
4  4544 4543 5038 4192
4  3292 3463 3179 3907
4  4238 4237 3439 3438
4  4191 4185 4187 4188
4  4950 3461 5076 3702
4  5047 3758 4752 3755
4  4858 3069 3894 4192
4  4544 3892 3069 4192
4  3168 3636 3755 3171
4  5020 4187 4186 4192
4  65 826 72 3161
4  4858 3021 3069 4192
4  4930 4755 4690 4064
4  5017 4930 4338 4902
4  4031 4104 3740 4902
4  823 822 639 2985
4  823 639 826 4999
4  5017 4104 4105 4902
4  3740 4104 4336 4902
4  3629 4919 2953 3787
4  3948 3079 3071 3074
4  4327 5085 4905 4413
4  4412 3553 3445 4413
4  3835 3630 4379 3360
4  3862 3474 3151 3152
4  741 3836 3097 3098
4  3837 2949 2953 3788
4  4780 3150 3153 3155
4  4779 3150 4780 4413
4  802 3514 3221 3229
4  639 822 562 2981
4  4905 4415 3445 4413
4  4905 5085 4778 4413
4  822 4433 2989 2985
4  4796 4336 3076 3081
4  3719 3297 3167 3291
4  3773 3598 3599 3070
4  3142 3141 3599 2943
4  4214 5037 4891 3599
4  3773 3022 3599 3775
4  509 490 488 3254
4  3265 3142 4214 3599
4  4810 3719 3721 3718
4  3223 3720 4994 3297
4  3598 3265 3599 2943
4  3831 3830 3961 3383
4  4391 3720 3655 3166
4  5072 3724 4391 3167
4  3223 4994 3225 3297
4  3823 4278 4854 3717
4  1005 161 3287 3225
4  3654 3655 3720 3296
4  936 935 585 4697
4  5086 3710 3705 3706
4  5086 3711 3710 3706
4  953 3224 4853 3225
4  3823 3821 3817 3288
4  4893 4782 5086 3705
4  4454 3771 4629 4618
4  953 1007 3224 3225
4  4695 3703 4159 3830
4  4567 4571 3834 4379
4  4305 4313 4311 4319
4  4455 3771 3705 3710
4  4781 4782 4893 3705
4  457 589 590 3408
4  3534 3535 4417 3536
4  3947 3073 3941 3084
4  4934 3820 3535 3445
4  3609 3416 3819 3535
4  4417 3445 3535 4415
4  814 3566 3205 3206
4  4424 4919 4422 3833
4  4697 4303 4289 4304
4  4910 3136 3919 2938
4  4032 4519 4493 4034
4  3134 4868 3139 2940
4  3413 4046 3950 4049
4  3078 4815 4796 3081
4  4749 3185 3790 3184
4  4868 3137 3139 2940
4  2937 2936 2938 2935
4  4269 3137 4868 2940
4  4966 3801 4965 3806
4  4966 3804 3801 3806
4  3588 2955 2958 2957
4  4328 5029 3262 2974
4  42 850 41 3276
4  3262 5029 3962 3553
4  468 961 464 3263
4  5087 5080 5088 4967
4  4905 4778 4415 4413
4  5068 4967 3804 3802
4  4019 3214 3733 4967
4  5087 5088 5068 4967
4  5080 3733 4112 4967
4  4966 4967 4112 4965
4  4147 4152 4151 4150
4  3863 3865 3272 3275
4  3869 3953 3273 3275
4  3670 4787 3671 3672
4  3101 3465 3931 3092
4  4004 3864 4596 4001
4  4148 4521 4597 4150
4  4597 4585 3866 3864
4  3866 4528 3867 3864
4  4521 4585 4597 3864
4  10 3018 3424 3337
4  3437 3459 3702 3890
4  3437 3702 4239 3890
4  4316 4303 4319 4232
4  3621 4463 3458 3459
4  3621 4463 3890 4622
4  3436 4239 4624 3890
4  5045 3995 2970 3907
4  909 5089 4845 3468
4  3435 3890 4624 4622
4  3216 3218 3664 3666
4  3216 3661 3806 3665
4  3216 3802 3666 3665
4  4045 3218 4044 3545
4  4821 4044 4018 3666
4  4114 4676 4109 4677
4  4071 4691 4256 4061
4  4692 4256 4059 4061
4  3660 3665 3661 3663
4  4820 4044 4821 3666
4  5090 5081 4682 4338
4  2986 3298 2984 4338
4  4122 4120 4121 4118
4  5081 5017 4338 4336
4  5017 4338 4336 4902
4  4065 3298 2986 4338
4  4682 4676 4677 4338
4  4676 4338 4930 4064
4  4320 4484 4242 4485
4  3680 4972 4818 4485
4  4320 4972 3680 4485
4  4863 3681 4484 3615
4  4863 4816 4484 3681
4  4992 5034 4954 4136
4  4972 4211 4818 4485
4  4092 4816 4211 4485
4  4892 4434 4166 4171
4  629 287 3181 3183
4  65 3161 72 3789
4  3565 4892 4171 3747
4  4860 4171 4166 4458
4  4170 4171 4928 4458
4  3085 3077 3072 3074
4  4304 3102 4699 4698
4  4968 3744 3748 3747
4  191 3424 3425 3337
4  3837 2953 4919 3787
4  4040 4042 3835 3359
4  72 77 180 3790
4  3111 3102 4872 3796
4  4890 4889 4260 4306
4  454 458 4862 4371
4  230 72 180 3790
4  4370 3039 4749 3185
4  4410 3950 4411 3976
4  3698 3757 3177 3169
4  3698 3170 3177 3907
4  3995 3177 3861 2971
4  3176 3179 3170 3171
4  3807 4600 4599 3578
4  968 961 468 4904
4  704 131 706 3532
4  131 149 327 3448
4  3807 4599 3132 3578
4  937 4806 585 4315
4  4640 3178 3216 3661
4  3601 3602 4725 3845
4  131 706 3532 3448
4  4966 4965 4600 3806
4  3178 3216 3801 3392
4  3414 3065 3064 3061
4  569 824 501 3061
4  256 3404 3838 3324
4  3452 3373 3369 3008
4  4935 3819 3531 3532
4  2905 2904 2906 2883
4  4240 3403 3850 3927
4  3436 3054 3057 3384
4  3639 3640 3404 2884
4  5044 3249 4448 3251
4  3410 3231 4449 3411
4  546 3404 256 3403
4  176 3849 4240 3403
4  3870 3345 3420 3871
4  176 273 3849 3403
4  4255 3732 3730 3482
4  3870 3347 3345 3340
4  3732 4112 3733 4967
4  5080 3733 3730 4112
4  5053 4115 5088 4112
4  4966 4112 4107 4965
4  2984 2989 2985 2983
4  3146 4508 2889 3148
4  5081 5017 4930 4338
4  1010 832 986 3751
4  3752 3146 3144 3145
4  377 366 3728 3726
4  3144 2893 2896 2892
4  3004 3329 5007 2900
4  4884 4261 4509 4510
4  992 972 973 4628
4  4628 4454 4629 4618
4  4815 5017 4336 3081
4  3776 4709 4937 3620
4  3298 4336 4338 4902
4  5017 4336 3081 4104
4  3076 3081 3084 3074
4  4942 4489 4232 4235
4  937 583 584 3961
4  3919 3135 3569 2935
4  4476 3717 3652 3884
4  4910 4823 5091 2938
4  3239 3411 3231 3232
4  4822 2938 2936 2939
4  685 170 798 3035
4  4750 3239 3234 3232
4  992 973 346 4161
4  4910 2937 4823 2938
4  4724 4856 4855 2937
4  605 3383 3376 3378
4  5092 3524 5060 4293
4  4476 3881 3717 3884
4  4278 3716 3717 3718
4  4445 4729 4443 4447
4  4445 4446 5093 4447
4  4686 4730 4687 4447
4  5093 4451 5036 4447
4  180 78 926 3409
4  5005 4308 5004 4311
4  4572 4379 3949 3073
4  72 77 3790 3159
4  180 3408 3185 3041
4  5079 5001 5002 3930
4  4686 4921 5036 4447
4  3030 3032 3204 3696
4  5002 4761 3930 4909
4  4445 4920 4687 4447
4  2912 2906 3117 3115
4  4920 5093 4921 4447
4  412 3929 414 2909
4  3564 3929 3116 2909
4  4508 4879 4510 4880
4  4794 4849 4237 3440
4  4882 4880 4510 4883
4  4941 4306 4883 4235
4  4289 4290 4882 4883
4  4286 4605 4271 4607
4  162 797 25 3054
4  4890 4510 4946 4883
4  519 759 1029 5047
4  797 25 3054 3055
4  3439 3438 3440 3054
4  4289 4304 4306 4883
4  4882 4699 4698 4883
4  4632 3282 3674 3657
4  4289 4698 4304 4883
4  4870 3463 3737 3462
4  4763 4634 4870 3464
4  3463 3907 3737 3462
4  3013 3659 3335 3336
4  1013 4839 5089 3100
4  3995 3907 3177 2971
4  759 656 940 3426
4  474 357 993 3584
4  356 272 3584 3627
4  444 4287 357 4829
4  2970 2969 3907 2971
4  3729 3025 3727 3725
4  4288 4287 4689 3585
4  3176 3907 3179 3462
4  3612 4926 3399 3124
4  4753 4311 4313 4319
4  4753 4313 4889 4319
4  4303 4306 4942 4235
4  4889 4941 4942 4306
4  3549 4705 3121 3122
4  4316 4305 4159 4319
4  4927 4705 3549 3551
4  839 601 98 3043
4  4303 4942 4319 4232
4  3196 4347 4575 4348
4  3196 4348 4575 4497
4  4350 4353 3994 4349
4  4356 4349 4218 4352
4  3991 3993 4348 4349
4  5085 4779 4778 4413
4  468 4904 961 3263
4  4347 4356 3991 4349
4  4575 4348 3991 3993
4  4470 4471 4468 4394
4  4167 4299 4832 4461
4  4086 4469 4394 4085
4  3996 4395 4468 3997
4  3571 2929 3826 3127
4  3624 3625 4926 3552
4  4795 4621 4202 4200
4  4469 4470 4038 4200
4  468 464 3262 3263
4  4287 4367 4689 3797
4  285 272 356 3627
4  4671 4470 4395 4394
4  4671 4200 4394 4396
4  4393 4394 4396 3887
4  135 137 136 3010
4  3174 4393 4396 3887
4  4890 4941 4889 4306
4  3859 3861 3099 3468
4  4874 4632 5094 4634
4  117 2989 2988 2983
4  3858 3091 3466 3467
4  3673 4787 3670 3672
4  117 4119 2988 2989
4  5065 4257 4522 4246
4  117 4117 118 2988
4  5094 4634 4632 4633
4  4522 2988 4117 4119
4  4627 4629 3246 2999
4  521 20 3145 3792
4  687 719 686 3449
4  378 2893 3331 3792
4  754 4871 752 3792
4  752 3793 409 3147
4  4852 3931 5073 3091
4  4579 4578 3925 3826
4  3400 3128 3125 3127
4  3722 3641 3685 3922
4  3145 3792 3147 2896
4  3792 3793 3147 2896
4  3326 3328 3325 3322
4  2925 2924 3327 3322
4  2893 2895 3332 2896
4  3331 4871 3792 3332
4  409 3793 3148 3147
4  4159 4311 4160 4317
4  3077 3790 3041 3159
4  3040 3740 3076 3157
4  77 3041 3790 3159
4  3741 3740 3040 3157
4  4938 4312 4804 4805
4  4159 4309 3957 4311
4  3077 3072 3041 3790
4  4647 4565 4595 4643
4  4647 4645 4940 4565
4  4939 4645 4565 4265
4  4455 5095 3772 3710
4  4635 3396 3395 3738
4  4894 4286 4279 4610
4  4939 4955 4645 4265
4  4279 4281 4280 3397
4  4603 4955 4264 4836
4  3626 3038 3659 3336
4  3293 4281 3294 3460
4  3189 4126 3386 4488
4  4341 4339 4661 4886
4  4659 4602 4836 4886
4  4955 4604 4645 4265
4  4342 3669 3352 3547
4  65 3791 3161 3789
4  4958 4955 4603 4836
4  180 3041 3185 3790
4  180 77 3041 3790
4  3039 3041 3072 3790
4  4737 3469 3557 4738
4  3441 3812 3935 4332
4  891 3555 3560 3814
4  4737 4771 3469 4268
4  3791 3182 4749 3789
4  3442 3715 3443 3475
4  4644 3497 3490 4643
4  4595 4940 4505 4565
4  3085 4749 3072 3789
4  3441 5000 4809 3811
4  3469 3714 3471 4738
4  4290 4234 4231 4235
4  437 262 3557 3556
4  3130 3178 4640 3132
4  3558 3712 3559 3470
4  4545 3577 4532 4536
4  891 307 4738 3917
4  4073 4221 4076 4075
4  437 436 262 3556
4  4601 4533 4532 4550
4  3813 3555 3560 3556
4  3216 3218 3214 3215
4  4058 4018 3218 3214
4  4898 3132 3050 4343
4  4805 4890 4889 4260
4  3156 4398 3154 3152
4  4599 4898 3132 3133
4  3576 4549 3131 3578
4  3576 3131 4546 3577
4  3477 3854 4777 3592
4  3473 4097 3477 4101
4  601 600 3530 3043
4  3473 4099 4398 4098
4  4777 4138 4225 4226
4  3477 4777 4774 3592
4  3854 4225 4100 4101
4  3590 4777 3854 3592
4  4397 2922 2921 3862
4  4614 4401 4656 4400
4  5054 2954 2958 3280
4  4097 4773 3477 4101
4  4775 5054 2958 3280
4  4553 4063 4076 4554
4  4690 4064 4554 4062
4  4254 4071 3483 3482
4  4601 4532 3577 4550
4  4640 3216 3664 3661
4  4547 4532 3577 4536
4  4956 3854 4099 3476
4  3474 4398 3151 3152
4  4355 4357 4074 4218
4  3154 4398 4099 4098
4  494 159 155 4813
4  3156 3151 4956 4398
4  2912 2913 2915 3117
4  123 142 1011 4518
4  4534 4587 4497 3198
4  4545 4347 3196 4536
4  1002 860 214 4123
4  4535 3993 4348 4307
4  4553 4555 4759 4552
4  4555 4554 4216 4552
4  4553 4517 4556 4103
4  4555 3766 4759 4552
4  5043 3117 2912 2906
4  4219 4060 4075 4061
4  4356 4357 4218 4349
4  5070 2906 2912 3115
4  1050 244 1024 3389
4  4793 4202 4621 4201
4  4419 4022 4915 4420
4  4620 4199 4792 4621
4  24 3056 3638 3622
4  3188 3190 3189 3429
4  3614 3439 3437 3702
4  3621 3435 4797 4622
4  4795 4625 4621 4622
4  4237 4752 3439 3908
4  932 367 832 3582
4  2887 2886 2906 2885
4  2905 3927 2902 2883
4  4185 4186 4083 4299
4  4296 2902 2903 2904
4  615 2905 5070 2906
4  4185 4083 4186 4188
4  469 752 754 4871
4  878 880 943 3563
4  4699 3148 4698 3104
4  3102 4698 4314 3110
4  4314 3110 4315 3796
4  935 4315 4697 3110
4  3102 3110 4314 3796
4  106 756 108 3105
4  3214 3733 3212 3734
4  493 3734 4811 3213
4  4434 4172 4174 4169
4  4860 3565 4892 4171
4  3760 4251 3258 3259
4  4252 3260 3259 3987
4  4662 4639 3743 3745
4  4977 3760 3759 3762
4  4003 4004 4596 4001
4  3867 3963 4528 3868
4  4586 4523 4527 4526
4  4542 4382 4011 4007
4  4384 4383 4524 4006
4  377 378 365 3726
4  3733 3478 3212 3480
4  4523 4964 4527 4526
4  4586 4530 4000 4526
4  4766 4004 4741 4002
4  4581 4523 4586 4000
4  4012 4010 4006 4386
4  4384 4012 4006 4386
4  3617 4674 3618 4936
4  4534 3198 4497 4536
4  4721 5019 4858 3894
4  3768 3264 4569 3259
4  3214 3212 3392 3215
4  3481 3212 3478 3479
4  4205 3905 4208 3906
4  3393 3392 3478 3212
4  3897 4291 3570 3896
4  4474 4475 4472 4473
4  343 3212 155 3350
4  3799 3571 3644 4329
4  3320 2925 3584 3327
4  356 3627 3584 3327
4  3641 3686 3685 3922
4  3678 3320 3583 3627
4  4891 3599 5037 3775
4  4288 4689 3923 3585
4  3972 3974 3971 3967
4  4973 4746 4747 4985
4  4270 3237 4271 4204
4  3205 3207 3208 3206
4  3205 3207 3286 3208
4  946 625 3569 4723
4  4229 3348 4377 4230
4  3082 3197 3083 3198
4  4631 4464 3968 3969
4  4826 4373 3572 3633
4  3499 3501 3500 4077
4  5062 3513 3500 3502
4  4375 4376 4230 3701
4  3499 3508 5062 3502
4  3994 3988 4351 3985
4  3595 3519 3501 3518
4  4351 4349 3985 4352
4  4833 4834 3851 3457
4  5015 4834 4078 4077
4  4241 3851 4077 3856
4  4351 3988 3984 3985
4  4356 4702 3991 4349
4  3768 3264 3259 3762
4  4707 4710 4709 4936
4  5015 4078 3507 4077
4  4384 4529 4672 4524
4  4707 4708 3618 4709
4  3693 3619 3777 3637
4  3855 3511 4077 3856
4  3191 3371 3366 3888
4  4945 4711 4964 4525
4  4711 4709 4710 4936
4  4385 4945 4523 4524
4  4529 4943 4525 4526
4  3368 3009 3370 3365
4  5035 5069 4127 3375
4  3190 3375 4126 4488
4  4970 4685 4731 4688
4  4022 4688 4983 4420
4  3991 3993 4349 3985
4  754 752 378 3792
4  4466 4616 4630 3969
4  4186 4198 4196 4188
4  4728 4983 4688 4687
4  4194 4197 4195 4188
4  4728 4197 4687 4195
4  4198 4970 4731 4195
4  74 3961 4315 3960
4  3785 4920 4973 4921
4  3959 4873 3957 3960
4  4214 4155 4891 4215
4  4982 4986 4450 4979
4  4482 4213 4733 4481
4  4030 4991 4952 4954
4  3831 4372 4806 3961
4  3239 3238 4272 3233
4  74 3961 937 4315
4  346 4418 4161 3829
4  4421 4450 4157 4986
4  5090 4682 4680 4681
4  3986 4732 4027 3990
4  3831 3830 4372 3961
4  346 3829 3376 3383
4  3565 3928 3522 3116
4  3520 2887 3116 2908
4  845 4247 5065 4117
4  3928 3930 2907 2911
4  3117 3115 2886 2908
4  457 3408 4371 3185
4  4047 4684 4998 4048
4  413 414 553 2909
4  3565 4171 4928 3747
4  562 1011 81 3635
4  4031 4409 3741 3740
4  2907 3116 2911 2909
4  3266 3240 3626 3672
4  4517 4031 3635 3298
4  4682 4677 4681 4338
4  4031 3741 3635 2980
4  4553 4102 4517 4103
4  3210 3205 3566 3206
4  813 3208 3569 3206
4  4342 3352 4726 3547
4  3626 3285 3038 3336
4  506 3567 646 3194
4  766 509 488 3254
4  3883 3884 3983 2934
4  3210 3884 2932 2934
4  4770 4819 3882 4477
4  3210 4661 3983 4658
4  3920 3567 3339 3193
4  3657 3285 3658 3336
4  3234 4465 3235 3233
4  3494 3495 3486 3488
4  3675 4591 3626 3658
4  3497 3490 3423 3486
4  3566 3194 3193 2933
4  744 125 4737 4738
4  130 4737 125 4268
4  3797 3685 4248 4249
4  4367 4364 3686 4249
4  3643 4362 4364 4365
4  406 508 506 3568
4  3207 2932 3919 3208
4  4689 4592 4573 4365
4  403 3494 404 3488
4  4287 3797 4689 3585
4  4589 3643 3644 3686
4  4762 3611 5096 3129
4  3755 3756 3169 3171
4  3611 3613 4944 3129
4  5093 4446 4451 4447
4  3463 3462 3293 3295
4  4762 5096 4944 3129
4  4751 3702 3439 3700
4  4948 4578 4577 3120
4  3614 3295 3179 3700
4  3405 3293 3407 3462
4  3119 4577 3121 3120
4  3552 3126 3058 3059
4  3405 3462 3179 3295
4  3407 3176 3179 3462
4  3405 3180 3614 3179
4  5083 5077 5075 4718
4  162 3054 25 3053
4  5077 5078 5075 4718
4  3892 4636 4638 3069
4  4238 5075 3438 4239
4  317 694 991 3429
4  3463 3179 3462 3295
4  3461 3459 3702 3295
4  4950 5083 5040 4239
4  5035 4127 4128 3375
4  4901 4816 3681 4817
4  4804 4259 4805 4260
4  4861 4757 4817 4665
4  4094 4211 4092 4207
4  4879 4837 4542 4539
4  4094 4212 4211 4207
4  626 621 3192 3139
4  3903 4492 4211 3906
4  4092 4816 4492 4211
4  3123 4705 3551 3122
4  3552 3399 3124 3059
4  3550 3123 3551 3124
4  3414 3399 3552 3059
4  1035 620 626 3134
4  4926 3625 3414 3552
4  3625 3414 3552 3065
4  3296 3167 3297 3165
4  709 3065 569 3061
4  947 625 946 4723
4  709 3063 3418 3065
4  3550 3552 4926 3124
4  565 3550 566 3552
4  4994 3718 3225 3297
4  4994 3720 3719 3297
4  565 566 569 3552
4  4391 3655 3846 3166
4  3797 3024 3798 3580
4  3583 3586 3627 3581
4  3583 3798 3586 3581
4  4863 4901 4816 3681
4  474 3584 2931 2925
4  3499 5015 3508 3507
4  1017 372 373 4877
4  2929 3320 3644 3321
4  4908 4163 3604 4162
4  3500 4242 4241 3511
4  3515 4245 4079 3510
4  4742 3678 3583 3627
4  3020 3069 3070 3506
4  3690 3680 3679 3203
4  4244 3199 3201 3088
4  4164 4162 3066 3067
4  363 323 364 3118
4  5052 3627 4742 3586
4  285 5052 272 3627
4  5042 5079 3605 4165
4  3523 5079 4165 3521
4  3210 3566 3920 2933
4  285 356 5049 3627
4  4031 3740 3298 4902
4  852 3287 3816 3211
4  4031 4105 4104 4902
4  3942 3943 4410 4104
4  3347 3341 3345 3344
4  3982 3343 3342 4658
4  3497 3423 4646 3346
4  3981 2936 2937 2934
4  3949 4379 4050 4046
4  3634 5050 3631 3362
4  4031 4409 3740 4104
4  5017 3081 3942 4104
4  3634 4995 3628 4590
4  5097 4043 4207 3356
4  3942 3081 3943 4104
4  4567 4422 4919 3630
4  4571 3071 4749 3073
4  3942 4410 4105 4104
4  4572 4050 3949 4379
4  3039 4749 3185 3790
4  4408 4475 4474 3979
4  4546 4587 4534 3198
4  4798 3629 5050 3360
4  4545 3196 3195 4536
4  4546 3577 3198 4536
4  3131 3133 4546 3577
4  3130 3132 3050 3133
4  3835 4379 4370 4041
4  3109 3133 3082 3198
4  3628 3358 5050 3360
4  5097 4043 4206 4207
4  3082 3195 3197 3198
4  209 4627 3241 4618
4  60 3380 57 3035
4  3458 3614 3459 3295
4  3772 3771 3710 2996
4  3109 4587 4546 3198
4  3763 3768 3764 3762
4  5086 4483 3711 3706
4  4316 3348 4229 4436
4  4824 3765 4701 4217
4  4977 4251 3760 3762
4  3492 4435 3493 3349
4  3094 3020 3070 3506
4  4824 3766 3763 3765
4  4976 4977 3766 3765
4  5094 3674 3673 3670
4  4316 4305 4806 4372
4  2995 4574 4787 2998
4  57 3380 3379 3378
4  3771 3377 4618 4161
4  3421 3422 4643 3432
4  5076 3702 3461 3890
4  4425 3442 3441 4429
4  3431 3444 3432 4429
4  3812 4641 3443 3815
4  3441 3935 4141 4140
4  4751 3168 3170 3700
4  4949 3292 3702 3700
4  4951 4950 4238 3702
4  5018 4850 4769 2966
4  4906 4932 4931 4907
4  3935 4809 3936 3812
4  3292 3461 3702 3295
4  4141 4137 4142 4139
4  1092 5000 3496 3917
4  4767 5058 4333 4641
4  3812 3544 2964 3810
4  3441 4809 3935 3812
4  4767 4333 4768 3593
4  4800 5032 4054 4918
4  3190 3371 3375 3009
4  3640 3006 3364 3365
4  3452 3369 3850 3008
4  4548 2887 2882 2888
4  4800 4190 5032 4918
4  4860 3650 4294 4458
4  4800 4253 4190 4918
4  5032 4190 4988 4918
4  4897 4865 3844 3845
4  4544 4191 3892 4192
4  3020 3069 3021 3023
4  4589 3643 3642 3644
4  4577 3328 3121 2929
4  3799 4975 3800 4329
4  3323 3325 3328 3322
4  710 131 3531 3418
4  4897 3608 3601 3845
4  4858 3020 3909 3069
4  4589 4689 4573 4365
4  4865 3845 3398 3399
4  4615 4149 4583 4584
4  4589 3643 3686 4365
4  4576 4975 3642 4329
4  3477 4773 4225 4101
4  3909 3069 3020 3506
4  4858 3894 5020 4192
4  4544 3892 3068 3069
4  4593 4956 3156 3151
4  4412 3553 3554 3289
4  4095 4402 3270 4098
4  3554 3150 4413 3155
4  119 4118 4117 4119
4  4326 4024 5029 2972
4  4257 4116 4679 4246
4  4679 2986 4065 4522
4  117 4117 2988 4119
4  5039 4432 4119 2989
4  4779 3153 4780 3150
4  4120 4432 2986 4119
4  3268 3272 4654 3269
4  3995 3698 3177 3907
4  3168 3170 3179 3171
4  4863 3696 3681 3615
4  602 364 1017 4243
4  3606 4758 4863 3696
4  4321 3680 3690 3200
4  5045 3698 3995 3907
4  3168 3755 3169 3171
4  4729 4451 4443 4447
4  4903 4909 3748 3745
4  4808 4909 4663 3745
4  4758 4901 4863 4757
4  3841 3736 4770 3164
4  3841 3842 4914 3843
4  3176 3170 3179 3907
4  4045 4044 5022 3545
4  3662 3661 4343 3668
4  3697 3699 4949 3700
4  3098 3514 3832 3788
4  4640 3661 3664 3668
4  966 2949 913 2950
4  4342 3489 4640 4343
4  3787 2946 3788 2948
4  4972 4092 4211 4485
4  3363 4092 4093 3356
4  4847 2951 2950 3689
4  2952 2947 2945 4590
4  4412 3445 4415 4413
4  4617 4412 4417 4416
4  4744 3155 3554 4414
4  4241 4077 3511 3856
4  4042 3359 3356 3355
4  4077 3856 3851 3227
4  3787 3354 2947 3362
4  4472 3759 3932 3761
4  4491 3561 4412 3289
4  4613 4416 4414 4584
4  4094 4207 4092 3356
4  3358 4683 4050 4041
4  4716 4744 3554 4414
4  60 798 987 3036
4  3405 4279 3406 3397
4  4397 3474 3862 3152
4  3406 3397 4280 4511
4  4613 4414 4802 4400
4  3294 4281 5011 3460
4  3049 4343 3050 3052
4  4680 4114 4113 4678
4  4454 4455 4629 3771
4  4281 4448 4611 4282
4  3671 5044 3659 3248
4  2997 4878 3249 2991
4  987 798 170 3036
4  4341 4339 3052 4340
4  3109 3083 3082 3050
4  4740 5009 4541 4739
4  3925 4576 3641 3826
4  3723 3643 4362 4364
4  4032 4573 4519 4034
4  4898 3051 3049 3050
4  4147 4521 4148 4150
4  4592 4519 4573 4363
4  4521 4150 4004 3864
4  4667 4842 4741 4668
4  4756 4588 3052 4886
4  4367 3753 4368 4366
4  4382 4669 4580 4383
4  4341 3052 4339 4886
4  3489 3107 3050 3052
4  4756 4588 3107 3052
4  4520 4369 4619 4002
4  4333 4641 3444 4332
4  4052 4987 4917 4918
4  4273 4274 4145 4139
4  4425 3441 4141 4429
4  4758 5002 4664 4761
4  3900 4663 4720 4639
4  4987 4917 4988 4980
4  3563 3639 4859 2882
4  5002 3930 5001 4909
4  4478 3504 3902 3543
4  4173 4186 5020 4187
4  3006 3838 3404 3007
4  3651 3006 3916 3404
4  4901 3681 4757 4817
4  4186 4192 4187 4188
4  3901 3909 3505 3504
4  4474 4472 3539 4473
4  546 3927 611 2884
4  4720 3749 3743 3745
4  4903 4720 4663 3745
4  4758 3032 5002 4761
4  4987 4988 4917 4918
4  3849 3324 3451 3008
4  4638 3093 3068 3506
4  3749 3744 4172 4174
4  856 4859 193 3404
4  256 193 3916 3404
4  3347 3345 3340 3344
4  4858 5020 3021 4192
4  3339 3346 3342 3344
4  4660 3343 4929 4646
4  4570 4572 3947 3073
4  4653 5010 3869 3269
4  4614 4654 4598 4656
4  5010 4656 4148 3865
4  3498 3873 3423 3871
4  4655 4744 4716 4400
4  4362 4499 4363 4365
4  3497 4929 3498 3346
4  3154 4099 4403 4098
4  3920 3339 4929 3342
4  3339 3498 3346 3871
4  327 3536 3561 3448
4  5098 5060 4296 4293
4  3608 4895 3609 3417
4  4152 4004 4766 4151
4  4597 3866 3869 3275
4  4596 3867 4528 3864
4  4598 4654 3863 3865
4  4486 4970 4198 4081
4  3966 4069 4685 4420
4  5060 3524 3117 4293
4  4915 4983 4069 4420
4  4022 4039 4023 4420
4  5092 3525 3524 4293
4  4272 3972 4616 3973
4  4548 3646 4293 4294
4  3310 4176 3311 3305
4  4296 5060 2904 4293
4  4184 4801 4325 4181
4  4144 3309 4145 3304
4  3647 3648 3646 3365
4  4956 3590 3476 2956
4  5099 5082 4269 3347
4  3955 3954 3940 3946
4  3590 3592 2956 2966
4  4145 3310 4276 3311
4  4956 3590 3854 3476
4  4354 4351 4703 4352
4  4555 4354 4976 4217
4  4354 4350 4351 4352
4  3473 3474 3476 3048
4  3195 3196 3198 4536
4  4028 3993 4029 3989
4  3986 4732 3990 3260
4  2955 3476 2956 3151
4  4193 4728 4971 4195
4  2954 2955 3476 2956
4  4557 4987 4560 4748
4  3046 3591 2954 3476
4  4199 4469 4020 4038
4  3781 3782 4068 3783
4  4050 4046 4379 4041
4  3358 4041 3360 3359
4  4198 4731 4196 4195
4  3358 4050 3360 4041
4  4040 4043 4042 3359
4  4370 4379 3073 4046
4  3619 3778 3637 3620
4  4040 4048 4043 4041
4  3572 3575 3632 3633
4  3510 3519 3516 3518
4  4321 3680 3200 3517
4  731 418 422 3739
4  422 3739 3516 3222
4  4745 4713 4714 4715
4  3781 3970 3783 3967
4  4638 3068 3069 3506
4  3740 3081 3943 3084
4  4409 3040 3950 3042
4  3408 3041 3409 3042
4  823 4433 822 2985
4  4409 3040 3741 3740
4  4727 4729 4442 4543
4  78 3741 3409 3041
4  5066 4444 4891 4215
4  826 3161 4999 3158
4  180 78 3409 3041
4  3945 4331 4054 4055
4  4542 4007 4008 4539
4  4508 4882 4785 4880
4  3964 3939 3940 3946
4  4743 5033 4331 4054
4  3937 3938 4056 4055
4  4056 4053 4052 4055
4  4784 4837 2898 4538
4  4784 2898 4739 4538
4  3937 4056 4516 4055
4  4053 4988 4560 4918
4  4838 4537 5009 4538
4  4558 4057 4708 4559
4  4542 4538 4007 4539
4  4974 4670 4541 4383
4  4974 4541 4007 4383
4  4292 3646 3649 4294
4  3995 3698 3757 3177
4  2970 3907 3995 2971
4  3697 4751 3170 3700
4  3754 3757 3758 3169
4  3750 5009 4740 4739
4  5009 4541 4739 4538
4  903 3450 3451 3430
4  3188 3190 3429 3430
4  3554 2978 3289 2973
4  5074 3434 3433 3428
4  189 2922 95 2923
4  4950 5076 5083 4239
4  4147 4519 4151 4034
4  4493 4519 4147 4034
4  5077 4717 5084 5078
4  4154 4615 4149 4583
4  4615 4656 4149 4584
4  4147 4152 4149 4034
4  4766 4499 4151 4363
4  3453 3683 3454 3319
4  802 849 3229 3222
4  3628 2947 3354 3362
4  4032 4033 4573 4034
4  4391 3166 3164 3167
4  4154 4034 4033 3913
4  3885 3174 3173 3175
4  3639 3640 3645 3365
4  4128 3371 3370 3009
4  3370 3372 3367 3009
4  4812 4019 4058 3214
4  3174 3887 4389 3372
4  5068 4019 4967 3802
4  3669 3546 3545 3352
4  3469 3491 3873 3713
4  983 676 155 3220
4  5057 4045 3353 3219
4  3497 4929 3485 3487
4  3420 3872 3423 3871
4  3160 4337 4432 2984
4  3497 3487 3485 3486
4  4090 3873 3420 3713
4  4255 4116 3730 4108
4  3498 3495 3487 3486
4  5090 4682 4681 4338
4  329 9 0 3290
4  611 612 880 2885
4  4770 5072 3842 3164
4  189 2978 2921 2923
4  3290 3289 3554 2978
4  4476 3716 5072 3163
4  488 3547 3352 3351
4  5056 5022 5021 3546
4  3209 3205 3162 3256
4  4914 3847 3848 3843
4  2978 2976 2973 2977
4  0 3289 2976 3446
4  4716 4412 3554 3289
4  3842 4390 3846 3164
4  189 2978 2979 2977
4  170 3038 3034 3242
4  3880 3586 3879 3725
4  367 3586 3880 3725
4  4632 3465 3657 3090
4  3247 3037 3038 3267
4  357 4829 4287 3580
4  932 832 4829 3580
4  46 4922 47 3335
4  3427 3013 3407 3335
4  125 403 258 3824
4  686 3285 720 3011
4  135 3019 137 3010
4  4725 3845 3415 3800
4  4087 4772 4771 3469
4  4895 3416 3417 3418
4  880 2888 2882 2885
4  3625 4895 3414 3418
4  4725 3398 3845 3800
4  620 621 626 3139
4  3608 3414 3417 3845
4  3616 3844 4865 3399
4  3616 3612 3844 3399
4  3485 3494 3486 3488
4  4907 4642 5058 3712
4  4926 3552 3399 3124
4  125 307 403 3824
4  3123 3612 3129 3125
4  3690 3089 3200 3029
4  3199 3201 3088 3087
4  541 364 3201 3118
4  3680 3512 3203 3200
4  4735 4136 5034 4323
4  4322 4130 4735 4323
4  4801 4181 4993 4323
4  4322 4993 4181 4323
4  366 365 367 3725
4  3024 3798 3580 3725
4  1023 3880 367 3586
4  4966 5088 4107 4112
4  1002 695 701 4453
4  4736 4992 4136 4323
4  344 3393 3481 3212
4  4325 4181 4801 4323
4  3413 3039 4051 3185
4  3018 3019 3100 3017
4  3013 3015 3657 3012
4  3737 3018 3015 3014
4  3292 3179 3170 3907
4  710 709 131 3418
4  4870 3737 3463 2969
4  4633 3738 3464 3015
4  4634 4633 4635 3464
4  3931 3090 3091 3092
4  5089 3099 3468 3100
4  3670 3658 3671 4633
4  3189 3386 3391 3388
4  3176 3177 3425 3171
4  3406 3396 3659 3397
4  711 999 712 3427
4  3099 3468 3017 3467
4  711 3180 3427 3426
4  154 327 149 4490
4  893 4839 1014 3100
4  46 136 999 3427
4  4417 3535 3445 3561
4  3534 3419 3416 3533
4  131 149 3448 3533
4  5089 3099 3861 3468
4  720 3285 3284 3283
4  3674 3282 4591 3657
4  46 3427 4922 3335
4  4490 4417 3561 3536
4  646 3567 3566 3194
4  2938 2940 3135 2935
4  4295 3647 3649 3646
4  130 258 672 4961
4  3193 3194 3192 3138
4  645 646 3566 3194
4  759 656 3426 3636
4  3420 3422 3873 3423
4  3176 3426 3425 3337
4  656 3638 711 3180
4  3808 3850 3369 3640
4  4269 5082 4089 3340
4  5046 2914 4876 3113
4  4887 3604 3606 3204
4  4725 3912 4975 3800
4  3799 4975 3912 3800
4  735 332 363 3690
4  3512 3203 3513 3615
4  4725 3602 3912 3911
4  3910 3415 3419 3338
4  4305 4310 4309 4311
4  4697 4304 4698 4314
4  3499 5062 3500 3502
4  3117 2906 2887 2886
4  3512 3511 3615 3502
4  4806 4372 4314 4315
4  4806 4372 4305 4314
4  538 683 541 3519
4  4309 4310 4315 3796
4  3562 3028 3031 3027
4  363 3690 323 3200
4  756 4315 3110 3796
4  323 3200 3690 3089
4  4305 4304 4313 4306
4  4806 4305 4303 4314
4  4303 4305 4304 4314
4  119 3484 4117 4118
4  3562 3691 3028 3027
4  832 521 986 3025
4  4071 3483 3482 4246
4  4843 3808 3369 3645
4  4071 4255 4257 4246
4  4679 4522 4246 4117
4  365 832 367 3725
4  3729 3025 2901 3727
4  3413 3408 3409 3042
4  469 3795 108 3106
4  4418 3956 4161 3829
4  4159 3830 3957 4372
4  365 521 832 3727
4  365 3727 832 3725
4  3831 3830 4159 4372
4  4999 3075 3160 3158
4  366 367 3880 3725
4  4159 4309 4305 4372
4  4316 4159 4305 4372
4  4310 4314 4372 4315
4  4697 4806 4314 4315
4  3078 3948 3080 3079
4  3160 2984 2985 3158
4  413 553 665 2886
4  808 807 3483 3484
4  3481 3478 3732 3482
4  3503 3093 4638 3506
4  3732 3478 3733 3480
4  701 3479 3484 3480
4  4452 3733 3734 3731
4  3481 3478 3482 3479
4  701 3212 3479 3480
4  723 488 3805 3352
4  983 3351 723 3220
4  3546 3545 3352 3351
4  3571 3400 4329 3402
4  569 3065 3552 3061
4  565 567 566 3550
4  3031 3032 3028 4761
4  4818 4210 4861 4817
4  3679 3680 4818 3681
4  4899 4665 4666 4663
4  5079 5001 3930 3521
4  3597 3594 3454 3596
4  3606 3204 3067 3032
4  983 3353 766 3351
4  5098 5092 5060 4293
4  4342 3669 3664 3352
4  3805 3664 3217 3352
4  335 413 374 3114
4  374 3113 4876 2916
4  5074 4794 4846 3387
4  741 742 3097 4862
4  3436 3386 3054 3384
4  454 457 3186 3183
4  301 3833 287 3832
4  4862 3186 3835 3836
4  3433 3434 4896 3190
4  741 454 742 4862
4  848 775 3857 3454
4  418 3517 3516 3739
4  4927 3123 4705 3551
4  3550 4926 3123 3124
4  574 905 3549 3551
4  5096 3611 4944 3129
4  749 569 709 3065
4  710 749 709 3623
4  541 3516 418 3202
4  3597 3951 3594 3596
4  779 780 3857 3688
4  3414 3398 3399 3059
4  780 3226 849 3857
4  3579 3062 3910 3338
4  131 709 149 3063
4  4327 4779 5085 4413
4  848 3454 3857 3596
4  888 3453 775 3454
4  888 775 848 3454
4  2899 3145 3025 3026
4  4838 3144 2891 2898
4  2893 2901 3145 3727
4  2893 2901 3727 3726
4  3588 4593 4431 2956
4  4776 4594 4431 4593
4  3024 3580 3025 3725
4  4776 4593 3588 3589
4  832 3725 3025 3582
4  3474 3600 2955 3277
4  41 3276 850 2979
4  4024 4594 4960 3149
4  4969 5097 4040 4043
4  4969 4206 4048 4651
4  3473 3476 3474 4398
4  3589 3590 4956 2956
4  3925 4578 4576 3826
4  3722 3925 3641 3922
4  932 272 367 3582
4  4683 4043 4048 4041
4  5097 4094 4042 3356
4  357 3580 4287 3585
4  5097 4207 4094 3356
4  285 5049 5052 3627
4  4683 3363 4043 3359
4  4852 5100 3858 3091
4  3363 4043 3359 3356
4  4040 5097 4042 4043
4  155 3212 3213 3215
4  155 676 3350 3220
4  3931 3465 3090 3092
4  3178 3394 3216 3392
4  3178 4549 3801 3806
4  4549 3801 3732 3478
4  940 3426 712 3337
4  3801 3214 3478 3392
4  3394 3217 3216 3392
4  3657 3015 3016 3012
4  135 136 3011 3010
4  3178 3801 3216 3806
4  4579 3925 3323 3826
4  3565 3520 3522 4294
4  2914 2915 3066 3113
4  612 2883 2906 2885
4  972 209 973 4618
4  3670 4635 4634 4633
4  5060 3117 2904 4293
4  2907 3520 3117 3524
4  2912 2915 2914 3115
4  2913 4164 2915 4165
4  5060 2913 3117 3524
4  3247 3251 3252 2991
4  4455 3772 4629 3771
4  155 3213 3219 3215
4  73 756 3111 3796
4  108 970 409 3104
4  155 3350 3212 3215
4  4811 4058 4813 3213
4  3216 3214 3801 3392
4  3111 3102 3796 3105
4  4308 4309 4872 4310
4  936 935 4697 3110
4  4812 4019 3214 3733
4  4290 5031 4381 4880
4  4812 3734 3214 3213
4  3786 4415 4866 4416
4  3799 3644 4589 4035
4  3786 3915 3602 3911
4  4932 5058 4933 3712
4  544 3326 3327 2924
4  3799 3579 4589 2931
4  4087 4772 3469 3470
4  3912 3642 4975 4035
4  3641 4576 3642 3644
4  4577 4578 3826 3120
4  4933 5058 3815 3712
4  4589 4288 4689 3923
4  3062 3845 3398 3800
4  3799 4589 3910 4035
4  3642 3644 4329 4035
4  3641 3644 3686 3922
4  4931 4907 4932 3712
4  569 566 825 3058
4  3612 4926 3844 3399
4  4642 3712 3713 3475
4  3715 3559 3443 3712
4  4342 4343 3668 4340
4  489 490 988 3256
4  4640 3805 3664 3217
4  4333 3712 4642 3444
4  4704 4914 4820 3667
4  4399 4653 4095 3270
4  4653 4401 5010 3269
4  4333 4641 3712 3444
4  684 2954 5054 3280
4  4655 5010 4399 4401
4  961 4904 3447 3263
4  4598 3863 4004 4150
4  4655 4582 4148 4656
4  893 192 881 3100
4  893 1013 192 3100
4  3016 3017 3019 3012
4  4744 4397 3155 4402
4  3554 3150 3553 4413
4  4404 4401 4400 4402
4  4744 4397 2921 3862
4  4773 4137 4774 4226
4  4839 4764 3101 3100
4  4138 4143 4144 4139
4  192 5089 3468 3100
4  4138 4144 4227 4139
4  4840 4836 4604 4645
4  4647 4940 4595 4565
4  4929 3339 3567 3487
4  3567 3487 3339 3193
4  4735 4130 4136 4323
4  508 3485 3567 3568
4  406 3485 3568 3488
4  4691 4063 4065 4062
4  3487 3918 3568 3488
4  3740 3081 4336 4104
4  4533 4355 4545 4532
4  4065 4677 4256 4062
4  3807 3132 3806 3578
4  3947 3073 3084 3074
4  3947 3071 3073 3074
4  4076 4221 4555 4075
4  4531 4073 4071 4072
4  4553 4076 4555 4554
4  4824 3766 3765 4217
4  4517 3635 4518 2987
4  4702 3985 4349 4352
4  4616 3973 3969 4465
4  3071 3085 4749 3072
4  3079 3081 3075 3074
4  3236 4631 3974 3973
4  4916 3237 3971 4204
4  546 256 273 3403
4  3707 3704 3708 3412
4  4631 4465 3973 3233
4  3974 3968 3966 3967
4  3492 3349 3235 3412
4  5060 3117 5043 2904
4  4878 4657 3250 4754
4  3103 3148 3793 2896
4  5030 4008 4381 4880
4  4508 4699 4882 4510
4  3572 3574 3632 3575
4  3329 3005 2895 2900
4  4826 3572 4387 3633
4  4466 4335 3573 3695
4  3752 3145 3144 3026
4  4838 2891 4509 4538
4  4508 4879 4509 4510
4  3103 2889 2895 4261
4  4879 4509 4837 4539
4  4686 4068 3782 4921
4  4537 4974 5009 4007
4  4377 3573 4373 3701
4  4068 3782 4921 3783
4  4920 5093 4973 4921
4  3538 3539 3540 4473
4  4749 3184 3182 3183
4  4844 3895 4205 4208
4  3949 4411 3941 3950
4  4474 4844 4651 3539
4  3629 3787 2947 3362
4  4844 4291 3895 4208
4  5097 4042 4043 3356
4  4973 5093 5036 4921
4  4973 5036 3782 4921
4  4974 4581 4670 4383
4  4920 4921 4686 4447
4  3329 2895 2894 2900
4  4740 5009 4670 4541
4  3785 4070 4920 4921
4  4580 4000 4524 4383
4  3416 3532 3535 3533
4  5009 4007 4541 4538
4  990 546 176 4240
4  149 3063 3419 3533
4  149 3419 3063 3338
4  4619 4741 4369 4668
4  3401 3059 3402 3060
4  4479 3534 3536 3419
4  4729 4730 4451 4447
4  5020 4727 3021 4192
4  3742 3891 3893 3743
4  913 2950 3514 3229
4  780 802 849 3229
4  4434 3744 4172 4171
4  3688 3689 3314 3318
4  848 422 3596 3222
4  3687 3689 3688 3318
4  5019 3743 4174 3894
4  3022 3142 3141 3599
4  3760 2942 3932 3264
4  3514 3229 2950 2946
4  4106 3977 2963 4103
4  4102 4407 4031 3977
4  4106 3975 2963 3977
4  4544 3774 5038 4543
4  4106 2963 4552 4103
4  3891 4638 3892 4636
4  3773 3599 3022 3070
4  4556 4106 4551 4552
4  4760 2962 2963 3766
4  4759 4760 2963 3766
4  3265 3142 3599 2943
4  3892 4638 3068 3069
4  4191 4192 5038 4188
4  4544 3068 3773 3023
4  4950 5076 4239 3702
4  4191 5038 4185 4188
4  3439 3908 3636 3053
4  3093 3598 3068 3070
4  4661 4339 4658 4886
4  162 3636 3908 3053
4  3437 3057 3436 3054
4  3776 3778 4709 3620
4  4937 4713 4712 4709
4  4712 4709 4708 4710
4  3784 4070 3785 3783
4  3436 4239 4718 4624
4  3438 3386 3387 3054
4  4466 4465 3969 4376
4  4559 4560 4982 4748
4  4950 4239 4238 3702
4  5075 5078 3386 4718
4  3439 3054 3908 3053
4  3777 3780 3782 3779
4  4759 3766 2963 4552
4  4194 5038 4197 4188
4  4216 4551 3766 4552
4  4920 4686 4069 4687
4  4555 4976 4759 3766
4  4196 4731 4197 4195
4  2960 2962 3763 3766
4  4695 3703 3704 4317
4  4824 3763 3764 3765
4  4729 4451 4444 4443
4  4973 5093 4984 4985
4  4196 4730 4729 4197
4  4557 4981 4987 4748
4  4977 3766 3765 3762
4  4345 4819 3983 4340
4  4759 4976 4977 3766
4  4557 4746 4981 4748
4  4760 4977 2962 3766
4  3962 3445 3447 3263
4  3776 4713 4937 4709
4  4557 4713 4746 4715
4  4412 4413 4415 4414
4  4617 4490 4417 3561
4  4745 4714 4713 3778
4  4745 4747 4746 4715
4  327 758 329 4491
4  3537 3540 3539 3896
4  4408 3979 4049 3976
4  3980 2961 4473 2962
4  3941 3943 3081 3084
4  2907 3524 4165 3521
4  2920 2907 4165 3930
4  180 926 3408 3409
4  457 590 458 4371
4  4292 4928 4881 4294
4  5079 3525 5001 3521
4  5001 3522 4881 3747
4  3520 3522 3524 3521
4  3565 3522 3928 3747
4  4410 3976 3975 3977
4  4031 4105 4902 4103
4  4337 2986 4432 2984
4  4517 4031 3298 4902
4  940 3756 3426 3425
4  645 813 3569 3206
4  3016 3015 3090 3017
4  2971 3017 3468 3467
4  881 3019 3016 3092
4  3137 3342 2933 2935
4  3662 4898 3049 4343
4  10 3018 3019 3424
4  4564 3490 3442 3432
4  125 3824 258 4268
4  4642 3713 4957 3475
4  3420 3872 3421 3423
4  344 3481 103 3212
4  3730 3732 3733 3480
4  493 3212 701 3734
4  3612 3399 3613 3125
4  3899 4209 3902 3543
4  3904 3899 3921 3543
4  3903 4803 3904 4209
4  3414 3552 3065 3061
4  3799 3912 3910 3800
4  3062 3415 3414 3845
4  4944 4706 3119 3129
4  1020 998 4675 2924
4  998 658 825 2927
4  4566 4572 4570 4571
4  4566 4568 4572 4379
4  3634 3631 2952 2947
4  5101 4963 3634 4590
4  4210 4209 3903 3906
4  3899 4209 4803 3902
4  4210 3895 4807 4209
4  4040 4370 3835 3186
4  454 457 4371 3186
4  287 3187 3181 3183
4  3834 3181 3187 3183
4  4040 3835 4862 3186
4  454 457 458 4371
4  4549 3732 3481 3478
4  3218 3217 3220 3215
4  4640 3216 3394 3217
4  4966 3801 3804 4967
4  3660 4820 3666 3663
4  3928 5001 3522 3521
4  4011 4007 4006 4008
4  5079 3930 4165 3521
4  756 74 935 4315
4  2887 2888 2886 2885
4  4312 3102 4258 4260
4  20 22 3146 3147
4  5003 4879 4884 4509
4  3605 4165 5079 3930
4  409 971 22 3794
4  2920 4165 3066 3067
4  4974 4383 4007 4006
4  3924 5055 3676 3722
4  3325 3321 3320 3322
4  272 3586 367 3582
4  4788 5007 4789 4439
4  3797 3585 3580 3581
4  3520 4548 4293 4294
4  2920 3066 2915 2910
4  2903 2882 2904 2883
4  880 943 3563 2888
4  4292 3522 4293 4294
4  3520 4293 3524 3522
4  553 943 880 2888
4  3823 3817 3718 3288
4  626 3192 506 3194
4  3136 3919 2938 3135
4  5094 3670 4634 4633
4  3107 3051 3050 3052
4  4852 5073 5100 3091
4  719 720 686 3285
4  3244 3246 3245 3243
4  3210 3920 4658 2934
4  3281 3282 3465 3016
4  4633 3464 3090 3015
4  3207 3919 3822 3208
4  2997 3711 4878 2992
4  3675 3240 3770 2998
4  3817 3225 3718 3288
4  625 5023 3135 4723
4  3862 3151 3474 2975
4  3675 4591 3245 3626
4  3156 3151 4398 3152
4  4431 2955 2956 3151
4  4632 3657 3674 4633
4  4768 3592 3593 3933
4  3477 3476 3046 3048
4  5029 4327 3553 2972
4  5061 4908 4887 4885
4  4694 4318 4693 4317
4  3156 4956 4099 4398
4  4345 3668 4344 4340
4  3846 3166 5021 3735
4  3474 2955 3046 3277
4  4753 4942 4318 4319
4  98 2923 97 3048
4  3474 3046 3048 3277
4  3728 3880 3879 3725
4  323 335 372 2918
4  4829 3024 3580 3025
4  4316 4695 3348 4436
4  3605 5002 4758 3032
4  272 3627 5052 3586
4  4829 3024 4367 3580
4  3797 4248 3024 4249
4  3797 3583 4248 3685
4  4591 3626 3658 3285
4  3266 3034 3038 3242
4  4768 3593 4332 3933
4  272 357 3581 3582
4  4561 4332 4334 4140
4  3703 4160 3704 4317
4  4138 4562 4143 4140
4  4781 4923 4893 4782
4  4455 4893 5086 3705
4  4806 3961 4372 4315
4  3382 3381 3703 3830
4  4455 3705 5086 3710
4  4693 4435 3492 3412
4  3707 3709 2992 3706
4  4878 2992 3250 2991
4  4483 3704 3708 3706
4  3707 4754 3299 3412
4  3708 4657 4878 4754
4  3613 4865 4864 3398
4  4704 3662 4344 3668
4  4342 4343 4640 3668
4  3554 3150 3862 2973
4  4412 3445 3553 3289
4  3669 3546 3736 3843
4  327 4491 329 3561
4  3445 3448 3447 3446
4  464 0 189 2977
4  4716 4491 4412 3289
4  4568 4379 4567 3360
4  941 191 909 4845
4  3692 4376 3701 3695
4  3095 4042 4094 3356
4  4683 4093 4684 4043
4  3080 3084 3081 3074
4  4409 3040 3740 3943
4  4031 4409 4104 3977
4  3413 4997 4051 4049
4  4050 4683 4047 4041
4  4650 3537 3538 3539
4  4815 4336 4796 3081
4  4435 4375 3493 3349
4  4337 2986 2984 4338
4  3904 4652 3905 4208
4  4815 3080 3942 3081
4  4620 4792 4797 4621
4  3385 3435 3621 3057
4  4792 4621 4199 4201
4  4792 4203 4606 4201
4  3941 4410 3943 3950
4  3773 3070 3022 3023
4  4792 4199 4203 4201
4  3020 3022 3141 3070
4  4271 4606 4608 4607
4  4793 4609 4606 4626
4  3094 3141 2943 3070
4  3141 3599 2943 3070
4  4667 4366 4842 4668
4  3094 3020 3141 3070
4  5020 3894 4187 4192
4  4542 4540 4007 4538
4  4284 4223 4285 4016
4  3909 4636 3069 3506
4  4513 4223 4360 4274
4  4137 4226 4513 4139
4  4683 4048 4047 4041
4  4047 4998 4411 4049
4  4569 4799 3260 3261
4  3140 4569 3264 3261
4  4969 4048 4206 4043
4  3980 3538 3767 4473
4  4844 4652 4208 4206
4  4475 3759 4472 4473
4  4825 4733 4732 3260
4  4407 4475 4408 2961
4  4102 2963 3977 4103
4  3986 4250 3260 3987
4  4844 4652 4651 3539
4  4356 4702 4349 4352
4  3258 4825 3265 3261
4  4569 3260 4250 3259
4  4216 4700 4220 4218
4  4700 4218 4217 4352
4  3994 4351 4349 3985
4  4825 4799 4732 4480
4  4955 4604 4836 4645
4  3647 3368 3648 3365
4  4955 4264 4604 4265
4  4603 4955 3108 4264
4  4604 4267 3875 4264
4  4505 4565 4940 3860
4  3651 3639 4456 3650
4  4647 4604 4940 4645
4  3648 3650 3367 4457
4  4955 4263 4264 4265
4  3197 4496 4501 4498
4  3648 3367 4830 4457
4  3640 3364 3006 3008
4  4939 4506 4563 3860
4  3366 3367 3372 3009
4  3451 3373 3008 3009
4  4940 3875 3877 4265
4  4236 4374 3701 4231
4  4214 5037 4480 4215
4  4758 4664 4757 4761
4  3574 3575 3695 3637
4  4377 4466 3573 4376
4  4464 3969 4376 3695
4  4664 4665 4757 4761
4  3028 4861 4899 4757
4  4464 4376 3692 3695
4  4720 4639 4663 3745
4  5002 5001 4903 4909
4  4630 3784 4335 3970
4  4285 4276 4013 4016
4  4346 3953 3952 3273
4  3279 4013 3944 4014
4  4664 4663 4665 4761
4  4013 4180 3944 4014
4  4807 4817 4803 4665
4  4899 4663 4808 4761
4  3031 4899 4808 4761
4  4970 4023 4688 4081
4  3992 3986 3990 3985
4  4022 4983 4915 4420
4  4251 4703 4252 3987
4  4351 3984 4703 3987
4  4482 4213 4481 4158
4  4970 4023 5027 4688
4  4971 4688 4081 4195
4  4728 4920 4983 4687
4  4467 4486 4298 4082
4  4020 4038 4471 4023
4  3972 3971 3965 3967
4  4020 4022 4419 4039
4  4037 3966 5027 4420
4  4915 4069 3966 4420
4  3966 4068 4685 4069
4  4037 5027 4039 4420
4  4155 4215 4157 4450
4  4186 4083 4198 4188
4  4983 4688 4069 4420
4  4037 3971 3966 4420
4  5027 4688 4023 4420
4  4970 5027 4685 4688
4  3374 4896 3375 3373
4  4745 3780 4973 4747
4  4686 3782 5036 4921
4  4068 4921 4069 3783
4  4127 4125 4124 3371
4  3850 3640 3403 3008
4  3433 3190 3450 3430
4  4983 4069 4688 4687
4  4070 4069 4921 3783
4  4695 3707 3299 3412
4  5007 3330 2901 2900
4  4680 4682 4114 4677
4  365 3727 3725 3726
4  4569 3259 3264 3261
4  4699 2889 3103 4261
4  3992 4027 4302 3989
4  3333 3103 2895 4261
4  3984 4252 4703 3987
4  4213 4214 4480 4215
4  3002 5003 4884 4261
4  3955 3940 3937 3946
4  3330 2894 2901 2900
4  3330 2901 2893 3726
4  4146 3761 3540 2944
4  3697 4949 4751 3700
4  5045 3699 3697 3698
4  3767 4473 3761 2962
4  3760 3932 3761 3264
4  3389 3435 3385 3384
4  3386 3428 3387 3388
4  3932 3761 3264 2944
4  3820 3535 3445 4415
4  4934 3447 3535 3532
4  4935 3447 4934 3532
4  4649 4415 3786 3610
4  273 256 857 3324
4  4719 4718 4239 4624
4  4866 4415 4414 4416
4  4990 3453 3682 3683
4  4617 4417 4412 3561
4  3682 3455 3456 3319
4  4512 4417 4490 3536
4  967 802 780 3229
4  5012 5014 5071 3317
4  3758 3168 3755 3169
4  759 3426 3755 3636
4  940 3425 3426 3337
4  3101 3091 3099 3092
4  3018 3010 3019 3012
4  656 24 711 3638
4  656 711 712 3426
4  694 3429 3430 3839
4  711 3427 712 3426
4  3405 3614 3180 3622
4  759 5047 3908 3755
4  3405 3427 3638 3180
4  5100 5073 3858 3091
4  3405 3407 3427 3179
4  3995 3757 3861 3177
4  712 3426 3427 3337
4  3449 3626 4591 3285
4  3675 3658 3626 3672
4  3634 2947 2952 4590
4  923 3687 4847 3689
4  3852 3827 3317 3316
4  4996 2951 3828 2945
4  4316 4318 4436 4232
4  966 4847 2949 2950
4  3628 3360 5050 3362
4  3703 3958 3709 3705
4  3671 2998 3248 3672
4  701 3734 3212 3480
4  4517 3298 4065 4064
4  2986 2988 4119 2989
4  4219 4220 4355 4074
4  4514 3963 3940 3868
4  710 131 704 3531
4  4512 4617 4490 4417
4  3046 2954 2955 3476
4  41 4775 3276 3280
4  4593 2956 4956 3151
4  3751 3753 3024 3026
4  4438 4440 4441 4437
4  4476 3882 3881 3884
4  4476 3652 3163 4477
4  367 3586 3725 3582
4  852 161 946 3816
4  4810 3817 4994 3718
4  946 5024 4723 3818
4  161 946 3816 3818
4  5008 4440 4248 3685
4  4790 4248 4438 4439
4  4367 3024 3797 3580
4  4441 4437 4366 4739
4  4367 3797 3024 4249
4  3207 3822 3286 3208
4  5091 4823 4822 2938
4  3210 3566 2933 3206
4  3588 5018 3589 2966
4  629 230 3184 3182
4  4851 4767 3593 3815
4  3161 3085 3077 3789
4  3813 3443 3815 3810
4  4884 4879 4946 4510
4  3382 3707 4695 3703
4  73 3111 4178 3796
4  5058 4641 3815 3712
4  4933 3541 3813 3815
4  3443 3559 3815 3712
4  4933 5067 4851 3815
4  69 4178 3959 3960
4  4931 4933 3558 3712
4  3715 3559 3471 3555
4  3111 3795 3112 3105
4  409 3148 3793 3104
4  106 3111 756 3105
4  3715 3471 3714 3555
4  3442 5000 3811 3715
4  4305 4310 4304 4314
4  756 3104 108 3105
4  3811 3813 3443 3559
4  3442 3715 3811 3443
4  3441 3444 4334 4429
4  3812 3443 4641 4332
4  4333 4642 4334 3444
4  3341 2939 3342 3344
4  3143 5099 4269 2939
4  323 3691 334 3089
4  3345 3871 3340 3344
4  3347 3340 2939 3344
4  3785 3782 3780 3779
4  5099 3347 4269 2939
4  4380 4012 4828 4010
4  4290 4381 4785 4880
4  20 3146 3145 3147
4  3174 3191 3188 3366
4  5003 4837 4879 4509
4  3885 3174 3366 3372
4  4699 4510 4260 4883
4  4124 4125 4389 3888
4  521 3752 986 3026
4  3795 3106 3112 3105
4  3102 4699 3103 4260
4  4258 3102 3112 3103
4  756 970 108 3104
4  4838 2889 4508 4509
4  3753 4437 3750 4739
4  2893 3332 3792 2896
4  3406 3247 3266 3248
4  3333 2895 3002 4261
4  4608 4609 4449 4607
4  2994 2997 2995 2993
4  719 3449 3284 3285
4  409 4698 3148 3104
4  4310 3102 4304 4314
4  3953 3954 3273 3868
4  412 3562 3929 2909
4  4305 4313 4319 4306
4  3794 4924 4882 4698
4  334 3562 412 2919
4  4308 4310 4312 4313
4  4807 4209 4803 4817
4  4887 3606 4888 3204
4  4816 3681 4211 4485
4  4884 4260 4261 4510
4  4441 4366 4437 4249
4  4438 4441 4784 4437
4  3753 3750 4740 4739
4  20 409 22 3147
4  3274 3273 3954 3868
4  3753 4740 4368 4366
4  3753 3024 4437 4249
4  3794 4699 4508 3148
4  4884 4946 4890 4510
4  42 41 43 4775
4  4946 4510 4880 4883
4  4689 3797 3923 3585
4  444 357 932 4829
4  4512 3914 3534 3911
4  3611 3612 3616 3613
4  3677 4742 3583 3798
4  3676 3722 5055 3685
4  4440 4248 3685 4249
4  5055 3722 5008 3685
4  4281 4611 4610 4282
4  5011 4281 4611 4610
4  4864 4975 4576 4329
4  3123 4926 3612 3124
4  5011 4610 4463 3460
4  4762 3612 3611 3129
4  3458 4463 4894 3460
4  3405 3458 3460 3295
4  3458 3459 4463 3460
4  4796 2984 3076 4336
4  639 3159 72 3158
4  5039 4433 4432 2989
4  118 4117 5065 2988
4  3298 2984 2980 2983
4  4219 4074 4533 4072
4  3576 4532 4531 4550
4  4531 4550 4532 4072
4  3609 4895 3819 3416
4  3862 3151 3150 3152
4  4328 4326 5029 2974
4  5025 4692 4533 4072
4  4397 3473 3474 4398
4  4327 3150 4779 4413
4  3862 3474 2923 2975
4  4431 4594 4024 3151
4  5025 4110 4692 4072
4  3576 3578 3577 4550
4  4744 4399 4397 4402
4  526 850 4328 2974
4  3131 3132 3133 3578
4  3862 3151 2972 3150
4  5025 4601 4600 4550
4  5025 4600 4965 4550
4  3510 3511 3501 3518
4  4059 4060 4219 4061
4  3320 2925 3327 3322
4  3507 3595 3501 4077
4  3855 3595 3501 3518
4  3500 3513 3615 3502
4  418 3517 3200 3202
4  541 3519 683 3516
4  4589 3579 4288 2931
4  731 422 3221 3739
4  4320 3898 3511 3739
4  3500 4484 3511 3615
4  3676 3678 3325 3320
4  2929 2924 2925 3322
4  3676 3678 3320 3583
4  3320 3584 3627 3327
4  932 357 272 3582
4  4320 3511 4484 3615
4  4257 4116 4108 4677
4  4692 4219 4533 4072
4  4517 3298 3635 2987
4  5005 4308 4938 5004
4  123 2988 4518 2982
4  4257 4679 4522 4246
4  2928 3126 2930 3127
4  397 117 5039 4119
4  4065 2986 3298 2987
4  4675 3121 3328 2930
4  117 5039 4119 2989
4  4689 3797 4367 3686
4  4577 3323 2929 3826
4  4996 2952 2945 4590
4  3676 5055 3677 3685
4  356 5049 3627 3327
4  3315 3853 3316 3314
4  687 3244 3449 3242
4  4996 2945 3828 3853
4  2951 2945 2950 3689
4  4995 3315 4835 3312
4  4963 4995 4590 3315
4  2945 2950 3689 3229
4  3253 3250 4750 4754
4  4804 4258 4262 4259
4  3737 3425 2971 3017
4  3103 3106 3104 3105
4  940 191 3756 3425
4  4321 4320 3680 3517
4  3852 4996 3828 3853
4  2945 3689 3853 3314
4  3898 4848 3312 4091
4  3095 4094 4091 3356
4  3758 3170 3168 3169
4  3176 3426 3180 3171
4  4972 4094 4092 4091
4  3855 3856 4077 3227
4  4092 4207 4093 3356
4  4320 4242 3898 4091
4  3628 4995 3357 3355
4  3096 3226 3229 3314
4  923 3688 3687 3689
4  4290 4231 5031 4235
4  3493 4465 3349 4376
4  4009 4945 4385 4386
4  605 3382 3383 3378
4  4066 3250 3411 3232
4  4229 4436 4230 4232
4  4489 4374 4236 4231
4  4508 4785 4539 4880
4  5004 4805 4889 4313
4  2968 2971 3859 3467
4  4290 4826 4381 4231
4  409 4698 3794 3148
4  4773 4513 4137 4226
4  4227 4145 4285 4274
4  3176 3177 3170 3907
4  3190 3375 3371 4126
4  4513 4360 4273 4274
4  3450 3190 4896 3373
4  3310 4183 4276 4177
4  4513 4222 4360 4223
4  3308 3307 4130 3305
4  4275 3311 4276 4177
4  3849 3451 3452 3008
4  4180 5033 4331 4181
4  273 3849 3403 3324
4  4392 4832 4086 3997
4  3849 3450 3452 3451
4  3916 3885 3175 3006
4  991 1024 244 3390
4  407 3839 694 3840
4  4392 4086 4393 3997
4  407 3838 3173 3839
4  3916 3006 3175 3838
4  694 3839 3430 3840
4  4703 3765 4701 3987
4  4795 4621 4200 4504
4  5076 4623 4719 4624
4  4795 4793 4202 4621
4  4503 4469 4199 4200
4  3651 4462 3886 4457
4  4700 4701 4702 4352
4  3764 3765 3259 3987
4  4186 4727 4192 4188
4  4172 4173 5019 4174
4  4544 3069 3068 3023
4  4167 4084 4832 4299
4  4185 4187 4186 4299
4  4487 3893 4191 4187
4  4555 4221 4354 4217
4  4221 4218 4217 4075
4  4824 3764 4701 3765
4  4586 4000 4530 4001
4  4216 3766 4824 4217
4  4359 4096 4228 4223
4  4586 4527 4514 4528
4  4555 4976 3766 4217
4  4674 4707 3618 4936
4  3172 3191 4502 3390
4  4167 4487 4299 4169
4  3893 3892 4191 3894
4  317 694 3429 3430
4  3189 3391 3386 4126
4  3188 3390 3429 3388
4  4487 4191 4185 4187
4  3093 2941 3598 2943
4  4251 4252 3258 3259
4  4638 3069 4636 3506
4  3767 4146 3768 3761
4  4717 4718 4126 4488
4  3437 4239 3436 3890
4  3435 3436 3391 4624
4  3265 4825 4214 4799
4  4125 4857 3888 4624
4  4502 4624 4857 4504
4  4569 4799 4250 3260
4  4569 3142 4799 3261
4  3986 4250 4732 3260
4  935 585 4697 4315
4  4745 3780 3778 3779
4  4681 2986 4337 4338
4  4697 4314 4698 3110
4  3968 3781 3966 3967
4  4686 5036 4730 4447
4  4421 4450 4986 4979
4  4973 4984 4746 4985
4  4305 4372 4310 4314
4  4971 4728 4983 4688
4  4973 4747 5036 4985
4  4978 4985 4450 4979
4  583 3831 3961 3383
4  4480 4157 4189 4158
4  3876 4496 4135 4133
4  3021 4543 3023 4192
4  4446 5066 4978 4450
4  4973 5036 5093 4985
4  935 937 585 4315
4  756 74 4315 3796
4  5038 5102 4197 4543
4  5093 5036 4451 4985
4  5093 4446 4984 4985
4  3785 4973 3782 4921
4  2955 3276 3280 3277
4  958 2954 684 3526
4  4445 5093 4920 4447
4  4730 5036 4451 4447
4  3588 2956 2955 2957
4  3588 3587 5018 2966
4  589 926 590 3408
4  4397 3473 2922 3474
4  684 2954 3280 3045
4  2954 3591 3530 2965
4  4956 2956 3476 3151
4  5081 4338 4337 4336
4  3635 4518 2987 2982
4  562 1011 3635 2982
4  4775 4326 4328 3276
4  2964 3591 3593 2966
4  3044 3591 3544 3530
4  3044 3046 3530 3043
4  119 847 118 4117
4  3214 3733 3478 3212
4  4059 4061 4256 4062
4  3804 4967 3801 3802
4  847 4247 845 4117
4  3477 3044 3046 3591
4  3046 3045 3530 3043
4  4042 3361 3835 3359
4  3634 3628 2947 4590
4  405 404 403 3494
4  4030 4954 4302 4029
4  2951 3828 2945 3689
4  3096 4590 3354 3312
4  3898 3096 3095 3312
4  3617 3619 3693 3620
4  4995 3354 3312 3355
4  3095 3361 4042 3355
4  4995 3312 3357 3355
4  3095 3357 3312 3355
4  3172 3188 3191 3390
4  3189 3191 3391 4126
4  4127 4126 3375 4488
4  3172 3174 3188 3175
4  3188 3429 3189 3388
4  3434 4896 3190 3375
4  3434 3189 3386 4488
4  4717 4127 5084 4488
4  5084 5069 5078 4488
4  378 521 3727 3792
4  3003 5003 3002 2890
4  3329 3334 3330 2894
4  22 3794 3146 3147
4  3427 3426 3176 3337
4  4617 4491 4490 3561
4  5090 4337 5081 4338
4  2978 2973 2975 2977
4  3862 3150 2972 2973
4  1000 881 135 3016
4  4327 4960 5085 4779
4  4866 4413 4780 4414
4  3769 4649 3786 3610
4  981 3654 3223 3296
4  4905 4778 5103 4415
4  3607 3609 4648 3769
4  771 3255 3254 3653
4  4905 3820 4934 3445
4  3162 3166 3735 3257
4  3531 3819 3416 3532
4  4866 4780 4613 4414
4  3786 4612 3915 3914
4  4649 4866 3786 4415
4  4778 4866 4649 4415
4  981 771 3654 3296
4  3287 3297 3288 3165
4  3709 3705 3771 3710
4  3720 3296 3166 3167
4  4982 4979 4985 4748
4  4746 4985 4984 4748
4  4746 4747 4985 4748
4  4995 3354 4590 3312
4  4438 4439 4248 4437
4  2901 3025 3145 3727
4  4629 3772 3246 2999
4  4838 2891 2889 4509
4  2997 2991 3000 2993
4  686 47 170 3242
4  4534 4587 4495 4497
4  3753 2899 3750 4437
4  2899 3144 2901 3145
4  5012 4962 3852 3317
4  5016 4078 4834 3457
4  521 3025 3145 3026
4  3752 4838 3750 3144
4  3791 4423 4749 3182
4  5016 3456 4078 3457
4  4370 3834 4749 3073
4  946 625 813 3569
4  4370 4379 3834 3073
4  3947 3084 3080 3074
4  3919 2937 2938 2935
4  3223 3225 3296 3297
4  947 946 83 5024
4  4572 4571 4379 3073
4  4724 4910 4722 3919
4  4571 4423 3834 4749
4  4409 3040 3943 3950
4  230 180 589 3790
4  3898 4848 3856 3312
4  4575 4135 4496 4307
4  4078 3455 3594 3595
4  4929 3567 3485 3487
4  3892 4191 3894 4192
4  3442 3496 3715 3491
4  4910 3919 2937 2938
4  4486 4085 4471 4081
4  3210 3209 2932 3884
4  3919 2938 3135 2935
4  4822 4823 3981 2936
4  3441 3811 3812 3443
4  3137 3193 3192 3138
4  3296 3297 3287 3165
4  4856 3881 4823 2937
4  4822 3981 3341 2936
4  3441 3442 5000 3811
4  4907 3713 3712 3470
4  826 639 72 3158
4  741 3836 3098 3832
4  2952 3629 2953 2947
4  3442 3491 3715 3475
4  4963 4835 4995 3315
4  5101 3634 2952 4590
4  903 3324 857 3840
4  319 244 390 3384
4  3188 3430 3429 3839
4  457 4371 3186 3185
4  301 287 454 3832
4  3629 4567 4919 3630
4  4798 4567 3629 3360
4  5083 4239 4719 4718
4  3436 3438 3386 4718
4  5083 4719 4717 4718
4  3096 3514 3098 2946
4  4040 4041 4043 3359
4  4963 4995 3634 4590
4  5069 3434 5078 4488
4  4882 4290 4785 4880
4  5076 4947 4623 3890
4  3614 3702 3437 3459
4  3621 3435 3890 3057
4  4238 5075 4237 3438
4  4601 4533 4545 4532
4  4508 4510 4882 4880
4  4508 4785 4537 4539
4  4542 4008 5030 4539
4  4537 4005 4974 4007
4  4827 4010 4008 4381
4  4678 4111 4116 4108
4  4073 4358 4221 4074
4  5031 5030 4381 4880
4  4691 5065 4247 4257
4  4107 4112 4108 4110
4  4785 4827 4005 4008
4  4111 5080 4452 3730
4  4011 4008 4006 4010
4  4380 4011 4012 4010
4  5053 5088 5087 5080
4  3492 3235 4754 3412
4  3299 3349 3348 3412
4  5025 4533 4601 4550
4  4107 4109 4692 4110
4  847 808 845 4247
4  4109 4676 4059 4256
4  4254 5025 4965 4550
4  3435 4502 4620 4504
4  4468 4471 4486 4085
4  4695 3412 3348 4436
4  3492 3230 4657 3235
4  3299 4750 3235 4754
4  4318 4435 4693 4436
4  3348 3349 4230 4436
4  3708 4693 3492 3412
4  4032 4573 4033 4035
4  4493 4034 4583 3913
4  3912 3915 3913 3911
4  3153 3154 4802 3155
4  3708 3492 4754 3412
4  3962 4905 3445 3553
4  3813 3443 3559 3815
4  4866 4414 4613 4416
4  3154 4802 3155 4402
4  3936 3544 3812 3814
4  3936 3812 3544 3934
4  4655 4584 4656 4400
4  3811 3443 3715 3559
4  4802 4414 3155 4400
4  3441 3811 4809 3812
4  3812 3591 3544 3934
4  4780 4802 4613 4414
4  4768 4333 4561 4332
4  3525 4292 4881 3522
4  4768 4332 4561 3933
4  4166 4434 4169 4171
4  4505 4940 3877 3860
4  612 665 553 2886
4  5060 2912 5043 3117
4  3523 5092 3525 3524
4  3928 3522 5001 3747
4  3565 3522 4881 4294
4  3525 4881 5001 3522
4  4563 3878 4265 3860
4  4939 4563 4263 4265
4  4604 3875 4940 4265
4  4603 4264 4602 4836
4  2932 2937 2936 2934
4  4409 4408 3413 3976
4  4604 4940 4645 4265
4  4647 4840 4604 4645
4  4644 4939 4645 4565
4  4474 4472 4291 3539
4  4939 4263 4955 4265
4  3676 3685 3583 3922
4  4460 4082 4298 4299
4  4858 3021 3020 3069
4  3996 4461 4459 3886
4  4826 4374 4381 4231
4  3333 4258 3103 4261
4  2913 2915 3524 4165
4  4875 3066 3086 2916
4  4876 4875 4877 2916
4  2920 2915 3066 4165
4  3604 3204 4162 3067
4  4875 4162 3086 3066
4  4152 4766 4499 4151
4  3915 4612 4154 4583
4  3605 3067 4165 3930
4  3605 3930 5002 3032
4  363 332 323 3690
4  3723 4362 4842 4364
4  4154 4499 4033 4034
4  4573 4033 4035 4365
4  4152 4598 4004 4150
4  4519 4363 4151 4034
4  900 5070 5046 3115
4  2920 3930 3067 3032
4  3767 2962 3761 3762
4  4146 3768 3761 3264
4  4876 3113 2914 2916
4  2960 3767 3763 2962
4  3980 4473 3767 2962
4  3570 2941 3093 3542
4  5042 4165 3605 3067
4  3767 3538 3761 4473
4  4505 3306 4430 3303
4  3523 2913 3524 4165
4  4227 4145 4274 4139
4  3030 3066 3086 3067
4  3309 3308 3310 3305
4  4273 3304 4145 3311
4  4506 4426 4507 3303
4  4333 4334 4561 4332
4  372 2916 3088 2918
4  3441 3444 3443 4332
4  3278 3273 3272 3269
4  4284 4013 3279 4015
4  900 612 2906 3115
4  2914 3115 2915 3113
4  4115 4112 4111 4108
4  4114 4108 4678 4677
4  3196 4347 4348 4536
4  4347 4357 4356 4349
4  4353 4534 4535 4348
4  4534 4497 4348 4536
4  3876 4135 4734 4131
4  4198 4081 4970 4195
4  4678 4116 4120 4679
4  4080 4084 4193 4083
4  4471 4085 4023 4081
4  4167 4460 4299 4461
4  4832 4084 4082 4299
4  4486 4082 4085 4081
4  119 4122 4118 4119
4  5038 4197 4727 4543
4  4193 4971 4081 4195
4  4920 4686 4687 4447
4  860 3484 119 4118
4  3776 3778 4713 4709
4  3619 3618 4714 4709
4  3632 3776 4937 3620
4  3632 3617 3575 3620
4  4214 5037 4799 4480
4  5066 4891 4155 4215
4  4116 4246 3484 4117
4  4111 3730 4121 4116
4  4213 4156 4155 4158
4  4952 4991 4253 4190
4  3988 3993 3989 3985
4  4025 4482 4733 4481
4  4801 4800 4991 5032
4  4681 4679 4120 2986
4  4900 4954 4136 4029
4  4300 3992 4302 3989
4  4300 4029 3993 3989
4  4122 4120 4118 4119
4  3196 4575 4496 4497
4  5065 4247 4257 4246
4  4800 4991 5032 4190
4  4482 4189 4952 4190
4  4482 4190 4253 4158
4  4952 4953 4991 4190
4  4681 4679 2986 4677
4  5033 5032 4053 4054
4  3505 3094 3542 3506
4  1050 797 244 3384
4  5065 4247 4246 4117
4  318 5074 3433 3428
4  5065 4246 4522 4117
4  4071 4692 4072 4061
4  4219 4074 4072 4061
4  4794 4237 4846 3440
4  4341 4661 4339 3983
4  4341 4345 3983 4340
4  3210 4658 3983 2934
4  995 274 903 3450
4  3883 4339 3982 4658
4  3190 4126 3189 4488
4  3175 3838 3006 3007
4  3859 3099 3091 3467
4  893 1014 1013 3100
4  3209 3882 4819 4477
4  4345 4819 3209 3983
4  4339 3049 5063 3052
4  4845 3861 3757 3468
4  2968 3466 2969 3467
4  999 3337 3427 3010
4  4845 5089 3861 3468
4  4345 4344 4819 4340
4  3882 3983 3883 3884
4  4309 4310 4372 4315
4  1013 5089 192 3100
4  3657 3283 3336 3012
4  4872 4310 4309 3796
4  3614 3439 3702 3700
4  3859 3995 3861 2971
4  3760 3259 3264 3762
4  192 5089 909 3468
4  3426 3756 3755 3171
4  4938 4805 5004 4313
4  4889 4319 4313 4306
4  5004 4753 4311 4313
4  4304 3102 4313 4260
4  4304 4260 4306 4883
4  4890 4306 4260 4883
4  4977 2962 3766 3762
4  4475 4473 2961 2962
4  3980 3767 2960 2962
4  4407 4760 4475 2961
4  4475 2961 4760 2962
4  3763 2962 3767 3762
4  789 983 5057 3353
4  3763 3767 3768 3762
4  4821 4018 3803 3666
4  3848 5021 5022 3546
4  4977 3759 2962 3762
4  4650 3539 3538 4473
4  4472 3759 3761 4473
4  3768 3259 3764 3762
4  161 953 4853 3225
4  4724 3919 3822 2937
4  5072 3163 3716 3167
4  5090 4681 4337 4338
4  5072 3716 3724 3167
4  771 3654 3296 3653
4  3720 3296 3167 3297
4  509 771 490 3254
4  4770 4476 5072 3163
4  3846 3655 5021 3166
4  767 509 766 3548
4  981 952 1005 3223
4  511 3656 3654 3653
4  3223 3654 3720 3296
4  3163 3291 3167 3165
4  3207 3822 3919 2937
4  3538 4146 3761 3540
4  41 3045 3280 3277
4  4994 3719 3718 3297
4  4650 3538 3980 4473
4  600 3044 3936 3544
4  3477 4774 3044 3934
4  3759 3761 4473 2962
4  905 904 4927 3551
4  3763 3766 2962 3762
4  567 3550 4927 3551
4  4997 4474 4844 4651
4  3978 3979 2961 3976
4  3980 2961 3979 4473
4  4408 3979 4997 4049
4  567 904 905 3551
4  4408 4997 3413 4049
4  3978 4998 3979 4049
4  4998 4651 4650 3979
4  4655 4716 4582 4584
4  4614 4656 4584 4400
4  3062 3845 3414 3398
4  567 905 574 3551
4  3571 2927 2931 2926
4  4613 4802 4614 4400
4  4744 3155 4400 4402
4  74 937 935 4315
4  4612 4615 4583 4584
4  4841 4781 3957 4160
4  4805 4259 4890 4260
4  409 970 971 4924
4  4612 4416 4613 4584
4  4615 4614 4656 4584
4  4699 2889 4261 4510
4  4303 4942 4232 4235
4  4289 4303 4234 4235
4  4318 4233 4435 4436
4  4318 4942 4233 4232
4  4316 4229 4303 4232
4  4537 4005 4007 4008
4  672 258 621 4925
4  4089 4087 3825 3873
4  621 258 406 3918
4  4303 4229 4234 4232
4  4233 4489 4236 4231
4  4377 4373 4230 3701
4  4233 4375 4435 4230
4  373 4876 4877 2916
4  4229 3348 4230 4436
4  3570 3926 3542 3896
4  3562 3089 3691 3027
4  4291 3540 3570 3896
4  4472 3761 3932 3540
4  3512 3517 3510 3202
4  1017 364 372 3088
4  335 374 372 2918
4  323 3089 335 2918
4  3932 3570 3540 2944
4  3537 3926 3540 3896
4  334 3691 3562 3089
4  4163 4162 4164 3067
4  3537 3926 3538 3540
4  840 4849 4794 3440
4  3767 3538 4146 3761
4  3188 3189 3191 3388
4  5075 4846 4237 3438
4  318 319 389 5074
4  4977 3765 4251 3762
4  4512 4617 4417 3914
4  995 3450 903 3430
4  4905 5103 3820 4415
4  4866 4415 4413 4414
4  4780 3153 4802 3155
4  4780 4413 3155 4414
4  3609 3417 3416 3603
4  3366 3372 3371 3009
4  318 319 5074 3428
4  4905 3820 3445 4415
4  719 686 3449 3285
4  720 136 47 3011
4  5103 4649 3820 4415
4  4574 5044 3671 3248
4  4787 4574 3671 2998
4  629 230 589 3184
4  4424 3833 4422 3181
4  943 3564 3563 2888
4  612 553 880 2885
4  2987 2982 2988 2983
4  1011 4518 3635 2982
4  4518 2988 2987 2982
4  639 4999 2985 3158
4  5048 4424 4422 3181
4  4567 4422 3630 3834
4  3910 3800 3912 3911
4  499 4479 149 3338
4  5059 3523 2913 3524
4  3523 3525 5079 3521
4  5092 4292 3525 4293
4  658 661 3579 2931
4  3328 2924 2929 3322
4  4589 3923 3644 2931
4  4877 4244 4243 3088
4  5017 4755 4930 4902
4  2986 2988 2989 2983
4  3002 5003 4261 2890
4  986 3752 3751 3026
4  4815 3942 5017 3081
4  3751 3752 3750 3026
4  3811 3813 3555 3560
4  3529 4378 3541 3560
4  958 3527 2954 3526
4  958 684 652 3526
4  850 464 189 2977
4  3224 4810 3817 4994
4  4562 4430 4144 4143
4  596 3530 3544 3528
4  596 3544 3560 3528
4  5066 4155 4978 4450
4  4853 3224 3817 3225
4  891 3560 481 3814
4  3541 4851 2964 3815
4  3541 4851 2967 2964
4  4144 4143 4430 3304
4  4505 3877 3306 3860
4  4563 4507 3307 3860
4  1019 4378 3529 3560
4  3877 3878 3307 3860
4  4507 3307 3303 3305
4  1092 405 307 3496
4  4933 3559 3558 3712
4  3527 2967 2959 2965
4  3495 3491 3469 3714
4  3469 3491 3713 3472
4  3302 4507 3303 3305
4  4506 3860 4427 3303
4  1019 4378 3560 3556
4  3505 3504 3909 3506
4  5058 4642 4333 3712
4  4087 3873 4090 3470
4  262 436 891 3555
4  4505 4430 4427 3303
4  4426 3303 4427 4143
4  710 3623 709 3418
4  4019 4018 3214 3802
4  537 356 544 3327
4  3730 3733 3731 3480
4  4453 4452 3734 3731
4  3214 3478 3392 3212
4  5049 3326 3325 3327
4  4966 5088 4112 4967
4  4452 3730 5080 3733
4  1020 537 544 3326
4  537 3326 5049 3327
4  5055 5064 3677 5008
4  3730 3733 3732 4112
4  4071 4257 4247 4246
4  4549 3732 3801 4965
4  973 209 3377 4618
4  4255 4112 3732 4110
4  3434 3190 3189 4488
4  3772 5095 4791 2994
4  3640 3364 3645 3365
4  3768 3140 4569 3264
4  3247 3000 3266 3248
4  3639 3640 2903 3645
4  3675 3245 3770 3240
4  3247 3252 3037 3267
4  3464 3091 3090 3017
4  2889 4509 4261 4510
4  4262 3002 4259 4261
4  106 108 3795 3105
4  4312 3112 4258 3102
4  3649 3650 4831 4458
4  3639 3646 3650 3365
4  3096 3098 3354 2946
4  2890 2897 2891 2892
4  970 3110 4698 3104
4  4542 4011 5030 4008
4  4430 3306 3309 3303
4  2893 2901 2894 2892
4  986 3751 3025 3026
4  3102 4698 3110 3104
4  4784 4540 4837 4538
4  4834 4241 4835 3851
4  752 409 20 3147
4  4537 4007 5009 4538
4  4320 3512 3517 3511
4  4756 4603 3108 4588
4  3489 4756 3107 3052
4  4995 4848 3357 3312
4  3898 4242 4848 4091
4  4835 3315 3851 3856
4  4430 4427 3303 4143
4  4353 4536 4348 4357
4  3441 4429 4334 4140
4  4428 4595 4505 4427
4  3082 3197 4267 3083
4  3770 3240 3001 2998
4  4514 4528 3963 3868
4  3108 4267 3083 4588
4  4563 4132 4263 3878
4  3108 4266 4500 4498
4  4955 4263 3108 4264
4  4695 3703 3707 3704
4  4691 4256 4061 4062
4  3732 4112 4965 4110
4  4547 4353 4358 4357
4  4355 4356 4347 4357
4  5086 4782 4483 3705
4  4455 5086 5095 3710
4  4601 4545 3577 4532
4  3298 4902 4338 4064
4  5095 5086 2994 3710
4  2994 3711 2997 2993
4  4170 4460 4172 4169
4  4903 4663 4909 3745
4  4808 4662 3746 3745
4  4330 4516 4179 4331
4  3711 2992 3710 3706
4  4273 4360 4275 4274
4  4276 4183 4180 4177
4  3144 2893 2901 3145
4  4276 4014 4016 4177
4  409 3148 3794 3147
4  4789 5007 3879 3729
4  4360 4275 4274 4016
4  4283 4223 4015 4016
4  4182 4015 4014 4016
4  5007 2901 2897 2900
4  4753 4317 4311 4319
4  4356 4700 4702 4352
4  3994 4349 3993 3985
4  4825 3260 4799 3261
4  3258 3260 4825 3261
4  4310 4304 3102 4313
4  3258 4252 3260 3259
4  4312 4310 4872 3102
4  3379 3253 3709 3380
4  4330 3946 4331 4014
4  4180 5033 3945 4331
4  3945 4053 4057 4055
4  5033 4053 3945 4054
4  67 346 583 3829
4  4330 4182 3952 4014
4  4179 4014 4180 4177
4  4454 3771 4618 4161
4  4428 4505 4430 4427
4  3937 4516 3946 4055
4  4330 4179 4182 4014
4  4283 4346 3952 4015
4  4743 4331 5033 4181
4  4743 5033 4801 4181
4  3939 3946 3945 4055
4  67 3961 74 3960
4  4179 4331 4180 4014
4  74 4178 3960 3796
4  4178 4872 3960 3796
4  4372 4315 3961 3960
4  4745 4973 4746 4747
4  5093 5036 4921 4447
4  4753 4889 4942 4319
4  4973 3780 3782 5036
4  4051 4370 3039 4046
4  4316 4319 4318 4232
4  4553 4517 4063 4554
4  4691 4065 4256 4062
4  4063 4518 5065 4065
4  4745 4714 4747 4715
4  5006 4753 4694 4311
4  3509 3510 3199 3502
4  3515 4245 3510 3201
4  4243 4245 3515 3201
4  3203 3199 3204 3087
4  4905 5085 5103 4778
4  3030 3067 3204 3032
4  4245 3509 3510 3199
4  2887 2888 3116 2909
4  2922 2923 3474 3048
4  5101 2952 4996 4590
4  3588 3589 4593 2956
4  5013 3682 3456 3317
4  5071 3456 4833 3317
4  4769 3593 3590 2966
4  3591 3592 3593 2966
4  3591 2956 3476 3592
4  752 3792 4871 3106
4  3334 2895 3332 2894
4  5003 2890 2891 4509
4  5051 4963 5101 4996
4  3801 3732 3733 4967
4  4044 3545 3218 3666
4  4640 3664 3216 3217
4  5071 5016 4833 3456
4  3218 3545 3664 3666
4  4426 4143 4142 3304
4  3801 3733 3732 3478
4  493 155 343 3212
4  3162 3207 3652 3286
4  3842 5072 4390 3164
4  3166 3257 3255 3653
4  4770 3163 3164 4477
4  4704 3841 4914 3667
4  807 104 3483 3479
4  4820 3667 3666 3663
4  4045 3545 3353 3219
4  4835 4241 4848 3856
4  4320 4091 4972 4485
4  3628 3357 3363 3355
4  3848 3546 3545 3843
4  3510 3517 3511 3518
4  3500 4484 4242 3511
4  3628 3354 4995 3355
4  4320 3680 3512 3615
4  4045 3218 3545 3219
4  3249 3410 4448 3251
4  5056 5022 3546 3353
4  4629 3771 2999 4618
4  4704 3667 4820 3663
4  3033 3252 3253 2990
4  4574 3249 5044 3248
4  3848 3546 5022 3545
4  3216 3664 3218 3217
4  3669 3664 3545 3667
4  4704 3660 3662 3663
4  5102 4443 4729 4543
4  4483 4693 3708 3704
4  4574 3249 3248 2991
4  2990 3709 3710 2992
4  2990 3034 2999 3035
4  3774 5066 5102 4443
4  3609 3610 3769 3603
4  3062 3398 3400 3800
4  3534 3914 3610 3911
4  4891 5037 4444 3775
4  4648 3769 3609 3610
4  3414 3415 3417 3845
4  3616 3844 4897 4865
4  4891 4444 5037 4215
4  3674 3657 4591 3658
4  3249 3250 3410 3251
4  4442 4729 4443 4543
4  5066 4891 4444 3775
4  3253 2990 3709 3380
4  3268 4401 3270 3269
4  3773 4891 3774 3775
4  4493 4582 4617 4583
4  4802 4404 4614 4400
4  4890 4260 4510 4883
4  3654 3656 3655 3653
4  3846 3166 3735 3164
4  4946 5030 5031 4880
4  5072 3164 3163 3167
4  3817 4994 3718 3225
4  4946 5031 4941 4883
4  4308 5004 4311 4313
4  4869 4258 3112 3103
4  4827 4005 4008 4010
4  521 3146 3752 3145
4  3728 3879 3330 3729
4  3331 3334 4871 3332
4  521 21 3752 3146
4  3728 3330 3331 3726
4  4102 4760 4407 2963
4  3975 3980 2960 2961
4  2960 4551 2963 3766
4  3980 2960 2961 2962
4  4854 4278 4856 3717
4  852 946 813 3211
4  4106 3975 2960 2963
4  4355 4220 4356 4218
4  4220 4700 4356 4218
4  4476 3652 4477 3884
4  4076 4554 4060 4075
4  4355 4074 4220 4218
4  3195 3198 3577 4536
4  3875 4267 4501 4266
4  5024 3821 4722 3818
4  3209 3207 3205 3206
4  3166 3167 3296 3165
4  629 3181 5048 3182
4  3791 4423 3085 4749
4  3196 4496 3197 4497
4  3197 3198 4497 4498
4  967 3688 3689 3229
4  3781 3970 3777 3779
4  3634 3628 5050 3362
4  4469 4020 4038 4471
4  4320 3898 4242 3511
4  4915 4983 4070 4069
4  5101 4996 4963 4590
4  4792 4793 4621 4201
4  4502 4857 3888 4396
4  301 741 913 3514
4  4036 4038 4202 4201
4  4038 4037 5027 4039
4  4042 3835 3361 3836
4  4506 4507 4563 3860
4  4042 3361 3097 3836
4  5093 4451 4446 4985
4  2953 2947 3787 2948
4  4446 4443 4451 4447
4  287 454 3832 3187
4  4714 4559 4747 4715
4  3774 4443 5102 4543
4  4445 5102 4446 4443
4  4424 3837 4919 3833
4  3910 3534 3419 3415
4  4027 4189 4953 4026
4  4300 4302 4029 3989
4  4733 4732 3990 4481
4  3910 3534 4479 3419
4  3984 3988 3990 3985
4  499 3579 4479 3338
4  5066 4215 4155 4450
4  4982 4560 4988 4980
4  569 3058 824 3061
4  3414 3059 3552 3061
4  4421 4986 4157 4989
4  4482 4189 4190 4158
4  3062 3414 3064 3061
4  4482 4253 4156 4158
4  4157 4986 4988 4989
4  4950 5040 4238 4239
4  5083 5077 5040 5075
4  3062 3059 3414 3061
4  4127 3375 5069 4488
4  5083 5075 4239 4718
4  3123 3129 4705 3122
4  3602 3415 3603 3911
4  4864 4725 4975 3800
4  4717 5078 4718 4488
4  3274 3279 3964 3954
4  3274 3954 3964 3868
4  656 3180 3426 3636
4  5047 4752 3908 3755
4  4849 4752 4237 3908
4  602 541 364 3201
4  4428 4595 4427 3432
4  3279 4015 4013 4014
4  3088 3089 3118 2918
4  1017 4243 364 3088
4  4330 3952 3955 3954
4  3955 3940 3954 3868
4  3953 3955 3954 3868
4  664 374 665 3113
4  4244 4885 4245 3199
4  3279 3944 3964 3954
4  323 372 364 3118
4  4678 4108 4116 4677
4  1000 135 3281 3016
4  3421 4647 4595 4643
4  4839 3099 5089 3100
4  4123 4121 3731 4118
4  4111 5080 3730 4112
4  3471 3470 3559 3472
4  4987 4981 4982 4748
4  5088 5080 4112 4967
4  4327 4905 3962 3553
4  3535 3561 3536 3448
4  3962 3445 4934 3447
4  3534 4417 3610 3914
4  4987 4982 4560 4748
4  5087 4019 5080 4967
4  4113 4111 4678 4108
4  4716 4414 4412 4416
4  779 923 967 3688
4  775 779 3857 3318
4  4115 4114 4109 4108
4  4089 3340 3870 3873
4  4931 4772 4087 3470
4  5051 5012 4962 3852
4  3496 3491 3495 3714
4  4090 3873 3713 3470
4  3497 3423 3498 3486
4  3490 3496 3491 3486
4  4963 4590 4996 3853
4  4963 4962 4835 3315
4  5071 5013 3456 3317
4  4342 3664 3669 3668
4  3715 3712 3443 3475
4  3498 3873 3491 3423
4  789 767 766 5056
4  5072 4391 3164 3167
4  3846 5021 3848 3735
4  4345 4726 3205 3256
4  995 317 318 3433
4  3590 3593 4768 3592
4  3496 3495 3491 3486
4  3421 3423 3872 4643
4  565 569 3624 3552
4  567 566 3550 3551
4  567 4927 904 3551
4  843 2927 3579 3060
4  566 3552 3550 3126
4  566 574 825 3058
4  3442 3490 3422 3432
4  4768 3593 4333 4332
4  3754 3758 3755 3169
4  4719 3391 4718 4624
4  656 25 3622 3636
4  3406 3247 4922 3038
4  656 24 3638 3622
4  3673 3658 3675 3672
4  118 847 845 4117
4  397 5039 4122 4119
4  4255 3730 4112 4108
4  4860 4294 4928 4458
4  4253 4190 4157 4158
4  4170 4968 4928 4171
4  4831 4459 4168 4457
4  4860 4166 4456 4458
4  4930 4338 4902 4064
4  4292 3649 4928 4294
4  4712 4557 4708 4715
4  3565 2887 4548 2888
4  807 103 104 3479
4  4452 5080 4812 3733
4  4860 4456 3650 4458
4  860 807 847 3484
4  4831 3650 4457 4458
4  4640 3178 3394 3216
4  4549 3481 3393 3478
4  4860 3639 4548 4294
4  3416 3063 3418 3533
4  131 3448 3532 3533
4  709 569 501 3061
4  3416 3063 3419 3064
4  335 412 413 2919
4  3534 3603 3415 3911
4  3062 3400 3398 3059
4  4895 3417 3414 3418
4  3623 3531 4895 3418
4  3309 3303 3306 3305
4  3306 3303 3307 3305
4  4734 4130 3307 4131
4  3306 3877 3307 3860
4  3877 4734 3307 3878
4  4132 3878 4129 4131
4  3174 3191 3366 3888
4  4563 4129 4132 3878
4  5083 5076 4719 4239
4  3282 3285 3657 3283
4  4635 4633 3659 3738
4  3013 3659 3658 4633
4  3266 3659 3248 3672
4  3037 3034 3038 3267
4  3407 3013 3659 3335
4  4086 4085 3997 4082
4  3406 3659 5044 3248
4  941 191 4845 3756
4  3996 4468 4467 3997
4  3427 3010 3337 3014
4  3013 3658 3657 4633
4  4056 4052 4516 4055
4  3737 2969 3464 3017
4  5033 3945 4331 4054
4  1014 4839 1013 3100
4  4801 4800 5032 4054
4  4053 4054 5032 4918
4  3176 3907 3737 2971
4  3754 4845 3757 3756
4  909 4845 191 3468
4  3407 3176 3462 3014
4  10 192 191 3424
4  3407 3395 3293 3397
4  3699 3170 3698 3907
4  3176 3737 3907 3462
4  562 123 1011 2982
4  4870 3737 3464 3738
4  3407 3462 3395 3738
4  683 422 3516 3596
4  397 119 117 4119
4  3203 3200 3199 3087
4  3088 3087 3089 2917
4  3691 3089 3029 3027
4  5039 4432 4120 4119
4  3510 3201 3199 3202
4  988 890 3211 3255
4  3512 3199 3203 3200
4  3898 3855 3511 3739
4  4342 4640 3805 3664
4  3660 3803 3804 3665
4  541 3118 3201 3202
4  4784 2898 4437 4739
4  4079 3510 3501 3519
4  5003 2890 2897 2891
4  3690 3680 3203 3200
4  2899 2901 3144 2892
4  4837 4509 2891 4538
4  3541 2964 3813 3815
4  3500 4888 4484 3615
4  5054 3527 2959 2954
4  958 5054 684 2954
4  4320 4242 4484 3511
4  3499 3500 4241 4077
4  3664 3545 3217 3352
4  3224 3223 4994 3225
4  952 3224 1007 3225
4  3716 3718 3719 3291
4  4810 4277 3823 3718
4  4856 4476 3881 3717
4  3669 3546 3352 3547
4  4906 4087 4090 3470
4  3669 3545 3664 3352
4  4959 4868 4867 3139
4  4417 4412 3445 4415
4  3262 3553 3962 3263
4  961 3447 706 3446
4  5103 4778 4649 4415
4  4648 3820 5103 4649
4  3848 5021 3546 3735
4  4345 3209 4819 3736
4  5057 5022 5056 3353
4  1020 998 976 4675
4  3218 3217 3545 3220
4  766 3548 3254 3351
4  574 3549 976 2930
4  3031 3032 2920 3027
4  976 4675 998 2930
4  1020 3326 544 2924
4  3579 2927 2931 3402
4  998 544 658 2927
4  73 756 106 3111
4  3841 4914 3667 3843
4  4704 4344 3841 3668
4  4650 3979 4651 3539
4  4998 4048 4684 4651
4  4684 3905 4652 4206
4  4212 4205 3906 4207
4  5097 4206 4205 4207
4  4093 3905 4206 4207
4  3959 4178 4873 3960
4  4093 3905 4684 4206
4  4969 4205 5097 4206
4  4771 4867 3874 4925
4  5052 5049 3678 3627
4  130 4961 4737 4268
4  4440 4437 4248 4249
4  4589 3644 3923 3686
4  4790 4440 4438 4248
4  5007 4439 5026 2897
4  5008 3684 4440 3685
4  3673 3675 4786 4787
4  3770 2995 3001 2996
4  3339 3487 3137 3193
4  3870 3873 3340 3871
4  4378 3558 3813 3556
4  621 3139 4959 4925
4  3498 3491 3495 3486
4  3178 3131 4549 3578
4  934 343 676 3350
4  3804 4600 3807 3806
4  4802 4400 3155 4402
4  3477 3591 3046 3476
4  4095 4653 4361 3270
4  130 258 4961 4268
4  4403 4100 4359 4096
4  4448 4449 4611 4282
4  4459 4467 4460 4461
4  307 3496 3494 3495
4  5044 4448 4281 4511
4  4611 4607 4609 4610
4  3246 3770 3245 3243
4  307 3494 403 3495
4  3406 3248 5044 4511
4  4280 3397 4281 4511
4  3885 3366 3175 3006
4  5044 3249 3251 3248
4  2999 3240 3001 3243
4  4635 3671 3396 3659
4  4860 4456 3639 3650
4  3427 3406 4922 3335
4  4153 4511 4280 4282
4  4878 3250 3249 2991
4  3252 4066 3250 3251
4  3808 2903 3850 3640
4  4787 2998 3671 3672
4  4802 4404 4400 4402
4  4397 3154 3155 4402
4  4100 4096 4098 4101
4  3374 3369 3452 3373
4  3639 2903 3640 2884
4  98 2923 3048 3277
4  4431 2956 4593 3151
4  274 3450 3849 3324
4  464 2976 0 2977
4  4095 3270 4096 4098
4  2922 2921 3862 2923
4  3651 3885 3006 3367
4  3648 3367 3650 3365
4  4540 4541 4007 4538
4  4240 3850 2902 3927
4  5030 4539 4008 4880
4  5030 4011 4380 4008
4  4879 5030 4946 4880
4  4290 4381 5031 4231
4  4303 4319 4942 4306
4  4685 4068 4686 4069
4  4882 4290 4880 4883
4  4685 4686 4731 4687
4  4879 4539 5030 4880
4  4290 5031 4880 4883
4  3308 4130 4176 3305
4  4129 4736 4134 4131
4  4983 4920 4069 4687
4  4445 4729 5102 4443
4  4731 4687 4197 4195
4  4070 4920 4921 4069
4  4728 4194 4445 4197
4  4086 4080 4021 4085
4  4395 4394 3997 3887
4  4296 2902 3808 2903
4  4728 4445 4920 4687
4  2932 2937 3919 2935
4  4469 4470 4200 4394
4  3389 4502 3435 3391
4  3996 4395 3997 3887
4  5038 4192 4727 4188
4  4269 2939 3137 2940
4  5038 3774 5102 4543
4  4442 4543 4443 3775
4  3021 3023 3069 4192
4  5019 5020 4858 3894
4  3874 4925 3918 4268
4  3339 3340 3871 3344
4  3498 3423 3346 3871
4  4998 4652 4650 4651
4  3920 3193 3339 2933
4  258 3918 3824 3488
4  3978 4998 4650 3979
4  3978 4650 3980 3979
4  4758 4664 4901 4757
4  4961 4925 4771 4268
4  4929 3498 3339 3487
4  4464 3694 3969 3695
4  4374 4010 4828 3633
4  3137 3192 3193 3918
4  3022 5037 3599 3775
4  4959 3134 4868 3139
4  4544 5038 4191 4192
4  4544 3773 3774 3023
4  4825 4213 4214 4480
4  3339 3874 3137 3487
4  3343 3342 3346 3344
4  3345 3341 3343 3344
4  3258 3265 2942 3261
4  4713 3778 4714 4709
4  3781 3783 3970 3779
4  3937 4911 4558 3938
4  3777 3970 3637 3779
4  3776 4745 4713 3778
4  118 845 5065 4117
4  123 118 142 2988
4  3777 3619 3778 3637
4  4676 4256 4677 4062
4  4745 3780 4714 3778
4  4696 3785 4745 3779
4  3776 4696 3778 3637
4  687 685 3244 3242
4  142 118 845 5065
4  5002 4903 4664 4761
4  5044 3248 3251 4511
4  3033 2990 3253 3380
4  4892 3744 4171 3747
4  4123 4122 4121 4118
4  5001 3748 4903 4909
4  3565 4928 4881 3747
4  3496 5000 3715 3917
4  3565 3746 4892 3747
4  3557 3558 4378 3556
4  4968 4172 3744 4171
4  3748 3747 3744 3745
4  3746 3747 4909 3745
4  4594 4593 3149 3151
4  4431 4024 4326 3600
4  5001 4881 3748 3747
4  4808 3746 4909 3745
4  4431 4326 2958 3600
4  3588 4431 2958 2955
4  4947 3294 5011 4463
4  5026 4438 4783 2897
4  3294 5011 4463 3460
4  4797 4626 4463 4622
4  409 970 4924 4698
4  2895 2900 2890 2892
4  4947 4625 4623 4622
4  4593 3156 3149 3151
4  4024 3151 3149 3150
4  3621 4797 4894 4463
4  4024 4327 5029 2972
4  4744 4397 3862 3155
4  4894 4797 4626 4463
4  4947 3459 4463 3890
4  5011 4609 4626 4610
4  5005 4841 4308 4311
4  4308 4841 4873 4309
4  5011 4609 4625 4626
4  3405 3427 3180 3179
4  759 3755 3908 3636
4  3292 3170 3179 3700
4  4163 5042 3604 3067
4  3614 3179 3168 3700
4  3426 3425 3756 3171
4  5041 5042 4164 4165
4  3928 3930 5001 3521
4  4295 4293 4296 3646
4  3177 3169 3756 3171
4  5042 3523 5079 4165
4  3697 4751 3698 3170
4  4951 4238 4751 3702
4  4751 4238 3439 3702
4  4752 3168 3439 3908
4  4568 5050 3358 3360
4  3358 3363 4683 3359
4  3812 3592 3591 3934
4  4774 3592 3933 3934
4  4778 4780 4866 4413
4  3078 4796 3079 3081
4  4774 3592 4777 3933
4  3590 4768 4777 3592
4  5090 4814 5081 4337
4  3408 3185 3041 3042
4  4517 4556 4064 4554
4  4065 3298 4338 4064
4  5018 4769 3589 2966
4  4517 4102 4031 4103
4  3477 3044 3591 3934
4  4517 4031 4902 4103
4  4513 4223 4227 4224
4  4397 3154 4402 4098
4  4956 3476 4099 4398
4  4225 4138 4227 4226
4  4434 4174 4487 4169
4  364 4243 3201 3088
4  4243 4244 4245 3201
4  4487 4185 4084 4299
4  602 3515 541 3201
4  3209 3882 4477 3884
4  3841 4819 4770 3736
4  4673 4936 4386 4388
4  4937 4709 4936 3620
4  3162 3164 3163 4477
4  3632 4388 3617 3620
4  4945 4673 4711 4936
4  4952 4991 4953 4954
4  4494 4136 4301 4029
4  3994 4535 4028 3993
4  4351 4352 3985 3987
4  4770 4476 3163 4477
4  3209 4819 3882 3983
4  4325 4992 4736 4323
4  4028 4494 4029 4307
4  4030 4029 4302 3989
4  3841 4344 3736 3668
4  3992 3990 3989 3985
4  3207 3652 3717 3884
4  3407 3659 3738 3397
4  4801 4991 4993 5032
4  4030 3989 4302 4026
4  4302 4027 4953 4026
4  940 656 712 3426
4  4301 4992 4030 4954
4  3176 3425 3737 3014
4  4991 4953 5032 4190
4  3018 3100 3468 3017
4  4987 4560 4988 4918
4  4253 4190 4988 4989
4  3951 4079 3594 3519
4  4743 4801 5033 4054
4  4991 4953 4993 5032
4  664 4876 374 3113
4  3292 3463 3293 3295
4  900 665 612 3115
4  940 712 191 3337
4  10 191 712 3337
4  323 334 335 3089
4  3086 3088 2916 2917
4  3176 3737 3462 3014
4  711 3638 3427 3180
4  4316 4303 4806 4305
4  4308 4938 5004 4313
4  4592 4364 4363 4365
4  67 937 74 3961
4  73 4178 74 3796
4  5047 3754 3758 3755
4  756 3796 3110 3105
4  5006 4694 4782 4160
4  4872 3102 4310 3796
4  4163 4164 5042 3067
4  735 363 418 3200
4  5042 3605 3604 3067
4  3111 3112 4872 3102
4  4877 4875 3088 2916
4  422 418 3516 3739
4  4875 4162 4244 3086
4  968 4935 706 3447
4  4417 3535 3561 3536
4  273 857 903 3324
4  3916 3175 3173 3838
4  5069 3375 3434 4488
4  961 329 0 3446
4  968 706 961 3447
4  4770 5072 3164 3163
4  4391 3720 3166 3167
4  3656 5056 5021 3548
4  4184 4179 4181 4177
4  983 5057 3353 3219
4  767 766 5056 3548
4  4480 4215 4157 4158
4  4184 4179 4743 4181
4  4992 4801 4993 4323
4  3807 3806 3132 3661
4  4183 4322 4993 4181
4  4990 3682 5013 3827
4  4180 4183 4181 4177
4  4184 4743 4801 4181
4  4183 4993 5033 4181
4  589 180 3408 3185
4  3039 3072 4749 3790
4  4409 3413 3409 3042
4  4409 3943 3740 4104
4  3947 3941 3080 3084
4  4571 3071 4423 4749
4  3941 4410 3942 3943
4  962 964 963 3683
4  779 963 923 3687
4  3978 4049 3979 3976
4  4411 3950 4049 3976
4  3949 4411 3950 4046
4  3841 4770 3842 3164
4  4766 4004 4002 4151
4  4914 3847 4913 3848
4  4820 4913 4044 3667
4  3841 3736 3735 3843
4  4666 4663 3902 4639
4  4721 4858 4636 3894
4  4914 3848 3667 3843
4  3892 3894 3069 4192
4  3891 3893 3743 3894
4  3749 4172 5019 4174
4  4720 4721 3901 4639
4  3891 4639 4636 3743
4  615 2906 612 2883
4  4720 3749 4721 3743
4  4662 3743 3742 3745
4  4121 3730 3731 4118
4  4518 5065 4065 4522
4  4518 5065 4522 2988
4  808 3483 4247 3484
4  999 137 3337 3010
4  3746 4662 3742 3745
4  3427 3407 3013 3014
4  767 5056 3656 3548
4  767 511 509 3656
4  135 3283 3016 3012
4  4813 4058 4045 3219
4  159 4813 5057 3219
4  4571 4423 4422 3834
4  789 983 159 5057
4  4058 3214 3218 3213
4  983 155 3219 3220
4  4697 4315 4314 3110
4  4391 3166 3846 3164
4  4289 4306 4303 4235
4  4922 3247 3037 3038
4  60 3035 798 3036
4  2999 3240 3000 3001
4  159 155 4813 3219
4  170 47 3037 3038
4  3669 3547 3736 3257
4  45 47 4922 3037
4  4037 3974 3966 3971
4  287 3833 4424 3181
4  5102 5066 4446 4443
4  509 3548 3656 3653
4  287 457 454 3183
4  990 2905 611 3927
4  2905 4240 2902 3927
4  3640 3006 3404 3008
4  162 3908 3054 3053
4  5078 3434 3386 4488
4  3912 4033 3642 4035
4  436 481 891 3560
4  1029 940 941 3754
4  3630 3181 3833 3187
4  1013 909 192 5089
4  630 4424 5048 3181
4  968 4904 4935 3447
4  4638 4636 3504 3506
4  286 287 301 3833
4  521 20 3146 3145
4  881 192 3019 3100
4  4589 4573 4032 4035
4  3931 3465 4632 3090
4  135 3016 881 3019
4  3794 4882 4508 4699
4  1000 3281 4764 3016
4  1000 893 881 4764
4  3331 3792 2893 3332
4  3752 3146 4838 3144
4  5070 2905 5043 2906
4  615 5070 900 2906
4  4850 4767 4769 3593
4  4933 4851 3541 3815
4  3441 3442 3811 3443
4  3078 3080 4815 3081
4  4277 3721 3716 3718
4  3740 3943 3081 4104
4  3039 4749 3072 3073
4  3407 3659 3406 3335
4  46 47 136 3335
4  4765 4810 3721 3718
4  803 3097 3221 3514
4  3707 3704 3703 3706
4  4628 4629 4627 4618
4  972 4628 4627 4618
4  972 207 209 4627
4  3166 3296 3255 3165
4  4278 3716 4476 3717
4  1035 625 5023 3135
4  4627 3246 3244 3241
4  2929 2930 3127 2926
4  5087 5068 4017 4019
4  2902 3850 2903 3927
4  905 4927 3549 3551
4  2899 2901 3729 3025
4  615 612 611 2883
4  3024 4248 4439 4437
4  3266 3626 3240 3242
4  900 5046 665 3115
4  5070 2912 5046 3115
4  3178 4549 3806 3578
4  3406 3659 3038 3335
4  4549 4600 3578 4550
4  685 3241 3244 3242
4  3281 3284 3282 3283
4  3670 3671 4635 4633
4  3427 3407 3406 3335
4  4786 3770 4791 2995
4  4786 4787 3675 2998
4  4483 4694 4693 3704
4  4341 3052 3489 4340
4  4093 4206 4684 4043
4  4750 3232 3235 4754
4  4093 4492 3905 4207
4  3711 3708 4878 2992
4  3247 4153 3252 3251
4  2997 2992 2991 2993
4  987 170 45 3037
4  209 685 798 3035
4  3903 3905 4492 3906
4  4574 2998 3000 3248
4  3253 3252 4066 3250
4  3266 3038 3626 3242
4  5097 4205 4212 4207
4  4684 4206 4048 4043
4  4212 4205 3895 3906
4  3230 4631 3236 3233
4  4434 4172 3744 4174
4  4838 4508 4537 4539
4  4837 4509 4538 4539
4  4946 4880 5031 4883
4  3928 4808 3746 4909
4  4968 4171 3744 3747
4  3854 4100 4099 4101
4  972 973 4628 4618
4  4397 4095 3473 4098
4  3154 4403 4402 4098
4  41 95 98 3277
4  207 685 209 3241
4  4593 3589 4956 2956
4  4508 4509 4879 4539
4  3750 4838 5009 4538
4  3146 4508 4838 2889
4  605 59 604 3382
4  59 57 60 3379
4  4203 4020 4419 4039
4  4616 3973 4465 3233
4  3300 4465 4466 4376
4  3299 4750 3234 3235
4  207 3244 685 3241
4  2967 2965 2964 2957
4  97 2923 2922 3048
4  4657 3235 3232 4754
4  3461 3294 4947 3459
4  3249 3251 3248 2991
4  839 3047 3044 3043
4  4695 4317 4693 4436
4  966 913 967 2950
4  3253 2990 3252 2991
4  3253 3707 2992 4754
4  1016 2949 3837 3788
4  3299 4754 3235 3412
4  3493 4464 4631 4465
4  301 3514 913 3788
4  4040 4042 4862 3835
4  4290 4827 4785 4381
4  3787 3836 3630 3832
4  4827 4009 4005 4010
4  5027 4023 4039 4420
4  4086 4021 4469 4085
4  856 193 256 3404
4  629 3182 3184 3183
4  4860 3565 4928 4294
4  630 5048 629 3181
4  4020 4023 4022 4039
4  4214 3142 5037 3599
4  3022 3599 3141 3070
4  286 630 287 4424
4  3265 4799 3142 3261
4  3174 3888 4389 4396
4  4857 4671 4396 4504
4  4254 4965 5025 4110
4  4966 4600 3804 3806
4  4255 4257 4108 4256
4  5068 4966 3804 4967
4  4194 5038 5102 4197
4  4115 4107 5088 4112
4  3774 4891 5066 3775
4  4730 4197 4687 4447
4  4196 4731 4730 4197
4  5102 4729 4197 4543
4  4678 4679 4681 4677
4  4185 5038 4194 4188
4  4727 4197 4729 4543
4  4194 5102 4445 4197
4  4676 4677 4338 4064
4  4745 3785 3780 3779
4  3784 3785 4696 3779
4  3776 4696 4745 3778
4  3618 4936 4709 3620
4  4745 4714 3780 4747
4  4113 4115 4111 4108
4  4678 4120 4681 4679
4  541 683 418 3516
4  3405 4279 3397 3460
4  4060 4554 4216 4075
4  493 103 701 3212
4  4549 4254 3481 3732
4  4678 4111 4121 4116
4  4113 4678 4114 4108
4  4512 4479 3534 3536
4  6 2921 0 3290
4  3445 3561 3448 3446
4  3062 3398 3414 3059
4  4512 4490 4479 3536
4  154 149 4479 4490
4  4446 4450 4978 4985
4  4446 4451 4450 4985
4  4421 4155 4157 4450
4  652 601 596 3530
4  4446 4978 4984 4985
4  652 3045 3530 3526
4  4939 4563 4265 3860
4  3108 4263 4500 4266
4  190 97 95 2922
4  4132 3876 4133 4266
4  4129 3878 3307 4131
4  4734 3307 3878 4131
4  3812 3593 3592 3933
4  3621 3890 3435 4622
4  97 2922 3047 3048
4  4623 4625 4795 4622
4  4623 4624 3890 4622
4  3613 3399 3398 3125
4  3063 3338 3064 3060
4  4865 4725 4864 3398
4  3613 3128 3129 3125
4  4865 3601 4725 3845
4  4205 4208 3905 4206
4  5097 4212 4094 4207
4  5012 3852 5013 3317
4  135 881 10 3019
4  5071 5014 5013 3317
4  5044 4281 3396 4511
4  47 4922 3037 3038
4  4635 3659 3396 3738
4  4833 3456 3457 3317
4  3406 3396 5044 3659
4  3406 3266 3038 3659
4  2969 3017 2971 3467
4  3674 3657 3658 4633
4  3405 3638 3458 3622
4  5003 4783 4837 2891
4  4764 3465 3101 3092
4  3293 3396 4281 3397
4  3406 4279 4280 3397
4  4783 2891 2897 2898
4  3750 3144 2899 3026
4  3427 3176 3180 3179
4  5101 3634 3631 2952
4  3405 3407 3293 3397
4  4568 4798 5050 3360
4  3172 4502 3389 3390
4  3631 3629 2952 2947
4  4277 3716 4278 3718
4  4671 4795 4202 4200
4  4856 4278 4476 3717
4  4857 4623 4795 4504
4  4857 4389 3888 4396
4  526 468 464 3262
4  3981 2937 3881 2934
4  3162 3163 3652 4477
4  4855 4856 4823 2937
4  3629 3630 3787 3362
4  3209 4477 3207 3884
4  992 346 4418 4161
4  511 981 771 3654
4  4823 3881 3981 2937
4  4017 3803 4018 3802
4  5070 5043 2912 2906
4  3395 3293 3463 3462
4  5087 5068 4019 4967
4  611 880 856 2884
4  3525 4293 4292 3522
4  5046 2912 2914 3115
4  629 457 287 3183
4  3588 2959 3587 2957
4  3473 3477 3047 3048
4  4422 3630 3834 3181
4  4697 4806 4303 4314
4  1016 301 913 3788
4  233 230 629 3182
4  3791 5048 4423 3182
4  3866 4528 4514 3868
4  3473 4099 3476 4398
4  3473 3854 4099 4101
4  4455 4893 5095 5086
4  3382 3381 3830 3383
4  4602 3051 4267 4588
4  4890 4946 4941 4883
4  4115 4109 4107 4108
4  807 3483 3484 3479
4  3153 3156 3154 3152
4  5029 2972 3553 2974
4  5068 3804 3803 3802
4  4779 3149 3153 3150
4  4019 4018 4058 3214
4  3949 4047 4411 4046
4  3732 4112 4967 4965
4  3071 3085 4423 4749
4  5053 5088 5080 4112
4  3216 3806 3801 3665
4  3898 4242 3511 3856
4  4017 3803 4821 4018
4  701 4453 3734 3731
4  3948 3080 3079 3074
4  5081 4815 5017 4336
4  3226 3454 3227 3222
4  3357 4242 4092 4091
4  4881 4968 3748 3747
4  3565 3928 3746 3747
4  3040 3072 3077 3084
4  4814 4815 5081 4336
4  4720 3743 4639 3745
4  4655 4148 5010 4656
4  3574 4696 3776 3637
4  4582 4617 4583 4584
4  4312 4872 3112 3102
4  4942 4306 4941 4235
4  4495 4133 4496 4498
4  4374 3633 3701 4231
4  3348 3300 4377 3349
4  4373 3573 3572 3701
4  4132 4134 4494 4133
4  4290 5031 4883 4235
4  4263 3878 4132 4266
4  3252 4153 4066 3251
4  4878 3250 2992 4754
4  4272 3972 3973 3237
4  3875 4501 3876 4266
4  3492 3235 4657 4754
4  4499 4151 4363 4034
4  4741 4002 4003 3999
4  4740 4670 4668 4541
4  4657 3230 3231 3232
4  3410 3250 4657 3232
4  3900 3901 3902 4639
4  4619 4002 4741 3999
4  4167 4434 4487 4169
4  4434 3742 3893 4174
4  3538 3540 3761 4473
4  3932 2941 3570 2944
4  4997 4474 4651 3979
4  3760 3264 3761 3762
4  4650 3979 3539 4473
4  3909 3020 3094 3506
4  4969 4040 4048 4043
4  4644 4564 4939 4565
4  4940 4265 3877 3860
4  4969 4844 4205 4206
4  5094 3674 3670 4633
4  973 4628 4618 4161
4  60 3033 3379 3380
4  42 41 4775 3276
4  3431 4595 4428 3432
4  95 97 98 2923
4  4460 4467 4082 4461
4  3889 4830 3367 3886
4  95 2922 97 2923
4  1028 488 4726 3805
4  4966 4107 5025 4965
4  723 488 1028 3805
4  4599 3082 4898 3133
4  3130 3109 3131 3133
4  3109 3108 4587 3083
4  3848 3545 4044 3667
4  4734 4130 3308 3307
4  3108 4267 4266 4498
4  766 3353 3548 3351
4  766 509 3254 3548
4  1028 488 489 4726
4  4301 4954 4030 4029
4  3209 3162 3736 3256
4  4501 4496 4133 4498
4  4324 4325 4736 4130
4  4535 4497 4495 4307
4  4943 4405 4912 4406
4  4964 4406 4527 4526
4  4964 4515 4527 4406
4  4514 4527 4515 4406
4  4711 4937 4712 4709
4  4962 4833 4835 3851
4  4405 3939 3938 3940
4  4558 4912 4057 3938
4  4911 4558 4912 4708
4  3937 4515 4911 3938
4  3937 3939 3938 4055
4  923 4847 967 3689
4  5028 4128 3368 3009
4  5035 3374 5069 3375
4  1016 913 966 2949
4  233 65 230 3789
4  5048 3181 4423 3182
4  5084 4127 5069 4488
4  5035 4128 5028 3374
4  2914 4164 4875 3066
4  3538 3926 4146 3540
4  4291 3539 3540 3896
4  3897 3896 3542 3543
4  4123 4121 4452 3731
4  3253 4066 4750 3250
4  3708 3492 4657 4754
4  3733 3734 3731 3480
4  4676 4690 4059 4062
4  3039 3040 3950 3084
4  4040 4371 4370 3186
4  4570 3947 3948 3071
4  4127 4124 4128 3371
4  4111 4452 4121 3730
4  4111 3730 4116 4108
4  3386 4126 4718 4488
4  4987 4560 4982 4980
4  967 913 802 3229
4  3595 3596 3518 3222
4  3313 3315 3851 3317
4  4917 4989 4988 4980
4  4342 3805 4726 3352
4  723 726 3394 3805
4  3669 3668 3664 3663
4  4156 4157 4253 4989
4  1002 4453 701 3731
4  4421 4984 4978 4979
4  888 848 682 3597
4  4109 4110 4108 4256
4  4419 4915 3965 3971
4  3784 3783 3970 3967
4  860 847 119 3484
4  4254 4071 4255 4110
4  3785 4921 3782 3783
4  860 701 807 3484
4  4254 4255 4071 3482
4  4678 4121 4120 4116
4  4255 3482 3730 4246
4  1020 4675 3326 2924
4  5027 4685 4688 4420
4  3326 4675 3328 2924
4  4915 3966 3971 4420
4  744 4737 3557 4738
4  437 4378 1019 3556
4  437 3557 4378 3556
4  125 4738 307 3824
4  4419 4039 4022 4420
4  3965 3966 4069 3783
4  4575 3991 4300 3993
4  4347 3991 4575 4348
4  307 3496 3714 3917
4  4534 4495 4535 4497
4  469 106 108 3795
4  3102 4699 4698 3104
4  3972 3974 3973 3237
4  4419 4037 3971 4204
4  3037 3252 3034 3267
4  45 170 47 3037
4  4203 4039 4419 4204
4  4022 4971 4983 4688
4  4148 4149 4598 4656
4  4411 3950 4046 4049
4  4051 4969 4040 4048
4  4445 4197 4729 4447
4  4370 4379 4046 4041
4  4051 4371 3408 3185
4  4408 4049 3413 3976
4  3774 4443 4543 3775
4  878 856 880 2882
4  5038 4543 4727 4192
4  4683 4043 4041 3359
4  973 57 605 3378
4  3639 3646 4548 4294
4  3247 3252 3000 2991
4  10 712 137 3337
4  3638 3056 3458 3622
4  3379 3033 3253 3380
4  605 59 3382 3378
4  3379 3253 3707 3709
4  973 3377 3376 4161
4  626 621 506 3192
4  3648 4831 3649 3650
4  4345 3209 3736 3256
4  3651 4859 4456 3639
4  4859 4860 4456 3639
4  1024 3172 3389 3390
4  403 3824 3495 3488
4  4906 4087 4088 4090
4  4737 4961 4771 4268
4  3434 3387 3386 3428
4  2932 3919 3208 3569
4  162 3908 3440 3054
4  3466 4870 2970 2969
4  1029 5047 759 3755
4  941 940 191 3756
4  759 3426 940 3755
4  3757 3756 3177 3169
4  728 397 117 5039
4  728 822 4433 2989
4  3203 3204 3030 3087
4  3323 3676 3325 3321
4  3677 4789 3798 4248
4  3691 3690 3679 3029
4  2905 2902 5043 2904
4  4508 4699 2889 3148
4  546 3403 4240 3927
4  4786 3770 2995 2998
4  3030 3086 3066 2917
4  5041 5059 3523 2913
4  5059 5060 5092 3524
4  365 378 3727 3726
4  3333 4258 4869 3103
4  4262 4259 4258 4261
4  4296 2904 2903 3646
4  4219 4075 4074 4061
4  5060 2913 2912 3117
4  117 118 123 2988
4  4251 3765 3259 3762
4  4472 4291 3539 3540
4  4146 3140 3768 3264
4  3094 2943 3140 2944
4  4653 3869 4346 3269
4  4359 3268 3270 3271
4  3051 3083 4267 4588
4  4898 3082 3051 3050
4  3570 3926 3540 2944
4  3130 3107 3109 3050
4  3109 3082 3083 3198
4  4972 4212 4818 4211
4  4066 3239 4750 3232
4  4066 3411 3239 3232
4  4818 4212 4210 4211
4  4972 4094 4212 4211
4  4915 3965 3966 4069
4  3234 3239 4272 3233
4  4608 3231 3236 3238
4  839 98 3047 3043
4  4067 4271 3238 4607
4  5031 4381 4374 4231
4  4093 4206 4043 4207
4  4660 4659 4840 4836
4  4924 4697 4289 4698
4  5063 3052 4588 4886
4  4826 4374 4010 4381
4  4941 5031 4489 4235
4  4942 4941 4489 4235
4  5031 4374 4489 4231
4  4234 4373 4826 4231
4  5063 3051 4588 3052
4  3520 2904 4548 2887
4  4166 4434 4167 4169
4  4434 4172 4169 4171
4  3442 3432 3444 4429
4  4642 3431 4334 3444
4  4167 4487 4084 4299
4  3024 2899 3729 3025
4  4580 3999 4000 4383
4  4682 5081 4930 4338
4  5017 4336 4104 4902
4  4586 4528 4530 4526
4  4421 4978 4155 4450
4  4619 4670 3998 3999
4  4521 4585 3864 4001
4  4255 4116 4257 4246
4  4003 4000 3999 4001
4  4596 3864 4528 4001
4  4521 3864 4004 4001
4  4152 4004 4151 4150
4  723 1028 726 3805
4  489 488 490 3256
4  600 3044 3544 3530
4  4275 4276 4274 4016
4  4275 4016 4182 4177
4  676 723 3394 3217
4  4370 3186 3185 3183
4  4193 4194 4728 4195
4  4731 4688 4687 4195
4  4728 4194 4197 4195
4  3949 4050 4047 4046
4  4733 3990 4732 3260
4  3358 4683 4041 3359
4  4969 4206 5097 4043
4  4825 4480 4732 4481
4  4825 4732 4799 3260
4  4825 4733 4213 4481
4  4027 3990 4481 4026
4  4482 4156 4213 4158
4  4421 4981 4984 4979
4  3984 3260 4252 3987
4  3984 4733 4252 3260
4  4825 4213 4480 4481
4  4451 4450 4444 4443
4  5066 4444 4450 4443
4  5068 5088 4966 4967
4  5080 4019 3733 4967
4  5066 4444 4215 4450
4  4132 4129 4134 4131
4  4071 4691 4247 4257
4  4076 4060 4554 4062
4  4132 4494 4495 4133
4  3801 3214 3733 3478
4  4494 4135 4136 4029
4  4116 4679 4246 4117
4  3875 3877 4265 3878
4  4496 4135 4133 4307
4  808 807 104 3483
4  4501 4496 3876 4133
4  4132 4134 4133 4131
4  4247 3484 4246 4117
4  4254 3483 3481 3482
4  4135 4900 4735 4136
4  847 808 4247 3484
4  4493 4149 4582 4583
4  4154 4583 4034 3913
4  4612 4613 4615 4584
4  3786 4416 4612 3914
4  4866 4613 4612 4416
4  4903 4720 3900 4663
4  3748 3749 4720 3745
4  4899 4666 4808 4663
4  4903 3748 4720 3745
4  3031 4761 4808 4909
4  4664 3900 4803 4665
4  4903 3900 4664 4663
4  190 2922 189 2921
4  4861 4899 4757 4665
4  4861 4807 4899 4665
4  3503 3504 4478 3543
4  190 189 6 2921
4  4484 3681 4816 4485
4  3080 3941 3081 3084
4  4998 4684 4652 4651
4  3413 4049 3950 3976
4  5010 4401 3865 3269
4  4410 4411 3978 3976
4  4409 3413 3950 3976
4  4408 4474 4997 3979
4  5010 4148 4597 3865
4  4411 4998 3978 4049
4  3791 4749 3085 3789
4  4850 3593 4769 2966
4  131 3418 709 3063
4  3915 3914 3913 3911
4  3531 3819 4895 3416
4  3881 2937 3884 2934
4  5000 3811 3715 3917
4  4269 3347 5082 3340
4  4269 4867 3137 3874
4  4088 4089 5082 3870
4  4850 4851 5067 4767
4  3958 3381 3376 3829
4  4483 4160 4694 3704
4  605 57 59 3378
4  346 583 3829 3383
4  4502 3391 3191 3888
4  3499 3501 3508 3502
4  903 857 694 3840
4  319 991 244 3429
4  4877 4875 4244 3088
4  3057 3384 3054 3055
4  538 541 602 3515
4  5078 3434 4846 3386
4  997 3839 3172 3390
4  3508 3509 5062 3502
4  5061 4887 5062 3513
4  24 25 3056 3622
4  4320 3512 3680 3517
4  4885 3509 3199 3513
4  775 3454 3453 3683
4  4949 3702 4751 3700
4  3405 3614 3458 3295
4  3512 3199 3200 3202
4  3512 3510 3511 3502
4  3680 3203 3512 3615
4  5062 4887 4888 3513
4  3079 3085 3071 3074
4  822 117 123 2983
4  759 25 656 3636
4  72 3161 3077 3789
4  3941 4411 4410 3950
4  5057 4045 5022 3353
4  4407 2961 3976 3977
4  4409 3976 4104 3977
4  4105 4106 4755 4103
4  3791 3085 3161 3789
4  4870 3462 3737 3738
4  3427 3176 3407 3014
4  3406 3266 3247 3038
4  4749 3182 3184 3789
4  65 72 230 3789
4  5073 3931 4874 4763
4  3466 3017 2969 3467
4  3885 4392 3887 3886
4  191 3424 3468 3425
4  4874 4632 4634 3090
4  233 3182 3791 3789
4  5078 3386 4718 4488
4  233 629 630 5048
4  4947 4623 3890 4622
4  3172 3188 3174 3191
4  4122 5039 4120 4119
4  397 4122 119 4119
4  2986 2984 3298 2983
4  4109 4059 4692 4256
4  4071 4247 3483 4246
4  4071 4073 4691 4061
4  4676 4059 4256 4062
4  615 900 612 2906
4  3898 4848 4242 3856
4  4184 4181 4325 4176
4  4325 4801 4992 4323
4  4991 5034 4993 4953
4  4992 4991 5034 4993
4  3895 4209 3904 3543
4  4995 4835 4848 3312
4  3031 3028 4899 4761
4  3921 3542 3896 3543
4  3537 3921 3926 3896
4  3928 5001 4909 3747
4  4367 4366 4364 4249
4  4689 4367 4364 3686
4  4146 3926 3094 2944
4  4689 4364 4592 4365
4  4589 3642 3643 4365
4  3904 3921 3896 3543
4  4807 4803 4209 3902
4  4440 3723 4441 4249
4  3643 4364 3686 4365
4  3723 3686 4364 4249
4  193 4859 3916 3404
4  4652 4208 3537 3539
4  4362 4499 4766 4363
4  4229 4231 4234 4232
4  4233 4489 4231 4232
4  4229 4377 4373 4230
4  4652 3905 4208 4206
4  4316 4317 4695 4436
4  4210 3895 4209 3906
4  4562 4429 4143 4140
4  4600 4601 4599 3578
4  4141 3935 4137 4140
4  4426 3303 4143 3304
4  4138 4562 4144 4143
4  676 3217 3394 3350
4  4831 4170 4928 4458
4  4031 3977 4105 4103
4  4106 2960 4551 2963
4  3068 3070 3069 3506
4  3570 2941 3542 2944
4  4860 4928 3565 4171
4  4421 4917 4987 4980
4  4746 4984 4981 4748
4  4984 4979 4981 4748
4  878 4859 856 2882
4  4940 4565 4265 3860
4  4746 4715 4747 4748
4  4506 4427 4426 3303
4  3306 4734 3308 3307
4  4426 3302 4507 3303
4  4421 4986 4980 4979
4  4445 5102 4729 4197
4  4086 4832 4080 4082
4  4298 4486 4198 4083
4  4469 4021 4020 4085
4  4020 4021 4023 4085
4  5066 4444 4443 3775
4  4469 4471 4470 4394
4  4507 4324 4129 3307
4  4324 4130 3307 3305
4  3876 4734 3878 4131
4  4301 4136 4954 4029
4  4135 4900 4136 4029
4  4322 4130 4323 4176
4  4322 4735 5034 4323
4  4735 4900 5034 4136
4  4992 5034 4991 4954
4  4734 4135 4735 4131
4  4030 4302 4954 4026
4  4900 4302 5034 4954
4  1029 3754 5047 3755
4  4129 4324 4130 3307
4  4598 3863 4150 3865
4  4521 4151 4004 4150
4  4586 4530 4528 4001
4  834 481 436 3560
4  5053 5080 4111 4112
4  4154 4583 4149 4034
4  4493 4147 4582 4149
4  4120 2986 4679 4119
4  4453 4452 4812 3734
4  4615 4614 4598 4656
4  3216 3801 3214 3802
4  4549 4254 3732 4965
4  970 936 4924 3110
4  3660 3804 3807 3665
4  3481 3393 3478 3212
4  5027 3966 4685 4420
4  5021 3546 3735 3548
4  3207 3919 2932 2937
4  4270 3972 4272 3237
4  3716 3719 3167 3291
4  3719 3720 4391 3167
4  4915 3966 3965 3971
4  4810 4994 3719 3718
4  4210 4212 3895 3906
4  4210 4209 4807 4817
4  4861 4817 4807 4665
4  4090 3420 4957 3713
4  3899 4803 3900 3902
4  934 3393 343 3350
4  3904 4803 3899 4209
4  771 3287 890 3255
4  3216 3392 3217 3215
4  344 343 934 3393
4  4517 4556 4755 4064
4  4811 4812 4058 3213
4  3978 3980 3975 2961
4  4549 3393 3801 3478
4  723 3805 3394 3217
4  3218 3219 3213 3215
4  847 807 808 3484
4  4408 4475 3979 2961
4  4764 3281 3465 3016
4  3013 3738 4633 3015
4  4255 4108 4110 4256
4  5067 4767 4851 3815
4  3959 4873 3956 3957
4  4932 5067 4933 5058
4  584 3831 4806 3961
4  68 67 69 3959
4  258 406 3918 3488
4  3855 3518 3739 3222
4  4089 4771 3874 3825
4  4957 3475 3713 3422
4  262 891 307 4738
4  3951 3515 4079 3519
4  3714 3555 4738 3917
4  4378 3558 3541 3813
4  3811 3560 3555 3814
4  422 3516 3596 3222
4  538 682 683 3951
4  893 4764 4839 3100
4  719 871 720 3284
4  538 541 3515 3519
4  4931 3558 4772 3470
4  319 244 3384 3388
4  4771 3825 3469 4268
4  4719 4623 4857 4624
4  3006 3367 3009 3365
4  797 3054 3384 3055
4  3436 4239 3438 4718
4  409 971 3794 4924
4  409 3794 22 3147
4  4316 4303 4305 4319
4  403 3495 3494 3488
4  3146 3794 4508 3148
4  3795 4869 3112 3106
4  307 4738 3495 3824
4  4088 4089 3870 3873
4  620 672 621 4959
4  4089 3874 3340 3873
4  5099 4822 3347 2939
4  307 405 3494 3496
4  3136 3919 3135 4723
4  4781 3958 4160 3705
4  3382 4695 3831 3830
4  4897 3601 4865 3845
4  3844 3414 3608 3845
4  3844 4926 3625 3414
4  3414 3065 3418 3064
4  4932 4907 5058 3712
4  3823 4724 3821 3822
4  584 583 604 3831
4  3382 3379 3707 3381
4  346 605 583 3383
4  3830 3829 3961 3383
4  4418 4454 4628 4161
4  3955 4514 3940 3868
4  4854 4856 4724 3717
4  4724 4722 3821 3822
4  161 4853 83 3818
4  3339 3137 3342 2933
4  779 967 780 3688
4  4910 5091 3143 2938
4  4855 4823 4910 2937
4  5091 4822 3143 2938
4  4024 4960 4327 3150
4  4960 3149 4779 3150
4  2952 2951 2945 2948
4  775 963 779 3683
4  117 119 4117 4119
4  214 4123 860 4118
4  832 3025 3580 3582
4  3730 4116 3484 4118
4  4788 4789 5064 4790
4  5062 4888 3500 3513
4  4789 4248 4790 4439
4  3677 5008 5064 4248
4  940 3754 3755 3756
4  3671 5044 3396 3659
4  3680 3512 3200 3517
4  4164 4162 4875 3066
4  686 3449 3285 3242
4  4245 3509 4079 3510
4  541 3515 3519 3202
4  4828 4674 3617 4388
4  3093 3542 3094 3506
4  4674 4672 4707 4936
4  3651 4392 3885 3886
4  4791 2995 3770 2996
4  67 3960 3959 3829
4  4695 4693 3704 3412
4  5023 5024 4722 4723
4  4832 4299 4082 4461
4  4483 3705 4160 3704
4  4782 4694 4483 4160
4  346 973 605 3376
4  4170 4168 4460 4169
4  4831 4830 4459 4457
4  4533 4532 4550 4072
4  3131 3133 3577 3578
4  3131 3109 4546 3133
4  3746 3742 4892 3744
4  3748 4909 3747 3745
4  4601 4545 3195 3577
4  4254 4531 4071 4072
4  4531 4532 4074 4072
4  4599 4601 3577 3578
4  4892 3744 4434 4171
4  3030 3066 2920 2917
4  3576 4531 4254 4550
4  4716 4617 4582 4584
4  4615 4598 4152 4149
4  4934 3820 3819 3535
4  4154 4615 4152 4149
4  5010 4401 4656 3865
4  3576 3577 4532 4550
4  4842 4366 4364 4369
4  3253 4750 3707 4754
4  4375 4230 4236 3701
4  4644 4564 4565 4643
4  4399 4401 4653 3270
4  3901 4636 3504 4639
4  3901 4721 3909 4636
4  4957 3421 3431 3422
4  4141 4143 4429 4140
4  3684 4440 3685 4249
4  3310 4322 4183 4176
4  4275 4179 4184 4177
4  3722 3684 5008 3685
4  5049 3325 3678 3327
4  3302 3311 4175 3305
4  3684 3641 3643 3686
4  4175 4184 4325 4176
4  4325 4181 4323 4176
4  3651 3650 4456 4457
4  344 103 343 3212
4  4831 4459 4170 4168
4  4462 4168 4459 4457
4  3730 4116 4246 3484
4  4737 3469 4738 4268
4  103 3481 104 3479
4  4170 4168 4171 4458
4  104 3481 3483 3479
4  3134 3136 4868 2940
4  3497 3498 3423 3346
4  4961 4867 4771 4925
4  4566 4798 4568 4567
4  3823 4854 4724 3717
4  4277 4854 3823 4278
4  3823 4278 3717 3718
4  5024 4853 3821 3818
4  3719 3718 3297 3291
4  4370 3073 3039 4046
4  4724 4856 2937 3717
4  3628 3363 3358 3355
4  4683 3363 4093 4043
4  3772 3770 3246 2999
4  3246 2999 3770 3243
4  3772 4791 3770 2996
4  3772 5095 2994 3710
4  2994 5086 3711 3710
4  4272 3973 4616 3233
4  4270 4272 4271 3237
4  4320 4242 4091 4485
4  4269 3347 3340 2939
4  4898 3050 3132 3133
4  3807 4898 3662 3132
4  3049 4343 3052 4340
4  3234 4272 4616 3233
4  3236 3974 4916 3237
4  4599 3195 3082 3133
4  4660 4603 4756 4886
4  4660 4756 4661 4886
4  3972 3965 4630 3967
4  4089 4087 4771 3825
4  4659 4658 4339 4886
4  4304 4698 4699 4883
4  4616 3972 4630 3973
4  2889 2895 4261 2890
4  756 4315 935 3110
4  4608 3237 4916 4204
4  4320 4485 3680 3615
4  4484 4816 4092 4485
4  4318 4319 4942 4232
4  4942 4489 4233 4232
4  3707 4750 3299 4754
4  4857 4795 4671 4504
4  4393 4469 4503 4394
4  4620 4503 4199 4200
4  4210 3903 4211 3906
4  4793 4606 4036 4201
4  4210 4211 3903 4817
4  4901 4664 4803 4665
4  4086 4085 4394 3997
4  4671 4202 4470 4200
4  4972 4092 4094 4211
4  3680 4818 3681 4485
4  3274 3273 3868 3275
4  4551 3763 4824 3766
4  329 4491 3290 3289
4  3694 3781 3968 3970
4  6 0 9 3290
4  4915 4070 3965 4069
4  3784 3965 4070 3783
4  329 3561 4491 3289
4  4934 3445 3535 3447
4  4775 2958 3276 3280
4  4129 4130 4736 4131
4  256 3916 1022 3838
4  3875 3878 4265 4266
4  1022 3916 3173 3838
4  995 3433 3450 3430
4  5028 3368 4843 3369
4  4462 4459 4461 3886
4  2902 3927 2903 2883
4  3898 3096 3312 3228
4  3512 3510 3199 3202
4  857 3324 3838 3840
4  731 422 919 3221
4  3517 3516 3739 3518
4  731 3221 4321 3739
4  3855 3501 3511 3518
4  4113 4115 5053 4111
4  68 67 3959 3829
4  4841 5006 4160 4311
4  5086 3705 4483 3706
4  4018 3666 3218 3802
4  4159 4160 3703 4317
4  775 779 780 3857
4  155 4813 3219 3213
4  4254 3481 3732 3482
4  4107 4965 4112 4110
4  888 848 3597 3454
4  511 771 509 3653
4  981 3223 1005 3296
4  888 3597 3453 3454
4  962 775 3453 3683
4  488 4726 3805 3352
4  155 3220 3350 3215
4  494 493 4811 3213
4  3478 3482 3479 3480
4  848 775 780 3857
4  3687 3683 3827 3316
4  962 3453 4990 3683
4  888 962 775 3453
4  4627 2999 3241 4618
4  779 963 3687 3683
4  962 4990 964 3683
4  4453 4812 4811 3734
4  695 493 701 3734
4  4123 4452 4453 3731
4  214 860 119 4118
4  4116 4117 3484 4118
4  701 3731 3734 3480
4  1002 701 860 3731
4  4887 4885 3204 3513
4  682 683 3951 3596
4  1050 3389 3385 3384
4  5061 4885 4887 3513
4  3500 3511 3501 3502
4  3508 5061 5062 3509
4  4162 4885 4244 3086
4  936 4697 4924 3110
4  4159 4305 4309 4311
4  4162 4885 3086 3204
4  68 3959 4418 3829
4  583 604 3831 3383
4  834 596 481 3560
4  3199 3088 3086 3087
4  307 3496 3495 3714
4  4908 4162 3604 3204
4  837 834 1019 3529
4  601 600 596 3530
4  5082 3347 3870 3340
4  4849 5047 4752 3908
4  3525 3524 4293 3522
4  2905 2904 5043 2906
4  4849 3908 4237 3440
4  389 5074 319 3387
4  3436 3391 3386 3384
4  468 3262 4904 3263
4  4326 2972 5029 2974
4  5098 4296 4295 4293
4  5042 4164 4165 3067
4  5059 5092 3523 3524
4  5059 5098 5092 5060
4  5092 4295 4292 4293
4  4296 2903 3808 3646
4  758 9 329 4491
4  3595 3454 3596 3222
4  3597 3594 3455 3454
4  5098 3809 4295 4296
4  4296 5043 2902 2904
4  3809 4296 3808 3646
4  962 963 775 3683
4  506 3567 3194 3568
4  741 803 802 3514
4  741 742 803 3097
4  4298 4082 4486 4083
4  4167 4299 4460 4169
4  4487 4174 4187 4299
4  4009 4673 4945 4386
4  4529 4525 4672 4524
4  4672 4943 4707 4525
4  3629 3787 2953 2947
4  3508 3501 3509 3502
4  5091 5099 3143 4822
4  4856 3881 2937 3717
4  4822 3341 3347 2939
4  672 4959 4961 4925
4  3143 4822 5099 2939
4  4711 4710 4525 4936
4  4233 4236 4375 4230
4  4269 4089 4867 3874
4  4233 4230 4435 4436
4  3567 3487 3193 3568
4  4910 3143 3136 2938
4  4395 4470 4468 4394
4  3207 3717 2937 3884
4  4855 5091 4910 4823
4  4853 3817 3818 3225
4  2932 3569 3208 3206
4  5023 4722 3136 4723
4  4036 4201 4606 4204
4  4671 4394 4395 4396
4  4393 4086 4469 4394
4  871 135 720 3283
4  3885 4393 3174 3887
4  4392 4461 3997 3886
4  871 1000 135 3281
4  3899 3505 3921 3543
4  3899 3901 3505 3504
4  4339 3052 5063 4886
4  4898 3050 3049 4343
4  3049 3051 5063 3052
4  4819 4339 3983 4340
4  720 135 136 3011
4  893 881 4764 3100
4  3331 3330 3334 2894
4  3003 5026 4783 2897
4  4344 4343 3049 4340
4  3005 4262 3333 3002
4  3004 5026 3003 2897
4  3329 3330 5007 2900
4  3929 3928 3116 2911
4  5098 4295 5092 4293
4  5054 2959 2958 2954
4  3541 3813 2964 3528
4  3674 4591 3675 3658
4  5094 4632 3674 4633
4  3673 3675 4787 3672
4  3284 4591 3282 3285
4  3465 3016 3657 3090
4  3675 3626 3240 3672
4  4345 3736 4344 3668
4  934 676 726 3394
4  3576 4547 4531 4532
4  4076 4075 4060 4061
4  983 723 676 3220
4  493 343 103 3212
4  3218 3545 3219 3220
4  4071 4692 4110 4072
4  3804 3802 3801 3665
4  3216 3214 3218 3802
4  3218 3664 3545 3217
4  983 766 723 3351
4  488 4726 3352 3547
4  3945 3946 4331 4055
4  3939 3945 4057 4055
4  4056 4052 4053 4560
4  4619 4369 4741 4002
4  4842 4766 4741 4369
4  4056 4987 4052 4560
4  4135 4300 4900 4029
4  4028 4494 4301 4029
4  4575 4300 4135 4307
4  4597 3864 3866 3275
4  4134 4736 4301 4136
4  3877 3876 4734 3878
4  4630 3784 3970 3967
4  3302 4324 4507 3305
4  3694 3693 3777 3637
4  4466 3969 4335 3695
4  3573 4335 3574 3695
4  4630 3965 3784 3967
4  4426 4142 3302 3304
4  3306 3877 4734 3307
4  4507 4324 3307 3305
4  3309 3306 3308 3305
4  4182 4014 4179 4177
4  4273 4275 4175 3311
4  3302 4175 4324 3305
4  4335 3784 4696 3970
4  4735 4136 4130 4131
4  4736 4992 4301 4136
4  3694 3970 3968 3969
4  4464 3694 3968 3969
4  4630 3970 3969 3967
4  4296 5060 5043 2904
4  4563 4507 4129 3307
4  4056 4053 4057 4560
4  4516 4052 4054 4055
4  4801 5033 4993 4181
4  3945 4054 4053 4055
4  3647 3648 3649 3646
4  4052 4800 4054 4918
4  4813 4045 5057 3219
4  2903 2904 4548 3646
4  3565 3520 4548 2887
4  3673 3670 3658 3672
4  4984 4985 4979 4748
4  4632 3465 3282 3657
4  135 3281 3016 3283
4  4987 4982 4981 4980
4  207 687 685 3244
4  4056 4558 4987 4560
4  4917 4253 4800 4918
4  2990 3709 3771 3710
4  934 3394 3393 3350
4  992 4418 4628 4161
4  3339 3137 2939 3342
4  344 343 3393 3212
4  4959 3139 4867 4925
4  4342 3664 3805 3352
4  343 155 676 3350
4  5104 5105 1051 1040
4  5105 5104 1051 3055
4  5104 3056 1051 3055
4  1051 3056 25 3055
4  1049 5105 5106 1040
4  5105 1049 5106 3055
4  1049 1050 5106 3055
4  5106 1050 3385 3055
4  1051 5105 1042 1040
4  5105 1051 1042 3055
4  1051 25 797 3055
4  1042 1051 797 3055
4  1043 5104 1051 1040
4  5104 1043 1051 3056
4  1043 24 25 3056
4  1051 1043 25 3056
4  1042 5105 1049 1040
4  5105 1042 1049 3055
4  1042 797 1049 3055
4  1049 797 1050 3055
4  5106 5105 5104 1040
4  5105 5106 5104 3055
4  5106 3385 5104 3055
4  5104 3385 3056 3055
4  5107 5108 1091 1084
4  5108 5107 1091 3917
4  5107 5000 1091 3917
4  1091 5000 1092 3917
4  1091 5108 1086 1084
4  5108 1091 1086 3917
4  1091 1092 1086 3917
4  1086 1092 891 3917
4  1086 5108 5109 1084
4  5108 1086 5109 3917
4  1086 891 5109 3917
4  5109 891 3814 3917
4  5109 1094 1083 1084
4  1094 5109 1083 535
4  5109 3814 1083 535
4  1083 3814 481 535
4  5109 1083 1086 1084
4  3814 481 891 5110
4  1086 1083 5109 5110
4  5109 1083 3814 5110
4  481 3814 1083 5110
4  1083 1086 481 5110
4  891 481 1086 5110
4  1086 5109 891 5110
4  3814 891 5109 5110
4  5111 5109 5107 1084
4  5109 5111 5107 3814
4  5111 4809 5107 3814
4  5107 4809 5000 3814
4  5109 5108 5107 1084
4  5108 5109 5107 3917
4  5109 3814 5107 3917
4  5107 3814 5000 3917
4  5111 1094 5109 1084
4  1094 5111 5109 535
4  5111 4809 3814 535
4  5109 5111 3814 535
4  4032 4519 5112 5113
4  4493 5114 5115 5113
4  5116 5117 5118 5113
4  5119 5116 5120 5113
4  5121 5119 5120 5113
4  5117 5115 5114 5113
4  3937 5122 5123 5124
4  2458 5125 5126 5124
4  4056 5125 5127 5124
4  5128 5127 5129 5124
4  5126 5125 5123 5124
4  2465 5130 2527 5131
4  5132 5133 5128 5131
4  2511 2431 5128 5131
4  5128 5131 5133 5124
4  5134 5135 5136 5137
4  2504 5135 5134 5137
4  4997 5138 5139 5140
4  4408 4475 5141 5140
4  1514 5142 1480 5143
4  4475 5144 5145 5140
4  5141 5146 5138 5140
4  5145 5146 5141 5140
4  5147 5128 5127 5129
4  5148 5147 5127 5129
4  3952 5149 5150 5151
4  4558 5127 5128 5124
4  5125 5129 5127 5124
4  2511 5128 5129 5124
4  5152 5153 5154 5155
4  4247 5154 5156 5155
4  5153 5157 5158 5155
4  1289 5158 5157 5155
4  1279 1339 5152 5155
4  4066 4153 5159 5160
4  1278 5156 1289 5155
4  2514 5161 5162 5163
4  2446 5162 5164 5163
4  2446 5164 2197 5163
4  5165 5164 5166 5163
4  2259 5165 5166 5163
4  5167 5168 5169 5170
4  4808 5169 5171 5170
4  5172 5173 5174 5170
4  4808 4662 5169 5170
4  4860 3563 4859 5175
4  4860 4859 4456 5175
4  5142 5176 5143 5177
4  5178 5175 5179 5180
4  4166 5175 5178 5180
4  4346 3952 3953 5149
4  1263 5181 5182 5183
4  1566 1263 5182 5183
4  2253 2449 2469 5184
4  4984 4978 5185 5186
4  4279 4280 4286 5187
4  4978 5185 5186 5183
4  1566 5182 5186 5183
4  1567 5185 5188 5183
4  5189 5190 5191 5192
4  4052 5193 5123 5192
4  4052 4800 5193 5192
4  4800 5194 5193 5192
4  5150 5195 5196 5197
4  4283 5150 4346 5197
4  4286 5198 5199 5160
4  4360 5200 5195 5197
4  5150 5196 5201 5197
4  4361 5201 5202 5197
4  5202 5203 5204 5201
4  5204 5196 5200 5197
4  5205 5206 5207 5208
4  1398 5209 5210 5208
4  3494 3496 5211 5212
4  5213 5214 5215 5216
4  5217 5143 5218 5219
4  1127 5220 1119 5208
4  1119 5220 5206 5208
4  3565 3563 4860 5180
4  3563 3564 5179 5173
4  3928 3564 3565 5173
4  3928 5173 3746 5170
4  5172 5179 5173 5180
4  5172 5178 5179 5180
4  5172 5221 5174 5179
4  5172 5179 5174 5173
4  1465 5222 5223 5224
4  1465 5225 1466 5224
4  1467 5226 5222 5224
4  5227 5222 5228 5224
4  1466 5225 5229 5224
4  5226 5221 5172 5224
4  5172 5221 5229 5224
4  4547 5230 5231 5232
4  2511 2458 2465 5124
4  5233 5234 5235 5232
4  4547 5236 4534 5232
4  4546 4587 5233 5232
4  4808 5171 5168 5170
4  3564 5174 5173 5170
4  5237 5238 5239 5169
4  5167 5237 5239 5169
4  4808 4666 5171 5169
4  4662 5240 4637 5169
4  5240 5172 5167 5170
4  3564 3929 5174 5170
4  4808 5168 3929 5170
4  1557 1498 1555 5241
4  2458 2531 2386 5242
4  3937 4516 4056 5123
4  5243 5244 5245 5246
4  5241 5247 5248 5246
4  4330 3937 3955 5249
4  4132 5248 5247 5246
4  5250 5241 5251 5246
4  4563 5251 4132 5246
4  5245 5244 5247 5246
4  4519 4521 4520 5121
4  5119 5252 5253 5120
4  5116 5118 5112 5113
4  5116 5112 5120 5113
4  4520 5254 5255 5120
4  5255 5116 5112 5120
4  5256 5257 5258 5259
4  5214 5260 5257 5259
4  1472 5261 5258 5259
4  5213 5261 5215 5259
4  2436 5262 5249 5263
4  2492 5262 2436 5263
4  2492 5151 5262 5263
4  3955 5264 5249 5263
4  3953 3955 5262 5263
4  3953 3955 4514 5262
4  2386 2534 2436 5265
4  3953 5262 5151 5263
4  4792 5266 4605 5166
4  2498 2221 2369 5135
4  2259 5266 5267 5166
4  5268 5198 5165 5166
4  5269 5270 5271 5272
4  4991 5194 5273 5272
4  4991 4253 5274 5272
4  5273 5271 5275 5272
4  4952 5275 4482 5272
4  2067 5276 5277 5278
4  4330 5190 3937 5249
4  5277 5276 5266 5278
4  5126 5123 5279 5242
4  2485 5196 5203 5201
4  4619 3998 5280 5281
4  3955 3937 4515 5249
4  5282 5283 5281 5284
4  4740 5285 5286 5284
4  5254 5286 5282 5284
4  2384 2436 5287 5265
4  5249 5242 5122 5265
4  2534 5249 2436 5265
4  2465 5130 5122 5265
4  2465 2384 5130 5265
4  5249 5130 5287 5265
4  2531 2532 2534 5279
4  2531 5279 2534 5242
4  5123 5190 5279 5242
4  2458 5122 5126 5242
4  1506 1512 1207 5288
4  2386 5122 5242 5265
4  2534 5242 5249 5265
4  4290 4827 4826 5289
4  2458 5126 2531 5242
4  5290 5291 5292 5230
4  4051 4969 4997 5293
4  5231 5292 5158 5291
4  4283 4360 4182 5195
4  3483 5290 5292 5230
4  2386 2384 2465 5265
4  5231 5294 5292 5230
4  3483 5292 5294 5230
4  3576 4546 5290 5230
4  4531 5231 4547 5230
4  4661 4660 5295 5296
4  4341 4756 4661 5296
4  4756 5297 4603 5296
4  4603 5297 5298 5296
4  5297 5299 5298 5296
4  4660 5300 5295 5296
4  5178 5301 5302 5175
4  4892 4166 5178 5180
4  4860 5175 4166 5180
4  4419 5303 5161 5162
4  1386 5302 4859 5175
4  3565 4892 5173 5180
4  4377 4373 5304 5305
4  4373 5306 5304 5305
4  2363 5307 24 5308
4  5309 5310 5311 5305
4  5309 5311 5312 5305
4  5313 5310 5311 5314
4  5315 5316 5289 5314
4  2388 5317 4924 5314
4  4290 5313 4234 5314
4  4924 4882 4289 5314
4  4924 5317 4882 5314
4  4290 5289 5313 5314
4  936 2388 971 4924
4  3937 4516 5123 5190
4  1450 5238 5318 5319
4  1450 5318 1444 5319
4  1480 5320 5238 5319
4  4086 5321 5322 5323
4  4210 3895 5176 5324
4  4210 5325 4807 5324
4  4807 5238 4478 5324
4  5320 5326 5238 5324
4  5142 5176 5177 5324
4  5142 5176 5320 5143
4  3895 5177 5176 5324
4  5327 5320 5142 5324
4  5320 5324 5238 5319
4  4291 5328 5139 5329
4  4844 5330 5177 5329
4  4844 5330 5331 5177
4  5142 5332 5328 5329
4  4844 4291 5139 5329
4  4291 5177 5327 5329
4  4212 5333 5334 5219
4  4212 5335 5334 5333
4  4818 5334 5218 5219
4  4210 5336 5176 5219
4  4212 4210 5176 5219
4  2311 5282 5252 5337
4  4490 4617 4512 5114
4  4829 5286 5282 5337
4  4592 5255 4368 5337
4  4367 4368 3753 5337
4  4829 4367 3753 5337
4  4368 5255 5286 5337
4  726 1398 3394 5210
4  4640 3489 3805 5210
4  5338 5209 5339 5208
4  5338 5206 5220 5208
4  726 1127 1398 5210
4  3805 5338 5220 5210
4  3490 4564 3442 5340
4  3442 4564 4425 5340
4  5341 5342 5343 5340
4  5344 5211 5341 5340
4  1564 5342 5211 5340
4  4689 5112 4592 5345
4  2279 5252 5116 5345
4  4288 5112 4689 5345
4  5116 5112 5346 5345
4  2282 5346 4288 5345
4  993 4287 2279 5345
4  993 4288 4287 5345
4  5167 5174 5168 5170
4  3928 3746 4808 5170
4  1452 5174 5221 5179
4  190 6 2194 2921
4  3928 3929 3564 5170
4  5167 5172 5221 5174
4  5347 5348 5349 5350
4  2010 2017 5347 5348
4  3028 4861 3691 5351
4  3028 3691 3562 5351
4  1170 5237 5168 5351
4  2192 2463 5352 5353
4  1174 5318 1170 5351
4  4711 5354 5355 5356
4  5357 5358 5359 5360
4  5359 5134 5360 5137
4  5361 5360 5134 5137
4  3785 5361 4070 5360
4  4070 5361 5358 5360
4  3784 4696 3785 5134
4  3784 5134 3785 5360
4  3752 5362 5363 5364
4  3146 4838 5365 5364
4  5009 5363 5366 5364
4  4537 5009 5366 5364
4  3752 3750 4838 5364
4  3750 5009 4838 5364
4  2197 2510 5165 5367
4  5368 5369 5370 5367
4  3234 5371 5368 5367
4  3234 3239 5371 5367
4  5268 5164 5165 5367
4  5268 5372 5373 5367
4  3239 5373 5371 5367
4  4964 5374 4527 5287
4  4964 5374 5287 5356
4  97 190 2192 2922
4  4964 5375 5374 5356
4  2384 5376 2503 5356
4  2503 5375 2528 5356
4  2384 5287 5376 5356
4  2528 5375 5354 5356
4  2527 5130 5356 5131
4  2384 5130 5287 5356
4  4020 5377 5378 5379
4  5378 5380 5267 5379
4  4020 4419 5377 5379
4  4419 5162 5161 5379
4  4203 5267 5381 5379
4  5161 5379 5162 5163
4  4446 5256 5382 5183
4  5182 5181 5383 5384
4  4421 4156 4155 5385
4  4421 5385 4155 5384
4  5182 5384 5186 5183
4  4421 5385 5384 5386
4  3205 4726 4345 5387
4  4421 5186 5347 5384
4  4421 4978 5186 5384
4  4493 4147 4519 5113
4  4479 5114 4032 5346
4  1999 5193 5349 5350
4  1988 5388 5191 5193
4  5269 5194 5388 5193
4  5389 5390 5377 5378
4  4743 5391 4800 5192
4  5123 5125 5191 5193
4  5123 5193 5191 5192
4  5274 5349 5193 5350
4  4973 5392 5136 5393
4  4973 4746 5392 5393
4  5394 5393 5147 5395
4  4713 5393 5396 5395
4  4557 5147 4746 5393
4  4713 4557 5393 5395
4  1469 1406 5397 5398
4  5399 5397 5400 5398
4  5401 5402 5403 5397
4  2921 5404 4399 5405
4  1469 1419 5402 5397
4  4032 4519 4573 5112
4  1419 5406 5403 5397
4  5066 5256 4978 5181
4  1263 5188 5181 5183
4  1567 5186 5185 5183
4  5256 5258 5382 5188
4  1554 5185 5382 5188
4  1554 5382 5258 5188
4  1567 5185 1554 5188
4  9 3290 4491 5407
4  5112 5118 5114 5113
4  5408 5409 5315 5317
4  2388 5315 5317 5314
4  971 3794 4924 5317
4  971 2402 3794 5317
4  3109 5410 5233 5411
4  5233 5412 5234 5411
4  3108 4500 5413 5411
4  4500 5234 5413 5411
4  3107 5410 3109 5411
4  5205 5414 5339 5411
4  5233 5410 5412 5411
4  5413 5412 5415 5411
4  3107 5339 5410 5411
4  4969 5331 5293 5416
4  4969 5097 5331 5416
4  4040 4862 4042 5416
4  5392 5417 5136 5393
4  2464 5148 5147 5417
4  758 2348 4491 5418
4  2464 5147 5394 5417
4  2497 2464 5394 5417
4  5394 5136 5417 5393
4  4221 5153 5419 5420
4  45 4922 2253 5184
4  4153 5159 5160 5421
4  3252 3037 5159 5421
4  4153 5187 4280 5421
4  3247 3037 3252 5421
4  4922 4280 5187 5421
4  1289 1291 1537 5157
4  5347 5350 5422 5386
4  5274 5422 5349 5350
4  4350 4221 4354 5420
4  4917 5422 5274 5386
4  4421 5347 4981 5422
4  4882 4785 4290 5289
4  3146 4508 3794 5365
4  4987 4981 5347 5422
4  4421 5384 5347 5386
4  4179 5423 5424 5425
4  1414 5271 1409 5275
4  4184 5189 4179 5426
4  5426 5427 5423 5425
4  5279 5424 5423 5427
4  5190 5279 5424 5423
4  5258 5428 5257 5382
4  5429 5430 5428 5382
4  5102 5256 5257 5382
4  1554 5429 5258 5382
4  5256 5181 5188 5183
4  5185 5382 5188 5183
4  4446 4978 5256 5183
4  5298 5300 5299 5431
4  1283 5299 5300 5431
4  3485 4958 5212 5298
4  1187 1191 404 5431
4  5212 5299 5432 5431
4  1503 5433 5414 5412
4  1503 1222 5433 5412
4  5420 5434 5435 5436
4  5435 5437 5438 5436
4  5435 5439 5436 5440
4  5420 5436 5435 5439
4  4744 4399 4655 5405
4  2194 5405 5441 5353
4  5442 5441 5405 5353
4  2921 4399 4744 5405
4  4491 4716 4582 5407
4  5115 5443 5418 5407
4  2349 5443 5441 5407
4  4655 5441 5115 5407
4  4655 5115 4582 5407
4  3290 4716 4491 5407
4  5444 5445 5446 5234
4  4500 4132 5248 5446
4  4500 5446 5248 5234
4  5445 5447 5448 5446
4  5447 5446 5248 5247
4  1308 5248 5415 5449
4  60 3379 3033 5450
4  4066 4750 5373 5450
4  4750 5371 5450 5451
4  3033 4066 5373 5450
4  5369 5372 5371 5450
4  5409 5366 5452 5365
4  2401 5409 5452 5365
4  22 3794 2402 5365
4  4537 5366 5408 5365
4  4785 5365 5408 5317
4  22 3146 3794 5365
4  2402 5409 5365 5317
4  5453 5454 5455 5456
4  4809 5343 5455 5456
4  3936 5454 5457 5458
4  535 4809 3936 5456
4  3936 5457 5454 5456
4  5250 5245 5241 5246
4  5274 5350 5269 5386
4  5347 5349 5422 5350
4  4759 4760 4977 5459
4  4253 5274 5270 5386
4  5182 5347 5384 5386
4  2485 5460 2234 5201
4  2234 5460 5151 5201
4  5461 5151 5150 5201
4  4346 5150 5149 5201
4  4361 4346 5201 5197
4  4469 5462 5463 5464
4  5465 5463 5462 5464
4  1561 1533 5465 5462
4  1533 5465 5462 5464
4  5389 5390 5465 5464
4  5466 5462 5467 5464
4  5389 5468 5390 5464
4  5390 5468 5321 5464
4  5469 5470 5471 5472
4  5473 5471 5470 5472
4  1151 5474 5475 5472
4  5473 5222 5471 5472
4  5476 5477 5478 5479
4  2221 5476 5478 5479
4  2221 5478 2211 5479
4  5132 5478 5480 5479
4  5354 5132 5480 5479
4  2262 5354 5477 5479
4  2213 2262 5477 5479
4  4582 4148 4147 5115
4  2238 2404 5481 5482
4  5481 5200 5483 5482
4  4291 5139 5328 5144
4  4472 4291 5328 5144
4  4475 4472 5484 5144
4  5484 5328 5332 5144
4  5485 5486 5427 5425
4  5189 5426 5487 5423
4  4182 5150 5195 5424
4  4182 5424 5195 5425
4  4182 4179 4330 5424
4  4330 4179 5190 5424
4  4275 4184 4179 5426
4  4275 5426 4179 5425
4  5413 5488 5251 5489
4  5413 5415 5488 5489
4  1338 5248 1308 5449
4  5413 5248 5251 5449
4  5490 5491 5492 5493
4  5490 5492 5494 5493
4  1167 5494 5492 5493
4  1423 1167 1129 5495
4  5491 5496 5495 5493
4  5490 5494 5497 5493
4  2359 5498 5499 5500
4  4148 5498 5115 5500
4  5442 5501 5499 5500
4  4148 5442 5499 5500
4  2488 5441 5443 5500
4  5115 5498 5443 5500
4  5455 5456 5343 5502
4  5341 5343 5342 5502
4  4142 5503 5453 5502
4  5153 5158 5156 5155
4  5153 5439 5231 5157
4  1289 5158 1291 5157
4  1339 1537 5504 5157
4  5504 5436 5439 5157
4  1398 1399 5209 5208
4  5338 5220 5210 5208
4  2415 5505 2480 5506
4  5205 5207 5339 5208
4  5338 5387 5206 5296
4  5299 5207 5206 5296
4  5338 5207 5206 5208
4  5297 5205 5299 5207
4  5300 5387 5295 5296
4  4213 5507 5490 5508
4  4756 5338 5339 5207
4  5448 5509 5510 5511
4  1414 1423 5512 5275
4  4557 4981 5513 5127
4  4981 5347 5513 5127
4  1999 5348 2010 5350
4  5125 5348 5127 5129
4  2464 5128 5147 5129
4  4557 5147 5128 5127
4  4056 5127 4558 5124
4  4056 5125 4987 5127
4  4503 3172 5463 5462
4  2465 5122 5131 5124
4  5474 5470 5475 5472
4  5226 5473 5474 5472
4  5227 5471 5222 5472
4  3892 5470 4638 5471
4  3891 4638 5473 5471
4  4976 5419 5514 5420
4  3984 4733 4025 5507
4  5227 5228 5222 5471
4  3893 5227 4191 5471
4  4191 5227 5469 5471
4  5485 5483 5486 5425
4  5486 5424 5427 5425
4  2237 5486 5424 5427
4  5487 5279 5423 5427
4  2532 2237 5424 5427
4  1321 5215 5515 5398
4  1321 5515 1363 5398
4  4213 5516 4214 5508
4  1406 5475 5400 5398
4  5352 5202 5404 5353
4  5469 5515 5399 5475
4  1156 5517 5518 5519
4  1156 5518 1153 5519
4  5474 5400 5470 5519
4  1153 5400 5474 5519
4  3570 5518 5520 5517
4  5518 5521 5520 5517
4  3897 4291 5327 5328
4  4472 3570 5520 5328
4  5484 5521 5332 5328
4  3565 3564 3563 5173
4  1400 3563 5179 5175
4  4892 5178 5172 5180
4  5178 5229 5179 5175
4  4185 5522 5523 5260
4  4185 5524 4194 5260
4  4194 5524 5257 5260
4  5428 5524 5525 5260
4  1498 1479 5447 5247
4  5245 5244 5526 5247
4  5245 5247 5241 5246
4  1498 5447 5241 5247
4  4399 5442 5405 5353
4  4399 4653 5442 5353
4  5442 5501 5441 5353
4  2358 5441 5501 5353
4  5352 5460 5202 5353
4  2358 5501 2463 5353
4  2192 5352 5404 5353
4  4252 4825 4733 5490
4  4351 5434 5491 5496
4  2346 2461 2456 5117
4  5510 5437 5496 5527
4  5510 5511 5437 5527
4  1414 5512 1423 5527
4  4825 4213 4733 5490
4  5437 5495 5496 5527
4  1443 1424 5437 5495
4  1443 5495 5437 5527
4  2010 5348 5347 5350
4  1566 5347 5182 5350
4  1568 1566 5182 5350
4  1999 5269 5193 5350
4  1120 1426 1437 5403
4  4487 4084 4185 5528
4  5529 5530 5531 5532
4  5494 5530 5533 5516
4  5531 5530 5534 5532
4  5535 5536 5403 5532
4  1671 5429 1554 5537
4  4973 4984 5093 5185
4  5093 5538 5361 5537
4  4973 5361 5136 5537
4  4973 5392 4984 5185
4  5539 5374 5540 5541
4  5542 5283 5280 5505
4  2349 2348 2488 5443
4  4385 5539 5543 5541
4  4581 4586 4523 5541
4  4479 4512 4032 5114
4  5376 5542 5540 5541
4  5376 5505 5542 5541
4  5542 5280 5543 5541
4  3988 4025 4030 5512
4  1271 5544 5217 5218
4  735 4321 1271 5218
4  5217 5218 5334 5219
4  5143 5336 5218 5219
4  4818 5218 5336 5219
4  735 1271 1408 5218
4  1408 1444 5336 5218
4  4303 5311 4229 5545
4  4229 5312 3348 5545
4  4316 4303 4229 5545
4  5546 5547 5548 5306
4  4826 5549 3572 5306
4  5316 5306 5313 5305
4  4373 5313 5306 5305
4  4229 5312 5311 5305
4  4826 5313 5549 5306
4  2211 5132 5478 5395
4  4712 5480 5133 5395
4  2464 5147 5128 5395
4  5132 5128 5133 5395
4  5182 5347 5186 5384
4  4137 4142 4513 5457
4  4984 5392 5513 5186
4  5522 5214 5550 5260
4  1316 1489 5428 5525
4  1489 5525 5550 5260
4  1414 5511 5512 5527
4  5273 5551 5552 5511
4  4030 5273 5552 5511
4  4028 4301 5448 5511
4  5448 5552 5509 5511
4  4301 5552 5448 5511
4  4028 5448 5510 5511
4  2370 5553 5547 5554
4  2369 5555 5553 5554
4  5556 5557 5558 5554
4  4335 5557 5556 5554
4  5435 5438 5510 5440
4  3994 5510 4535 5440
4  5444 5559 5236 5440
4  5236 5559 5439 5440
4  4358 4353 5231 5439
4  5153 5504 5420 5439
4  4358 5153 4350 5439
4  5420 5504 5436 5439
4  4350 5439 5435 5440
4  3299 5371 4750 5451
4  4695 3299 3707 5451
4  2334 3382 59 5451
4  3379 4750 5450 5451
4  5369 5450 5371 5451
4  2344 3831 604 5560
4  3348 5312 5560 5545
4  4695 4316 3348 5560
4  4316 5560 3831 5545
4  3299 3348 5561 5560
4  2334 5560 3382 5451
4  3299 5560 5561 5451
4  4466 5562 5556 5563
4  5564 5309 5312 5563
4  5368 5564 5561 5563
4  5564 5565 5309 5563
4  5370 5556 5565 5563
4  5122 5133 5130 5131
4  4911 5133 5122 5124
4  4711 4712 5480 5133
4  3937 4911 5122 5124
4  2527 5354 5132 5131
4  5354 5480 5132 5133
4  4964 5130 5133 5356
4  4964 5130 4911 5133
4  3047 5203 5204 5566
4  5202 5204 5203 5566
4  3047 3473 2922 5566
4  2353 5352 5203 5566
4  3047 5204 5203 5458
4  2359 5567 5568 5499
4  5442 5441 5501 5500
4  5010 4148 5442 5499
4  5010 5442 5569 5499
4  4148 4597 5498 5499
4  4597 5568 5567 5499
4  4534 5236 5444 5234
4  4587 5234 5233 5232
4  4273 5195 5200 5483
4  5172 5178 5228 5224
4  5240 5222 5172 5228
4  5227 5528 5225 5228
4  4434 5225 5528 5228
4  3891 5228 3893 5471
4  5225 5228 5178 5224
4  4487 5227 3893 5228
4  3031 3929 4808 5168
4  5171 5237 5168 5169
4  1170 5168 3562 5351
4  1531 1170 5237 5168
4  1531 5237 5167 5168
4  3885 3173 4393 5467
4  4479 4490 4512 5114
4  5321 5466 5467 5464
4  2284 2472 2388 5316
4  3916 5570 5466 5467
4  4832 5323 5570 5467
4  5321 5466 5323 5467
4  4086 5323 4832 5467
4  5571 5498 5567 5572
4  2359 2415 5567 5572
4  2413 2359 5498 5572
4  5254 5281 5253 5572
4  2421 5253 5283 5572
4  5571 5505 5281 5572
4  4493 5115 5114 5418
4  4582 5115 5418 5407
4  735 1408 332 3690
4  5117 5118 5114 5418
4  2348 5117 5443 5418
4  5117 5115 5443 5418
4  2346 5118 5117 5418
4  2348 2346 5117 5418
4  5184 5187 5199 5160
4  4067 5268 5198 5160
4  4153 5160 5187 5421
4  5268 5373 5573 5160
4  5573 5373 5159 5160
4  2221 5476 5394 5478
4  5574 5134 5555 5135
4  2504 5555 5134 5135
4  2498 5135 2504 5137
4  2504 2369 5555 5135
4  60 3033 5372 5450
4  987 3037 2250 5573
4  3253 3252 3033 4066
4  3033 4066 3252 5159
4  3037 5573 5159 5421
4  5573 5160 5159 5421
4  3033 5373 4066 5159
4  3033 3252 3037 5159
4  4279 4280 5187 5575
4  4922 5187 4280 5575
4  711 2449 2253 5575
4  5184 5307 5187 5575
4  4922 5187 5184 5421
4  2253 2449 5184 5575
4  4279 5187 5307 5575
4  46 2253 4922 5575
4  661 4288 2282 5346
4  5116 5112 5118 5346
4  2282 5116 5346 5345
4  5112 5114 5118 5346
4  4479 5118 5114 5346
4  4288 4573 5112 5346
4  2274 5118 4479 5346
4  4330 5264 5576 5249
4  3955 5249 5262 5263
4  4182 5264 5150 5424
4  4182 4330 5264 5424
4  5576 5264 5151 5263
4  5264 5150 5461 5151
4  2033 5430 5429 5577
4  5578 5579 5358 5577
4  4070 5578 5358 5577
4  4070 4920 5578 5577
4  4070 5361 4920 5577
4  2033 5358 5579 5577
4  2033 5580 5430 5577
4  5538 5429 5430 5577
4  5254 5286 5252 5282
4  5119 5116 5252 5120
4  5255 5252 5116 5120
4  2491 5253 5119 5252
4  5430 5581 5428 5524
4  2279 5252 2461 5116
4  2461 5252 5119 5116
4  3068 5470 5399 5400
4  2941 5582 5518 5400
4  3093 5401 2941 5400
4  3935 3936 5455 5457
4  1153 5518 1370 5406
4  4638 5470 3093 5519
4  3093 5470 5400 5519
4  3093 5470 3068 5400
4  5582 5406 5518 5400
4  5357 5359 5303 5583
4  5357 5555 5359 5557
4  3784 5555 5357 5557
4  4335 5555 3784 5557
4  5556 5583 5558 5557
4  4335 5555 5557 5554
4  5556 5558 5565 5554
4  2510 5372 5165 5367
4  5268 5573 5165 5198
4  2259 5165 2509 5198
4  5584 5322 5585 5323
4  4392 4832 5570 5467
4  4086 5321 5323 5467
4  1332 5466 5570 5323
4  1367 5570 5585 5323
4  5585 5570 5301 5323
4  5468 5321 5466 5323
4  4301 5586 5587 5552
4  5588 5589 5586 5590
4  4325 4992 5588 5586
4  4301 4992 5586 5552
4  5586 5589 5552 5590
4  5383 5591 5508 5592
4  5271 5592 5275 5272
4  5383 5270 5591 5592
4  4482 5275 5592 5272
4  4213 5591 5507 5508
4  4482 5507 4213 5591
4  5507 5497 5508 5592
4  4827 4005 5593 5408
4  5594 5593 5546 5549
4  4009 5539 5595 5596
4  4009 5595 5593 5596
4  4005 4009 5593 5596
4  4387 5593 5594 5549
4  4009 5594 4387 5593
4  2446 5558 5370 5583
4  5370 5558 5556 5583
4  5357 5359 5583 5557
4  3965 5357 5303 5583
4  4616 5556 4630 5583
4  3972 3965 5303 5583
4  4616 5597 5556 5583
4  3972 5303 5162 5583
4  4544 3774 3773 5399
4  5213 5215 5261 5216
4  1485 5261 5215 5216
4  3773 5399 5216 5397
4  5598 5599 5377 5600
4  1409 1177 5497 5271
4  5225 5178 5229 5224
4  2439 5359 5303 5600
4  4915 5303 5357 5600
4  4419 5303 4915 5600
4  2439 5303 2438 5600
4  4086 5321 5467 5464
4  5357 5303 5359 5600
4  4419 4915 5598 5600
4  5121 5254 5253 5572
4  4469 4020 4021 5390
4  2413 5498 5119 5572
4  5121 5117 5119 5113
4  5255 5252 5286 5337
4  4592 5112 5255 5345
4  2461 2491 5119 5252
4  5254 5253 5252 5120
4  2436 5262 5287 5265
4  2436 2437 5287 5262
4  4515 5249 5287 5262
4  4964 5355 5375 5356
4  4964 5287 5130 5356
4  2384 5287 5130 5265
4  1332 3916 193 5570
4  3651 4392 4462 5570
4  1332 5466 3916 5570
4  4653 5460 5569 5353
4  5460 5569 5501 5568
4  2483 5151 5460 5568
4  5460 5149 5151 5201
4  2235 2234 5461 5201
4  5204 5201 5196 5197
4  4964 4515 5130 5287
4  5374 5376 5540 5541
4  2454 2503 5376 5540
4  5374 5376 5506 5287
4  5374 5505 5376 5541
4  5374 5376 5505 5506
4  4586 4527 5374 5506
4  5601 5602 5598 5580
4  4915 5578 5598 5600
4  4983 5598 5578 5580
4  4915 4983 5598 5578
4  5578 5579 5357 5358
4  3785 4920 4070 5361
4  2045 2060 5389 5380
4  2045 5389 5599 5380
4  5377 5161 5380 5379
4  4203 5378 5267 5379
4  4286 5187 4153 5160
4  2527 2528 5354 5356
4  5355 5603 5539 5375
4  4711 5133 5354 5356
4  3210 4661 3566 5387
4  4726 5220 5338 5387
4  3566 5295 5300 5387
4  4661 5295 5387 5296
4  1425 5517 1156 5326
4  1156 1529 5518 5517
4  5142 5332 5517 5328
4  5520 5517 5521 5328
4  3935 4141 5455 5343
4  3503 5518 3570 5517
4  5327 5517 5320 5326
4  3503 5518 5517 5519
4  4409 3409 3413 5141
4  4474 5139 5144 5140
4  3489 5209 5338 5210
4  3413 5141 3409 5138
4  4474 5144 4475 5140
4  5138 5604 5139 5140
4  5145 5605 5141 5146
4  4407 4475 5145 5141
4  2364 5568 5506 5262
4  3953 5506 5568 5262
4  3953 4514 5506 5262
4  2480 5505 5376 5506
4  4514 4527 5506 5287
4  4585 5506 5571 5567
4  4585 3866 5506 5567
4  4527 5374 5506 5287
4  5571 5506 5505 5567
4  1516 1491 1424 5437
4  5434 5437 5435 5436
4  3994 5435 5510 5440
4  4350 5435 3994 5440
4  4350 5420 4351 5435
4  3572 5606 5553 5306
4  5574 5606 5476 5553
4  2224 5476 5548 5553
4  5547 5304 5553 5306
4  5574 5553 5476 5555
4  5548 5553 5606 5306
4  4513 5200 5204 5458
4  4273 5483 5200 5482
4  5481 5200 5195 5483
4  2411 5203 5481 5458
4  4273 5503 5483 5482
4  4142 5200 5454 5482
4  1524 5551 5552 5590
4  5273 5552 5551 5590
4  4801 4991 5391 5590
4  5588 5391 5607 5590
4  4801 5391 5588 5590
4  5608 5609 5610 5503
4  5243 5610 5245 5526
4  1955 5610 5611 5526
4  5243 5610 5611 5612
4  5452 5362 5363 5543
4  4974 5366 5363 5543
4  4740 4670 5363 5284
4  5362 5285 5363 5284
4  5362 5363 5543 5280
4  4974 5363 4670 5543
4  5223 5528 5522 5613
4  5227 5223 5469 5472
4  5227 5223 5522 5469
4  5223 5550 5522 5515
4  4271 5268 5164 5166
4  4393 4469 4086 5464
4  2259 5165 5198 5166
4  4792 5378 5266 5267
4  5381 5379 5267 5163
4  5378 5277 5266 5267
4  3953 5568 5151 5262
4  4597 5569 5568 5499
4  4619 5281 5280 5284
4  5280 5281 5283 5284
4  5280 5505 5283 5281
4  4521 5254 5571 5281
4  4175 4325 4184 5588
4  5604 5332 5139 5144
4  1441 5604 5614 5332
4  1439 5330 5604 5332
4  1256 5146 1519 5604
4  1519 1441 5604 5614
4  5569 5501 5568 5499
4  4597 5569 3869 5568
4  3866 5568 5506 5567
4  2359 5568 5501 5499
4  5608 5243 5610 5245
4  4585 4586 5571 5506
4  2359 5567 5498 5572
4  4597 4585 5498 5567
4  4666 4807 5171 5238
4  60 3033 2396 5372
4  4666 4478 5238 5326
4  1401 1432 5239 5238
4  4666 4637 5326 5169
4  5148 5127 5348 5129
4  4052 5349 5125 5193
4  5189 5191 5388 5192
4  2446 5597 5162 5583
4  2439 2426 5583 5557
4  5578 5357 5579 5600
4  5579 5357 5359 5600
4  2438 5161 5303 5162
4  3441 4141 3935 5343
4  4736 5587 4301 5586
4  22 2401 3146 5365
4  5355 5354 5603 5375
4  2519 5595 5603 5540
4  4514 5287 5506 5262
4  2262 5615 5354 5603
4  2519 5603 2528 5540
4  2542 5615 2262 5603
4  5378 5277 5276 5266
4  4797 5616 5266 5278
4  4792 4605 4271 5166
4  4797 5616 4605 5266
4  5199 5616 5308 5198
4  4605 5616 5199 5198
4  2413 5443 5119 5498
4  2274 5116 2461 5118
4  2274 2282 5116 5346
4  5121 5119 5253 5120
4  5255 5112 5116 5345
4  5255 5116 5252 5345
4  5117 5114 5118 5113
4  4519 5121 5120 5113
4  5119 5117 5116 5113
4  4032 5114 4493 5113
4  2456 5117 5119 5443
4  4490 5114 5118 5418
4  1461 5383 5181 5617
4  5213 5261 5181 5617
4  1469 5261 5402 5617
4  5516 5535 5402 5617
4  4891 5402 5213 5617
4  5574 5478 5476 5477
4  2221 2213 5476 5479
4  4937 5480 5478 5477
4  5480 5478 5477 5479
4  2464 5132 2211 5395
4  2221 5394 5476 5135
4  2010 5347 1566 5350
4  1665 5618 5185 5186
4  1566 5182 5347 5186
4  4981 5513 5347 5186
4  4421 4981 5347 5186
4  4987 5347 4981 5127
4  4917 4987 5349 5422
4  4917 4421 5422 5386
4  1568 5269 5350 5386
4  5385 5182 5384 5386
4  5274 5269 5270 5386
4  1568 5182 5270 5386
4  1522 5599 5389 5468
4  5389 5377 5599 5380
4  1522 5389 1533 5468
4  2060 1533 5389 5465
4  2033 5579 1624 5580
4  1624 5602 5581 5580
4  3379 4750 3253 5450
4  5598 5602 5578 5580
4  1515 1516 1128 5434
4  5430 5581 5601 5580
4  1624 1559 5581 5602
4  5357 5359 5134 5360
4  5359 5360 5358 5137
4  2504 2376 5359 5555
4  3785 5361 5134 5136
4  5574 5555 5476 5135
4  3784 5134 5357 5555
4  4696 5574 5134 5555
4  2511 5125 2458 5124
4  2527 5356 5354 5131
4  5354 5133 5132 5131
4  4557 5128 5147 5395
4  2464 2431 5132 5128
4  2464 5147 5148 5129
4  2511 2465 5131 5124
4  5126 5191 5123 5125
4  2234 5151 5461 5201
4  5576 5264 5461 5151
4  2485 2234 2235 5201
4  5576 5461 5264 5424
4  2235 5196 5461 5486
4  2237 2235 5461 5486
4  2237 5486 5461 5424
4  4253 4156 5270 5272
4  1177 5271 5270 5592
4  1553 1177 5271 5270
4  1518 5182 5383 5270
4  5231 5559 5236 5232
4  5444 5559 5445 5234
4  5445 5559 5235 5234
4  5233 5412 5235 5234
4  4535 5444 5236 5440
4  5291 5233 5235 5232
4  4547 4546 5230 5232
4  5444 5438 5559 5440
4  4534 4535 5444 5236
4  4547 5231 4353 5236
4  5394 5396 5136 5393
4  1485 1469 5216 5398
4  5515 5215 5399 5398
4  5227 5222 5223 5472
4  5474 5475 5470 5400
4  1364 1363 5515 5475
4  3891 5222 5240 5228
4  5225 5178 5301 5302
4  4166 5301 5178 5175
4  3742 5172 5178 5228
4  3563 5179 5175 5180
4  4462 5301 4859 5570
4  2396 987 2250 5573
4  4892 3742 5172 5178
4  5148 5513 5347 5127
4  2017 1566 5347 5186
4  4056 5123 4052 5125
4  5347 5349 5348 5127
4  4557 5128 4558 5127
4  4056 5123 5125 5124
4  2401 3146 5365 5364
4  4558 5128 5133 5124
4  3984 4351 4703 5491
4  2431 5132 5128 5131
4  4711 5480 5354 5133
4  5354 5356 5133 5131
4  2465 5122 5130 5131
4  5461 5486 5195 5424
4  5461 5195 5150 5424
4  5264 5461 5150 5424
4  4330 5190 5576 5424
4  4330 5576 5264 5424
4  5619 5459 5620 5621
4  5619 5459 5622 5623
4  5622 5459 5145 5623
4  4977 5459 5624 5621
4  4760 5622 4977 5459
4  3108 4587 4500 5411
4  5434 5435 5437 5496
4  1516 1129 5434 5495
4  1516 5434 5437 5495
4  1129 5492 5434 5495
4  4513 5457 5454 5458
4  4513 5454 5200 5458
4  4773 4513 5204 5458
4  3044 3936 5457 5458
4  4142 5455 5454 5457
4  4513 4142 5454 5457
4  600 2316 3936 5454
4  4774 4137 4773 5457
4  3044 3936 4774 5457
4  5455 5454 5457 5456
4  5153 5158 5294 5156
4  5231 5292 5291 5230
4  1220 1548 5158 5292
4  1220 5158 1289 5156
4  5158 5292 5294 5156
4  4697 5311 4806 5310
4  4234 5313 4373 5311
4  5562 5309 5312 5305
4  4229 4377 5312 5305
4  5313 5311 5310 5305
4  4252 4825 5490 5533
4  5533 5625 5626 5492
4  5533 5625 5492 5491
4  5490 5533 5492 5491
4  2447 5369 2510 5367
4  2446 2197 5164 5367
4  5381 5164 5162 5163
4  3239 5597 5164 5367
4  4271 5164 5381 5166
4  1128 1474 1473 5626
4  2446 5597 5164 5162
4  5161 5267 5379 5163
4  4792 5267 5266 5166
4  5268 5165 5573 5372
4  5381 5166 5164 5163
4  5481 5196 5486 5195
4  1381 1128 1473 5626
4  5461 5486 5196 5195
4  2238 5196 2235 5486
4  1327 1561 997 5462
4  3174 4503 4393 5462
4  1327 5466 1533 5462
4  997 1561 3172 5462
4  4503 5463 4469 5462
4  3174 4393 3173 5462
4  5622 5145 5484 5614
4  5288 5622 5484 5614
4  3759 5627 3760 5622
4  2359 5498 5567 5499
4  2483 5501 2359 5568
4  5460 5151 5149 5568
4  5460 5501 5569 5353
4  3953 5149 5151 5568
4  2483 5460 5501 5568
4  2461 5116 5119 5117
4  4655 5442 5441 5405
4  9 2348 2349 5407
4  2456 5119 2413 5443
4  5172 5228 5222 5224
4  5121 5443 5115 5498
4  5115 5441 5442 5500
4  2346 2461 5117 5118
4  2349 2488 5441 5443
4  4520 5121 5254 5120
4  4289 4290 4234 5314
4  5121 5115 5117 5113
4  4520 5121 4521 5254
4  4148 4521 5121 5498
4  5121 5498 5571 5572
4  4148 5121 5115 5498
4  5121 5119 5117 5443
4  3866 5568 3953 5506
4  2483 2234 5460 5151
4  3952 5150 5264 5151
4  2492 5576 5151 5263
4  5352 5203 5202 5201
4  5203 5196 5204 5201
4  2495 5595 5315 5546
4  5203 5481 5204 5196
4  3252 5159 4153 5421
4  2237 5461 2241 5424
4  5461 5150 5196 5201
4  2238 5481 2411 5196
4  5492 5491 5495 5493
4  5352 5202 5460 5201
4  2463 2483 5460 5501
4  4653 5149 3869 5569
4  4653 5460 5202 5149
4  4361 4653 5202 5149
4  5202 5149 5460 5201
4  1467 5222 5226 5472
4  1467 5226 1402 5474
4  3741 5605 3635 5628
4  5226 5473 5239 5474
4  5399 5470 5475 5400
4  5239 5474 5473 5326
4  1461 5181 1264 5617
4  4638 5473 5470 5519
4  1151 5474 1153 5475
4  5611 5588 5426 5607
4  5611 5588 5607 5589
4  1955 5611 1565 5526
4  1560 5551 1524 5590
4  1526 5509 5629 5552
4  1412 1414 5551 5271
4  4991 5391 5590 5194
4  1525 1524 5589 5590
4  5273 5590 5551 5194
4  5607 5391 5388 5590
4  1412 5271 5551 5194
4  1560 1412 5551 5194
4  4020 4021 5390 5377
4  1533 5389 5465 5464
4  5389 5390 5378 5465
4  5378 5380 5465 5277
4  5582 5406 5401 5403
4  4746 4984 5392 5513
4  5392 5185 5618 5186
4  2017 5347 5148 5186
4  1486 5299 5205 5206
4  1532 5205 1487 5208
4  489 1344 1119 5387
4  1491 1492 5437 5438
4  1473 1539 1512 5531
4  4350 4353 5439 5440
4  4353 4535 5236 5440
4  1537 5436 5504 5157
4  1291 5559 1293 5438
4  1293 5559 5445 5438
4  5444 5510 5438 5440
4  1235 5330 5332 5329
4  4472 5328 5484 5144
4  5139 5332 5330 5329
4  5213 5256 5258 5259
4  1472 1485 5261 5259
4  5102 5214 5257 5259
4  3774 5102 5256 5259
4  5038 5102 5214 5257
4  5258 5257 5428 5259
4  3774 5256 5213 5259
4  5138 5293 5139 5330
4  1192 5630 5138 5330
4  4289 4882 4290 5314
4  1235 5142 1149 5329
4  4844 5330 5293 5331
4  3759 3932 3760 5627
4  3794 4508 4882 4785
4  5145 5614 5604 5144
4  5139 5332 5328 5144
4  3570 5517 5520 5328
4  5529 5582 5518 5520
4  2941 5518 5582 5520
4  3932 2941 5582 5520
4  4472 3932 5484 5520
4  5355 5354 5480 5477
4  2503 2437 2480 5376
4  4713 5478 5480 5395
4  2464 5394 5147 5395
4  2211 5478 5394 5395
4  2464 2431 2211 5132
4  2261 5132 5354 5479
4  5490 5497 5507 5493
4  1423 5512 5497 5493
4  5496 5527 5495 5493
4  2384 2437 2503 5376
4  5497 5275 5271 5592
4  5507 5512 5497 5275
4  1409 5271 5497 5275
4  1552 1560 5388 5194
4  4800 5391 5194 5192
4  1552 5388 5269 5194
4  5391 5388 5194 5192
4  1988 1999 5269 5193
4  1560 5551 5590 5194
4  1977 5607 5487 5388
4  1977 1560 5607 5388
4  5123 5191 5190 5192
4  4800 5391 4991 5194
4  4743 5189 4801 5391
4  5189 5607 5588 5391
4  2344 5564 5309 5560
4  4316 3348 5560 5545
4  5562 5312 5309 5563
4  3300 5312 5562 5563
4  5309 5312 5311 5545
4  4316 4229 3348 5545
4  584 3831 2344 5545
4  5585 5322 5631 5323
4  1549 1550 5581 5631
4  1549 1495 1550 5613
4  5584 5631 5585 5322
4  5601 5631 5523 5322
4  1549 1403 1495 5613
4  5584 5523 5631 5322
4  5282 5362 5283 5284
4  4508 4537 4785 5365
4  5362 5280 5542 5283
4  2452 5542 2454 5283
4  2454 5283 5542 5505
4  2439 5579 5359 5600
4  5357 5134 5359 5555
4  2438 2446 5162 5583
4  2426 5558 5583 5557
4  4826 5289 4827 5549
4  5598 5602 5599 5600
4  3936 5455 5457 5456
4  4809 3935 3936 5455
4  3935 4141 4137 5457
4  4426 5455 4425 5502
4  4425 5455 4141 5343
4  4141 4142 4137 5457
4  5010 5569 4597 5499
4  4597 3869 3866 5568
4  4653 5010 5442 5569
4  4653 5202 5460 5353
4  5442 5569 5501 5353
4  4597 5567 5498 5499
4  2488 5498 2359 5500
4  2483 2364 5151 5568
4  5389 5378 5380 5465
4  1050 3385 3389 5278
4  3435 4797 4620 5276
4  2067 3389 5276 5278
4  2067 5465 2060 5277
4  5619 5621 5620 5632
4  5624 5621 5619 5632
4  5609 5453 5503 5502
4  5624 5514 5419 5632
4  4555 5621 5419 5633
4  4553 5621 4555 5633
4  4759 4977 4976 5621
4  4555 4976 5419 5621
4  5582 5536 5530 5403
4  5530 5403 5536 5532
4  5494 5516 5535 5532
4  1120 5403 5529 5532
4  5535 5403 5536 5402
4  1426 5535 5403 5532
4  3258 5530 3265 5516
4  2404 5454 5481 5482
4  2942 5530 5582 5536
4  2284 2475 2472 5316
4  5516 5535 5536 5402
4  2942 5401 3598 5536
4  3773 3265 5536 5402
4  3773 5536 5401 5402
4  1524 5552 5589 5590
4  5565 5562 5547 5309
4  2475 5309 5547 5310
4  2475 2432 5547 5309
4  5309 5560 5312 5545
4  5547 5310 5309 5305
4  2286 5310 4806 5545
4  1444 5143 5318 5336
4  2402 2388 5315 5317
4  5176 5318 5325 5319
4  3794 4882 4924 5317
4  4210 5176 5325 5324
4  5320 5143 5176 5319
4  1498 5241 5245 5247
4  1479 5629 1348 5447
4  1478 5241 5447 5248
4  1498 1478 5241 5447
4  1498 1478 1338 5241
4  3998 5571 5505 5281
4  5362 5280 5283 5284
4  4581 5543 5280 5541
4  2452 5362 5542 5283
4  5362 5543 5542 5280
4  5282 5285 5362 5284
4  3998 4581 5280 5505
4  5574 5396 5394 5478
4  3574 5574 4696 5555
4  3632 3776 5574 5477
4  4937 5480 4713 5478
4  5426 5483 5485 5425
4  3632 5574 3574 5606
4  1278 1279 845 5155
4  5514 5419 5152 5420
4  1515 5514 5152 5504
4  489 814 1344 5387
4  5514 5152 5419 5632
4  1379 1515 5514 5152
4  5419 5632 5152 5634
4  1279 5152 1379 5634
4  4142 5454 5453 5482
4  5381 5267 5166 5163
4  2438 2514 5161 5162
4  5377 5599 5380 5161
4  2045 5380 5599 5161
4  4445 5102 5257 5382
4  1489 5215 1485 5259
4  1544 5428 1489 5259
4  1262 5258 5181 5188
4  5213 5258 5256 5181
4  1262 1472 5261 5258
4  2067 5465 5277 5276
4  1561 5465 2067 5462
4  3441 5000 4425 5343
4  5390 5463 5465 5464
4  4142 3302 4273 5503
4  5468 5466 5321 5464
4  5378 5277 5465 5276
4  1432 5239 5238 5326
4  1401 1170 1450 5237
4  2067 5465 5463 5462
4  2060 5389 5380 5465
4  4009 4945 4673 5355
4  5516 5535 5617 5508
4  1461 1471 5535 5617
4  1461 5383 5617 5508
4  5494 5535 5516 5508
4  1461 5535 1166 5508
4  5516 5536 5535 5532
4  1426 5535 1419 5403
4  1471 1419 5535 5402
4  5383 5591 5617 5508
4  4214 5516 5617 5508
4  5273 5512 5551 5511
4  4952 4991 5273 5272
4  1525 5589 5607 5590
4  5632 5634 5633 5635
4  1236 1379 5632 5634
4  142 4518 5065 5634
4  5065 5634 5154 5155
4  5419 5634 5152 5154
4  5065 5634 5633 5154
4  1423 5495 5527 5493
4  4252 5533 5490 5491
4  1474 1167 5494 5492
4  4252 5625 5533 5491
4  1128 5434 1129 5492
4  1128 5626 5434 5492
4  5625 5434 5626 5492
4  4978 5384 5181 5183
4  4978 5181 5256 5183
4  4084 4080 5523 5322
4  4080 5601 5523 5322
4  4832 4084 5584 5322
4  4832 5322 5584 5323
4  4132 4495 4494 5446
4  2415 5505 5506 5567
4  4229 5311 5312 5545
4  4086 4080 5322 5321
4  5609 5610 5503 5453
4  4279 5307 3638 5575
4  3247 4280 4922 5421
4  3406 4280 4279 5575
4  3406 4922 4280 5575
4  5184 5199 5187 5307
4  4279 5187 4286 5199
4  4179 5189 4743 5190
4  5123 5249 5190 5242
4  5189 5191 5190 5279
4  5126 5123 5191 5279
4  4330 5576 5190 5249
4  5576 5279 5190 5242
4  4179 5190 5424 5423
4  4279 5187 5199 5307
4  2449 5307 5184 5575
4  711 3638 24 5307
4  711 3638 5307 5575
4  4005 5408 5366 5596
4  4537 4005 5408 5366
4  3794 4508 4785 5365
4  1524 1412 1414 5551
4  2402 5315 5409 5317
4  1398 1399 1503 5209
4  5408 5365 5409 5317
4  5408 5366 5409 5365
4  1120 1426 5403 5532
4  1480 5320 1432 5238
4  1401 5239 5237 5238
4  2349 2348 5443 5407
4  3565 4860 4892 5180
4  5171 5325 5237 5238
4  1432 5238 5320 5326
4  585 584 2286 4806
4  4478 5238 5326 5324
4  4807 5325 5171 5238
4  1480 5143 5320 5319
4  5171 5237 5325 5351
4  4992 5273 4991 5590
4  2033 1543 1541 5430
4  5274 5194 5269 5193
4  1311 1348 5445 5447
4  1565 1526 5629 5589
4  5629 5587 5586 5552
4  3107 3109 3108 5411
4  1478 5636 1308 5248
4  1560 5607 5388 5590
4  5611 5426 5485 5607
4  5587 5446 5447 5247
4  5189 5426 5588 5607
4  1452 1456 1400 5221
4  1560 1525 5607 5590
4  1968 5611 5607 5589
4  4080 4021 4971 5637
4  4354 4221 5419 5420
4  1379 5152 5632 5634
4  5419 5633 5632 5634
4  5152 5420 5153 5504
4  4071 4247 4073 5294
4  4076 5419 4221 5154
4  3935 4774 3936 5457
4  2300 5203 2411 5458
4  4271 4272 4270 5381
4  5203 5204 5481 5458
4  5612 5483 5503 5482
4  839 3047 5203 5458
4  3047 3044 4097 5458
4  4513 5454 4142 5200
4  3044 5457 4773 5458
4  2413 2421 2415 5572
4  3173 5466 5462 5467
4  1392 5619 5620 5632
4  4553 5621 5633 5638
4  4518 5633 5634 5635
4  1236 5632 1392 5635
4  5624 5619 5514 5632
4  4974 4581 4385 5543
4  5620 5621 5638 5635
4  5581 5428 5524 5525
4  4097 4222 4361 5204
4  1541 1544 5429 5428
4  5429 5428 5258 5382
4  1489 5428 5525 5260
4  5038 5257 5214 5260
4  4194 5430 5257 5524
4  4586 4514 4527 5506
4  5639 5291 5233 5433
4  4534 5234 4587 5232
4  4829 3753 3751 4740
4  5233 5410 5433 5412
4  3109 5640 5233 5410
4  5622 5623 5145 5614
4  4760 5622 5459 5145
4  3131 3393 5290 5640
4  3047 3477 3473 4097
4  5604 5614 5332 5144
4  758 4491 4490 5418
4  4407 5145 4760 5605
4  4475 3759 5145 5484
4  4335 5553 5555 5554
4  2370 5548 5547 5553
4  5549 5548 5606 5306
4  2370 2224 5548 5553
4  5594 5548 5615 5477
4  5594 5549 5548 5606
4  2224 5476 2213 5548
4  5476 5548 5606 5477
4  4094 5334 5335 5544
4  1270 3097 5335 5544
4  1270 5335 3097 5641
4  1270 5335 5217 5544
4  2469 5199 5184 5307
4  2197 2510 2509 5165
4  5217 5544 5334 5218
4  1311 1312 1478 5636
4  731 1270 1271 5544
4  4972 5334 5544 5218
4  4399 4653 5010 5442
4  803 3097 1270 5544
4  5273 5551 5512 5275
4  1381 1515 1128 5514
4  4253 5270 5274 5272
4  4025 5512 5507 5275
4  4025 5507 4482 5275
4  5274 5270 5269 5272
4  4482 5592 5270 5272
4  1452 1531 1458 5167
4  4952 5273 5275 5272
4  4191 4185 5038 5522
4  1264 5181 5261 5617
4  4899 4666 4807 5171
4  2376 2428 5558 5554
4  2495 2547 2542 5595
4  5381 5162 5379 5163
4  4419 5377 5161 5600
4  2221 2213 2224 5476
4  2514 5162 2446 5163
4  2487 2491 2421 5253
4  4630 5357 5583 5557
4  2464 2511 5128 5129
4  4915 3965 5357 5303
4  5290 5639 5292 5291
4  4203 5381 4270 5379
4  4270 5381 3972 5162
4  2439 2438 5303 5583
4  3564 5174 5179 5173
4  5368 5370 5597 5367
4  5167 5172 5174 5170
4  5226 5167 5172 5221
4  5466 5570 5323 5467
4  5172 5229 5221 5179
4  1400 5221 5229 5179
4  1400 5221 1456 5229
4  1456 5221 5226 5224
4  4040 5097 4969 5416
4  5115 5443 5441 5500
4  9 4491 2348 5407
4  2359 5499 5501 5500
4  2194 2349 5441 5405
4  4655 5442 5115 5441
4  2194 5404 2921 5405
4  2542 2262 2528 5603
4  5115 5441 5443 5407
4  3290 4655 5407 5405
4  4992 5588 5586 5590
4  1623 2045 1522 5599
4  1565 5526 5611 5589
4  5189 5487 5607 5388
4  4801 5189 5588 5391
4  3651 3916 4392 5570
4  4324 5611 5243 5586
4  4184 5189 5426 5588
4  4992 4801 5588 5590
4  3435 5276 3389 5278
4  1485 5215 5261 5259
4  412 3929 3562 5168
4  4515 5249 5122 5130
4  5145 5604 5146 5140
4  2458 2386 5122 5242
4  2511 5129 5125 5124
4  5126 5122 5123 5242
4  1671 2033 5429 5577
4  2439 5583 5359 5557
4  5598 5578 5602 5600
4  803 3221 3097 5544
4  1270 3097 742 5641
4  5579 5359 5357 5358
4  1439 5138 5604 5330
4  1624 5579 5602 5580
4  4983 5430 5601 5580
4  4358 4221 4350 5153
4  4342 4640 3489 3805
4  4434 3893 3742 5228
4  4920 5580 5578 5577
4  3109 5233 4587 5411
4  5361 5358 5360 5137
4  4920 5430 5580 5577
4  4983 4920 5430 5580
4  1220 104 1217 5292
4  4419 5598 5377 5600
4  2438 5303 5161 5600
4  4917 5274 4253 5386
4  1156 5326 5517 5519
4  4807 5325 5238 5324
4  5327 5142 5517 5328
4  3895 5327 5177 5324
4  1311 1293 1312 5445
4  5327 5177 5142 5329
4  4531 4358 4547 5231
4  4474 5139 4291 5144
4  5217 5335 5641 5333
4  1312 5636 5445 5235
4  5335 5641 5333 5416
4  1516 1491 5437 5436
4  1426 1419 1437 5403
4  4976 4251 4703 5625
4  4862 5641 5335 5416
4  5642 5344 5211 5341
4  4555 4759 4976 5621
4  104 344 1217 3481
4  4094 5334 4212 5335
4  1210 3394 1398 5640
4  839 600 3044 5458
4  5352 5202 5203 5566
4  1128 1474 5626 5492
4  1210 5640 1398 5433
4  5453 5456 5455 5502
4  1188 1556 1517 5488
4  2411 5203 2485 5196
4  3047 5204 4097 5566
4  839 3044 3047 5458
4  1443 5437 5509 5511
4  2192 5404 5352 5566
4  3937 5249 5123 5122
4  3955 5249 4515 5262
4  4330 3955 5264 5249
4  5341 5609 5608 5502
4  4506 4563 4507 5250
4  1092 1564 405 3496
4  2436 5249 5262 5265
4  4132 4494 4134 5446
4  2534 5576 2436 5249
4  4495 5444 4494 5446
4  4515 5249 3937 5122
4  5249 5287 5262 5265
4  3746 4892 5172 5173
4  1467 1456 1458 5226
4  414 412 1531 3929
4  4095 5202 5404 5566
4  3565 4892 3746 5173
4  3742 3893 3891 5228
4  3473 4097 4095 5566
4  3047 4097 5204 5458
4  2353 2192 5352 5566
4  1332 1022 193 3916
4  1465 1364 5223 5222
4  2485 5352 2463 5460
4  5202 5201 5204 5197
4  97 3047 2922 5566
4  839 3047 97 5566
4  3406 3407 3427 5575
4  4286 5199 5187 5160
4  4434 3742 5178 5228
4  3458 4279 5199 5307
4  4286 4605 5199 5198
4  4605 5616 5198 5266
4  3056 5199 5616 5308
4  2469 5184 5199 5198
4  2469 5199 5308 5198
4  2439 5303 5359 5583
4  3300 5561 5312 5563
4  5370 5556 5597 5583
4  4630 5583 5556 5557
4  4616 5368 5556 5597
4  3300 4616 5368 5563
4  4185 5523 5524 5260
4  1127 1532 1399 5208
4  808 1220 1278 5156
4  4084 4185 5528 5523
4  5257 5524 5428 5260
4  1550 5523 5613 5525
4  3497 3490 3494 4644
4  5601 5523 5581 5524
4  4288 4573 4689 5112
4  4254 3483 4531 5230
4  5255 5345 5252 5337
4  4184 4325 4801 5588
4  4592 4519 5255 5112
4  2456 2413 2488 5443
4  1472 1469 1264 5261
4  4148 5115 5442 5500
4  4325 4992 4801 5588
4  4271 5268 3239 5164
4  4521 4585 5571 5498
4  4167 4832 5584 5301
4  4086 5322 4832 5323
4  4080 5601 4193 5523
4  4290 4826 4234 5313
4  3253 4750 4066 5450
4  4167 4084 4487 5528
4  4167 4084 5528 5584
4  1623 1522 1559 5599
4  5528 5613 5225 5584
4  5389 5599 5377 5468
4  5598 5599 5602 5637
4  1559 5602 5599 5637
4  1623 1559 5602 5599
4  4175 4324 5611 5643
4  4630 5357 3965 5583
4  1503 1341 1222 5412
4  4597 5568 3866 5567
4  4175 4324 4325 5588
4  4275 5195 5483 5425
4  1944 1955 2130 5610
4  1556 1555 1517 5488
4  24 5307 3056 5308
4  2509 5165 5573 5198
4  2469 5573 5184 5198
4  5268 5573 5198 5160
4  2469 5199 5307 5308
4  1557 1555 1563 5642
4  4080 5601 5322 5637
4  1550 5631 5613 5523
4  5601 5581 5631 5637
4  1316 5581 1550 5525
4  1550 5581 5631 5523
4  1550 5613 1495 5525
4  4193 5523 5601 5524
4  1968 5607 1525 5589
4  4917 4800 4253 5274
4  3056 5307 5199 5308
4  1392 1381 5619 5632
4  1999 1568 1552 5269
4  1329 5631 1549 5468
4  5581 5524 5523 5525
4  3108 4500 4263 5413
4  5257 5260 5428 5259
4  1523 1528 1275 5333
4  1188 1343 1486 5299
4  5331 5333 5644 5416
4  5211 5212 5488 5432
4  1270 1275 5217 5641
4  1564 1563 1556 5211
4  808 4247 3483 5156
4  742 4862 1523 5641
4  1343 1517 1308 5415
4  3576 4546 3131 5290
4  1563 1555 1556 5642
4  3576 4531 4547 5230
4  1275 5217 5641 5333
4  3892 5399 3068 5470
4  1363 5475 1406 5398
4  1429 3741 81 5628
4  5624 5419 5621 5632
4  5469 5399 5470 5475
4  1519 5604 5623 5614
4  5368 5564 5370 5369
4  1120 1437 1529 5529
4  2334 59 2395 5451
4  5368 5561 5369 5371
4  1207 1120 1529 5529
4  5561 5560 5564 5451
4  2395 2510 5369 5372
4  3895 4478 3897 5324
4  2395 3379 5450 5451
4  4534 4495 4587 5234
4  4129 4134 4736 5244
4  4354 4703 4351 5420
4  1291 1293 1491 5438
4  4929 3497 3485 4958
4  1401 1458 5167 5239
4  1555 1498 1338 5241
4  1155 5474 5239 5326
4  1557 2130 1498 5245
4  4637 5240 5473 5169
4  4535 4494 4495 5444
4  4254 4531 3576 5230
4  1402 5226 5239 5474
4  5377 5599 5161 5600
4  2528 5540 5603 5375
4  2503 5376 5375 5356
4  1512 1120 1207 5288
4  4711 4964 5133 5356
4  5274 5269 5194 5272
4  5102 4446 5066 5256
4  4514 4515 5287 5262
4  5576 5190 5279 5424
4  4446 5538 5185 5382
4  4185 4193 4194 5524
4  5515 5215 5214 5399
4  4976 4977 4251 5624
4  5130 5133 5356 5131
4  4911 5130 5122 5133
4  1491 1492 1424 5437
4  6 2349 2194 5405
4  4653 5460 5149 5569
4  2194 5404 5405 5353
4  4399 5404 4653 5353
4  2194 5441 2358 5353
4  5442 5501 5569 5499
4  6 3290 2349 5405
4  4134 4301 5587 5448
4  5189 5487 5279 5423
4  1955 1565 2130 5526
4  4494 5448 4134 5446
4  5352 5404 5202 5566
4  5629 5447 5587 5448
4  5629 5509 5448 5552
4  5629 5587 5447 5247
4  5587 5448 5447 5446
4  3776 5396 5574 5478
4  5444 5448 5509 5510
4  46 4922 3427 5575
4  4917 5349 5274 5422
4  2261 5354 2262 5479
4  2464 2511 2431 5128
4  2221 2211 2213 5479
4  4911 4558 5133 5124
4  3776 5478 5574 5477
4  4387 3572 5549 5606
4  3776 4696 5574 5396
4  3632 5574 5606 5477
4  5574 5394 5476 5478
4  3174 3173 3172 5462
4  4711 5355 5354 5480
4  2211 5132 2261 5479
4  3972 4630 3965 5583
4  711 24 2449 5307
4  2262 5354 5615 5477
4  5488 5432 5212 5489
4  4939 5250 5344 5488
4  5250 5488 5251 5241
4  5145 5623 5605 5146
4  45 4922 5184 5421
4  5642 5211 5344 5488
4  1188 1556 5488 5432
4  1556 5642 1555 5488
4  1329 5468 5466 5323
4  1533 5466 5468 5464
4  5390 5468 5377 5321
4  4031 5605 4102 5638
4  4393 4086 5467 5464
4  4393 5467 5462 5464
4  5322 5321 5468 5323
4  2432 5565 5547 5309
4  4021 5390 5377 5321
4  4797 4605 4792 5266
4  4469 5463 5390 5464
4  4021 5321 5377 5637
4  5322 5468 5321 5637
4  4466 5556 4616 5563
4  1515 1128 5514 5434
4  1339 5157 5152 5155
4  2286 5309 2475 5310
4  1381 5514 5619 5632
4  2438 2446 2514 5162
4  4673 5355 5480 5477
4  4976 4977 5624 5621
4  4421 4253 4156 5385
4  4517 4102 4553 5638
4  1339 1515 5152 5504
4  1515 5514 5504 5434
4  2045 5389 1522 5599
4  1533 1329 5468 5466
4  4205 5176 5177 5333
4  5117 5114 5115 5418
4  661 3579 4288 5346
4  3097 5335 4862 5641
4  5097 5335 4212 5333
4  190 2922 2921 5404
4  4287 4689 4367 4592
4  1149 5644 5177 5333
4  758 154 2346 4490
4  5176 5143 5177 5333
4  2921 4397 4744 4399
4  499 843 661 5346
4  2260 5198 5308 5266
4  5538 5429 5185 5382
4  4445 5538 4446 5382
4  5102 5257 5256 5259
4  2344 604 2334 5560
4  1544 1472 5258 5259
4  2547 5615 5595 5546
4  2542 5595 5615 5603
4  1489 5428 5260 5259
4  4032 4493 4519 5113
4  5244 5587 5526 5247
4  2507 2495 2542 5595
4  5452 5365 5366 5364
4  5445 5636 5447 5446
4  4129 5247 5244 5246
4  5251 5248 5241 5449
4  1478 1338 5241 5248
4  2547 2213 2262 5548
4  2261 2528 2262 5354
4  1557 5245 1498 5241
4  5251 5241 5248 5246
4  5433 5410 5414 5412
4  4361 5149 5202 5201
4  5415 5412 5414 5411
4  4141 5455 4142 5457
4  1591 1564 3496 5340
4  3130 5339 5209 5410
4  5640 5433 5233 5410
4  5559 5235 5234 5232
4  2364 5506 2437 5262
4  2353 2192 2485 5352
4  5209 5339 5414 5410
4  5243 5612 5643 5503
4  4273 5503 5643 5483
4  5612 5503 5453 5482
4  2922 3473 4397 4095
4  1968 1565 5611 5589
4  5611 5485 5643 5612
4  5243 5611 5610 5526
4  5481 5195 5486 5483
4  3302 5243 5643 5503
4  4275 5643 5426 5483
4  3290 4744 4716 4655
4  2238 5481 5486 5483
4  4655 4148 4582 5115
4  4273 3302 5643 5503
4  3290 4655 4716 5407
4  1999 1568 5269 5350
4  5274 5193 5269 5350
4  3382 3831 4695 5560
4  584 604 2344 3831
4  4991 5274 5194 5272
4  46 711 2253 5575
4  4800 4991 5274 5194
4  1568 5182 1518 5270
4  1568 1553 5269 5270
4  2395 5450 5369 5451
4  936 2284 2388 5314
4  1552 5269 1553 5271
4  1988 5269 1552 5388
4  5273 5551 5271 5194
4  584 4806 3831 5545
4  4335 4696 3784 5555
4  2369 2370 2376 5554
4  3385 3056 5616 5308
4  3435 3385 3621 5616
4  3435 3385 5616 5278
4  2395 2396 2510 5372
4  4894 3056 5199 5616
4  2363 2260 2469 5308
4  2259 5166 5267 5163
4  5616 5308 5198 5266
4  46 999 711 5575
4  4797 4792 5276 5266
4  2464 5128 5132 5395
4  711 5307 2449 5575
4  46 3427 999 5575
4  5392 5618 5148 5513
4  5132 5133 5480 5395
4  5392 5148 5618 5417
4  4745 5396 4713 5393
4  3405 4279 3638 5575
4  4987 5347 5349 5422
4  4712 4557 4713 5395
4  5132 5480 5478 5395
4  3680 3690 4818 5218
4  1270 5217 1271 5544
4  3458 4894 3056 5199
4  4472 3932 3759 5484
4  1523 5644 5333 5416
4  1519 1520 1506 5623
4  4320 3221 4321 5544
4  3898 3095 3221 5544
4  808 1278 845 4247
4  3680 4818 4972 5218
4  1429 81 1244 5628
4  4071 4073 4531 5294
4  4212 5176 5333 5219
4  334 1174 1170 5351
4  3413 4051 4997 5293
4  1270 5217 5335 5641
4  4320 3095 3898 5544
4  4320 4972 4094 5544
4  1439 5604 1441 5332
4  1155 5474 5326 5519
4  5097 5333 5331 5416
4  5469 5475 5470 5472
4  3093 5400 5518 5519
4  1444 5318 5143 5319
4  4861 4899 5325 5351
4  5240 5473 5226 5222
4  731 4321 3221 5544
4  1452 414 1531 5174
4  4915 4070 5578 5357
4  4637 5473 3503 5326
4  332 1174 334 3691
4  1149 5142 5177 5329
4  4523 5374 4964 5375
4  4271 5381 4203 5166
4  4972 4818 4212 5334
4  4009 5594 5595 5355
4  4009 4673 5594 5355
4  4523 5539 5374 5375
4  4673 5355 4711 5480
4  5297 5205 5339 5411
4  878 1386 4859 5175
4  1343 5205 5415 5414
4  5636 5235 5412 5234
4  4977 3759 3760 5622
4  5413 5636 5412 5234
4  1503 5433 5209 5414
4  4587 5233 5234 5411
4  4534 5444 4495 5234
4  1187 1556 1188 5432
4  1222 5235 5433 5412
4  1478 1312 1308 5636
4  5413 5234 5412 5411
4  4247 5294 5156 5154
4  1341 5414 5415 5412
4  4534 5236 5234 5232
4  5413 5248 5636 5234
4  3752 4838 3146 5364
4  4546 4534 4587 5232
4  4251 4252 4703 5625
4  1308 5415 5636 5412
4  4199 4020 5390 5378
4  1222 5636 5235 5412
4  1478 1308 1338 5248
4  5445 5235 5636 5234
4  1222 5636 1312 5235
4  1311 5636 1478 5447
4  1311 5445 5636 5447
4  4472 5520 5484 5328
4  3897 5327 5517 5328
4  987 3037 5573 5159
4  1425 5320 5517 5326
4  2334 5369 5564 5451
4  1529 5521 5518 5517
4  3234 4272 3239 5597
4  5327 5142 5320 5517
4  4070 5578 5357 5358
4  1207 5529 1529 5521
4  604 3831 3382 5560
4  2369 2224 2370 5553
4  2396 2509 2510 5372
4  2471 2547 5546 5548
4  4491 4582 4617 5418
4  2487 2421 2413 5572
4  4711 4712 4937 5480
4  4199 4792 4203 5378
4  2542 2547 2262 5615
4  2427 5558 2428 5565
4  2446 2427 5370 5558
4  5370 5556 5558 5565
4  2348 5418 5443 5407
4  5547 5553 5304 5554
4  2446 5370 5597 5583
4  2426 5558 2446 5583
4  1563 5642 5211 5342
4  5344 5488 5211 5212
4  2312 3751 2400 5285
4  4743 4800 4052 5192
4  4945 4711 4673 5355
4  1556 5211 5642 5488
4  1187 5211 1556 5432
4  1364 5515 5223 5472
4  2384 2503 2527 5356
4  4147 4148 5121 5115
4  4009 4385 4945 5539
4  2456 2487 2413 5119
4  4368 4520 4619 5286
4  2488 2413 2359 5498
4  4945 4523 4964 5375
4  4666 5238 5171 5169
4  4827 4005 4009 5593
4  1402 5239 1155 5474
4  5250 5608 5642 5245
4  4500 4495 5446 5234
4  1222 1308 1312 5636
4  1278 1339 1279 5155
4  5227 5469 5471 5472
4  4630 5556 4335 5557
4  1222 1308 5636 5412
4  3234 5368 4616 5597
4  1564 1556 1187 5211
4  4603 5298 5297 5489
4  1591 1563 1564 5342
4  5597 5381 5164 5162
4  4662 4637 4666 5169
4  4520 5255 5254 5286
4  5444 5445 5559 5438
4  3576 4547 4546 5230
4  1487 5205 1343 5414
4  4740 5286 4619 5284
4  5559 5439 5436 5157
4  1423 1129 1424 5495
4  3265 5516 5536 5402
4  4829 3753 4740 5286
4  4134 5446 5587 5247
4  3598 3773 3265 5536
4  2311 4829 5282 5337
4  4829 5282 5286 5285
4  4829 5286 4740 5285
4  1119 5206 1532 5208
4  4166 4167 4434 5301
4  1532 5206 5205 5208
4  4271 4272 5381 5164
4  4270 5162 4419 5379
4  3489 4756 5338 5339
4  3130 5209 5640 5410
4  1399 5414 5209 5208
4  3130 5640 3109 5410
4  5297 5415 5205 5411
4  5297 5339 5205 5207
4  3130 5209 3489 5210
4  3784 4070 3965 5357
4  1398 5209 1503 5433
4  1313 1495 1384 5550
4  3489 5338 5209 5339
4  1344 5206 1119 5387
4  5562 5547 5309 5305
4  2514 2446 2197 5163
4  3130 5640 5209 5210
4  3130 3107 5339 5410
4  4272 5597 3972 5381
4  5640 5209 5433 5410
4  1398 5209 5640 5210
4  4419 3972 3965 5303
4  2213 5477 5476 5479
4  2067 5463 5465 5276
4  4270 4272 3972 5381
4  2067 3389 5463 5276
4  4270 3972 4419 5162
4  4797 5266 5276 5278
4  5616 5308 5266 5278
4  2060 5465 5380 5277
4  4199 5378 5463 5276
4  4199 4792 5378 5276
4  5547 5304 5306 5305
4  5547 5553 5548 5306
4  5595 5539 5540 5596
4  2503 5540 2528 5375
4  2213 2261 2262 5479
4  2370 5547 5565 5554
4  2388 2472 5315 5316
4  4826 4827 4387 5549
4  3382 4695 3707 5451
4  4882 4785 5289 5317
4  3573 5562 5304 5554
4  5546 5548 5549 5306
4  4630 4335 3784 5557
4  2547 5615 5546 5548
4  2369 5553 2370 5554
4  1311 1492 1293 5445
4  3572 5606 3574 5553
4  4697 5311 5310 5314
4  5562 5304 5547 5305
4  2130 1565 1479 5526
4  5476 5606 5548 5553
4  4587 4495 4500 5234
4  2370 2432 5565 5547
4  2241 2492 5576 5151
4  1210 5639 5640 5433
4  1423 1167 5495 5493
4  4760 3759 5622 5145
4  4325 4736 4992 5586
4  1262 1472 1264 5261
4  4466 4335 5556 5554
4  4644 5212 5344 5340
4  1311 1348 1492 5445
4  4939 5212 4955 5489
4  4808 4662 4666 5169
4  4353 5236 5439 5440
4  1388 1473 1512 5531
4  4939 5488 5344 5212
4  5231 5559 5158 5157
4  1568 1566 1518 5182
4  4939 5251 5488 5489
4  4506 4564 5344 5341
4  4644 4939 5344 5212
4  1327 1329 1533 5466
4  1400 1386 878 5175
4  4462 4832 5301 5570
4  4506 5344 5250 5341
4  2017 1567 1566 5186
4  5522 5613 5528 5523
4  5227 5522 5223 5528
4  4971 5598 5601 5637
4  4487 5522 5227 5528
4  1489 5214 5550 5215
4  5522 5550 5523 5260
4  3972 5162 5597 5583
4  4487 4185 5522 5528
4  1549 5468 5631 5637
4  1471 1469 1419 5402
4  1402 1155 1151 5474
4  4191 5522 5038 5214
4  5630 5331 5330 5644
4  1386 4859 5302 5570
4  4969 5293 4371 5416
4  4040 4371 4862 5416
4  4544 3773 3068 5399
4  1193 5630 5644 5416
4  4040 4969 4371 5416
4  3068 5399 3773 5401
4  1174 5336 5318 5351
4  1543 5581 1316 5428
4  3892 4544 3068 5399
4  4387 3632 3572 5606
4  2471 2224 2213 5548
4  5399 5400 5475 5398
4  3773 5401 5399 5397
4  2497 2221 2498 5394
4  5594 5615 5355 5477
4  1363 5515 5475 5398
4  1153 5406 1406 5400
4  4630 3784 3965 5357
4  1485 5216 5215 5398
4  4009 4673 4387 5594
4  3632 5606 5594 5477
4  2497 2211 2221 5394
4  1567 1554 1262 5188
4  2376 5557 5555 5554
4  4517 3635 4031 5638
4  1671 2033 1541 5429
4  5565 5547 5562 5304
4  4517 5633 4518 5638
4  5392 5618 5136 5417
4  4102 5459 4759 5638
4  5621 5633 5638 5635
4  5459 5145 5623 5605
4  4419 3965 4915 5303
4  2192 5404 2194 5353
4  3483 5294 5292 5156
4  5153 5158 5231 5294
4  2033 1624 1543 5580
4  3068 3773 3598 5401
4  1469 1406 1419 5397
4  1469 5402 5216 5397
4  5469 5515 5214 5399
4  4544 5038 3774 5214
4  1289 5157 1339 5155
4  5153 5156 5154 5155
4  4917 4253 4421 5386
4  3483 4247 5294 5156
4  1278 4247 5156 5155
4  1433 5509 5552 5511
4  4745 4713 4746 5393
4  1552 1553 1412 5271
4  2017 5148 5618 5186
4  1388 5619 5622 5623
4  1429 5623 1519 5146
4  1429 5628 5623 5146
4  1519 5623 1506 5614
4  4513 4360 4222 5200
4  5256 5181 5258 5188
4  1553 5271 5269 5270
4  1568 1553 1552 5269
4  1520 5620 1388 5623
4  4733 5490 5507 5491
4  1471 1419 1426 5535
4  1177 5508 5497 5592
4  4743 5189 5391 5192
4  4434 4487 3893 5228
4  1520 5620 5623 5628
4  5631 5322 5468 5323
4  5392 5147 5417 5393
4  4745 4973 5136 5393
4  5392 5136 5618 5537
4  5396 5136 5134 5135
4  5148 5147 5513 5127
4  4825 4213 5490 5516
4  1166 1168 5494 5535
4  5529 5582 5530 5403
4  4214 5516 5402 5617
4  4462 4832 4167 5301
4  5627 5288 5622 5484
4  3651 4462 4456 4859
4  1367 1483 1403 5585
4  1506 5288 1207 5614
4  1506 5531 1512 5288
4  1506 5531 5288 5622
4  4408 5141 5138 5140
4  1388 5619 5531 5622
4  1506 1388 5622 5623
4  5610 5612 5503 5453
4  1332 1329 1327 5466
4  5454 5200 5481 5482
4  4142 5455 5453 5454
4  3435 4620 4502 3389
4  1944 1557 5609 5245
4  5243 5610 5612 5503
4  4426 4142 5455 5502
4  4175 5426 5611 5588
4  5227 5225 5223 5224
4  4759 5459 4977 5621
4  5171 5238 5237 5169
4  1555 5488 5241 5449
4  4691 4076 4073 5154
4  1537 1491 1516 5436
4  4132 5446 4134 5247
4  5526 5587 5629 5247
4  5250 5608 5245 5246
4  4808 3746 4662 5170
4  845 5065 4247 5155
4  4129 5244 5243 5246
4  4134 5587 5244 5247
4  5629 5586 5589 5552
4  5243 5611 5526 5586
4  97 2922 2192 5566
4  4134 4736 5244 5587
4  5214 5399 5215 5216
4  4071 4691 4073 4247
4  5514 5420 5152 5504
4  4691 5065 4076 5154
4  1406 5400 5397 5398
4  4191 4544 5469 5214
4  1210 3393 934 3394
4  1489 5550 5214 5260
4  4544 5469 5214 5399
4  4263 5413 5251 5489
4  1384 5550 5223 5515
4  5223 5528 5613 5225
4  1479 5526 5629 5247
4  4301 5587 5448 5552
4  1479 5629 5447 5247
4  1414 5551 5512 5511
4  4324 5244 4736 5586
4  1564 405 3496 5211
4  1119 5220 4726 5387
4  1344 1283 1532 5206
4  4254 3576 5290 5230
4  1210 1398 1503 5433
4  4726 3805 5338 5220
4  4736 5244 5587 5586
4  5205 5415 5414 5411
4  5526 5629 5587 5586
4  1525 1524 1526 5589
4  489 4726 3205 5387
4  3920 4661 4660 5295
4  1526 1348 5629 5509
4  1565 1479 5526 5629
4  1399 1487 1341 5414
4  1217 344 1210 5639
4  5629 5448 5587 5552
4  5611 5526 5586 5589
4  5565 5547 5304 5554
4  3109 4546 4587 5233
4  5339 5414 5410 5411
4  2192 2194 2463 5353
4  5593 5315 5595 5546
4  2471 5546 5547 5548
4  5316 5549 5313 5306
4  5315 5289 5316 5549
4  5289 5313 5316 5549
4  5236 5559 5234 5232
4  4353 5236 5231 5439
4  1548 5291 1299 5559
4  1516 5434 5504 5436
4  3752 3750 5363 5285
4  845 1279 142 5065
4  4553 4759 5621 5638
4  2400 5452 5362 5364
4  5540 5542 5543 5541
4  4385 4523 5539 5541
4  4581 5280 5505 5541
4  1244 5628 3635 5635
4  142 1236 1011 4518
4  5419 5633 5634 5154
4  5254 5282 5281 5284
4  5539 5543 5540 5596
4  5452 5543 5366 5596
4  5394 5478 5396 5395
4  1316 1550 1313 5525
4  943 1400 878 3563
4  3892 3068 4638 5470
4  1467 1465 1456 5224
4  4773 4513 4222 5204
4  1467 5226 5474 5472
4  5394 5396 5393 5395
4  4746 5147 5392 5393
4  5392 5147 5148 5417
4  1188 5299 5432 5489
4  1127 1119 1532 5208
4  4929 4660 4958 5298
4  4129 4132 4134 5247
4  4563 4263 4132 5251
4  5576 5249 5264 5263
4  3866 3953 4514 5506
4  2492 5151 2364 5262
4  1441 5521 1209 5332
4  3953 5264 3955 5263
4  78 81 1429 3741
4  2492 2436 5576 5263
4  5620 5632 5621 5635
4  5494 5534 5533 5530
4  926 78 1256 3409
4  3265 4214 5516 5402
4  2465 2527 2431 5131
4  4213 4214 5591 5508
4  5097 4205 5331 5333
4  4273 4275 5195 5483
4  5097 5335 5333 5416
4  1565 1526 1479 5629
4  1479 1526 1348 5629
4  1275 5143 5217 5333
4  1523 5644 1528 5333
4  1275 1514 5143 5333
4  4421 4155 4978 5384
4  4653 5569 5442 5353
4  4042 4862 3097 5335
4  1150 5630 5330 5644
4  1528 5644 1149 5333
4  4052 5274 5349 5193
4  1193 5630 1150 5644
4  1568 1518 1553 5270
4  1471 5402 5535 5617
4  4253 5270 5385 5386
4  1514 1149 5177 5333
4  190 2192 2922 5404
4  1523 1193 5644 5416
4  4937 4712 4713 5480
4  2497 5394 2498 5136
4  4134 4301 4736 5587
4  4712 4713 5480 5395
4  3776 4937 5478 5477
4  1555 1338 1517 5449
4  5574 5394 5396 5135
4  5394 5136 5396 5135
4  2498 5136 5394 5135
4  2498 5394 2221 5135
4  4445 5430 5538 5382
4  3773 5399 3774 5216
4  5256 5258 5257 5382
4  3773 3774 4891 5213
4  3774 5214 5102 5259
4  1566 5186 1567 5183
4  4421 5347 5422 5386
4  4194 5257 5038 5260
4  4446 5382 5185 5183
4  5038 5214 5522 5260
4  1321 5550 5515 5215
4  1344 5300 1283 5206
4  1028 1119 1127 5220
4  1517 1338 1308 5449
4  3435 3389 3385 5278
4  4132 5248 5446 5247
4  4341 5338 4756 5296
4  1166 1168 1167 5494
4  4555 4354 4221 5419
4  4482 5270 4156 5272
4  4214 5617 5591 5508
4  3984 4252 4733 5491
4  1028 4726 1119 5220
4  4547 4358 4353 5231
4  4733 5490 4213 5507
4  814 3205 3566 5387
4  1561 2060 2067 5465
4  5374 5375 5376 5356
4  5603 5540 5539 5375
4  5539 5540 5374 5375
4  4711 5355 4964 5356
4  2519 5595 5540 5596
4  3773 4891 4214 5402
4  3952 4330 3955 5264
4  1399 1532 1487 5208
4  5452 5540 5542 5543
4  2519 5540 2454 5542
4  5315 5289 5317 5314
4  3047 3044 3477 4097
4  4377 5562 5312 5305
4  2286 5309 5310 5545
4  4826 4373 5313 5306
4  3910 4589 3799 5346
4  2300 2353 2411 5203
4  2461 5116 5117 5118
4  4519 5120 5112 5113
4  5368 5556 5370 5563
4  2395 2510 2447 5369
4  4479 4490 5114 5118
4  2348 5117 2456 5443
4  2456 2461 5119 5117
4  154 2274 2346 5118
4  4142 4273 5200 5482
4  2010 2017 1566 5347
4  4917 4421 4987 5422
4  2194 2349 2358 5441
4  5618 5148 5513 5186
4  2464 2211 5394 5395
4  4426 5608 3302 5503
4  5254 5571 5281 5572
4  4521 5254 5121 5571
4  4585 5571 5498 5567
4  3998 5571 4586 5505
4  2511 2465 2431 5131
4  4557 5147 5393 5395
4  4586 5505 5571 5506
4  4419 5161 5303 5600
4  2487 5119 5253 5572
4  2487 5253 2421 5572
4  4620 4797 4792 5276
4  4199 4203 4020 5378
4  4203 4270 4419 5379
4  4067 5373 5268 5160
4  2259 5198 5266 5166
4  3435 4797 5276 5278
4  5253 5281 5283 5572
4  986 2400 3751 3752
4  3750 5363 5009 5364
4  5380 5161 5267 5379
4  4272 4616 3972 5597
4  3234 5368 5597 5367
4  4829 4740 3751 5285
4  2400 3752 5362 5285
4  2431 2261 2211 5132
4  2471 2547 2472 5546
4  2471 2213 2547 5548
4  2221 5394 2211 5478
4  3632 4937 3776 5477
4  3998 5505 5280 5281
4  3574 5606 5574 5553
4  4826 4387 3572 5549
4  3751 4740 3750 5285
4  2369 2221 2224 5476
4  4740 5363 5285 5284
4  4827 5593 4387 5549
4  2495 5595 5409 5315
4  2472 5546 5316 5547
4  4826 3572 4373 5306
4  4373 3572 5304 5306
4  4270 5381 5162 5379
4  2274 5116 5118 5346
4  4512 4493 4032 5114
4  4147 5115 5121 5113
4  2388 2472 2495 5315
4  2401 2507 2536 5452
4  758 2346 2348 5418
4  4493 5115 4147 5113
4  2495 2472 2547 5546
4  1552 5271 1412 5194
4  4482 5591 4156 5270
4  4952 5273 5512 5275
4  3869 5569 5149 5568
4  4514 3955 4515 5262
4  4182 4179 5424 5425
4  5274 5422 5350 5386
4  5273 5194 5271 5272
4  2364 2415 2437 5506
4  4253 4156 5385 5270
4  5271 5270 5592 5272
4  2532 2241 5576 5424
4  5139 5328 5332 5329
4  4844 5177 4291 5329
4  5138 5630 5293 5330
4  2358 2488 2359 5500
4  2417 2480 2415 5505
4  4597 3866 4585 5567
4  600 3936 3044 5458
4  4945 4964 5355 5375
4  4148 4597 4521 5498
4  2401 2402 2507 5409
4  3998 4585 4586 5571
4  6 2921 3290 5405
4  4408 5138 4997 5140
4  2922 4397 2921 5404
4  5293 5330 5630 5331
4  3290 4744 4655 5405
4  4997 5293 4844 5139
4  1167 5492 1129 5495
4  4519 4147 5121 5113
4  3988 5496 4025 5512
4  4351 5435 5434 5496
4  3984 4351 5491 5496
4  5510 5496 5512 5527
4  2454 5542 5376 5505
4  2346 4490 5118 5418
4  4581 5505 4586 5541
4  4740 4368 4619 5286
4  3937 5190 5123 5249
4  4945 5539 4523 5375
4  4586 5505 5374 5541
4  4586 5374 5505 5506
4  2346 2274 2461 5118
4  4716 4655 4582 5407
4  4491 4582 5418 5407
4  2437 2480 5376 5506
4  2437 5506 5376 5287
4  1177 5383 5508 5592
4  4971 4983 4728 5601
4  1177 5497 5271 5592
4  4316 3831 4806 5545
4  3299 3234 4750 5371
4  59 3382 3379 5451
4  3379 3707 3253 4750
4  4214 4155 5591 5617
4  5385 5591 5383 5270
4  5369 5371 5372 5367
4  2396 987 5573 5159
4  46 2253 45 4922
4  4155 5383 5385 5591
4  4992 4030 5273 5552
4  4203 5381 5267 5166
4  1348 5445 5447 5509
4  5445 5448 5447 5509
4  1565 5629 5526 5589
4  1348 1492 5445 5509
4  2334 2395 5369 5451
4  5444 5448 5445 5509
4  45 3037 4922 5421
4  4286 4153 4067 5160
4  4620 4792 4199 5276
4  1408 1271 1275 5217
4  803 742 1270 3097
4  4028 5448 5444 5510
4  4028 5512 4030 5511
4  5152 5504 5153 5157
4  1209 1529 1156 5517
4  1408 1271 5217 5218
4  5231 5439 5559 5157
4  4976 5624 5514 5419
4  1192 1150 5630 5330
4  1379 5152 5514 5632
4  3928 3564 5173 5170
4  4350 3994 4353 5440
4  5435 5436 5438 5440
4  1531 1170 1401 5237
4  1491 5438 5437 5436
4  3031 4808 4899 5168
4  458 4862 4371 5416
4  5239 5326 5473 5169
4  1515 5504 1516 5434
4  3031 3562 3929 5168
4  3988 5435 4351 5496
4  4185 5038 5522 5260
4  4203 4419 4020 5379
4  5631 5468 5322 5637
4  5430 5601 5581 5524
4  4456 4462 4166 5175
4  3651 4462 4859 5570
4  5550 5613 5523 5525
4  4728 5601 5430 5524
4  1386 1367 1332 5570
4  4194 4728 5430 5524
4  5490 5497 5494 5508
4  193 3916 4859 5570
4  3928 4808 3929 5170
4  1167 5494 5497 5508
4  5490 5507 5497 5508
4  3348 3300 5561 5312
4  3707 3299 4750 5451
4  2344 5560 5309 5545
4  4695 3348 3299 5560
4  3299 3300 3234 5561
4  3178 3131 3130 5640
4  4025 4952 5512 5275
4  1423 5497 5512 5275
4  4516 5123 5190 5192
4  1461 5617 5535 5508
4  3239 5597 4272 5164
4  1553 1177 1409 5271
4  3299 5561 5371 5451
4  1409 5497 1423 5275
4  2417 5505 2415 5572
4  5121 5119 5498 5572
4  2417 5283 5505 5572
4  4838 5009 4537 5364
4  2454 5540 5376 5542
4  2312 2400 2452 5362
4  5286 5285 5282 5284
4  5254 5282 5253 5281
4  2417 5283 2454 5505
4  2400 2536 2452 5362
4  4586 4527 4523 5374
4  2433 5564 5370 5565
4  2413 2415 2359 5572
4  2433 5370 2427 5565
4  2359 2415 2364 5567
4  2536 5362 5452 5542
4  4005 4385 4009 5596
4  2427 5370 5558 5565
4  3784 4070 5357 5360
4  5602 5578 5579 5600
4  2402 2495 2507 5409
4  3573 5304 5553 5554
4  4740 4619 4670 5284
4  2282 2279 2461 5116
4  2369 2376 5555 5554
4  2471 5547 2370 5548
4  5556 5565 5562 5554
4  2417 2454 2480 5505
4  4882 5317 5289 5314
4  2415 5505 5567 5572
4  5289 5316 5313 5314
4  1235 1425 1149 5142
4  4785 4005 4827 5408
4  2402 2388 2495 5315
4  21 3146 2401 5364
4  2503 5376 5540 5375
4  2395 3379 60 5450
4  4286 4280 4153 5187
4  3247 4922 3037 5421
4  4826 5313 5289 5549
4  3458 5199 3056 5307
4  4066 4750 3239 5373
4  5315 5316 5546 5549
4  4066 5159 5373 5160
4  2446 5370 2447 5367
4  3406 4279 3405 5575
4  3794 4785 4882 5317
4  5408 5315 5289 5317
4  4827 5289 5593 5549
4  3435 4620 3389 5276
4  4827 5408 5593 5289
4  2396 2250 2509 5573
4  2259 2197 2509 5165
4  2259 2509 2260 5198
4  4066 5373 4067 5160
4  5529 5403 5530 5532
4  1419 5403 5535 5402
4  4102 4407 4760 5605
4  5530 5536 5516 5532
4  5459 5620 5621 5638
4  5401 5403 5406 5397
4  1279 1379 1236 5634
4  1011 1244 81 3635
4  5419 5152 5153 5154
4  4283 3952 4346 5150
4  5594 5593 5595 5546
4  2495 2547 5595 5546
4  4759 5459 5621 5638
4  5593 5409 5595 5315
4  4891 5181 4155 5617
4  3994 4028 4535 5510
4  1388 5620 5619 5623
4  1506 5622 5288 5614
4  4446 5185 4978 5183
4  1262 5258 5261 5181
4  4350 4354 4351 5420
4  1539 1474 1168 5534
4  4891 5213 5181 5617
4  5213 5261 5402 5216
4  5355 5354 5375 5356
4  3773 3774 5213 5216
4  1262 5261 1264 5181
4  5213 5258 5261 5259
4  5325 5318 5238 5319
4  4589 4573 4288 5346
4  2487 2413 5119 5572
4  5521 5517 5332 5328
4  1425 1432 5320 5326
4  3897 5517 5327 5326
4  4288 5346 5112 5345
4  3953 5151 5264 5263
4  1514 1149 1480 5142
4  4521 4597 4585 5498
4  5539 5540 5543 5541
4  5542 5505 5280 5541
4  4619 4521 3998 5281
4  5598 5377 5599 5637
4  4419 5598 4022 5377
4  4466 4630 4616 5556
4  3784 3785 4070 5360
4  2286 2344 5309 5545
4  3572 5553 5304 5306
4  1480 5142 5320 5143
4  2426 2428 2427 5558
4  3776 4745 4696 5396
4  2376 5359 5555 5557
4  1955 2130 5610 5526
4  4129 4324 5243 5244
4  4335 3574 4696 5555
4  4324 4325 5588 5586
4  4992 5552 5273 5590
4  1671 5429 5361 5577
4  1526 1433 5509 5552
4  1944 2130 1557 5245
4  5444 5445 5448 5446
4  2130 1479 5245 5526
4  1188 5488 1343 5489
4  4939 4263 4563 5251
4  4983 5578 4920 5580
4  5578 5580 5579 5577
4  2130 1479 1498 5245
4  1279 5152 5634 5155
4  1543 5430 5581 5428
4  4534 4353 4535 5236
4  4531 4073 4358 5294
4  4353 3994 4535 5440
4  5444 5236 5559 5234
4  4193 5601 4728 5524
4  5231 5236 5559 5439
4  4728 4983 5430 5601
4  5582 5401 5536 5403
4  2033 1543 5430 5580
4  334 3562 3691 5351
4  4638 5470 5473 5471
4  1166 1471 1426 5535
4  1120 1539 1426 5532
4  5601 5581 5602 5580
4  1541 5429 5430 5428
4  1024 3172 2067 3389
4  1465 1364 1384 5223
4  2033 1541 5429 5430
4  1275 1444 5217 5143
4  1514 5177 5143 5333
4  4915 4070 4983 5578
4  1444 5217 5143 5218
4  4022 4983 4971 5598
4  1671 5361 5358 5577
4  5176 5143 5318 5319
4  4983 4070 4920 5578
4  4972 4818 5334 5218
4  5239 5238 5326 5169
4  5385 5383 5182 5270
4  3773 5213 5402 5216
4  5523 5525 5524 5260
4  2492 2364 2436 5262
4  2504 2369 2376 5555
4  5327 5326 5320 5324
4  4466 4335 4630 5556
4  4637 5473 5326 5169
4  2213 5548 5476 5477
4  2497 5394 5136 5417
4  3776 4713 4745 5396
4  5240 5239 5473 5169
4  3895 3897 5327 5324
4  5325 5238 5324 5319
4  1450 5237 5318 5238
4  3031 4899 3562 5168
4  4899 3562 5168 5351
4  4973 5136 5392 5537
4  1541 1544 1554 5429
4  4899 5171 4807 5325
4  1544 1472 1262 5258
4  4191 5038 4544 5214
4  4194 4728 4445 5430
4  1262 1264 1263 5181
4  1461 1471 1166 5535
4  2017 5148 5347 5348
4  4330 4179 4516 5190
4  2532 5576 2534 5279
4  5424 5423 5427 5425
4  4179 5189 5190 5423
4  5588 5607 5589 5590
4  4182 4330 3952 5264
4  3937 4056 4558 5124
4  3952 5264 3953 5151
4  3028 4899 4861 5351
4  3028 3031 4899 3562
4  4861 4899 4807 5325
4  4515 5249 5130 5287
4  1283 5299 1486 5206
4  1191 1486 1283 5299
4  1191 5432 1188 5299
4  5297 5298 5299 5489
4  1531 3929 5168 5174
4  5325 5318 5336 5351
4  4466 5562 3573 5554
4  2504 5359 5134 5555
4  3574 5553 5574 5555
4  2369 5476 5555 5135
4  4466 5556 5562 5554
4  2369 5476 2224 5553
4  4335 5553 3574 5555
4  5452 5542 5362 5543
4  5452 5366 5363 5364
4  5009 4974 5366 5363
4  2400 5452 2536 5362
4  2495 5315 2472 5546
4  4254 4549 3481 5290
4  2532 2241 2534 5576
4  5594 5546 5615 5548
4  2471 5546 2472 5547
4  4350 5420 5435 5439
4  344 3393 1210 5639
4  21 3752 3146 5364
4  5452 5363 5366 5543
4  4342 4726 3805 5338
4  2507 2519 5452 5596
4  3752 5363 5362 5285
4  4974 5366 5543 5596
4  2519 5540 5452 5596
4  1028 3805 4726 5220
4  2452 5362 2536 5542
4  5250 5344 5642 5341
4  5250 5341 5642 5608
4  5642 5341 5211 5342
4  489 1119 1028 4726
4  4425 5455 5343 5502
4  4426 4425 5341 5502
4  78 1256 3409 5146
4  4929 3567 4660 5298
4  2507 2495 5595 5409
4  2388 5316 5315 5314
4  5593 5289 5315 5549
4  4785 5408 5289 5317
4  508 1191 1283 5431
4  4924 4289 4697 5314
4  4785 5408 4827 5289
4  1210 1223 5639 5433
4  1503 5414 1341 5412
4  1398 5640 5209 5433
4  4175 4184 5426 5588
4  5414 5412 5410 5411
4  489 988 814 3205
4  5290 5639 5291 5233
4  1223 5433 1222 5235
4  2485 5352 5460 5201
4  4361 5202 5204 5197
4  1344 814 3566 5387
4  1988 1999 1552 5269
4  4222 5204 5200 5197
4  2458 2386 2465 5122
4  4773 5457 4513 5458
4  4052 4800 5274 5193
4  4184 4801 4743 5189
4  839 5203 3047 5566
4  4052 4800 4917 5274
4  5392 5513 5148 5147
4  4097 4361 5202 5204
4  4283 4360 5195 5197
4  1999 2010 1568 5350
4  5126 5123 5122 5124
4  2353 5352 2485 5203
4  2452 2455 5282 5283
4  1977 1988 1560 5388
4  5593 5409 5408 5596
4  5481 5200 5196 5195
4  4785 4537 5408 5365
4  4670 5543 5363 5280
4  1278 1289 1339 5155
4  1244 5620 1520 5628
4  4974 4005 5366 5596
4  2400 3751 3752 5285
4  4859 5302 5301 5175
4  1400 5229 1386 5175
4  1392 1381 1388 5619
4  4102 5605 5459 5638
4  5585 5302 5301 5570
4  1386 1332 193 5570
4  5459 5623 5620 5628
4  1408 1444 1174 5336
4  1364 1151 1363 5475
4  1489 1321 1485 5215
4  4859 5301 5302 5570
4  4462 5301 4166 5175
4  5178 5302 5229 5175
4  1531 5168 5167 5174
4  1467 5474 1151 5472
4  1386 5229 5302 5175
4  5225 5229 5178 5302
4  5225 5301 5585 5302
4  4009 4945 5355 5539
4  1467 1364 1465 5222
4  3893 4191 3892 5471
4  5615 5595 5355 5603
4  3632 5594 4673 5477
4  1465 1384 1483 5223
4  4387 5594 3632 5606
4  4009 5355 5595 5539
4  2507 5595 2519 5596
4  5593 5408 5315 5289
4  5413 5636 5415 5412
4  3409 5141 3741 5146
4  1223 1222 1299 5235
4  1222 1312 1299 5235
4  4500 5248 5413 5234
4  3108 5413 5297 5411
4  5624 5622 5619 5459
4  1503 1222 1223 5433
4  1549 5613 1550 5631
4  4487 4185 4191 5522
4  4392 5570 3916 5467
4  4076 5633 5419 5154
4  5621 5632 5633 5635
4  1244 5620 5628 5635
4  1559 1522 1549 5637
4  1543 5581 5430 5580
4  5620 5638 5628 5635
4  1550 1495 1313 5525
4  5538 5185 5429 5537
4  1472 1485 1469 5261
4  2436 5249 5576 5263
4  2534 2492 2436 5576
4  3253 4066 3033 5450
4  5538 5430 5429 5382
4  1433 1443 5509 5511
4  2396 5372 3033 5159
4  2396 5573 5372 5159
4  2483 2492 2234 5151
4  4535 4028 4494 5444
4  3994 3988 4028 5510
4  4066 4067 4153 5160
4  1492 5445 5509 5438
4  4494 5444 4028 5448
4  5371 5372 5373 5450
4  1151 1153 1363 5475
4  4750 5371 3239 5373
4  4067 3239 5268 5373
4  5529 5288 5520 5521
4  1539 1168 1426 5532
4  4167 5528 4434 5301
4  5601 5631 5581 5523
4  4185 5522 5528 5523
4  4084 5523 5584 5322
4  5601 5631 5322 5637
4  3760 3932 2942 5627
4  5227 5528 5223 5225
4  1166 1426 1168 5535
4  3932 2941 2942 5582
4  5223 5522 5550 5613
4  4487 4191 5227 5522
4  4271 5198 5268 5166
4  3239 5268 5373 5367
4  5184 5198 5573 5160
4  839 2300 600 5458
4  5268 5372 5573 5373
4  4506 4426 4425 5341
4  4095 4097 4361 5202
4  4506 4939 5250 5344
4  3972 5381 5597 5162
4  5191 5193 5388 5192
4  3300 4466 4616 5563
4  4616 4630 3972 5583
4  4179 5426 5423 5425
4  2471 2472 2475 5547
4  2439 2376 2426 5557
4  4915 3965 4070 5357
4  5426 5485 5427 5425
4  5361 5134 5136 5137
4  2376 5558 2426 5557
4  2531 5126 5191 5279
4  3108 5297 5413 5489
4  1486 1343 5205 5299
4  5212 5432 5299 5489
4  5297 5207 5299 5296
4  5297 5205 5415 5489
4  2311 4829 3751 5285
4  4520 5254 4619 5286
4  4670 5280 5363 5284
4  5300 5206 5387 5296
4  1010 2311 4829 3751
4  4756 5338 5207 5296
4  4756 3107 3108 5339
4  4756 3108 5297 5339
4  2376 5558 5557 5554
4  5485 5643 5612 5483
4  3300 4616 3234 5368
4  5389 5378 5377 5380
4  4660 4603 5298 5296
4  2498 2369 2504 5135
4  2384 2527 5130 5356
4  4712 4558 5128 5133
4  4155 5181 4978 5384
4  3776 4937 4713 5478
4  5561 5312 5564 5560
4  5385 5270 5182 5386
4  5565 5304 5562 5554
4  2017 5618 1665 5186
4  5309 5311 5310 5545
4  4746 5513 5392 5147
4  5182 5181 5384 5183
4  2455 5253 5282 5283
4  4619 3998 4670 5280
4  4491 4716 4617 4582
4  2941 3598 2942 5401
4  1495 5223 5550 5613
4  1313 1495 5550 5525
4  1384 1495 5223 5550
4  1384 1321 5550 5515
4  5184 5199 5198 5160
4  2334 2395 2447 5369
4  2358 2483 2463 5501
4  4367 4592 4368 5337
4  4185 5523 4193 5524
4  4519 4147 4521 5121
4  5522 5515 5550 5214
4  4617 4493 5114 5418
4  2311 5282 4829 5285
4  499 661 2282 5346
4  4490 4617 5114 5418
4  2311 2312 5282 5285
4  499 2282 2274 5346
4  5253 5282 5283 5281
4  2491 5253 5252 5282
4  3753 4368 5286 5337
4  5254 5252 5253 5282
4  1010 2311 444 4829
4  3579 3799 4589 5346
4  4592 5345 5255 5337
4  4042 4094 5097 5335
4  1011 1236 1244 5635
4  1929 5609 5342 5502
4  1591 5000 5343 5340
4  4861 4807 4210 5325
4  4320 4094 3095 5544
4  3441 4425 4141 5343
4  1192 1150 1193 5630
4  4899 4808 5171 5168
4  4142 5453 5503 5482
4  5217 5334 5335 5333
4  1193 4371 5630 5416
4  4040 4042 5097 5416
4  2286 2344 2432 5309
4  585 4806 2286 5310
4  3348 4377 3300 5312
4  4426 5608 5503 5502
4  4697 4234 4303 5311
4  1332 5570 1367 5323
4  1466 5229 5225 5302
4  4832 5301 5570 5323
4  2284 4697 5310 5314
4  4434 5225 5178 5301
4  4832 5584 5301 5323
4  4289 4234 4697 5314
4  2358 5441 2488 5500
4  2284 4697 585 5310
4  4691 4063 4076 5065
4  5184 5160 5573 5421
4  2509 5573 5165 5372
4  2396 5573 2509 5372
4  2250 5184 2469 5573
4  3258 4825 5533 5516
4  1236 1379 1392 5632
4  2509 5573 2469 5198
4  1279 1339 1379 5152
4  2250 5573 3037 5421
4  3406 3427 4922 5575
4  5645 5534 5531 5530
4  4184 4801 5189 5588
4  5189 5487 5426 5607
4  4179 5426 5189 5423
4  1452 5167 5221 5174
4  5268 5165 5164 5166
4  5226 5172 5222 5224
4  4502 4503 3172 5463
4  1561 2067 1024 3172
4  3385 5308 5616 5278
4  1452 3564 5174 5179
4  4620 4199 4503 5463
4  4286 4067 5198 5160
4  4271 4605 5198 5166
4  5172 5178 5229 5179
4  3910 4032 4589 5346
4  3746 3742 4662 5240
4  3746 5240 4662 5170
4  4303 4234 4229 5311
4  4519 5121 4520 5120
4  2284 5310 5316 5314
4  2311 5252 2279 5337
4  3146 4838 4508 5365
4  4617 4493 4512 5114
4  4521 5571 5121 5498
4  2284 5316 2388 5314
4  4303 4806 5311 5545
4  5316 5310 5313 5314
4  2284 2475 5316 5310
4  2284 585 2286 5310
4  585 4697 4806 5310
4  3393 5639 5290 5640
4  1223 5291 5639 5433
4  1498 1479 1478 5447
4  4342 4341 4345 4726
4  1217 3481 5639 5292
4  1217 3481 344 5639
4  1217 5639 1223 5291
4  1217 5292 5639 5291
4  4535 5510 5444 5440
4  2300 2404 2316 5454
4  3760 3258 5645 5530
4  3994 5435 3988 5510
4  4494 4028 4301 5448
4  5444 5510 5509 5438
4  3988 4028 5510 5512
4  4361 4346 4653 5149
4  4222 4283 4361 5197
4  4301 4030 5552 5511
4  2438 2426 2446 5583
4  4271 3239 4272 5164
4  2396 3033 987 5159
4  4066 3239 4067 5373
4  1443 1492 5509 5437
4  4892 4166 4434 5178
4  1443 5437 5511 5527
4  1155 1153 5474 5519
4  1452 1458 1456 5221
4  4456 4859 4462 5175
4  1414 1409 1423 5275
4  3893 5228 5227 5471
4  4025 5507 5512 5493
4  5509 5437 5510 5511
4  4030 5512 5273 5511
4  1401 1432 1402 5239
4  4030 4952 5273 5512
4  1414 5551 5271 5275
4  4653 4346 3869 5149
4  1412 1409 1414 5271
4  4655 4399 5010 5442
4  1414 1433 5551 5511
4  4095 4097 5202 5566
4  4184 4743 4179 5189
4  1624 1559 1543 5581
4  2463 5501 5460 5353
4  3496 5211 5212 5340
4  4507 4129 4324 5243
4  1559 1549 5581 5637
4  5613 5631 5584 5523
4  1564 1187 405 5211
4  4084 5528 5584 5523
4  1403 5585 5613 5631
4  1955 5611 5610 5612
4  4080 4971 5601 5637
4  4563 4129 4507 5246
4  1543 1550 1316 5581
4  1478 5447 5636 5248
4  4445 5257 5430 5382
4  5241 5447 5248 5247
4  5413 5415 5248 5449
4  4534 4535 4495 5444
4  1489 5260 5214 5259
4  4939 4263 5251 5489
4  1479 1348 1478 5447
4  4129 4736 4324 5244
4  4263 4500 4132 5251
4  4500 5251 5413 5248
4  1299 1293 1291 5559
4  4263 5413 4500 5251
4  4939 5250 5488 5251
4  2471 2370 2224 5548
4  2370 5565 2428 5554
4  2316 3936 5454 5456
4  3441 4809 5000 5343
4  1444 5143 1480 5319
4  5237 5318 5325 5351
4  2547 2262 5615 5548
4  2498 5136 5135 5137
4  1170 1450 5237 5318
4  4557 4981 4746 5513
4  5148 5347 5348 5127
4  2497 2464 2211 5394
4  4557 5513 5147 5127
4  1665 1554 1567 5185
4  3258 2942 3265 5530
4  5490 5494 5516 5508
4  4210 5325 5176 5336
4  4899 5171 5325 5351
4  1518 1263 1461 5383
4  1264 1469 1471 5617
4  4818 4212 5334 5219
4  5066 4978 4155 5181
4  1456 1466 5229 5224
4  5204 5200 5481 5458
4  1367 5225 1483 5585
4  1367 5225 5585 5302
4  4891 5066 4155 5181
4  3885 3916 3173 5467
4  3774 5066 4891 5213
4  4191 5469 3892 5471
4  5227 5228 5225 5224
4  1554 5185 5429 5382
4  1364 1384 5223 5515
4  4213 4214 4155 5591
4  4891 5213 5066 5181
4  3742 3891 5240 5228
4  3885 4393 4392 5467
4  5240 5226 5172 5222
4  1483 5223 5613 5225
4  1495 5613 5550 5525
4  2534 5576 5249 5242
4  5123 5122 5249 5242
4  4516 4052 5123 5192
4  4052 5125 5123 5193
4  4860 4456 4166 5175
4  4462 4167 4166 5301
4  5123 5190 5191 5279
4  4426 4142 4141 5455
4  2386 2465 5122 5265
4  3490 4644 4564 5340
4  5125 5348 5349 5127
4  3746 5172 5240 5170
4  5226 5222 5473 5472
4  3746 4892 3742 5172
4  1332 1329 5466 5323
4  1531 3929 412 5168
4  3209 3210 3205 4345
4  1127 3805 5220 5210
4  2067 5463 3172 5462
4  4469 5390 5321 5464
4  3490 3442 3496 5340
4  1403 5585 5631 5323
4  5613 5585 5584 5631
4  3178 4640 3394 5640
4  5584 5585 5301 5323
4  1398 1127 1399 5208
4  344 934 1210 3393
4  5377 5321 5468 5637
4  1327 1533 1561 5462
4  4393 4503 4469 5462
4  5514 5420 5504 5434
4  4351 5420 5434 5435
4  4703 5434 5625 5491
4  726 1028 1127 3805
4  3178 4549 3131 3393
4  3489 5338 3805 5210
4  4703 5420 5625 5434
4  4728 4983 4920 5430
4  1559 5599 1522 5637
4  5377 5468 5599 5637
4  1559 5581 5602 5637
4  4983 5601 5598 5580
4  4022 5598 4971 5637
4  4371 5293 3408 5630
4  803 919 3221 5544
4  3413 3408 4051 5293
4  4371 5293 5630 5416
4  1192 5138 1439 5330
4  1523 5333 5641 5416
4  4051 4040 4969 4371
4  3413 5138 3408 5293
4  4969 4205 4844 5331
4  1523 4862 458 5416
4  1444 1514 1480 5143
4  4997 5138 5293 5139
4  4972 5334 4094 5544
4  5217 5335 5334 5544
4  1944 1557 1929 5609
4  1548 5158 5291 5559
4  1217 1548 5292 5291
4  5231 5291 5559 5232
4  5231 5230 5291 5232
4  5205 5339 5414 5208
4  1398 5210 1127 5208
4  1223 1299 5291 5235
4  4254 5290 3483 5230
4  1210 934 1398 3394
4  5459 5605 5628 5638
4  1244 1392 5620 5635
4  3741 5605 5628 5146
4  3635 5628 5605 5638
4  5291 5233 5433 5235
4  726 1398 934 3394
4  1223 5291 5433 5235
4  726 3805 1127 5210
4  726 3394 3805 5210
4  5623 5628 5605 5146
4  4179 4743 4516 5190
4  81 3741 3635 5628
4  81 3635 1244 5628
4  4743 4801 4800 5391
4  4005 5593 5408 5596
4  4052 4917 4987 5349
4  4009 4385 5539 5596
4  4974 5543 4385 5596
4  4474 4844 4291 5139
4  4553 4102 4759 5638
4  5408 5409 5366 5596
4  5593 5595 5409 5596
4  4409 4407 5605 5141
4  5608 5609 5503 5502
4  1944 5610 5609 5453
4  5608 5610 5609 5245
4  4506 4426 5341 5608
4  4513 4222 5204 5200
4  5642 5608 5609 5245
4  1557 5642 1563 5609
4  5642 5608 5341 5609
4  1563 5642 5342 5609
4  3130 3489 5209 5339
4  1512 5531 1120 5288
4  3130 3109 3107 5410
4  3178 3393 3131 5640
4  3130 3107 3489 5339
4  1210 5639 3393 5640
4  1399 1341 1503 5414
4  1487 1343 1341 5414
4  5413 5488 5415 5449
4  3178 3130 4640 5640
4  1399 1487 5414 5208
4  4640 3394 5640 5210
4  3409 5141 5146 5138
4  3413 3409 3408 5138
4  926 3408 3409 5138
4  5385 5182 5383 5384
4  4445 5093 4446 5538
4  4446 4984 4978 5185
4  3408 5293 5138 5630
4  1566 1567 1263 5183
4  3413 4408 5141 5138
4  1279 5634 5065 5155
4  4494 4301 4134 5448
4  5244 5526 5587 5586
4  3485 4958 3497 4644
4  4073 4221 5153 5154
4  4426 4507 3302 5608
4  4955 3108 4263 5489
4  3485 4958 4644 5212
4  4073 5153 5294 5154
4  4691 4073 4247 5154
4  1489 1313 5550 5525
4  1489 5214 5215 5259
4  4691 4247 5065 5154
4  1316 1489 1544 5428
4  3131 3109 5640 5233
4  1299 5559 5291 5235
4  4547 5231 5236 5232
4  1469 5402 5261 5216
4  1316 1313 1489 5525
4  4546 5233 5230 5232
4  1364 1321 1384 5515
4  5576 5190 5249 5242
4  3774 5102 5066 5256
4  1554 5429 1544 5258
4  1414 1443 5511 5527
4  5420 5504 5434 5436
4  1128 5626 5514 5434
4  3984 5507 4025 5493
4  4644 5344 4564 5340
4  5182 5350 5347 5386
4  5189 5388 5391 5192
4  5459 5628 5620 5638
4  4743 5190 5189 5192
4  3047 4097 3473 5566
4  5627 5288 5484 5520
4  4760 5145 5459 5605
4  1441 5614 5521 5332
4  2376 2370 2428 5554
4  1207 5614 5288 5521
4  5138 5139 5604 5330
4  5645 5619 5624 5622
4  2286 4806 584 5545
4  1506 5623 5622 5614
4  21 2400 986 3752
4  2402 2495 5409 5315
4  3759 3932 5627 5484
4  2402 5365 3794 5317
4  2472 5315 5316 5546
4  4373 5311 5313 5305
4  4234 4373 4229 5311
4  4882 5289 4290 5314
4  936 4924 4697 5314
4  971 2388 2402 5317
4  104 3483 3481 5292
4  1291 5438 1491 5436
4  104 3481 1217 5292
4  5231 5158 5292 5294
4  4419 4915 4022 5598
4  4806 5310 5311 5545
4  4407 5145 5605 5141
4  3300 5562 4466 5563
4  3379 3253 3033 5450
4  4409 3741 3409 5141
4  1256 1439 5138 5604
4  1429 1520 5623 5628
4  2475 2472 5316 5547
4  3760 5627 5645 5622
4  78 3409 3741 5146
4  78 3741 1429 5146
4  2237 2238 2235 5486
4  3952 3953 5149 5151
4  2192 2463 2485 5352
4  4479 4512 3910 4032
4  2241 5461 5576 5424
4  5487 5423 5426 5427
4  499 2274 4479 5346
4  4564 5341 4425 5340
4  2241 5461 2234 5151
4  5149 5150 5151 5201
4  2311 2491 2279 5252
4  2241 5576 5461 5151
4  1591 3496 1092 5000
4  4182 5264 3952 5150
4  3579 4479 3910 5346
4  4479 4032 3910 5346
4  4032 5114 5112 5346
4  1544 1489 1472 5259
4  5215 5216 5399 5398
4  5213 5215 5214 5259
4  1264 5261 1469 5617
4  5213 5402 5261 5617
4  1485 1469 5261 5216
4  3773 5213 4891 5402
4  4287 4367 4829 5337
4  2311 3751 2312 5285
4  2279 5345 4287 5337
4  2282 4288 993 5345
4  1520 1388 1506 5623
4  4977 5645 5624 5622
4  843 3579 661 5346
4  444 4287 4829 5337
4  3579 4589 4288 5346
4  1473 5531 5619 5626
4  5645 5619 5531 5626
4  4288 4689 4287 5345
4  1379 5514 1381 5632
4  5459 5605 5623 5628
4  1381 1473 5619 5626
4  332 1408 1174 5336
4  3680 4972 4321 5218
4  3679 3691 4861 5336
4  3679 4861 4818 5336
4  4517 4063 4518 5633
4  4517 4553 4063 5633
4  5153 5156 5294 5154
4  3095 4094 4042 3097
4  3095 3097 3221 5544
4  3031 3928 4808 3929
4  4518 5638 5633 5635
4  943 3563 3564 5179
4  1236 5634 5632 5635
4  1236 4518 5634 5635
4  4063 5065 4518 5633
4  3785 5134 5361 5360
4  5574 5476 5394 5135
4  3746 5173 5172 5170
4  3746 3742 5240 5172
4  334 1170 3562 5351
4  5097 4212 4205 5333
4  3785 5396 4745 5136
4  2369 2221 5476 5135
4  2363 2469 5307 5308
4  3435 5616 4797 5278
4  4531 5294 5231 5230
4  2250 2469 2509 5573
4  4546 5233 5290 5230
4  4549 3131 3393 5290
4  3131 5640 5290 5233
4  3621 3385 3056 5616
4  2260 2509 2469 5198
4  4894 4605 4797 5616
4  4067 5268 4271 5198
4  1548 5158 5292 5291
4  4286 4271 4605 5198
4  2922 3473 4095 5566
4  190 2921 2194 5404
4  4095 4361 4653 5202
4  3481 5290 3393 5639
4  5290 5640 5639 5233
4  4792 4203 5378 5267
4  4286 4067 4271 5198
4  2514 2197 2259 5163
4  5377 5380 5378 5379
4  2509 5165 2510 5372
4  1557 1555 5642 5241
4  5243 5245 5244 5526
4  1275 1528 1514 5333
4  4969 5097 4205 5331
4  5176 5336 5143 5219
4  2130 5245 5610 5526
4  4563 5250 5251 5246
4  4132 5251 5248 5246
4  4474 4472 4475 5144
4  5624 5514 5619 5626
4  5624 5625 5514 5626
4  4407 4408 4475 5141
4  5625 5434 5492 5491
4  1381 5619 5514 5626
4  4666 4478 4807 5238
4  1425 1156 1155 5326
4  4844 4205 3895 5177
4  5484 5332 5614 5144
4  5533 5626 5534 5492
4  1432 1155 1402 5239
4  5645 5531 5534 5626
4  5514 5625 5420 5434
4  4976 5624 4251 5625
4  4519 5255 5112 5120
4  2519 2528 2503 5540
4  2417 2415 2421 5572
4  2475 5547 5316 5310
4  4251 5533 4252 5625
4  3300 4377 4466 5562
4  2370 2432 2428 5565
4  2471 2475 2370 5547
4  4549 3393 3481 5290
4  3573 3574 4335 5553
4  2433 5564 5565 5309
4  4703 5625 4252 5491
4  5514 5626 5625 5434
4  4563 4132 4129 5246
4  5559 5438 5436 5440
4  3302 4324 4175 5643
4  1557 5642 5245 5241
4  5526 5629 5586 5589
4  1525 1526 1565 5589
4  4351 5434 4703 5491
4  3920 4660 3567 5295
4  5338 5339 5207 5208
4  1283 5300 5299 5206
4  2532 2237 2241 5424
4  5000 3442 4425 5340
4  4660 5298 5300 5296
4  5250 5245 5642 5241
4  4341 5387 5338 5296
4  1968 1525 1565 5589
4  3566 3920 3567 5295
4  3566 4661 5295 5387
4  1524 1414 1433 5551
4  1344 3566 646 5300
4  1977 1560 1525 5607
4  3566 3567 5300 5295
4  1344 5300 5206 5387
4  5338 5220 5206 5387
4  1532 1486 5205 5206
4  4086 4080 4832 5322
4  4434 5528 5225 5301
4  1364 1363 1321 5515
4  3929 5168 5174 5170
4  1465 1483 1466 5225
4  4194 5430 4445 5257
4  4185 4194 5038 5260
4  1401 5167 5237 5239
4  5550 5214 5515 5215
4  4920 5361 5538 5577
4  4920 4973 5093 5361
4  5167 5168 5237 5169
4  1531 1401 5167 5237
4  3785 4973 4920 5361
4  1544 5258 5429 5428
4  1665 1671 1554 5537
4  5240 5167 5239 5169
4  5171 5169 5168 5170
4  3760 2942 3258 5530
4  1471 1469 5402 5617
4  1177 1166 1167 5508
4  1263 1264 1461 5181
4  5434 5492 5491 5495
4  5066 5213 5256 5181
4  3773 4214 3265 5402
4  4214 4891 4155 5617
4  1518 5182 1263 5383
4  4155 5385 4156 5591
4  3984 5491 5507 5493
4  4156 5591 5385 5270
4  4482 5507 5591 5592
4  5327 5142 5328 5329
4  5330 5644 5331 5177
4  5102 4446 5256 5382
4  1999 5349 5348 5350
4  4475 5145 5141 5140
4  1192 1439 1150 5330
4  4997 5139 4474 5140
4  4844 5331 4205 5177
4  4844 5139 5330 5329
4  4860 4166 4892 5180
4  3563 5173 5179 5180
4  5604 5144 5139 5140
4  3028 3562 4899 5351
4  735 3690 4321 5218
4  3300 4377 5562 5312
4  4616 5556 5368 5563
4  3300 5368 3234 5561
4  5564 5312 5309 5560
4  3234 5561 5368 5371
4  4695 5560 3299 5451
4  5561 5369 5371 5451
4  5561 5564 5369 5451
4  1988 5269 5388 5193
4  4409 3413 4408 5141
4  5145 5623 5146 5604
4  4987 5125 5349 5127
4  4042 5335 5097 5416
4  1988 1552 1560 5388
4  1955 1968 1565 5611
4  1560 5590 5388 5194
4  1568 5350 5182 5386
4  5189 5191 5487 5388
4  5273 5271 5551 5275
4  4482 5275 5507 5592
4  1236 1392 1244 5635
4  5419 5153 5152 5420
4  4800 5194 5274 5193
4  344 3481 3393 5639
4  4254 3576 4549 5290
4  1220 5292 5158 5156
4  1256 1429 1519 5146
4  4997 4969 4844 5293
4  926 3409 1256 5138
4  405 1187 404 3494
4  1119 5206 5220 5387
4  3210 4341 4661 5387
4  22 971 2402 3794
4  4531 4358 5231 5294
4  1486 1343 1487 5205
4  4358 5231 5153 5439
4  1548 1291 5158 5559
4  1450 1480 1432 5238
4  5608 5610 5243 5503
4  4507 4129 5243 5246
4  5217 5334 5333 5219
4  1944 5610 2130 5245
4  3302 5608 4507 5243
4  1519 5146 5623 5604
4  334 1170 412 3562
4  4031 3635 3741 5605
4  4102 4760 5459 5605
4  1235 5332 5142 5329
4  5171 5168 5237 5351
4  4031 3635 5605 5638
4  4407 4475 4760 5145
4  4291 5327 5328 5329
4  1531 1401 1458 5167
4  4421 4984 4981 5186
4  4421 4978 4984 5186
4  4746 4981 4984 5513
4  3635 5628 5638 5635
4  4745 5136 5396 5393
4  3489 3107 4756 5339
4  1532 1486 1487 5205
4  5538 5429 5361 5537
4  4920 5093 5538 5361
4  4973 5093 5361 5537
4  1671 5361 5429 5537
4  1665 1554 5185 5537
4  1458 1402 5226 5239
4  1235 1149 5330 5329
4  1529 1437 1370 5406
4  4809 5455 3936 5456
4  5240 5226 5167 5172
4  5223 5515 5469 5472
4  1155 1156 1153 5519
4  4637 4638 3503 5473
4  5240 5167 5169 5170
4  5399 5401 5400 5397
4  3093 3068 3598 5401
4  334 3691 1174 5351
4  5473 5326 5474 5519
4  1531 412 1170 5168
4  5293 5331 5630 5416
4  5484 5520 5521 5328
4  4666 5326 5238 5169
4  1425 5320 5142 5517
4  4662 5240 5169 5170
4  499 3579 843 5346
4  3302 5243 4324 5643
4  4273 3302 4175 5643
4  1968 5611 5485 5607
4  2532 5424 5279 5427
4  4275 4175 5426 5643
4  5487 5426 5485 5427
4  2311 2312 2455 5282
4  4273 5643 4275 5483
4  4142 5503 4273 5482
4  5486 5195 5424 5425
4  1188 5432 5488 5489
4  499 4479 3579 5346
4  2426 2427 2446 5558
4  3108 5413 4263 5489
4  839 2353 2300 5203
4  5297 5413 5415 5411
4  3382 5560 4695 5451
4  2439 2426 2438 5583
4  4616 3972 5597 5583
4  2504 2376 2439 5359
4  1188 1343 5299 5489
4  2438 5162 5303 5583
4  5212 5299 5298 5489
4  2454 2503 2480 5376
4  2334 2447 5564 5369
4  2446 5164 5597 5367
4  3299 5561 3234 5371
4  3794 5365 4785 5317
4  3033 5372 5373 5159
4  2312 2452 5282 5362
4  4740 4670 5009 5363
4  4670 3998 4581 5280
4  21 2401 2400 5364
4  5368 5371 5369 5367
4  4838 4537 5365 5364
4  2452 5282 5362 5283
4  2437 5506 5287 5262
4  3935 4137 4774 5457
4  4361 4346 5149 5201
4  59 60 2395 3379
4  1591 5343 5342 5340
4  3299 3348 3300 5561
4  2446 2427 2447 5370
4  4637 3891 4638 5473
4  4346 5150 5201 5197
4  2334 2447 2433 5564
4  5556 5562 5565 5563
4  3784 5357 5134 5360
4  3234 4616 4272 5597
4  2433 2447 2427 5370
4  2446 2447 2510 5367
4  4283 4182 5150 5195
4  4222 4361 5204 5197
4  3572 3632 3574 5606
4  3572 3574 3573 5553
4  3572 3573 5304 5553
4  3632 3776 3574 5574
4  4275 5483 5426 5425
4  2241 2234 2492 5151
4  1522 5599 5468 5637
4  2456 2461 2487 5119
4  2384 2436 2437 5287
4  4469 5390 4021 5321
4  4385 4581 4523 5541
4  4021 5377 4022 5637
4  4945 4385 4523 5539
4  154 4490 4479 5118
4  2311 2279 444 5337
4  2510 5369 5372 5367
4  4272 5597 5381 5164
4  3033 5373 5372 5450
4  4750 5371 5373 5450
4  2395 5372 5369 5450
4  3234 5597 3239 5367
4  3252 4066 4153 5159
4  3379 3707 4750 5451
4  2010 1566 1568 5350
4  5213 5261 5258 5181
4  5401 5406 5400 5397
4  3247 3252 4153 5421
4  4214 5402 4891 5617
4  1263 5383 5182 5181
4  1423 5497 1167 5493
4  5507 5508 5591 5592
4  661 993 2282 4288
4  2282 993 2279 5345
4  3265 5516 5530 5536
4  3406 3405 3407 5575
4  4482 4733 4213 5507
4  1166 5494 1167 5508
4  3258 5533 5530 5516
4  5645 5533 5534 5530
4  5490 5533 5494 5492
4  4825 5490 5533 5516
4  1539 5534 1168 5532
4  1120 5529 5531 5532
4  3427 3407 3405 5575
4  5494 5533 5534 5492
4  3258 5533 5645 5530
4  1474 5494 1168 5534
4  1168 5494 5535 5532
4  1168 5535 1426 5532
4  5494 5534 5530 5532
4  5645 5533 5625 5626
4  4251 5645 5533 5625
4  4976 5625 4703 5420
4  5176 5325 5324 5319
4  414 3564 3929 5174
4  1452 3564 414 5174
4  4252 5490 4733 5491
4  1474 5494 5534 5492
4  4973 5392 5185 5537
4  4155 5383 5181 5384
4  1425 1155 1432 5326
4  1363 1406 1485 5398
4  1425 1480 5142 5320
4  4662 3742 3891 5240
4  5320 5176 5324 5319
4  1401 1402 1458 5239
4  4063 4076 5065 5633
4  1554 1544 1262 5258
4  1665 5185 1567 5186
4  4076 5065 5633 5154
4  4446 5538 5093 5185
4  1262 5181 1263 5188
4  1429 1244 1520 5628
4  4976 5514 5625 5420
4  1443 1423 1424 5495
4  5645 5627 5531 5622
4  1244 1392 1520 5620
4  4592 4519 4520 5255
4  2349 5407 5441 5405
4  5494 5530 5516 5532
4  4032 5112 5114 5113
4  5645 5625 5624 5626
4  4589 4689 4288 4573
4  4287 4689 4592 5345
4  5645 5531 5619 5622
4  4287 5345 4592 5337
4  4592 4573 4519 5112
4  4346 3952 5149 5150
4  2353 2485 2411 5203
4  2463 5460 5352 5353
4  2922 4095 5404 5566
4  4493 4582 4147 5115
4  4032 5112 4573 5346
4  4519 4520 5255 5120
4  4147 4148 4521 5121
4  5121 5571 5254 5572
4  2358 5501 5441 5500
4  2348 4491 5418 5407
4  4095 5202 4653 5404
4  4251 5624 5645 5625
4  1489 5550 1321 5215
4  4080 5322 5321 5637
4  4021 4022 4971 5637
4  5624 5459 5619 5621
4  2465 2384 2527 5130
4  1520 1392 1388 5620
4  1388 1473 5531 5619
4  4977 5622 5624 5459
4  4273 4275 4360 5195
4  4977 5645 4251 5624
4  5636 5248 5447 5446
4  2364 5506 5568 5567
4  5388 5193 5194 5192
4  5233 5433 5235 5412
4  1299 1293 5559 5235
4  5189 5607 5391 5388
4  1543 1316 1541 5428
4  4920 5538 5430 5577
4  4324 5243 5244 5586
4  4134 5448 5587 5446
4  5038 5102 3774 5214
4  4446 4978 5066 5256
4  1671 1541 1554 5429
4  3774 5066 5213 5256
4  2452 2417 2455 5283
4  1541 1316 1544 5428
4  4194 5102 5038 5257
4  4129 4134 5244 5247
4  4745 4746 4973 5393
4  4494 5444 5448 5446
4  4557 5513 4746 5147
4  4973 4746 4984 5392
4  1293 5445 1492 5438
4  5444 5509 5445 5438
4  4495 5444 5446 5234
4  1299 1312 1293 5235
4  5435 5437 5510 5438
4  4978 5186 5384 5183
4  4535 4028 5444 5510
4  1344 814 646 3566
4  4640 3130 3489 5210
4  1479 5245 5526 5247
4  4958 4955 4644 5212
4  1312 5445 1293 5235
4  5445 5636 5446 5234
4  5145 5484 5614 5144
4  4844 5139 5293 5330
4  4472 3570 3932 5520
4  4502 4620 4503 5463
4  4844 3895 4291 5177
4  1439 1441 1235 5332
4  4474 4291 4472 5144
4  5484 5521 5614 5332
4  5145 5623 5604 5614
4  4977 3760 5645 5622
4  5619 5620 5459 5623
4  2504 5134 5359 5137
4  5529 5531 5627 5288
4  5529 5627 5582 5520
4  3932 5627 5484 5520
4  4792 4203 5267 5166
4  4419 5161 5377 5379
4  1270 1275 1271 5217
4  803 731 919 5544
4  4056 4987 4558 5127
4  4067 3239 4271 5268
4  2447 5370 5369 5367
4  1414 1443 1433 5511
4  2259 2197 5165 5163
4  3891 5473 5222 5471
4  4324 5243 5611 5643
4  1524 1526 5589 5552
4  1559 1549 1550 5581
4  5611 5586 5588 5589
4  2237 5485 5486 5427
4  1568 5270 5269 5386
4  5176 5318 5143 5336
4  3481 3483 5290 5292
4  1209 5332 5521 5517
4  5291 5235 5559 5232
4  4547 4353 4534 5236
4  1155 5326 1156 5519
4  4254 3481 3483 5290
4  1217 1223 1548 5291
4  4553 4759 4555 5621
4  4553 4555 4076 5633
4  1474 5534 5626 5492
4  1423 5527 5512 5493
4  1944 5609 5610 5245
4  1433 5552 5551 5511
4  3044 4773 4097 5458
4  4221 5419 5153 5154
4  1379 1381 1392 5632
4  5413 5415 5636 5248
4  1308 5636 5415 5248
4  1235 1209 1425 5142
4  735 731 1271 4321
4  4129 4132 5247 5246
4  1489 1313 1321 5550
4  4939 5488 5212 5489
4  5601 5602 5581 5637
4  1311 1478 1348 5447
4  1311 5445 1312 5636
4  4166 4434 5178 5301
4  4587 5234 4500 5411
4  4191 4544 3892 5469
4  4487 4191 3893 5227
4  4500 4132 5251 5248
4  1489 1485 1472 5259
4  3932 5582 2942 5627
4  5430 5257 5428 5382
4  3774 5213 5214 5259
4  5645 5624 5619 5626
4  1539 5531 5534 5532
4  2942 5582 5401 5536
4  1419 5403 5402 5397
4  1370 1437 1406 5406
4  5645 5534 5533 5626
4  1473 5534 5531 5626
4  3760 5645 5627 5530
4  1120 5531 1539 5532
4  1120 5531 5529 5288
4  2519 5452 5540 5542
4  4838 4537 4508 5365
4  2449 2469 5184 5307
4  4537 5366 5365 5364
4  4290 4785 4827 5289
4  24 3638 3056 5307
4  2507 5452 5409 5596
4  4773 4137 4513 5457
4  2401 5365 5452 5364
4  3570 5518 2941 5520
4  4894 4286 4605 5199
4  5529 5518 5582 5406
4  3503 4638 3093 5519
4  3503 5473 4638 5519
4  1529 1370 5518 5406
4  5240 5239 5226 5473
4  1153 5518 5406 5400
4  604 59 2334 3382
4  3348 5312 5561 5560
4  604 3382 2334 5560
4  2432 2433 5565 5309
4  2433 2427 2428 5565
4  1153 5518 5400 5519
4  2334 5564 5560 5451
4  2395 60 5372 5450
4  4564 5344 5341 5340
4  3494 4644 3496 5212
4  59 3379 2395 5451
4  1343 5488 5415 5489
4  5573 5373 5372 5159
4  3573 5553 4335 5554
4  2284 2286 2475 5310
4  4373 3572 3573 5304
4  1555 1517 5488 5449
4  1187 3494 5211 5432
4  2344 2433 2432 5309
4  4377 3573 4466 5562
4  1191 5432 5299 5431
4  5297 5299 5205 5489
4  4020 4419 4022 5377
4  4234 4826 4373 5313
4  5316 5313 5310 5305
4  5316 5546 5549 5306
4  1343 5415 5205 5489
4  4955 5212 5298 5489
4  2384 2437 5376 5287
4  5574 5476 5606 5477
4  3485 5298 5212 5431
4  4939 4563 5250 5251
4  4289 4303 4697 4234
4  4958 4955 5212 5298
4  4102 4760 4759 5459
4  936 2388 4924 5314
4  2463 2483 2234 5460
4  4409 5605 3741 5141
4  1011 3635 4518 5635
4  1011 1244 3635 5635
4  4517 4553 5633 5638
4  4517 4518 3635 5638
4  3567 5300 5298 5431
4  1344 1532 1119 5206
4  4756 3108 4603 5297
4  1392 5619 1388 5620
4  2454 5376 2480 5505
4  2213 2262 5548 5477
4  5615 5354 5355 5477
4  2528 2262 5354 5603
4  5615 5355 5354 5603
4  4342 4341 4726 5338
4  4603 3108 4955 5489
4  5209 5414 5339 5208
4  4341 4661 5387 5296
4  4341 4726 5338 5387
4  3928 3565 3746 5173
4  3485 3567 5298 5431
4  1291 5559 5436 5157
4  3481 5290 5639 5292
4  3579 3910 3799 5346
4  1220 3483 5292 5156
4  4071 4531 3483 5294
4  1289 5156 5158 5155
4  4589 4032 4573 5346
4  808 3483 1220 5156
4  4167 5584 5528 5301
4  4462 4859 5301 5175
4  5613 5225 5584 5585
4  2921 4397 4399 5404
4  2921 4744 3290 5405
4  4462 4392 4832 5570
4  4655 4399 5442 5405
4  4655 5441 5407 5405
4  4655 5010 4148 5442
4  2485 5203 5352 5201
4  3891 3893 3892 5471
4  1151 1155 1153 5474
4  5528 5613 5584 5523
4  1467 1458 1402 5226
4  4662 3891 4637 5240
4  5172 5229 5178 5224
4  1483 5613 1403 5585
4  5490 5507 5491 5493
4  1166 5535 5494 5508
4  1473 1539 5531 5534
4  4251 3258 4252 5533
4  1177 1167 5497 5508
4  2067 3389 3172 5463
4  3131 5290 4546 5233
4  3258 3265 4825 5516
4  5316 5310 5547 5305
4  5645 5531 5627 5530
4  3239 5164 5268 5367
4  2344 5564 2433 5309
4  2286 2432 2475 5309
4  5473 5470 5474 5472
4  5601 5598 5602 5637
4  4194 4445 5102 5257
4  3774 5214 5213 5216
4  5550 5525 5523 5260
4  1167 5497 5494 5493
4  4945 5355 5539 5375
4  4056 4052 4987 5125
4  4743 4052 4516 5192
4  4630 3784 5357 5557
4  4052 4987 5125 5349
4  4516 4052 4056 5123
4  4696 5574 5396 5134
4  4713 4557 4746 5393
4  4557 4558 4987 5127
4  4984 5185 5392 5186
4  878 1386 193 4859
4  5316 5547 5546 5306
4  4860 3563 5175 5180
4  1452 5221 1400 5179
4  3565 5173 3563 5180
4  1452 1531 5167 5174
4  2369 5476 5553 5555
4  919 731 3221 5544
4  5176 5325 5318 5336
4  3679 3028 4861 3691
4  4320 4321 4972 5544
4  1174 1444 5318 5336
4  4377 3573 5562 5304
4  4972 5544 4321 5218
4  3679 4818 3690 5336
4  3574 3776 4696 5574
4  2417 2421 5283 5572
4  4385 5543 4581 5541
4  4071 3483 4247 5294
4  1220 3483 104 5292
4  1220 1217 1548 5292
4  3131 4546 3109 5233
4  1548 1299 1291 5559
4  4385 5543 5539 5596
4  4254 4071 4531 3483
4  2507 5409 5595 5596
4  2536 5452 2519 5542
4  5409 5452 5366 5596
4  5595 5539 5603 5540
4  5009 4670 4974 5363
4  4094 5335 3097 5544
4  742 3097 4862 5641
4  803 1270 731 5544
4  4155 5385 5383 5384
4  2507 2542 2519 5595
4  5593 5315 5546 5549
4  4557 4987 4981 5127
4  4673 5594 5355 5477
4  3785 4973 5361 5136
4  4052 5274 4917 5349
4  2458 5126 5122 5124
4  2542 2547 5615 5595
4  4523 5374 5539 5541
4  4987 4421 4981 5422
4  5595 5355 5603 5539
4  5297 5415 5413 5489
4  4713 5396 5478 5395
4  5148 5347 5513 5186
4  5430 5428 5257 5524
4  4445 4446 5102 5382
4  1517 5415 5488 5449
4  5413 5251 5488 5449
4  1465 5223 1483 5225
4  4500 4495 4132 5446
4  1406 5400 5406 5397
4  3503 3093 5518 5519
4  1432 1155 5239 5326
4  3891 5222 5228 5471
4  1207 5288 5529 5521
4  4487 5528 5227 5228
4  1406 1437 1419 5406
4  1437 1419 5406 5403
4  1506 1388 5531 5622
4  1458 5226 5167 5239
4  2942 3598 3265 5536
4  2942 5627 5582 5530
4  5240 5167 5226 5239
4  1467 1456 5226 5224
4  1458 5167 5226 5221
4  5142 5320 5176 5324
4  1364 1151 5475 5472
4  444 2279 4287 5337
4  2455 2421 5253 5283
4  4974 4385 4005 5596
4  2452 2454 2417 5283
4  2452 2536 2454 5542
4  2400 2401 2536 5452
4  5452 5540 5543 5596
4  4537 5009 4974 5366
4  4637 5240 3891 5473
4  2401 2402 5409 5365
4  1456 5229 5221 5224
4  2439 5359 2376 5557
4  2447 5370 5564 5369
4  2344 2334 2433 5564
4  3891 5473 5240 5222
4  2432 2433 2428 5565
4  4229 4373 4377 5305
4  4712 5133 5128 5395
4  4945 4964 4711 5355
4  4673 5480 4937 5477
4  2431 2527 2261 5132
4  1467 1402 1151 5474
4  2211 2261 2213 5479
4  4191 5469 5522 5214
4  3892 5469 5470 5471
4  1191 1188 1486 5299
4  1283 1486 1532 5206
4  1386 5302 1367 5570
4  3108 5297 5339 5411
4  1483 5225 5613 5585
4  4345 4726 4341 5387
4  1188 1517 1343 5488
4  1467 5222 1465 5224
4  4191 5227 5522 5469
4  4377 5304 5562 5305
4  5594 5549 5546 5548
4  5594 5606 5548 5477
4  5630 5331 5644 5416
4  4205 5177 5331 5333
4  4929 3485 3567 5298
4  1193 1150 1528 5644
4  4316 4806 4303 5545
4  1514 1149 5142 5177
4  4229 4377 3348 5312
4  3895 5327 4291 5177
4  2344 2334 5564 5560
4  78 1429 1256 5146
4  1429 1520 1519 5623
4  1149 5177 5330 5329
4  5288 5614 5484 5521
4  5146 5604 5138 5140
4  4518 5633 5065 5634
4  1149 5644 5330 5177
4  1543 1559 1550 5581
4  1256 1519 1439 5604
4  1256 3409 5146 5138
4  4193 4971 4728 5601
4  1624 1623 1559 5602
4  4086 4469 5321 5464
4  3406 4922 3247 4280
4  2250 45 2253 5184
4  4756 5339 5297 5207
4  3210 3920 3566 4661
4  1329 1403 1549 5631
4  4080 4971 4193 5601
4  4502 3389 4620 5463
4  4502 3172 3389 5463
4  4660 4756 4603 5296
4  1533 5462 5466 5464
4  5205 5206 5299 5207
4  3485 4644 3494 5212
4  1187 1188 1191 5432
4  4620 4199 5463 5276
4  4199 5390 4469 5463
4  4644 4955 4939 5212
4  4506 4425 4564 5341
4  4199 4020 4469 5390
4  4073 4076 4221 5154
4  5378 5465 5463 5276
4  405 1187 3494 5211
4  405 3494 3496 5211
4  1563 5642 1556 5211
4  1548 1291 1289 5158
4  1223 1299 1548 5291
4  1220 1548 1289 5158
4  1343 1517 5415 5488
4  4358 4350 4353 5439
4  4549 3576 3131 5290
4  1537 1291 5436 5157
4  1555 5488 5642 5241
4  1556 5211 5488 5432
4  1187 404 3494 5431
4  1514 5142 5143 5177
4  4976 5624 5419 5621
4  1561 1533 2060 5465
4  1339 1537 1515 5504
4  1515 1537 1516 5504
4  4387 4673 3632 5594
4  4861 5325 4210 5336
4  3572 5549 5606 5306
4  3632 4673 4937 5477
4  4283 4182 3952 5150
4  4809 3935 5455 5343
4  5249 5122 5130 5265
4  4478 5326 3897 5324
4  2431 2527 5132 5131
4  5368 5370 5556 5597
4  4586 3866 4514 5506
4  4330 4516 3937 5190
4  2483 2359 2364 5568
4  3382 3707 3379 5451
4  4750 3234 3239 5371
4  5368 5370 5564 5563
4  2261 2527 5354 5132
4  3300 5368 5561 5563
4  2446 5597 5370 5367
4  5368 5561 5564 5369
4  1153 1406 1363 5475
4  414 3929 1531 5174
4  3503 5326 5473 5519
4  808 104 1220 3483
4  1529 5529 1437 5406
4  4638 3068 3093 5470
4  3503 5517 5326 5519
4  3503 3093 3570 5518
4  1153 1406 5475 5400
4  3093 2941 5518 5400
4  5582 5401 5406 5400
4  1270 742 1523 5641
4  3413 4997 4408 5138
4  5561 5564 5312 5563
4  4408 4997 4474 5140
4  4408 4474 4475 5140
4  5604 5330 5139 5332
4  2197 5165 5164 5367
4  2433 2447 5370 5564
4  590 1193 4371 5630
4  1192 926 1256 5138
4  590 926 1192 3408
4  5370 5565 5564 5563
4  2446 2510 2197 5367
4  4167 4832 4084 5584
4  5223 5522 5469 5515
4  1028 1127 3805 5220
4  489 1119 4726 5387
4  1321 1485 5215 5398
4  4544 5214 3774 5399
4  5392 5618 5185 5537
4  1567 1262 1263 5188
4  4984 5513 4981 5186
4  1554 5429 5185 5537
4  5515 5399 5475 5398
4  1467 1364 5222 5472
4  1522 1533 1329 5468
4  1483 5223 1495 5613
4  5469 5515 5475 5472
4  808 1278 4247 5156
4  1364 5223 5222 5472
4  4399 5405 5404 5353
4  2922 4095 4397 5404
4  142 1279 1236 5634
4  4073 4221 4358 5153
4  190 2194 2192 5404
4  5231 5291 5158 5559
4  1278 1220 1289 5156
4  2485 2235 5196 5201
4  4354 5419 4976 5420
4  2358 2359 2483 5501
4  5152 5157 5153 5155
4  1278 845 4247 5155
4  4073 5153 4358 5294
4  4076 4555 4221 5419
4  4397 4095 4399 5404
4  4653 5404 5202 5353
4  2194 2358 2463 5353
4  154 4479 2274 5118
4  4617 4582 4493 5418
4  4976 5514 5624 5625
4  2488 5443 2413 5498
4  4493 4582 5115 5418
4  1187 5432 1191 5431
4  3566 4661 3920 5295
4  4958 4603 4955 5298
4  4490 4491 4617 5418
4  5121 5117 5115 5443
4  1156 1370 1153 5518
4  1153 5475 5474 5400
4  4213 5490 5516 5508
4  5121 5253 5119 5572
4  1469 5397 5216 5398
4  2941 2942 5582 5401
4  3598 5401 3773 5536
4  22 2402 2401 5365
4  3750 4740 5363 5285
4  2312 986 2400 3751
4  987 3033 3037 5159
4  2395 60 2396 5372
4  5529 5406 5582 5403
4  3093 3068 5401 5400
4  3892 5469 4544 5399
4  3773 5402 5401 5397
4  2519 2542 2528 5603
4  2536 2507 2519 5452
4  5593 5408 5409 5315
4  5490 5494 5533 5516
4  2528 5603 5354 5375
4  4020 5377 5390 5378
4  2261 2527 2528 5354
4  1485 1406 1469 5398
4  5354 5480 5477 5479
4  5401 5536 5403 5402
4  508 5300 3567 5431
4  3109 4587 3108 5411
4  1344 646 1283 5300
4  839 97 2353 5566
4  600 2300 5454 5458
4  404 508 3485 5431
4  1222 1341 1308 5412
4  508 646 3567 5300
4  444 2279 993 4287
4  4603 4955 5298 5489
4  4603 5297 3108 5489
4  1343 5205 5299 5489
4  1010 986 2312 3751
4  2312 5362 5282 5285
4  1341 1343 5415 5414
4  5608 5243 5245 5246
4  4426 3302 4142 5503
4  3680 4321 3690 5218
4  3302 5608 5243 5503
4  4320 3898 3221 5544
4  1414 5512 5551 5275
4  4507 5608 5250 5246
4  3095 4094 3097 5544
4  4563 4507 5250 5246
4  4506 5250 4507 5608
4  3680 4972 4320 4321
4  742 458 1523 4862
4  5176 5143 5333 5219
4  4521 5571 3998 5281
4  5153 5504 5439 5157
4  5374 5376 5287 5356
4  5121 5119 5443 5498
4  3107 3108 5339 5411
4  4619 5254 5281 5284
4  4517 4031 4102 5638
4  2487 5119 2491 5253
4  4051 4371 4969 5293
4  1192 1256 1439 5138
4  1429 3741 5628 5146
4  4031 4407 4102 5605
4  4031 3741 4409 5605
4  1519 1506 1441 5614
4  3741 5141 5605 5146
4  1256 5138 5146 5604
4  2455 5253 2491 5282
4  4472 4291 3570 5328
4  4756 5207 5297 5296
4  1191 5299 1283 5431
4  5283 5281 5505 5572
4  3205 3210 3566 5387
4  489 3205 814 5387
4  508 1283 5300 5431
4  2455 2417 2421 5283
4  4368 5255 4520 5286
4  5209 5414 5433 5410
4  5639 5233 5640 5433
4  4097 4773 4222 5204
4  5290 5233 5291 5230
4  1398 5640 3394 5210
4  2279 5252 5345 5337
4  4619 5254 4521 5281
4  3895 3897 4291 5327
4  5419 5621 5632 5633
4  1291 5559 5438 5436
4  1441 1207 1209 5521
4  1339 5504 5152 5157
4  3570 3093 2941 5518
4  1425 1209 1156 5517
4  5065 5154 4247 5155
4  5529 5288 5627 5520
4  4350 5153 4221 5420
4  3784 4696 5134 5555
4  2428 5565 5558 5554
4  5291 5230 5233 5232
4  4073 5294 4247 5154
4  4275 4175 4184 5426
4  4426 5341 5608 5502
4  2238 2404 2411 5481
4  4426 5503 4142 5502
4  1174 1450 1170 5318
4  5200 5196 5195 5197
4  2411 5481 5454 5458
4  4419 3972 5303 5162
4  2033 5579 5580 5577
4  2531 2534 2386 5242
4  5602 5579 5578 5580
4  3247 4153 4280 5421
4  4922 5184 5187 5575
4  3458 3638 4279 5307
4  4915 5357 5578 5600
4  4271 4270 4203 5381
4  1624 5581 1543 5580
4  4399 4095 4653 5404
4  2253 5184 4922 5575
4  4086 4469 4021 5321
4  5184 5187 5160 5421
4  1483 1495 1403 5613
4  1566 1263 1518 5182
4  4987 5349 5347 5127
4  2238 5481 5196 5486
4  1177 1461 1166 5508
4  1461 1264 1471 5617
4  2237 2235 2241 5461
4  5486 5483 5195 5425
4  2532 5576 5279 5424
4  5426 5643 5485 5483
4  590 1193 458 4371
4  3044 3477 4097 4773
4  4273 4360 5200 5195
4  2376 2428 2426 5558
4  4051 3408 4371 5293
4  1523 458 1193 5416
4  4892 5172 5173 5180
4  1452 943 414 3564
4  5225 5584 5585 5301
4  5268 5165 5372 5367
4  5371 5373 5372 5367
4  4354 4976 4703 5420
4  1392 5632 5620 5635
4  1379 1515 1381 5514
4  5392 5618 5513 5186
4  1400 878 3563 5175
4  4971 4983 5601 5598
4  1522 1329 1549 5468
4  1443 1424 1492 5437
4  1293 5445 5559 5235
4  1433 1492 1348 5509
4  4801 4991 4800 5391
4  1560 1524 1525 5590
4  1289 1537 1339 5157
4  5636 5248 5446 5234
4  4358 5153 5231 5294
4  1339 1515 1379 5152
4  4350 5153 5420 5439
4  5473 5474 5470 5519
4  2401 5409 2507 5452
4  2941 5401 5582 5400
4  21 2400 3752 5364
4  1406 5406 1419 5397
4  5250 5642 5488 5241
4  5529 5582 5627 5530
4  1529 5529 5518 5521
4  1591 1929 1563 5342
4  1437 5406 5529 5403
4  3093 3598 2941 5401
4  2942 3265 5530 5536
4  1120 1437 5529 5403
4  3988 5510 5435 5496
4  1344 3566 5300 5387
4  3567 4660 5300 5295
4  1516 5437 5434 5436
4  646 3566 3567 5300
4  3205 4345 3210 5387
4  1439 1235 5330 5332
4  1529 5518 5529 5406
4  4287 4592 4367 5337
4  1209 5521 1529 5517
4  1209 1207 1529 5521
4  3679 3690 3691 5336
4  3680 3679 4818 3690
4  3932 3570 2941 5520
4  1174 3691 5336 5351
4  1450 1444 1480 5319
4  4818 5336 4210 5219
4  4210 4807 3895 5324
4  4899 5168 5171 5351
4  1425 1480 1149 5142
4  3897 5517 3570 5328
4  1128 1129 1474 5492
4  4695 3831 4316 5560
4  4807 4478 3895 5324
4  3897 5326 5327 5324
4  2344 3831 5560 5545
4  4697 4234 5311 5314
4  1271 4321 5544 5218
4  1444 5143 5336 5218
4  1528 1149 1514 5333
4  4342 3489 4341 5338
4  5217 5333 5143 5219
4  5338 5210 5209 5208
4  4341 3489 4756 5338
4  3210 4345 4341 5387
4  4661 4756 4660 5296
4  508 1283 646 5300
4  4818 4210 4212 5219
4  3494 3490 3496 4644
4  4997 4844 4474 5139
4  2238 5481 5483 5482
4  5299 5206 5300 5296
4  600 5454 3936 5458
4  2404 5454 2411 5481
4  5487 5485 5426 5607
4  5254 5255 5252 5286
4  4520 4521 4619 5254
4  4531 3483 5294 5230
4  1210 3393 3394 5640
4  1217 1210 1223 5639
4  4547 4534 4546 5232
4  1210 1503 1223 5433
4  3130 3131 3109 5640
4  5643 5503 5612 5483
4  4506 4507 4426 5608
4  3302 4507 4324 5243
4  2411 5481 5203 5196
4  3869 5149 3953 5568
4  3485 5212 3494 5431
4  1591 3496 5000 5340
4  3485 3497 3494 4644
4  2238 5483 5612 5482
4  2241 2492 2534 5576
4  4361 4283 4346 5197
4  4222 4360 4283 5197
4  4283 5195 5150 5197
4  3952 3955 3953 5264
4  2483 2364 2492 5151
4  4222 5200 4360 5197
4  2300 2411 5454 5458
4  4513 4142 4273 5200
4  839 5203 2300 5458
4  2300 2411 2404 5454
4  2312 2452 2455 5282
4  2536 2519 2454 5542
4  1177 5383 1461 5508
4  3984 4025 5496 5493
4  1564 1563 5211 5342
4  2358 2359 5501 5500
4  3752 5363 3750 5364
4  2519 2503 2454 5540
4  1474 1129 1167 5492
4  5571 5567 5505 5572
4  3494 5212 5211 5432
4  1929 1563 5342 5609
4  4964 4527 4515 5287
4  4585 3866 4586 5506
4  2437 2415 2480 5506
4  4392 4393 4086 5467
4  1439 1519 1441 5604
4  4193 4728 4194 5524
4  1316 5428 5581 5525
4  5256 5188 5382 5183
4  4736 4301 4992 5586
4  5629 5447 5448 5509
4  5378 5380 5277 5267
4  4028 5510 5512 5511
4  1524 5551 1433 5552
4  5509 5510 5437 5438
4  2259 5198 2260 5266
4  1526 1433 1348 5509
4  3458 3056 3638 5307
4  4894 5199 4605 5616
4  4605 5266 5198 5166
4  2386 5242 2534 5265
4  4351 5420 4703 5434
4  3621 3056 4894 5616
4  4711 4911 4712 5133
4  2458 5122 2465 5124
4  4712 4558 4557 5128
4  1473 1474 5534 5626
4  4175 5611 5426 5643
4  4743 4516 5190 5192
4  4324 5588 5611 5586
4  4712 5128 4557 5395
4  4515 5122 4911 5130
4  1498 5245 1479 5247
4  5243 5526 5244 5586
4  1409 1167 1423 5497
4  4273 4175 4275 5643
4  3427 3405 3638 5575
4  5269 5271 5194 5272
4  2363 2449 24 5307
4  1367 5302 5585 5570
4  1367 5585 1403 5323
4  1400 5179 5229 5175
4  1452 1400 943 5179
4  943 1400 3563 5179
4  1452 943 3564 5179
4  1386 1466 1367 5302
4  1452 5167 1458 5221
4  845 1279 5065 5155
4  5152 5154 5634 5155
4  4076 4555 5419 5633
4  142 1236 4518 5634
4  4434 5178 5225 5228
4  3742 5240 5172 5228
4  1465 5223 5225 5224
4  4350 4351 3994 5435
4  5529 5627 5531 5530
4  4892 4434 3742 5178
4  1512 1539 1120 5531
4  1516 1424 1129 5495
4  1456 1458 5226 5221
4  60 987 2396 3033
4  1456 1465 1466 5224
4  4655 4148 5115 5442
4  3567 4660 5298 5300
4  1127 5210 5220 5208
4  5341 5342 5609 5502
4  4506 5341 5250 5608
4  1517 1308 5415 5449
4  5250 5642 5344 5488
4  3750 4740 5009 5363
4  1557 5642 5609 5245
4  4507 5243 5608 5246
4  4829 3753 5286 5337
4  1010 2312 2311 3751
4  5488 5251 5241 5449
4  1327 3173 5466 5462
4  3885 4392 3916 5467
4  5611 5485 5426 5643
4  4939 4955 4263 5489
4  1022 1327 3173 5466
4  1338 5241 5248 5449
4  1022 1327 997 3173
4  4929 4958 3485 5298
4  1564 5211 3496 5340
4  4212 5176 4205 5333
4  1408 5336 3690 5218
4  5000 4425 5343 5340
4  4020 4022 4021 5377
4  3496 5212 4644 5340
4  4506 4564 4939 5344
4  4673 4711 4937 5480
4  4009 5594 5593 5595
4  5594 5595 5615 5546
4  997 3172 3173 5462
4  2262 5615 5548 5477
4  4506 4939 4563 5250
4  5594 5615 5595 5355
4  3776 4713 5396 5478
4  5243 5611 5643 5612
4  1128 1516 1129 5434
4  5211 5342 5341 5340
4  1929 1557 1563 5609
4  5374 5540 5376 5375
4  2527 2503 2528 5356
4  3937 5123 4056 5124
4  4827 4009 4387 5593
4  4964 4515 4911 5130
4  4523 4527 4964 5374
4  3869 4346 3953 5149
4  1491 1293 1492 5438
4  1537 1516 5504 5436
4  5460 5149 5569 5568
4  2364 2415 5506 5567
4  3988 4351 3984 5496
4  3869 3953 3866 5568
4  4514 4515 4527 5287
4  2531 5126 5279 5242
4  5434 5491 5496 5495
4  2364 5151 5568 5262
4  2386 2436 2384 5265
4  3760 3258 4251 5645
4  4825 4214 4213 5516
4  3760 5627 2942 5530
4  3258 4825 4252 5533
4  1474 1167 1168 5494
4  1473 1474 1539 5534
4  4025 5512 5496 5493
4  1433 1443 1492 5509
4  1168 5534 5494 5532
4  1414 1423 1443 5527
4  3984 4703 4252 5491
4  1492 5509 5437 5438
4  1263 1461 5383 5181
4  1381 5514 1128 5626
4  3988 3984 4025 5496
4  3265 4214 4825 5516
4  5390 5378 5465 5463
4  5507 5275 5497 5592
4  5574 5396 5134 5135
4  4213 4155 4156 5591
4  4421 4253 5385 5386
4  3988 4030 4028 5512
4  5507 5497 5512 5493
4  1553 1518 1177 5270
4  1518 1461 1177 5383
4  1567 5188 1263 5183
4  4482 4156 4253 5272
4  6 9 2349 3290
4  1665 5185 5618 5537
4  3435 3621 4797 5616
4  2017 1665 1567 5186
4  3458 4279 4894 5199
4  3458 3405 4279 3638
4  4894 4279 4286 5199
4  3621 4894 4797 5616
4  5093 5185 5538 5537
4  1554 5258 1262 5188
4  3785 5134 5396 5136
4  3413 4997 5138 5293
4  590 3408 1192 5630
4  4031 4409 4407 5605
4  878 4859 3563 5175
4  3773 5216 5402 5397
4  5227 5223 5222 5224
4  2349 2488 2358 5441
4  1313 1384 1321 5550
4  5522 5469 5515 5214
4  1550 5581 5523 5525
4  3068 5399 5401 5400
4  3891 3892 4638 5471
4  1467 1151 1364 5472
4  1321 1363 1485 5398
4  3785 4745 4973 5136
4  1487 5205 5414 5208
4  4342 3805 3489 5338
4  5394 5417 5147 5393
4  1341 1343 1308 5415
4  332 3690 1408 5336
4  332 3691 3690 5336
4  1170 412 3562 5168
4  1399 1503 5209 5414
4  5298 5299 5300 5296
4  4899 4808 4666 5171
4  3494 5212 5432 5431
4  1170 5318 5237 5351
4  4861 5325 5336 5351
4  4861 5336 3691 5351
4  1174 1444 1450 5318
4  4212 4210 3895 5176
4  5338 5206 5207 5296
4  1341 5415 1308 5412
4  1450 1480 5238 5319
4  1408 5217 1444 5218
4  4818 4861 4210 5336
4  4818 3690 5336 5218
4  4212 3895 4205 5176
4  4972 4212 4094 5334
4  6 2194 2921 5405
4  1549 5631 5581 5637
4  4425 5341 5343 5340
4  5316 5547 5306 5305
4  1367 1403 1329 5323
4  5531 5627 5288 5622
4  4466 3573 4335 5554
4  4251 5645 3258 5533
4  4977 3760 4251 5645
4  5565 5562 5309 5563
4  4377 4373 3573 5304
4  1412 1553 1409 5271
4  2370 2475 2432 5547
4  2487 2461 2491 5119
4  4028 4030 4301 5511
4  4025 4733 4482 5507
4  3984 4733 5507 5491
4  5254 5252 5255 5120
4  5252 5282 5286 5337
4  4521 4585 3998 5571
4  2311 2455 2491 5282
4  987 45 2250 3037
4  711 3427 3638 5575
4  758 4490 2346 5418
4  4696 5396 3785 5134
4  4537 4974 4005 5366
4  2519 5595 2542 5603
4  4229 5311 4373 5305
4  936 585 2284 4697
4  4234 5313 5311 5314
4  4696 4745 3785 5396
4  1671 5358 2033 5577
4  4974 4670 4581 5543
4  4155 5181 5383 5617
4  4619 5280 4670 5284
4  4586 5374 4523 5541
4  4445 4920 5538 5430
4  1523 1275 5641 5333
4  4670 4581 5543 5280
4  1543 1541 5430 5428
4  3998 4586 4581 5505
4  4728 4920 4445 5430
4  1533 5468 5389 5464
4  404 3485 3494 5431
4  1187 3494 5432 5431
4  1591 5342 1564 5340
4  4792 4271 4203 5166
4  4792 5378 5276 5266
4  2197 5164 5165 5163
4  3753 4368 4740 5286
4  3651 3885 4392 3916
4  5389 5377 5390 5468
4  4203 4020 5378 5379
4  5189 5487 5191 5279
4  4025 4952 4030 5512
4  3885 3174 4393 3173
4  5510 5512 5511 5527
4  4080 5321 4021 5637
4  4086 4021 4080 5321
4  4929 3567 3920 4660
4  508 3567 3485 5431
4  4660 4603 4958 5298
4  4301 4030 4992 5552
4  4992 4991 4801 5590
4  5391 5388 5590 5194
4  4991 5590 5273 5194
4  3751 3753 3750 4740
4  5452 5363 5362 5364
4  1024 2067 1050 3389
4  4084 4080 4193 5523
4  2400 2401 5452 5364
4  2312 2400 5362 5285
4  1329 5631 5468 5323
4  5362 5363 5280 5284
4  1483 1384 1495 5223
4  2436 2364 2437 5262
4  5237 5325 5318 5238
4  4666 4637 4478 5326
4  1425 1432 1480 5320
4  1401 5237 1450 5238
4  5461 5196 5150 5195
4  600 2316 535 3936
4  2235 5461 5196 5201
4  2192 2922 5404 5566
4  3496 3442 5000 5340
4  1150 1235 1149 5330
4  2534 5279 5576 5242
4  5642 5341 5342 5609
4  1968 1977 1525 5607
4  1348 5447 5629 5509
4  1526 5629 5589 5552
4  1518 5383 1177 5270
4  4175 5611 4324 5588
4  4324 4736 4325 5586
4  5399 5216 5397 5398
4  4030 4952 4991 5273
4  4637 3503 4478 5326
4  1153 1370 1406 5406
4  1156 1529 1370 5518
4  3897 3503 5517 5326
4  4025 4482 4952 5275
4  4475 4472 3759 5484
4  5288 5484 5520 5521
4  4445 4920 5093 5538
4  1235 1441 1209 5332
4  1441 5614 1207 5521
4  2485 2463 2234 5460
4  2241 2235 2234 5461
4  4973 5185 5093 5537
4  4446 5093 4984 5185
4  1386 193 4859 5570
4  3916 5466 3173 5467
4  2411 2485 2235 5196
4  2238 2411 2235 5196
4  4393 5462 4469 5464
4  590 1192 1193 5630
4  1332 1022 3916 5466
4  1270 1523 1275 5641
4  590 4371 3408 5630
4  4503 4199 4469 5463
4  3044 4774 4773 5457
4  1523 1193 1528 5644
4  2359 2364 5568 5567
4  5204 5481 5200 5196
4  404 1191 508 5431
4  2488 5443 5498 5500
4  1466 1483 1367 5225
4  1400 1466 1386 5229
4  1400 1456 1466 5229
4  4434 5528 4487 5228
4  1291 5158 5559 5157
4  5153 5231 5158 5157
4  4992 5586 5552 5590
4  1537 1291 1491 5436
4  1524 1433 1526 5552
4  3988 5510 5496 5512
4  1506 1388 1512 5531
4  1150 1439 1235 5330
4  1441 1506 1207 5614
4  5528 5584 5225 5301
4  4167 4487 4434 5528
4  4155 5383 5591 5617
4  4760 3759 4977 5622
4  1386 5229 1466 5302
4  1522 5468 1549 5637
4  4070 5358 5361 5577
4  3651 4859 3916 5570
4  2250 3037 45 5421
4  5189 5279 5190 5423
4  2250 5184 5573 5421
4  2250 45 5184 5421
4  2250 2253 2469 5184
4  711 999 3427 5575
4  9 758 2348 4491
4  1555 5241 1338 5449
4  4360 4275 4182 5195
4  5344 5212 5211 5340
4  2274 2282 2461 5116
4  4426 4141 4425 5455
4  4644 4939 4564 5344
4  154 2346 4490 5118
4  154 499 2274 4479
4  1523 5641 4862 5416
4  4042 4862 5335 5416
4  5331 5177 5644 5333
4  4042 3097 4094 5335
4  4205 5176 3895 5177
4  21 22 2401 3146
4  4969 4844 5293 5331
4  1150 1149 1528 5644
4  735 1408 3690 5218
4  731 1271 4321 5544
4  3174 3172 4503 5462
4  5529 5520 5518 5521
4  1209 5142 5332 5517
4  3932 5582 5627 5520
4  4392 4086 4832 5467
4  3174 4502 4503 3172
4  3490 3496 4644 5340
4  1207 1120 5529 5288
4  2349 3290 5407 5405
4  5212 5298 5299 5431
4  3441 5000 3442 4425
4  5010 3869 4597 5569
4  4697 4303 4806 5311
4  2286 584 2344 5545
4  4653 3869 5010 5569
4  3759 5627 5622 5484
4  4475 5484 5145 5144
4  3759 5622 5145 5484
4  4275 4179 4182 5425
4  4475 3759 4760 5145
4  4084 4193 4185 5523
4  1549 1403 5613 5631
4  4199 5378 5390 5463
4  4513 4273 4360 5200
4  4425 5343 5341 5502
4  2045 2060 1533 5389
4  3044 4774 3477 4773
4  1425 5142 1209 5517
4  1591 1564 1092 3496
4  4275 4182 5195 5425
4  1364 5475 5515 5472
4  3897 3503 3570 5517
4  4555 4976 4354 5419
4  1388 1381 1473 5619
4  1516 5437 1424 5495
4  1167 5492 5495 5493
4  1443 1423 5495 5527
4  5496 5512 5527 5493
4  3441 3935 4809 5343
4  1409 1177 1167 5497
4  3994 4351 3988 5435
4  5454 5481 5200 5458
4  4097 5204 5202 5566
4  4952 4482 4253 5272
4  839 2353 5203 5566
4  97 2192 2353 5566
4  5559 5436 5439 5440
4  4952 4253 4991 5272
4  1544 5258 5428 5259
4  3774 5399 5214 5216
4  3892 5469 5399 5470
4  2045 1533 1522 5389
4  4022 5377 5598 5637
4  1192 3408 926 5138
4  4409 4408 4407 5141
4  5145 5144 5604 5140
4  997 1561 1024 3172
4  1327 997 3173 5462
4  142 5065 1279 5634
4  4393 3173 5462 5467
4  4620 5463 3389 5276
4  1011 4518 1236 5635
4  3635 5638 4518 5635
4  4482 4213 4156 5591
4  1177 5270 5383 5592
4  4063 4553 4076 5633
4  5435 5510 5437 5496
4  4482 5591 5270 5592
4  3984 5496 5491 5493
4  2211 5478 5132 5479
4  5538 5361 5429 5577
4  4070 5358 5357 5360
4  4711 4964 4911 5133
4  4022 4915 4983 5598
4  1150 5330 1149 5644
4  5122 5133 5131 5124
4  3897 3570 4291 5328
4  3937 4558 4911 5124
4  4515 3937 4911 5122
4  4911 4558 4712 5133
4  2511 5131 5128 5124
4  4478 3503 3897 5326
4  1401 1450 1432 5238
4  1235 1209 5142 5332
4  5434 5496 5437 5495
4  4387 5549 5594 5606
4  4290 5289 4826 5313
4  936 4697 2284 5314
4  971 4924 2388 5317
4  3935 5455 4141 5457
4  3751 3750 3752 5285
4  5327 5142 5177 5324
4  535 3936 2316 5456
4  4097 4773 5204 5458
4  1275 1514 1444 5143
4  3458 4894 3621 3056
4  600 2300 2316 5454
4  4142 5453 5455 5502
4  3178 3394 3393 5640
4  4640 3805 3394 5210
4  4640 5640 3130 5210
4  4148 5499 5498 5500
4  4785 4537 4005 5408
4  2400 5362 3752 5364
4  1408 1275 1444 5217
4  5010 4597 4148 5499
4  5121 5253 5254 5120
4  2348 2456 2488 5443
4  1329 1403 5631 5323
4  9 2349 3290 5407
4  2348 2346 2456 5117
4  4800 4991 4253 5274
4  1552 1412 1560 5194
4  4619 5286 5254 5284
4  4992 4030 4991 5273
4  1560 1412 1524 5551
4  1552 5269 5271 5194
4  2455 2421 2491 5253
4  4592 4520 4368 5255
4  2311 2491 5252 5282
4  2311 444 4829 5337
4  1022 3173 3916 5466
4  2279 2491 2461 5252
4  4689 4573 4592 5112
4  1561 2067 3172 5462
4  2067 1050 3389 5278
4  2282 2279 5116 5345
4  1332 1327 1022 5466
4  1466 5225 1367 5302
4  2260 2469 5308 5198
4  5522 5550 5613 5523
4  1332 1367 1329 5323
4  4832 4080 4084 5322
4  332 1174 3691 5336
4  1192 3408 5138 5630
4  458 4371 1193 5416
4  5097 4094 4212 5335
4  2363 2469 2449 5307
4  1569 5646 5647 1571
4  1569 5648 5649 1040
4  1569 5647 5646 5649
4  1569 5649 5648 5647
4  5648 5647 5649 5278
4  5278 5308 5647 5649
4  5646 5649 5647 5308
4  5649 5106 5104 1040
4  5106 5649 5104 3385
4  5649 5308 5104 3385
4  5104 5308 3056 3385
4  5648 1049 5106 1040
4  1049 5648 5106 1050
4  5648 5278 5106 1050
4  5106 5278 3385 1050
4  1569 5647 1572 1571
4  1569 1049 5648 1040
4  1569 1572 5647 5648
4  1569 5648 1049 1572
4  1049 1572 5648 1050
4  1050 5278 1572 5648
4  5647 5648 1572 5278
4  2558 5649 1043 1040
4  5649 2558 1043 5308
4  2558 2363 1043 5308
4  1043 2363 24 5308
4  1043 5649 5104 1040
4  5649 1043 5104 5308
4  1043 24 3056 5308
4  5104 1043 3056 5308
4  1569 2560 5646 1571
4  1569 5649 2558 1040
4  1569 5646 2560 2558
4  1569 2558 5649 5646
4  5649 5646 2558 5308
4  5308 2363 5646 2558
4  2560 2558 5646 2363
4  5649 5648 5106 1040
4  5648 5649 5106 5278
4  5649 5308 3385 5278
4  5106 5649 3385 5278
4  1592 5650 2571 1594
4  1592 1094 5111 1084
4  1592 2571 5650 5111
4  1592 5111 1094 2571
4  1094 2571 5111 535
4  535 4809 2571 5111
4  5650 5111 2571 4809
4  1592 5651 5650 1594
4  1592 5111 5652 1084
4  1592 5650 5651 5652
4  1592 5652 5111 5650
4  5111 5650 5652 4809
4  4809 5343 5650 5652
4  5651 5652 5650 5343
4  5652 5111 5107 1084
4  5111 5652 5107 4809
4  5652 5343 5107 4809
4  5107 5343 5000 4809
4  1589 5107 1091 1084
4  5107 1589 1091 5000
4  1589 1591 1091 5000
4  1091 1591 1092 5000
4  1592 1596 5651 1594
4  1592 5652 1589 1084
4  1592 5651 1596 1589
4  1592 1589 5652 5651
4  5652 5651 1589 5343
4  5343 1591 5651 1589
4  1596 1589 5651 1591
4  1589 5652 5107 1084
4  5652 1589 5107 5343
4  1589 1591 5000 5343
4  5107 1589 5000 5343
4  5651 5653 5654 1594
4  5653 5651 5654 5502
4  5651 5343 5654 5502
4  5654 5343 5456 5502
4  2571 5650 5654 1594
4  5650 2571 5654 4809
4  2571 535 5654 4809
4  5654 535 5456 4809
4  5655 5653 5651 1594
4  5653 5655 5651 5502
4  5655 5342 5651 5502
4  5651 5342 5343 5502
4  1596 1928 5655 1594
4  1928 1596 5655 1929
4  1596 1591 5655 1929
4  5655 1591 5342 1929
4  1934 2700 5654 1594
4  1934 5656 2701 1935
4  1934 5654 2700 2701
4  1934 2701 5656 5654
4  5656 5654 2701 5456
4  5456 2316 5654 2701
4  2700 2701 5654 2316
4  5654 2700 2571 1594
4  2700 5654 2571 2316
4  5654 5456 535 2316
4  2571 5654 535 2316
4  1934 1937 5657 1935
4  1934 5653 1928 1594
4  1934 5657 1937 1928
4  1934 1928 5653 5657
4  5653 5657 1928 5502
4  5502 1929 5657 1928
4  1937 1928 5657 1929
4  5651 1596 5655 1594
4  1596 5651 5655 1591
4  5651 5343 5342 1591
4  5655 5651 5342 1591
4  1934 5654 5653 1594
4  1934 5657 5656 1935
4  1934 5653 5654 5657
4  1934 5656 5657 5654
4  5657 5653 5654 5502
4  5502 5456 5654 5657
4  5654 5656 5657 5456
4  1928 5653 5655 1594
4  5653 1928 5655 5502
4  1928 1929 5655 5502
4  5655 1929 5342 5502
4  5650 5651 5654 1594
4  5651 5650 5654 5343
4  5650 4809 5654 5343
4  5654 4809 5456 5343
4  2701 5656 5658 1935
4  5656 2701 5658 5456
4  2701 2316 5658 5456
4  5658 2316 5454 5456
4  1945 5659 5660 1946
4  1945 5661 5662 1935
4  1945 5660 5659 5662
4  1945 5662 5661 5660
4  5661 5660 5662 5482
4  5482 5453 5660 5662
4  5659 5662 5660 5453
4  5662 5661 5658 1935
4  5661 5662 5658 5482
4  5662 5453 5658 5482
4  5658 5453 5454 5482
4  5658 5656 5662 1935
4  5656 5658 5662 5456
4  5658 5454 5453 5456
4  5662 5658 5453 5456
4  1945 5660 2708 1946
4  1945 2707 5661 1935
4  1945 2708 5660 5661
4  1945 5661 2707 2708
4  2707 2708 5661 2404
4  2404 5482 2708 5661
4  5660 5661 2708 5482
4  1941 5662 5663 1935
4  5662 1941 5663 5453
4  1941 1944 5663 5453
4  5663 1944 5609 5453
4  5661 2707 5658 1935
4  2707 5661 5658 2404
4  5661 5482 5658 2404
4  5658 5482 5454 2404
4  5657 1937 5663 1935
4  1937 5657 5663 1929
4  5657 5502 5663 1929
4  5663 5502 5609 1929
4  1945 1948 5659 1946
4  1945 5662 1941 1935
4  1945 5659 1948 1941
4  1945 1941 5662 5659
4  5662 5659 1941 5453
4  5453 1944 5659 1941
4  1948 1941 5659 1944
4  1937 1941 5663 1935
4  1941 1937 5663 1944
4  1937 1929 5663 1944
4  5663 1929 5609 1944
4  5658 2707 2701 1935
4  2707 5658 2701 2404
4  5658 5454 2316 2404
4  2701 5658 2316 2404
4  5662 5656 5657 1935
4  5656 5662 5657 5456
4  5662 5453 5657 5456
4  5657 5453 5502 5456
4  5663 5662 5657 1935
4  5662 5663 5657 5453
4  5663 5609 5502 5453
4  5657 5663 5502 5453
4  5664 5659 5665 1946
4  5659 5664 5665 5453
4  5664 5612 5665 5453
4  5665 5612 5610 5453
4  1952 5664 5665 1946
4  5664 1952 5665 5612
4  1952 1955 5665 5612
4  5665 1955 5610 5612
4  2708 5660 2716 1946
4  5660 2708 2716 5482
4  2708 2404 2716 5482
4  2716 2404 2238 5482
4  1956 5666 2717 1957
4  1956 2716 5664 1946
4  1956 2717 5666 5664
4  1956 5664 2716 2717
4  2716 2717 5664 2238
4  2238 5612 2717 5664
4  5666 5664 2717 5612
4  2716 5660 5664 1946
4  5660 2716 5664 5482
4  2716 2238 5664 5482
4  5664 2238 5612 5482
4  1948 1952 5665 1946
4  1952 1948 5665 1955
4  1948 1944 5665 1955
4  5665 1944 5610 1955
4  5660 5659 5664 1946
4  5659 5660 5664 5453
4  5660 5482 5664 5453
4  5664 5482 5612 5453
4  5659 1948 5665 1946
4  1948 5659 5665 1944
4  5659 5453 5665 1944
4  5665 5453 5610 1944
4  1956 1959 5666 1957
4  1956 5664 1952 1946
4  1956 5666 1959 1952
4  1956 1952 5664 5666
4  5664 5666 1952 5612
4  5612 1955 5666 1952
4  1959 1952 5666 1955
4  2723 5667 5668 1957
4  5667 2723 5668 5486
4  2723 2237 5668 5486
4  5668 2237 5485 5486
4  5668 5667 5669 1957
4  5667 5668 5669 5486
4  5668 5485 5669 5486
4  5669 5485 5483 5486
4  1962 5668 5670 1957
4  5668 1962 5670 5485
4  1962 1968 5670 5485
4  5670 1968 5611 5485
4  5670 5668 5666 1957
4  5668 5670 5666 5485
4  5670 5611 5666 5485
4  5666 5611 5612 5485
4  5669 5667 2717 1957
4  5667 5669 2717 5486
4  5669 5483 2717 5486
4  2717 5483 2238 5486
4  1960 5668 1962 1957
4  1960 1965 5671 1963
4  1960 1962 5668 5671
4  1960 5671 1965 1962
4  1965 1962 5671 1968
4  1968 5485 1962 5671
4  5668 5671 1962 5485
4  1959 1962 5670 1957
4  1962 1959 5670 1968
4  1959 1955 5670 1968
4  5670 1955 5611 1968
4  5666 5668 5669 1957
4  5668 5666 5669 5485
4  5666 5612 5669 5485
4  5669 5612 5483 5485
4  2717 5667 2723 1957
4  5667 2717 2723 5486
4  2717 2238 2723 5486
4  2723 2238 2237 5486
4  1960 2723 5668 1957
4  1960 5671 2725 1963
4  1960 5668 2723 2725
4  1960 2725 5671 5668
4  5671 5668 2725 5485
4  5485 2237 5668 2725
4  2723 2725 5668 2237
4  5666 1959 5670 1957
4  1959 5666 5670 1955
4  5666 5612 5611 1955
4  5670 5666 5611 1955
4  2717 5666 5669 1957
4  5666 2717 5669 5612
4  2717 2238 5483 5612
4  5669 2717 5483 5612
4  1978 5672 5673 1979
4  1978 5674 5675 1963
4  1978 5673 5672 5675
4  1978 5675 5674 5673
4  5674 5673 5675 5427
4  5427 5487 5673 5675
4  5672 5675 5673 5487
4  5671 5676 5675 1963
4  5676 5671 5675 5607
4  5671 5485 5675 5607
4  5675 5485 5487 5607
4  5675 5676 1974 1963
4  5676 5675 1974 5607
4  5675 5487 1974 5607
4  1974 5487 1977 5607
4  1965 5676 5671 1963
4  5676 1965 5671 5607
4  1965 1968 5671 5607
4  5671 1968 5485 5607
4  1974 5676 1965 1963
4  5676 1974 1965 5607
4  1974 1977 1965 5607
4  1965 1977 1968 5607
4  5675 5674 5671 1963
4  5674 5675 5671 5427
4  5675 5487 5485 5427
4  5671 5675 5485 5427
4  5671 5674 2725 1963
4  5674 5671 2725 5427
4  5671 5485 2725 5427
4  2725 5485 2237 5427
4  1978 1981 5672 1979
4  1978 5675 1974 1963
4  1978 5672 1981 1974
4  1978 1974 5675 5672
4  5675 5672 1974 5487
4  5487 1977 5672 1974
4  1981 1974 5672 1977
4  2725 5674 2729 1963
4  5674 2725 2729 5427
4  2725 2237 2729 5427
4  2729 2237 2532 5427
4  1978 5673 2731 1979
4  1978 2729 5674 1963
4  1978 2731 5673 2729
4  1978 5674 2729 5673
4  2729 2731 5673 2532
4  2532 5427 5673 2729
4  5673 5674 2729 5427
4  5677 2731 5673 1979
4  2731 5677 5673 2532
4  5677 5279 5673 2532
4  5673 5279 5427 2532
4  1989 5678 1985 1979
4  1989 1992 5679 1990
4  1989 1985 5678 5679
4  1989 5679 1992 1985
4  1992 1985 5679 1988
4  1988 5191 1985 5679
4  5678 5679 1985 5191
4  1985 5678 5680 1979
4  5678 1985 5680 5191
4  1985 1988 5680 5191
4  5680 1988 5388 5191
4  5678 5677 5672 1979
4  5677 5678 5672 5279
4  5678 5191 5672 5279
4  5672 5191 5487 5279
4  5672 5677 5673 1979
4  5677 5672 5673 5279
4  5672 5487 5673 5279
4  5673 5487 5427 5279
4  5680 5678 5672 1979
4  5678 5680 5672 5191
4  5680 5388 5672 5191
4  5672 5388 5487 5191
4  1981 1985 5680 1979
4  1985 1981 5680 1988
4  1981 1977 5680 1988
4  5680 1977 5388 1988
4  1989 2735 5678 1979
4  1989 5679 2736 1990
4  1989 5678 2735 2736
4  1989 2736 5679 5678
4  5679 5678 2736 5191
4  5191 2531 5678 2736
4  2735 2736 5678 2531
4  5672 1981 5680 1979
4  1981 5672 5680 1977
4  5672 5487 5388 1977
4  5680 5672 5388 1977
4  2735 5677 5678 1979
4  5677 2735 5678 5279
4  2735 2531 5678 5279
4  5678 2531 5191 5279
4  2735 2731 5677 1979
4  2731 2735 5677 2532
4  2735 2531 5279 2532
4  5677 2735 5279 2532
4  5681 5682 5683 1990
4  5682 5681 5683 5193
4  5681 5125 5683 5193
4  5683 5125 5349 5193
4  2000 5681 5683 1990
4  2000 5684 5685 2001
4  2000 5683 5681 5685
4  2000 5685 5684 5683
4  5684 5683 5685 5349
4  5349 5125 5683 5685
4  5681 5685 5683 5125
4  5679 1992 5682 1990
4  1992 5679 5682 1988
4  5679 5191 5682 1988
4  5682 5191 5193 1988
4  2736 5679 5686 1990
4  5679 2736 5686 5191
4  2736 2531 5686 5191
4  5686 2531 5126 5191
4  5683 5682 1996 1990
4  5682 5683 1996 5193
4  5683 5349 1996 5193
4  1996 5349 1999 5193
4  2741 2736 5686 1990
4  2736 2741 5686 2531
4  2741 2458 5686 2531
4  5686 2458 5126 2531
4  5686 5679 5681 1990
4  5679 5686 5681 5191
4  5686 5126 5681 5191
4  5681 5126 5125 5191
4  5681 2741 5686 1990
4  2741 5681 5686 2458
4  5681 5125 5126 2458
4  5686 5681 5126 2458
4  5682 1992 1996 1990
4  5193 1988 1999 5687
4  1996 1992 5682 5687
4  5682 1992 1988 5687
4  1988 5193 5682 5687
4  1992 1996 1999 5687
4  1999 1988 1992 5687
4  1996 5682 5193 5687
4  5193 1999 1996 5687
4  5681 5679 5682 1990
4  5679 5681 5682 5191
4  5681 5125 5193 5191
4  5682 5681 5193 5191
4  2000 5683 1996 1990
4  2000 2003 5684 2001
4  2000 1996 5683 5684
4  2000 5684 2003 1996
4  2003 1996 5684 1999
4  1999 5349 1996 5684
4  5683 5684 1996 5349
4  2000 2741 5681 1990
4  2000 5685 2743 2001
4  2000 5681 2741 2743
4  2000 2743 5685 5681
4  5685 5681 2743 5125
4  5125 2458 5681 2743
4  2741 2743 5681 2458
4  5685 5688 2744 2001
4  5688 5685 2744 5129
4  5685 5125 2744 5129
4  2744 5125 2511 5129
4  5689 5688 5685 2001
4  5688 5689 5685 5129
4  5689 5348 5685 5129
4  5685 5348 5125 5129
4  5684 2003 5689 2001
4  2003 5684 5689 1999
4  5684 5349 5689 1999
4  5689 5349 5348 1999
4  2012 5688 5689 2001
4  2012 5690 5691 2013
4  2012 5689 5688 5691
4  2012 5691 5690 5689
4  5690 5689 5691 5348
4  5348 5129 5689 5691
4  5688 5691 5689 5129
4  2003 2007 5689 2001
4  2007 2003 5689 2010
4  2003 1999 5689 2010
4  5689 1999 5348 2010
4  2012 2744 5688 2001
4  2012 5691 2749 2013
4  2012 5688 2744 5691
4  2012 2749 5691 2744
4  5691 5688 2744 5129
4  5129 2511 2744 5691
4  2744 2749 5691 2511
4  5685 5684 5689 2001
4  5684 5685 5689 5349
4  5685 5125 5348 5349
4  5689 5685 5348 5349
4  2743 5685 2744 2001
4  5685 2743 2744 5125
4  2743 2458 2744 5125
4  2744 2458 2511 5125
4  2012 5689 2007 2001
4  2012 2014 5690 2013
4  2012 2007 5689 2014
4  2012 5690 2014 5689
4  2014 2007 5689 2010
4  2010 5348 5689 2014
4  5689 5690 2014 5348
4  5692 5690 2016 2013
4  5690 5692 2016 5348
4  5692 5148 2016 5348
4  2016 5148 2017 5348
4  2752 5691 5692 2013
4  5691 2752 5692 5129
4  2752 2464 5692 5129
4  5692 2464 5148 5129
4  2024 2752 5692 2013
4  2024 5693 2754 2022
4  2024 5692 2752 2754
4  2024 2754 5693 5692
4  5693 5692 2754 5148
4  5148 2464 5692 2754
4  2752 2754 5692 2464
4  2752 2749 5691 2013
4  2749 2752 5691 2511
4  2752 2464 5129 2511
4  5691 2752 5129 2511
4  5691 5690 5692 2013
4  5690 5691 5692 5348
4  5691 5129 5692 5348
4  5692 5129 5148 5348
4  2016 5690 2014 2013
4  5690 2016 2014 5348
4  2016 2017 2014 5348
4  2014 2017 2010 5348
4  2024 5692 2016 2013
4  2024 2025 5693 2022
4  2024 2016 5692 5693
4  2024 5693 2025 2016
4  2025 2016 5693 2017
4  2017 5148 2016 5693
4  5692 5693 2016 5148
4  2754 5693 5694 2022
4  5693 2754 5694 5148
4  2754 2464 5694 5148
4  5694 2464 5417 5148
4  5693 2025 5695 2022
4  2025 5693 5695 2017
4  5693 5148 5695 2017
4  5695 5148 5618 2017
4  2761 2754 5694 2022
4  2754 2761 5694 2464
4  2761 2497 5694 2464
4  5694 2497 5417 2464
4  2025 2027 5695 2022
4  2027 2025 5695 1665
4  2025 2017 5695 1665
4  5695 2017 5618 1665
4  2030 5694 5695 2022
4  2030 5696 5697 1669
4  2030 5695 5694 5697
4  2030 5697 5696 5695
4  5696 5695 5697 5618
4  5618 5417 5695 5697
4  5694 5697 5695 5417
4  2030 5695 2027 2022
4  2030 1668 5696 1669
4  2030 2027 5695 1668
4  2030 5696 1668 5695
4  1668 2027 5695 1665
4  1665 5618 5695 1668
4  5695 5696 1668 5618
4  5694 5693 5695 2022
4  5693 5694 5695 5148
4  5694 5417 5695 5148
4  5695 5417 5618 5148
4  2030 2761 5694 2022
4  2030 5697 2759 1669
4  2030 5694 2761 2759
4  2030 2759 5697 5694
4  5697 5694 2759 5417
4  5417 2497 5694 2759
4  2761 2759 5694 2497
4  5698 5699 5700 1669
4  5699 5698 5700 5537
4  5698 5136 5700 5537
4  5700 5136 5361 5537
4  2759 5697 5698 1669
4  5697 2759 5698 5417
4  2759 2497 5698 5417
4  5698 2497 5136 5417
4  5696 5699 5698 1669
4  5699 5696 5698 5537
4  5696 5618 5698 5537
4  5698 5618 5136 5537
4  5701 5698 5700 1669
4  5698 5701 5700 5136
4  5701 5137 5700 5136
4  5700 5137 5361 5136
4  1673 5701 5700 1669
4  1673 5702 5703 1674
4  1673 5700 5701 5703
4  1673 5703 5702 5700
4  5702 5700 5703 5361
4  5361 5137 5700 5703
4  5701 5703 5700 5137
4  1673 5700 1667 1669
4  1673 1676 5702 1674
4  1673 1667 5700 5702
4  1673 5702 1676 1667
4  1676 1667 5702 1671
4  1671 5361 1667 5702
4  5700 5702 1667 5361
4  5697 5696 5698 1669
4  5696 5697 5698 5618
4  5697 5417 5698 5618
4  5698 5417 5136 5618
4  2765 5698 5701 1669
4  5698 2765 5701 5136
4  2765 2498 5701 5136
4  5701 2498 5137 5136
4  1668 1667 5699 1669
4  1667 1668 5699 1671
4  1668 1665 5699 1671
4  5699 1665 5537 1671
4  5699 5696 1668 1669
4  5537 5618 1665 5704
4  1668 5696 5699 5704
4  5699 5696 5537 5704
4  5618 5537 5696 5704
4  5696 1668 5618 5704
4  1665 5618 1668 5704
4  1668 5699 1665 5704
4  5537 1665 5699 5704
4  2765 2759 5698 1669
4  2759 2765 5698 2497
4  2765 2498 5136 2497
4  5698 2765 5136 2497
4  5699 1667 5700 1669
4  5537 1671 5361 5705
4  5700 1667 5699 5705
4  5699 1667 1671 5705
4  1671 5537 5699 5705
4  1667 5700 5361 5705
4  5361 1671 1667 5705
4  5700 5699 5537 5705
4  5537 5361 5700 5705
4  1673 2765 5701 1669
4  1673 5703 2767 1674
4  1673 5701 2765 2767
4  1673 2767 5703 5701
4  5703 5701 2767 5137
4  5137 2498 5701 2767
4  2765 2767 5701 2498
4  5702 1676 5706 1674
4  1676 5702 5706 1671
4  5702 5361 5706 1671
4  5706 5361 5358 1671
4  2034 5703 5706 1674
4  2034 5707 5708 1639
4  2034 5706 5703 5708
4  2034 5708 5707 5706
4  5707 5706 5708 5358
4  5358 5137 5706 5708
4  5703 5708 5706 5137
4  5703 5702 5706 1674
4  5702 5703 5706 5361
4  5703 5137 5706 5361
4  5706 5137 5358 5361
4  1676 2031 5706 1674
4  2031 1676 5706 2033
4  1676 1671 5706 2033
4  5706 1671 5358 2033
4  2034 5706 2031 1674
4  2034 2036 5707 1639
4  2034 2031 5706 2036
4  2034 5707 2036 5706
4  2036 2031 5706 2033
4  2033 5358 5706 2036
4  5706 5707 2036 5358
4  2767 5703 2768 1674
4  5703 2767 2768 5137
4  2767 2498 2768 5137
4  2768 2498 2504 5137
4  2034 2768 5703 1674
4  2034 5708 2774 1639
4  2034 5703 2768 5708
4  2034 2774 5708 2768
4  5708 5703 2768 5137
4  5137 2504 2768 5708
4  2768 2774 5708 2504
4  5708 5707 5709 1639
4  5707 5708 5709 5358
4  5708 5137 5709 5358
4  5709 5137 5359 5358
4  5709 2774 5708 1639
4  2774 5709 5708 2504
4  5709 5359 5137 2504
4  5708 5709 5137 2504
4  5709 5707 5710 1639
4  5707 5709 5710 5358
4  5709 5359 5710 5358
4  5710 5359 5579 5358
4  2779 5709 5710 1639
4  5709 2779 5710 5359
4  2779 2439 5710 5359
4  5710 2439 5579 5359
4  2779 2774 5709 1639
4  2774 2779 5709 2504
4  2779 2439 5359 2504
4  5709 2779 5359 2504
4  1640 5710 1642 1639
4  1640 1621 5711 1622
4  1640 1642 5710 5711
4  1640 5711 1621 1642
4  1621 1642 5711 1624
4  1624 5579 1642 5711
4  5710 5711 1642 5579
4  1642 5710 2036 1639
4  5710 1642 2036 5579
4  1642 1624 2036 5579
4  2036 1624 2033 5579
4  5710 5707 2036 1639
4  5707 5710 2036 5358
4  5710 5579 2036 5358
4  2036 5579 2033 5358
4  1640 2779 5710 1639
4  1640 5711 2780 1622
4  1640 5710 2779 2780
4  1640 2780 5711 5710
4  5711 5710 2780 5579
4  5579 2439 5710 2780
4  2779 2780 5710 2439
4  5712 5713 5714 1622
4  5713 5712 5714 5600
4  5712 5161 5714 5600
4  5714 5161 5599 5600
4  2781 5713 5712 1622
4  5713 2781 5712 5600
4  2781 2438 5712 5600
4  5712 2438 5161 5600
4  2780 5711 5713 1622
4  5711 2780 5713 5579
4  2780 2439 5713 5579
4  5713 2439 5600 5579
4  5711 1621 5715 1622
4  1621 5711 5715 1624
4  5711 5579 5715 1624
4  5715 5579 5602 1624
4  1620 5714 5715 1622
4  5714 1620 5715 5599
4  1620 1623 5715 5599
4  5715 1623 5602 5599
4  2039 5712 5714 1622
4  2039 5716 5717 2040
4  2039 5714 5712 5717
4  2039 5717 5716 5714
4  5716 5714 5717 5599
4  5599 5161 5714 5717
4  5712 5717 5714 5161
4  1621 1620 5715 1622
4  1620 1621 5715 1623
4  1621 1624 5715 1623
4  5715 1624 5602 1623
4  2039 2781 5712 1622
4  2039 5717 2783 2040
4  2039 5712 2781 2783
4  2039 2783 5717 5712
4  5717 5712 2783 5161
4  5161 2438 5712 2783
4  2781 2783 5712 2438
4  2781 2780 5713 1622
4  2780 2781 5713 2439
4  2781 2438 5600 2439
4  5713 2781 5600 2439
4  5714 5713 5715 1622
4  5713 5714 5715 5600
4  5714 5599 5715 5600
4  5715 5599 5602 5600
4  2039 5714 1620 1622
4  2039 2042 5716 2040
4  2039 1620 5714 5716
4  2039 5716 2042 1620
4  2042 1620 5716 1623
4  1623 5599 1620 5716
4  5714 5716 1620 5599
4  5713 5711 5715 1622
4  5711 5713 5715 5579
4  5713 5600 5715 5579
4  5715 5600 5602 5579
4  5717 5716 2044 2040
4  5716 5717 2044 5599
4  5717 5161 2044 5599
4  2044 5161 2045 5599
4  2050 5717 2044 2040
4  2050 2053 5718 2051
4  2050 2044 5717 5718
4  2050 5718 2053 2044
4  2053 2044 5718 2045
4  2045 5161 2044 5718
4  5717 5718 2044 5161
4  2783 5717 2789 2040
4  5717 2783 2789 5161
4  2783 2438 2789 5161
4  2789 2438 2514 5161
4  2050 2789 5717 2040
4  2050 5718 2790 2051
4  2050 5717 2789 5718
4  2050 2790 5718 2789
4  5718 5717 2789 5161
4  5161 2514 2789 5718
4  2789 2790 5718 2514
4  5716 2042 2044 2040
4  5599 1623 2045 5719
4  2044 2042 5716 5719
4  5716 2042 1623 5719
4  1623 5599 5716 5719
4  2042 2044 2045 5719
4  2045 1623 2042 5719
4  2044 5716 5599 5719
4  5599 2045 2044 5719
4  5720 5721 5718 2051
4  5721 5720 5718 5163
4  5720 5267 5718 5163
4  5718 5267 5161 5163
4  2794 5721 5720 2051
4  5721 2794 5720 5163
4  2794 2259 5720 5163
4  5720 2259 5267 5163
4  5718 5721 2790 2051
4  5721 5718 2790 5163
4  5718 5161 2514 5163
4  2790 5718 2514 5163
4  2790 5721 2794 2051
4  5721 2790 2794 5163
4  2790 2514 2794 5163
4  2794 2514 2259 5163
4  5722 5720 5718 2051
4  5720 5722 5718 5267
4  5722 5380 5718 5267
4  5718 5380 5161 5267
4  2062 2794 5720 2051
4  2062 5723 2798 2063
4  2062 5720 2794 2798
4  2062 2798 5723 5720
4  5723 5720 2798 5267
4  5267 2259 5720 2798
4  2794 2798 5720 2259
4  2062 5720 5722 2051
4  2062 5724 5723 2063
4  2062 5722 5720 5723
4  2062 5723 5724 5722
4  5724 5722 5723 5380
4  5380 5267 5722 5723
4  5720 5723 5722 5267
4  2062 5722 2059 2051
4  2062 2064 5724 2063
4  2062 2059 5722 5724
4  2062 5724 2064 2059
4  2064 2059 5724 2060
4  2060 5380 2059 5724
4  5722 5724 2059 5380
4  5718 2053 5722 2051
4  2053 5718 5722 2045
4  5718 5161 5380 2045
4  5722 5718 5380 2045
4  5722 2053 2059 2051
4  5380 2045 2060 5725
4  2059 2053 5722 5725
4  5722 2053 2045 5725
4  2045 5380 5722 5725
4  2053 2059 2060 5725
4  2060 2045 2053 5725
4  2059 5722 5380 5725
4  5380 2060 2059 5725
4  5723 5724 5726 2063
4  5724 5723 5726 5380
4  5723 5267 5726 5380
4  5726 5267 5277 5380
4  2798 5723 5727 2063
4  5723 2798 5727 5267
4  2798 2259 5727 5267
4  5727 2259 5266 5267
4  5727 5723 5726 2063
4  5723 5727 5726 5267
4  5727 5266 5726 5267
4  5726 5266 5277 5267
4  5724 2064 5726 2063
4  2064 5724 5726 2060
4  5724 5380 5726 2060
4  5726 5380 5277 2060
4  2064 2066 5726 2063
4  2066 2064 5726 2067
4  2064 2060 5726 2067
4  5726 2060 5277 2067
4  2068 2069 5728 1571
4  2068 5726 2066 2063
4  2068 5728 2069 5726
4  2068 2066 5726 2069
4  5726 5728 2069 5277
4  5277 2067 2069 5726
4  2069 2066 5726 2067
4  2068 5729 2804 1571
4  2068 2801 5727 2063
4  2068 2804 5729 5727
4  2068 5727 2801 2804
4  2801 2804 5727 2260
4  2260 5266 2804 5727
4  5729 5727 2804 5266
4  2068 5728 5729 1571
4  2068 5727 5726 2063
4  2068 5729 5728 5726
4  2068 5726 5727 5729
4  5727 5729 5726 5266
4  5266 5277 5729 5726
4  5728 5726 5729 5277
4  5727 2801 2798 2063
4  2801 5727 2798 2260
4  5727 5266 2259 2260
4  2798 5727 2259 2260
4  2804 5729 5646 1571
4  5729 2804 5646 5266
4  2804 2260 5646 5266
4  5646 2260 5308 5266
4  5647 5728 2069 1571
4  5728 5647 2069 5277
4  5647 5278 2069 5277
4  2069 5278 2067 5277
4  5646 5729 5647 1571
4  5729 5646 5647 5266
4  5646 5308 5647 5266
4  5647 5308 5278 5266
4  5646 2560 2804 1571
4  2560 5646 2804 2363
4  5646 5308 2260 2363
4  2804 5646 2260 2363
4  5729 5728 5647 1571
4  5728 5729 5647 5277
4  5729 5266 5647 5277
4  5647 5266 5278 5277
4  1572 5647 2069 1571
4  5647 1572 2069 5278
4  1572 1050 2069 5278
4  2069 1050 2067 5278
CELL_TYPES 16430
10
10
10
10
10
10
10
10
10
10
10
10
10
10
10
10
10
10
10
10
10
10
10
10
10
10
10
10
10
10
10
10
10
10
10
10
10
10
10
10
10
10
10
10
10
10
10
10
10
10
10
10
10
10
10
10
10
10
10
10
10
10
10
10
10
10
10
10
10
10
10
10
10
10
10
10
10
10
10
10
10
10
10
10
10
10
10
10
10
10
10
10
10
10
10
10
10
10
10
10
10
10
10
10
10
10
10
10
10
10
10
10
10
10
10
10
10
10
10
10
10
10
10
10
10
10
10
10
10
10
10
10
10
10
10
10
10
10
10
10
10
10
10
10
10
10
10
10
10
10
10
10
10
10
10
10
10
10
10
10
10
10
10
10
10
10
10
10
10
10
10
10
10
10
10
10
10
10
10
10
10
10
10
10
10
10
10
10
10
10
10
10
10
10
10
10
10
10
10
10
10
10
10
10
10
10
10
10
10
10
10
10
10
10
10
10
10
10
10
10
10
10
10
10
10
10
10
10
10
10
10
10
10
10
10
10
10
10
10
10
10
10
10
10
10
10
10
10
10
10
10
10
10
10
10
10
10
10
10
10
10
10
10
10
10
10
10
10
10
10
10
10
10
10
10
10
10
10
10
10
10
10
10
10
10
10
10
10
10
10
10
10
10
10
10
10
10
10
10
10
10
10
10
10
10
10
10
10
10
10
10
10
10
10
10
10
10
10
10
10
10
10
10
10
10
10
10
10
10
10
10
10
10
10
10
10
10
10
10
10
10
10
10
10
10
10
10
10
10
10
10
10
10
10
10
10
10
10
10
10
10
10
10
10
10
10
10
10
10
10
10
10
10
10
10
10
10
10
10
10
10
10
10
10
10
10
10
10
10
10
10
10
10
10
10
10
10
10
10
10
10
10
10
10
10
10
10
10
10
10
10
10
10
10
10
10
10
10
10
10
10
10
10
10
10
10
10
10
10
10
10
10
10
10
10
10
10
10
10
10
10
10
10
10
10
10
10
10
10
10
10
10
10
10
10
10
10
10
10
10
10
10
10
10
10
10
10
10
10
10
10
10
10
10
10
10
10
10
10
10
10
10
10
10
10
10
10
10
10
10
10
10
10
10
10
10
10
10
10
10
10
10
10
10
10
10
10
10
10
10
10
10
10
10
10
10
10
10
10
10
10
10
10
10
10
10
10
10
10
10
10
10
10
10
10
10
10
10
10
10
10
10
10
10
10
10
10
10
10
10
10
10
10
10
10
10
10
10
10
10
10
10
10
10
10
10
10
10
10
10
10
10
10
10
10
10
10
10
10
10
10
10
10
10
10
10
10
10
10
10
10
10
10
10
10
10
10
10
10
10
10
10
10
10
10
10
10
10
10
10
10
10
10
10
10
10
10
10
10
10
10
10
10
10
10
10
10
10
10
10
10
10
10
10
10
10
10
10
10
10
10
10
10
10
10
10
10
10
10
10
10
10
10
10
10
10
10
10
10
10
10
10
10
10
10
10
10
10
10
10
10
10
10
10
10
10
10
10
10
10
10
10
10
10
10
10
10
10
10
10
10
10
10
10
10
10
10
10
10
10
10
10
10
10
10
10
10
10
10
10
10
10
10
10
10
10
10
10
10
10
10
10
10
10
10
10
10
10
10
10
10
10
10
10
10
10
10
10
10
10
10
10
10
10
10
10
10
10
10
10
10
10
10
10
10
10
10
10
10
10
10
10
10
10
10
10
10
10
10
10
10
10
10
10
10
10
10
10
10
10
10
10
10
10
10
10
10
10
10
10
10
10
10
10
10
10
10
10
10
10
10
10
10
10
10
10
10
10
10
10
10
10
10
10
10
10
10
10
10
10
10
10
10
10
10
10
10
10
10
10
10
10
10
10
10
10
10
10
10
10
10
10
10
10
10
10
10
10
10
10
10
10
10
10
10
10
10
10
10
10
10
10
10
10
10
10
10
10
10
10
10
10
10
10
10
10
10
10
10
10
10
10
10
10
10
10
10
10
10
10
10
10
10
10
10
10
10
10
10
10
10
10
10
10
10
10
10
10
10
10
10
10
10
10
10
10
10
10
10
10
10
10
10
10
10
10
10
10
10
10
10
10
10
10
10
10
10
10
10
10
10
10
10
10
10
10
10
10
10
10
10
10
10
10
10
10
10
10
10
10
10
10
10
10
10
10
10
10
10
10
10
10
10
10
10
10
10
10
10
10
10
10
10
10
10
10
10
10
10
10
10
10
10
10
10
10
10
10
10
10
10
10
10
10
10
10
10
10
10
10
10
10
10
10
10
10
10
10
10
10
10
10
10
10
10
10
10
10
10
10
10
10
10
10
10
10
10
10
10
10
10
10
10
10
10
10
10
10
10
10
10
10
10
10
10
10
10
10
10
10
10
10
10
10
10
10
10
10
10
10
10
10
10
10
10
10
10
10
10
10
10
10
10
10
10
10
10
10
10
10
10
10
10
10
10
10
10
10
10
10
10
10
10
10
10
10
10
10
10
10
10
10
10
10
10
10
10
10
10
10
10
10
10
10
10
10
10
10
10
10
10
10
10
10
10
10
10
10
10
10
10
10
10
10
10
10
10
10
10
10
10
10
10
10
10
10
10
10
10
10
10
10
10
10
10
10
10
10
10
10
10
10
10
10
10
10
10
10
10
10
10
10
10
10
10
10
10
10
10
10
10
10
10
10
10
10
10
10
10
10
10
10
10
10
10
10
10
10
10
10
10
10
10
10
10
10
10
10
10
10
10
10
10
10
10
10
10
10
10
10
10
10
10
10
10
10
10
10
10
10
10
10
10
10
10
10
10
10
10
10
10
10
10
10
10
10
10
10
10
10
10
10
10
10
10
10
10
10
10
10
10
10
10
10
10
10
10
10
10
10
10
10
10
10
10
10
10
10
10
10
10
10
10
10
10
10
10
10
10
10
10
10
10
10
10
10
10
10
10
10
10
10
10
10
10
10
10
10
10
10
10
10
10
10
10
10
10
10
10
10
10
10
10
10
10
10
10
10
10
10
10
10
10
10
10
10
10
10
10
10
10
10
10
10
10
10
10
10
10
10
10
10
10
10
10
10
10
10
10
10
10
10
10
10
10
10
10
10
10
10
10
10
10
10
10
10
10
10
10
10
10
10
10
10
10
10
10
10
10
10
10
10
10
10
10
10
10
10
10
10
10
10
10
10
10
10
10
10
10
10
10
10
10
10
10
10
10
10
10
10
10
10
10
10
10
10
10
10
10
10
10
10
10
10
10
10
10
10
10
10
10
10
10
10
10
10
10
10
10
10
10
10
10
10
10
10
10
10
10
10
10
10
10
10
10
10
10
10
10
10
10
10
10
10
10
10
10
10
10
10
10
10
10
10
10
10
10
10
10
10
10
10
10
10
10
10
10
10
10
10
10
10
10
10
10
10
10
10
10
10
10
10
10
10
10
10
10
10
10
10
10
10
10
10
10
10
10
10
10
10
10
10
10
10
10
10
10
10
10
10
10
10
10
10
10
10
10
10
10
10
10
10
10
10
10
10
10
10
10
10
10
10
10
10
10
10
10
10
10
10
10
10
10
10
10
10
10
10
10
10
10
10
10
10
10
10
10
10
10
10
10
10
10
10
10
10
10
10
10
10
10
10
10
10
10
10
10
10
10
10
10
10
10
10
10
10
10
10
10
10
10
10
10
10
10
10
10
10
10
10
10
10
10
10
10
10
10
10
10
10
10
10
10
10
10
10
10
10
10
10
10
10
10
10
10
10
10
10
10
10
10
10
10
10
10
10
10
10
10
10
10
10
10
10
10
10
10
10
10
10
10
10
10
10
10
10
10
10
10
10
10
10
10
10
10
10
10
10
10
10
10
10
10
10
10
10
10
10
10
10
10
10
10
10
10
10
10
10
10
10
10
10
10
10
10
10
10
10
10
10
10
10
10
10
10
10
10
10
10
10
10
10
10
10
10
10
10
10
10
10
10
10
10
10
10
10
10
10
10
10
10
10
10
10
10
10
10
10
10
10
10
10
10
10
10
10
10
10
10
10
10
10
10
10
10
10
10
10
10
10
10
10
10
10
10
10
10
10
10
10
10
10
10
10
10
10
10
10
10
10
10
10
10
10
10
10
10
10
10
10
10
10
10
10
10
10
10
10
10
10
10
10
10
10
10
10
10
10
10
10
10
10
10
10
10
10
10
10
10
10
10
10
10
10
10
10
10
10
10
10
10
10
10
10
10
10
10
10
10
10
10
10
10
10
10
10
10
10
10
10
10
10
10
10
10
10
10
10
10
10
10
10
10
10
10
10
10
10
10
10
10
10
10
10
10
10
10
10
10
10
10
10
10
10
10
10
10
10
10
10
10
10
10
10
10
10
10
10
10
10
10
10
10
10
10
10
10
10
10
10
10
10
10
10
10
10
10
10
10
10
10
10
10
10
10
10
10
10
10
10
10
10
10
10
10
10
10
10
10
10
10
10
10
10
10
10
10
10
10
10
10
10
10
10
10
10
10
10
10
10
10
10
10
10
10
10
10
10
10
10
10
10
10
10
10
10
10
10
10
10
10
10
10
10
10
10
10
10
10
10
10
10
10
10
10
10
10
10
10
10
10
10
10
10
10
10
10
10
10
10
10
10
10
10
10
10
10
10
10
10
10
10
10
10
10
10
10
10
10
10
10
10
10
10
10
10
10
10
10
10
10
10
10
10
10
10
10
10
10
10
10
10
10
10
10
10
10
10
10
10
10
10
10
10
10
10
10
10
10
10
10
10
10
10
10
10
10
10
10
10
10
10
10
10
10
10
10
10
10
10
10
10
10
10
10
10
10
10
10
10
10
10
10
10
10
10
10
10
10
10
10
10
10
10
10
10
10
10
10
10
10
10
10
10
10
10
10
10
10
10
10
10
10
10
10
10
10
10
10
10
10
10
10
10
10
10
10
10
10
10
10
10
10
10
10
10
10
10
10
10
10
10
10
10
10
10
10
10
10
10
10
10
10
10
10
10
10
10
10
10
10
10
10
10
10
10
10
10
10
10
10
10
10
10
10
10
10
10
10
10
10
10
10
10
10
10
10
10
10
10
10
10
10
10
10
10
10
10
10
10
10
10
10
10
10
10
10
10
10
10
10
10
10
10
10
10
10
10
10
10
10
10
10
10
10
10
10
10
10
10
10
10
10
10
10
10
10
10
10
10
10
10
10
10
10
10
10
10
10
10
10
10
10
10
10
10
10
10
10
10
10
10
10
10
10
10
10
10
10
10
10
10
10
10
10
10
10
10
10
10
10
10
10
10
10
10
10
10
10
10
10
10
10
10
10
10
10
10
10
10
10
10
10
10
10
10
10
10
10
10
10
10
10
10
10
10
10
10
10
10
10
10
10
10
10
10
10
10
10
10
10
10
10
10
10
10
10
10
10
10
10
10
10
10
10
10
10
10
10
10
10
10
10
10
10
10
10
10
10
10
10
10
10
10
10
10
10
10
10
10
10
10
10
10
10
10
10
10
10
10
10
10
10
10
10
10
10
10
10
10
10
10
10
10
10
10
10
10
10
10
10
10
10
10
10
10
10
10
10
10
10
10
10
10
10
10
10
10
10
10
10
10
10
10
10
10
10
10
10
10
10
10
10
10
10
10
10
10
10
10
10
10
10
10
10
10
10
10
10
10
10
10
10
10
10
10
10
10
10
10
10
10
10
10
10
10
10
10
10
10
10
10
10
10
10
10
10
10
10
10
10
10
10
10
10
10
10
10
10
10
10
10
10
10
10
10
10
10
10
10
10
10
10
10
10
10
10
10
10
10
10
10
10
10
10
10
10
10
10
10
10
10
10
10
10
10
10
10
10
10
10
10
10
10
10
10
10
10
10
10
10
10
10
10
10
10
10
10
10
10
10
10
10
10
10
10
10
10
10
10
10
10
10
10
10
10
10
10
10
10
10
10
10
10
10
10
10
10
10
10
10
10
10
10
10
10
10
10
10
10
10
10
10
10
10
10
10
10
10
10
10
10
10
10
10
10
10
10
10
10
10
10
10
10
10
10
10
10
10
10
10
10
10
10
10
10
10
10
10
10
10
10
10
10
10
10
10
10
10
10
10
10
10
10
10
10
10
10
10
10
10
10
10
10
10
10
10
10
10
10
10
10
10
10
10
10
10
10
10
10
10
10
10
10
10
10
10
10
10
10
10
10
10
10
10
10
10
10
10
10
10
10
10
10
10
10
10
10
10
10
10
10
10
10
10
10
10
10
10
10
10
10
10
10
10
10
10
10
10
10
10
10
10
10
10
10
10
10
10
10
10
10
10
10
10
10
10
10
10
10
10
10
10
10
10
10
10
10
10
10
10
10
10
10
10
10
10
10
10
10
10
10
10
10
10
10
10
10
10
10
10
10
10
10
10
10
10
10
10
10
10
10
10
10
10
10
10
10
10
10
10
10
10
10
10
10
10
10
10
10
10
10
10
10
10
10
10
10
10
10
10
10
10
10
10
10
10
10
10
10
10
10
10
10
10
10
10
10
10
10
10
10
10
10
10
10
10
10
10
10
10
10
10
10
10
10
10
10
10
10
10
10
10
10
10
10
10
10
10
10
10
10
10
10
10
10
10
10
10
10
10
10
10
10
10
10
10
10
10
10
10
10
10
10
10
10
10
10
10
10
10
10
10
10
10
10
10
10
10
10
10
10
10
10
10
10
10
10
10
10
10
10
10
10
10
10
10
10
10
10
10
10
10
10
10
10
10
10
10
10
10
10
10
10
10
10
10
10
10
10
10
10
10
10
10
10
10
10
10
10
10
10
10
10
10
10
10
10
10
10
10
10
10
10
10
10
10
10
10
10
10
10
10
10
10
10
10
10
10
10
10
10
10
10
10
10
10
10
10
10
10
10
10
10
10
10
10
10
10
10
10
10
10
10
10
10
10
10
10
10
10
10
10
10
10
10
10
10
10
10
10
10
10
10
10
10
10
10
10
10
10
10
10
10
10
10
10
10
10
10
10
10
10
10
10
10
10
10
10
10
10
10
10
10
10
10
10
10
10
10
10
10
10
10
10
10
10
10
10
10
10
10
10
10
10
10
10
10
10
10
10
10
10
10
10
10
10
10
10
10
10
10
10
10
10
10
10
10
10
10
10
10
10
10
10
10
10
10
10
10
10
10
10
10
10
10
10
10
10
10
10
10
10
10
10
10
10
10
10
10
10
10
10
10
10
10
10
10
10
10
10
10
10
10
10
10
10
10
10
10
10
10
10
10
10
10
10
10
10
10
10
10
10
10
10
10
10
10
10
10
10
10
10
10
10
10
10
10
10
10
10
10
10
10
10
10
10
10
10
10
10
10
10
10
10
10
10
10
10
10
10
10
10
10
10
10
10
10
10
10
10
10
10
10
10
10
10
10
10
10
10
10
10
10
10
10
10
10
10
10
10
10
10
10
10
10
10
10
10
10
10
10
10
10
10
10
10
10
10
10
10
10
10
10
10
10
10
10
10
10
10
10
10
10
10
10
10
10
10
10
10
10
10
10
10
10
10
10
10
10
10
10
10
10
10
10
10
10
10
10
10
10
10
10
10
10
10
10
10
10
10
10
10
10
10
10
10
10
10
10
10
10
10
10
10
10
10
10
10
10
10
10
10
10
10
10
10
10
10
10
10
10
10
10
10
10
10
10
10
10
10
10
10
10
10
10
10
10
10
10
10
10
10
10
10
10
10
10
10
10
10
10
10
10
10
10
10
10
10
10
10
10
10
10
10
10
10
10
10
10
10
10
10
10
10
10
10
10
10
10
10
10
10
10
10
10
10
10
10
10
10
10
10
10
10
10
10
10
10
10
10
10
10
10
10
10
10
10
10
10
10
10
10
10
10
10
10
10
10
10
10
10
10
10
10
10
10
10
10
10
10
10
10
10
10
10
10
10
10
10
10
10
10
10
10
10
10
10
10
10
10
10
10
10
10
10
10
10
10
10
10
10
10
10
10
10
10
10
10
10
10
10
10
10
10
10
10
10
10
10
10
10
10
10
10
10
10
10
10
10
10
10
10
10
10
10
10
10
10
10
10
10
10
10
10
10
10
10
10
10
10
10
10
10
10
10
10
10
10
10
10
10
10
10
10
10
10
10
10
10
10
10
10
10
10
10
10
10
10
10
10
10
10
10
10
10
10
10
10
10
10
10
10
10
10
10
10
10
10
10
10
10
10
10
10
10
10
10
10
10
10
10
10
10
10
10
10
10
10
10
10
10
10
10
10
10
10
10
10
10
10
10
10
10
10
10
10
10
10
10
10
10
10
10
10
10
10
10
10
10
10
10
10
10
10
10
10
10
10
10
10
10
10
10
10
10
10
10
10
10
10
10
10
10
10
10
10
10
10
10
10
10
10
10
10
10
10
10
10
10
10
10
10
10
10
10
10
10
10
10
10
10
10
10
10
10
10
10
10
10
10
10
10
10
10
10
10
10
10
10
10
10
10
10
10
10
10
10
10
10
10
10
10
10
10
10
10
10
10
10
10
10
10
10
10
10
10
10
10
10
10
10
10
10
10
10
10
10
10
10
10
10
10
10
10
10
10
10
10
10
10
10
10
10
10
10
10
10
10
10
10
10
10
10
10
10
10
10
10
10
10
10
10
10
10
10
10
10
10
10
10
10
10
10
10
10
10
10
10
10
10
10
10
10
10
10
10
10
10
10
10
10
10
10
10
10
10
10
10
10
10
10
10
10
10
10
10
10
10
10
10
10
10
10
10
10
10
10
10
10
10
10
10
10
10
10
10
10
10
10
10
10
10
10
10
10
10
10
10
10
10
10
10
10
10
10
10
10
10
10
10
10
10
10
10
10
10
10
10
10
10
10
10
10
10
10
10
10
10
10
10
10
10
10
10
10
10
10
10
10
10
10
10
10
10
10
10
10
10
10
10
10
10
10
10
10
10
10
10
10
10
10
10
10
10
10
10
10
10
10
10
10
10
10
10
10
10
10
10
10
10
10
10
10
10
10
10
10
10
10
10
10
10
10
10
10
10
10
10
10
10
10
10
10
10
10
10
10
10
10
10
10
10
10
10
10
10
10
10
10
10
10
10
10
10
10
10
10
10
10
10
10
10
10
10
10
10
10
10
10
10
10
10
10
10
10
10
10
10
10
10
10
10
10
10
10
10
10
10
10
10
10
10
10
10
10
10
10
10
10
10
10
10
10
10
10
10
10
10
10
10
10
10
10
10
10
10
10
10
10
10
10
10
10
10
10
10
10
10
10
10
10
10
10
10
10
10
10
10
10
10
10
10
10
10
10
10
10
10
10
10
10
10
10
10
10
10
10
10
10
10
10
10
10
10
10
10
10
10
10
10
10
10
10
10
10
10
10
10
10
10
10
10
10
10
10
10
10
10
10
10
10
10
10
10
10
10
10
10
10
10
10
10
10
10
10
10
10
10
10
10
10
10
10
10
10
10
10
10
10
10
10
10
10
10
10
10
10
10
10
10
10
10
10
10
10
10
10
10
10
10
10
10
10
10
10
10
10
10
10
10
10
10
10
10
10
10
10
10
10
10
10
10
10
10
10
10
10
10
10
10
10
10
10
10
10
10
10
10
10
10
10
10
10
10
10
10
10
10
10
10
10
10
10
10
10
10
10
10
10
10
10
10
10
10
10
10
10
10
10
10
10
10
10
10
10
10
10
10
10
10
10
10
10
10
10
10
10
10
10
10
10
10
10
10
10
10
10
10
10
10
10
10
10
10
10
10
10
10
10
10
10
10
10
10
10
10
10
10
10
10
10
10
10
10
10
10
10
10
10
10
10
10
10
10
10
10
10
10
10
10
10
10
10
10
10
10
10
10
10
10
10
10
10
10
10
10
10
10
10
10
10
10
10
10
10
10
10
10
10
10
10
10
10
10
10
10
10
10
10
10
10
10
10
10
10
10
10
10
10
10
10
10
10
10
10
10
10
10
10
10
10
10
10
10
10
10
10
10
10
10
10
10
10
10
10
10
10
10
10
10
10
10
10
10
10
10
10
10
10
10
10
10
10
10
10
10
10
10
10
10
10
10
10
10
10
10
10
10
10
10
10
10
10
10
10
10
10
10
10
10
10
10
10
10
10
10
10
10
10
10
10
10
10
10
10
10
10
10
10
10
10
10
10
10
10
10
10
10
10
10
10
10
10
10
10
10
10
10
10
10
10
10
10
10
10
10
10
10
10
10
10
10
10
10
10
10
10
10
10
10
10
10
10
10
10
10
10
10
10
10
10
10
10
10
10
10
10
10
10
10
10
10
10
10
10
10
10
10
10
10
10
10
10
10
10
10
10
10
10
10
10
10
10
10
10
10
10
10
10
10
10
10
10
10
10
10
10
10
10
10
10
10
10
10
10
10
10
10
10
10
10
10
10
10
10
10
10
10
10
10
10
10
10
10
10
10
10
10
10
10
10
10
10
10
10
10
10
10
10
10
10
10
10
10
10
10
10
10
10
10
10
10
10
10
10
10
10
10
10
10
10
10
10
10
10
10
10
10
10
10
10
10
10
10
10
10
10
10
10
10
10
10
10
10
10
10
10
10
10
10
10
10
10
10
10
10
10
10
10
10
10
10
10
10
10
10
10
10
10
10
10
10
10
10
10
10
10
10
10
10
10
10
10
10
10
10
10
10
10
10
10
10
10
10
10
10
10
10
10
10
10
10
10
10
10
10
10
10
10
10
10
10
10
10
10
10
10
10
10
10
10
10
10
10
10
10
10
10
10
10
10
10
10
10
10
10
10
10
10
10
10
10
10
10
10
10
10
10
10
10
10
10
10
10
10
10
10
10
10
10
10
10
10
10
10
10
10
10
10
10
10
10
10
10
10
10
10
10
10
10
10
10
10
10
10
10
10
10
10
10
10
10
10
10
10
10
10
10
10
10
10
10
10
10
10
10
10
10
10
10
10
10
10
10
10
10
10
10
10
10
10
10
10
10
10
10
10
10
10
10
10
10
10
10
10
10
10
10
10
10
10
10
10
10
10
10
10
10
10
10
10
10
10
10
10
10
10
10
10
10
10
10
10
10
10
10
10
10
10
10
10
10
10
10
10
10
10
10
10
10
10
10
10
10
10
10
10
10
10
10
10
10
10
10
10
10
10
10
10
10
10
10
10
10
10
10
10
10
10
10
10
10
10
10
10
10
10
10
10
10
10
10
10
10
10
10
10
10
10
10
10
10
10
10
10
10
10
10
10
10
10
10
10
10
10
10
10
10
10
10
10
10
10
10
10
10
10
10
10
10
10
10
10
10
10
10
10
10
10
10
10
10
10
10
10
10
10
10
10
10
10
10
10
10
10
10
10
10
10
10
10
10
10
10
10
10
10
10
10
10
10
10
10
10
10
10
10
10
10
10
10
10
10
10
10
10
10
10
10
10
10
10
10
10
10
10
10
10
10
10
10
10
10
10
10
10
10
10
10
10
10
10
10
10
10
10
10
10
10
10
10
10
10
10
10
10
10
10
10
10
10
10
10
10
10
10
10
10
10
10
10
10
10
10
10
10
10
10
10
10
10
10
10
10
10
10
10
10
10
10
10
10
10
10
10
10
10
10
10
10
10
10
10
10
10
10
10
10
10
10
10
10
10
10
10
10
10
10
10
10
10
10
10
10
10
10
10
10
10
10
10
10
10
10
10
10
10
10
10
10
10
10
10
10
10
10
10
10
10
10
10
10
10
10
10
10
10
10
10
10
10
10
10
10
10
10
10
10
10
10
10
10
10
10
10
10
10
10
10
10
10
10
10
10
10
10
10
10
10
10
10
10
10
10
10
10
10
10
10
10
10
10
10
10
10
10
10
10
10
10
10
10
10
10
10
10
10
10
10
10
10
10
10
10
10
10
10
10
10
10
10
10
10
10
10
10
10
10
10
10
10
10
10
10
10
10
10
10
10
10
10
10
10
10
10
10
10
10
10
10
10
10
10
10
10
10
10
10
10
10
10
10
10
10
10
10
10
10
10
10
10
10
10
10
10
10
10
10
10
10
10
10
10
10
10
10
10
10
10
10
10
10
10
10
10
10
10
10
10
10
10
10
10
10
10
10
10
10
10
10
10
10
10
10
10
10
10
10
10
10
10
10
10
10
10
10
10
10
10
10
10
10
10
10
10
10
10
10
10
10
10
10
10
10
10
10
10
10
10
10
10
10
10
10
10
10
10
10
10
10
10
10
10
10
10
10
10
10
10
10
10
10
10
10
10
10
10
10
10
10
10
10
10
10
10
10
10
10
10
10
10
10
10
10
10
10
10
10
10
10
10
10
10
10
10
10
10
10
10
10
10
10
10
10
10
10
10
10
10
10
10
10
10
10
10
10
10
10
10
10
10
10
10
10
10
10
10
10
10
10
10
10
10
10
10
10
10
10
10
10
10
10
10
10
10
10
10
10
10
10
10
10
10
10
10
10
10
10
10
10
10
10
10
10
10
10
10
10
10
10
10
10
10
10
10
10
10
10
10
10
10
10
10
10
10
10
10
10
10
10
10
10
10
10
10
10
10
10
10
10
10
10
10
10
10
10
10
10
10
10
10
10
10
10
10
10
10
10
10
10
10
10
10
10
10
10
10
10
10
10
10
10
10
10
10
10
10
10
10
10
10
10
10
10
10
10
10
10
10
10
10
10
10
10
10
10
10
10
10
10
10
10
10
10
10
10
10
10
10
10
10
10
10
10
10
10
10
10
10
10
10
10
10
10
10
10
10
10
10
10
10
10
10
10
10
10
10
10
10
10
10
10
10
10
10
10
10
10
10
10
10
10
10
10
10
10
10
10
10
10
10
10
10
10
10
10
10
10
10
10
10
10
10
10
10
10
10
10
10
10
10
10
10
10
10
10
10
10
10
10
10
10
10
10
10
10
10
10
10
10
10
10
10
10
10
10
10
10
10
10
10
10
10
10
10
10
10
10
10
10
10
10
10
10
10
10
10
10
10
10
10
10
10
10
10
10
10
10
10
10
10
10
10
10
10
10
10
10
10
10
10
10
10
10
10
10
10
10
10
10
10
10
10
10
10
10
10
10
10
10
10
10
10
10
10
10
10
10
10
10
10
10
10
10
10
10
10
10
10
10
10
10
10
10
10
10
10
10
10
10
10
10
10
10
10
10
10
10
10
10
10
10
10
10
10
10
10
10
10
10
10
10
10
10
10
10
10
10
10
10
10
10
10
10
10
10
10
10
10
10
10
10
10
10
10
10
10
10
10
10
10
10
10
10
10
10
10
10
10
10
10
10
10
10
10
10
10
10
10
10
10
10
10
10
10
10
10
10
10
10
10
10
10
10
10
10
10
10
10
10
10
10
10
10
10
10
10
10
10
10
10
10
10
10
10
10
10
10
10
10
10
10
10
10
10
10
10
10
10
10
10
10
10
10
10
10
10
10
10
10
10
10
10
10
10
10
10
10
10
10
10
10
10
10
10
10
10
10
10
10
10
10
10
10
10
10
10
10
10
10
10
10
10
10
10
10
10
10
10
10
10
10
10
10
10
10
10
10
10
10
10
10
10
10
10
10
10
10
10
10
10
10
10
10
10
10
10
10
10
10
10
10
10
10
10
10
10
10
10
10
10
10
10
10
10
10
10
10
10
10
10
10
10
10
10
10
10
10
10
10
10
10
10
10
10
10
10
10
10
10
10
10
10
10
10
10
10
10
10
10
10
10
10
10
10
10
10
10
10
10
10
10
10
10
10
10
10
10
10
10
10
10
10
10
10
10
10
10
10
10
10
10
10
10
10
10
10
10
10
10
10
10
10
10
10
10
10
10
10
10
10
10
10
10
10
10
10
10
10
10
10
10
10
10
10
10
10
10
10
10
10
10
10
10
10
10
10
10
10
10
10
10
10
10
10
10
10
10
10
10
10
10
10
10
10
10
10
10
10
10
10
10
10
10
10
10
10
10
10
10
10
10
10
10
10
10
10
10
10
10
10
10
10
10
10
10
10
10
10
10
10
10
10
10
10
10
10
10
10
10
10
10
10
10
10
10
10
10
10
10
10
10
10
10
10
10
10
10
10
10
10
10
10
10
10
10
10
10
10
10
10
10
10
10
10
10
10
10
10
10
10
10
10
10
10
10
10
10
10
10
10
10
10
10
10
10
10
10
10
10
10
10
10
10
10
10
10
10
10
10
10
10
10
10
10
10
10
10
10
10
10
10
10
10
10
10
10
10
10
10
10
10
10
10
10
10
10
10
10
10
10
10
10
10
10
10
10
10
10
10
10
10
10
10
10
10
10
10
10
10
10
10
10
10
10
10
10
10
10
10
10
10
10
10
10
10
10
10
10
10
10
10
10
10
10
10
10
10
10
10
10
10
10
10
10
10
10
10
10
10
10
10
10
10
10
10
10
10
10
10
10
10
10
10
10
10
10
10
10
10
10
10
10
10
10
10
10
10
10
10
10
10
10
10
10
10
10
10
10
10
10
10
10
10
10
10
10
10
10
10
10
10
10
10
10
10
10
10
10
10
10
10
10
10
10
10
10
10
10
10
10
10
10
10
10
10
10
10
10
10
10
10
10
10
10
10
10
10
10
10
10
10
10
10
10
10
10
10
10
10
10
10
10
10
10
10
10
10
10
10
10
10
10
10
10
10
10
10
10
10
10
10
10
10
10
10
10
10
10
10
10
10
10
10
10
10
10
10
10
10
10
10
10
10
10
10
10
10
10
10
10
10
10
10
10
10
10
10
10
10
10
10
10
10
10
10
10
10
10
10
10
10
10
10
10
10
10
10
10
10
10
10
10
10
10
10
10
10
10
10
10
10
10
10
10
10
10
10
10
10
10
10
10
10
10
10
10
10
10
10
10
10
10
10
10
10
10
10
10
10
10
10
10
10
10
10
10
10
10
10
10
10
10
10
10
10
10
10
10
10
10
10
10
10
10
10
10
10
10
10
10
10
10
10
10
10
10
10
10
10
10
10
10
10
10
10
10
10
10
10
10
10
10
10
10
10
10
10
10
10
10
10
10
10
10
10
10
10
10
10
10
10
10
10
10
10
10
10
10
10
10
10
10
10
10
10
10
10
10
10
10
10
10
10
10
10
10
10
10
10
10
10
10
10
10
10
10
10
10
10
10
10
10
10
10
10
10
10
10
10
10
10
10
10
10
10
10
10
10
10
10
10
10
10
10
10
10
10
10
10
10
10
10
10
10
10
10
10
10
10
10
10
10
10
10
10
10
10
10
10
10
10
10
10
10
10
10
10
10
10
10
10
10
10
10
10
10
10
10
10
10
10
10
10
10
10
10
10
10
10
10
10
10
10
10
10
10
10
10
10
10
10
10
10
10
10
10
10
10
10
10
10
10
10
10
10
10
10
10
10
10
10
10
10
10
10
10
10
10
10
10
10
10
10
10
10
10
10
10
10
10
10
10
10
10
10
10
10
10
10
10
10
10
10
10
10
10
10
10
10
10
10
10
10
10
10
10
10
10
10
10
10
10
10
10
10
10
10
10
10
10
10
10
10
10
10
10
10
10
10
10
10
10
10
10
10
10
10
10
10
10
10
10
10
10
10
10
10
10
10
10
10
10
10
10
10
10
10
10
10
10
10
10
10
10
10
10
10
10
10
10
10
10
10
10
10
10
10
10
10
10
10
10
10
10
10
10
10
10
10
10
10
10
10
10
10
10
10
10
10
10
10
10
10
10
10
10
10
10
10
10
10
10
10
10
10
10
10
10
10
10
10
10
10
10
10
10
10
10
10
10
10
10
10
10
10
10
10
10
10
10
10
10
10
10
10
10
10
10
10
10
10
10
10
10
10
10
10
10
10
10
10
10
10
10
10
10
10
10
10
10
10
10
10
10
10
10
10
10
10
10
10
10
10
10
10
10
10
10
10
10
10
10
10
10
10
10
10
10
10
10
10
10
10
10
10
10
10
10
10
10
10
10
10
10
10
10
10
10
10
10
10
10
10
10
10
10
10
10
10
10
10
10
10
10
10
10
10
10
10
10
10
10
10
10
10
10
10
10
10
10
10
10
10
10
10
10
10
10
10
10
10
10
10
10
10
10
10
10
10
10
10
10
10
10
10
10
10
10
10
10
10
10
10
10
10
10
10
10
10
10
10
10
10
10
10
10
10
10
10
10
10
10
10
10
10
10
10
10
10
10
10
10
10
10
10
10
10
10
10
10
10
10
10
10
10
10
10
10
10
10
10
10
10
10
10
10
10
10
10
10
10
10
10
10
10
10
10
10
10
10
10
10
10
10
10
10
10
10
10
10
10
10
10
10
10
10
10
10
10
10
10
10
10
10
10
10
10
10
10
10
10
10
10
10
10
10
10
10
10
10
10
10
10
10
10
10
10
10
10
10
10
10
10
10
10
10
10
10
10
10
10
10
10
10
10
10
10
10
10
10
10
10
10
10
10
10
10
10
10
10
10
10
10
10
10
10
10
10
10
10
10
10
10
10
10
10
10
10
10
10
10
10
10
10
10
10
10
10
10
10
10
10
10
10
10
10
10
10
10
10
10
10
10
10
10
10
10
10
10
10
10
10
10
10
10
10
10
10
10
10
10
10
10
10
10
10
10
10
10
10
10
10
10
10
10
10
10
10
10
10
10
10
10
10
10
10
10
10
10
10
10
10
10
10
10
10
10
10
10
10
10
10
10
10
10
10
10
10
10
10
10
10
10
10
10
10
10
10
10
10
10
10
10
10
10
10
10
10
10
10
10
10
10
10
10
10
10
10
10
10
10
10
10
10
10
10
10
10
10
10
10
10
10
10
10
10
10
10
10
10
10
10
10
10
10
10
10
10
10
10
10
10
10
10
10
10
10
10
10
10
10
10
10
10
10
10
10
10
10
10
10
10
10
10
10
10
10
10
10
10
10
10
10
10
10
10
10
10
10
10
10
10
10
10
10
10
10
10
10
10
10
10
10
10
10
10
10
10
10
10
10
10
10
10
10
10
10
10
10
10
10
10
10
10
10
10
10
10
10
10
10
10
10
10
10
10
10
10
10
10
10
10
10
10
10
10
10
10
10
10
10
10
10
10
10
10
10
10
10
10
10
10
10
10
10
10
10
10
10
10
10
10
10
10
10
10
10
10
10
10
10
10
10
10
10
10
10
10
10
10
10
10
10
10
10
10
10
10
10
10
10
10
10
10
10
10
10
10
10
10
10
10
10
10
10
10
10
10
10
10
10
10
10
10
10
10
10
10
10
10
10
10
10
10
10
10
10
10
10
10
10
10
10
10
10
10
10
10
10
10
10
10
10
10
10
10
10
10
10
10
10
10
10
10
10
10
10
10
10
10
10
10
10
10
10
10
10
10
10
10
10
10
10
10
10
10
10
10
10
10
10
10
10
10
10
10
10
10
10
10
10
10
10
10
10
10
10
10
10
10
10
10
10
10
10
10
10
10
10
10
10
10
10
10
10
10
10
10
10
10
10
10
10
10
10
10
10
10
10
10
10
10
10
10
10
10
10
10
10
10
10
10
10
10
10
10
10
10
10
10
10
10
10
10
10
10
10
10
10
10
10
10
10
10
10
10
10
10
10
10
10
10
10
10
10
10
10
10
10
10
10
10
10
10
10
10
10
10
10
10
10
10
10
10
10
10
10
10
10
10
10
10
10
10
10
10
10
10
10
10
10
10
10
10
10
10
10
10
10
10
10
10
10
10
10
10
10
10
10
10
10
10
10
10
10
10
10
10
10
10
10
10
10
10
10
10
10
10
10
10
10
10
10
10
10
10
10
10
10
10
10
10
10
10
10
10
10
10
10
10
10
10
10
10
10
10
10
10
10
10
10
10
10
10
10
10
10
10
10
10
10
10
10
10
10
10
10
10
10
10
10
10
10
10
10
10
10
10
10
10
10
10
10
10
10
10
10
10
10
10
10
10
10
10
10
10
10
10
10
10
10
10
10
10
10
10
10
10
10
10
10
10
10
10
10
10
10
10
10
10
10
10
10
10
10
10
10
10
10
10
10
10
10
10
10
10
10
10
10
10
10
10
10
10
10
10
10
10
10
10
10
10
10
10
10
10
10
10
10
10
10
10
10
10
10
10
10
10
10
10
10
10
10
10
10
10
10
10
10
10
10
10
10
10
10
10
10
10
10
10
10
10
10
10
10
10
10
10
10
10
10
10
10
10
10
10
10
10
10
10
10
10
10
10
10
10
10
10
10
10
10
10
10
10
10
10
10
10
10
10
10
10
10
10
10
10
10
10
10
10
10
10
10
10
10
10
10
10
10
10
10
10
10
10
10
10
10
10
10
10
10
10
10
10
10
10
10
10
10
10
10
10
10
10
10
10
10
10
10
10
10
10
10
10
10
10
10
10
10
10
10
10
10
10
10
10
10
10
10
10
10
10
10
10
10
10
10
10
10
10
10
10
10
10
10
10
10
10
10
10
10
10
10
10
10
10
10
10
10
10
10
10
10
10
10
10
10
10
10
10
10
10
10
10
10
10
10
10
10
10
10
10
10
10
10
10
10
10
10
10
10
10
10
10
10
10
10
10
10
10
10
10
10
10
10
10
10
10
10
10
10
10
10
10
10
10
10
10
10
10
10
10
10
10
10
10
10
10
10
10
10
10
10
10
10
10
10
10
10
10
10
10
10
10
10
10
10
10
10
10
10
10
10
10
10
10
10
10
10
10
10
10
10
10
10
10
10
10
10
10
10
10
10
10
10
10
10
10
10
10
10
10
10
10
10
10
10
10
10
10
10
10
10
10
10
10
10
10
10
10
10
10
10
10
10
10
10
10
10
10
10
10
10
10
10
10
10
10
10
10
10
10
10
10
10
10
10
10
10
10
10
10
10
10
10
10
10
10
10
10
10
10
10
10
10
10
10
10
10
10
10
10
10
10
10
10
10
10
10
10
10
10
10
10
10
10
10
10
10
10
10
10
10
10
10
10
10
10
10
10
10
10
10
10
10
10
10
10
10
10
10
10
10
10
10
10
10
10
10
10
10
10
10
10
10
10
10
10
10
10
10
10
10
10
10
10
10
10
10
10
10
10
10
10
10
10
10
10
10
10
10
10
10
10
10
10
10
10
10
10
10
10
10
10
10
10
10
10
10
10
10
10
10
10
10
10
10
10
10
10
10
10
10
10
10
10
10
10
10
10
10
10
10
10
10
10
10
10
10
10
10
10
10
10
10
10
10
10
10
10
10
10
10
10
10
10
10
10
10
10
10
10
10
10
10
10
10
10
10
10
10
10
10
10
10
10
10
10
10
10
10
10
10
10
10
10
10
10
10
10
10
10
10
10
10
10
10
10
10
10
10
10
10
10
10
10
10
10
10
10
10
10
10
10
10
10
10
10
10
10
10
10
10
10
10
10
10
10
10
10
10
10
10
10
10
10
10
10
10
10
10
10
10
10
10
10
10
10
10
10
10
10
10
10
10
10
10
10
10
10
10
10
10
10
10
10
10
10
10
10
10
10
10
10
10
10
10
10
10
10
10
10
10
10
10
10
10
10
10
10
10
10
10
10
10
10
10
10
10
10
10
10
10
10
10
10
10
10
10
10
10
10
10
10
10
10
10
10
10
10
10
10
10
10
10
10
10
10
10
10
10
10
10
10
10
10
10
10
10
10
10
10
10
10
10
10
10
10
10
10
10
10
10
10
10
10
10
10
10
10
10
10
10
10
10
10
10
10
10
10
10
10
10
10
10
10
10
10
10
10
10
10
10
10
10
10
10
10
10
10
10
10
10
10
10
10
10
10
10
10
10
10
10
10
10
10
10
10
10
10
10
10
10
10
10
10
10
10
10
10
10
10
10
10
10
10
10
10
10
10
10
10
10
10
10
10
10
10
10
10
10
10
10
10
10
10
10
10
10
10
10
10
10
10
10
10
10
10
10
10
10
10
10
10
10
10
10
10
10
10
10
10
10
10
10
10
10
10
10
10
10
10
10
10
10
10
10
10
10
10
10
10
10
10
10
10
10
10
10
10
10
10
10
10
10
10
10
10
10
10
10
10
10
10
10
10
10
10
10
10
10
10
10
10
10
10
10
10
10
10
10
10
10
10
10
10
10
10
10
10
10
10
10
10
10
10
10
10
10
10
10
10
10
10
10
10
10
10
10
10
10
10
10
10
10
10
10
10
10
10
10
10
10
10
10
10
10
10
10
10
10
10
10
10
10
10
10
10
10
10
10
10
10
10
10
10
10
10
10
10
10
10
10
10
10
10
10
10
10
10
10
10
10
10
10
10
10
10
10
10
10
10
10
10
10
10
10
10
10
10
10
10
10
10
10
10
10
10
10
10
10
10
10
10
10
10
10
10
10
10
10
10
10
10
10
10
10
10
10
10
10
10
10
10
10
10
10
10
10
10
10
10
10
10
10
10
10
10
10
10
10
10
10
10
10
10
10
10
10
10
10
10
10
10
10
10
10
10
10
10
10
10
10
10
10
10
10
10
10
10
10
10
10
10
10
10
10
10
10
10
10
10
10
10
10
10
10
10
10
10
10
10
10
10
10
10
10
10
10
10
10
10
10
10
10
10
10
10
10
10
10
10
10
10
10
10
10
10
10
10
10
10
10
10
10
10
10
10
10
10
10
10
10
10
10
10
10
10
10
10
10
10
10
10
10
10
10
10
10
10
10
10
10
10
10
10
10
10
10
10
10
10
10
10
10
10
10
10
10
10
10
10
10
10
10
10
10
10
10
10
10
10
10
10
10
10
10
10
10
10
10
10
10
10
10
10
10
10
10
10
10
10
10
10
10
10
10
10
10
10
10
10
10
10
10
10
10
10
10
10
10
10
10
10
10
10
10
10
10
10
10
10
10
10
10
10
10
10
10
10
10
10
10
10
10
10
10
10
10
10
10
10
10
10
10
10
10
10
10
10
10
10
10
10
10
10
10
10
10
10
10
10
10
10
10
10
10
10
10
10
10
10
10
10
10
10
10
10
10
10
10
10
10
10
10
10
10
10
10
10
10
10
10
10
10
10
10
10
10
10
10
10
10
10
10
10
10
10
10
10
10
10
10
10
10
10
10
10
10
10
10
10
10
10
10
10
10
10
10
10
10
10
10
10
10
10
10
10
10
10
10
10
10
10
10
10
10
10
10
10
10
10
10
10
10
10
10
10
10
10
10
10
10
10
10
10
10
10
10
10
10
10
10
10
10
10
10
10
10
10
10
10
10
10
10
10
10
10
10
10
10
10
10
10
10
10
10
10
10
10
10
10
10
10
10
10
10
10
10
10
10
10
10
10
10
10
10
10
10
10
10
10
10
10
10
10
10
10
10
10
10
10
10
10
10
10
10
10
10
10
10
10
10
10
10
10
10
10
10
10
10
10
10
10
10
10
10
10
10
10
10
10
10
10
10
10
10
10
10
10
10
10
10
10
10
10
10
10
10
10
10
10
10
10
10
10
10
10
10
10
10
10
10
10
10
10
10
10
10
10
10
10
10
10
10
10
10
10
10
10
10
10
10
10
10
10
10
10
10
10
10
10
10
10
10
10
10
10
10
10
10
10
10
10
10
10
10
10
10
10
10
10
10
10
10
10
10
10
10
10
10
10
10
10
10
10
10
10
10
10
10
10
10
10
10
10
10
10
10
10
10
10
10
10
10
10
10
10
10
10
10
10
10
10
10
10
10
10
10
10
10
10
10
10
10
10
10
10
10
10
10
10
10
10
10
10
10
10
10
10
10
10
10
10
10
10
10
10
10
10
10
10
10
10
10
10
10
10
10
10
10
10
10
10
10
10
10
10
10
10
10
10
10
10
10
10
10
10
10
10
10
10
10
10
10
10
10
10
10
10
10
10
10
10
10
10
10
10
10
10
10
10
10
10
10
10
10
10
10
10
10
10
10
10
10
10
10
10
10
10
10
10
10
10
10
10
10
10
10
10
10
10
10
10
10
10
10
10
10
10
10
10
10
10
10
10
10
10
10
10
10
10
10
10
10
10
10
10
10
10
10
10
10
10
10
10
10
10
10
10
10
10
10
10
10
10
10
10
10
10
10
10
10
10
10
10
10
10
10
10
10
10
10
10
10
10
10
10
10
10
10
10
10
10
10
10
10
10
10
10
10
10
10
10
10
10
10
10
10
10
10
10
10
10
10
10
10
10
10
10
10
10
10
10
10
10
10
10
10
10
10
10
10
10
10
10
10
10
10
10
10
10
10
10
10
10
10
10
10
10
10
10
10
10
10
10
10
10
10
10
10
10
10
10
10
10
10
10
10
10
10
10
10
10
10
10
10
10
10
10
10
10
10
10
10
10
10
10
10
10
10
10
10
10
10
10
10
10
10
10
10
10
10
10
10
10
10
10
10
10
10
10
10
10
10
10
10
10
10
10
10
10
10
10
10
10
10
10
10
10
10
10
10
10
10
10
10
10
10
10
10
10
10
10
10
10
10
10
10
10
10
10
10
10
10
10
10
10
10
10
10
10
10
10
10
10
10
10
10
10
10
10
10
10
10
10
10
10
10
10
10
10
10
10
10
10
10
10
10
10
10
10
10
10
10
10
10
10
10
10
10
10
10
10
10
10
10
10
10
10
10
10
10
10
10
10
10
10
10
10
10
10
10
10
10
10
10
10
10
10
10
10
10
10
10
10
10
10
10
10
10
10
10
10
10
10
10
10
10
10
10
10
10
10
10
10
10
10
10
10
10
10
10
10
10
10
10
10
10
10
10
10
10
10
10
10
10
10
10
10
10
10
10
10
10
10
10
10
10
10
10
10
10
10
10
10
10
10
10
10
10
10
10
10
10
10
10
10
10
10
10
10
10
10
10
10
10
10
10
10
10
10
10
10
10
10
10
10
10
10
10
10
10
10
10
10
10
10
10
10
10
10
10
10
10
10
10
10
10
10
10
10
10
10
10
10
10
10
10
10
10
10
10
10
10
10
10
10
10
10
10
10
10
10
10
10
10
10
10
10
10
10
10
10
10
10
10
10
10
10
10
10
10
10
10
10
10
10
10
10
10
10
10
10
10
10
10
10
10
10
10
10
10
10
10
10
10
10
10
10
10
10
10
10
10
10
10
10
10
10
10
10
10
10
10
10
10
10
10
10
10
10
10
10
10
10
10
10
10
10
10
10
10
10
10
10
10
10
10
10
10
10
10
10
10
10
10
10
10
10
10
10
10
10
10
10
10
10
10
10
10
10
10
10
10
10
10
10
10
10
10
10
10
10
10
10
10
10
10
10
10
10
10
10
10
10
10
10
10
10
10
10
10
10
10
10
10
10
10
10
10
10
10
10
10
10
10
10
10
10
10
10
10
10
10
10
10
10
10
10
10
10
10
10
10
10
10
10
10
10
10
10
10
10
10
10
10
10
10
10
10
10
10
10
10
10
10
10
10
10
10
10
10
10
10
10
10
10
10
10
10
10
10
10
10
10
10
10
10
10
10
10
10
10
10
10
10
10
10
10
10
10
10
10
10
10
10
10
10
10
10
10
10
10
10
10
10
10
10
10
10
10
10
10
10
10
10
10
10
10
10
10
10
10
10
10
10
10
10
10
10
10
10
10
10
10
10
10
10
10
10
10
10
10
10
10
10
10
10
10
10
10
10
10
10
10
10
10
10
10
10
10
10
10
10
10
10
10
10
10
10
10
10
10
10
10
10
10
10
10
10
10
10
10
10
10
10
10
10
10
10
10
10
10
10
10
10
10
10
10
10
10
10
10
10
10
10
10
10
10
10
10
10
10
10
10
10
10
10
10
10
10
10
10
10
10
10
10
10
10
10
10
10
10
10
10
10
10
10
10
10
10
10
10
10
10
10
10
10
10
10
10
10
10
10
10
10
10
10
10
10
10
10
10
10
10
10
10
10
10
10
10
10
10
10
10
10
10
10
10
10
10
10
10
10
10
10
10
10
10
10
10
10
10
10
10
10
10
10
10
10
10
10
10
10
10
10
10
10
10
10
10
10
10
10
10
10
10
10
10
10
10
10
10
10
10
10
10
10
10
10
10
10
10
10
10
10
10
10
10
10
10
10
10
10
10
10
10
10
10
10
10
10
10
10
10
10
10
10
10
10
10
10
10
10
10
10
10
10
10
10
10
10
10
10
10
10
10
10
10
10
10
10
10
10
10
10
10
10
10
10
10
10
10
10
10
10
10
10
10
10
10
10
10
10
10
10
10
10
10
10
10
10
10
10
10
10
10
10
10
10
10
10
10
10
10
10
10
10
10
10
10
10
10
10
10
10
10
10
10
10
10
10
10
10
10
10
10
10
10
10
10
10
10
10
10
10
10
10
10
10
10
10
10
10
10
10
10
10
10
10
10
10
10
10
10
10
10
10
10
10
10
10
10
10
10
10
10
10
10
10
10
10
10
10
10
10
10
10
10
10
10
10
10
10
10
10
10
10
10
10
10
10
10
10
10
10
10
10
10
10
10
10
10
10
10
10
10
10
10
10
10
10
10
10
10
10
10
10
10
10
10
10
10
10
10
10
10
10
10
10
10
10
10
10
10
10
10
10
10
10
10
10
10
10
10
10
10
10
10
10
10
10
10
10
10
10
10
10
10
10
10
10
10
10
10
10
10
10
10
10
10
10
10
10
10
10
10
10
10
10
10
10
10
10
10
10
10
10
10
10
10
10
10
10
10
10
10
10
10
10
10
10
10
10
10
10
10
10
10
10
10
10
10
10
10
10
10
10
10
10
10
10
10
10
10
10
10
10
10
10
10
10
10
10
10
10
10
10
10
10
10
10
10
10
10
10
10
10
10
10
10
10
10
10
10
10
10
10
10
10
10
10
10
10
10
10
10
10
10
10
10
10
10
10
10
10
10
10
10
10
10
10
10
10
10
10
10
10
10
10
10
10
10
10
10
10
10
10
10
10
10
10
10
10
10
10
10
10
10
10
10
10
10
10
10
10
10
10
10
10
10
10
10
10
10
10
10
10
10
10
10
10
10
10
10
10
10
10
10
10
10
10
10
10
10
10
10
10
10
10
10
10
10
10
10
10
10
10
10
10
10
10
10
10
10
10
10
10
10
10
10
10
10
10
10
10
10
10
10
10
10
10
10
10
10
10
10
10
10
10
10
10
10
10
10
10
10
10
10
10
10
10
10
10
10
10
10
10
10
10
10
10
10
10
10
10
10
10
10
10
10
10
10
10
10
10
10
10
10
10
10
10
10
10
10
10
10
10
10
10
10
10
10
10
10
10
10
10
10
10
10
10
10
10
10
10
10
10
10
10
10
10
10
10
10
10
10
10
10
10
10
10
10
10
10
10
10
10
10
10
10
10
10
10
10
10
10
10
10
10
10
10
10
10
10
10
10
10
10
10
10
10
10
10
10
10
10
10
10
10
10
10
10
10
10
10
10
10
10
10
10
10
10
10
10
10
10
10
10
10
10
10
10
10
10
10
10
10
10
10
10
10
10
10
10
10
10
10
10
10
10
10
10
10
10
10
10
10
10
10
10
10
10
10
10
10
10
10
10
10
10
10
10
10
10
10
10
10
10
10
10
10
10
10
10
10
10
10
10
10
10
10
10
10
10
10
10
10
10
10
10
10
10
10
10
10
10
10
10
10
10
10
10
10
10
10
10
10
10
10
10
10
10
10
10
10
10
10
10
10
10
10
10
10
10
10
10
10
10
10
10
10
10
10
10
10
10
10
10
10
10
10
10
10
10
10
10
10
10
10
10
10
10
10
10
10
10
10
10
10
10
10
10
10
10
10
10
10
10
10
10
10
10
10
10
10
10
10
10
10
10
10
10
10
10
10
10
10
10
10
10
10
10
10
10
10
10
10
10
10
10
10
10
10
10
10
10
10
10
10
10
10
10
10
10
10
10
10
10
10
10
10
10
10
10
10
10
10
10
10
10
10
10
10
10
10
10
10
10
10
10
10
10
10
10
10
10
10
10
10
10
10
10
10
10
10
10
10
10
10
10
10
10
10
10
10
10
10
10
10
10
10
10
10
10
10
10
10
10
10
10
10
10
10
10
10
10
10
10
10
10
10
10
10
10
10
10
10
10
10
10
10
10
10
10
10
10
10
10
10
10
10
10
10
10
10
10
10
10
10
10
10
10
10
10
10
10
10
10
10
10
10
10
10
10
10
10
10
10
10
10
10
10
10
10
10
10
10
10
10
10
10
10
10
10
10
10
10
10
10
10
10
10
10
10
10
10
10
10
10
10
10
10
10
10
10
10
10
10
10
10
10
10
10
10
10
10
10
10
10
10
10
10
10
10
10
10
10
10
10
10
10
10
10
10
10
10
10
10
10
10
10
10
10
10
10
10
10
10
10
10
10
10
10
10
10
10
10
10
10
10
10
10
10
10
10
10
10
10
10
10
10
10
10
10
10
10
10
10
10
10
10
10
10
10
10
10
10
10
10
10
10
10
10
10
10
10
10
10
10
10
10
10
10
10
10
10
10
10
10
10
10
10
10
10
10
10
10
10
10
10
10
10
10
10
10
10
10
10
10
10
10
10
10
10
10
10
10
10
10
10
10
10
10
10
10
10
10
10
10
10
10
10
10
10
10
10
10
10
10
10
10
10
10
10
10
10
10
10
10
10
10
10
10
10
10
10
10
10
10
10
10
10
10
10
10
10
10
10
10
10
10
10
10
10
10
10
10
10
10
10
10
10
10
10
10
10
10
10
10
10
10
10
10
10
10
10
10
10
10
10
10
10
10
10
10
10
10
10
10
10
10
10
10
10
10
10
10
10
10
10
10
10
10
10
10
10
10
10
10
10
10
10
10
10
10
10
10
10
10
10
10
10
10
10
10
10
10
10
10
10
10
10
10
10
10
10
10
10
10
10
10
10
10
10
10
10
10
10
10
10
10
10
10
10
10
10
10
10
10
10
10
10
10
10
10
10
10
10
10
10
10
10
10
10
10
10
10
10
10
10
10
10
10
10
10
10
10
10
10
10
10
10
10
10
10
10
10
10
10
10
10
10
10
10
10
10
10
10
10
10
10
10
10
10
10
10
10
10
10
10
10
10
10
10
10
10
10
10
10
10
10
10
10
10
10
10
10
10
10
10
10
10
10
10
10
10
10
10
10
10
10
10
10
10
10
10
10
10
10
10
10
10
10
10
10
10
10
10
10
10
10
10
10
10
10
10
10
10
10
10
10
10
10
10
10
10
10
10
10
10
10
10
10
10
10
10
10
10
10
10
10
10
10
10
10
10
10
10
10
10
10
10
10
10
10
10
10
10
10
10
10
10
10
10
10
10
10
10
10
10
10
10
10
10
10
10
10
10
10
10
10
10
10
10
10
10
10
10
10
10
10
10
10
10
10
10
10
10
10
10
10
10
10
10
10
10
10
10
10
10
10
10
10
10
10
10
10
10
10
10
10
10
10
10
10
10
10
10
10
10
10
10
10
10
10
10
10
10
10
10
10
10
10
10
10
10
10
10
10
10
10
10
10
10
10
10
10
10
10
10
10
10
10
10
10
10
10
10
10
10
10
10
10
10
10
10
10
10
10
10
10
10
10
10
10
10
10
10
10
10
10
10
10
10
10
10
10
10
10
10
10
10
10
10
10
10
10
10
10
10
10
10
10
10
10
10
10
10
10
10
10
10
10
10
10
10
10
10
10
10
10
10
10
10
10
10
10
10
10
10
10
10
10
10
10
10
10
10
10
10
10
10
10
10
10
10
10
10
10
10
10
10
10
10
10
10
10
10
10
10
10
10
10
10
10
10
10
10
10
10
10
10
10
10
10
10
10
10
10
10
10
10
10
10
10
10
10
10
10
10
10
10
10
10
10
10
10
10
10
10
10
10
10
10
10
10
10
10
10
10
10
10
10
10
10
10
10
10
10
10
10
10
10
10
10
10
10
10
10
10
10
10
10
10
10
10
10
10
10
10
10
10
10
10
10
10
10
10
10
10
10
10
10
10
10
10
10
10
10
10
10
10
10
10
10
10
10
10
10
10
10
10
10
10
10
10
10
10
10
10
10
10
10
10
10
10
10
10
10
10
10
10
10
10
10
10
10
10
10
10
10
10
10
10
10
10
10
10
10
10
10
10
10
10
10
10
10
10
10
10
10
10
10
10
10
10
10
10
10
10
10
10
10
10
10
10
10
10
10
10
10
10
10
10
10
10
10
10
10
10
10
10
10
10
10
10
10
10
10
10
10
10
10
10
10
10
10
10
10
10
10
10
10
10
10
10
10
10
10
10
10
10
10
10
10
10
10
10
10
10
10
10
10
10
10
10
10
10
10
10
10
10
10
10
10
10
10
10
10
10
10
10
10
10
10
10
10
10
10
10
10
10
10
10
10
10
10
10
10
10
10
10
10
10
10
10
10
10
10
10
10
10
10
10
10
10
10
10
10
10
10
10
10
10
10
10
10
10
10
10
10
10
10
10
10
10
10
10
10
10
10
10
10
10
10
10
10
10
10
10
10
10
10
10
10
10
10
10
10
10
10
10
10
10
10
10
10
10
10
10
10
10
10
10
10
10
10
10
10
10
10
10
10
10
10
10
10
10
10
10
10
10
10
10
10
10
10
10
10
10
10
10
10
10
10
10
10
10
10
10
10
10
10
10
10
10
10
10
10
10
10
10
10
10
10
10
10
10
10
10
10
10
10
10
10
10
10
10
10
10
10
10
10
10
10
10
10
10
10
10
10
10
10
10
10
10
10
10
10
10
10
10
10
10
10
10
10
10
10
10
10
10
10
10
10
10
10
10
10
10
10
10
10
10
10
10
10
10
10
10
10
10
10
10
10
10
10
10
10
10
10
10
10
10
10
10
10
10
10
10
10
10
10
10
10
10
10
10
10
10
10
10
10
10
10
10
10
10
10
10
10
10
10
10
10
10
10
10
10
10
10
10
10
10
10
10
10
10
10
10
10
10
10
10
10
10
10
10
10
10
10
10
10
10
10
10
10
10
10
10
10
10
10
10
10
10
10
10
10
10
10
10
10
10
10
10
10
10
10
10
10
10
10
10
10
10
10
10
10
10
10
10
10
10
10
10
10
10
10
10
10
10
10
10
10
10
10
10
10
10
10
10
10
10
10
10
10
10
10
10
10
10
10
10
10
10
10
10
10
10
10
10
10
10
10
10
10
10
10
10
10
10
10
10
10
10
10
10
10
10
10
10
10
10
10
10
10
10
10
10
10
10
10
10
10
10
10
10
10
10
10
10
10
10
10
10
10
10
10
10
10
10
10
10
10
10
10
10
10
10
10
10
10
10
10
10
10
10
10
10
10
10
10
10
10
10
10
10
10
10
10
10
10
10
10
10
10
10
10
10
10
10
10
10
10
10
10
10
10
10
10
10
10
10
10
10
10
10
10
10
10
10
10
10
10
10
10
10
10
10
10
10
10
10
10
10
10
10
10
10
10
10
10
10
10
10
10
10
10
10
10
10
10
10
10
10
10
10
10
10
10
10
10
10
10
10
10
10
10
10
10
10
10
10
10
10
10
10
10
10
10
10
10
10
10
10
10
10
10
10
10
10
10
10
10
10
10
10
10
10
10
10
10
10
10
10
10
10
10
10
10
10
10
10
10
10
10
10
10
10
10
10
10
10
10
10
10
10
10
10
10
10
10
10
10
10
10
10
10
10
10
10
10
10
10
10
10
10
10
10
10
10
10
10
10
10
10
10
10
10
10
10
10
10
10
10
10
10
10
10
10
10
10
10
10
10
10
10
10
10
10
10
10
10
10
10
10
10
10
10
10
10
10
10
10
10
10
10
10
10
10
10
10
10
10
10
10
10
10
10
10
10
10
10
10
10
10
10
10
10
10
10
10
10
10
10
10
10
10
10
10
10
10
10
10
10
10
10
10
10
10
10
10
10
10
10
10
10
10
10
10
10
10
10
10
10
10
10
10
10
10
10
10
10
10
10
10
10
10
10
10
10
10
10
10
10
10
10
10
10
10
10
10
10
10
10
10
10
10
10
10
10
10
10
10
10
10
10
10
10
10
10
10
10
10
10
10
10
10
10
10
10
10
10
10
10
10
10
10
10
10
10
10
10
10
10
10
10
10
10
10
10
10
10
10
10
10
10
10
10
10
10
10
10
10
10
10
10
10
10
10
10
10
10
10
10
10
10
10
10
10
10
10
10
10
10
10
10
10
10
10
10
10
10
10
10
10
10
10
10
10
10
10
10
10
10
10
10
10
10
10
10
10
10
10
10
10
10
10
10
10
10
10
10
10
10
10
10
10
10
10
10
10
10
10
10
10
10
10
10
10
10
10
10
10
10
10
10
10
10
10
10
10
10
10
10
10
10
10
10
10
10
10
10
10
10
10
10
10
10
10
10
10
10
10
10
10
10
10
10
10
10
10
10
10
10
10
10
10
10
10
10
10
10
10
10
10
10
10
10
10
10
10
10
10
10
10
10
10
10
10
10
10
10
10
10
10
10
10
10
10
10
10
10
10
10
10
10
10
10
10
10
10
10
10
10
10
10
10
10
10
10
10
10
10
10
10
10
10
10
10
10
10
10
10
10
10
10
10
10
10
10
10
10
10
10
10
10
10
10
10
10
10
10
10
10
10
10
10
10
10
10
10
10
10
10
10
10
10
10
10
10
10
10
10
10
10
10
10
10
10
10
10
10
10
10
10
10
10
10
10
10
10
10
10
10
10
10
10
10
10
10
10
10
10
10
10
10
10
10
10
10
10
10
10
10
10
10
10
10
10
10
10
10
10
10
10
10
10
10
10
10
10
10
10
10
10
10
10
10
10
10
10
10
10
10
10
10
10
10
10
10
10
10
10
10
10
10
10
10
10
10
10
10
10
10
10
10
10
10
10
10
10
10
10
10
10
10
10
10
10
10
10
10
10
10
10
10
10
10
10
10
10
10
10
10
10
10
10
10
10
10
10
10
10
10
10
10
10
10
10
10
10
10
10
10
10
10
10
10
10
10
10
10
10
10
10
10
10
10
10
10
10
10
10
10
10
10
10
10
10
10
10
10
10
10
10
10
10
10
10
10
10
10
10
10
10
10
10
10
10
10
10
10
10
10
10
10
10
10
10
10
10
10
10
10
10
10
10
10
10
10
10
10
10
10
10
10
10
10
10
10
10
10
10
10
10
10
10
10
10
10
10
10
10
10
10
10
10
10
10
10
10
10
10
10
10
10
10
10
10
10
10
10
10
10
10
10
10
10
10
10
10
10
10
10
10
10
10
10
10
10
10
10
10
10
10
10
10
10
10
10
10
10
10
10
10
10
10
10
10
10
10
10
10
10
10
10
10
10
10
10
10
10
10
10
10
10
10
10
10
10
10
10
10
10
10
10
10
10
10
10
10
10
10
10
10
10
10
10
10
10
10
10
10
10
10
10
10
10
10
10
10
10
10
10
10
10
10
10
10
10
10
10
10
10
10
10
10
10
10
10
10
10
10
10
10
10
10
10
10
10
10
10
10
10
10
10
10
10
10
10
10
10
10
10
10
10
10
10
10
10
10
10
10
10
10
10
10
10
10
10
10
10
10
10
10
10
10
10
10
10
10
10
10
10
10
10
10
10
10
10
10
10
10
10
10
10
10
10
10
10
10
10
10
10
10
10
10
10
10
10
10
10
10
10
10
10
10
10
10
10
10
10
10
10
10
10
10
10
10
10
10
10
10
10
10
10
10
10
10
10
10
10
10
10
10
10
10
10
10
10
10
10
10
10
10
10
10
10
10
10
10
10
10
10
10
10
10
10
10
10
10
10
10
10
10
10
10
10
10
10
10
10
10
10
10
10
10
10
10
10
10
10
10
10
10
10
10
10
10
10
10
10
10
10
10
10
10
10
10
10
10
10
10
10
10
10
10
10
10
10
10
10
10
10
10
10
10
10
10
10
10
10
10
10
10
10
10
10
10
10
10
10
10
10
10
10
10
10
10
10
10
10
10
10
10
10
10
10
10
10
10
10
10
10
10
10
10
10
10
10
10
10
10
10
10
10
10
10
10
10
10
10
10
10
10
10
10
10
10
10
10
10
10
10
10
10
10
10
10
10
10
10
10
10
10
10
10
10
10
10
10
10
10
10
10
10
10
10
10
10
10
10
10
10
10
10
10
10
10
10
10
10
10
10
10
10
10
10
10
10
10
10
10
10
10
10
10
10
10
10
10
10
10
10
10
10
10
10
10
10
10
10
10
10
10
10
10
10
10
10
10
10
10
10
10
10
10
10
10
10
10
10
10
10
10
10
10
10
10
10
10
10
10
10
10
10
10
10
10
10
10
10
10
10
10
10
10
10
10
10
10
10
10
10
10
10
10
10
10
10
10
10
10
10
10
10
10
10
10
10
10
10
10
10
10
10
10
10
10
10
10
10
10
10
10
10
10
10
10
10
10
10
10
10
10
10
10
10
10
10
10
10
10
10
10
10
10
10
10
10
10
10
10
10
10
10
10
10
10
10
10
10
10
10
10
10
10
10
10
10
10
10
10
10
10
10
10
10
10
10
10
10
10
10
10
10
10
10
10
10
10
10
10
10
10
10
10
10
10
10
10
10
10
10
10
10
10
10
10
10
10
10
10
10
10
10
10
10
10
10
10
10
10
10
10
10
10
10
10
10
10
10
10
10
10
10
10
10
10
10
10
10
10
10
10
10
10
10
10
10
10
10
10
10
10
10
10
10
10
10
10
10
10
10
10
10
10
10
10
10
10
10
10
10
10
10
10
10
10
10
10
10
10
10
10
10
10
10
10
10
10
10
10
10
10
10
10
10
10
10
10
10
10
10
10
10
10
10
10
10
10
10
10
10
10
10
10
10
10
10
10
10
10
10
10
10
10
10
10
10
10
10
10
10
10
10
10
10
10
10
10
10
10
10
10
10
10
10
10
10
10
10
10
10
10
10
10
10
10
10
10
10
10
10
10
10
10
10
10
10
10
10
10
10
10
10
10
10
10
10
10
10
10
10
10
10
10
10
10
10
10
10
10
10
10
10
10
10
10
10
10
10
10
10
10
10
10
10
10
10
10
10
10
10
10
10
10
10
10
10
10
10
10
10
10
10
10
10
10
10
10
10
10
10
10
10
10
10
10
10
10
10
10
10
10
10
10
10
10
10
10
10
10
10
10
10
10
10
10
10
10
10
10
10
10
10
10
10
10
10
10
10
10
10
10
10
10
10
10
10
10
10
10
10
10
10
10
10
10
10
10
10
10
10
10
10
10
10
10
10
10
10
10
10
10
10
10
10
10
10
10
10
10
10
10
10
10
10
10
10
10
10
10
10
10
10
10
10
10
10
10
10
10
10
10
10
10
10
10
10
10
10
10
10
10
10
10
10
10
10
10
10
10
10
10
10
10
10
10
10
10
10
10
10
10
10
10
10
10
10
10
10
10
10
10
10
10
10
10
10
10
10
10
10
10
10
10
10
10
10
10
10
10
10
10
10
10
10
10
10
10
10
10
10
10
10
10
10
10
10
10
10
10
10
10
10
10
10
10
10
10
10
10
10
10
10
10
10
10
10
10
10
10
10
10
10
10
10
10
10
10
10
10
10
10
10
10
10
10
10
10
10
10
10
10
10
10
10
10
10
10
10
10
10
10
10
10
10
10
10
10
10
10
10
10
10
10
10
10
10
10
10
10
10
10
10
10
10
10
10
10
10
10
10
10
10
10
10
10
10
10
10
10
10
10
10
10
10
10
10
10
10
10
10
10
10
10
10
10
10
10
10
10
10
10
10
10
10
10
10
10
10
10
10
10
10
10
10
10
10
10
10
10
10
10
10
10
10
10
10
10
10
10
10
10
10
10
10
10
10
10
10
10
10
10
10
10
10
10
10
10
10
10
10
10
10
10
10
10
10
10
10
10
10
10
10
10
10
10
10
10
10
10
10
10
10
10
10
10
10
10
10
10
10
10
10
10
10
10
10
10
10
10
10
10
10
10
10
10
10
10
10
10
10
10
10
10
10
10
10
10
10
10
10
10
10
10
10
10
10
10
10
10
10
10
10
10
10
10
10
10
10
10
10
10
10
10
10
10
10
10
10
10
10
10
10
10
10
10
10
10
10
10
10
10
10
10
10
10
10
10
10
10
10
10
10
10
10
10
10
10
10
10
10
10
10
10
10
10
10
10
10
10
10
10
10
10
10
10
10
10
10
10
10
10
10
10
10
10
10
10
10
10
10
10
10
10
10
10
10
10
10
10
10
10
10
10
10
10
10
10
10
10
10
10
10
10
10
10
10
10
10
10
10
10
10
10
10
10
10
10
10
10
10
10
10
10
10
10
10
10
10
10
10
10
10
10
10
10
10
10
10
10
10
10
10
10
10
10
10
10
10
10
10
10
10
10
10
10
10
10
10
10
10
10
10
10
10
10
10
10
10
10
10
10
10
10
10
10
10
10
10
10
10
10
10
10
10
10
10
10
10
10
10
10
10
10
10
10
10
10
10
10
10
10
10
10
10
10
10
10
10
10
10
10
10
10
10
10
10
10
10
10
10
10
10
10
10
10
10
10
10
10
10
10
10
10
10
10
10
10
10
10
10
10
10
10
10
10
10
10
10
10
10
10
10
10
10
10
10
10
10
10
10
10
10
10
10
10
10
10
10
10
10
10
10
10
10
10
10
10
10
10
10
10
10
10
10
10
10
10
10
10
10
10
10
10
10
10
10
10
10
10
10
10
10
10
10
10
10
10
10
10
10
10
10
10
10
10
10
10
10
10
10
10
10
10
10
10
10
10
10
10
10
10
10
10
10
10
10
10
10
10
10
10
10
10
10
10
10
10
10
10
10
10
10
10
10
10
10
10
10
10
10
10
10
10
10
10
10
10
10
10
10
10
10
10
10
10
10
10
10
10
10
10
10
10
10
10
10
10
10
10
10
10
10
10
10
10
10
10
10
10
10
10
10
10
10
10
10
10
10
10
10
10
10
10
10
10
10
10
10
10
10
10
10
10
10
10
10
10
10
10
10
10
10
10
10
10
10
10
10
10
10
10
10
10
10
10
10
10
10
10
10
10
10
10
10
10
10
10
10
10
10
10
10
10
10
10
10
10
10
10
10
10
10
10
10
10
10
10
10
10
10
10
10
10
10
10
10
10
10
10
10
10
10
10
10
10
10
10
10
10
10
10
10
10
10
10
10
10
10
10
10
10
10
10
10
10
10
10
10
10
10
10
10
10
10
10
10
10
10
10
10
10
10
10
10
10
10
10
10
10
10
10
10
10
10
10
10
10
10
10
10
10
10
10
10
10
10
10
10
10
10
10
10
10
10
10
10
10
10
10
10
10
10
10
10
10
10
10
10
10
10
10
10
10
10
10
10
10
10
10
10
10
10
10
10
10
10
10
10
10
10
10
10
10
10
10
10
10
10
10
10
10
10
10
10
10
10
10
10
10
10
10
10
10
10
10
10
10
10
10
10
10
10
10
10
10
10
10
10
10
10
10
10
10
10
10
10
10
10
10
10
10
10
10
10
10
10
10
10
10
10
10
10
10
10
10
10
10
10
10
10
10
10
10
10
10
10
10
10
10
10
10
10
10
10
10
10
10
10
10
10
10
10
10
10
10
10
10
10
10
10
10
10
10
10
10
10
10
10
10
10
10
10
10
10
10
10
10
10
10
10
10
10
10
10
10
10
10
10
10
10
10
10
10
10
10
10
10
10
10
10
10
10
10
10
10
10
10
10
10
10
10
10
10
10
10
10
10
10
10
10
10
10
10
10
10
10
10
10
10
10
10
10
10
10
10
10
10
10
10
10
10
10
10
10
10
10
10
10
10
10
10
10
10
10
10
10
10
10
10
10
10
10
10
10
10
10
10
10
10
10
10
10
10
10
10
10
10
10
10
10
10
10
10
10
10
10
10
10
10
10
10
10
10
10
10
10
10
10
10
10
10
10
10
10
10
10
10
10
10
10
10
10
10
10
10
10
10
10
10
10
10
10
10
10
10
10
10
10
10
10
10
10
10
10
10
10
10
10
10
10
10
10
10
10
10
10
10
10
10
10
10
10
10
10
10
10
10
10
10
10
10
10
10
10
10
10
10
10
10
10
10
10
10
10
10
10
10
10
10
10
10
10
10
10
10
10
10
10
10
10
10
10
10
10
10
10
10
10
10
10
10
10
10
10
10
10
10
10
10
10
10
10
10
10
10
10
10
10
10
10
10
10
10
10
10
10
10
10
10
10
10
10
10
10
10
10
10
10
10
10
10
10
10
10
10
10
10
10
10
10
10
10
10
10
10
10
10
10
10
10
10
10
10
10
10
10
10
10
10
10
10
10
10
10
10
10
10
10
10
10
10
10
10
10
10
10
10
10
10
10
10
10
10
10
10
10
10
10
10
10
10
10
10
10
10
10
10
10
10
10
10
10
10
10
10
10
10
10
10
10
10
10
10
10
10
10
10
10
10
10
10
10
10
10
10
10
10
10
10
10
10
10
10
10
10
10
10
10
10
10
10
10
10
10
10
10
10
10
10
10
10
10
10
10
10
10
10
10
10
10
10
10
10
10
10
10
10
10
10
10
10
10
10
10
10
10
10
10
10
10
10
10
10
10
10
10
10
10
10
10
10
10
10
10
10
10
10
10
10
10
10
10
10
10
10
10
10
10
10
10
10
10
10
10
10
10
10
10
10
10
10
10
10
10
10
10
10
10
10
10
10
10
10
10
10
10
10
10
10
10
10
10
10
10
10
10
10
10
10
10
10
10
10
10
10
10
10
10
10
10
10
10
10
10
10
10
10
10
10
10
10
10
10
10
10
10
10
10
10
10
10
10
10
10
10
10
10
10
10
10
10
10
10
10
10
10
10
10
10
10
10
10
10
10
10
10
10
10
10
10
10
10
10
10
10
10
10
10
10
10
10
10
10
10
10
10
10
10
10
10
10
10
10
10
10
10
10
10
10
10
10
10
10
10
10
10
10
10
10
10
10
10
10
10
10
10
10
10
10
10
10
10
10
10
10
10
10
10
10
10
10
10
10
10
10
10
10
10
10
10
10
10
10
10
10
10
10
10
10
10
10
10
10
10
10
10
10
10
10
10
10
10
10
10
10
10
10
10
10
10
10
10
10
10
10
10
10
10
10
10
10
10
10
10
10
10
10
10
10
10
10
10
10
10
10
10
10
10
10
10
10
10
10
10
10
10
10
10
10
10
10
10
10
10
10
10
10
10
10
10
CELL_DATA 16430
SCALARS total_strain double 6
LOOKUP_TABLE default
1.091795e-08 1.509314e-09 -2.158347e-09 -5.189387e-09 2.546959e-09 -8.831003e-10
5.765202e-09 3.106956e-09 -2.959083e-09 -2.138396e-09 2.025911e-09 -1.279348e-10
-2.163087e-10 6.657012e-09 -3.355362e-09 -1.468341e-09 2.266641e-09 -2.344346e-09
2.209251e-09 5.590372e-09 -3.402454e-09 -5.587609e-09 9.870277e-10 -1.993619e-09
3.786313e-10 6.687307e-09 -3.206504e-09 -2.244537e-09 3.008043e-09 -2.707543e-09
-3.940979e-09 -1.807974e-09 1.661937e-10 1.447211e-09 -9.777932e-10 3.605545e-10
-3.615267e-09 -2.474164e-09 1.190695e-09 7.405998e-10 -4.710838e-10 -1.427356e-10
-3.439105e-09 -3.553001e-09 7.773298e-10 1.186039e-09 -1.153697e-09 5.738854e-11
-4.718423e-09 -4.149601e-10 5.768550e-10 1.069018e-09 2.930555e-10 -9.077080e-11
-4.495433e-09 -2.105982e-12 4.966481e-10 3.008132e-10 -4.853719e-10 -8.879675e-12
-3.554428e-09 -2.288019e-09 9.553878e-10 6.110386e-10 -2.946459e-10 -1.568645e-10
-4.623436e-09 -3.381544e-10 6.954994e-10 5.377855e-10 -5.439891e-10 -5.796330e-11
1.733082e-08 -2.208413e-10 -3.023375e-09 -3.992370e-09 9.276642e-10 -6.180651e-10
9.704467e-09 3.865404e-09 -3.508656e-09 -6.557398e-09 -1.796831e-10 2.513708e-10
1.133031e-08 1.472486e-09 -2.713865e-09 -5.239224e-09 2.690073e-09 -6.721984e-10
1.044700e-08 -7.143988e-10 -2.314484e-09 -9.091073e-11 1.516670e-09 5.416112e-10
1.093470e-08 2.205346e-09 -2.859297e-09 -1.952578e-09 9.753273e-10 1.435367e-09
1.036988e-08 2.781986e-10 -2.991469e-09 8.330675e-11 1.664813e-09 2.808251e-10
-6.701103e-09 7.552198e-09 -3.191928e-09 2.548176e-09 3.743691e-09 -2.029109e-09
-9.357785e-09 9.073199e-09 -2.797496e-09 2.977980e-09 2.963719e-09 -2.125452e-09
-5.288349e-09 6.419003e-09 -2.048325e-09 9.564958e-10 1.694299e-09 -3.430407e-10
-8.268683e-09 5.587321e-09 -5.898655e-10 2.318745e-09 2.630006e-09 -8.091129e-10
-8.649778e-09 7.624053e-09 -2.055310e-09 2.976751e-09 3.317159e-09 -1.359315e-09
-9.156139e-09 7.093572e-09 -2.154181e-09 4.884313e-09 3.408668e-09 -1.624219e-09
5.503209e-09 -2.555173e-09 -7.118541e-10 -1.445529e-09 -1.939677e-10 -3.862477e-10
-3.589241e-09 2.612246e-09 4.281884e-10 -3.087619e-10 -1.282774e-11 -4.877654e-11
-3.696863e-09 2.533140e-09 3.834524e-10 -4.871992e-10 -7.544498e-11 -1.522781e-10
-3.424955e-09 2.587040e-09 3.128005e-10 -5.649663e-10 -8.805734e-11 -1.723288e-10
-3.744925e-09 2.685628e-09 3.576113e-10 -4.111753e-10 -5.667866e-11 -2.158124e-10
-3.616803e-09 2.549417e-09 4.028911e-10 -6.152234e-10 -9.648327e-11 9.791179e-11
-3.768962e-09 2.551290e-09 4.068181e-10 -7.399187e-10 -9.374840e-11 -1.083258e-10
-2.221491e-09 1.422321e-09 3.146732e-10 3.216449e-10 7.153123e-11 -2.351928e-10
-2.712344e-09 1.514433e-09 2.887397e-10 3.255669e-10 6.158313e-11 -4.518008e-11
-2.247928e-09 1.316669e-09 1.910312e-10 1.978743e-10 3.933125e-12 -1.108713e-11
2.053714e-08 -1.032994e-08 -3.417885e-08 -6.780565e-09 1.474996e-08 3.775090e-09
-8.315126e-11 -1.291954e-08 3.698959e-09 1.674759e-09 7.192066e-13 -1.377355e-10
1.545111e-10 -1.230550e-08 3.739971e-09 6.250107e-10 -3.248493e-10 1.970588e-10
-1.676685e-10 -1.344436e-08 3.890043e-09 1.025163e-09 -1.077603e-10 1.199417e-10
8.436825e-10 -1.360282e-08 3.882529e-09 6.713557e-10 -1.458793e-10 8.944356e-11
5.630682e-09 -3.005177e-09 -7.742369e-10 -1.184525e-10 -2.648558e-11 3.006440e-11
5.391749e-09 -3.009629e-09 -7.737277e-10 6.633273e-12 -7.927542e-12 2.238154e-11
8.888781e-09 -1.995261e-08 -3.824572e-09 -4.743334e-09 1.516854e-09 6.029021e-11
5.495622e-09 -2.940040e-09 -7.513612e-10 1.739179e-10 2.886042e-11 -1.725620e-12
5.364247e-09 -2.961462e-09 -7.452163e-10 1.661232e-11 3.220684e-11 3.868605e-11
5.441741e-09 -3.033793e-09 -7.681391e-10 -6.627865e-12 -4.823614e-12 2.011369e-11
-9.142499e-09 4.158760e-09 -5.144027e-10 -1.008504e-09 2.224749e-10 -1.540725e-10
3.919434e-09 -2.095366e-09 -6.389126e-10 -7.232582e-10 -6.996337e-11 -3.805445e-11
3.786180e-09 -1.755299e-09 -5.368281e-10 -8.506977e-10 -1.222870e-10 -9.883583e-11
3.469967e-09 -1.784831e-09 -5.795573e-10 -1.037102e-09 -1.773872e-10 2.923164e-10
3.964347e-09 -1.780778e-09 -6.161376e-10 -8.911707e-10 -2.582028e-10 8.094381e-11
3.850626e-09 -2.129121e-09 -6.837682e-10 -7.598802e-10 -1.570252e-10 -7.109263e-11
4.849324e-09 -1.595460e-08 3.120271e-09 -1.969584e-09 -7.182067e-10 -2.376594e-10
4.812783e-09 -1.646697e-08 3.144109e-09 -1.761079e-09 8.926410e-11 -3.560227e-10
3.337187e-09 -1.425136e-08 3.126037e-09 -2.420760e-09 -1.860996e-10 -4.141351e-10
4.810322e-09 -1.637263e-08 3.306491e-09 -1.737637e-09 2.782271e-10 -2.667482e-10
3.263416e-09 -1.287266e-08 2.724476e-09 -2.142652e-09 4.442018e-10 -3.511061e-10
3.418775e-09 -1.517830e-08 3.032872e-09 -2.576832e-09 -1.223586e-10 -1.320067e-10
3.598443e-09 -1.441602e-08 3.159780e-09 -1.336355e-09 -6.475486e-11 -6.490664e-10
1.013148e-08 -1.631540e-08 -6.868752e-09 -5.258360e-09 -3.626008e-09 -2.756986e-10
8.405622e-09 -1.881103e-08 -3.641794e-09 -2.631137e-09 -1.577782e-09 -3.480102e-10
6.449499e-09 -1.614483e-08 -4.830595e-09 -3.523698e-09 8.513301e-11 -2.538210e-10
8.409878e-09 -1.968434e-08 -2.525209e-09 -4.688381e-09 -2.895229e-09 -1.571767e-09
6.888612e-09 -1.707332e-08 -2.975526e-09 -2.905060e-09 -2.536759e-09 -1.571663e-10
6.535663e-09 -1.721139e-08 -3.916839e-09 -3.701356e-09 -1.857748e-09 -1.052519e-09
-3.463614e-09 -2.698568e-09 5.831244e-10 4.964629e-10 -1.519616e-10 -8.243195e-11
-3.356719e-09 -2.612435e-09 6.175980e-10 6.274499e-10 -3.181440e-10 -1.726329e-10
-3.657654e-09 -2.495359e-09 8.719487e-10 -2.731260e-10 2.242997e-10 2.351719e-11
3.031746e-08 -1.188417e-08 -3.896790e-10 -2.244204e-11 1.300937e-10 3.800489e-09
-4.190079e-09 -4.074064e-09 1.452173e-09 -4.225335e-09 -1.984874e-09 -8.212545e-10
-5.385740e-09 -1.488939e-09 3.912342e-10 -3.701705e-09 -1.279669e-09 -4.175280e-10
-7.134313e-09 -2.858755e-09 5.035430e-10 -2.198128e-09 -1.216353e-09 -1.609100e-10
-6.671415e-09 -2.115947e-10 1.181074e-09 -2.607910e-09 -1.147910e-09 -7.872136e-10
-6.743820e-09 -1.435619e-09 5.900516e-10 -3.229341e-09 -1.446969e-09 -5.551841e-10
1.488213e-08 4.378303e-08 -8.213293e-08 2.040288e-09 1.740908e-08 -7.539635e-10
-6.127975e-09 -4.304738e-09 1.430534e-09 -3.108095e-09 -2.065026e-09 -2.861840e-10
-4.674772e-09 -4.659064e-10 1.001300e-09 -1.926099e-10 -6.349854e-10 -1.234802e-10
-9.638498e-09 7.493315e-09 -2.107702e-09 4.919678e-09 3.255682e-09 -1.561205e-09
-7.901674e-09 7.589132e-09 -2.057004e-09 4.137782e-09 3.326269e-09 -2.059503e-09
-8.164910e-09 2.526751e-09 -1.407944e-09 6.949133e-09 8.661856e-10 -4.776445e-10
-8.996614e-09 7.730555e-09 -2.397327e-09 4.876729e-09 1.765135e-09 -8.841814e-10
-1.020857e-08 6.258034e-09 -2.858612e-09 6.319906e-09 2.512472e-09 -1.572715e-09
-8.547600e-09 6.241723e-09 -2.883610e-09 7.171939e-09 2.473675e-09 -1.308556e-09
-7.893200e-09 6.508770e-09 -2.759970e-09 6.309458e-09 2.798975e-09 -1.596947e-09
8.831450e-09 -2.356210e-08 -1.568466e-09 -5.735872e-09 -8.009440e-09 -1.869166e-09
7.310871e-09 -2.478195e-08 5.462375e-10 -7.098656e-09 -7.563090e-09 -1.436056e-09
6.313650e-09 -1.782838e-08 -7.087098e-11 -9.438994e-09 -7.400545e-09 -2.543501e-09
3.577448e-09 -1.730009e-08 3.041101e-10 -7.281191e-09 -6.928639e-09 -1.349313e-09
7.867203e-09 -1.815297e-08 -1.296292e-09 -9.361832e-09 -6.759921e-09 -2.943207e-09
6.079071e-09 -2.453332e-08 -1.320614e-09 -1.070423e-08 -1.129780e-08 -3.344027e-09
7.709097e-09 -2.148986e-08 3.050766e-09 1.085237e-10 9.981658e-10 -4.993922e-11
5.739622e-09 -3.289365e-09 -8.252545e-10 3.003735e-10 7.515288e-11 -3.600442e-11
6.210513e-09 -3.289365e-09 -8.546288e-10 2.977324e-10 7.208149e-11 2.251788e-10
5.689269e-09 -3.214014e-09 -7.516912e-10 -2.203123e-10 -2.356455e-11 7.780632e-11
5.921423e-09 -3.247844e-09 -7.507626e-10 -1.907547e-10 -2.155062e-11 9.249285e-11
6.031449e-09 -3.168819e-09 -7.642161e-10 -5.751217e-10 -6.164885e-11 4.365852e-11
5.912746e-09 -3.339832e-09 -8.327352e-10 -1.618488e-10 6.544126e-11 6.481077e-11
5.734265e-09 -3.277586e-09 -7.812662e-10 -5.013432e-10 -4.530043e-11 1.948743e-10
-3.407458e-09 1.218820e-09 7.984937e-10 5.201173e-10 1.708889e-10 1.456946e-10
-5.407584e-09 6.990941e-09 -2.865869e-09 -2.414793e-09 -5.382907e-09 -4.101922e-09
-8.015791e-09 8.907282e-09 -2.511560e-09 -3.202581e-09 -4.540897e-09 -4.662318e-09
-8.112545e-09 1.053228e-08 -4.903422e-09 -2.751529e-09 -5.620642e-09 -5.792759e-09
-2.410397e-09 2.263018e-09 1.512288e-10 -5.470735e-10 -1.476108e-10 -6.552714e-11
-2.432657e-09 2.263404e-09 1.679945e-10 -5.500258e-10 -9.307732e-11 1.045439e-10
-2.409982e-09 2.173532e-09 1.215461e-10 -5.482477e-10 -9.053558e-11 -6.648637e-11
-2.425596e-09 2.155100e-09 9.328049e-11 -8.280528e-10 -1.908045e-10 -4.779988e-11
-1.852652e-09 1.899135e-09 2.022138e-11 -7.235660e-10 -5.878964e-11 9.731446e-11
-2.417721e-09 1.987077e-09 1.220251e-10 -7.712186e-10 -9.601248e-11 -8.590367e-11
-1.978695e-09 1.915428e-09 -2.431855e-11 -6.690817e-10 -1.073022e-10 1.764435e-10
-2.418471e-09 1.898516e-09 -8.026912e-12 -7.617640e-10 -2.034346e-10 -7.468737e-11
-7.936836e-09 5.833182e-09 -1.778353e-09 2.746418e-09 2.079699e-09 -7.531525e-10
1.843759e-08 3.167543e-08 -8.068592e-08 5.759456e-09 4.014939e-08 -4.471263e-09
7.050354e-09 -2.017617e-08 3.490030e-09 2.336513e-10 1.016459e-10 -1.849942e-11
6.605203e-09 -1.885774e-08 3.654745e-09 -4.640229e-10 1.711025e-10 -1.348339e-10
6.732467e-09 -1.943319e-08 3.431448e-09 -2.965567e-10 -1.641127e-10 -1.112355e-10
6.770358e-09 -1.962999e-08 3.437205e-09 -4.603289e-10 -5.736322e-11 -1.277012e-10
-3.689471e-09 1.286482e-09 9.026815e-10 5.592974e-10 -2.042064e-10 -2.219922e-10
6.670673e-09 -2.024321e-08 3.652097e-09 -4.574772e-10 1.058438e-10 -1.292420e-10
6.926119e-09 -2.015112e-08 3.657012e-09 1.450773e-10 1.759879e-10 -1.281548e-10
-8.456847e-09 3.643580e-09 4.686194e-10 3.268888e-09 1.349178e-09 -6.243868e-10
-9.352838e-09 7.077967e-09 -8.536414e-10 5.382831e-09 2.752296e-09 -1.979499e-09
-9.135540e-09 3.319054e-09 -7.999730e-10 5.662233e-09 2.368243e-09 -5.809986e-10
-9.535547e-09 6.481592e-09 -2.133039e-09 5.296345e-09 4.179546e-09 -2.351255e-09
-8.068924e-09 5.519701e-09 -1.380276e-09 2.515468e-09 2.184158e-09 -6.329531e-10
-7.913876e-09 2.419576e-11 9.704957e-10 -1.061325e-09 -6.715295e-10 -1.728510e-10
2.331781e-08 -6.214823e-09 -4.194076e-08 -1.287520e-09 1.911385e-08 1.575033e-09
-6.999393e-09 -4.949925e-10 7.642598e-10 -1.035355e-09 -1.464510e-09 -3.834337e-10
2.964979e-10 -1.395725e-08 2.750248e-09 4.262284e-09 9.139938e-10 3.230471e-10
-8.594241e-09 2.292140e-10 1.637009e-09 -1.024437e-09 -3.090399e-10 -3.238659e-10
-8.363404e-09 4.042455e-11 1.552480e-09 -3.915810e-10 -8.848833e-11 -4.250338e-10
7.484322e-10 -1.175569e-08 1.027564e-09 2.214855e-09 -1.343206e-09 1.062233e-10
6.225975e-10 -1.117275e-08 2.535914e-09 1.492604e-09 -1.268196e-09 -1.469789e-10
-3.687758e-09 1.561650e-09 8.049446e-10 6.911621e-10 2.056551e-10 -2.549108e-10
1.701162e-09 -1.348493e-08 2.796832e-09 3.979572e-09 -9.989263e-10 3.163631e-10
2.305218e-09 -1.288047e-08 1.475969e-09 3.785309e-10 -1.626891e-10 2.419437e-10
1.616102e-09 -1.325301e-08 4.800658e-10 4.148260e-09 -2.332271e-09 7.866494e-10
-6.714269e-09 8.195232e-09 -1.663906e-09 3.280798e-10 2.141026e-09 -1.074450e-09
-8.466880e-09 6.290390e-09 -3.303582e-10 4.144497e-09 2.861105e-09 -1.317728e-09
-8.139882e-09 6.302608e-09 -5.935252e-13 2.250716e-09 1.834169e-09 -9.248604e-10
-8.545415e-09 5.341304e-09 3.937404e-10 4.423575e-09 2.617817e-09 -1.062792e-09
-3.018361e-09 7.483028e-09 -1.409605e-09 -6.753955e-10 1.663800e-09 -7.992172e-10
-8.112438e-09 7.703104e-09 -4.939704e-10 2.183253e-09 2.607240e-09 -1.790230e-09
-5.010053e-09 8.996085e-09 -2.674398e-09 -1.957505e-09 2.839552e-09 -1.619533e-09
-8.146705e-09 7.702373e-09 -1.668301e-09 2.198107e-09 2.577600e-09 -1.102804e-09
-4.581146e-09 1.005164e-08 -3.618660e-09 -3.447704e-10 3.376859e-09 -2.372870e-09
-5.675920e-09 8.234892e-09 -2.314694e-09 1.277417e-10 2.276241e-09 -9.743960e-10
4.829772e-10 7.609749e-09 -2.987325e-09 -3.175969e-09 1.427791e-09 -5.548140e-10
-8.628172e-09 2.103417e-09 1.094655e-09 5.337971e-09 2.959756e-09 -8.890601e-10
-8.929591e-09 3.793998e-09 -4.969771e-10 3.558678e-09 2.474485e-09 -5.570407e-10
-8.885261e-09 5.701440e-09 -5.832455e-10 4.746426e-09 2.738227e-09 -6.849335e-10
-8.463012e-09 6.252230e-09 -6.067298e-10 2.012648e-09 2.322400e-09 -4.365035e-10
-7.142652e-09 7.358044e-09 -2.149694e-09 3.177466e-09 2.987828e-09 -2.102753e-09
-9.545609e-09 6.391943e-09 7.192857e-10 4.883389e-09 2.031401e-09 -1.273398e-09
-8.579708e-09 3.096078e-09 -1.015406e-10 5.182948e-09 3.063294e-09 -1.184118e-09
-9.129274e-09 2.242306e-09 1.084686e-09 5.820524e-09 2.334274e-09 -5.811200e-10
-3.568744e-09 2.740051e-09 3.126313e-10 -8.795498e-11 -2.105183e-11 -1.665113e-11
-3.337647e-09 2.666889e-09 2.111249e-10 -1.568297e-10 -2.940870e-11 2.090905e-11
-3.456581e-09 2.573406e-09 2.517115e-10 -3.276610e-10 -4.647171e-12 1.920464e-11
-3.365919e-09 2.653853e-09 2.454001e-10 -1.780189e-10 -3.033418e-11 -4.579226e-12
-3.383505e-09 2.695513e-09 2.850249e-10 -2.408020e-10 -1.995926e-11 -6.656575e-11
-3.953970e-09 6.349792e-10 1.193196e-09 -5.145375e-10 1.861649e-10 -4.739405e-11
-3.496130e-09 2.735258e-09 2.482672e-10 -5.350897e-11 4.611617e-12 -4.815032e-11
-2.186740e-09 1.286516e-09 2.441400e-10 8.962564e-11 1.067395e-10 8.690293e-11
-2.214765e-09 1.128558e-09 2.807328e-10 3.616076e-10 2.209410e-11 -5.532019e-11
-1.982152e-09 1.179796e-09 1.993907e-10 1.645246e-10 1.778437e-10 1.100885e-11
1.454674e-08 6.798166e-09 -4.579470e-08 -6.175610e-09 7.184499e-09 1.341963e-09
-1.882065e-09 1.189097e-09 1.970673e-10 2.393141e-10 1.795590e-10 -1.157657e-11
-1.930042e-09 1.317014e-09 1.865512e-10 2.181882e-10 1.912359e-12 -1.035363e-11
-2.136215e-09 1.312353e-09 2.369571e-10 1.136251e-10 2.476130e-11 -8.725798e-11
-4.065555e-09 -1.820968e-09 1.006018e-09 1.519011e-09 -7.503546e-10 5.955170e-11
-3.782364e-09 -2.841262e-09 1.187767e-09 2.623133e-09 -1.331504e-09 4.383994e-10
-3.821951e-09 -2.147194e-09 9.120193e-10 1.289541e-09 -2.130460e-09 2.098620e-10
4.724496e-09 -2.202164e-09 -7.121865e-10 -8.053174e-10 -1.324401e-10 9.312307e-11
4.440435e-09 -2.005656e-09 -6.279364e-10 -1.503778e-09 -1.234080e-10 1.805831e-10
3.706621e-09 -2.032875e-09 -6.296621e-10 -1.342132e-09 -6.911893e-11 1.341227e-11
4.764624e-09 -2.471837e-09 -7.054148e-10 -7.785693e-10 -1.369660e-11 1.316105e-10
5.901959e-09 -1.856515e-08 3.371159e-09 -1.168727e-09 -2.143885e-10 -1.063653e-10
5.814702e-09 -1.870541e-08 3.363342e-09 -8.389941e-10 3.480267e-10 -1.851627e-10
6.503382e-09 -1.860436e-08 3.510354e-09 -4.191722e-10 2.056619e-10 -2.563391e-10
5.817853e-09 -1.672286e-08 3.652302e-09 -9.219536e-10 -4.106109e-10 -1.527632e-10
6.481051e-09 -1.927727e-08 3.625305e-09 -3.350632e-10 -8.259176e-11 -1.849203e-10
5.918102e-09 -1.859797e-08 3.585179e-09 -2.879091e-11 1.074699e-10 -1.996341e-10
-3.923886e-09 1.813129e-09 6.174310e-10 2.256211e-10 1.252864e-11 -5.788403e-11
-4.016560e-09 1.882706e-09 6.813350e-10 9.285750e-11 -1.050182e-11 -2.927558e-11
-9.377270e-09 7.343122e-09 -2.291826e-09 -1.601088e-09 -2.904431e-09 -1.027665e-09
3.415548e-08 -4.373650e-09 2.245115e-09 1.502648e-08 4.216852e-09 8.957854e-09
-8.603413e-09 6.268348e-09 -2.502345e-09 -2.173685e-09 -2.535025e-09 -6.773368e-10
-3.953971e-09 -7.016787e-11 1.210088e-09 -7.540934e-10 -1.428098e-10 -2.769061e-10
-8.493540e-09 5.507633e-09 -3.464064e-09 -3.453408e-09 -3.894377e-09 -2.080925e-09
-8.317583e-09 3.437313e-09 -3.649439e-09 -3.559946e-09 -3.154203e-09 -1.922924e-09
5.915198e-09 -1.896855e-08 3.956260e-09 1.060555e-09 1.898559e-10 1.385713e-10
6.498317e-09 -2.016592e-08 3.752782e-09 1.426534e-09 3.841888e-11 6.199303e-11
5.069182e-09 -1.847667e-08 3.777456e-09 2.300145e-09 -3.051498e-10 1.957514e-10
2.152696e-08 -3.603372e-09 -4.924079e-10 4.500258e-09 -9.975212e-10 3.413767e-09
6.507748e-09 -1.937101e-08 3.643243e-09 1.333668e-09 4.718304e-10 3.350920e-11
-1.383482e-09 1.097163e-09 1.305205e-10 5.581809e-10 1.365645e-10 -1.502376e-11
-2.032534e-09 1.123084e-09 2.658598e-10 8.095069e-10 5.967060e-11 2.282041e-11
-4.515518e-09 7.454370e-10 1.006488e-09 -8.514438e-10 -7.434120e-11 7.446710e-11
-2.060271e-09 1.322391e-09 2.771063e-10 3.120051e-10 7.312795e-11 -1.024263e-10
-1.885846e-09 1.220787e-09 2.276794e-10 2.689693e-10 4.289802e-11 -6.726619e-12
-8.586248e-09 -6.176655e-10 1.052284e-09 4.476347e-09 2.187648e-09 -6.425895e-10
-8.019228e-09 3.446421e-09 -7.551546e-10 6.169794e-09 2.292580e-09 -8.716066e-10
-7.461507e-09 5.295231e-10 1.374738e-09 4.170145e-09 1.667907e-09 -1.841997e-10
-7.412985e-09 -2.547683e-09 1.680442e-09 4.235060e-09 2.493246e-10 -5.173522e-10
-7.840551e-09 -1.643580e-09 7.787189e-10 5.835766e-09 1.858059e-09 -4.269227e-10
-8.747648e-09 1.945632e-09 -3.083696e-10 3.761334e-09 1.941059e-09 -4.434174e-10
-8.517402e-09 1.196454e-09 -2.585763e-10 3.796381e-09 1.756313e-09 -2.860798e-10
-3.077910e-09 1.603345e-09 4.227425e-10 5.858487e-10 9.136558e-11 -1.022827e-10
-3.156324e-09 1.619185e-09 5.501217e-10 6.407594e-10 1.669013e-10 -9.057899e-11
-3.011225e-09 1.688372e-09 4.282326e-10 3.962968e-10 4.803324e-11 -8.258505e-11
-3.239460e-09 1.651568e-09 4.346781e-10 3.016468e-10 1.565881e-11 -1.428209e-10
-2.834074e-09 1.485491e-09 4.143712e-10 5.345359e-10 5.077561e-11 -4.161543e-11
-2.883973e-09 1.580685e-09 4.268732e-10 6.265550e-10 -7.894352e-12 -4.101555e-11
-3.331928e-09 1.759075e-09 4.316385e-10 5.054192e-10 4.495226e-11 -4.010930e-11
-3.331159e-09 1.730031e-09 4.307383e-10 2.845529e-10 3.881340e-11 -1.126005e-10
-3.262924e-09 -2.093054e-09 1.586848e-09 -3.411808e-10 -1.187472e-11 -3.909489e-10
-3.379218e-09 -1.800162e-09 1.624674e-09 -6.237730e-10 1.305906e-10 -4.397097e-10
-3.952482e-09 -3.764875e-10 1.285567e-09 -5.100602e-10 -1.389563e-10 -2.761051e-10
-3.799513e-09 -2.139049e-10 1.366111e-09 -3.620750e-10 -5.199285e-11 -2.198577e-10
-3.623864e-09 -1.222066e-10 1.329323e-09 -5.120126e-10 1.261655e-10 -3.480072e-10
-2.170041e-09 -8.059803e-09 3.251184e-09 4.024356e-09 2.140435e-10 3.069090e-10
-4.012732e-09 2.182697e-09 5.447058e-10 3.646017e-11 3.052847e-11 -1.398637e-11
-2.193017e-09 -7.685041e-09 3.164271e-09 3.951473e-09 3.571333e-10 3.515975e-10
-3.334844e-09 -8.590874e-09 3.206949e-09 2.693008e-09 1.623786e-10 8.255069e-11
-2.111944e-09 -9.059585e-09 3.361604e-09 2.745000e-09 -4.000602e-10 2.523423e-11
-2.452822e-09 -8.795057e-09 3.339416e-09 2.559887e-09 1.280662e-10 3.673104e-10
1.121875e-08 7.590104e-09 -3.673283e-08 -7.592313e-09 -7.832369e-09 -7.014494e-10
1.349555e-08 4.635397e-09 -3.883777e-08 -5.118187e-09 -1.775785e-08 -7.626014e-11
8.206394e-09 2.314327e-08 -4.282315e-08 -6.755195e-09 -5.543488e-09 -1.400054e-09
8.195837e-09 2.018586e-08 -3.545380e-08 -5.210787e-09 -1.070612e-08 -2.684324e-09
5.629287e-09 -1.770554e-08 -5.275491e-11 -2.070351e-09 -1.373555e-09 -3.426382e-10
5.404593e-09 -1.883729e-08 -7.717440e-10 -3.036866e-09 -3.657419e-09 -7.644421e-10
5.626473e-09 -1.991587e-08 2.577414e-10 -2.214502e-09 -1.283171e-09 -3.822358e-10
5.333897e-09 -1.635721e-08 -9.946566e-11 -1.558658e-09 -1.268194e-09 -4.666649e-10
7.196308e-09 -2.067423e-08 1.977236e-10 -1.519028e-09 -1.671701e-09 -5.799490e-10
5.283341e-09 -1.231746e-08 -7.895356e-09 -6.363795e-09 -2.871889e-09 -1.392822e-09
8.240604e-09 -1.043934e-08 -1.185271e-08 -8.196759e-09 -1.672838e-09 -1.460719e-09
8.261146e-09 -1.077569e-08 -1.124410e-08 -8.401147e-09 -7.315160e-09 -1.176149e-09
1.010539e-08 -1.821147e-08 -1.050576e-08 -5.484243e-09 -6.962807e-09 -6.304683e-10
9.343574e-09 -1.219414e-08 -1.168283e-08 -6.705666e-09 -5.791543e-09 -1.067528e-09
-3.896652e-09 1.761497e-09 6.567114e-10 2.037450e-10 7.066359e-11 -1.404783e-10
-3.737101e-09 1.513429e-09 6.554601e-10 3.272596e-10 5.057854e-11 -9.570567e-11
2.717825e-09 -8.662706e-10 -2.010940e-08 -1.422159e-08 8.610984e-09 5.929115e-09
3.142248e-09 -1.546565e-09 -5.383254e-10 -4.039273e-10 -3.867462e-11 -3.356393e-11
8.884368e-09 -6.400432e-09 -1.901710e-08 -1.296099e-08 7.662759e-09 3.299418e-09
1.440319e-08 4.784925e-09 -3.856349e-08 -8.206240e-09 6.657212e-09 4.556557e-09
1.455017e-08 1.411669e-09 -3.341053e-08 -8.885534e-09 1.391177e-08 4.900105e-09
3.656633e-09 -1.434291e-08 -2.558995e-09 -6.718833e-09 -5.445738e-09 -1.275245e-09
6.244891e-09 -3.123321e-09 -4.603451e-10 -3.322228e-09 4.781236e-11 1.671671e-10
7.905300e-09 -1.651308e-08 -7.394515e-09 -9.663420e-09 -8.739060e-09 -2.963151e-09
5.995149e-09 -2.200180e-09 6.470424e-11 -5.256436e-09 -1.746512e-10 5.947579e-10
4.312305e-09 -1.062255e-08 -5.693583e-09 -5.933247e-09 -6.887104e-09 -1.636783e-09
5.216536e-09 -1.394970e-08 -5.725686e-09 -8.271603e-09 -7.215344e-09 -1.840793e-09
4.911723e-09 -2.766513e-09 -6.774020e-10 -5.424097e-10 -8.621059e-11 1.224826e-10
7.095797e-09 -3.699331e-09 4.037766e-10 -4.429554e-09 6.337375e-11 -3.369276e-10
5.749489e-09 -3.070347e-09 -7.586110e-10 -3.134084e-10 -3.505260e-11 8.434453e-11
5.687302e-09 -3.065246e-09 -7.463988e-10 -2.824690e-10 -7.305742e-11 1.140131e-10
5.347692e-09 -3.076785e-09 -7.239236e-10 -2.113562e-10 -5.323431e-11 -8.284529e-11
-4.941993e-09 -5.086411e-09 1.300196e-09 -1.237933e-09 -1.423902e-09 -3.989422e-10
-3.629913e-09 -6.489316e-09 2.115924e-09 -8.037473e-10 -3.648966e-10 -4.719285e-10
-2.201030e-09 -1.054547e-08 2.666998e-09 -2.289330e-09 -2.053194e-09 3.279599e-11
-2.572483e-09 -8.181692e-09 1.849936e-09 -1.195283e-09 -1.110677e-09 -3.762721e-10
-3.798067e-09 1.940459e-09 5.753873e-10 2.173079e-10 2.848766e-11 -5.011547e-12
3.100835e-09 -1.325973e-09 -5.789449e-10 -1.578450e-09 -4.901279e-11 9.039858e-11
-3.857265e-09 2.052378e-09 6.028857e-10 7.096057e-11 3.864864e-11 -2.500578e-11
-6.198587e-09 7.611861e-09 -6.817760e-09 -2.788062e-09 -6.469501e-10 -6.953888e-10
-3.932941e-09 1.999816e-09 5.526624e-10 1.657083e-10 2.113514e-11 -1.930311e-11
-3.858108e-09 2.023220e-09 5.718079e-10 6.595613e-11 6.574741e-12 -3.023887e-11
4.848991e-09 -1.557192e-08 2.970445e-09 -1.964729e-09 3.360995e-10 -1.895826e-10
4.568082e-09 -1.504431e-08 2.949960e-09 -2.567424e-09 3.227445e-10 -4.193492e-10
1.554694e-08 -6.244210e-09 -3.055320e-08 -4.609202e-10 -1.582061e-08 1.665988e-09
5.473819e-09 -1.693204e-08 3.093611e-09 -2.374261e-09 -7.320243e-11 -5.327567e-10
5.098832e-09 -1.574413e-08 3.170491e-09 -2.000811e-09 4.478468e-10 -4.310413e-10
4.566822e-09 -1.828951e-09 2.977183e-10 3.384898e-09 5.810404e-12 -7.167289e-10
2.799778e-09 -4.659217e-10 6.120753e-10 4.484679e-09 1.769026e-10 2.280556e-10
5.494873e-09 -2.209484e-09 8.591634e-10 4.185814e-09 1.483618e-10 3.296679e-10
5.333396e-09 -2.158015e-09 2.561902e-10 4.084125e-09 -1.113619e-10 -4.886176e-10
-2.337849e-09 -1.021230e-08 3.435859e-09 2.338226e-09 2.218139e-10 2.873295e-10
-1.638016e-09 -1.145192e-08 3.714963e-09 2.146965e-09 -1.437283e-11 2.590554e-10
-2.433953e-09 -8.570694e-09 3.601382e-09 1.562911e-09 1.850864e-10 4.277911e-11
-2.950675e-09 -8.880033e-09 3.649986e-09 1.012836e-09 -3.307532e-11 -3.951106e-11
-2.402957e-09 -8.570136e-09 3.679287e-09 1.568413e-09 2.593375e-10 2.973863e-10
-3.411172e-09 -8.832441e-09 3.635546e-09 1.008597e-09 9.770308e-11 5.450687e-11
-3.903480e-09 2.520231e-09 4.716858e-10 -2.186715e-10 -4.748513e-11 -1.265810e-10
-3.965710e-09 2.614748e-09 4.771206e-10 -1.909266e-10 -1.133343e-11 -9.166867e-11
2.384453e-08 -5.923011e-09 -5.585646e-09 6.283192e-10 6.339791e-10 -1.021667e-09
-4.039888e-09 2.600443e-09 4.806626e-10 -2.310507e-10 -1.409606e-11 -1.119229e-10
-4.034915e-09 2.662567e-09 4.717515e-10 -8.530976e-11 -2.754019e-11 -1.956753e-10
-4.034341e-09 2.710136e-09 4.217977e-10 -1.195430e-10 -1.988920e-11 -1.660867e-10
-3.791049e-09 -2.039579e-09 6.482734e-10 9.475158e-10 -1.820331e-10 -6.463197e-11
-3.745099e-09 -2.211392e-09 1.012082e-09 5.484102e-11 -2.334959e-10 -1.280080e-10
-2.962452e-09 -2.810215e-09 1.083549e-09 5.051042e-10 -2.386522e-10 -1.663447e-10
-2.979842e-09 -3.114813e-09 9.180769e-10 5.972529e-10 -1.333289e-11 -2.309554e-10
-3.798166e-09 -2.040619e-09 4.835004e-10 9.804873e-10 -1.972956e-10 1.716022e-10
-2.904014e-09 -4.236634e-09 6.603740e-10 -7.472223e-11 7.705836e-12 -1.273239e-10
-3.097403e-09 -3.816334e-09 1.074626e-09 2.792243e-10 3.353520e-10 -1.037939e-10
-3.757939e-09 -2.646816e-09 1.160474e-09 -9.756895e-11 -1.071200e-10 -3.558458e-10
-4.040056e-09 -1.167804e-09 1.008704e-09 2.809223e-10 -6.795198e-10 -1.262022e-10
-5.405031e-09 -3.798564e-09 1.212174e-09 -5.874861e-09 -3.236834e-09 -8.524621e-10
-4.375428e-09 -7.386920e-09 6.016743e-10 -5.383292e-09 -2.768173e-09 -1.160170e-09
-5.306582e-09 -3.179821e-09 1.555380e-10 -4.498963e-09 -2.488801e-09 -4.526522e-10
-6.620400e-09 6.104770e-10 1.944267e-10 -4.322128e-09 -2.573913e-09 -5.701883e-10
-6.645084e-09 7.089129e-11 1.381596e-09 -4.539300e-09 -2.254825e-09 -7.355263e-10
-2.460746e-09 1.985123e-09 7.866019e-11 -9.177650e-10 -1.125846e-10 -2.914447e-12
-9.572095e-10 7.152670e-10 1.451097e-10 3.044525e-10 -2.627321e-11 1.009392e-10
-1.242191e-09 8.783854e-10 1.877569e-10 8.166283e-10 8.086376e-11 3.233325e-11
-1.038218e-09 7.329293e-10 6.828005e-11 9.424743e-10 1.750133e-11 -1.278773e-10
-1.315522e-09 8.888756e-10 1.210410e-10 6.057643e-10 2.132561e-11 -1.921112e-10
-1.568917e-09 9.910339e-10 4.060308e-11 8.239259e-10 5.266809e-11 -6.883916e-11
1.461709e-08 -9.017397e-09 -2.842773e-08 2.461865e-09 -1.489927e-08 2.818286e-09
-3.631270e-09 -3.393197e-11 1.150248e-09 -5.619421e-10 -3.507306e-11 -2.733037e-10
-3.939072e-09 8.442185e-10 9.947616e-10 3.718658e-11 2.964795e-11 -2.225922e-10
-3.775344e-09 2.367884e-12 1.133781e-09 -2.672517e-10 5.289201e-11 -3.223663e-10
-3.657466e-09 -4.020562e-10 1.254229e-09 -3.059788e-10 2.809900e-10 -2.543841e-10
-3.943381e-09 6.162901e-10 1.092185e-09 -1.019975e-10 -8.118950e-11 -1.392663e-10
-2.016067e-10 -1.316093e-08 2.980392e-09 4.343008e-09 4.125549e-10 -4.944589e-10
4.129035e-10 -1.395197e-08 2.626871e-09 5.607133e-09 3.448331e-10 -1.217828e-10
2.655979e-09 -1.679744e-08 3.128157e-09 4.146682e-09 1.332965e-10 -2.260737e-10
1.536582e-09 -1.486764e-08 3.423305e-09 3.275433e-09 5.061975e-10 1.174056e-10
2.805420e-09 -1.587711e-08 2.772498e-09 4.707406e-09 4.048615e-10 2.287863e-10
2.921192e-08 -1.258539e-08 3.324502e-09 -1.376217e-09 5.003297e-10 4.242702e-09
2.744803e-08 -1.289121e-08 4.532954e-09 1.409910e-09 1.855985e-09 3.387009e-09
2.724663e-08 -1.179333e-08 -2.045708e-11 -6.568406e-10 -4.085272e-11 5.921481e-10
2.823453e-08 -1.144839e-08 3.417561e-09 3.142868e-09 7.820884e-10 1.603488e-09
2.756696e-08 -1.113565e-08 -1.898052e-09 -1.375917e-10 -7.667577e-11 1.534266e-10
2.707341e-08 -1.013978e-08 -2.152862e-09 1.399298e-09 5.845610e-10 2.472038e-10
1.220841e-08 3.040681e-09 -3.546509e-08 -3.536235e-09 -1.221856e-08 -1.822451e-09
1.223821e-08 -2.949912e-08 1.624162e-09 -9.975488e-10 -5.502573e-09 1.234392e-10
1.262527e-08 -2.952617e-08 -2.955481e-09 -3.383928e-09 -1.055165e-08 -9.111521e-10
1.318216e-08 -2.935105e-08 -1.273450e-09 5.194068e-10 -9.087597e-09 1.257931e-09
1.490779e-08 -2.807899e-08 -2.002867e-09 -1.500407e-09 -9.376812e-09 6.317819e-10
1.326357e-08 -2.828650e-08 -1.480842e-09 2.225331e-10 -6.120086e-09 3.222798e-10
1.249953e-08 -3.017017e-08 1.513491e-09 -1.484378e-09 -6.130198e-09 2.091400e-10
-2.912722e-09 9.357165e-09 -4.339721e-09 1.423678e-09 -4.307261e-09 -4.439924e-09
-4.938037e-09 7.492655e-09 -4.321524e-09 1.477721e-10 -6.352964e-09 -5.944929e-09
3.649836e-09 6.778195e-09 -5.542450e-09 2.977296e-09 -2.493216e-09 -2.129275e-09
3.912892e-09 5.450509e-09 -4.794308e-09 5.618718e-09 -1.371402e-09 -3.614570e-09
-4.857642e-10 1.909203e-08 -6.180037e-09 7.922046e-09 -3.169392e-09 -7.056734e-09
2.001161e-09 7.788618e-09 -3.338246e-09 7.632720e-09 5.996789e-10 -2.893081e-09
1.373652e-08 6.297955e-09 -5.617606e-09 9.273891e-09 -1.985817e-09 -2.142276e-09
-3.542219e-09 -7.175025e-10 1.439975e-09 -6.042802e-10 -5.546672e-13 -4.033431e-10
-3.725814e-09 -8.516290e-10 1.336883e-09 -9.500968e-10 3.661361e-10 -2.260623e-10
-4.968358e-09 2.839950e-09 -6.434405e-09 -4.907320e-09 -1.636747e-09 -8.836398e-10
-3.276218e-09 -1.278208e-09 1.425034e-09 -4.353119e-10 9.110068e-11 -4.273395e-10
-3.717826e-09 2.059233e-10 1.332195e-09 -2.041696e-10 4.059486e-11 -2.225448e-10
-3.591760e-09 -1.438822e-10 1.126101e-09 -3.571161e-10 2.029567e-10 -3.466165e-10
-2.779997e-09 2.499566e-09 1.436007e-10 -3.168726e-10 -9.708345e-12 -3.025766e-11
-2.825655e-09 2.434097e-09 2.034879e-10 -6.299357e-10 -6.084355e-11 -6.502865e-11
-2.841047e-09 2.262081e-09 2.176916e-10 -6.841625e-10 -3.392620e-11 -6.214629e-11
-3.187211e-09 2.553332e-09 2.282055e-10 -3.483137e-10 -3.501488e-11 -9.277104e-11
2.651248e-08 -7.466026e-09 -1.960172e-09 -9.769803e-10 2.215183e-09 3.818168e-09
-3.166762e-09 2.574316e-09 1.903522e-10 -2.820286e-10 -3.441403e-11 -6.284973e-12
-3.926065e-09 2.561395e-09 -6.814253e-09 -6.449747e-09 -3.328433e-09 -1.308522e-09
7.185872e-09 -2.185975e-08 3.560187e-09 9.454206e-10 1.017475e-09 1.111852e-10
8.373779e-09 -2.194175e-08 3.440835e-09 5.366352e-10 9.593193e-10 7.744257e-11
7.574676e-09 -2.040335e-08 3.177591e-09 -5.049704e-11 1.908546e-10 3.000378e-12
1.013889e-08 -4.184887e-09 -2.199464e-08 -7.874417e-09 -3.748982e-09 -1.421431e-09
1.429007e-08 -7.888259e-09 -2.419876e-08 5.022780e-11 -1.249992e-08 1.261331e-09
7.830795e-09 -2.124697e-08 2.745355e-09 6.677229e-10 2.811183e-10 -1.567861e-10
7.978803e-09 -2.128918e-08 2.118723e-09 8.492450e-10 6.702140e-10 -1.721103e-10
-2.234597e-09 1.864514e-09 1.736566e-11 -8.421187e-10 -4.727585e-11 5.030004e-13
-1.356725e-09 1.344802e-09 -4.096712e-11 -6.774581e-10 -1.046293e-10 -7.561729e-13
-1.158534e-09 1.445640e-09 -3.560707e-12 -8.478613e-10 -1.333704e-10 -4.432454e-11
1.009129e-09 -3.307496e-10 -1.771214e-10 1.251644e-09 9.780488e-11 1.425984e-10
-8.049073e-09 1.163050e-09 1.674310e-09 -2.912443e-09 -1.749754e-09 -1.768220e-10
-8.682470e-09 3.992167e-09 -1.784087e-09 -3.480122e-09 -2.925317e-09 -9.166037e-10
-7.943730e-09 1.421676e-10 1.551603e-11 -3.534879e-09 -2.187613e-09 -1.222545e-09
-7.360381e-09 -1.006839e-10 -9.062180e-10 -5.419116e-09 -3.262313e-09 -1.859374e-09
-6.783079e-09 2.336478e-10 1.213880e-09 -4.108310e-09 -2.540471e-09 -5.667924e-10
-6.735195e-09 -2.412212e-09 1.551770e-09 -6.679836e-09 -1.935764e-09 -1.281882e-09
-6.769741e-09 1.161077e-09 4.788832e-10 -5.991703e-09 -3.224277e-09 -1.023202e-09
1.280770e-08 -3.009585e-10 -4.511753e-09 4.902949e-09 -9.348131e-10 -1.572729e-09
1.481609e-08 1.438992e-09 -3.180387e-09 6.216818e-09 -6.737542e-10 3.200985e-10
1.694585e-08 -3.160523e-09 -3.758066e-09 3.438655e-09 -5.422977e-10 -2.012485e-10
1.692328e-08 -3.156202e-09 -4.354905e-09 3.402042e-09 -5.402442e-10 2.273237e-10
1.606710e-08 9.323193e-10 -4.526431e-09 4.474279e-09 -1.721213e-09 -8.459844e-10
1.684055e-08 -3.745293e-09 -3.541301e-09 3.689425e-09 -8.257422e-10 -5.151393e-11
2.152447e-09 -7.770820e-10 -3.042118e-10 1.773599e-09 -7.834936e-11 -1.686700e-10
1.774765e-08 -2.328171e-09 -4.216103e-09 1.659403e-09 -1.179388e-09 -7.244618e-10
3.527657e-09 4.474128e-09 -3.121217e-09 1.853553e-09 -2.705440e-09 -1.729707e-09
-6.581979e-10 1.672130e-08 -8.370358e-09 6.520416e-09 -3.788761e-09 -6.546246e-09
-4.955709e-09 8.519461e-09 -5.570707e-09 -9.858222e-10 -5.152834e-09 -4.747936e-09
-5.568149e-09 9.506133e-09 -5.488753e-09 2.165140e-10 -4.014228e-09 -5.429173e-09
8.169744e-09 6.439121e-09 -5.608110e-09 7.814669e-09 -1.849195e-09 -2.957066e-09
-3.237324e-09 7.495683e-09 -4.848645e-09 -2.981264e-10 -2.960711e-09 -1.663880e-09
-1.361814e-09 -9.357434e-09 1.627572e-09 -5.040626e-10 -4.009910e-10 -3.802825e-11
-2.345397e-09 6.146678e-09 -2.193836e-09 1.527106e-10 -3.571738e-09 -1.813108e-09
4.064177e-09 -1.830894e-09 -5.248966e-10 1.723352e-09 1.172700e-10 2.060650e-10
1.440955e-09 6.406063e-09 -4.804053e-09 2.540717e-09 -2.821341e-09 -2.815334e-09
2.461629e-09 -7.695684e-10 -4.503837e-10 -9.320606e-10 -1.264282e-10 1.904636e-10
2.644309e-09 -1.031022e-09 -4.934990e-10 -1.034083e-09 -2.974803e-10 3.601304e-15
2.582320e-09 -1.031049e-09 -4.569447e-10 -1.071889e-09 -9.080581e-11 -1.532721e-10
1.344489e-09 -1.046363e-10 -2.824470e-10 -8.899068e-10 -1.162064e-10 -1.895158e-10
1.163701e-09 -1.328511e-10 -3.148584e-10 -9.791341e-10 -6.482015e-11 -1.057658e-10
4.042751e-09 -1.730087e-08 6.843963e-10 -7.650982e-10 -8.040895e-10 8.025225e-11
2.894798e-08 -1.064889e-08 -8.604486e-10 3.353445e-09 2.660814e-10 3.674508e-09
2.870074e-08 -1.115312e-08 -1.465489e-09 -8.357671e-11 2.936960e-12 9.244074e-10
2.728934e-08 -1.103508e-08 -1.391940e-09 1.157257e-10 1.489967e-10 7.381997e-10
2.635476e-08 -9.507233e-09 -2.149730e-09 1.966783e-09 6.249576e-10 1.556007e-09
2.700340e-08 -9.487715e-09 -1.181581e-09 1.530154e-09 9.529463e-10 6.555045e-10
2.723016e-08 -1.032424e-08 -1.395426e-09 2.448429e-12 -4.055415e-10 8.990327e-10
2.797394e-08 -1.098418e-08 -2.268941e-09 2.621004e-10 -1.861422e-10 4.044553e-10
2.723351e-08 -9.676789e-09 -2.117463e-09 1.123400e-10 7.510110e-10 1.301931e-09
-4.138515e-09 -7.189981e-09 3.399735e-09 4.000360e-10 1.637794e-10 -1.661747e-10
-3.989747e-09 -7.360658e-09 3.446095e-09 4.500276e-10 -2.526334e-11 1.898945e-10
-3.809988e-09 -7.935775e-09 3.661196e-09 3.641307e-10 7.672102e-11 -6.788625e-12
-3.760489e-09 -7.754385e-09 3.469854e-09 1.247074e-09 -1.093978e-10 1.926032e-10
-7.070821e-09 9.679193e-09 -9.227723e-09 -3.758789e-09 -2.495701e-09 -2.613429e-09
-6.609279e-09 9.511528e-09 -8.634214e-09 -1.966953e-09 -9.052792e-10 -2.039555e-10
-6.799592e-09 2.561396e-09 -2.304926e-09 -4.733588e-09 -2.505917e-09 -1.321364e-09
-7.129952e-09 6.232020e-09 -3.776012e-09 -3.332642e-09 -8.570837e-10 -1.890418e-09
-5.902029e-09 7.055849e-09 -7.017005e-09 -4.531565e-09 -2.387016e-09 -1.988761e-09
-7.190740e-09 -1.491948e-09 -2.463596e-10 -2.351230e-09 -1.107660e-09 -4.268312e-10
-7.097569e-09 -1.080345e-10 6.641849e-10 -1.115806e-09 -8.758965e-10 -1.676108e-10
-7.045719e-09 -2.741328e-09 6.492951e-10 -1.010472e-09 -3.682220e-10 -1.197096e-10
-7.797755e-09 4.020890e-10 1.605616e-09 -1.876528e-09 -8.596123e-10 8.629425e-12
-8.155562e-09 1.390269e-09 3.249361e-10 -1.359457e-09 -3.128959e-10 -3.278405e-10
-8.910974e-09 1.277025e-09 8.090013e-10 -7.282157e-10 -8.205374e-10 -2.649974e-10
-8.567633e-09 8.718448e-10 1.360461e-09 -1.983307e-09 -1.099762e-09 -4.773250e-10
-7.097800e-09 2.369802e-10 4.683676e-10 -2.708981e-09 -1.216156e-09 -2.019435e-10
-7.829614e-09 -3.933351e-10 1.002420e-09 -1.553695e-09 -1.103672e-09 -3.203292e-10
5.926590e-09 -3.233749e-09 -7.782007e-10 -7.029599e-10 -3.145062e-11 1.001451e-10
2.484835e-09 -1.089088e-09 -4.066343e-10 4.456759e-10 1.714997e-10 2.683365e-11
5.548383e-09 -2.917489e-09 -7.868266e-10 -8.555084e-10 -6.434536e-11 2.449455e-10
2.645128e-09 -1.489311e-09 -4.091225e-10 1.476140e-09 -7.107859e-11 -1.873093e-10
5.965614e-09 -3.305219e-09 -7.779266e-10 -6.084127e-10 -5.425771e-11 3.971357e-11
5.769845e-09 -2.992749e-09 -7.745317e-10 -6.280541e-10 -3.116932e-11 7.069079e-11
6.031429e-09 -3.181414e-09 -8.120045e-10 -5.683374e-10 -3.073108e-11 3.711292e-11
-2.525538e-09 -3.724860e-09 1.843282e-09 -1.154068e-09 4.285892e-10 -4.337676e-10
-2.948996e-09 -4.158298e-09 1.712307e-09 -2.716977e-09 5.360710e-10 -1.595589e-10
-1.679419e-09 -4.179489e-09 1.917469e-09 -1.644879e-09 -1.538676e-10 -5.720810e-10
-2.719013e-09 -2.143289e-09 1.675581e-09 -1.271768e-09 -1.892129e-10 -3.805485e-10
-1.675931e-09 -5.195532e-09 1.790722e-09 -1.817128e-09 2.297363e-10 -4.827372e-10
-3.635208e-10 2.171525e-10 -6.482326e-11 1.151836e-09 1.047039e-10 2.419465e-11
-3.624456e-09 1.278031e-09 8.998473e-10 4.920524e-10 1.115210e-10 -3.161422e-10
1.524659e-09 -3.304130e-10 -1.998512e-10 1.337369e-09 7.080603e-11 -1.501008e-11
1.398848e-08 -8.063035e-10 -3.191609e-08 -2.609840e-09 -5.255408e-09 1.202243e-10
9.371688e-10 -3.005702e-10 -1.475051e-10 1.742008e-09 3.053259e-10 1.004458e-10
5.979892e-10 -3.006666e-10 -1.579126e-10 1.683930e-09 2.260597e-10 -1.353682e-10
1.652480e-10 1.356737e-10 -9.762657e-11 1.113270e-09 5.243983e-11 -9.120193e-11
6.418279e-10 -3.078076e-10 -1.147562e-10 1.195223e-09 -3.839845e-12 1.284328e-11
-5.907543e-09 -2.912662e-09 2.374120e-09 3.667403e-09 2.797207e-10 1.451133e-10
1.142637e-08 7.874473e-09 -3.386452e-08 1.456559e-08 1.320974e-08 -4.589086e-09
-6.186159e-09 -3.548026e-09 2.349642e-09 1.187995e-09 1.519589e-10 -2.763649e-10
-6.415208e-09 -2.918617e-09 2.145307e-09 1.044209e-09 1.659968e-10 -4.806289e-11
-5.311958e-09 -3.092829e-09 2.071246e-09 3.340811e-09 4.741674e-10 -2.452394e-11
-6.928357e-09 -1.272165e-09 1.074401e-09 3.983676e-09 8.041148e-10 2.283596e-10
-7.144187e-09 -1.982521e-09 9.498047e-10 1.727367e-09 3.050906e-13 1.106270e-11
-3.706333e-10 -1.203358e-08 3.392363e-09 2.776585e-09 -2.241916e-10 -4.461343e-11
-2.333387e-10 -1.148076e-08 3.733429e-09 2.279639e-09 -1.316902e-11 4.466740e-10
-2.143684e-09 -1.108615e-08 3.266333e-09 3.790976e-09 7.683499e-11 3.819628e-11
-2.450649e-09 -1.045959e-08 3.080221e-09 3.965804e-09 5.990939e-10 -2.862628e-10
-1.869983e-09 -8.859150e-09 3.358365e-09 2.182912e-09 1.173105e-10 6.297829e-11
-2.005724e-09 -1.002118e-08 3.251184e-09 3.927808e-09 6.442065e-11 2.556166e-10
2.295593e-08 1.481379e-09 -4.455396e-08 -2.297641e-09 1.738706e-08 5.836007e-10
-2.004597e-09 -1.019389e-08 3.601963e-09 3.621435e-09 -4.849092e-11 5.362002e-10
-7.099475e-09 -3.945182e-10 2.138345e-09 2.440803e-09 2.223720e-09 -3.864697e-11
-5.688781e-09 -5.295355e-09 2.717903e-09 3.929390e-09 6.181449e-10 -1.898107e-10
-5.693008e-09 -3.498245e-09 2.084094e-09 2.939795e-09 1.347288e-09 -1.070844e-10
-5.331401e-09 -4.146504e-09 2.315047e-09 4.453320e-09 8.793011e-10 -5.594639e-12
-7.101722e-09 6.005871e-10 2.468301e-09 2.439495e-09 1.792340e-10 5.735556e-11
-6.144329e-09 8.824578e-09 -3.600682e-09 -4.687563e-10 1.495184e-09 -1.114902e-09
-3.462924e-09 9.579255e-09 -4.168700e-09 -1.915118e-09 1.529979e-09 -1.408754e-09
-3.776508e-09 9.506037e-09 -3.491748e-09 -1.337021e-09 2.553204e-10 -1.371118e-09
-3.306178e-09 9.210091e-09 -2.937758e-09 -2.283235e-09 6.145970e-10 2.567866e-10
5.493238e-09 -3.000635e-09 -7.152292e-10 -4.598036e-11 2.037896e-11 3.512489e-11
5.166839e-09 -2.998294e-09 -6.466154e-10 1.248050e-11 3.890619e-11 7.993162e-12
5.136499e-09 -2.892914e-09 -7.075958e-10 1.771306e-10 2.805026e-11 7.047807e-11
5.084578e-09 -2.935566e-09 -6.659984e-10 2.254369e-10 5.122641e-11 3.193945e-11
4.869103e-09 -2.881717e-09 -6.384346e-10 1.071770e-10 1.460025e-11 4.387502e-11
5.166839e-09 -2.869000e-09 -6.537590e-10 3.365572e-12 5.813612e-12 7.157830e-12
5.266436e-09 -3.030094e-09 -6.918834e-10 3.785283e-11 -3.378478e-12 7.272005e-11
5.166836e-09 -2.868919e-09 -6.969287e-10 3.111463e-11 5.807720e-11 -4.297451e-12
5.380350e-09 -2.906301e-09 -7.328222e-10 2.037185e-10 4.760239e-11 2.213784e-13
5.071637e-09 -2.897671e-09 -6.851417e-10 1.022865e-10 5.212177e-11 -3.668754e-11
-5.451604e-10 7.719552e-10 -8.025358e-11 -4.333949e-10 -5.784473e-11 1.240152e-11
-5.239640e-10 8.778569e-10 -1.186611e-10 -7.217671e-10 -7.632939e-11 6.451362e-11
-4.748628e-10 1.186331e-09 -8.574652e-11 -1.152975e-09 -2.630234e-10 -1.082648e-10
3.464924e-10 7.990613e-10 -2.963286e-10 -9.249523e-10 -1.650765e-10 -1.944864e-11
-2.584786e-10 8.045715e-10 -1.847282e-10 -1.036865e-09 -2.180633e-10 1.662821e-10
-6.132765e-09 7.695030e-09 -1.819414e-09 1.746666e-09 3.037521e-09 -2.035647e-09
-5.669113e-09 7.490986e-09 -1.632351e-10 5.596186e-10 2.326096e-09 -7.080301e-10
-6.459302e-09 8.194762e-09 -1.841510e-09 3.148373e-10 2.150847e-09 -6.670828e-10
-4.297255e-09 9.674649e-09 -3.412384e-09 -1.157185e-09 1.982701e-09 -1.981559e-09
-1.101546e-09 5.755797e-09 -2.432726e-09 2.301785e-10 2.224647e-09 -6.741025e-10
-1.332243e-09 5.727613e-09 -2.206494e-09 3.924804e-10 1.889762e-09 -4.661782e-10
-1.730669e-09 5.469980e-09 -1.532614e-09 -5.988085e-10 2.255367e-09 -1.077857e-09
-2.123835e-09 1.015136e-08 -3.127106e-09 -2.831240e-09 2.361845e-09 -2.270906e-09
1.412918e-08 -2.058714e-08 -1.232123e-08 3.559738e-09 4.467315e-09 7.805884e-12
4.968949e-09 -2.674037e-09 -6.659149e-10 4.299506e-11 5.891188e-11 3.246559e-11
1.443454e-08 -1.320706e-08 -3.435765e-08 1.339185e-08 1.128008e-08 -2.415072e-09
5.176844e-09 -2.941407e-09 -6.607279e-10 2.393726e-10 5.242767e-11 5.539003e-11
4.936051e-09 -2.878504e-09 -6.519483e-10 2.286818e-10 7.975953e-11 6.523582e-11
-3.897192e-09 2.267928e-10 1.013400e-09 -1.427053e-10 3.984564e-11 -1.775090e-10
-3.944945e-09 7.313958e-10 1.083154e-09 -1.525988e-10 7.708334e-11 -2.823020e-10
-3.941221e-09 8.658123e-10 1.024174e-09 1.230028e-10 5.161249e-11 -1.452691e-10
-4.203462e-09 1.309566e-09 9.305792e-10 1.660461e-10 1.007798e-10 -2.248248e-10
-3.959145e-09 1.335914e-09 8.986722e-10 8.368597e-11 4.180527e-11 5.869415e-12
-3.952833e-09 1.419261e-09 8.022316e-10 1.917888e-10 1.179716e-11 -1.528850e-10
-3.890026e-09 9.243042e-10 9.813110e-10 -6.677026e-11 2.377640e-11 -2.494995e-10
-3.939467e-09 7.491203e-10 1.082165e-09 2.400627e-11 7.997855e-11 -2.028330e-10
-3.524605e-09 2.750883e-09 2.733522e-10 -1.268492e-10 -8.469225e-12 -1.084925e-10
-3.522123e-09 2.737913e-09 2.232854e-10 -1.311741e-10 -3.852122e-11 -1.272673e-10
-3.127417e-09 2.672110e-09 1.886549e-10 -9.109335e-11 -3.887535e-11 1.162004e-11
-2.901334e-09 2.491592e-09 1.690315e-10 -2.019664e-10 -9.373546e-11 8.102496e-11
-3.119711e-09 2.493939e-09 1.701654e-10 -1.572640e-10 -9.628054e-11 -9.252599e-12
-3.312018e-09 2.721661e-09 2.581988e-10 -1.258593e-10 -6.220357e-12 8.151923e-12
-3.323560e-09 2.675554e-09 1.832667e-10 -1.584803e-10 -6.665457e-11 -4.163425e-11
-3.034761e-09 2.581291e-09 2.228253e-10 -2.555622e-10 -1.934453e-11 4.186651e-13
-3.044463e-09 2.553733e-09 2.116494e-10 -4.199325e-10 -2.592082e-11 -3.828804e-11
3.901476e-09 -2.107631e-09 -6.582397e-10 -6.930052e-10 -1.325610e-10 -1.406830e-11
2.646246e-09 -1.274562e-09 -6.005805e-10 -1.054987e-09 -1.111111e-10 2.751334e-11
3.459658e-09 -1.490741e-09 -6.036616e-10 -5.876106e-10 -1.669435e-10 2.920211e-10
3.765614e-09 -1.691324e-09 -5.853806e-10 -5.609888e-10 -6.887779e-11 7.070589e-11
2.936843e-09 -1.315568e-09 -4.872529e-10 -1.125128e-09 -2.103611e-10 1.358819e-10
3.290500e-09 -1.569882e-09 -4.069778e-10 5.489818e-10 1.146738e-10 3.907763e-12
2.777149e-09 -1.545293e-09 -4.633656e-10 2.128965e-10 9.088419e-11 -1.376984e-10
3.295527e-09 -1.567859e-09 -4.694130e-10 5.413500e-10 7.897927e-11 4.772571e-13
3.291129e-09 -1.563641e-09 -4.733216e-10 5.553238e-10 7.444739e-11 6.556755e-12
3.298773e-09 -2.060508e-09 -5.221279e-10 5.448610e-10 5.663903e-11 1.281486e-10
4.060102e-09 -2.124600e-09 -6.490825e-10 -7.291039e-10 -1.210231e-10 1.698290e-10
4.214108e-09 -2.138213e-09 -6.829297e-10 -8.190308e-10 -4.416267e-11 1.304731e-10
2.737854e-09 -1.309305e-09 -5.420406e-10 -1.103427e-09 -1.352695e-10 -1.156654e-10
1.743516e-09 -8.090866e-10 -4.363196e-10 -5.999725e-10 -1.217304e-10 -2.309708e-11
1.808409e-09 -4.663416e-10 -4.520722e-10 -1.424509e-09 -1.166630e-10 1.206587e-10
2.495801e-09 -1.056130e-09 -3.881455e-10 -9.637904e-10 -1.793786e-10 -1.520079e-10
3.999492e-09 -1.815460e-09 -6.230169e-10 -1.335210e-09 -2.244715e-10 1.490504e-10
3.041766e-09 -1.179996e-09 -4.365475e-10 -7.030259e-10 -2.580900e-10 5.575340e-11
-9.305263e-09 7.276818e-09 -2.032958e-09 6.693873e-09 3.333123e-09 -2.480751e-09
-1.040528e-08 7.356748e-09 -1.426471e-09 7.510526e-09 5.005095e-09 -3.259556e-09
-9.572732e-09 6.280728e-09 -1.321638e-09 4.952381e-09 3.370201e-09 -1.634186e-09
-9.366058e-09 8.641903e-09 -3.133938e-09 3.654810e-09 3.365653e-09 -2.956659e-09
7.990490e-09 6.685417e-09 -1.587745e-09 -8.561500e-09 -3.410259e-11 2.261530e-09
-1.949330e-09 1.029945e-08 -2.413575e-09 -3.026882e-09 1.183823e-09 1.379033e-10
-1.049392e-08 1.018728e-08 -1.979596e-09 1.037202e-09 5.419406e-09 -4.214536e-09
-1.008303e-09 1.480995e-08 -4.305040e-09 -8.009859e-09 -3.444959e-10 -1.726429e-09
3.387457e-09 7.122386e-09 -1.723567e-09 -5.522230e-09 1.900848e-09 2.539107e-10
-6.188568e-09 1.134842e-08 -7.492872e-10 -1.922250e-09 3.850936e-09 -1.912833e-09
-8.988419e-09 1.048369e-08 -2.124200e-09 -5.128269e-10 1.932678e-09 -2.463326e-09
-1.720800e-09 1.164379e-09 2.041149e-10 1.047143e-09 8.672020e-11 -2.236763e-10
-1.525597e-09 9.118297e-10 1.727167e-10 7.715560e-10 1.929616e-10 -2.654466e-11
-2.072481e-09 1.330407e-09 2.774436e-10 4.539622e-10 1.127073e-10 -1.040390e-10
-2.150020e-09 1.298660e-09 3.220080e-10 5.145445e-10 7.786716e-11 8.467410e-11
-2.662476e-09 1.403255e-09 2.931622e-10 5.372840e-10 1.499527e-10 -1.372147e-11
-1.536907e-09 9.074368e-10 1.765124e-10 7.995553e-10 1.943194e-10 -8.652967e-12
-3.354473e-09 2.574891e-09 2.423666e-10 -5.363083e-10 -5.839373e-11 -2.589033e-10
1.833686e-08 -1.856578e-08 -2.886248e-08 9.930310e-09 1.518113e-08 -3.824593e-09
-3.397275e-09 2.559649e-09 2.687266e-10 -4.623333e-10 -5.889278e-11 -2.706735e-11
-3.737309e-09 2.578734e-09 3.469847e-10 -5.139307e-10 -8.350942e-11 -1.936646e-10
8.015266e-11 1.764721e-08 -2.258921e-08 2.030151e-09 -6.544007e-09 9.971385e-09
-3.553062e-09 2.599031e-09 2.976093e-10 -6.866307e-10 -1.088846e-10 -2.684934e-10
-3.906495e-09 -3.863132e-10 1.395364e-09 -1.534318e-09 2.135798e-10 -1.162500e-10
-3.295892e-09 2.327154e-09 1.389731e-10 -9.404708e-10 -1.397570e-10 -1.965652e-10
-2.707965e-09 2.320619e-09 1.506173e-10 -8.134244e-10 -9.682777e-11 -1.150088e-10
-3.320867e-09 2.626228e-09 2.359506e-10 -4.823466e-10 -9.286949e-11 -1.087888e-10
-3.213501e-09 2.418524e-09 1.980835e-10 -6.165861e-10 -1.206492e-10 -1.587507e-10
-4.464256e-09 1.847615e-09 7.216550e-10 -6.668424e-10 -1.635285e-10 -2.737046e-10
-4.312878e-09 2.203416e-09 6.723773e-10 -7.770265e-10 -1.953277e-10 1.198197e-11
-4.446495e-09 1.668527e-09 7.484344e-10 -3.758585e-10 -1.738263e-10 -2.567759e-10
5.304306e-09 -2.947959e-09 -7.372343e-10 1.349643e-10 3.568038e-11 2.936934e-11
5.406804e-09 -3.094767e-09 -7.506378e-10 5.662371e-11 7.445038e-12 -1.736467e-11
5.380154e-09 -2.961262e-09 -7.762537e-10 1.010768e-11 -3.017145e-12 -3.089873e-11
5.718992e-09 -3.076422e-09 -7.594922e-10 -5.808194e-12 1.368775e-11 2.106337e-11
5.559838e-09 -2.915526e-09 -7.515890e-10 1.119073e-10 2.732783e-11 -3.325118e-12
5.599561e-09 -3.110457e-09 -7.488423e-10 5.147346e-11 2.003765e-12 7.609025e-12
5.590094e-09 -3.030512e-09 -7.827958e-10 4.047186e-11 -1.498888e-11 3.025846e-11
5.692702e-09 -3.108561e-09 -7.475958e-10 2.510763e-11 -2.413529e-11 5.769829e-11
5.668275e-09 -3.013191e-09 -7.593330e-10 2.275366e-10 -1.155787e-11 -6.127543e-11
5.627997e-09 -3.230020e-09 -7.554641e-10 -8.556055e-11 -3.115563e-12 2.768286e-11
-5.187444e-09 -4.724586e-09 3.012923e-09 1.008903e-09 5.841930e-10 1.200013e-10
-5.138459e-09 -6.527845e-09 2.947780e-09 1.075761e-09 2.408084e-10 1.362863e-10
-5.656043e-09 -5.714804e-09 2.686051e-09 2.573949e-09 5.048609e-10 -3.404264e-10
-5.785692e-09 -5.527726e-09 2.940766e-09 2.599863e-09 8.734747e-11 -9.790755e-11
-4.615798e-09 -6.172399e-09 3.220920e-09 1.025597e-09 2.540213e-10 2.567393e-10
5.333978e-09 -2.805684e-09 -7.701259e-10 -6.432248e-10 -1.466166e-10 1.286081e-10
2.073928e-08 1.037541e-08 -5.375498e-08 -5.118853e-09 2.598875e-08 4.762841e-09
4.682927e-09 -2.309853e-09 -7.049752e-10 -1.026462e-09 -9.235679e-11 9.300483e-11
4.784116e-09 -2.473877e-09 -7.670957e-10 -9.627269e-10 -1.836431e-10 1.335254e-10
5.304171e-09 -2.846469e-09 -6.904313e-10 -2.644830e-10 -4.821370e-11 7.305134e-11
5.360498e-09 -2.790501e-09 -7.225249e-10 -6.665227e-10 -6.193449e-11 3.696266e-11
4.826184e-09 -2.719192e-09 -7.103980e-10 -5.559199e-10 -6.771486e-11 1.055267e-12
4.648921e-09 -2.340819e-09 -6.853722e-10 -3.960876e-10 -1.359039e-10 -8.061574e-11
-1.295348e-09 1.277989e-09 -4.879830e-11 -6.743837e-10 -5.203393e-12 -9.025891e-12
-8.506795e-09 4.934065e-09 -1.801306e-09 3.483115e-09 -6.293117e-10 1.147364e-10
-1.395362e-09 1.522160e-09 -4.897016e-11 -2.253939e-10 -4.982015e-11 -1.036589e-10
-1.215504e-09 1.358732e-09 -9.115109e-11 -5.336620e-11 -1.330844e-10 -6.680878e-12
-1.422646e-09 1.324986e-09 -1.733533e-10 -6.584802e-10 -1.486189e-11 -7.259893e-11
-3.390310e-10 9.755698e-10 -2.247790e-10 -9.107497e-10 -1.473759e-10 9.900480e-11
-5.447021e-10 1.027372e-09 -2.165588e-10 -7.416490e-10 -2.058900e-10 1.173985e-10
-7.642184e-09 -5.045434e-10 1.070111e-09 4.993703e-09 2.087929e-09 -7.829724e-10
-3.234551e-09 2.628022e-09 2.205132e-10 -7.578693e-11 -1.955658e-11 2.656353e-11
-6.634598e-09 1.085936e-08 -8.336326e-09 -1.367653e-09 -3.470716e-09 -2.896992e-09
-6.250113e-09 -4.877229e-09 1.967043e-09 4.686979e-09 3.517354e-10 3.540557e-11
-3.038098e-09 2.505653e-09 1.714855e-10 -9.773604e-11 -3.691447e-11 -4.760103e-11
-3.332874e-09 2.656662e-09 2.383937e-10 -1.676188e-10 -2.586709e-11 3.188338e-12
-8.393622e-10 1.510872e-08 -1.062422e-08 -1.162939e-08 -2.481821e-09 2.116248e-09
-3.174756e-09 2.641013e-09 1.853075e-10 -6.910961e-11 -3.275158e-12 -5.134071e-11
-2.971947e-09 2.482675e-09 1.904172e-10 -2.484302e-10 -1.167821e-11 -8.564349e-11
-8.117873e-09 8.767787e-09 -8.984055e-09 -3.686910e-09 -8.122135e-09 -7.229018e-09
-2.086637e-09 1.954414e-09 4.224465e-11 -6.021494e-11 -3.174216e-11 -3.136158e-12
-1.823381e-09 1.942026e-09 1.262612e-10 -9.928581e-10 -1.323427e-10 -2.695197e-11
-2.437162e-09 2.128032e-09 6.600853e-11 -1.544360e-10 -7.665291e-11 -1.171142e-10
-2.028667e-09 1.712436e-09 2.573852e-11 -3.668581e-10 -1.230618e-10 1.975664e-11
2.624332e-09 -1.625685e-08 -3.401768e-11 -2.481249e-09 -1.407907e-09 -3.840377e-10
7.699117e-10 -1.502784e-08 8.599077e-10 -1.808962e-09 -1.479725e-09 -9.927492e-11
1.251374e-09 -1.162877e-08 1.362094e-09 -3.613852e-09 -1.188833e-09 1.320232e-10
2.843851e-09 -1.652524e-08 1.362017e-10 -6.993430e-09 -3.959463e-09 -1.401174e-09
5.440533e-09 -1.854502e-08 1.826804e-09 -2.892738e-09 -2.758828e-09 -3.972730e-10
6.056498e-09 -1.949485e-08 3.329848e-10 -2.487015e-09 -4.117665e-09 7.792171e-10
3.923753e-09 -1.565947e-08 -9.071037e-10 -6.148895e-09 -3.430514e-09 -1.815104e-09
-4.374182e-09 2.140232e-09 6.768082e-10 -3.263720e-10 -1.710598e-10 -3.693262e-10
2.666967e-09 -1.470842e-08 3.222240e-09 2.974753e-09 1.579328e-10 -3.000488e-10
2.624231e-09 -1.678909e-08 3.297111e-09 4.127692e-09 4.693425e-10 1.007994e-11
2.507731e-09 -1.544301e-08 3.734486e-09 1.757602e-09 -3.354279e-10 4.300420e-10
1.487893e-09 -1.514890e-08 3.887598e-09 1.133992e-09 -3.301781e-10 1.704024e-10
-3.554740e-09 1.332389e-08 -1.541387e-08 -2.553472e-09 -3.968759e-09 5.984951e-09
1.339707e-09 -1.442943e-08 3.780202e-09 1.385007e-09 6.811929e-11 3.132783e-11
1.897526e-09 -1.441605e-08 3.791290e-09 2.269062e-09 -2.448308e-11 -5.086065e-11
6.902388e-09 -1.899938e-08 3.193270e-09 -1.153214e-09 2.272043e-10 -2.610335e-10
5.225808e-09 -1.788390e-08 3.225322e-09 -2.935323e-09 6.903310e-10 -1.074628e-10
6.097534e-09 -1.754801e-08 3.217592e-09 -1.958725e-09 4.120707e-10 -1.835854e-10
6.082147e-09 -1.847823e-08 3.305525e-09 -1.251964e-09 6.032666e-10 -8.064871e-11
5.649323e-09 -1.756059e-08 3.243994e-09 -1.984082e-09 -1.057418e-10 -3.021662e-10
-7.772977e-09 6.226127e-09 -1.400548e-09 -3.634180e-09 -5.135424e-09 -2.439426e-09
-2.106586e-09 2.119529e-08 -2.838503e-08 -8.802377e-09 -8.566945e-09 9.310955e-09
-8.513194e-09 6.146070e-09 -2.653681e-09 -5.017264e-09 -5.708995e-09 -4.935290e-09
-6.927862e-09 1.079632e-08 -6.731573e-09 -1.506855e-09 -4.045790e-09 -3.855636e-09
-4.763870e-09 1.119364e-08 -8.067733e-09 3.555626e-11 -4.047647e-09 -3.609184e-09
-4.758863e-09 1.119364e-08 -7.397777e-09 -9.723243e-12 -4.506928e-09 -3.550771e-09
-6.447269e-09 8.352623e-09 -6.241886e-09 -3.015743e-09 -4.513306e-09 -3.239939e-09
-8.313047e-09 7.022575e-09 -5.467171e-09 -6.035822e-09 -6.644700e-09 -4.151554e-09
2.420397e-08 -9.567197e-09 2.001876e-09 -5.288896e-09 -5.895481e-10 2.985596e-09
-3.307872e-09 2.355989e-09 3.182565e-10 -1.126954e-09 -5.043299e-12 -3.689005e-11
2.736054e-08 -1.152373e-08 1.665845e-11 -2.359150e-09 2.978835e-10 1.513403e-09
2.322283e-08 -7.369793e-09 1.475069e-09 -4.714340e-09 -9.002313e-10 6.555572e-10
2.322213e-08 -7.342277e-09 -6.257763e-10 -4.720505e-09 9.585538e-11 1.504048e-10
2.592754e-08 -1.014152e-08 3.162206e-10 -3.174497e-09 -4.404408e-10 2.374945e-09
1.928786e-08 -6.544981e-09 3.265421e-09 -8.827082e-09 -7.027526e-10 3.762534e-09
2.303306e-08 -8.090080e-09 4.255002e-09 -6.829067e-09 -3.456805e-10 6.959517e-10
2.965606e-08 -1.133996e-08 5.429163e-09 -7.605604e-09 -5.860488e-10 5.977151e-09
-1.811543e-09 1.521958e-09 -3.343992e-12 -9.601360e-10 -1.292986e-10 -5.099388e-11
-3.638925e-09 1.729193e-09 6.357155e-10 4.016834e-10 6.582179e-11 -5.829742e-11
-3.797798e-09 1.903706e-09 5.434897e-10 1.008094e-10 9.545920e-12 -8.152695e-11
-3.987499e-09 1.752623e-09 6.817849e-10 9.480905e-11 -2.394174e-11 -7.297585e-11
-4.097032e-09 1.618123e-09 7.033893e-10 2.403513e-10 -7.105816e-11 -6.474421e-11
-4.030662e-09 1.899116e-09 6.538783e-10 1.645839e-11 4.674017e-11 -7.585910e-11
-4.084725e-09 1.650767e-09 7.346557e-10 -6.171952e-12 -5.740697e-11 -9.950063e-11
-7.617204e-10 -1.084534e-08 4.027494e-10 -4.460662e-09 -2.373725e-09 -1.425767e-09
-2.775810e-09 -4.824364e-09 -9.808896e-10 -3.647661e-09 -2.262487e-09 -8.090277e-10
-6.583913e-10 -7.013366e-09 -2.397459e-09 -5.491980e-09 -3.099969e-09 -1.025478e-09
-6.791815e-10 -7.390145e-09 3.745786e-10 -5.397600e-09 -2.795351e-09 -1.194572e-09
-3.996094e-09 4.850902e-10 1.193463e-09 -1.071734e-10 1.107963e-10 -2.862177e-11
-3.912991e-09 3.920011e-10 1.147030e-09 -6.841972e-11 3.489209e-11 -5.424816e-11
-3.871269e-09 4.380447e-10 1.101541e-09 3.334555e-11 2.585235e-11 -1.587552e-10
-3.853313e-09 3.745644e-10 1.153562e-09 5.547229e-11 1.019895e-11 -1.154273e-10
-3.826198e-09 4.362946e-10 1.106744e-09 -1.100869e-10 1.774407e-10 2.426447e-12
-4.148045e-09 9.572940e-10 9.988395e-10 -9.917900e-11 1.015072e-10 3.546385e-11
-3.974009e-09 8.782521e-10 1.170713e-09 -1.433391e-10 1.033524e-10 -1.483336e-10
-7.630163e-11 -7.777963e-09 -1.201432e-09 -3.381942e-09 6.697756e-12 -5.811087e-10
-1.176417e-09 -8.239533e-09 -1.140370e-09 -1.476455e-09 -9.248613e-10 -4.475966e-10
-2.935936e-10 -8.761823e-09 -1.043893e-09 -4.490679e-10 -3.263865e-10 -1.177016e-10
-4.685950e-09 2.182286e-09 7.218883e-10 -3.153989e-10 -2.403078e-11 -2.355364e-10
-2.148965e-10 -6.022640e-09 -1.923352e-09 -3.370179e-09 -1.363231e-09 -2.380043e-10
2.514286e-09 -1.311579e-08 -2.764860e-09 -4.187785e-09 -1.848149e-09 -3.849286e-10
2.464930e-09 -1.207440e-08 -2.012602e-09 -3.166010e-09 -4.904475e-10 -8.751821e-11
-2.933998e-09 -8.286717e-09 3.465161e-09 1.672156e-09 3.879213e-10 2.212543e-10
-5.197009e-09 -3.203558e-09 -1.857878e-10 8.372995e-09 1.807337e-10 5.887778e-11
-3.361604e-09 -7.993791e-09 3.738460e-09 4.953646e-10 9.875589e-11 1.072742e-10
-3.176510e-09 -7.616355e-09 3.478084e-09 9.354180e-10 1.205716e-10 1.145435e-10
-4.200951e-09 2.334566e-09 5.409846e-10 -9.571660e-10 -1.259526e-11 -1.492918e-10
-2.403230e-09 -8.906503e-09 3.505678e-09 8.736984e-10 -6.558431e-11 2.131910e-10
-2.538325e-09 -9.549270e-09 3.700482e-09 1.120382e-09 -1.860221e-10 2.184337e-10
-3.379891e-09 -7.957233e-09 3.604195e-09 4.971725e-10 -2.458811e-11 6.029621e-13
-2.952087e-09 -8.003774e-09 3.437356e-09 8.375323e-10 -3.691569e-11 1.509313e-10
-7.836408e-09 -4.475318e-10 3.843086e-10 5.745040e-09 9.218480e-10 -4.114691e-10
-8.289175e-09 -2.615994e-09 4.600209e-10 1.051272e-08 4.022438e-09 -1.792669e-09
-8.268875e-09 -2.613946e-09 4.188632e-10 1.047011e-08 2.283409e-09 -1.376606e-09
-6.751234e-09 -2.997602e-11 -1.733036e-10 7.951931e-09 1.984140e-09 -3.265086e-10
2.233865e-09 2.300812e-08 -4.017803e-08 -4.621537e-09 -7.068757e-09 2.405783e-09
-8.034918e-09 8.257715e-10 -9.717818e-10 6.372849e-09 4.282644e-09 -1.033390e-09
-8.154639e-09 9.763981e-10 -4.972946e-10 7.199265e-09 1.923405e-09 -9.356231e-10
-8.267065e-09 -5.414424e-11 -4.793570e-10 7.701549e-09 1.638257e-09 -9.098691e-10
-6.995442e-09 1.248865e-09 -4.630318e-10 7.785031e-09 2.134882e-09 -5.950063e-10
-8.726773e-09 2.396970e-09 -1.933415e-09 9.103418e-09 3.509712e-09 -1.036683e-09
-8.535664e-09 7.279516e-09 -3.223546e-09 -1.043460e-09 -1.054685e-09 -3.037808e-10
-7.499310e-09 8.306740e-09 -4.170113e-09 -2.088694e-09 -2.653458e-09 -1.897181e-09
-7.685735e-09 7.143907e-09 -3.246057e-09 -3.023866e-10 -9.900916e-10 -4.556333e-10
-8.050054e-09 7.503466e-09 -3.794359e-09 -2.459803e-09 -2.059573e-09 -9.025213e-10
7.043429e-10 1.552057e-08 -2.235871e-08 5.769565e-10 -8.415405e-09 6.128027e-09
-7.307362e-09 9.623451e-09 -5.355273e-09 -1.880007e-09 -2.079845e-09 -9.664822e-10
-5.494126e-09 9.581619e-09 -6.517757e-09 -7.640329e-10 -2.500378e-09 -1.746152e-09
-8.012499e-09 8.026186e-09 -3.252763e-09 -2.094493e-09 -1.151470e-09 2.512359e-10
1.350536e-08 -2.212134e-08 -7.620155e-09 -3.568502e-10 -3.215777e-09 1.406559e-10
1.363164e-08 -2.051907e-08 -1.491986e-08 -1.068072e-09 -5.018186e-09 -4.320985e-10
1.252690e-08 -2.009564e-08 -7.451008e-09 -3.505322e-09 -3.687779e-09 1.058999e-11
1.267946e-08 -1.780895e-08 -1.008294e-08 -2.932563e-09 -1.220248e-09 2.830063e-10
2.488113e-09 -1.554337e-09 -4.714060e-10 5.713106e-10 1.241665e-10 7.036038e-11
2.896739e-09 -1.412807e-09 -3.307594e-10 7.592043e-10 -1.608169e-11 -5.321804e-11
2.271925e-09 -1.100689e-09 -3.495062e-10 5.138425e-10 1.732231e-10 1.204724e-10
2.358981e-09 -1.135970e-09 -3.921704e-10 1.173512e-09 1.252023e-10 5.666334e-11
1.662268e-09 -9.839640e-10 -3.056009e-10 9.298116e-10 1.012395e-10 -1.679525e-10
-7.475484e-09 -2.615169e-09 1.305695e-09 9.782813e-09 3.321743e-09 -9.616374e-10
-8.838154e-09 2.952265e-09 -3.848772e-10 5.524252e-09 2.790468e-09 -9.831988e-10
-1.020375e-08 4.460623e-09 2.055520e-10 9.519249e-09 3.885018e-09 -1.810331e-09
1.674632e-08 -3.350475e-09 -3.384155e-08 8.476125e-09 1.368893e-08 -3.717181e-09
-1.021699e-08 4.051414e-09 -1.060140e-09 9.256309e-09 2.995710e-09 -2.059499e-09
-3.919316e-09 2.038027e-09 5.819221e-10 1.238345e-10 1.738154e-11 -2.028377e-11
-3.979910e-09 2.033605e-09 6.168688e-10 4.401679e-11 -8.169687e-12 -2.888800e-12
-3.910674e-09 2.047724e-09 5.388787e-10 1.146789e-10 -1.624040e-11 1.121819e-11
-3.906047e-09 2.089120e-09 5.682583e-10 9.533885e-11 1.873923e-11 -6.006307e-12
-3.924871e-09 2.092861e-09 5.794476e-10 1.534994e-11 -6.180056e-12 9.751755e-12
-4.200951e-09 2.364164e-09 6.501653e-10 -5.681606e-10 5.627654e-11 2.448721e-10
-3.926178e-09 2.257422e-09 4.754517e-10 -1.163070e-09 5.970335e-12 3.729461e-11
-3.977130e-09 2.032047e-09 6.112253e-10 4.409895e-11 8.406387e-12 -9.909629e-12
-4.398110e-09 8.302425e-11 1.161991e-09 9.501666e-11 -1.814260e-10 -5.139433e-10
-4.136508e-09 -1.089905e-09 1.435285e-09 5.072311e-10 -4.003737e-10 -5.586591e-10
-4.371348e-09 -5.048957e-10 1.054711e-09 2.484204e-10 -7.859968e-11 -4.412521e-10
-3.960473e-09 -2.522603e-09 1.300246e-09 2.815100e-10 1.516352e-10 -3.028864e-10
-4.441583e-09 -6.146337e-10 1.137288e-09 7.739143e-11 -1.995524e-10 -4.238877e-10
-1.633180e-09 -5.882813e-09 2.238119e-09 -1.528466e-09 1.609957e-10 -6.122812e-10
-1.995282e-09 -4.923601e-09 1.977914e-09 -1.413210e-09 3.499591e-10 -2.676603e-10
-2.487486e-09 -3.622011e-09 1.673624e-09 -1.279815e-09 -3.194808e-10 -4.282068e-10
-2.465109e-09 -4.121629e-09 1.857410e-09 -1.695853e-09 -2.078121e-11 -5.446940e-10
-2.622562e-09 -3.035812e-09 1.866777e-09 -1.157491e-09 1.648388e-10 -4.501239e-10
-3.797093e-09 1.473945e-09 7.915819e-10 1.966509e-10 -5.687839e-12 -4.032574e-11
-3.777509e-09 1.471246e-09 7.408612e-10 2.839622e-10 3.353140e-11 -9.390677e-11
-3.709633e-09 1.343843e-09 7.181882e-10 3.105999e-11 1.194533e-10 -2.030844e-10
-3.653205e-09 1.512355e-09 6.663949e-10 3.017093e-10 4.998335e-11 -1.980314e-10
-7.667904e-09 -9.548806e-11 -1.710715e-10 -3.383748e-09 -2.398927e-09 -1.066163e-09
-8.039844e-09 3.421071e-09 -3.180054e-10 -3.217529e-09 -1.822971e-09 -9.694370e-10
-6.645981e-09 -3.140791e-09 3.669931e-10 -4.010384e-09 -2.665448e-09 -5.701078e-10
-5.979080e-09 -3.148665e-09 1.817835e-10 -4.984755e-09 -3.619367e-09 -1.212664e-09
-6.949123e-09 1.929290e-09 -1.705784e-09 -3.677449e-09 -1.396515e-09 -7.073566e-10
-6.944646e-09 -9.856951e-10 -1.606251e-09 -3.471738e-09 -1.821435e-09 -7.327526e-10
-5.776597e-09 -4.168994e-09 2.078824e-09 4.541562e-09 9.101047e-10 1.181032e-10
-4.376500e-09 -7.222601e-09 2.744769e-09 4.069674e-09 -6.870770e-11 7.386195e-11
-4.241469e-09 -5.420304e-09 2.281507e-09 4.264532e-09 7.648015e-10 1.648170e-11
7.004365e-09 -1.994218e-08 3.127685e-09 -1.054710e-09 1.948220e-10 -1.638858e-10
6.067820e-09 -1.724668e-08 3.050598e-09 -1.917532e-09 -4.595812e-11 -3.479976e-10
6.620324e-09 -1.812372e-08 3.055719e-09 -3.342505e-09 5.864295e-11 1.572065e-10
6.857816e-09 -1.976971e-08 3.603112e-09 -9.425706e-10 -4.395987e-10 6.222090e-11
6.266811e-09 -1.966416e-08 2.810326e-09 -2.270865e-09 7.949843e-10 -1.106448e-10
-1.382206e-08 2.494953e-08 -1.816275e-08 2.598092e-09 6.431528e-09 -1.057422e-08
-8.657372e-09 2.424627e-08 -9.973942e-09 -2.438222e-09 1.489620e-09 -4.567248e-09
-1.194658e-08 2.439794e-08 -1.288777e-08 -1.123125e-09 4.192114e-10 1.375378e-10
-1.549315e-08 2.506475e-08 -1.580609e-08 3.616132e-09 5.432408e-09 -1.120011e-08
-1.060283e-09 1.368091e-09 -5.283374e-11 -4.900880e-10 -1.891198e-11 -7.596368e-12
-5.025531e-09 1.027428e-09 2.571516e-10 1.891764e-10 -4.952252e-10 -2.464038e-10
-4.774449e-09 -6.354721e-10 9.439736e-10 6.280767e-10 -4.384908e-10 -1.102660e-10
-4.493502e-09 7.532908e-10 7.664780e-10 9.783686e-11 -8.432239e-10 -1.913709e-10
-4.195749e-09 -7.270976e-10 1.203784e-09 3.297148e-10 -1.014234e-09 3.141437e-11
-4.912190e-09 9.008518e-10 5.540417e-10 -1.866520e-10 -5.931500e-10 4.247602e-11
-4.939555e-09 1.146851e-09 1.151435e-09 -3.202370e-10 -5.303195e-11 -2.978087e-10
-9.009443e-09 5.075882e-09 -8.445609e-10 -5.763650e-10 -2.515655e-09 -3.178668e-10
-9.209119e-09 5.203932e-09 -3.663949e-10 -6.081904e-10 -2.228046e-09 -2.026982e-10
-9.074551e-09 5.991094e-09 -2.290818e-09 -1.781861e-09 -2.264876e-09 -1.257157e-09
-8.560281e-09 5.241409e-09 -1.642364e-09 -6.459668e-10 -1.862057e-09 -4.770512e-10
-8.582825e-09 5.913527e-09 -1.688339e-09 -6.660427e-10 -2.120597e-09 -4.113119e-10
1.157998e-08 -1.747022e-08 -1.234633e-08 -8.890648e-09 7.069749e-09 1.457645e-09
5.008912e-09 -1.099128e-08 -9.416680e-09 -1.204433e-08 1.930366e-09 6.482507e-10
5.140715e-09 -1.095100e-08 -7.876078e-09 -1.159455e-08 2.782341e-09 1.184161e-09
1.154349e-08 -1.633776e-08 -1.342153e-08 -8.785145e-09 2.021358e-09 6.464665e-10
-1.250307e-09 1.371111e-09 -8.255974e-11 -6.076686e-10 -3.355005e-11 -4.015455e-11
7.210648e-09 -1.734817e-08 -3.324467e-09 -2.048456e-09 -1.560794e-09 -1.453393e-10
1.045126e-08 -2.168326e-08 -3.968004e-09 -2.392604e-09 -3.107449e-09 4.986447e-11
1.032162e-08 -2.142096e-08 -3.323679e-09 -1.388650e-09 -1.207904e-09 -3.982422e-10
1.390242e-08 4.459916e-08 -7.907853e-08 -6.576925e-10 2.676288e-08 5.313859e-09
-5.205493e-09 1.807386e-08 -4.863819e-09 -6.854253e-09 2.316755e-09 7.931971e-09
1.013647e-08 -2.142663e-08 -3.895547e-09 -1.477110e-09 -8.020136e-10 -2.143286e-10
-2.657813e-09 2.424584e-08 -1.052208e-08 -1.632956e-08 4.628826e-09 9.401178e-10
-2.450716e-09 1.586424e-08 -2.674554e-10 -1.721408e-08 -1.230023e-09 2.398206e-09
-8.613810e-09 2.414829e-08 7.704560e-09 -1.837522e-08 -1.093430e-09 -1.289218e-09
-1.062734e-08 3.094042e-08 -6.486617e-09 -2.267377e-08 5.035489e-09 6.217047e-11
-5.564749e-10 1.159969e-09 -2.094263e-10 -1.187639e-09 -7.765078e-11 2.672753e-10
-9.098294e-09 5.829237e-09 -1.667111e-09 -9.674315e-10 -2.112943e-09 -2.729217e-10
1.464540e-09 -1.478278e-08 3.280953e-09 2.456500e-09 4.523738e-10 2.793101e-10
1.729579e-09 -1.316809e-08 3.686239e-09 1.906796e-09 1.278555e-10 6.939682e-11
6.777716e-10 -1.322379e-08 3.757674e-09 1.399306e-09 2.567924e-10 5.031107e-10
8.239864e-10 -1.326496e-08 3.637564e-09 1.798929e-09 3.674815e-10 2.739289e-10
1.656655e-09 -1.485540e-08 3.680771e-09 2.376753e-09 4.010864e-10 -1.262230e-10
6.630654e-09 -1.905961e-08 3.649062e-09 2.597069e-10 3.705558e-11 -1.013869e-10
6.734176e-09 -1.982939e-08 3.815360e-09 5.522698e-11 -6.249355e-11 -1.210173e-10
6.595639e-09 -1.947888e-08 3.714784e-09 1.007519e-10 1.177412e-10 -3.033573e-11
-1.816781e-09 -5.274998e-09 1.167426e-09 1.205509e-09 -3.687362e-10 -2.290268e-11
-3.888042e-09 -2.749079e-09 1.668683e-10 1.534561e-09 -9.237076e-10 -2.664648e-10
-3.725347e-09 -2.484148e-09 4.450162e-10 1.248952e-09 -1.388978e-09 -4.462999e-11
-2.228483e-09 -4.511104e-09 1.749748e-09 1.549528e-09 -4.502603e-10 -1.094873e-10
-3.887381e-09 -5.056845e-09 1.191109e-10 4.044095e-09 -2.876000e-09 1.348528e-09
-3.774847e-09 -3.676570e-09 1.546677e-09 1.904127e-09 -7.826934e-10 1.125412e-10
-1.163291e-09 -9.051734e-09 2.204471e-09 3.274216e-09 -9.920088e-10 1.859314e-10
6.330705e-10 -1.046499e-08 1.697330e-09 1.094292e-09 -2.917477e-10 -1.308198e-11
3.455456e-09 -1.459391e-08 6.020171e-10 2.602769e-09 -2.320580e-09 1.353604e-10
1.927131e-09 -1.447906e-08 1.976672e-09 3.885386e-09 -2.052402e-09 4.803238e-10
-1.206953e-09 -7.319710e-09 1.061604e-09 3.173931e-09 -1.923911e-09 5.231722e-10
-1.231893e-09 -7.358514e-09 5.789278e-10 3.091822e-09 -1.494371e-09 6.347694e-10
-4.715212e-09 2.039549e-09 7.395315e-10 -7.917704e-10 -1.929107e-10 -1.261234e-10
-4.572654e-09 1.921862e-09 7.488552e-10 -5.542844e-10 -1.070410e-10 -2.380269e-10
-4.379696e-09 1.885448e-09 6.303733e-10 -5.986135e-10 -1.626357e-10 -2.128142e-10
-4.232444e-09 1.504572e-09 7.091874e-10 -5.351834e-10 -3.089944e-10 -3.357558e-10
-4.572385e-09 6.766931e-10 7.788445e-10 -1.228448e-10 -7.607463e-10 -1.016571e-10
-4.452632e-09 6.557244e-10 9.893275e-10 -2.402951e-10 -3.901233e-10 -3.035912e-10
-4.964966e-09 1.678938e-09 8.421148e-10 -2.478369e-10 -1.764033e-10 -4.006475e-10
-4.597347e-09 1.687575e-09 9.000347e-10 -6.090128e-10 -2.258093e-10 -1.542504e-10
-2.566670e-09 2.230809e-09 1.650875e-10 -7.621778e-10 -5.808776e-11 -1.142642e-10
-2.570281e-09 2.220381e-09 1.210183e-10 -7.540559e-10 -3.615297e-11 -1.337150e-10
-2.560674e-09 2.199808e-09 1.031926e-10 -7.407029e-10 -1.321236e-10 -1.119532e-10
-2.817105e-09 2.251900e-09 1.261165e-10 -6.837840e-10 -7.153167e-11 -9.441287e-11
-2.882206e-09 2.350476e-09 1.055747e-10 -7.239007e-10 -1.083870e-10 -1.302571e-10
1.269763e-08 6.096918e-09 -4.839139e-09 8.773565e-09 -1.036574e-09 -8.215902e-10
1.161182e-08 1.461932e-09 -4.379042e-09 3.077305e-09 -1.916908e-09 -1.825622e-09
5.295672e-09 3.218862e-09 -4.200185e-09 4.101837e-09 -1.831472e-09 -2.923044e-09
1.428121e-08 -1.380450e-09 -3.553493e-09 8.128760e-09 -1.012609e-10 -1.656413e-09
4.173882e-09 5.573700e-09 -4.351961e-09 5.948084e-09 -8.169269e-10 -1.004153e-09
1.796567e-08 -2.101636e-11 -4.454206e-09 9.211601e-09 2.380395e-10 8.071372e-10
1.463404e-08 -1.076329e-10 -3.415871e-09 6.782664e-09 3.091633e-10 -1.380871e-10
-3.623876e-09 -1.361968e-09 1.398043e-09 -8.513084e-10 -2.534883e-11 -2.072800e-10
-3.644701e-09 -9.635928e-10 1.525343e-09 -5.366503e-10 -2.586852e-10 -1.352973e-10
-3.904546e-09 8.717462e-10 1.012592e-09 2.312723e-10 -2.220430e-14 -1.735365e-10
-3.831013e-09 -1.640492e-10 1.153123e-09 -3.974816e-10 2.560174e-11 -1.013292e-10
-3.901876e-09 3.750777e-10 1.392093e-09 -8.045831e-11 5.970779e-12 -1.509382e-10
-3.642459e-09 -4.817267e-10 1.488898e-09 -1.249835e-10 4.758968e-11 -1.578300e-10
-3.624424e-09 -9.860961e-10 1.603606e-09 -5.622363e-10 5.206646e-11 -1.746303e-10
-3.852509e-09 -4.175966e-10 1.363877e-09 -6.152867e-10 1.841718e-10 -4.307244e-11
-3.786884e-09 -8.403411e-11 1.283479e-09 -3.163161e-10 -9.750845e-11 -4.177370e-11
2.019602e-08 -6.482754e-09 -1.909823e-10 -4.625050e-09 -5.191882e-10 3.050758e-09
2.744887e-08 -1.070936e-08 -7.029626e-10 -1.771617e-09 -9.885953e-11 1.059193e-10
1.968107e-08 -7.186793e-09 -6.112257e-10 -3.874187e-09 5.107974e-10 -5.749492e-10
1.837617e-08 -5.535860e-09 -1.111097e-09 -3.329999e-09 4.063089e-10 -1.476434e-09
2.116949e-08 -7.213264e-09 -1.521739e-09 -4.230590e-09 6.660885e-10 1.572366e-09
5.073357e-09 -2.758265e-09 -6.613253e-10 5.159656e-10 5.092397e-11 3.529799e-11
4.652057e-09 -2.625669e-09 -6.550906e-10 4.195614e-10 3.652534e-11 -3.134293e-11
4.550348e-09 -2.392484e-09 -5.549632e-10 8.646915e-10 6.748196e-11 1.310898e-10
4.048978e-09 -2.357643e-09 -4.896588e-10 7.282587e-10 1.257498e-10 8.536497e-11
-5.257234e-09 -2.616177e-09 6.897087e-10 -1.674906e-09 -9.399197e-10 -4.569643e-10
4.310176e-09 -2.272820e-09 -5.777538e-10 8.819589e-10 4.129425e-11 -6.165740e-11
4.340197e-09 -2.624734e-09 -5.346142e-10 3.709656e-10 4.186254e-11 8.054285e-11
4.286000e-09 -2.659275e-09 -5.638232e-10 7.750486e-10 1.704809e-10 -8.350542e-12
4.818077e-09 -2.554406e-09 -6.603198e-10 4.028617e-10 6.528144e-11 2.602718e-11
5.060940e-09 -2.675703e-09 -7.140750e-10 3.802487e-10 1.666445e-11 1.877095e-10
-3.693043e-09 1.972385e-09 5.267913e-10 1.565095e-10 2.519218e-11 2.420386e-11
-3.848195e-09 2.074708e-09 5.149570e-10 7.135437e-11 3.711147e-11 1.754641e-11
3.562537e-10 6.187806e-10 -2.508487e-10 -6.430234e-11 -1.927347e-11 5.995204e-14
-3.862677e-09 2.030424e-09 5.369838e-10 8.549872e-11 3.588241e-13 2.282174e-12
-3.740812e-09 2.040063e-09 4.986962e-10 -5.974797e-12 5.227655e-12 -1.141469e-10
-3.588247e-09 1.970600e-09 4.807723e-10 2.657419e-11 -1.193112e-11 -4.308659e-11
-3.708807e-09 2.047194e-09 5.396878e-10 8.159137e-11 -2.118133e-11 2.876360e-11
-3.579131e-09 2.000801e-09 4.969909e-10 1.129568e-10 3.986012e-11 1.253408e-10
4.130181e-10 -9.949819e-11 -1.512537e-10 8.570875e-10 1.480787e-10 -2.264260e-10
6.701555e-10 -1.095914e-10 -8.914647e-12 1.104778e-09 1.522688e-10 1.100253e-10
7.604726e-10 -1.170024e-10 -9.862910e-11 1.083947e-09 1.244266e-10 7.886170e-11
-5.081084e-10 4.456728e-10 -6.297185e-12 9.569488e-10 2.245493e-10 -4.134637e-11
-1.913376e-10 3.573986e-10 1.582734e-11 1.147268e-09 1.401579e-10 -2.061610e-10
6.294112e-10 -9.133316e-11 -6.873568e-11 1.141037e-09 1.416831e-10 2.767342e-12
1.511076e-10 1.529834e-10 -2.138389e-11 1.634341e-09 5.137935e-11 -3.959699e-11
-3.613900e-09 2.697491e-09 2.827534e-10 -2.243642e-10 -1.841738e-11 -8.945288e-11
-3.015861e-09 2.600379e-09 1.989680e-10 -2.351448e-10 -6.348277e-11 -6.605205e-11
-3.428281e-09 2.716950e-09 2.513030e-10 -2.465894e-10 -1.099965e-11 -2.731848e-11
-3.643212e-09 2.578244e-09 3.065250e-10 -6.181536e-10 -2.690420e-11 -1.316166e-10
-5.780600e-09 7.282437e-09 -3.469146e-09 -2.035538e-09 -4.157099e-09 -5.929227e-09
-8.223157e-09 6.226109e-09 -4.070935e-09 -3.596693e-09 -4.978323e-09 -3.701940e-09
-7.690682e-09 8.243324e-09 -2.327932e-09 -2.013454e-09 -3.049856e-09 -2.580780e-09
-2.454270e-09 -9.054155e-09 3.631712e-09 2.804530e-10 4.763745e-11 -3.210321e-11
-9.191867e-09 8.821223e-09 -2.854569e-09 -3.366814e-09 -5.120580e-09 -3.823588e-09
-4.940944e-09 1.272772e-08 -5.599596e-09 -8.147662e-11 -5.693306e-09 -6.111037e-09
1.274190e-08 -3.026621e-08 1.531744e-09 1.981692e-09 -6.521617e-09 2.762904e-10
1.241128e-08 -2.834295e-08 -1.095028e-09 5.053540e-10 -6.087194e-09 6.356308e-10
1.392694e-08 -2.680524e-08 -1.654184e-09 3.277959e-09 -9.629891e-09 1.915744e-09
1.425526e-10 6.197476e-10 -2.454965e-10 -1.066128e-10 -8.715123e-11 -1.649176e-10
1.398285e-08 -3.369069e-08 -4.456361e-10 -1.930027e-10 -1.209313e-08 1.002419e-09
4.029371e-09 -1.697288e-08 3.852695e-09 2.136108e-09 -1.594933e-10 2.937073e-10
3.950277e-09 -1.673613e-08 3.633996e-09 2.118779e-09 1.906332e-10 2.479994e-11
5.073624e-09 -1.912851e-08 4.021865e-09 2.163079e-09 4.013426e-10 1.610061e-10
4.502521e-09 -1.786938e-08 3.247334e-09 3.136433e-09 4.398694e-10 2.354602e-10
3.869179e-09 -1.654490e-08 3.655029e-09 2.680956e-09 3.834120e-10 1.693898e-10
-7.453060e-10 -1.168428e-08 3.740067e-09 1.805663e-09 -8.199696e-11 1.533180e-10
-3.136467e-10 -1.190144e-08 3.632657e-09 2.867808e-09 3.738516e-10 3.407988e-10
3.046741e-09 -1.509973e-08 3.888728e-09 8.405956e-10 -1.681530e-10 4.924689e-10
8.343370e-10 -1.331668e-08 3.742284e-09 1.800336e-09 8.621560e-11 1.512730e-10
1.161613e-09 -1.334245e-08 3.711099e-09 9.607981e-10 -2.840532e-10 1.839005e-10
1.188360e-09 -1.463744e-08 3.811394e-09 9.927938e-10 -2.449482e-10 -7.612311e-11
2.028189e-09 -1.490507e-08 3.900785e-09 8.529652e-10 -3.019630e-10 1.985423e-10
2.794391e-08 -5.587899e-09 -5.082104e-09 6.059039e-09 2.032722e-09 2.821236e-09
2.884743e-08 -1.213974e-08 -3.564959e-09 1.419841e-09 -1.872812e-10 2.021412e-09
2.959815e-08 -9.822964e-09 -3.539184e-09 3.041939e-09 5.744472e-11 2.198184e-09
2.785317e-08 -9.786931e-09 -3.411675e-09 3.965495e-09 -7.676089e-10 2.889685e-09
2.822732e-08 -7.562765e-09 -3.759187e-09 2.900298e-09 1.847781e-10 2.754068e-09
2.363668e-08 -5.318351e-09 -2.528133e-09 4.720661e-09 -1.111599e-10 2.401582e-09
2.558114e-08 -5.600229e-09 -5.323907e-09 7.340814e-09 1.109428e-09 -8.756902e-10
3.182306e-08 -8.516127e-09 -9.653758e-10 2.641121e-09 2.311008e-09 5.568500e-09
-4.142921e-09 1.448804e-09 8.268839e-10 2.207994e-10 1.536149e-11 -2.863421e-11
-2.405868e-09 2.234190e-09 7.429413e-11 -2.574820e-10 -7.110423e-12 3.942968e-11
-4.128205e-09 1.499398e-09 8.367094e-10 9.152057e-11 2.984413e-11 -2.055955e-11
-4.125202e-09 1.449664e-09 9.054424e-10 1.609530e-10 1.380096e-11 -8.410539e-11
-4.080646e-09 1.449102e-09 9.110597e-10 3.139402e-10 -1.253220e-11 -1.370759e-10
-4.037366e-09 9.364030e-10 1.077952e-09 1.050955e-10 -1.616640e-11 -1.451548e-10
-4.089188e-09 1.109068e-09 1.127800e-09 -1.740426e-10 -1.115785e-10 -2.894485e-11
2.575026e-08 -8.605447e-09 -3.066648e-09 -7.376861e-10 8.327820e-10 7.957608e-12
2.793362e-08 -9.816188e-09 -3.466615e-09 -1.874920e-09 2.555857e-10 2.662082e-09
2.469542e-08 -9.812106e-09 -1.661884e-09 -1.762292e-09 -1.586281e-11 1.901274e-09
2.584334e-08 -7.654220e-09 -2.719617e-09 -1.043022e-09 2.062194e-10 1.910862e-10
3.041332e-08 -1.006986e-08 -7.971481e-10 5.402908e-10 3.652918e-10 4.059072e-09
2.607628e-08 -7.887385e-09 -3.200703e-09 -1.443614e-09 9.744139e-10 2.885041e-09
3.020656e-08 -9.712555e-09 -3.396665e-09 3.921554e-10 4.462002e-10 3.187667e-09
-3.276350e-09 -7.647237e-09 3.238618e-09 1.416360e-09 2.609366e-10 5.163558e-11
-3.193477e-09 -7.513828e-09 3.347136e-09 8.777534e-10 -2.824550e-11 6.732977e-11
-3.277750e-09 -7.740561e-09 3.319606e-09 1.399445e-09 -9.081699e-11 -6.051689e-11
-2.699724e-09 -9.217905e-09 3.769238e-09 4.271824e-10 -7.606582e-12 -9.900633e-11
-3.279041e-09 -8.650163e-09 3.602321e-09 2.842997e-10 -8.627410e-11 6.173062e-12
-2.302790e-09 -9.545284e-09 3.766997e-09 3.992895e-10 -2.170668e-10 1.125349e-10
5.951962e-09 -3.305219e-09 -7.506881e-10 -5.934436e-10 -3.139877e-12 2.039413e-11
-3.170046e-09 -8.863294e-09 3.530744e-09 5.583063e-10 5.617868e-14 5.975442e-12
-2.275497e-09 -9.746947e-09 3.683348e-09 4.086482e-10 2.944382e-10 9.033441e-11
-3.305033e-09 -7.208381e-09 2.972246e-09 2.915815e-09 2.808040e-10 1.037790e-10
-3.354860e-09 -9.241182e-09 3.463517e-09 2.384821e-09 2.194129e-10 2.911512e-10
-4.421174e-09 -7.535335e-09 3.372338e-09 2.270639e-09 2.597807e-10 2.744405e-10
-4.055899e-09 -6.529251e-09 3.330759e-09 1.537734e-09 1.539791e-10 -6.457907e-11
-3.901876e-09 -7.154104e-09 3.308701e-09 2.346031e-09 -6.949829e-10 7.387634e-11
2.139826e-09 -1.454573e-08 3.677485e-09 5.918324e-10 2.967172e-10 1.078249e-10
-8.028264e-09 1.276037e-09 1.252283e-10 -2.749672e-09 -1.462280e-09 -1.594430e-10
-8.616169e-09 1.971437e-09 7.942185e-10 -1.779905e-09 -2.493348e-09 -3.057292e-10
-8.788386e-09 1.634709e-09 1.334302e-09 -9.428435e-10 -4.986434e-10 -7.935452e-11
-9.092179e-09 1.320430e-09 7.854544e-10 -2.607621e-10 -1.837535e-10 -1.256080e-10
2.188683e-09 -5.883316e-10 3.096563e-10 3.455260e-09 2.188794e-10 1.655818e-10
2.447318e-08 1.139882e-08 -5.778515e-08 -4.073147e-09 3.234319e-08 3.100497e-09
-8.879934e-09 2.392554e-09 3.519007e-10 -6.104508e-10 -2.459455e-11 -7.121725e-11
-9.053252e-09 2.623922e-09 1.880096e-10 -5.551257e-10 -9.399920e-10 -9.476875e-11
-9.260985e-09 2.774614e-09 1.575580e-10 -5.590168e-10 -1.056074e-09 6.606959e-11
4.727806e-09 -2.336069e-09 -6.730364e-10 -1.027388e-09 -6.003878e-11 3.736822e-11
5.355898e-09 -2.780938e-09 -7.032226e-10 -6.684897e-10 -7.705619e-11 3.526945e-11
4.237462e-09 -2.286004e-09 -6.947034e-10 -6.511578e-10 -2.834843e-11 6.671330e-13
5.070863e-09 -2.672998e-09 -7.339511e-10 -6.626215e-10 -1.276489e-10 1.529321e-10
4.599087e-09 -2.348542e-09 -7.081360e-10 -5.041692e-10 -3.175582e-11 2.302603e-11
4.608429e-09 -2.342459e-09 -6.387972e-10 -4.355218e-10 -6.568791e-11 -5.691825e-11
4.101810e-09 -2.081914e-09 -6.687069e-10 -8.179099e-10 -1.592828e-10 4.187514e-10
3.260638e-09 -3.203273e-10 -4.840394e-10 -5.641464e-09 -8.515084e-11 4.173515e-10
4.814769e-09 -7.821934e-10 -3.268275e-10 -6.648051e-09 1.074085e-10 -1.029488e-10
5.696155e-09 -2.188133e-09 -3.145910e-10 -5.036772e-09 2.210032e-11 2.498926e-10
4.708867e-09 -1.587673e-09 -2.391416e-10 -4.412055e-09 -5.201022e-11 -5.279226e-10
2.996765e-09 -3.166498e-10 -3.523177e-10 -5.801469e-09 -2.321321e-10 3.707346e-10
-2.166081e-10 3.318901e-10 -3.271339e-11 7.061041e-10 5.375700e-12 -1.789762e-10
-1.461906e-10 3.067842e-10 -4.141576e-12 1.294225e-09 1.478669e-10 -6.877210e-11
-1.284270e-10 1.607434e-10 -6.303580e-11 1.023607e-09 -7.370460e-11 4.572698e-11
4.378675e-10 -9.746426e-12 -1.285443e-10 8.965397e-10 5.299850e-11 2.696399e-10
-8.387486e-10 5.889005e-10 3.043255e-11 8.447836e-10 3.671286e-11 2.569145e-11
-5.139213e-10 5.031584e-10 -3.511680e-11 9.655745e-10 1.123509e-10 -2.384448e-11
1.975211e-10 1.002203e-10 -1.719025e-11 5.185591e-10 -2.535760e-11 -1.544653e-11
-1.395613e-09 1.025104e-09 5.206910e-10 2.825100e-09 -2.260574e-10 -4.611189e-10
-4.760720e-09 4.316032e-10 8.761933e-10 9.510926e-11 -1.727614e-10 -3.007674e-10
-4.248265e-09 -7.775967e-10 9.853058e-10 -1.983440e-10 -3.994516e-10 -4.536484e-10
-4.383598e-09 -4.341665e-10 1.271081e-09 1.788980e-10 -3.239308e-10 -4.262442e-10
-4.473514e-09 1.481437e-10 9.985004e-10 -1.278382e-10 2.904532e-11 -3.496898e-10
-4.567212e-09 2.992095e-10 1.252896e-09 -2.037979e-10 -5.218936e-11 -3.545828e-10
-3.159966e-09 1.606882e-09 5.273755e-10 5.138654e-10 -3.984191e-11 -1.457412e-11
2.763363e-08 -1.813857e-08 1.117789e-08 3.734118e-09 8.105364e-10 7.041265e-09
2.455548e-08 -8.283527e-09 5.510314e-09 9.518952e-09 1.573580e-09 3.098459e-09
2.864875e-08 -1.435363e-08 7.758344e-09 1.349128e-09 2.452869e-10 -1.139109e-09
3.059267e-08 -1.480700e-08 1.141448e-08 5.098416e-10 1.777909e-09 6.189610e-09
2.837257e-08 -1.811999e-08 1.359855e-08 3.935899e-09 5.628826e-10 3.221728e-09
1.674161e-09 1.331406e-08 -8.308960e-09 5.154522e-09 -3.419544e-09 -3.099594e-09
-6.338263e-09 1.084782e-08 -8.494920e-09 7.053568e-10 -4.112623e-09 -4.361039e-09
1.364575e-09 6.867864e-09 -1.026936e-08 1.668577e-09 -8.490040e-09 -7.629091e-09
-7.466579e-09 3.723677e-08 -4.532622e-08 1.296931e-08 1.601518e-08 -1.953409e-08
-5.117454e-09 7.550745e-09 -4.546493e-09 -1.996730e-09 -6.172839e-09 -4.443384e-09
-4.568917e-09 9.422521e-09 -6.739103e-09 -6.260147e-10 -5.026348e-09 -4.304196e-09
1.136397e-08 -1.610211e-08 -1.721437e-08 1.238322e-08 9.684764e-09 -1.927681e-09
-3.304423e-09 -7.207724e-09 3.169387e-09 2.915019e-09 2.675947e-10 1.148516e-10
-2.007099e-09 -8.437571e-09 3.171481e-09 3.149981e-09 1.662666e-10 5.915340e-11
-3.360377e-09 -9.202741e-09 3.049213e-09 2.401379e-09 4.697160e-10 2.381684e-10
-2.214570e-09 -1.029040e-08 2.901067e-09 3.679663e-09 4.435565e-10 2.018172e-10
-2.982452e-09 -8.498468e-09 2.949490e-09 3.917888e-09 4.553695e-10 -9.653258e-13
6.852873e-10 3.828768e-09 -1.983102e-08 1.525998e-08 3.028665e-09 -1.815951e-09
-8.591117e-09 5.239613e-10 1.468830e-10 -2.979756e-09 -2.798684e-09 -1.001301e-09
3.772156e-09 -1.447950e-08 -5.707196e-09 1.226879e-08 1.496231e-09 -4.330774e-10
-8.834407e-09 4.224306e-09 -1.934678e-09 -2.252772e-09 -1.832826e-09 -2.850041e-10
-8.400493e-09 4.034602e-09 -8.036638e-10 -1.907150e-09 -1.349969e-09 -1.983071e-10
-8.917183e-09 3.374565e-09 -6.287527e-10 -2.149466e-09 -1.998773e-09 -5.799421e-10
-8.339319e-09 2.389765e-09 -1.329274e-10 -2.111998e-09 -1.546820e-09 -6.253448e-10
-9.090783e-09 3.780187e-09 -8.072121e-11 -2.163612e-09 -1.525921e-09 -5.728376e-10
-1.005173e-08 4.692510e-09 -2.193676e-09 -8.158609e-09 -6.380922e-09 -4.616521e-09
-8.847243e-09 7.120773e-09 -1.636566e-09 -6.348466e-09 -5.241729e-09 -3.638326e-09
-7.649703e-09 8.263402e-09 -3.058752e-09 -3.172108e-09 -5.483363e-09 -3.470840e-09
-7.611184e-09 5.768415e-09 -1.005087e-09 -2.546595e-09 -3.564617e-09 -1.697476e-09
1.780738e-08 5.453650e-09 -5.136637e-08 9.133216e-09 1.130845e-08 -2.670244e-09
-8.597199e-09 5.837833e-09 -2.359506e-09 -3.285912e-09 -3.223582e-09 -1.520001e-09
-5.321384e-09 1.026053e-08 -6.987755e-09 1.457325e-10 -5.063869e-09 -4.069719e-09
-7.818604e-09 7.908068e-09 -3.474645e-09 -2.547603e-09 -3.536501e-09 -2.169327e-09
-7.999587e-09 7.039711e-09 -2.737693e-09 -2.672861e-09 -4.188505e-09 -1.535333e-09
-1.655353e-09 1.837529e-09 -3.206857e-11 -1.142113e-09 2.295053e-12 4.460460e-11
-1.276115e-09 1.617511e-09 2.516387e-11 -1.557835e-09 -2.089995e-13 1.412515e-11
-1.591950e-10 1.088276e-09 -2.419990e-10 -1.580716e-09 -9.954629e-11 5.444632e-11
-6.035581e-10 1.086379e-09 -1.819069e-10 -1.621617e-09 -1.322129e-10 -1.279550e-10
2.647274e-08 -9.322931e-09 -2.402305e-09 -2.027750e-09 1.179188e-09 3.692813e-09
2.828781e-08 -1.024222e-08 -1.253290e-09 -1.686464e-09 5.136977e-10 1.529639e-09
2.891864e-08 -1.276578e-08 -9.486056e-11 1.910448e-09 1.424351e-09 3.459111e-09
3.968911e-08 -9.534327e-09 -3.357740e-09 -1.371410e-09 1.577356e-09 1.002515e-08
3.914395e-08 -9.998540e-09 -9.200032e-10 -1.884384e-09 1.285896e-09 9.464584e-09
2.641086e-09 -1.308493e-09 -3.988974e-10 1.207380e-09 2.540057e-10 5.802969e-11
3.011110e-08 -1.184515e-08 1.364600e-09 2.129785e-09 1.051844e-09 5.363130e-09
3.185758e-08 -1.129987e-08 -3.503828e-10 3.140197e-09 1.967183e-09 5.344625e-09
-6.002474e-10 6.796619e-10 5.285727e-11 1.265670e-09 8.423111e-11 -3.382045e-10
-6.541487e-10 7.316021e-10 8.125323e-11 9.507287e-10 8.279713e-11 8.222334e-11
-9.911787e-10 6.466256e-10 1.776681e-10 5.679225e-10 7.530990e-11 -3.184850e-10
-8.181429e-10 6.146852e-10 5.493916e-11 7.494600e-10 1.428084e-10 -1.940099e-10
-1.203618e-09 7.885008e-10 1.571752e-10 9.191130e-10 1.408746e-10 -1.643882e-10
-2.877236e-09 1.498977e-09 3.683809e-10 3.066858e-10 3.970524e-11 2.845946e-12
-2.490181e-09 1.403679e-09 2.309009e-10 4.162881e-10 7.406831e-11 5.726408e-11
-2.281945e-09 1.336458e-09 2.896192e-10 7.215792e-10 2.510448e-11 -2.842460e-11
-1.877334e-09 1.263111e-09 2.897562e-10 6.265133e-10 2.405165e-11 -3.873302e-11
-2.474920e-09 1.330854e-09 3.431224e-10 5.696728e-10 5.869827e-11 -4.994316e-11
-1.889610e-09 9.977379e-10 2.221721e-10 6.940848e-10 1.582969e-10 -7.164325e-11
-2.405064e-09 1.315948e-09 3.222471e-10 8.673475e-10 6.634493e-11 1.069698e-10
-2.142269e-09 1.127548e-09 3.233052e-10 7.464123e-10 1.148688e-10 5.589507e-11
1.032025e-08 -1.600124e-08 -1.595449e-08 1.017943e-08 2.696057e-09 -3.096897e-11
-4.240416e-09 2.537660e-09 5.090106e-10 -7.087264e-10 -6.062861e-11 -1.727072e-10
-4.209401e-09 2.392641e-09 5.033178e-10 -8.532955e-10 -1.063202e-10 -2.256046e-10
-4.566803e-09 2.436098e-09 5.251666e-10 -2.202668e-10 -2.571232e-11 -1.572518e-10
-4.016936e-09 2.537856e-09 4.569687e-10 -2.579470e-10 2.330980e-11 -3.318723e-11
-4.092328e-09 2.485814e-09 5.630691e-10 -3.241678e-10 2.326894e-11 -2.569945e-12
1.930952e-08 -9.931869e-09 -2.175825e-08 3.469045e-09 8.784395e-09 -1.107802e-09
-4.358682e-09 2.550198e-09 4.632961e-10 -7.396679e-10 -3.162537e-11 -2.441203e-11
5.496623e-09 -3.099156e-09 -7.322558e-10 4.232714e-11 1.038875e-11 3.389722e-11
5.479766e-09 -3.072628e-09 -7.094423e-10 -2.786816e-10 -3.963696e-11 3.116940e-11
5.334341e-09 -3.002497e-09 -7.085037e-10 -1.900608e-10 -6.160629e-11 5.152701e-11
5.782388e-09 -3.195985e-09 -7.393770e-10 -9.438034e-11 -8.483502e-12 1.985478e-10
5.419285e-09 -3.083018e-09 -7.173826e-10 3.208408e-11 6.245035e-11 -5.320522e-12
5.268515e-09 -3.037494e-09 -7.351872e-10 -1.612476e-10 -1.835729e-11 3.936029e-11
8.416519e-09 -2.362065e-08 -3.445793e-09 -5.577100e-09 -8.340999e-09 -9.702590e-10
7.316310e-09 -2.523350e-08 2.631906e-09 -7.692611e-09 -8.213729e-09 -7.496964e-10
7.817175e-09 -2.133205e-08 -9.253032e-11 -5.482628e-09 -5.020359e-09 -1.038663e-09
1.777704e-08 -9.130656e-09 -3.222643e-08 7.902513e-09 8.813023e-09 -1.477450e-09
1.111205e-08 -2.743615e-08 9.790651e-10 -3.206272e-09 -7.163495e-09 -8.052057e-10
1.096887e-08 -2.892610e-08 1.003401e-09 -3.783997e-09 -6.350482e-09 -6.844583e-10
7.903370e-09 -2.452547e-08 2.640246e-09 -2.875388e-09 -3.359880e-09 1.497827e-10
1.076369e-08 -2.740528e-08 1.050849e-09 -4.934607e-09 -5.405838e-09 -6.374817e-10
1.766973e-08 -5.158803e-09 -2.716251e-09 -2.937796e-09 8.831297e-10 1.129090e-09
1.200838e-08 -4.373130e-11 -1.846064e-09 -4.838837e-09 -1.153450e-11 1.995433e-09
1.777767e-08 -5.140600e-09 -4.252759e-09 -2.989227e-09 8.403081e-10 1.002699e-09
9.838187e-09 1.993576e-09 -3.393718e-09 -4.122645e-09 7.765869e-10 3.584635e-10
1.788923e-08 -4.963125e-10 -2.490676e-09 -4.306148e-09 5.730310e-10 4.596735e-10
1.576039e-08 2.451533e-09 -2.023074e-09 -8.378513e-09 1.483932e-09 1.078363e-09
1.008234e-08 1.737263e-09 -3.546995e-09 -3.639495e-09 1.201340e-09 3.552315e-10
1.767105e-08 -4.903190e-10 -3.339828e-09 -4.257876e-09 5.624132e-10 1.099993e-09
-7.822568e-09 1.121689e-08 -2.431578e-09 7.669445e-10 1.470779e-09 -7.921019e-10
-1.015077e-08 7.999837e-09 -1.819107e-09 6.477911e-09 3.729087e-09 -2.651257e-09
-1.000133e-08 8.724281e-09 -4.211785e-09 4.046766e-09 2.558784e-09 -2.057178e-09
-9.505023e-09 9.731149e-09 -4.226312e-09 4.800547e-09 2.704489e-09 -1.997309e-09
-8.021851e-09 1.174608e-08 -4.237472e-09 2.708087e-09 2.917344e-09 -2.370700e-09
-1.042860e-08 7.428091e-09 -3.652566e-09 6.789062e-09 4.288088e-09 -2.312083e-09
-1.494494e-09 1.071810e-08 -4.048401e-09 -4.092501e-09 1.068248e-09 -9.091385e-10
-7.742708e-09 1.268432e-08 -4.599010e-09 -1.343725e-09 1.205044e-09 -2.895429e-09
-1.544830e-09 9.517251e-09 -2.939144e-09 -4.338468e-09 1.001836e-09 -9.156936e-10
-6.948525e-09 5.534861e-09 -3.499920e-10 1.827780e-09 2.157326e-09 -5.754386e-10
-4.276726e-09 8.402260e-09 -3.762871e-09 -8.564231e-10 2.362628e-09 -2.216265e-09
-7.548335e-09 1.045570e-08 -4.100940e-09 2.326602e-09 4.462945e-09 -4.570958e-09
-5.359202e-09 7.086751e-09 -1.617967e-09 1.180389e-09 2.693139e-09 -2.302216e-09
-8.435899e-09 1.155045e-08 -3.948887e-09 2.678424e-10 1.367147e-09 -2.088769e-09
-2.923605e-09 -3.992334e-09 1.234823e-09 3.906730e-10 -4.662233e-10 -8.968626e-11
-1.857290e-09 -5.904093e-09 1.073132e-09 1.217025e-09 -2.066010e-10 2.217732e-10
-2.105968e-09 -5.085917e-09 1.386876e-09 9.822834e-10 -7.588490e-10 -1.311896e-10
-2.653698e-09 -4.417150e-09 9.327508e-10 2.292233e-10 -3.970595e-10 -1.409435e-10
-1.881080e-09 -5.274366e-09 8.185685e-10 1.208920e-09 -3.841438e-10 1.387419e-10
4.558416e-09 -1.779548e-08 3.703838e-09 3.236089e-09 2.561966e-10 -1.450834e-11
1.169515e-09 -1.433626e-08 3.722928e-09 2.699656e-09 -8.111139e-11 1.021849e-10
3.939073e-09 -1.670722e-08 3.875916e-09 2.620476e-09 4.030369e-10 3.203520e-10
2.982368e-09 -1.653162e-08 3.620223e-09 1.820518e-09 9.153767e-11 -1.251005e-10
1.741387e-09 -1.451613e-08 3.570879e-09 3.418262e-09 2.769586e-11 9.490153e-11
3.052071e-09 -1.617502e-08 3.672474e-09 3.550860e-09 5.510960e-11 2.828922e-10
4.651200e-09 -1.765133e-08 3.863297e-09 1.280933e-09 3.456169e-11 2.030994e-10
-3.510637e-09 1.886046e-09 5.028751e-10 1.809954e-10 6.769468e-11 1.809575e-11
-3.507640e-09 1.865708e-09 4.937277e-10 1.790061e-10 5.399414e-11 1.624012e-11
-3.543168e-09 1.908488e-09 5.251990e-10 2.008758e-10 7.230216e-11 -8.588741e-11
-3.901784e-09 1.906391e-09 5.790852e-10 2.160798e-10 4.936568e-11 -8.945289e-11
-8.165729e-09 -1.747935e-12 1.096028e-09 -3.583254e-10 -5.221215e-10 -1.332482e-10
-3.649005e-09 1.908571e-09 5.780978e-10 1.925551e-10 4.345591e-11 -2.177603e-11
-3.335903e-09 1.725034e-09 5.225775e-10 2.273508e-10 1.091727e-11 -3.076860e-11
2.049568e-08 -1.473730e-08 -2.958185e-08 -7.641849e-09 1.519047e-08 3.093885e-09
-3.553139e-09 1.750950e-09 5.320600e-10 3.584737e-10 2.823342e-11 1.397538e-11
-3.429331e-09 1.795506e-09 5.501219e-10 2.820446e-10 1.277398e-10 -1.042995e-10
-3.418876e-09 1.758412e-09 4.989942e-10 2.904672e-10 8.417944e-11 -9.496592e-11
5.679479e-09 -3.035228e-09 -7.340351e-10 5.405770e-10 1.955945e-11 -9.203083e-12
5.162661e-09 -2.976408e-09 -6.660170e-10 6.916959e-10 8.298942e-11 1.351002e-10
5.227090e-09 -3.003685e-09 -6.509180e-10 6.204181e-10 5.143661e-11 -6.108989e-11
1.017054e-08 -4.985384e-09 6.052742e-09 -6.761661e-09 3.591933e-10 -2.162683e-09
5.862825e-09 -3.117721e-09 -6.803829e-10 3.948759e-10 4.610311e-11 -1.476952e-11
5.451522e-09 -3.180682e-09 -6.756702e-10 6.644869e-10 9.377029e-11 -4.475002e-11
7.334481e-09 -1.988338e-08 2.734449e-09 -8.493146e-10 5.295766e-10 -8.090817e-11
9.020896e-09 -6.343067e-09 4.488131e-09 -2.104576e-09 3.137624e-11 -9.548202e-10
6.882155e-09 -2.021932e-08 3.632460e-09 1.437563e-10 2.549672e-11 -2.567790e-11
7.608874e-09 -2.066038e-08 2.752027e-09 7.732470e-10 4.610425e-10 4.801404e-11
6.625252e-09 -1.981693e-08 3.639443e-09 3.197791e-11 -1.246321e-10 -1.267642e-10
7.097119e-09 -2.017029e-08 3.521408e-09 1.948592e-10 1.400120e-10 -5.761036e-11
7.039916e-09 -2.004730e-08 3.544951e-09 -5.681255e-11 5.785239e-11 2.098610e-11
7.608874e-09 -2.034879e-08 3.430888e-09 5.808918e-10 -2.470579e-11 2.514020e-10
5.137810e-09 -2.949246e-09 -6.939005e-10 1.195802e-10 2.997999e-11 -7.338352e-11
5.329939e-09 -2.976589e-09 -7.350924e-10 2.636367e-10 -2.877462e-12 1.397384e-10
5.197903e-09 -3.010182e-09 -7.003638e-10 3.453925e-10 1.238911e-10 -1.346973e-10
5.269625e-09 -2.947348e-09 -7.095355e-10 8.762610e-11 1.722157e-11 6.042389e-11
5.356934e-09 -2.915122e-09 -6.996033e-10 2.290460e-10 3.623247e-11 8.145240e-11
5.414268e-09 -3.026776e-09 -7.138945e-10 4.748115e-12 1.323130e-11 4.551815e-11
-7.754059e-09 6.933108e-09 -1.921132e-09 2.163898e-09 2.467795e-09 -1.129846e-09
-9.535451e-09 4.565698e-09 -1.467082e-11 8.969868e-09 4.298187e-09 -1.954065e-09
-5.721223e-09 8.783235e-09 -2.035738e-09 9.095272e-11 1.842073e-09 -8.896284e-10
-7.494584e-09 7.615344e-09 -5.569114e-10 2.868187e-09 3.190233e-09 -1.573681e-09
-8.254073e-09 7.287023e-09 -2.129390e-09 3.795802e-09 3.483297e-09 -1.899653e-09
-8.893197e-09 6.625584e-09 -8.193805e-10 6.123886e-09 4.405654e-09 -2.263323e-09
-9.311337e-09 1.937445e-09 -4.828871e-10 9.376177e-09 5.410705e-09 -2.098195e-09
-3.163533e-09 2.496533e-09 1.911988e-10 -1.635101e-10 -6.983525e-12 -3.287437e-11
-4.929658e-09 -5.428122e-09 3.122544e-09 8.350574e-10 4.193668e-10 -6.941559e-12
-3.371110e-09 2.607006e-09 1.695475e-10 -2.691527e-10 -7.806378e-11 -1.717309e-10
-3.310602e-09 2.628941e-09 2.849332e-10 -2.065303e-10 -2.521239e-11 -5.846090e-11
8.491136e-09 -3.793954e-09 5.549849e-10 -4.320841e-09 1.629532e-10 1.756999e-10
1.093525e-09 1.073985e-11 -3.658152e-10 -7.605360e-10 -4.929300e-11 8.047496e-11
1.293923e-09 -1.227862e-10 -4.179448e-10 -1.113923e-09 -1.683080e-10 -1.180096e-10
9.622259e-09 -3.793955e-09 1.530934e-09 -4.364582e-09 1.978635e-10 -8.870924e-10
4.557990e-10 3.446066e-11 -3.341412e-10 -1.439916e-09 -2.935978e-10 -1.401923e-11
-5.806253e-10 1.111066e-09 -1.251081e-10 -1.255946e-09 -7.859680e-11 2.370093e-11
4.536354e-10 6.062661e-11 -2.993485e-10 -5.213978e-10 -1.160466e-10 -3.745604e-11
2.681517e-10 8.069481e-10 -2.310654e-10 -1.347254e-09 -2.515142e-10 -1.380818e-11
-5.444374e-10 7.628751e-10 -1.326971e-10 -4.341665e-10 -8.223433e-11 7.110645e-12
1.190991e-08 -2.502329e-08 -1.170083e-09 6.717870e-10 -1.837217e-09 2.224008e-10
9.946332e-09 -2.469703e-08 -4.427081e-10 1.249014e-09 -1.803173e-09 5.016490e-10
1.055519e-08 -2.675568e-08 2.504274e-09 1.159584e-09 -1.514208e-09 2.916757e-10
1.114692e-08 -2.728640e-08 1.356825e-09 3.029863e-09 -6.313736e-09 2.048865e-09
1.033716e-08 -2.478575e-08 -4.139844e-11 2.064256e-09 -3.572325e-09 -1.160495e-11
1.024961e-08 -2.784293e-08 9.945516e-10 3.836319e-09 -5.853891e-09 1.313249e-09
-8.500144e-09 3.028395e-09 6.203151e-10 5.215763e-09 3.036539e-09 -9.067094e-10
-8.767668e-09 3.587906e-09 -3.238863e-10 3.565913e-09 8.079957e-10 -1.228402e-10
-7.373691e-09 -3.514728e-09 1.407855e-09 4.238984e-09 1.741873e-09 -2.408442e-10
-7.487777e-09 8.391670e-10 1.390850e-09 4.210834e-09 1.406345e-09 -2.990424e-10
-6.956471e-09 -1.528489e-09 1.967187e-09 4.681839e-09 1.636711e-09 -3.813726e-10
-8.108975e-09 2.299815e-09 1.225325e-09 3.275868e-09 1.753393e-09 -6.254458e-10
-8.228188e-09 1.302702e-09 1.422128e-09 4.068883e-09 1.365564e-09 -7.386820e-10
-6.335720e-09 -3.488284e-09 1.863222e-09 4.846345e-09 1.396636e-09 2.205334e-10
-7.315789e-09 -1.427643e-09 2.032437e-09 5.046566e-09 2.010657e-09 -4.399417e-10
-4.013161e-09 -3.733872e-09 -2.044311e-10 -3.808907e-09 -2.011443e-09 -7.148257e-10
-7.279697e-09 7.343361e-10 1.433440e-10 -2.364781e-09 -1.263124e-09 -6.064774e-10
-6.652933e-09 -3.683032e-10 -5.581704e-10 -3.044101e-09 -1.007149e-09 -1.579593e-10
1.982261e-09 -8.872820e-10 -4.871360e-10 -1.454427e-09 -2.497682e-10 3.920697e-11
3.657769e-09 -1.504321e-09 -5.487008e-10 -6.295211e-10 -1.818097e-10 9.340595e-11
3.684532e-09 -1.670957e-09 -6.366482e-10 -5.580025e-10 -3.690998e-11 -1.554323e-11
-9.241782e-09 3.902954e-09 -8.504308e-12 -3.626002e-10 -1.403202e-09 6.959522e-11
2.656421e-09 -9.104572e-10 -5.389582e-10 -6.042808e-10 -5.437635e-11 1.409478e-11
1.958480e-09 -4.645315e-10 -4.290976e-10 -1.452115e-09 -9.175713e-11 3.514056e-11
-4.771292e-09 -6.040356e-09 2.560377e-09 3.641227e-09 9.507241e-10 8.067141e-11
6.622320e-09 -1.808602e-09 1.673186e-09 -7.305696e-09 3.918070e-10 -1.474939e-09
-1.747953e-08 3.347900e-08 -9.044391e-09 -9.868408e-09 -6.575801e-09 3.407079e-09
-2.040221e-09 3.488640e-08 -3.841628e-08 -8.056519e-09 -4.425549e-10 2.504876e-09
-8.873821e-09 2.449116e-08 -6.315516e-09 -1.359762e-08 -7.374599e-09 -2.256065e-09
4.710971e-10 3.039414e-08 -4.897796e-08 3.370068e-10 -1.450076e-08 5.386606e-09
7.095371e-09 3.326544e-08 -3.865878e-08 -6.057480e-09 2.285753e-10 2.317813e-09
8.548808e-09 -2.152604e-08 -7.113705e-10 -1.909316e-09 1.186116e-09 -9.193824e-11
1.070441e-08 -2.209212e-08 -2.384690e-09 -1.018478e-09 -1.987894e-10 -2.023288e-10
8.900762e-09 -1.972158e-08 -1.749991e-09 -4.571967e-09 1.982350e-10 -1.255600e-10
8.896165e-09 -1.951306e-08 -6.829719e-10 -4.312258e-09 9.159877e-10 8.982023e-11
-2.308655e-09 1.291199e-09 3.461738e-10 6.307865e-10 3.195444e-11 5.481304e-11
-2.979002e-09 1.610843e-09 3.466489e-10 5.790217e-10 -1.919953e-11 5.136958e-11
-2.404436e-09 1.327999e-09 2.841736e-10 6.882435e-10 5.126465e-11 4.878431e-11
-3.149695e-09 1.607498e-09 4.791008e-10 5.044007e-10 -5.012435e-12 -2.753697e-11
-3.114957e-09 1.602889e-09 4.404495e-10 4.125225e-10 -1.890044e-12 -2.127183e-10
-6.590811e-09 7.268381e-09 -5.649130e-09 -9.204276e-09 1.012045e-09 1.143974e-09
-9.718837e-09 6.427124e-09 -1.719352e-09 -4.607275e-09 9.264525e-10 1.749561e-09
-8.055573e-09 5.799289e-09 -1.336587e-09 -4.496765e-09 7.358547e-10 9.336704e-10
-7.844475e-09 7.768269e-09 -1.530303e-09 -3.083514e-09 1.942382e-10 2.024586e-11
-7.916717e-09 4.880081e-09 -4.432632e-10 -4.279463e-09 -1.553090e-10 -3.114385e-11
-9.263095e-09 3.288701e-09 -6.157501e-10 -6.605081e-10 -2.185070e-10 6.996537e-11
-3.615546e-09 2.064687e-09 5.082912e-10 8.855983e-11 4.723721e-11 -3.040213e-11
-3.530546e-09 1.861208e-09 4.581504e-10 2.481744e-10 6.587997e-11 -7.195045e-11
-3.770239e-09 1.736987e-09 6.575769e-10 4.101386e-10 1.111337e-10 -6.625422e-11
-3.556988e-09 1.860012e-09 5.558034e-10 2.303897e-10 9.076653e-11 -8.463008e-11
-4.359526e-09 7.101261e-09 -1.839210e-09 9.891461e-10 2.153478e-09 -7.448990e-10
-3.086771e-09 6.927013e-09 -2.637514e-09 -9.201221e-10 1.015249e-09 -4.300589e-10
-5.437984e-09 7.524014e-09 -3.156875e-09 5.846379e-10 1.729312e-09 -1.535137e-09
2.823442e-08 -1.829072e-08 3.808218e-08 3.471759e-09 1.754802e-09 1.064497e-08
-1.338288e-09 2.961839e-09 -8.025203e-10 -5.249639e-09 -9.835055e-11 1.946028e-10
-2.392651e-09 2.842239e-09 -8.192718e-10 -4.848752e-09 -5.316636e-11 5.273615e-11
-1.270351e-09 2.204669e-09 -5.440017e-10 -5.023405e-09 2.674350e-11 -5.100074e-10
-5.141635e-09 5.316836e-09 -4.903252e-09 -7.600152e-10 -1.813057e-09 1.587938e-09
-5.438226e-09 6.160751e-09 -5.118833e-09 -9.548211e-10 -1.668222e-09 1.351609e-09
-1.604576e-09 1.781046e-09 -3.600342e-11 -3.175415e-10 -5.247402e-11 -2.913358e-11
-5.389951e-09 7.238578e-09 -6.399048e-09 -1.226453e-09 -9.418779e-10 2.054010e-09
-5.483426e-09 4.449228e-09 -4.665517e-09 1.888690e-10 -1.899233e-09 2.096210e-09
2.869737e-08 -9.061901e-09 -3.836163e-09 1.228418e-09 5.616690e-10 2.245837e-09
1.042561e-08 -4.693848e-09 1.404740e-09 -8.910549e-10 1.950068e-11 -5.920520e-10
2.378857e-08 -4.367426e-09 -5.599295e-09 3.992738e-09 1.890350e-10 -2.202244e-10
2.592876e-08 -7.088398e-09 -4.296612e-09 6.523688e-10 5.117741e-10 -3.448395e-10
-3.286255e-09 -1.609100e-09 1.621554e-09 1.216516e-10 -1.566258e-11 -1.830749e-10
2.584326e-08 -7.002914e-09 -4.610194e-09 -7.929773e-10 4.248963e-10 6.858283e-10
-4.315165e-08 6.833439e-09 1.156526e-07 3.739529e-08 3.902862e-08 3.227711e-08
4.787271e-09 -2.341262e-09 -6.542122e-10 -3.780809e-10 -8.736909e-11 1.040634e-10
2.964574e-09 -1.495602e-09 -5.839720e-10 -1.021492e-09 -4.694578e-11 -2.534961e-11
4.508962e-09 -2.279120e-09 -7.059531e-10 -3.488092e-10 -1.254654e-10 1.124836e-10
4.676615e-09 -2.341210e-09 -7.087679e-10 -5.287277e-10 -5.694129e-11 8.706858e-11
3.147580e-08 -6.262096e-09 -2.511365e-09 6.951937e-09 1.163020e-09 6.243337e-09
3.329903e-08 -6.645186e-09 -3.398404e-09 7.401529e-09 2.259112e-09 7.747451e-09
3.926335e-08 -4.173870e-09 -5.516519e-09 1.800769e-09 -2.572976e-11 7.590229e-09
-9.723002e-09 1.169834e-08 -3.403930e-09 -1.701840e-09 1.516891e-10 1.718224e-09
-9.722456e-09 9.472467e-09 -2.594749e-09 -3.243039e-09 8.689464e-10 1.609420e-09
-7.732493e-09 7.164211e-09 1.305090e-09 1.248632e-09 -1.453370e-09 -1.270402e-09
-9.738903e-09 8.580684e-09 -1.500617e-09 -3.185627e-09 -2.181482e-10 3.828532e-10
5.727311e-09 -1.709567e-08 3.136295e-09 -7.582626e-10 2.739434e-10 -3.089224e-10
6.080600e-09 -1.719518e-08 3.424563e-09 -1.864257e-09 9.297486e-11 -2.103164e-10
5.853221e-09 -1.884062e-08 3.110673e-09 -8.920204e-10 1.594485e-10 -2.838629e-10
6.775144e-09 -1.900788e-08 3.482304e-09 -1.202410e-09 2.357176e-10 4.355407e-12
4.821194e-09 -1.720027e-08 3.411097e-09 -1.776368e-09 1.023613e-10 -4.040486e-10
6.538096e-09 -1.897319e-08 2.399853e-09 -2.717464e-09 7.761179e-10 -1.396644e-11
5.644784e-09 -1.879817e-08 2.973184e-09 -2.557711e-09 4.488686e-10 -1.125077e-10
-1.229196e-09 1.614049e-09 2.297962e-11 -2.372490e-09 -7.061440e-11 1.183920e-10
-2.206729e-09 1.805271e-09 7.699708e-11 -1.834159e-09 -1.682148e-10 -1.249351e-11
-2.133081e-09 1.741339e-09 3.010014e-11 -1.729117e-09 -2.903389e-11 9.947154e-12
-1.827624e-09 1.739529e-09 -3.553158e-12 -1.764759e-09 -1.026734e-12 -7.308176e-11
1.439521e-08 5.672731e-09 -5.377866e-09 8.918569e-09 -2.000792e-09 -2.605358e-09
1.571181e-08 -2.140374e-09 -3.772607e-09 1.065349e-09 -9.151337e-10 9.895359e-10
1.451973e-08 6.007102e-09 -5.455417e-09 9.203576e-09 -1.867893e-09 -2.367828e-09
-2.019839e-08 2.909881e-08 2.761046e-08 1.860752e-08 -6.533957e-10 -2.685657e-09
1.190904e-08 8.074044e-10 -4.017772e-09 3.499404e-09 -1.521486e-09 -9.774457e-10
4.485900e-09 -1.852973e-08 2.604841e-09 4.460565e-09 1.047280e-09 -2.457214e-10
3.261234e-09 -1.642970e-08 2.315790e-09 6.258938e-09 6.823795e-10 -2.205107e-10
1.862134e-09 -1.321480e-08 3.057940e-09 4.102772e-09 2.295932e-10 1.699012e-10
1.771162e-09 -1.399100e-08 2.585423e-09 5.674556e-09 2.753660e-10 3.463547e-10
-3.831388e-09 -5.445546e-10 1.375622e-09 1.850608e-10 -1.480371e-12 -1.390872e-10
2.728493e-09 -1.482031e-08 3.286908e-09 2.971699e-09 5.912770e-10 3.948098e-11
7.899139e-09 -2.162432e-08 2.372716e-09 1.252142e-09 1.227761e-09 -1.138492e-10
7.814921e-09 -2.031101e-08 2.913178e-09 1.106987e-09 3.350846e-10 -9.671930e-11
8.294251e-09 -2.053111e-08 1.648837e-09 3.201197e-09 2.980783e-10 -2.808047e-10
6.567061e-09 -1.995481e-08 2.502588e-09 3.185659e-09 -4.685076e-10 1.677298e-10
6.528458e-09 -2.061389e-08 1.698123e-09 3.550581e-09 6.787545e-10 2.906831e-10
1.331088e-08 -5.537615e-09 1.277897e-08 4.698901e-09 -1.249913e-10 -4.224628e-09
9.863311e-09 -6.021500e-09 6.012683e-09 -2.634388e-09 8.571344e-10 -2.322470e-09
7.986122e-09 -6.296512e-09 1.212445e-08 6.642552e-10 5.094691e-10 -4.441613e-09
-1.668238e-09 1.876520e-09 8.592549e-11 -1.087524e-09 -7.321144e-11 -1.113226e-10
-3.585019e-09 -5.445564e-10 1.538790e-09 1.541447e-10 3.238809e-11 -3.485070e-10
1.313087e-08 -7.060739e-09 1.192878e-08 -2.792892e-09 9.232556e-10 -3.337614e-09
9.830193e-09 -6.935995e-09 9.318156e-09 -2.855672e-09 9.779236e-10 -4.021677e-10
3.726950e-10 -9.107945e-09 1.831543e-09 -5.086158e-09 -5.292793e-10 -3.871749e-10
2.077613e-09 -1.221606e-08 2.312522e-09 -3.759564e-09 5.034371e-10 1.591595e-10
1.326982e-08 -2.481074e-08 -5.225798e-09 5.914504e-10 -5.797490e-09 3.178356e-10
1.286900e-08 -2.259245e-08 -5.220075e-09 -1.649680e-09 -8.226182e-09 1.949416e-10
1.468666e-08 -2.571885e-08 -7.467559e-09 -3.483685e-09 -1.089387e-08 -1.658621e-09
1.260754e-08 -2.970588e-08 -3.520387e-09 -3.448205e-09 -1.011540e-08 -7.041626e-10
-9.361640e-09 3.175169e-09 -2.061133e-10 -7.932499e-10 -5.287855e-10 -2.588729e-11
1.221130e-08 -2.947545e-08 -1.757965e-09 -1.062991e-09 -6.758378e-09 -2.190862e-10
-3.638037e-09 2.308376e-08 -1.074432e-09 -1.854836e-08 -4.428192e-09 1.057053e-09
-1.039773e-08 1.219882e-08 2.996039e-08 -2.366628e-08 2.546604e-09 -3.291091e-09
8.083231e-09 2.066424e-10 -2.435604e-08 -1.014556e-08 -1.140177e-08 -4.643521e-09
-2.380769e-08 2.830269e-08 4.872479e-08 -1.580264e-08 1.087585e-08 -9.052478e-09
-2.782525e-08 4.121387e-08 2.437722e-08 -1.394736e-08 1.448336e-08 -5.055255e-09
-1.184715e-09 -1.043572e-08 3.667129e-09 1.377244e-09 3.074405e-10 1.546760e-10
-5.457891e-09 3.395490e-08 -1.779548e-08 -1.326090e-08 -4.086529e-09 1.934387e-09
-1.284875e-08 2.453159e-08 1.501701e-08 -1.945831e-08 -5.702703e-09 -1.287799e-09
-1.764099e-09 -5.814913e-09 1.805956e-09 -4.251879e-09 1.505469e-10 8.231338e-11
-1.855234e-09 -7.297487e-09 1.407370e-09 -6.183749e-09 6.260215e-10 2.461811e-10
2.226624e-10 -9.670668e-09 1.161713e-09 -5.544277e-09 2.030970e-10 -4.226661e-11
-7.972923e-10 -7.837690e-09 1.372128e-09 -6.018929e-09 1.244826e-10 -2.914339e-10
8.271424e-09 -2.102687e-08 2.991784e-09 -1.281354e-09 9.352776e-10 5.979310e-11
7.625673e-09 -2.037200e-08 3.124362e-09 -1.126501e-10 4.301052e-10 -1.029355e-10
7.243711e-09 -2.068876e-08 2.795026e-09 -9.960954e-10 2.051666e-10 -7.979432e-11
6.521093e-09 -1.865673e-08 3.355595e-09 -4.569579e-10 3.573064e-10 -2.600136e-10
7.155988e-09 -2.003268e-08 2.883219e-09 -1.232494e-09 7.672179e-10 -3.397678e-10
-3.993087e-09 -7.716329e-09 3.225670e-09 1.094071e-09 2.293326e-10 -6.134224e-11
-3.411870e-09 -8.318643e-09 3.626648e-09 1.496179e-09 3.864284e-10 4.949697e-10
-5.266388e-09 -5.622253e-09 3.037686e-09 2.343520e-09 3.216223e-10 7.047629e-11
-4.291800e-09 -6.137054e-09 2.737707e-09 2.832433e-09 4.007061e-10 6.649236e-11
-3.988089e-09 -6.759523e-09 3.101452e-09 1.429174e-09 2.085944e-10 4.975237e-11
-4.815464e-09 -6.928381e-09 3.065779e-09 9.741874e-10 -8.994491e-11 5.889728e-11
-4.633016e-09 -6.516443e-09 3.272222e-09 6.995680e-10 2.302640e-10 -1.597302e-10
-6.102194e-09 -4.610915e-09 2.648268e-09 1.043642e-09 1.517444e-10 2.229834e-10
-5.158670e-09 -5.399878e-09 3.065303e-09 9.530644e-10 -9.912194e-12 9.783063e-11
-4.319350e-09 -6.812098e-09 3.338571e-09 7.296941e-10 1.379981e-10 2.326739e-11
-5.242861e-09 -4.404417e-09 2.705284e-09 6.408842e-10 6.810927e-10 -3.929005e-10
-6.416776e-09 -4.867413e-09 2.664993e-09 1.387627e-09 4.300736e-10 6.598255e-11
-3.649094e-08 -3.524959e-08 1.402904e-07 -1.271678e-08 -2.165648e-08 4.150697e-08
-2.987961e-08 -1.668593e-08 1.133621e-07 -2.911648e-08 -2.864098e-08 3.241936e-08
-1.774571e-08 -3.598166e-08 1.520148e-07 1.297461e-09 -2.612638e-09 5.846434e-08
6.184299e-09 -3.555867e-08 1.297173e-07 -1.887756e-09 -3.267515e-09 6.452925e-08
1.353939e-09 -4.922223e-10 -2.145679e-10 5.064051e-10 1.256900e-10 -8.836487e-12
8.577761e-10 -2.790790e-10 -1.818818e-10 2.422196e-11 1.192162e-10 -7.360335e-12
2.314358e-10 4.491962e-12 -2.085523e-10 4.250761e-10 1.142608e-10 8.169682e-11
7.817791e-10 -4.238920e-11 -1.370321e-10 1.071445e-09 7.429969e-11 7.224696e-11
3.305534e-10 6.538103e-12 -1.956306e-10 4.076893e-10 1.194080e-10 3.681855e-11
1.279815e-09 -7.733734e-10 -3.083955e-10 3.555213e-10 -3.739520e-11 -9.865708e-11
1.114609e-09 -4.643281e-10 -2.284786e-10 3.134630e-10 2.616374e-11 1.480691e-10
3.409113e-10 -1.123642e-08 2.642921e-09 6.353483e-09 1.354943e-10 -1.842300e-10
-1.435241e-12 -1.122774e-08 1.932446e-09 6.798164e-09 -1.273582e-10 5.090990e-10
3.301190e-09 -1.527521e-08 1.461996e-09 6.810154e-09 -3.454101e-10 3.314047e-10
-1.692974e-10 -1.245361e-08 8.701331e-10 7.376736e-09 1.024855e-09 1.191780e-11
2.935267e-09 -1.427108e-08 2.265693e-09 5.164742e-09 1.696034e-10 1.473619e-10
6.507648e-09 -3.362037e-09 -6.496101e-10 -1.529765e-09 -4.313938e-11 2.594365e-10
6.337453e-09 -3.329919e-09 -6.614975e-10 -1.094212e-09 -4.438128e-11 2.181326e-10
6.454518e-09 -3.293071e-09 -6.721392e-10 -1.061108e-09 5.613521e-11 -3.060614e-10
7.001063e-09 -1.774240e-08 1.066596e-09 -3.879525e-09 7.561836e-10 1.804753e-10
7.374187e-09 -2.016883e-08 1.749417e-09 -3.217734e-09 4.328267e-10 -2.031120e-11
7.023366e-09 -1.827080e-08 1.111458e-09 -3.905051e-09 4.498544e-10 -1.190520e-10
-1.328906e-09 -6.496877e-09 2.324514e-09 -2.315923e-09 -5.973129e-10 -1.529237e-10
-1.137291e-09 -6.959487e-09 2.276277e-09 -1.645091e-09 5.095735e-11 -2.578426e-11
-2.011720e-10 -8.262272e-09 2.582570e-09 -1.259736e-09 1.373841e-10 1.857909e-10
-1.140838e-09 -5.909712e-09 2.350897e-09 -1.416236e-09 2.952463e-10 -1.736353e-10
-3.262575e-09 1.577689e-09 4.962244e-10 2.601881e-10 9.141354e-11 -1.048451e-10
-2.698865e-09 1.450097e-09 3.908969e-10 5.433494e-10 8.225376e-11 -2.453260e-11
-5.950664e-09 -2.567509e-09 2.633345e-09 1.115665e-09 9.149850e-10 5.512346e-11
-2.406392e-09 1.330499e-09 3.453673e-10 6.877556e-10 7.778045e-11 2.234080e-11
-2.700585e-09 1.338567e-09 3.305058e-10 5.995773e-10 5.826162e-11 1.407652e-11
1.113491e-09 -9.588131e-09 2.542944e-09 -9.935822e-10 2.600034e-10 -3.941562e-10
1.098841e-09 -1.072691e-08 2.698480e-09 -7.608000e-10 2.594358e-10 -4.656128e-10
7.231886e-10 -8.742543e-09 2.674076e-09 -6.164068e-11 -2.596145e-11 -3.644012e-10
-5.478282e-10 -7.078509e-09 2.312958e-09 -7.075385e-10 -5.447642e-11 -4.165820e-10
6.630134e-10 -9.008263e-09 2.453047e-09 -2.393858e-10 1.497095e-10 -4.683706e-10
2.613709e-11 -8.669481e-09 2.494421e-09 -2.041989e-10 -2.423572e-11 -3.112091e-10
2.185205e-08 -6.260639e-09 2.649725e-10 7.629969e-09 1.734691e-10 -5.985346e-10
1.933293e-08 -5.810902e-09 -1.565839e-09 6.128897e-09 -2.372706e-10 8.180114e-10
-6.656491e-09 -1.639741e-09 1.960508e-09 3.892852e-09 1.017408e-09 -2.641120e-10
2.573976e-08 -8.874762e-09 -1.434255e-09 3.731379e-09 3.006733e-10 1.397373e-09
2.450479e-08 -6.371304e-09 -1.565167e-09 7.364227e-09 1.340279e-09 1.854271e-09
3.032554e-08 -1.140541e-08 -1.359725e-09 -1.233532e-10 1.054567e-09 3.796236e-09
2.523980e-08 -1.100123e-08 -6.696736e-10 2.681586e-09 1.645911e-10 1.211254e-09
2.796236e-08 -1.232873e-08 2.839364e-09 4.056525e-09 -1.176152e-10 3.017592e-09
8.259149e-10 1.692549e-09 7.294432e-10 5.217286e-09 -4.475993e-10 -8.737897e-10
-6.100884e-10 1.457896e-09 6.066114e-10 3.750413e-09 -6.694850e-11 -2.485920e-10
-2.077307e-09 2.458036e-09 6.109471e-10 3.358023e-09 -1.348457e-10 -2.430238e-10
-2.617787e-09 2.474137e-09 9.820842e-10 3.280658e-09 -5.498691e-11 -6.556109e-10
-1.547597e-09 3.099777e-09 9.255916e-10 4.191852e-09 -1.560752e-11 -4.751768e-10
6.274426e-09 -3.099346e-09 -5.355056e-10 1.445349e-09 7.774801e-11 -3.505268e-11
5.843769e-09 -2.895823e-09 -2.816853e-10 2.210156e-09 7.794597e-12 -4.070326e-10
5.972417e-09 -2.873551e-09 -5.659451e-10 1.741565e-09 1.232823e-10 1.900988e-10
6.543357e-09 -3.047791e-09 -1.016565e-10 2.572473e-09 1.001977e-10 3.323608e-10
1.956104e-08 -1.596297e-08 -3.871398e-08 2.455852e-09 1.065616e-08 5.997272e-10
1.733343e-08 -1.687456e-08 -2.382525e-08 1.031389e-09 7.726328e-09 9.198420e-11
1.577724e-08 -1.946061e-08 -1.827511e-08 -2.457868e-09 9.505683e-09 1.297364e-09
1.699673e-08 -9.537978e-09 -2.910400e-08 -6.710795e-09 1.273632e-08 3.997279e-09
1.675947e-08 -1.431426e-08 -2.322412e-08 -6.629711e-09 5.159191e-09 1.184425e-09
1.694293e-08 -1.385579e-08 -2.473956e-08 -7.680904e-09 1.312429e-08 3.234635e-09
6.509069e-10 5.862635e-10 -3.632850e-10 -3.988583e-09 -2.257045e-10 -3.137579e-11
-9.815504e-10 1.202472e-09 -3.093386e-10 -3.330473e-09 -1.837670e-10 -5.206480e-11
6.886124e-09 8.858186e-10 -2.469996e-08 -9.798022e-09 -1.117144e-08 -3.763913e-09
-4.737535e-10 9.407630e-10 -2.301661e-10 -3.250384e-09 -1.891722e-10 2.178635e-11
7.391980e-10 8.427916e-10 -3.239704e-10 -3.747954e-09 -1.219057e-10 8.520562e-11
-1.727921e-08 1.933643e-08 1.079830e-09 2.758369e-09 -2.925488e-10 1.014764e-08
1.226960e-08 -2.173011e-08 -4.284844e-09 1.749323e-09 -2.974260e-09 5.138986e-10
1.213534e-08 -2.741220e-08 -1.552910e-09 -7.911520e-10 -3.556691e-09 -1.061596e-10
1.287620e-08 -2.424191e-08 -5.359832e-09 -2.223859e-09 -6.344168e-09 2.998610e-10
1.218073e-08 -2.238357e-08 -7.612666e-09 3.477520e-10 -3.318768e-09 2.522869e-10
1.301338e-08 -2.189678e-08 -8.321077e-09 -9.976497e-10 -5.972083e-09 1.039201e-10
1.221411e-08 -2.354590e-08 -5.747291e-09 2.094128e-09 -6.527334e-09 9.543666e-10
1.307006e-08 -2.221757e-08 -7.331959e-09 -5.633449e-10 -3.082830e-09 3.652284e-10
1.289957e-08 -2.465544e-08 -5.220113e-09 -9.898719e-10 -6.587749e-09 2.315980e-10
-8.919318e-09 4.838975e-09 -1.019533e-09 3.361231e-09 1.996293e-09 -8.531398e-10
-9.008781e-09 4.934065e-09 -2.737558e-09 5.279910e-09 1.184280e-09 -6.023910e-10
-8.678544e-09 4.935685e-09 -1.176328e-10 1.344906e-09 3.120821e-10 -2.099103e-10
-8.557429e-09 5.261153e-09 -1.066828e-09 1.529665e-09 7.083831e-10 -1.087850e-10
-7.434236e-09 7.792566e-09 -1.594699e-09 1.323682e-10 6.919021e-10 -2.065263e-10
-8.444071e-09 4.868468e-09 -8.645924e-10 3.443341e-09 -2.176839e-10 -1.885336e-10
-2.539533e-09 2.044167e-09 1.650871e-10 -1.413140e-09 -8.579093e-11 -1.136877e-10
-2.416028e-09 1.896494e-09 4.759770e-11 -7.707808e-10 -6.385303e-11 -9.515566e-11
-3.165372e-09 2.363472e-09 1.928875e-10 -7.479628e-10 -1.213871e-10 -1.079963e-10
-1.962492e-09 1.915984e-09 -8.626211e-12 -6.652385e-10 -2.056701e-10 -7.876588e-11
-3.195087e-09 2.567969e-09 2.644218e-10 -6.181108e-10 -5.989520e-11 -1.179063e-10
-2.595506e-09 1.951944e-09 1.041740e-10 -1.016067e-09 -1.402776e-10 -1.616778e-10
-1.226087e-09 8.168496e-09 2.839110e-08 -2.464945e-08 -1.339210e-08 1.095172e-08
-5.024704e-09 9.900453e-09 1.301834e-08 -2.163895e-08 -2.695580e-09 3.285499e-09
-1.973857e-08 3.106494e-08 3.615279e-09 -1.881908e-08 -3.602331e-09 -3.497598e-09
-5.847988e-09 1.595422e-08 1.061121e-08 -2.038458e-08 -4.531718e-09 4.696866e-09
6.293983e-09 -2.947804e-09 1.269485e-09 4.460761e-09 -1.861027e-10 -1.171178e-09
7.550355e-09 -2.151076e-08 2.051637e-09 6.660747e-10 -5.754488e-10 3.204570e-11
7.185077e-09 -4.485659e-09 3.620157e-09 3.449628e-09 6.763716e-11 -1.405364e-09
9.311393e-09 -5.120688e-09 1.261096e-09 1.373497e-09 9.829849e-11 -5.776908e-10
6.685778e-09 -2.976542e-09 2.352958e-09 4.711401e-09 1.508580e-10 6.076297e-10
7.500584e-09 -3.048192e-09 2.093786e-09 4.799376e-09 -4.237022e-10 -2.174439e-09
8.564098e-09 -3.095310e-09 2.588600e-09 5.048929e-09 -2.075712e-10 -1.436338e-09
-4.463970e-08 3.455546e-08 4.608923e-08 -2.156403e-08 -1.841503e-08 2.925748e-10
-1.150841e-08 1.753129e-08 -6.058601e-09 7.021355e-09 3.819133e-09 1.073518e-09
-1.740720e-08 5.783616e-08 -4.331424e-08 1.755159e-10 -7.287472e-10 -1.332989e-08
-7.275499e-08 -1.302468e-09 1.456458e-07 -7.483636e-09 -3.677604e-08 -1.093074e-08
-5.269311e-08 1.324406e-09 9.392931e-08 -2.352898e-08 -3.791758e-08 -6.426214e-09
-6.972251e-08 -2.165303e-09 1.832147e-07 -3.927347e-09 -3.692764e-08 1.548309e-08
-6.621745e-08 -2.486583e-09 1.568595e-07 -3.581416e-09 -3.243436e-08 -1.249238e-09
-4.920913e-08 -2.091929e-09 1.215342e-07 -8.654739e-09 -2.967996e-08 1.462416e-08
6.541477e-09 -1.890864e-08 3.602758e-09 1.713471e-09 2.183130e-10 4.874323e-11
-5.510736e-09 2.254865e-08 6.155377e-09 2.034864e-08 2.388881e-09 -3.515683e-09
-4.314617e-09 2.390182e-08 -6.370588e-10 2.162622e-08 2.169125e-09 -3.460582e-09
-7.224794e-09 4.314832e-08 -2.373678e-08 9.830994e-09 -2.344352e-09 -5.301059e-09
-1.895921e-08 4.504893e-08 5.140313e-09 1.724996e-08 1.734997e-08 -1.286136e-08
-9.126840e-09 4.513652e-08 -3.639623e-08 1.994407e-08 1.486933e-08 1.196392e-09
5.585154e-09 -1.829438e-08 -3.367936e-09 9.317845e-09 1.976942e-09 -7.497679e-11
7.230264e-09 -1.793217e-08 -6.321160e-09 1.085839e-08 4.890552e-09 -8.475007e-10
5.415778e-09 -3.009632e-09 -7.519942e-10 -6.214251e-12 8.666262e-12 -1.550760e-12
5.573397e-09 -1.127611e-08 -9.691539e-09 1.481793e-08 3.065511e-09 -6.113863e-10
7.130226e-09 -1.516972e-08 -6.249168e-09 1.088152e-08 4.537278e-10 -9.110476e-12
3.899028e-09 -1.100498e-08 -8.127246e-09 1.294226e-08 1.400029e-09 -3.574378e-10
-4.025541e-09 2.056943e-09 5.691101e-10 1.488838e-10 5.186007e-11 -7.228010e-11
2.283103e-09 -1.165366e-08 -2.863044e-09 1.155241e-08 2.287119e-09 -5.836667e-10
-1.393633e-08 3.458245e-08 -2.592632e-08 -8.756873e-09 4.885860e-10 1.490225e-08
-1.798740e-09 -7.323240e-09 -8.867005e-10 -8.823211e-09 1.505208e-09 8.605522e-10
-1.898949e-09 -5.436495e-09 8.191128e-10 -6.165564e-09 1.003225e-10 -1.696554e-11
-1.893006e-09 -4.271549e-09 2.235807e-10 -6.267534e-09 3.217722e-10 -7.995954e-11
-1.880519e-09 -5.569785e-09 7.870411e-10 -6.214288e-09 3.836924e-10 1.204752e-10
8.338151e-09 -3.749762e-09 -5.727774e-10 -6.977872e-10 -1.697914e-11 4.738432e-11
7.251517e-09 -3.751104e-09 -5.545582e-10 -7.360413e-10 -3.212464e-11 -4.102390e-10
7.132437e-09 -3.686943e-09 -5.047509e-10 5.177147e-10 7.466555e-11 1.182905e-10
7.262323e-09 -3.754137e-09 -5.467249e-10 -7.546686e-10 3.183598e-11 3.260567e-10
5.447072e-09 -5.434037e-09 -1.632720e-08 6.937267e-09 -8.017997e-09 3.401019e-09
5.458499e-09 -5.659308e-09 -1.834834e-08 6.950324e-09 -3.508900e-09 2.102835e-09
4.713067e-09 -3.199521e-09 -1.178947e-08 5.690512e-09 -6.224725e-09 2.602441e-09
5.582118e-09 -1.365876e-09 -2.115962e-08 5.887243e-09 -3.995830e-09 2.856002e-09
-3.863322e-09 1.757516e-09 6.284404e-10 2.023566e-10 -7.293971e-12 -1.935785e-11
-3.869302e-09 2.057533e-09 5.629968e-10 9.007195e-11 3.091394e-11 -5.111778e-11
-3.978363e-09 2.114938e-09 5.402541e-10 5.016431e-12 -6.765366e-12 -5.226397e-11
-4.022940e-09 1.997121e-09 6.255405e-10 1.395851e-10 3.053846e-11 -5.950140e-11
-3.795410e-09 1.914647e-09 6.430243e-10 8.146528e-11 -1.433287e-11 1.493805e-11
-4.047077e-09 1.713339e-09 7.511538e-10 1.966038e-10 4.974976e-11 -6.241541e-11
-4.019046e-09 1.816566e-09 7.091345e-10 2.248588e-10 2.525802e-11 -8.285728e-11
-4.026824e-09 1.753539e-09 7.166738e-10 7.115641e-12 -6.469825e-12 -6.016943e-11
-4.021986e-09 1.826717e-09 6.721081e-10 6.346990e-11 -7.356105e-11 -4.788098e-11
-2.746653e-09 7.222447e-09 -3.064516e-09 2.339964e-10 -2.948036e-09 -2.868108e-10
-2.683556e-09 7.049390e-09 -3.852826e-09 -5.619423e-10 -3.448141e-09 -1.022893e-09
-3.091197e-09 9.331191e-09 -5.224489e-09 1.815677e-09 -1.661755e-09 -7.266232e-10
-3.693766e-09 7.508053e-09 -6.148269e-09 -4.095345e-10 -2.995364e-09 -2.779714e-09
1.789949e-08 -6.156344e-09 -2.411028e-09 -2.544573e-09 1.286808e-09 5.453524e-10
3.747056e-09 5.364161e-09 -2.660413e-09 -3.098127e-09 7.013285e-10 -3.695378e-10
2.434587e-08 -5.408221e-09 -2.854508e-09 -1.959560e-09 5.459423e-10 6.243422e-10
2.618044e-08 -4.802213e-09 -2.855018e-09 -5.663327e-09 -3.306482e-10 3.152703e-09
1.686545e-08 -2.436298e-09 -3.389328e-09 -5.856308e-10 8.131108e-10 1.417813e-10
1.806356e-08 -4.146266e-09 -3.023744e-09 -5.926049e-10 1.023651e-09 8.275337e-10
-3.756439e-09 -7.513982e-09 2.615237e-09 4.533285e-09 -9.999334e-11 1.960607e-10
-3.420506e-09 -9.138890e-09 3.453732e-09 1.956792e-09 -3.528977e-11 -1.666634e-11
-2.172790e-09 -9.016764e-09 3.443127e-09 3.022168e-09 3.222808e-10 1.855960e-10
-2.631877e-09 -1.004328e-08 3.088202e-09 3.809690e-09 5.342532e-10 -2.215430e-10
-8.326926e-09 1.783440e-09 1.031229e-09 1.160313e-09 1.149825e-09 -3.920533e-10
-7.086142e-09 -3.633196e-09 2.112952e-09 2.282548e-09 1.313011e-09 -1.343248e-11
-8.123474e-09 1.171214e-09 1.483229e-09 1.330891e-09 8.254254e-10 -2.780432e-11
-7.869062e-09 -1.346756e-09 1.470542e-09 1.479827e-09 5.518112e-10 5.536338e-11
-7.982901e-09 -2.911156e-10 1.821528e-09 1.265926e-09 1.590392e-09 -1.819322e-10
-8.056979e-09 -9.271091e-10 2.254759e-09 1.504027e-09 1.423355e-09 -3.461520e-11
-5.350620e-10 -6.832963e-09 2.233678e-09 -7.638482e-10 3.570949e-10 -5.216216e-10
-5.579193e-10 -6.809022e-09 2.234097e-09 -6.122265e-10 -1.131473e-10 -3.739791e-10
-1.355509e-09 -7.345193e-09 2.404273e-09 -3.370074e-09 1.008854e-09 -1.804446e-10
-5.032708e-11 -7.441366e-09 2.317326e-09 -2.156651e-09 4.558204e-11 -3.832235e-10
-5.697465e-11 -8.641022e-09 2.308600e-09 -2.378587e-09 -2.397998e-10 -4.811392e-10
-1.353090e-09 -6.670091e-09 2.267809e-09 -9.526072e-10 -6.542755e-11 -6.180392e-10
-1.559769e-09 -5.785790e-09 2.007224e-09 -1.443922e-09 4.054993e-10 -3.844264e-10
-1.402222e-09 -5.216907e-09 2.315025e-09 -1.971994e-09 -4.176076e-13 -1.031323e-10
-4.651768e-09 2.056098e-09 7.679217e-10 -8.247895e-10 -1.804598e-11 -4.084186e-10
-4.305392e-09 2.221383e-09 5.582454e-10 -7.078971e-10 -6.743028e-11 -4.129919e-11
-4.205618e-09 2.095011e-09 6.332708e-10 -6.282930e-10 -1.138556e-10 -2.731614e-10
-5.512670e-10 -1.341985e-09 -1.208012e-08 -1.347243e-08 3.187811e-09 1.672237e-09
-5.710128e-10 -3.818583e-09 -9.249716e-09 -1.340396e-08 3.797543e-09 2.326251e-09
-7.345355e-10 -1.493035e-09 -1.083741e-08 -1.370568e-08 4.089960e-09 2.862096e-09
6.173515e-09 -1.124978e-08 -1.316355e-08 -1.392862e-08 6.993529e-09 3.233460e-09
-1.204839e-08 1.928309e-08 1.147491e-09 8.344480e-09 -2.745657e-10 1.667816e-09
8.893589e-09 -7.160056e-09 -1.792477e-08 -1.310713e-08 7.871696e-09 3.132419e-09
-1.813077e-09 -3.714582e-09 1.980852e-09 -1.603378e-09 -3.254562e-10 -5.101572e-10
-1.153751e-09 -6.166523e-09 2.101090e-09 -2.899622e-09 -1.241734e-10 9.317608e-11
-1.139781e-09 -5.129439e-09 2.237198e-09 -1.405253e-09 6.664724e-10 6.247580e-11
-4.298992e-10 -8.489260e-09 2.485972e-09 -2.639888e-09 -1.674323e-10 -3.319052e-10
-1.912272e-09 -5.761481e-09 2.208137e-09 -1.910931e-09 -1.987310e-10 -2.874251e-10
-5.312444e-10 -7.618059e-09 2.231008e-09 -1.275699e-09 1.105045e-09 -1.656342e-10
-2.401612e-10 -9.315920e-09 -4.535468e-10 2.157878e-09 -4.187852e-10 -3.145623e-11
-1.096050e-09 -6.680768e-09 2.445317e-10 -1.047086e-10 -1.277562e-10 -3.627237e-11
-1.544748e-09 -6.279357e-09 2.395883e-10 9.556044e-10 -7.110585e-10 8.739681e-11
-1.876582e-09 1.149015e-09 3.727951e-10 2.170553e-09 -8.582380e-11 -4.727037e-10
-1.912730e-09 1.379256e-09 5.126264e-10 2.122732e-09 7.559103e-11 4.826273e-11
-2.054553e-09 1.345340e-09 4.860246e-10 2.246517e-09 7.280723e-11 -3.556515e-10
7.348131e-10 1.438982e-11 -1.325389e-10 3.486512e-10 9.900789e-11 -1.118261e-11
-9.414958e-10 5.582210e-10 3.603873e-11 4.341070e-10 1.094822e-10 2.136691e-11
-9.697798e-11 3.828493e-12 -1.135354e-10 4.452743e-10 1.213137e-10 -1.565731e-10
-2.427898e-10 5.040075e-10 8.249401e-12 9.475069e-10 9.105787e-11 1.935336e-10
-1.934382e-10 5.084768e-10 -6.204104e-11 9.720229e-10 -4.248931e-11 4.892925e-11
-7.327048e-09 4.073996e-08 -4.449979e-08 -1.704564e-09 -1.539202e-08 -7.305068e-09
6.736828e-09 2.610515e-08 -4.342218e-08 -7.908896e-09 -1.782902e-08 -4.852460e-09
5.773666e-09 2.356525e-08 -4.268306e-08 -7.220646e-09 -5.792553e-09 -1.268058e-09
6.488779e-09 -2.938553e-09 4.547029e-10 3.309725e-09 -1.561814e-10 -8.011036e-10
8.156836e-09 -3.834258e-09 7.400591e-10 2.812012e-09 -1.081310e-10 -1.312618e-09
6.338423e-09 -2.890077e-09 1.929901e-10 3.415597e-09 1.873318e-10 9.202928e-11
7.884903e-09 -3.821279e-09 6.917809e-10 2.795599e-09 1.016883e-10 3.678489e-10
-3.672794e-09 1.940000e-09 5.246394e-10 1.503633e-10 5.418477e-11 -1.045629e-10
-3.883203e-09 1.967614e-09 5.818697e-10 1.261489e-10 1.462808e-11 -2.347900e-11
-3.811665e-09 2.088132e-09 5.265768e-10 3.877920e-11 1.303624e-12 2.296630e-11
-1.702994e-09 5.131927e-09 -1.261067e-08 -6.798351e-09 -4.493335e-09 -1.850934e-09
7.314149e-10 -5.347837e-10 -1.333871e-10 4.139373e-10 7.639606e-11 -7.894130e-12
1.404468e-09 -4.990814e-10 -2.511897e-10 6.126504e-10 9.677403e-11 3.414994e-10
9.744534e-09 -4.706059e-09 7.393592e-10 -9.958250e-10 -7.329731e-11 -1.464104e-09
8.451458e-09 -4.714207e-09 1.447551e-10 -1.049350e-09 1.764003e-10 -2.928494e-10
8.498546e-09 -4.490025e-09 6.138778e-10 1.178936e-09 -7.228002e-11 -1.704393e-10
9.065217e-09 -4.720985e-09 7.899410e-10 -1.085975e-09 1.487539e-10 3.421108e-10
1.029832e-08 -2.037984e-08 -6.138602e-09 -2.797911e-09 -3.719237e-09 -5.879346e-10
8.610303e-09 -1.532724e-08 -9.188049e-09 -5.580778e-09 -4.882202e-09 -8.327825e-11
6.895466e-09 -1.774604e-08 -3.893803e-09 -2.792005e-09 -6.394521e-10 -8.145629e-10
7.038913e-09 -1.864803e-08 -3.212313e-09 -2.608460e-09 -1.311165e-09 -2.156539e-10
1.033135e-08 -2.161439e-08 -2.569331e-09 -2.312766e-09 -3.421483e-09 -2.301253e-10
1.304485e-09 4.114882e-09 -1.772187e-08 -9.141725e-09 -8.200103e-09 -3.087436e-09
8.460092e-09 -2.027300e-08 -4.000014e-09 -4.381814e-09 -3.981887e-09 -1.339720e-09
-4.353743e-09 2.369546e-09 6.405330e-10 -5.693643e-10 -1.631857e-10 -2.845950e-10
-3.741283e-09 2.187750e-09 5.338423e-10 -1.208763e-09 -2.608422e-10 -3.144982e-10
-3.516156e-09 2.115479e-09 3.803873e-10 -1.212213e-09 -1.428051e-10 -2.147318e-10
-4.020482e-09 2.451751e-09 4.702776e-10 -6.555036e-10 -8.284329e-11 -1.845706e-10
-3.604788e-09 2.381603e-09 4.384801e-10 -1.271078e-09 -1.835453e-10 -2.190278e-10
-4.444713e-09 2.113621e-09 7.450345e-10 -3.697771e-10 -8.063905e-11 -2.318525e-10
-4.141212e-09 2.085117e-09 6.769618e-10 -7.089441e-10 -1.628729e-10 -3.535638e-10
-3.725200e-10 -6.033690e-09 -9.121661e-09 7.931442e-09 -4.916846e-09 3.363940e-09
2.776241e-10 -9.954881e-09 -2.422521e-09 -5.856730e-09 -2.743313e-09 -1.248711e-09
1.365529e-09 -1.063435e-08 2.071797e-09 -3.174839e-09 -2.418235e-09 -6.647709e-10
-1.892190e-09 -8.393281e-09 1.132733e-09 -6.031860e-09 -3.118912e-09 -1.164524e-09
2.669353e-08 -8.624191e-09 -3.404827e-09 2.058222e-10 3.812418e-10 5.159414e-10
2.456980e-08 -6.419915e-09 -4.303970e-09 1.428718e-10 8.552797e-10 1.198069e-09
1.045968e-08 -1.723466e-08 -1.141668e-08 9.676166e-09 4.720304e-09 -8.512100e-10
1.123669e-08 -2.033545e-08 -1.164283e-08 7.760566e-09 2.562474e-09 -6.029775e-10
1.093495e-08 -1.736832e-08 -9.855587e-09 9.775452e-09 3.383109e-09 -7.155007e-10
8.735437e-09 1.283527e-09 -2.205088e-09 -5.663175e-09 -1.159216e-09 1.855737e-09
1.527956e-08 -2.143955e-09 -1.398571e-09 -3.255266e-09 -3.969865e-10 1.778049e-09
8.007870e-09 1.410793e-09 -1.754445e-09 -4.822080e-09 -2.102460e-10 1.673785e-09
2.192480e-08 -6.175048e-09 -5.493530e-10 -2.240976e-09 -3.529755e-10 -8.857271e-11
1.689337e-08 -3.922683e-09 -5.342455e-10 -4.246979e-09 -8.296729e-10 8.738987e-11
2.530090e-09 2.457663e-08 -2.560045e-08 -4.541948e-09 -2.354792e-10 4.237949e-09
1.507238e-09 2.057119e-08 -2.763609e-08 -1.188012e-09 -7.230419e-09 7.408094e-09
-3.647290e-09 1.551835e-08 -2.162471e-08 -1.257915e-09 -3.379907e-09 3.995769e-09
1.769056e-09 2.028926e-08 -3.199379e-08 -1.914182e-09 -6.875154e-09 6.489744e-09
-3.528800e-08 7.037156e-09 8.981340e-08 -2.722291e-08 -1.841966e-08 1.172449e-08
-6.899720e-08 -3.468588e-08 1.761960e-07 -1.470329e-08 -1.499458e-08 2.852972e-08
-6.073096e-08 -3.497002e-08 1.567666e-07 -1.035799e-08 -1.855883e-08 3.957561e-08
-4.369399e-08 1.592033e-08 7.163251e-08 -2.749958e-08 -3.077142e-08 4.831343e-09
-7.995688e-09 6.208550e-09 -2.670300e-10 -1.380959e-09 -6.535381e-10 -7.699870e-10
-6.061156e-09 5.965078e-09 8.528236e-10 2.380014e-09 1.756717e-10 -6.113805e-10
-9.691861e-09 9.111434e-09 -2.782352e-10 4.714886e-10 -7.917565e-10 -1.004459e-09
5.732846e-09 -1.424249e-08 -4.876339e-09 5.297848e-09 -4.157990e-09 1.123042e-09
-5.388269e-09 4.455106e-09 8.661396e-10 1.754907e-09 -7.224159e-10 -8.205959e-10
-6.468491e-09 5.908954e-09 3.110814e-10 5.130027e-10 -6.270296e-11 4.462697e-11
7.320948e-09 -1.824886e-08 -1.586463e-09 2.199681e-09 -6.974843e-10 3.994477e-10
4.397388e-09 -1.392229e-08 -1.600018e-09 2.318780e-09 -6.202638e-10 6.472566e-10
6.199602e-09 -1.740821e-08 -5.449841e-10 4.354727e-09 -3.402460e-09 6.909277e-10
9.980398e-09 -1.813456e-08 -1.208602e-08 4.182436e-09 -3.889613e-09 9.480626e-10
4.632196e-09 -1.711045e-08 -1.619065e-10 2.633293e-09 -2.775285e-09 3.521009e-10
5.865696e-09 -1.581106e-08 -1.725921e-09 4.332276e-09 -1.968776e-09 9.012769e-10
-4.048617e-09 -5.736675e-09 2.358258e-09 5.516427e-09 5.389151e-10 -1.965042e-10
-4.352195e-09 -6.837624e-09 2.598992e-09 3.868200e-09 5.787701e-10 -2.967981e-11
9.535513e-09 -1.768973e-08 -4.798500e-09 3.402773e-09 -2.698781e-09 8.309420e-10
-3.044049e-09 -9.032600e-09 2.901067e-09 5.552777e-09 5.576533e-10 2.164140e-10
-3.963588e-09 -7.017743e-09 3.348715e-09 1.783631e-09 5.553338e-10 7.501333e-12
-4.619091e-09 -6.119462e-09 2.229932e-09 6.473193e-09 8.731833e-10 -3.517200e-10
-4.403802e-09 -6.216187e-09 1.856070e-09 6.378196e-09 1.325275e-09 -6.403069e-10
7.989934e-09 -3.663833e-09 1.661278e-09 3.642788e-09 -1.580297e-10 -1.286015e-09
8.589195e-09 -3.089290e-09 3.496022e-09 5.064972e-09 -7.143148e-11 -8.777699e-10
2.842561e-09 -2.455071e-10 1.667172e-09 5.506543e-09 8.019152e-11 1.264158e-10
3.499193e-09 -3.629830e-10 2.513056e-09 6.206154e-09 1.297385e-10 -3.650658e-10
3.725740e-09 -2.021402e-10 1.640958e-09 5.572492e-09 -2.606629e-10 -1.482145e-09
1.976176e-09 -1.859012e-10 2.381862e-09 5.310704e-09 -5.417186e-10 -1.912749e-09
4.755507e-09 -2.292540e-09 -7.147345e-10 -2.978031e-10 -8.182371e-11 1.466405e-11
3.834166e-09 -1.864126e-09 -6.142695e-10 -1.367868e-10 -7.987448e-11 -7.646905e-11
3.545436e-09 -1.315086e-09 -6.169625e-10 -1.320920e-09 -1.369430e-10 -1.271283e-10
3.122526e-09 -1.483827e-09 -5.332733e-10 -5.629786e-10 -8.654966e-11 -2.758283e-11
3.757919e-09 -1.963194e-09 -5.846899e-10 -4.915542e-10 -1.903478e-10 3.903805e-11
4.047230e-09 -2.147750e-09 -6.649952e-10 -8.480958e-10 -1.729763e-10 -5.478729e-12
4.442182e-09 -2.338930e-09 -6.509955e-10 -2.200033e-10 -8.494128e-11 -1.696872e-10
3.456814e-09 -1.701801e-09 -5.656443e-10 -2.566816e-10 -1.186156e-10 1.215756e-10
-4.033659e-09 2.615448e-09 4.645460e-10 -1.954761e-10 -2.720324e-11 -5.619660e-11
-3.579966e-09 2.562897e-09 2.810912e-10 -5.850972e-10 -3.530576e-11 -1.133446e-10
-3.563611e-09 2.540952e-09 2.973546e-10 -6.713449e-10 -3.307399e-11 -2.802450e-11
-3.322652e-09 2.525533e-09 3.665672e-10 -6.652860e-10 -6.362222e-11 -8.875489e-11
-3.333392e-09 2.528305e-09 2.916121e-10 -6.676450e-10 -4.385670e-11 -5.312284e-11
9.576008e-09 -4.706792e-09 1.415743e-09 9.684246e-10 -2.872788e-12 -1.014888e-09
1.003938e-08 -5.854685e-09 2.991570e-09 3.236322e-10 3.427555e-10 -1.125273e-09
9.532911e-09 -6.048043e-09 3.415257e-09 -4.963564e-10 3.439888e-10 -1.125857e-09
1.024201e-08 -5.224385e-09 2.181627e-09 -2.248235e-09 1.547978e-10 8.264232e-10
1.094989e-08 -5.227923e-09 2.393929e-09 -2.324791e-09 7.685431e-11 -2.642399e-09
1.201370e-08 -5.223678e-09 3.476358e-09 -2.194793e-09 1.140469e-10 -7.077333e-10
5.357484e-09 -2.888528e-09 -6.005521e-10 1.013204e-09 1.438263e-11 -8.573353e-11
4.286756e-09 -2.191447e-09 -5.708420e-10 1.218243e-09 1.093770e-10 -1.539144e-10
1.356040e-09 1.565329e-08 -2.583606e-08 -1.191849e-10 -2.396674e-09 9.391921e-10
4.089011e-10 2.899262e-08 -4.522730e-08 -7.409196e-09 -1.751109e-08 9.006648e-09
1.171332e-09 2.065841e-08 -3.713569e-08 6.148754e-11 -1.477927e-08 1.474537e-08
-2.020044e-09 2.080658e-08 -2.548336e-08 -8.741046e-09 -4.023904e-10 3.926388e-09
5.830068e-09 -1.903975e-08 3.013311e-09 -9.641375e-10 6.511904e-10 -1.633233e-10
4.621399e-09 -1.568597e-08 3.250593e-09 -1.526677e-09 -1.429953e-10 -9.587309e-11
4.604781e-09 -1.613662e-08 3.023041e-09 -1.739984e-09 2.287979e-10 -1.616373e-12
-3.303847e-09 1.184597e-09 7.035297e-10 7.262160e-10 -6.870193e-11 -1.410496e-10
-3.350024e-09 1.539163e-09 6.126317e-10 7.449112e-10 3.335909e-11 -7.961654e-11
-3.606611e-09 1.034365e-09 8.694747e-10 4.133809e-10 6.388312e-11 -2.035438e-10
-3.712132e-09 1.047074e-09 8.454992e-10 9.736389e-11 -6.095213e-11 -9.918910e-11
-3.692004e-09 1.204938e-09 8.607306e-10 4.055467e-10 1.435845e-10 -1.547496e-11
7.398077e-09 -4.091826e-09 4.777290e-11 -3.101082e-09 1.165925e-10 -1.217023e-10
8.806430e-09 -4.085836e-09 6.834782e-10 -3.198265e-09 8.833823e-11 -1.480745e-09
9.610461e-09 -4.079999e-09 1.029048e-09 -3.286690e-09 1.481104e-11 -9.245023e-10
8.463063e-09 -4.083080e-09 5.149201e-10 -3.230433e-09 5.718534e-12 6.259868e-10
-6.129819e-09 2.347322e-09 6.973888e-11 -3.919082e-09 4.483260e-10 3.464334e-10
-5.302474e-09 1.875819e-10 -1.523862e-09 -6.914355e-09 7.118528e-10 1.531307e-10
-6.174651e-09 2.143885e-09 3.993876e-10 -3.789894e-09 -8.793167e-11 -2.208290e-10
-5.998099e-09 4.262240e-09 -2.167329e-10 -2.943053e-09 6.375376e-10 4.434152e-10
-1.975575e-09 -1.810496e-09 -1.863734e-09 -8.619096e-09 1.208794e-09 6.194345e-10
-4.173417e-09 -1.294475e-09 1.637726e-10 -5.940963e-09 3.547014e-10 2.041575e-10
-4.166424e-09 -1.802842e-09 4.255156e-10 -5.901259e-09 2.771618e-10 7.422053e-11
-3.802586e-09 -1.934895e-09 -1.282439e-09 -8.126908e-09 1.180093e-09 4.670242e-10
-1.077262e-09 -5.518949e-09 4.484235e-11 -7.103233e-09 -4.449552e-10 4.073912e-11
-5.229327e-09 -2.161055e-09 -4.942726e-10 -7.536822e-09 9.540619e-10 7.184372e-10
9.349471e-09 -4.350120e-09 2.728053e-10 8.002129e-10 4.139273e-12 -1.190101e-10
8.460220e-09 -3.859246e-09 -1.968656e-10 3.907188e-10 1.452595e-10 6.506751e-11
8.038236e-09 -3.973667e-09 -1.961036e-10 -1.669329e-09 -4.973760e-11 5.088678e-10
8.840590e-09 -4.458272e-09 -3.831158e-11 -3.338485e-10 1.109373e-10 2.761595e-10
9.738512e-09 -4.430580e-09 9.011405e-10 -3.694358e-10 -3.095967e-11 -9.736523e-11
9.080823e-09 -4.957502e-09 5.498162e-10 -1.707735e-09 1.451514e-10 -8.637101e-10
8.257115e-09 -3.976258e-09 -1.933840e-10 -1.613651e-09 1.376704e-11 -8.146781e-10
-3.060881e-09 2.230350e-09 9.062218e-11 -2.439665e-09 -1.775309e-10 -1.362634e-10
-3.866446e-09 2.034367e-09 3.365743e-10 -1.327589e-09 -1.197415e-10 -9.467216e-11
-4.079487e-09 2.225046e-09 1.519127e-10 -2.004072e-09 -1.631595e-10 -3.778142e-10
-3.040765e-09 2.198290e-09 9.416112e-11 -2.286659e-09 -1.085472e-10 -1.278062e-10
6.206463e-09 -1.935783e-08 3.869630e-09 2.256674e-09 2.116605e-10 3.123261e-10
7.000323e-09 -2.029121e-08 2.598133e-09 2.698777e-09 3.707575e-10 2.666511e-11
6.477709e-09 -1.901432e-08 3.671204e-09 2.031659e-09 2.368307e-10 1.990044e-11
7.582434e-09 -2.124598e-08 3.143908e-09 5.173606e-10 5.610221e-10 -3.400124e-11
9.632913e-09 -2.209448e-08 -3.594396e-10 1.879489e-09 -2.970598e-09 5.425662e-10
7.148164e-09 -2.122484e-08 2.969244e-09 2.250872e-09 1.090431e-09 -2.075818e-10
5.696006e-09 4.261640e-09 -2.184484e-08 4.768430e-09 -9.985816e-09 4.868756e-09
1.810019e-09 9.081289e-09 -2.608205e-08 3.492201e-09 -3.641858e-09 2.656904e-09
8.773814e-10 1.534129e-08 -2.223383e-08 4.492952e-10 -2.866061e-09 3.343780e-09
6.856027e-09 9.427913e-09 -3.280278e-08 3.344280e-09 -5.595762e-09 3.460937e-09
7.164931e-09 1.465304e-08 -3.292395e-08 2.018417e-09 -1.364107e-08 7.296557e-09
1.356040e-09 1.985157e-08 -2.536310e-08 -1.389422e-09 -4.931883e-09 2.343905e-09
8.015266e-11 1.450081e-08 -2.785224e-08 2.475458e-09 -1.078361e-08 1.040308e-08
6.801903e-09 9.197960e-09 -3.054214e-08 3.827925e-09 -1.284729e-08 6.263594e-09
4.927433e-09 -2.625950e-09 -6.573611e-10 4.583105e-10 4.278511e-11 -1.661465e-11
4.048991e-09 -2.128251e-09 -5.245802e-10 3.769252e-10 7.241441e-11 1.295155e-10
4.880125e-09 -2.592457e-09 -6.051813e-10 4.137335e-10 1.393596e-10 1.188305e-10
4.141696e-09 -2.262606e-09 -5.474472e-10 7.202527e-11 8.463186e-11 -4.399975e-11
4.410219e-09 -2.541704e-09 -6.006425e-10 2.348209e-10 1.062578e-10 -1.373762e-10
5.749388e-09 -1.913026e-08 2.693215e-09 3.530819e-09 7.676442e-10 8.999071e-11
6.532606e-09 -2.033804e-08 3.226047e-09 3.132043e-09 6.410193e-10 3.093867e-10
5.770880e-09 -1.919943e-08 3.399548e-09 2.494943e-09 2.180719e-10 -1.174816e-10
7.589664e-09 -2.006324e-08 3.115776e-09 3.046495e-10 4.575984e-10 -4.936297e-11
-2.866110e-09 5.695918e-09 -9.001201e-09 2.122149e-09 -5.363705e-10 3.128688e-10
-4.885076e-09 5.504903e-09 -3.215768e-09 -2.939833e-09 -5.725991e-10 1.289134e-09
-5.873048e-09 8.236195e-09 -5.271915e-09 -3.362360e-09 -1.898313e-09 3.723956e-09
-5.884650e-09 1.080139e-08 -1.134910e-08 -9.569909e-10 -4.330728e-09 6.023691e-09
-4.548268e-09 8.723209e-09 -6.836343e-09 -2.931727e-09 -1.148164e-09 1.553836e-09
2.759778e-08 -1.276828e-08 1.307137e-08 1.011414e-08 9.145145e-10 5.713608e-09
-4.046933e-09 1.717012e-09 7.478951e-10 1.552545e-10 9.169332e-12 -5.476886e-11
2.231013e-08 -8.974222e-09 6.486336e-09 1.103425e-08 5.184878e-10 3.742197e-09
2.341200e-08 -2.005664e-08 2.372376e-08 7.730708e-09 4.547446e-09 1.108723e-08
1.974696e-08 -2.395332e-08 2.556903e-08 1.177477e-08 3.753588e-09 1.294439e-08
2.265779e-08 -8.899932e-09 1.388507e-08 1.560646e-08 1.338573e-09 -4.442743e-09
2.216970e-08 -9.736594e-09 2.824711e-08 1.834536e-08 1.659040e-09 5.589774e-09
5.539960e-09 -2.717016e-09 -6.973029e-10 -1.654047e-09 7.648603e-13 3.752065e-11
4.399677e-09 -1.778825e-09 -6.083418e-10 -2.564425e-09 -1.171332e-10 -2.099152e-10
6.293399e-09 -1.900100e-08 3.408812e-09 -2.208724e-09 1.717684e-10 -3.828640e-10
6.059931e-09 -2.733417e-09 -6.324612e-10 -2.042062e-09 -7.930101e-12 1.740430e-11
5.577577e-09 -2.634186e-09 -6.592900e-10 -2.408939e-09 -1.410154e-10 3.007341e-10
5.563319e-09 -2.837196e-09 -7.275336e-10 -1.411799e-09 -7.612222e-11 2.909921e-10
4.938524e-09 -2.354930e-09 -6.237997e-10 -2.864799e-09 3.185576e-12 1.828133e-10
8.281420e-09 -4.644806e-09 2.193128e-09 -5.554069e-09 3.983350e-10 -1.757998e-10
4.529700e-09 -6.983464e-10 2.157668e-09 -8.139699e-09 -2.434244e-10 6.566370e-10
7.826493e-09 -3.057370e-09 2.205822e-09 -5.951468e-09 2.106529e-10 -5.625344e-11
6.878413e-09 -1.772228e-09 2.445081e-09 -7.479751e-09 2.210650e-10 -7.885403e-10
9.661714e-09 -2.196432e-08 -4.801350e-10 -2.160718e-09 8.279062e-10 -1.011244e-10
9.661714e-09 -2.100528e-08 6.611574e-10 -2.143588e-09 1.874114e-09 -8.242385e-11
7.875105e-09 -2.038346e-08 1.690069e-09 -2.376750e-09 9.203997e-10 6.406948e-11
8.483798e-09 -2.037604e-08 1.570112e-09 -2.128448e-09 6.164675e-10 -2.684932e-10
9.266470e-09 -2.194717e-08 6.066507e-10 7.703691e-10 -3.407307e-10 -7.320433e-11
7.844513e-09 -2.156127e-08 1.564401e-09 -2.402576e-10 7.592855e-10 -1.793796e-10
7.887254e-09 -2.135643e-08 1.729807e-09 -3.342153e-10 2.667023e-11 1.271666e-10
7.875106e-09 -2.096374e-08 8.041185e-10 -2.301033e-09 1.640430e-10 1.313435e-10
2.997003e-09 -9.016883e-10 -4.990763e-10 -1.385907e-09 -1.110396e-10 1.398568e-10
1.246357e-09 -3.011991e-10 -4.021476e-10 -1.746280e-09 -2.775846e-11 -3.660339e-11
1.787999e-09 -3.517364e-11 -3.254996e-10 -1.571903e-09 -6.385478e-11 5.130035e-11
1.093325e-08 -2.659976e-08 9.156471e-10 2.148195e-10 -1.349384e-09 9.660694e-11
-3.261410e-08 5.089191e-08 -7.041184e-09 5.486300e-09 1.566531e-08 -1.203088e-09
-1.751429e-08 1.924002e-08 1.603390e-09 5.621554e-09 -5.110018e-09 1.019025e-08
-6.992947e-09 4.242327e-08 -2.100466e-08 1.009071e-08 9.061237e-09 -1.693923e-09
-1.589573e-08 4.246004e-08 -3.367547e-09 1.098413e-08 7.931015e-09 -6.274592e-09
-2.469031e-08 1.139908e-08 3.657939e-08 1.917677e-08 2.568920e-08 1.640165e-09
1.490756e-08 -3.058637e-08 -2.125217e-09 -1.631298e-09 -1.369873e-08 1.861108e-10
1.199510e-08 -2.734593e-08 -1.481733e-09 5.936447e-10 -3.477425e-09 7.212184e-10
1.244053e-08 -3.038598e-08 1.503131e-09 -6.199228e-10 -6.084715e-09 6.341216e-11
1.167804e-08 -2.803544e-08 3.179688e-09 -6.327972e-11 -3.417704e-09 2.734161e-10
1.284853e-08 -2.558691e-08 -3.910792e-10 -2.433378e-09 -5.740010e-09 2.325843e-10
1.267548e-08 -2.723180e-08 5.977339e-10 -2.549486e-09 -7.170905e-09 -3.719551e-10
1.222844e-08 -2.778064e-08 -4.991411e-10 -8.849519e-10 -5.142861e-09 -2.839728e-11
4.950280e-09 -1.898921e-08 3.540276e-09 2.555743e-09 7.878667e-10 -1.321414e-10
4.628022e-09 -1.815972e-08 3.894900e-09 7.552816e-10 3.184453e-10 2.422418e-10
5.903715e-09 -1.954558e-08 3.831156e-09 5.026592e-10 4.677703e-11 1.096815e-10
5.855502e-09 -1.893950e-08 3.856174e-09 2.700417e-10 -1.464953e-10 1.129078e-10
5.261432e-09 -1.768512e-08 3.716747e-09 8.951333e-10 -3.343642e-11 1.334415e-10
4.811401e-09 -1.742362e-08 3.741371e-09 7.504806e-10 -1.429341e-10 8.794143e-11
4.147188e-09 -1.680420e-09 -2.066467e-10 2.726723e-09 -1.004612e-10 -3.804133e-10
3.655716e-09 -1.657972e-09 -2.798055e-10 2.654728e-09 1.153440e-10 6.619016e-11
3.865964e-09 -1.681541e-09 -2.158780e-10 2.758672e-09 2.098007e-10 1.935562e-10
4.885697e-09 -2.542221e-09 -7.140848e-10 -9.880735e-11 -7.809653e-11 5.183765e-11
5.250914e-09 -2.783874e-09 -6.917311e-10 -2.125474e-10 -4.507522e-11 1.256173e-10
5.044397e-09 -2.631874e-09 -7.071108e-10 -7.279735e-10 -8.223142e-11 2.562395e-11
5.350126e-09 -2.783666e-09 -7.148624e-10 -2.030103e-10 -4.682056e-11 -6.710588e-11
5.181226e-09 -2.806818e-09 -7.260910e-10 -3.122002e-10 -1.800496e-11 -2.354184e-11
6.478735e-09 -1.924041e-08 3.567286e-09 -3.281406e-10 -1.057126e-10 -1.730701e-10
4.251214e-09 -1.489172e-08 3.264196e-09 -6.593315e-10 -3.443399e-10 -4.664930e-10
5.633844e-09 -1.662819e-08 2.889255e-09 -2.381561e-09 3.771958e-10 -7.165571e-11
6.081489e-09 -1.806825e-08 3.053467e-09 -2.756758e-09 8.683411e-10 -2.746243e-10
4.098427e-09 -1.427054e-08 3.027822e-09 -1.413524e-09 1.851406e-10 -2.169287e-10
4.152598e-09 -1.411568e-08 3.124350e-09 -1.150453e-09 4.250461e-11 -3.422458e-10
5.132158e-09 -1.704730e-08 3.455865e-09 -1.103966e-09 -4.435940e-11 -4.914155e-10
6.112687e-09 -1.813507e-08 3.552193e-09 -1.094089e-09 2.972034e-10 -1.881788e-10
4.210420e-09 -1.461828e-08 3.317952e-09 -9.349774e-10 1.361873e-10 -3.379232e-10
4.244191e-09 -1.515063e-08 3.284207e-09 -6.066976e-10 -4.787846e-10 -4.209905e-10
-1.718645e-08 3.612370e-08 -7.818334e-09 -1.011161e-08 -2.367346e-09 -7.326265e-09
-1.004349e-08 3.735023e-08 -1.842421e-08 -4.292917e-09 2.660980e-09 -8.746200e-09
1.126263e-08 1.387709e-09 -3.050148e-08 3.353086e-09 -5.542579e-09 1.627895e-09
1.130123e-08 -8.026651e-09 -2.289463e-08 4.253276e-09 -4.100315e-09 1.546605e-09
1.124153e-08 -6.176131e-09 -2.503395e-08 4.797830e-09 -1.283141e-08 3.099051e-09
1.126703e-08 -3.324462e-09 -2.690060e-08 3.943906e-09 -4.322965e-09 2.029364e-09
-5.071426e-09 9.965335e-10 3.821203e-10 -3.223873e-10 -2.611764e-10 -3.697753e-10
-5.103896e-09 1.086626e-09 6.029404e-10 1.854592e-10 -1.102269e-10 -1.568510e-10
-4.580942e-09 1.699200e-09 6.163519e-10 -3.894487e-10 -1.125373e-10 -4.841538e-11
-4.671644e-09 1.987267e-09 4.584457e-10 -9.285317e-10 -1.242615e-10 2.141098e-10
-4.776322e-09 2.213366e-09 3.395701e-10 -1.485186e-09 -3.945584e-10 9.770296e-11
-2.934667e-09 6.531704e-08 -5.390803e-08 1.214147e-08 -7.632139e-09 -5.259032e-09
-2.209789e-08 5.293353e-09 1.037487e-07 2.284478e-08 -2.522570e-08 -4.682398e-08
4.049157e-09 7.000840e-09 -2.276266e-08 -8.664815e-09 -3.395404e-09 -2.408735e-09
-1.278183e-08 2.029826e-08 3.358332e-08 1.817712e-08 -1.141302e-08 5.971464e-09
-5.315297e-10 -8.082139e-09 2.678341e-09 -1.312626e-09 -2.155935e-10 -4.316882e-10
-1.670436e-09 -4.925139e-09 2.160280e-09 -1.444042e-09 3.801692e-10 -5.173206e-10
-1.712846e-09 -4.129133e-09 1.852314e-09 -1.664822e-09 1.526950e-10 -3.496448e-10
-1.344672e-09 -5.856783e-09 2.462468e-09 -1.973012e-09 -1.320722e-10 -2.035643e-10
-8.298703e-10 -6.055970e-09 2.266759e-09 -4.960901e-11 1.072836e-11 -3.638973e-10
-8.329208e-10 -6.336279e-09 2.190415e-09 -1.635888e-10 1.370436e-10 -4.878262e-10
-1.444691e-09 -5.982130e-09 2.141657e-09 -1.174203e-10 1.012035e-11 -2.630753e-10
1.212809e-08 -2.512302e-08 -1.787909e-09 -3.703873e-10 -6.539073e-10 -5.301870e-11
1.102463e-08 -2.319177e-08 -3.284699e-09 -3.218692e-10 -1.536123e-09 -1.873539e-10
1.062234e-08 -2.575886e-08 -2.873719e-09 -4.304643e-09 -7.276259e-09 -2.887752e-09
1.214354e-08 -2.389086e-08 -3.238014e-09 -5.425154e-10 -1.125486e-09 1.312768e-10
1.204949e-08 -2.374353e-08 -4.083621e-09 -8.374123e-10 -3.666426e-09 -3.114844e-10
1.221718e-08 -3.251537e-09 9.146541e-09 -1.769427e-08 -2.407668e-09 5.442048e-09
5.446750e-09 -5.506780e-09 3.688442e-08 -2.496887e-08 -9.741232e-09 1.120787e-08
3.760501e-10 -3.625992e-09 3.537882e-08 -2.389290e-08 -7.528654e-09 7.640237e-09
9.431929e-09 3.504852e-09 7.582792e-09 -1.889774e-08 4.818710e-11 2.290143e-09
5.233790e-09 -3.416168e-09 2.484494e-08 -2.252966e-08 -6.070948e-09 8.020923e-09
-7.406185e-09 6.573016e-09 -6.693552e-09 -4.433463e-09 -3.419297e-09 -1.807335e-09
-7.146453e-09 9.642735e-09 -9.806546e-09 -3.816807e-09 -1.943427e-09 -1.373919e-09
-4.770302e-09 1.250492e-08 -9.826086e-09 -1.127591e-09 -2.501076e-09 -2.036789e-09
-5.233259e-09 1.274706e-08 -1.050606e-08 4.575501e-10 -3.925424e-09 -4.771665e-09
-6.014664e-09 1.264520e-08 -7.759794e-09 1.788991e-09 -1.122154e-09 -9.261148e-10
-5.927195e-09 1.256146e-08 -1.238115e-08 -1.058168e-10 -3.194376e-09 -3.562878e-09
6.049501e-09 9.596716e-09 -2.608205e-08 3.400690e-09 -3.914597e-09 1.146561e-09
1.208676e-08 1.079399e-08 -4.096849e-08 -4.800217e-10 -6.431246e-09 3.229821e-09
1.113027e-08 1.398535e-09 -2.870431e-08 3.552983e-09 -1.410231e-08 4.415435e-09
7.579759e-09 1.809137e-08 -4.560202e-08 -1.474986e-09 -2.027142e-08 5.574083e-09
8.695304e-09 1.182113e-08 -3.973701e-08 4.311739e-09 -1.809403e-08 1.010266e-08
1.195390e-08 1.690068e-08 -4.266204e-08 -1.318983e-09 -5.112796e-09 2.348086e-09
1.262383e-09 -2.683815e-08 7.199020e-08 -4.965037e-09 -3.139415e-09 1.556513e-08
-3.891806e-09 6.477273e-09 4.169761e-08 2.326857e-08 -1.135658e-09 4.178986e-09
-2.752735e-08 -1.596088e-09 9.407271e-08 2.705641e-08 2.926117e-08 1.849744e-08
-1.386816e-08 -1.297821e-08 9.525451e-08 1.981862e-08 2.705679e-08 2.251583e-08
1.362272e-08 -2.407242e-08 7.507702e-08 1.205610e-08 4.902743e-09 2.006890e-08
3.620263e-09 -2.810718e-08 9.888875e-08 2.414702e-08 2.034502e-08 2.042859e-08
1.578982e-08 -1.954595e-08 -1.071538e-08 -2.411510e-09 5.527506e-09 6.624251e-10
1.215122e-08 -2.279860e-08 -4.008204e-09 -4.898759e-10 2.234274e-09 -2.167213e-10
1.163717e-08 -2.163328e-08 -6.954944e-09 -4.608382e-09 5.359024e-09 9.111028e-10
1.323354e-08 -2.271166e-08 -1.058564e-08 1.296400e-09 5.170658e-09 5.293304e-10
-3.090478e-09 1.693766e-09 4.551519e-10 4.077573e-10 7.841003e-11 -9.569412e-11
-3.307060e-09 1.813735e-09 4.683343e-10 1.423544e-10 4.227502e-11 2.948286e-11
-3.023294e-09 1.590920e-09 4.085878e-10 3.946231e-10 -4.839453e-11 -1.232334e-10
-3.297957e-09 1.580685e-09 5.157865e-10 5.520437e-10 1.613309e-11 -7.615686e-11
-3.201819e-09 1.483341e-09 5.604737e-10 4.789760e-10 -1.558820e-11 -8.821499e-12
-3.662399e-09 1.785219e-09 5.824732e-10 2.853868e-10 -1.169020e-11 -1.525224e-12
5.834912e-09 -8.892824e-09 -1.585173e-08 1.534230e-08 3.458384e-09 -2.898895e-09
5.354879e-09 -3.696521e-09 -2.149959e-08 1.637708e-08 9.611385e-09 -3.642891e-09
5.278388e-09 -2.966395e-09 -1.910688e-08 1.622506e-08 4.495468e-09 -2.144510e-09
1.351513e-08 -7.548985e-09 -2.490026e-08 1.289725e-08 3.677999e-09 -2.603977e-09
7.080142e-09 -3.975740e-09 -3.887869e-10 -1.582829e-09 2.192918e-11 -2.025417e-11
7.610409e-09 -3.112345e-09 6.023004e-11 -3.565769e-09 1.829536e-12 -6.442002e-11
8.730440e-09 -3.886092e-09 -2.589600e-10 -1.130808e-09 4.246092e-11 -2.637738e-10
8.089001e-09 -3.995682e-09 2.025096e-10 -2.452927e-09 -1.394503e-11 -7.140479e-10
7.607616e-09 -4.024827e-09 -2.566809e-10 -2.256857e-09 7.063172e-11 -2.222577e-10
-1.732255e-09 1.533993e-09 -3.975487e-11 -9.275842e-10 -7.098877e-11 5.384471e-11
-1.644087e-09 1.896518e-09 1.012657e-11 -1.039952e-09 -6.815548e-11 -1.646031e-11
-1.653826e-09 1.983096e-09 4.911271e-11 -1.065513e-09 -8.343903e-11 -2.008505e-12
-1.540753e-09 1.597750e-09 -2.472689e-12 -1.043316e-09 -2.251776e-10 1.408162e-11
-2.656227e-09 1.968679e-09 1.389731e-10 -9.866810e-10 -1.126166e-10 -7.807954e-11
-2.003741e-09 1.954697e-09 3.577916e-11 -1.374520e-09 -1.866827e-10 -1.121845e-10
-1.114118e-09 1.561892e-09 -1.291104e-10 -1.159686e-09 -1.058662e-10 -1.470962e-11
-1.219800e-09 1.543331e-09 -2.157385e-11 -1.208319e-09 -1.547107e-10 -2.143340e-10
-1.372386e-08 1.965370e-08 -6.904957e-09 4.499149e-10 -9.908001e-10 -1.014844e-09
-1.231980e-08 1.402425e-08 -1.990077e-09 -7.679672e-10 -1.462457e-09 6.046035e-10
1.300840e-08 -1.899950e-08 -9.615482e-09 -1.924003e-09 -1.734842e-09 -1.845923e-10
-4.442333e-09 -5.535362e-09 7.677086e-10 8.144918e-09 8.876820e-10 2.721943e-10
-1.272061e-08 1.399682e-08 -2.499551e-09 -8.445010e-10 5.291782e-10 2.363889e-09
-1.275046e-08 1.963876e-08 -1.810545e-09 1.699873e-09 2.066784e-10 2.087001e-09
-4.490264e-09 -4.517634e-09 3.026849e-08 -2.733588e-08 -1.219545e-08 5.646848e-09
8.707040e-10 -3.536011e-08 7.869137e-08 -1.854406e-09 -2.018961e-09 1.741304e-08
-7.239994e-09 -1.164843e-09 1.923334e-09 4.650634e-09 1.356494e-09 -8.465318e-11
-4.845026e-08 1.433103e-08 1.411328e-07 -2.245239e-08 -6.707743e-08 1.946990e-08
-1.559327e-09 -3.519387e-08 1.035444e-07 -2.259017e-09 4.477693e-10 5.074554e-09
-4.387742e-08 5.201379e-09 1.303805e-07 -1.857325e-08 -1.297593e-09 1.130920e-08
-3.113991e-08 3.567058e-08 1.632059e-08 -1.704415e-08 -7.625397e-09 -2.096245e-09
-3.054170e-08 -3.898734e-09 8.625251e-08 -2.986008e-08 -1.217860e-08 1.329678e-08
-2.689613e-08 3.417777e-08 2.540795e-08 -1.854762e-08 -2.673269e-08 -1.855977e-09
1.920060e-08 -5.273947e-09 -2.797673e-09 1.729195e-09 2.482949e-10 1.446601e-09
1.786767e-08 -4.069776e-09 -4.299840e-09 3.209771e-09 -5.799898e-10 -1.686817e-09
2.547300e-08 -8.615368e-09 -3.765004e-09 1.910799e-09 -2.541679e-10 1.289231e-10
3.008177e-08 -1.004845e-08 2.087474e-09 2.262404e-09 -4.342888e-10 5.112678e-09
2.161692e-08 -5.533693e-09 -2.181311e-09 5.240148e-09 1.014864e-10 4.948479e-10
4.622146e-09 -3.631527e-09 -1.333458e-08 5.897621e-09 -2.141728e-09 1.201833e-09
7.670966e-10 1.442833e-10 -2.834444e-10 -2.102198e-09 -1.998176e-10 -2.453668e-10
5.562027e-09 -1.487838e-08 -3.358795e-09 1.052371e-08 1.785247e-09 -1.157055e-10
3.317448e-09 -1.526164e-08 5.182446e-10 7.287170e-09 2.808062e-10 -1.430978e-11
1.302384e-09 -1.101539e-08 -1.037182e-09 9.476927e-09 -7.906164e-11 4.529954e-10
1.480711e-09 -1.335114e-08 -3.509371e-10 8.573648e-09 8.466776e-10 6.555379e-11
-1.383389e-09 1.303409e-09 -6.261969e-11 -2.629854e-09 -2.351197e-10 -2.736567e-11
1.894240e-09 -1.400961e-08 -1.236909e-09 1.059035e-08 8.838978e-10 -2.376822e-10
-4.306365e-09 4.340452e-09 9.524630e-10 2.539872e-09 2.783262e-11 -2.843870e-10
-4.279232e-09 2.977197e-09 7.546435e-10 1.164225e-09 1.191423e-10 -2.167277e-10
-2.646527e-09 1.972918e-09 1.857794e-10 -2.468635e-09 -6.617816e-12 -2.626606e-10
-4.304474e-09 2.172604e-09 7.434302e-10 8.722778e-10 3.764855e-11 -2.550170e-10
-2.523389e-09 1.854477e-09 6.079792e-10 1.909732e-09 -5.187739e-11 -2.154557e-10
-2.694499e-09 2.470271e-09 8.073271e-10 3.307328e-09 -8.493185e-11 -5.273586e-10
-1.458538e-09 1.456837e-09 6.392014e-10 2.943810e-09 2.076200e-11 -3.520306e-10
-2.932397e-09 2.222211e-09 6.727663e-10 2.600774e-09 -2.068726e-10 -5.371406e-10
-2.879132e-09 2.123414e-09 5.843930e-10 2.237807e-09 2.299526e-10 2.747285e-10
1.735143e-08 -8.345349e-09 6.231801e-09 1.333016e-08 2.946712e-09 2.389014e-09
2.727603e-08 -1.276828e-08 2.138478e-08 1.237492e-08 -1.288673e-09 1.605009e-09
1.697318e-08 5.796662e-10 3.231990e-09 1.610297e-08 2.167333e-09 1.577744e-09
7.784201e-09 6.654035e-09 1.017465e-08 1.771308e-08 -3.186225e-10 4.464141e-09
2.594387e-09 -5.694094e-10 -8.257284e-12 3.642328e-09 1.604645e-10 1.740887e-10
2.462361e-09 -5.751075e-10 1.118079e-10 3.591733e-09 1.236324e-10 1.841072e-10
-1.534803e-10 4.208034e-10 3.159966e-10 2.948491e-09 2.687550e-10 1.166662e-10
2.816226e-09 -5.824736e-10 1.178497e-10 3.545222e-09 -2.338149e-13 -4.636653e-10
-3.817994e-09 -2.847900e-09 7.444401e-11 2.744230e-09 -1.171393e-09 -3.828671e-11
-2.851961e-09 -2.524041e-09 -7.446186e-10 2.240848e-09 -1.100405e-09 2.613798e-10
-4.058651e-09 -2.326200e-09 4.078471e-11 1.823165e-09 -5.938581e-10 2.390632e-10
-4.063353e-09 -2.030365e-09 7.601160e-10 1.650698e-09 -2.686731e-10 -1.876053e-10
-1.861178e-09 -4.143166e-09 7.339418e-10 9.849865e-10 -8.899224e-10 1.517373e-10
-1.985494e-09 -6.120477e-09 9.839463e-11 1.957994e-09 -2.151676e-09 5.274330e-10
2.626472e-09 8.131860e-10 -1.802508e-08 -8.702907e-09 -8.795869e-09 -2.923555e-09
4.188820e-09 7.174400e-10 -2.258207e-08 -8.937329e-09 -1.186969e-08 -3.116040e-09
4.005289e-09 -9.831194e-10 -1.595620e-08 -9.487111e-09 -2.912546e-09 -1.830751e-09
-1.688481e-09 1.342205e-09 -7.355716e-11 -1.716652e-09 -1.886524e-10 1.560640e-12
3.865436e-09 -2.078107e-09 -5.426266e-10 3.916594e-10 1.582130e-10 -5.920237e-11
8.236827e-09 -4.146134e-09 1.588818e-10 6.768015e-10 1.014925e-10 2.584727e-10
6.813328e-09 -3.029663e-09 -1.950808e-10 2.664596e-09 -1.043698e-10 -6.879728e-10
6.637419e-09 -3.478709e-09 -3.856386e-10 1.279109e-09 3.739448e-11 2.792073e-10
7.819598e-09 -3.599004e-09 -2.665650e-10 1.474708e-09 6.352140e-11 -1.746515e-10
8.874135e-09 -4.678629e-09 8.801653e-10 1.170166e-09 8.328271e-11 -1.020829e-09
8.831764e-09 -3.910359e-09 1.450627e-09 3.045223e-09 8.442444e-12 -5.583040e-10
9.290496e-09 -4.352993e-09 1.218341e-10 7.757608e-10 -3.116454e-11 -6.248915e-10
5.473292e-09 -2.217141e-09 1.285918e-09 4.238879e-09 -1.569070e-11 -1.079047e-09
6.550158e-09 -3.675410e-09 3.213732e-10 2.357632e-09 3.285216e-11 -4.586963e-10
5.983012e-09 -9.129433e-10 2.919463e-09 -8.491514e-09 5.734169e-10 -2.049514e-09
1.193816e-08 -5.221763e-09 3.157594e-09 -2.209208e-09 1.725475e-10 -1.770631e-09
3.989763e-09 -1.963121e-09 -5.827555e-10 -5.811567e-10 -2.250530e-10 8.645595e-11
8.344329e-09 -3.442893e-09 4.031264e-09 -7.655057e-09 7.439827e-10 -1.578566e-10
1.234549e-08 -6.092445e-09 6.414219e-09 -1.799309e-10 -2.499922e-11 -3.377716e-09
1.052192e-08 -6.030613e-09 5.138458e-09 -3.542459e-10 6.104403e-10 4.151802e-10
1.200640e-08 -6.048366e-09 5.202885e-09 -9.718454e-11 -6.294043e-11 -4.233199e-09
3.338622e-09 -1.454463e-08 2.403545e-09 -3.635800e-09 4.558843e-11 -2.309757e-10
-1.759977e-09 2.069160e-09 -3.474607e-10 -3.983087e-09 -1.084217e-10 -4.242432e-10
4.732199e-09 -1.493589e-08 2.835513e-09 -2.903987e-09 3.057580e-10 -4.546743e-11
4.197776e-09 -1.490781e-08 2.732041e-09 -3.559108e-09 8.514158e-10 -3.329249e-10
3.001431e-09 -1.338129e-08 2.731863e-09 -3.018921e-09 2.700514e-10 -4.867180e-10
2.920416e-09 -1.393394e-08 2.693712e-09 -3.074582e-09 5.981863e-10 -8.661047e-11
3.941260e-09 -1.929447e-09 -6.037932e-10 -1.778919e-10 -1.843858e-11 3.179679e-11
3.426209e-09 -1.585172e-08 2.867567e-09 -3.383747e-09 4.886218e-10 -2.719036e-11
4.589494e-09 -1.759095e-08 3.157927e-09 -3.081696e-09 7.104160e-10 -5.239379e-10
-2.742784e-10 5.105899e-09 -1.770037e-09 -8.151114e-09 9.432891e-12 5.166618e-10
1.294840e-10 9.597034e-11 -7.079892e-11 1.079860e-09 2.743324e-10 -5.830875e-11
3.460275e-09 1.896374e-09 9.745071e-11 -9.231152e-09 1.077440e-10 -1.778482e-10
1.701753e-09 1.632710e-09 3.621854e-10 -8.513511e-09 2.764100e-11 -1.970977e-10
-7.476655e-10 3.526280e-09 -9.240102e-10 -7.375394e-09 6.925483e-11 -3.514497e-10
-2.588461e-09 4.373476e-09 -1.691675e-09 -6.838218e-09 7.547163e-11 3.407717e-10
-1.762509e-09 -4.444416e-09 1.413305e-09 -4.337573e-09 4.766831e-10 1.040148e-10
-3.519185e-09 -2.724687e-09 1.263138e-09 -4.179044e-09 1.610614e-10 -1.132514e-10
-3.499514e-09 -1.317475e-09 1.020549e-09 -3.927888e-09 -7.875611e-11 -3.387840e-10
-3.542516e-09 -3.657973e-09 1.616382e-09 -4.491487e-09 -2.691545e-10 -2.387671e-10
-7.236947e-10 -6.311389e-09 3.396110e-10 -5.666696e-09 1.125129e-09 4.245120e-10
-3.530744e-09 -2.498066e-09 1.301704e-09 -4.313430e-09 1.466118e-10 -8.999579e-11
-5.443945e-09 2.455633e-09 8.257195e-10 -1.095659e-09 -2.477307e-10 -5.134104e-10
-4.622490e-09 2.148504e-09 9.469336e-10 -6.768563e-10 6.248024e-11 -3.219853e-10
-4.325173e-09 2.539253e-09 7.433774e-10 7.576377e-10 3.831169e-11 -2.569702e-10
-5.453068e-09 1.087356e-09 9.738206e-10 -1.893523e-09 -5.151346e-11 -3.040723e-10
-3.910281e-09 2.440327e-09 5.980265e-10 -4.779168e-10 -6.046275e-11 -7.167522e-11
-3.518039e-09 2.689788e-09 2.526617e-10 -2.675260e-10 -4.818190e-11 -1.007489e-10
-3.307341e-09 2.395479e-09 2.634168e-10 -7.320269e-10 -5.145429e-11 -1.064938e-10
-4.059749e-09 2.519034e-09 4.835961e-10 -4.898347e-10 -4.624301e-11 -2.068655e-10
-2.618629e-09 2.316578e-09 1.912948e-10 -8.314460e-10 -1.310960e-10 -1.082388e-10
-3.572925e-09 2.387985e-09 2.964680e-10 -1.208657e-09 -2.015080e-10 -2.553465e-10
-3.581221e-09 2.514966e-09 3.212564e-10 -7.581622e-10 -9.381018e-11 -2.002515e-10
-3.728694e-09 2.641748e-09 3.688452e-10 -3.392157e-10 -3.778533e-11 -1.402713e-10
-4.760296e-09 2.356233e-09 -2.434100e-09 7.029102e-11 -1.625576e-09 8.764078e-10
-5.038911e-09 3.582127e-09 -1.794710e-09 -1.320580e-09 -4.517435e-10 8.085368e-10
-5.160169e-09 3.845808e-09 -3.769097e-09 3.097244e-10 -5.373726e-10 1.195518e-09
-5.145974e-09 1.564196e-09 -2.246106e-09 1.294754e-09 -1.444723e-09 1.184702e-09
6.664417e-09 5.936461e-08 -6.651706e-08 6.896780e-09 2.553474e-09 -2.682067e-09
1.786856e-08 5.996895e-08 -9.526128e-08 2.579570e-09 2.325715e-08 -3.126516e-09
1.335873e-08 5.991593e-08 -9.805752e-08 1.922724e-09 2.375429e-08 4.312049e-10
-4.858132e-09 3.099236e-10 9.178862e-10 -3.168533e-09 2.891261e-10 8.498835e-11
-4.899278e-09 -1.276452e-09 1.278409e-09 -3.636850e-09 -2.085174e-10 -2.859064e-10
-4.656866e-09 9.998260e-10 1.004824e-09 -1.208194e-09 -9.314705e-11 -3.516485e-10
-4.868484e-09 -3.669287e-11 9.773125e-10 -3.076739e-09 3.397038e-11 -2.612364e-10
7.530208e-09 -2.043999e-08 3.395947e-09 3.381737e-09 9.904329e-10 -9.954548e-11
9.104429e-09 -1.205400e-10 -4.749174e-10 -3.311394e-09 4.447886e-11 3.430540e-09
1.626389e-08 1.429653e-09 -1.049798e-09 -9.624625e-09 -5.373757e-10 5.943922e-10
1.257592e-08 1.351672e-09 -2.275699e-09 -5.486222e-09 3.290592e-10 2.871384e-10
-3.387651e-09 -1.358167e-09 1.578116e-09 -1.743072e-09 2.545317e-10 -3.654950e-10
-2.208035e-09 7.149301e-09 -9.947407e-10 -6.357799e-09 3.818825e-10 -6.924541e-10
8.806573e-09 4.384086e-09 -1.431195e-09 -6.609353e-09 1.023348e-09 9.332245e-10
5.165007e-09 -1.470692e-08 -2.118943e-09 -7.659002e-09 8.070760e-10 1.344112e-10
1.937654e-09 -1.159294e-08 6.212950e-10 -7.537564e-09 -3.787628e-10 -4.968397e-10
5.396657e-09 -1.576189e-08 -1.080295e-09 -7.074139e-09 2.205812e-10 -4.114337e-10
2.498814e-09 -1.159822e-08 -2.901679e-12 -7.659775e-09 1.570991e-09 7.493647e-10
6.175430e-09 -3.024788e-09 -5.255660e-10 1.427496e-09 3.344976e-11 1.668549e-11
4.764229e-09 -2.297056e-09 -4.737690e-10 1.834071e-09 -9.264861e-11 -2.688552e-10
9.723860e-09 -7.217527e-09 2.243742e-08 -2.247002e-09 4.085814e-09 -7.700330e-09
4.973680e-09 -2.458893e-09 -5.759526e-10 1.477956e-09 1.319690e-10 1.234584e-10
5.873237e-09 -3.005343e-09 -5.838041e-10 1.265934e-09 4.389769e-11 2.539229e-10
4.585548e-09 -2.266328e-09 -4.568173e-10 1.807751e-09 1.570758e-10 2.357681e-10
4.341659e-09 -1.426963e-08 -3.525690e-09 -6.065641e-09 -6.232106e-09 -1.333582e-09
-3.913513e-09 2.304551e-09 3.567835e-10 -1.541958e-09 -5.618572e-11 -2.431527e-10
7.830694e-09 -2.467036e-08 -1.927619e-09 -9.858891e-09 -1.064238e-08 -3.190816e-09
1.033918e-08 -2.227187e-08 -1.949335e-09 -2.315279e-09 -4.809945e-09 -4.023336e-10
7.610351e-09 -2.059371e-08 1.519895e-09 -5.188726e-09 -3.562523e-09 -1.098640e-09
1.067179e-08 -2.478982e-08 -1.863112e-09 -9.577049e-09 -1.043661e-08 -2.464306e-09
8.306573e-10 9.076873e-10 5.369012e-10 4.042980e-09 -5.485612e-11 -5.567617e-10
1.057758e-09 9.074177e-10 3.026779e-10 4.225852e-09 -1.964301e-10 -4.930976e-10
-6.258123e-10 1.001698e-09 3.266143e-10 3.270327e-09 8.486581e-11 -2.300493e-10
-1.660986e-09 1.453412e-09 5.394165e-10 2.978302e-09 -5.903058e-12 -2.084874e-10
-2.540349e-09 1.805445e-09 6.729381e-10 1.880846e-09 1.581153e-10 -8.427670e-11
-1.261801e-09 2.072036e-09 4.222667e-10 3.117036e-09 3.568255e-10 6.016953e-11
2.656435e-09 -1.084224e-09 -3.326979e-10 1.570937e-09 3.915343e-11 1.133715e-11
2.658172e-09 -1.093433e-09 -4.255805e-10 1.558534e-09 -2.964556e-11 -1.694482e-10
2.391027e-09 -6.165974e-10 -1.857936e-10 2.789601e-09 -2.438767e-11 -2.437268e-10
4.984796e-09 -1.855235e-08 3.720344e-09 9.139445e-10 3.187907e-10 -1.006071e-10
3.361932e-09 -1.462821e-09 -3.454406e-10 1.922418e-09 -1.576628e-11 -2.293219e-10
3.165995e-09 -1.482540e-09 -3.482090e-10 1.976248e-09 4.080847e-11 1.055838e-10
6.913655e-09 -5.922097e-09 -1.583973e-08 -1.212036e-08 1.765786e-09 5.044746e-10
6.399777e-09 -1.994402e-08 3.695326e-09 6.055174e-10 2.309041e-10 -7.424483e-11
-2.274144e-09 1.248393e-09 2.494591e-10 6.251432e-10 -1.427605e-11 -1.158984e-11
8.659598e-09 -9.682198e-09 -2.485680e-08 -1.564314e-08 1.209881e-08 6.788264e-09
8.659598e-09 -8.110791e-09 -2.696104e-08 -1.546527e-08 1.166362e-08 6.950644e-09
1.680418e-08 -9.009339e-09 -3.462110e-08 -6.850028e-09 6.755864e-09 1.476896e-09
1.677040e-08 -1.157278e-08 -2.752281e-08 -6.363244e-09 3.366629e-09 1.296312e-09
1.157230e-08 -1.543435e-08 -1.749884e-08 -9.067222e-09 4.395033e-09 6.871706e-10
3.182060e-10 -6.144070e-09 -4.845667e-09 -6.105543e-09 -2.007763e-09 -8.401579e-10
1.292434e-10 -5.127915e-09 -8.851386e-09 -8.131582e-09 -5.937523e-09 -2.106846e-09
3.148606e-10 -9.198285e-09 -4.020114e-09 -5.457393e-09 -1.127034e-09 -1.674286e-10
1.776479e-09 -4.272387e-10 -4.124967e-10 -1.492829e-09 -2.626181e-10 9.919543e-11
-2.287427e-09 1.720268e-09 -5.682699e-11 -2.336158e-09 -2.014042e-10 5.089074e-11
5.977711e-09 -1.468841e-08 -6.060662e-09 -5.061940e-09 -3.512899e-09 -3.134045e-10
1.017417e-08 -1.971346e-08 -6.868633e-09 -2.875049e-09 -3.639703e-09 -2.834239e-10
4.801528e-09 -1.130298e-08 -3.682743e-09 -4.951200e-09 -3.040116e-09 -4.689437e-10
-6.452837e-09 5.870043e-09 4.411764e-10 5.080138e-10 2.782855e-10 -1.370567e-10
-5.512113e-09 3.816847e-09 4.356226e-10 -4.349860e-10 1.005054e-10 8.726009e-11
-6.386497e-09 2.833087e-09 7.835039e-10 -1.497055e-09 1.109605e-10 -1.932570e-10
-6.572005e-10 1.306106e-09 -6.481482e-11 -2.576372e-09 -1.937049e-10 3.319922e-10
-4.675403e-09 3.807383e-09 9.972105e-10 2.027066e-09 -4.406542e-11 -2.712947e-10
-3.829262e-09 2.529774e-09 4.685856e-10 -6.143654e-10 -2.728773e-11 3.877021e-11
-4.528887e-09 2.494087e-09 6.013448e-10 -3.190510e-10 2.966072e-12 -8.639534e-11
-3.671945e-09 2.567392e-09 3.368532e-10 -7.027801e-10 -3.125944e-11 -1.244224e-10
1.771162e-09 -1.493462e-08 2.828557e-09 5.348859e-09 3.684229e-10 -7.513301e-11
-3.610650e-09 2.694167e-09 3.889176e-10 -1.885532e-10 -5.644152e-12 2.288680e-11
-3.743017e-09 2.691438e-09 3.734497e-10 -2.258211e-10 -9.661161e-12 -5.367551e-11
-4.252527e-09 2.543265e-09 5.548442e-10 -1.985621e-10 -4.762191e-12 -1.353211e-10
-4.215330e-09 2.498549e-09 5.331231e-10 -2.951870e-10 -6.477688e-11 -1.825966e-10
-3.924423e-09 2.561132e-09 4.181786e-10 -3.254963e-10 -3.117684e-11 -3.033234e-10
-4.130765e-09 2.686806e-09 4.721463e-10 -1.884082e-10 -2.836564e-11 -1.308140e-10
-3.948243e-09 2.678869e-09 4.334741e-10 -2.777583e-10 -1.404632e-11 -4.776202e-11
-2.643031e-09 3.451789e-09 -1.116842e-09 -5.093706e-09 -1.003508e-11 -5.488689e-10
-2.585484e-09 4.417007e-09 -1.555808e-09 -6.857331e-09 -4.614726e-10 7.639308e-10
-2.594521e-09 4.696807e-09 -1.386503e-09 -6.274932e-09 -2.405980e-10 -1.486011e-10
-1.347005e-09 2.926220e-09 -9.269723e-10 -5.834738e-09 -2.869118e-10 8.236174e-10
7.996235e-10 2.080416e-10 -4.187917e-10 -2.676243e-09 -6.904766e-11 -2.504301e-10
7.538781e-10 1.627558e-09 -5.416401e-10 -6.185319e-09 -2.522724e-10 3.645695e-10
-3.950553e-09 2.084231e-09 9.212919e-10 6.941071e-10 2.265787e-11 -1.342646e-10
-3.244051e-09 1.516137e-09 7.147563e-10 1.127550e-09 -1.000937e-10 -3.379865e-10
-3.438594e-09 1.487334e-09 8.039733e-10 9.532254e-10 -2.888187e-10 -3.931745e-10
-3.455496e-09 1.699216e-09 7.899081e-10 8.620651e-10 4.100378e-10 7.994505e-11
-2.719802e-09 2.238179e-09 1.799472e-10 -8.818768e-10 -6.442558e-11 -1.908433e-10
-3.087509e-09 2.395595e-09 1.769829e-10 -7.276419e-10 -5.161638e-11 -1.327046e-10
-3.859764e-09 2.547687e-09 3.699379e-10 -7.731855e-10 -5.453538e-11 -1.525065e-10
-3.611741e-09 2.693319e-09 3.297660e-10 -2.114299e-10 -1.638911e-11 -5.069536e-11
-2.851062e-09 2.241475e-09 3.288423e-10 -1.221302e-09 -8.061785e-11 -1.375322e-10
-3.534407e-09 2.312970e-09 3.332845e-10 -9.792435e-10 -6.109332e-11 -1.080083e-10
-3.159099e-09 2.504205e-09 2.914420e-10 -5.099121e-10 -4.794476e-11 4.806555e-11
-3.408784e-09 2.617024e-09 2.952447e-10 -8.933187e-10 -1.113005e-10 -1.633005e-10
-3.213332e-09 2.422357e-09 2.639053e-10 -7.823561e-10 -4.783088e-11 -1.132800e-10
7.468910e-10 -1.397489e-08 3.288903e-09 4.171114e-09 9.035444e-10 -4.395858e-10
1.077622e-10 -1.189758e-08 3.597604e-09 2.143631e-09 3.326188e-10 -5.660800e-11
2.550953e-09 -1.643085e-08 3.806795e-09 1.718402e-09 3.592466e-11 7.022960e-11
1.780178e-09 -1.322959e-08 3.347216e-09 4.142801e-09 1.973388e-10 1.598035e-10
1.937060e-09 -1.452042e-08 3.551088e-09 2.839818e-09 1.014939e-11 -2.550497e-10
1.781839e-09 -1.429810e-08 3.614908e-09 3.512175e-09 2.712502e-10 1.993556e-10
-4.115969e-09 -6.231210e-09 2.067884e-10 -3.624348e-09 -2.322732e-09 -8.015993e-10
-4.581056e-10 -6.063781e-09 -1.123913e-09 -3.035021e-09 -1.671147e-09 -5.080749e-10
-6.093689e-09 -2.718657e-09 2.003359e-09 -2.803591e-09 -1.017000e-09 -3.119461e-11
6.158780e-10 -1.464185e-08 1.882402e-09 -4.923011e-09 -3.509518e-09 -1.178171e-09
-3.584251e-09 -8.859473e-09 2.782732e-09 -3.011054e-09 -1.524793e-09 9.709925e-11
-1.900350e-09 -9.871250e-09 4.894920e-10 -1.405629e-09 -4.327845e-10 -2.873236e-10
-2.010636e-09 -7.990391e-09 6.742873e-10 -4.322657e-10 -1.459076e-09 -3.384603e-10
-2.337517e-09 -9.309952e-09 9.556000e-11 -2.237652e-09 -2.929208e-09 -6.691597e-10
-4.983878e-09 -6.298456e-09 7.423591e-10 -1.554541e-09 -4.591373e-10 -2.395355e-10
-3.504694e-10 -9.841216e-09 -5.347183e-10 -3.564082e-09 -1.915543e-09 -8.738927e-10
-3.946539e-09 -6.617230e-09 -1.017126e-09 -5.121328e-09 -2.003516e-09 -6.030518e-10
-4.288913e-09 -6.274876e-09 1.729170e-09 -3.753446e-09 -2.028054e-09 -7.864580e-10
-4.550031e-09 -2.311705e-09 1.142846e-09 -5.875494e-09 -2.908404e-09 -1.229888e-09
-3.931956e-09 -4.854350e-09 2.027583e-10 -3.856388e-09 -2.309637e-09 -5.262420e-10
1.443745e-08 5.681469e-08 -7.956922e-08 4.287985e-09 1.897643e-08 4.990272e-09
4.737278e-09 6.113530e-08 -9.421662e-08 7.800708e-09 2.892343e-08 -8.853660e-09
1.848495e-08 3.247184e-08 -6.692450e-08 5.531072e-09 1.165650e-08 -5.706065e-10
1.296398e-08 4.954842e-08 -9.684217e-08 5.913700e-09 3.596480e-08 -1.146338e-08
2.387517e-08 3.090988e-08 -7.954962e-08 -8.313050e-10 3.458827e-08 -1.529716e-09
1.675289e-08 3.173963e-08 -7.243629e-08 9.143760e-10 1.563529e-08 3.516088e-09
1.437525e-08 1.265795e-09 -3.591581e-08 -9.118801e-10 -5.900345e-09 1.018689e-09
1.223145e-08 3.897373e-09 -3.536871e-08 4.284796e-10 -1.636155e-08 3.538358e-09
1.280921e-08 1.378573e-09 -3.241688e-08 3.230752e-09 -1.496772e-08 5.696902e-09
1.433847e-08 -3.182843e-09 -3.074669e-08 -4.913999e-10 -3.703307e-09 9.472289e-10
1.360746e-08 -9.411652e-09 -2.043107e-08 1.341053e-09 -1.011927e-08 1.661975e-09
-2.282948e-09 1.971678e-09 4.195977e-11 -2.289549e-09 -4.248024e-11 8.299206e-11
-2.123918e-09 1.860507e-09 -1.050715e-10 -2.600093e-09 -1.064435e-10 -3.214835e-10
-3.068530e-09 2.203060e-09 9.410783e-11 -2.298747e-09 -1.448044e-10 9.100631e-11
-2.827978e-09 2.170923e-09 1.216289e-10 -2.374287e-09 -1.797229e-10 2.342999e-10
5.027235e-09 -2.705033e-09 -7.671339e-10 -2.614826e-10 -1.604050e-12 9.579804e-11
5.177492e-09 -2.975080e-09 -7.361640e-10 -5.761924e-10 -2.416167e-11 3.423573e-11
4.701919e-09 -2.407468e-09 -7.033405e-10 -3.426818e-10 -2.035994e-11 -1.344407e-10
5.386325e-09 -2.910249e-09 -7.462089e-10 -4.593216e-10 1.542966e-11 1.135603e-10
-2.579689e-09 -3.005923e-09 1.240903e-09 -4.149824e-09 -4.869372e-11 -4.471163e-10
-4.116585e-09 -9.870567e-10 1.336557e-09 -2.457544e-09 -5.843015e-11 -2.633496e-10
-4.187272e-09 -1.046596e-09 1.142330e-09 -3.973508e-09 4.263074e-10 -1.311731e-10
-4.880114e-09 -1.237815e-09 1.205946e-09 -3.609499e-09 3.008626e-10 1.114919e-10
6.699354e-09 -3.297352e-09 -5.509713e-10 -1.995417e-09 -3.727585e-11 3.603582e-10
4.933412e-09 -2.355931e-09 -6.253802e-10 -2.875199e-09 -1.119015e-11 -1.117626e-10
5.298340e-09 -2.374041e-09 -5.585332e-10 -3.037592e-09 -1.518554e-10 3.757121e-10
5.648752e-09 -2.740363e-09 -6.601075e-10 -1.896163e-09 2.061662e-11 -2.416454e-10
5.214012e-09 -2.634186e-09 -6.515108e-10 -2.287655e-09 -3.311906e-11 1.433897e-10
1.981060e-09 -6.120380e-10 -9.321477e-11 2.794819e-09 1.373055e-10 1.542857e-10
2.330921e-09 -6.135805e-10 -1.670486e-10 2.786247e-09 1.209461e-10 2.624190e-10
1.868967e-09 -6.146005e-10 -6.937118e-12 2.743226e-09 1.759351e-10 1.449081e-10
2.934320e-09 -1.487162e-09 -2.782272e-10 1.904257e-09 9.820500e-11 1.651066e-10
1.395648e-09 1.524319e-09 -1.329958e-11 -7.934254e-09 2.863416e-10 -7.580661e-10
1.964202e-09 5.273163e-10 -2.691865e-10 -6.183167e-09 -3.438300e-10 1.391109e-10
3.276568e-09 -2.885135e-10 -3.274272e-10 -6.834421e-09 1.326819e-10 -5.729633e-11
1.806194e-09 1.540937e-09 -4.066805e-10 -6.287741e-09 -1.598157e-10 -4.971745e-11
-1.363891e-09 2.897301e-09 -6.050143e-10 -6.177859e-09 1.328349e-11 -4.811775e-10
2.725844e-09 -1.605840e-08 3.575921e-09 2.800910e-09 -4.033351e-12 6.703724e-11
7.349357e-10 2.360448e-09 -6.523226e-10 -6.253074e-09 -5.252073e-10 4.629592e-10
3.667251e-10 1.659801e-09 -6.172609e-10 -6.306998e-09 -1.459559e-10 -2.553089e-10
1.757739e-09 1.896712e-09 -5.665042e-10 -7.524644e-09 -2.945136e-10 7.921059e-10
4.703410e-09 -1.587851e-09 -2.838032e-10 -4.410973e-09 -1.417711e-10 2.305400e-10
3.271526e-09 -3.224309e-10 -4.207784e-10 -5.636840e-09 4.223722e-11 -2.674592e-10
1.507244e-09 1.811706e-11 -4.402413e-10 -4.286887e-09 -5.160106e-11 5.224365e-11
2.077830e-09 6.932277e-11 -3.906080e-10 -4.689902e-09 -7.498274e-11 -4.201257e-10
-4.196109e-09 -4.276304e-10 1.275052e-09 -1.419249e-09 -1.772000e-10 -2.505352e-10
-3.713141e-09 -1.562219e-09 1.466108e-09 -1.461969e-09 9.492851e-11 -1.737710e-10
-3.943568e-09 -5.950316e-10 1.532714e-09 -1.169604e-09 7.737302e-11 -1.194444e-10
-3.728632e-09 -1.186787e-09 1.523731e-09 -1.509375e-09 -1.336464e-11 -9.903678e-11
-2.607032e-09 1.257455e-09 5.826495e-10 1.562582e-09 -1.278711e-11 -1.863444e-10
-1.892437e-09 1.162775e-09 3.850600e-10 2.175485e-09 2.471548e-10 2.313971e-11
-2.269871e-09 1.267266e-09 5.174865e-10 1.581849e-09 1.042451e-10 -3.487320e-11
-1.823575e-09 1.274784e-09 6.549890e-10 2.086795e-09 5.058226e-11 -8.305995e-11
-1.410132e-09 1.179779e-09 3.390435e-10 2.391833e-09 1.047651e-10 -1.117620e-10
7.835747e-09 -2.038909e-08 2.792230e-09 -4.874445e-10 2.222451e-10 -1.882680e-11
7.939907e-09 -2.169585e-08 2.823708e-09 2.189428e-11 1.396523e-09 -2.634619e-10
8.801363e-09 -2.124998e-08 2.350468e-09 -1.394209e-10 7.539660e-10 -9.338819e-11
8.188668e-09 -2.130217e-08 2.136280e-09 -2.972915e-10 1.235558e-09 -2.198797e-10
6.900396e-09 -1.886174e-08 3.306825e-09 -8.297769e-10 2.034082e-10 -2.340719e-10
7.055474e-09 -1.918020e-08 2.829485e-09 -1.039338e-09 9.351977e-10 -3.465042e-10
7.685439e-09 -2.102802e-08 1.589147e-09 -1.394522e-09 5.203433e-10 -1.299015e-10
-2.614567e-09 2.523085e-08 -3.439634e-08 -6.435045e-09 -1.313260e-08 -1.077189e-08
-1.760800e-09 2.532240e-08 -2.984473e-08 -1.572621e-09 -3.635442e-09 -1.033647e-09
-8.877395e-10 9.830192e-09 -2.193266e-08 -6.083141e-09 -8.519640e-09 -4.741752e-09
4.899871e-09 1.330687e-08 -3.740118e-08 -6.810896e-09 -1.267974e-08 -4.843810e-09
1.150845e-09 9.603342e-09 -2.428409e-08 -6.570094e-09 -5.578310e-09 -1.090721e-09
2.432320e-09 1.198869e-08 -2.367024e-08 -8.908903e-09 -8.296160e-09 -5.851460e-09
2.093694e-10 6.389005e-10 -3.089886e-10 -1.771577e-09 -1.062780e-10 1.146874e-10
-9.112296e-10 1.378347e-09 -1.697398e-11 -1.114794e-09 -1.028237e-10 1.011419e-10
4.785607e-09 1.735988e-08 -2.849305e-08 -6.341574e-09 -8.636562e-09 -3.688111e-09
1.347997e-09 7.431096e-10 -4.409748e-10 -4.937014e-09 1.246551e-10 -2.328338e-10
-6.321632e-11 1.192876e-09 -4.342038e-10 -4.092665e-09 -1.084883e-10 1.633233e-10
1.193519e-09 6.394532e-10 -4.558949e-10 -5.090924e-09 -3.558541e-10 2.648166e-10
2.004998e-09 -2.825047e-10 -4.649108e-10 -2.973001e-09 3.036327e-11 -4.346101e-11
6.671588e-10 4.873035e-10 -4.244407e-10 -3.972738e-09 -1.433065e-10 -5.639827e-11
1.248672e-08 5.104377e-09 -4.063157e-08 1.116834e-11 -1.882997e-08 4.150611e-09
1.214314e-08 2.766337e-09 -3.323602e-08 1.564695e-09 -6.194897e-09 3.811373e-10
1.214314e-08 9.862380e-09 -3.799116e-08 3.793076e-10 -6.134851e-09 1.341520e-09
1.310165e-08 5.337293e-09 -3.715877e-08 -4.121058e-09 -5.594183e-09 1.654903e-10
1.398848e-08 3.664312e-09 -3.746377e-08 -2.858902e-09 -7.067637e-09 -7.406006e-11
5.911099e-09 2.435339e-08 -4.732175e-08 -6.758596e-09 -2.123634e-08 -3.918702e-09
1.436257e-08 1.558116e-09 -3.522102e-08 -8.930353e-10 -1.663533e-08 2.664527e-09
-2.976033e-10 1.116715e-09 -1.476277e-10 -2.275067e-09 -7.311484e-12 -1.047175e-10
-1.109703e-09 1.090740e-09 -2.102230e-11 -9.340529e-10 -2.284745e-11 4.940892e-11
-7.977174e-10 1.342207e-09 -1.011715e-10 -1.695874e-09 -1.535818e-10 1.350493e-10
3.419878e-10 6.379999e-10 -3.999836e-10 -1.759000e-09 -8.683720e-11 -4.739733e-10
7.219905e-10 5.977849e-10 -2.888920e-10 -1.714793e-09 6.192159e-12 -2.022690e-10
-1.605533e-10 5.963328e-10 -2.390994e-10 -1.620696e-09 -8.789414e-11 5.294210e-11
1.081644e-08 -2.515655e-08 -3.054355e-10 1.216103e-09 -1.742604e-09 8.619821e-10
9.258961e-09 -2.517378e-08 -1.082210e-09 -2.565917e-09 -4.016711e-09 -6.033760e-10
-2.742039e-09 2.333452e-09 -6.981615e-11 -2.967315e-09 -4.260798e-10 1.724776e-11
1.104000e-08 -2.574597e-08 -2.567202e-10 -2.973719e-09 -6.190881e-09 -1.103594e-09
1.076478e-08 -3.430523e-08 4.557726e-09 -6.059678e-09 -7.681673e-09 -1.221770e-10
1.278803e-08 -2.696836e-08 -1.713562e-09 -2.738072e-09 -7.289703e-09 -5.643046e-11
1.144729e-08 -2.563144e-08 -1.680432e-09 -2.573110e-09 -3.926266e-09 4.094187e-11
6.681865e-09 -1.704489e-08 -5.774115e-09 -4.201034e-09 -8.548628e-10 -7.928667e-10
5.977710e-09 -1.325589e-08 -5.557433e-09 -5.144736e-09 -1.859243e-09 -3.269647e-10
7.847945e-12 -5.484571e-09 -4.092712e-09 -2.852316e-09 -3.694934e-10 -3.322920e-10
5.690314e-09 -1.708630e-08 -2.601949e-09 -3.515496e-09 -2.360615e-09 -9.094245e-10
2.227398e-09 -1.146501e-08 -5.674838e-09 -5.303332e-09 -9.239478e-10 -2.931788e-10
-1.845920e-09 1.520826e-08 -6.000149e-09 1.074587e-08 -2.765529e-09 -2.267174e-09
4.267956e-09 1.512731e-08 -1.039952e-08 1.148067e-08 -2.894527e-10 -2.393613e-09
-1.932827e-09 2.418480e-08 -1.830588e-08 8.073615e-09 -1.015760e-09 -3.390531e-09
1.673083e-09 1.529830e-08 -8.637861e-09 9.735350e-09 -2.040981e-09 -2.260136e-09
-3.889798e-09 1.957499e-09 5.878982e-10 1.120850e-10 -3.578915e-12 -1.961697e-11
-3.795161e-09 1.869703e-09 6.084289e-10 1.131055e-10 4.061818e-11 -6.704726e-11
-3.596528e-09 1.996209e-09 4.979119e-10 1.005196e-10 1.443423e-11 -1.406930e-11
-3.818787e-09 1.685696e-09 6.455416e-10 3.446865e-10 6.464840e-11 -9.313084e-11
-3.802159e-09 1.955192e-09 5.550245e-10 1.927209e-10 3.461077e-11 -4.738475e-11
-3.688760e-09 1.852077e-09 6.024479e-10 3.170810e-10 5.932987e-11 -2.468958e-11
1.219915e-08 -2.595438e-08 -3.201932e-10 -4.809373e-10 -1.452672e-09 2.785871e-10
1.028694e-08 -2.581035e-08 1.902767e-09 -3.702238e-10 -9.669093e-10 2.900016e-10
9.261351e-09 -2.543497e-08 2.786418e-09 -2.528113e-09 -3.857350e-09 -4.498698e-10
1.164601e-08 -2.714867e-08 2.913311e-09 -8.891218e-10 -3.940885e-09 1.324305e-10
1.164618e-08 -2.701000e-08 4.308283e-10 -3.024756e-10 -1.166737e-09 1.245393e-10
1.111049e-08 -2.626472e-08 2.814124e-09 -3.034937e-09 -4.133958e-09 -1.100369e-10
1.016054e-08 -2.441659e-08 -1.232594e-10 -1.399474e-09 -1.979112e-09 -1.851068e-10
7.101065e-09 3.548706e-08 -5.433779e-08 -6.169957e-09 -1.794760e-08 3.245593e-09
6.905727e-09 2.120684e-08 -4.646072e-08 -3.960699e-09 -5.548141e-09 1.970735e-09
-3.346645e-09 4.960123e-08 -4.658714e-08 -1.222985e-08 -1.212891e-08 -5.530627e-09
2.941996e-10 4.360650e-08 -4.689833e-08 -7.494646e-09 -1.750370e-08 -7.053350e-09
5.762322e-09 3.657692e-08 -4.616371e-08 -7.145637e-09 -9.802774e-09 -1.055500e-09
8.438448e-09 2.216058e-08 -4.620796e-08 -6.014789e-09 -8.246182e-09 -8.397129e-10
3.383759e-09 2.472084e-08 -4.034229e-08 -6.194715e-09 -7.526844e-09 -2.356828e-09
-5.579446e-09 -3.960707e-09 -1.016760e-10 -1.463168e-09 -5.339329e-10 -1.603053e-10
-2.394408e-09 -7.439532e-09 -1.242672e-09 -3.104133e-09 -5.704279e-10 -8.489831e-11
-2.341732e-09 -5.754808e-09 -3.388063e-09 -3.756995e-09 -5.529818e-10 -1.961573e-10
-2.832147e-09 -4.117290e-09 -3.333160e-09 -4.824325e-09 -1.587969e-09 -3.646305e-10
-4.202464e-09 -3.450266e-09 -1.385466e-09 -4.962227e-09 -1.723651e-09 -7.710628e-10
-5.571817e-09 -2.130829e-09 -2.220089e-09 -2.560088e-09 -2.261535e-10 -4.255901e-10
4.119187e-09 3.832887e-09 -2.634729e-08 1.675311e-08 4.091326e-09 -5.128663e-09
6.517302e-09 -1.236200e-08 -1.549757e-08 1.477574e-08 7.558201e-09 -9.461977e-10
1.061973e-08 1.342870e-08 -4.841265e-08 1.576560e-08 6.856230e-09 -2.825465e-09
5.213020e-09 1.457835e-08 -4.258538e-08 2.014848e-08 2.000053e-08 -1.347598e-08
2.322346e-09 8.544675e-09 -3.385441e-08 1.626463e-08 1.495628e-08 -8.216603e-09
9.312227e-09 -3.198825e-09 -2.708141e-08 1.421463e-08 6.551207e-09 8.490235e-10
2.120867e-09 1.395615e-08 -3.340475e-08 1.501262e-08 1.652753e-08 -8.636895e-09
-3.804298e-09 9.920353e-10 1.105167e-09 2.856049e-10 2.187758e-10 -3.108724e-11
-3.897297e-09 9.967636e-10 1.032992e-09 1.316263e-10 1.416549e-10 -1.481049e-11
-3.793107e-09 2.891731e-10 1.069135e-09 -2.690294e-10 -8.386136e-11 -1.334591e-10
-3.802051e-09 4.417444e-10 1.075017e-09 8.990852e-11 -6.074408e-11 -2.201235e-10
4.905687e-09 -2.381972e-09 -4.961211e-10 1.564890e-09 5.035724e-11 -2.295719e-12
3.958834e-09 -2.204612e-09 -4.853562e-10 1.285153e-09 9.507951e-11 -4.619263e-11
3.833022e-09 -2.136090e-09 -6.280492e-10 7.382698e-10 -5.128259e-11 -1.021792e-10
4.580880e-09 -2.217942e-09 -6.485483e-10 1.172601e-09 -8.807233e-12 -2.589720e-10
3.431505e-09 -1.563425e-09 -5.202443e-10 1.390965e-09 6.787104e-11 3.358356e-10
3.388227e-09 -1.573272e-09 -5.653655e-10 1.243969e-09 2.166345e-10 3.800267e-10
3.062974e-09 -1.544253e-09 -3.874372e-10 1.413668e-09 9.137602e-11 -1.674441e-10
4.397934e-09 -2.015883e-09 -2.979768e-10 2.353223e-09 -2.427704e-11 -3.796403e-10
3.648687e-09 -1.658424e-09 -3.174820e-10 2.651651e-09 -3.967565e-11 -1.291487e-10
4.441034e-09 -2.005526e-09 -4.001430e-10 2.304393e-09 1.642459e-10 2.806122e-10
3.612922e-09 -1.615873e-09 -4.272884e-10 1.717905e-09 -4.106393e-11 -6.472889e-11
4.999052e-09 -2.462399e-09 -5.189822e-10 1.477829e-09 2.117548e-11 -1.690506e-10
1.464417e-09 -5.385181e-10 -1.767249e-10 2.047686e-09 4.917398e-12 -3.981108e-10
2.578565e-09 -1.076223e-09 -2.509464e-10 2.463972e-09 2.076591e-10 6.814371e-11
3.485255e-09 -1.615873e-09 -3.977743e-10 1.716648e-09 -4.204162e-11 -9.546852e-11
3.629928e-09 -1.830894e-09 -4.689564e-10 1.731688e-09 1.254443e-10 2.167200e-11
-1.687335e-10 -1.069218e-08 2.609305e-09 5.503386e-09 4.164841e-10 -5.012290e-11
1.166896e-09 -3.335954e-10 -2.839178e-10 1.299965e-09 5.298450e-11 -2.602729e-10
8.263328e-10 2.970009e-10 2.171152e-12 2.582519e-09 -7.668274e-11 -2.112981e-10
-1.409761e-11 2.204876e-10 1.860689e-11 1.841752e-09 1.170566e-10 -2.642753e-11
-2.278213e-10 2.269123e-10 6.448619e-12 1.760686e-09 -6.220091e-11 -2.912774e-10
1.002868e-08 -2.630959e-08 -2.477669e-09 -8.499917e-09 -1.145554e-08 -1.651300e-09
5.821770e-09 -1.498264e-08 -3.350741e-09 -6.186458e-09 -5.635724e-09 -2.270151e-10
5.280271e-09 -1.773136e-08 4.163518e-10 -7.070988e-10 -4.160299e-10 -2.911325e-10
8.369432e-09 -2.126184e-08 1.913079e-10 -4.393367e-10 -8.466084e-10 -3.643361e-10
8.708825e-09 -1.529871e-08 -3.722879e-09 -5.495299e-09 -5.292191e-09 -1.052352e-09
8.382330e-09 -1.951108e-08 -5.402537e-09 -4.643232e-09 -2.731786e-09 -1.183947e-09
8.385816e-09 -1.988071e-08 -3.330962e-09 -5.501804e-10 -1.432050e-09 -2.113042e-10
6.686932e-09 -1.801431e-08 -3.899208e-09 -3.517418e-09 -3.338478e-09 -6.769284e-10
1.181866e-08 -2.425591e-08 -6.535588e-09 -2.695728e-09 -6.719000e-09 -8.647017e-10
5.949552e-11 6.198739e-10 -2.231242e-10 -1.055858e-10 -9.611556e-11 -1.011191e-12
-1.633396e-10 5.883836e-10 -2.682781e-10 -1.615937e-09 -5.673129e-12 -3.407941e-12
9.060646e-10 2.075036e-10 -2.686309e-10 -1.047531e-09 -5.274453e-11 1.692071e-10
3.526694e-10 7.340559e-10 -2.229563e-10 -1.498689e-09 -1.369309e-10 1.939269e-10
-6.493339e-10 1.159969e-09 -1.181113e-10 -1.271887e-09 6.284750e-12 2.677052e-10
9.912782e-11 6.300418e-10 -2.094263e-10 -5.848522e-10 1.284119e-10 -2.286393e-12
7.859087e-10 2.088951e-10 -2.496492e-10 -8.283929e-10 -3.929257e-11 -2.871653e-11
1.193057e-08 -2.219688e-08 -5.098679e-09 1.825536e-11 2.236055e-09 1.952364e-10
1.324472e-08 -2.151575e-08 -4.139507e-09 9.749464e-10 3.047192e-09 9.966255e-11
1.123362e-08 -2.025102e-08 -1.124187e-08 7.751285e-09 6.073824e-09 -2.173236e-10
6.905960e-09 -2.020115e-08 3.524003e-09 -1.455884e-09 7.014525e-10 -9.985468e-11
1.100434e-08 -2.137893e-08 -5.383049e-09 5.082635e-09 3.036319e-09 -2.284881e-10
1.069659e-08 -2.317144e-08 -4.077694e-09 3.254239e-09 2.641203e-09 3.501047e-10
5.574037e-09 -2.538853e-09 -6.123368e-10 -2.398790e-09 8.492562e-11 -3.189089e-10
6.229038e-09 -3.125348e-09 -4.860510e-10 -3.328720e-09 -3.157713e-11 -2.107612e-10
5.134085e-09 -1.978404e-09 -4.601257e-10 -3.681838e-09 8.735237e-11 -4.000102e-10
3.966075e-09 -1.592046e-09 -5.759095e-10 -2.989898e-09 -2.228107e-10 2.267173e-10
3.632699e-09 -1.086597e-09 -5.058385e-10 -3.646230e-09 -1.536455e-10 1.774705e-10
1.350186e-08 -5.897531e-10 -3.152054e-08 -5.320731e-09 -3.646400e-09 1.753835e-10
1.306401e-08 1.327022e-08 -4.388770e-08 -4.345013e-09 -5.976501e-09 7.208612e-10
1.398848e-08 1.185862e-08 -4.389956e-08 -3.266428e-09 -7.219412e-09 2.947265e-10
1.554694e-08 1.969511e-09 -3.638823e-08 -1.592369e-09 -1.663660e-08 2.738638e-09
1.422201e-08 -6.895884e-09 -2.972172e-08 5.118711e-10 -1.620851e-08 1.877412e-09
1.349350e-08 4.278959e-09 -3.709919e-08 -5.365595e-09 -5.437527e-09 -4.218167e-11
-3.079283e-09 1.393508e-09 5.251006e-10 7.737519e-10 -2.651102e-11 -3.892647e-11
-2.273097e-09 1.099909e-09 4.266889e-10 9.156986e-10 -1.828226e-11 6.554379e-11
-2.063398e-09 1.077260e-09 3.450289e-10 1.087719e-09 2.853695e-11 -1.386429e-10
-1.844279e-09 1.084782e-09 2.616094e-10 1.046027e-09 1.113154e-11 -8.069634e-11
-2.882270e-09 1.373769e-09 5.307055e-10 6.990675e-10 4.626899e-11 -1.260245e-10
-2.001466e-09 1.232743e-09 2.717329e-10 1.132181e-09 -3.262013e-11 -8.201684e-11
-2.260010e-09 1.258897e-09 3.712768e-10 5.600032e-10 1.013000e-10 1.849665e-11
-3.966165e-09 1.425866e-09 7.808343e-10 1.139817e-10 6.133816e-11 -1.495738e-10
-3.855453e-09 1.160101e-09 8.346412e-10 1.333940e-10 -6.226514e-11 -1.492464e-10
-3.887044e-09 1.916979e-09 5.068870e-10 1.996923e-10 7.618717e-11 -1.695684e-10
-3.863871e-09 1.762036e-09 6.880050e-10 1.948017e-10 2.641284e-11 -1.259559e-10
-3.598555e-09 1.970760e-09 5.553664e-10 4.245138e-11 2.226641e-11 -3.675832e-11
-3.829460e-09 1.907019e-09 6.384797e-10 1.267066e-10 3.810047e-11 -4.639639e-11
-3.990625e-09 1.813899e-09 6.398562e-10 2.314700e-10 9.604206e-12 -1.228340e-11
-3.395790e-09 1.687300e-09 5.655134e-10 3.799332e-10 1.648427e-11 -3.153478e-12
-4.130919e-09 -4.700042e-09 1.388032e-09 5.662741e-09 8.609455e-10 3.942679e-10
-4.021049e-09 -6.683553e-09 7.986736e-10 7.408599e-09 8.539263e-10 8.157386e-11
-6.037799e-09 -1.685247e-09 -1.427817e-09 8.422122e-09 4.155096e-10 -9.712338e-10
-6.599648e-09 -6.897025e-10 1.616855e-09 4.781247e-09 -8.674927e-11 -2.002581e-10
-6.593652e-09 -1.593151e-09 -3.996092e-11 7.844903e-09 1.269960e-09 -1.102235e-09
-6.903618e-09 -1.118898e-09 1.159550e-10 5.443128e-09 9.532777e-10 -3.308374e-10
-8.406078e-09 1.563554e-08 -2.183785e-08 1.159775e-08 8.717936e-09 -7.373793e-09
-3.924728e-09 8.806799e-09 -1.594389e-08 1.441385e-08 3.961031e-09 -2.250330e-09
-5.553972e-09 6.295942e-09 -1.246471e-08 1.292240e-08 9.190997e-10 9.655001e-10
-3.982241e-09 6.547584e-09 -1.642332e-08 1.512179e-08 6.279730e-09 -4.723583e-09
-4.994615e-09 4.429630e-09 -2.266887e-09 -2.211788e-09 -3.880705e-10 8.899929e-11
-4.385625e-09 3.160260e-09 -7.381478e-10 -2.333182e-09 -2.987450e-10 6.173488e-10
-3.827362e-09 3.328729e-09 -9.613348e-10 -2.983542e-09 -3.469456e-10 2.336579e-10
-4.354708e-09 3.589503e-09 -1.153941e-09 -3.077497e-09 -4.858283e-10 3.038560e-10
2.622674e-09 1.463311e-09 2.720515e-08 2.308674e-08 5.295257e-09 -2.530356e-09
-5.088294e-09 1.753315e-08 1.501809e-08 2.568352e-08 1.553667e-08 -1.247181e-09
-3.361177e-09 9.492266e-09 1.175170e-08 2.456970e-08 1.993292e-09 9.644454e-10
3.562510e-09 1.396802e-08 -2.566582e-09 2.020940e-08 3.227980e-09 -2.891058e-09
-7.450628e-09 2.049689e-08 -9.407674e-10 1.833887e-08 3.249086e-09 -2.379602e-09
-4.198689e-09 6.137144e-09 -3.393140e-09 -4.200997e-09 -6.741725e-10 8.628547e-10
-4.080482e-09 7.594669e-09 -4.460894e-09 -5.554820e-09 -7.641804e-10 2.052269e-09
-4.846362e-09 9.370485e-09 -6.271750e-09 -4.315073e-09 -1.566440e-09 2.221833e-09
-4.870052e-09 1.089733e-08 -8.533325e-09 -4.575449e-09 -1.140931e-09 3.177776e-09
-3.310001e-09 2.683783e-09 2.111140e-10 -2.729194e-10 -4.466444e-11 -9.821255e-11
-9.039445e-10 1.571666e-09 -2.085905e-10 -3.160721e-09 3.176229e-11 4.368994e-11
-9.079297e-09 2.392552e-09 5.424070e-10 -3.795968e-10 -1.895319e-10 -1.333227e-10
-3.544613e-09 2.683643e-09 3.211775e-10 -2.889231e-10 -5.915113e-11 -7.398238e-11
-3.785276e-09 2.749619e-09 3.544096e-10 -1.199005e-10 -4.693024e-12 -1.729256e-10
-3.771397e-09 2.671573e-09 3.139118e-10 -2.568172e-10 -1.374267e-11 -9.359868e-11
-3.129779e-09 2.672984e-09 1.485700e-10 -1.004894e-10 -4.011325e-11 -4.080802e-11
-3.373175e-09 2.670042e-09 2.623235e-10 -2.353708e-10 -5.435741e-11 -3.668332e-11
-3.470399e-09 2.733218e-09 3.170566e-10 -1.439224e-10 -2.013628e-11 -5.947731e-11
2.028052e-09 -1.098848e-08 2.591354e-09 -3.704602e-09 4.788903e-11 -1.254669e-10
1.131158e-09 -1.058709e-08 2.289861e-09 -3.019521e-09 2.320930e-10 -1.410048e-10
8.360261e-10 -9.983760e-09 2.743477e-09 -1.541132e-09 3.125522e-11 -3.047710e-10
5.882481e-10 -8.853160e-09 2.290899e-09 -1.744588e-09 2.760629e-10 -1.193757e-10
1.993251e-09 -1.166046e-08 2.998853e-09 -1.092443e-09 -5.223860e-10 -6.087666e-11
8.208996e-10 -9.164110e-09 2.697620e-09 -1.685159e-09 8.950440e-11 -3.599696e-10
5.571734e-10 -8.688276e-09 2.680990e-09 -1.589786e-09 3.639478e-10 -1.543753e-10
6.318808e-09 -1.884191e-08 9.519470e-10 5.773515e-09 -6.070262e-10 2.041247e-10
8.289854e-09 -2.060792e-08 1.700238e-09 3.171186e-09 6.824665e-10 -1.032496e-11
6.776659e-09 -1.974035e-08 1.802073e-09 4.234913e-09 1.936141e-11 1.108258e-10
-4.704018e-08 -1.284738e-08 1.270241e-07 -1.236517e-08 1.184842e-08 -1.310267e-08
-7.041314e-08 -1.249805e-08 1.388844e-07 -1.350448e-08 1.419369e-08 -1.049306e-08
-5.189309e-08 4.631974e-09 1.403411e-07 4.830704e-09 3.082105e-08 3.275980e-09
-2.336163e-09 1.971676e-09 8.070478e-11 -2.291061e-09 -4.218981e-11 -2.262102e-11
1.312380e-08 -2.773883e-08 -3.131258e-09 1.325404e-09 -6.850169e-09 6.962229e-10
-2.819165e-09 2.153240e-09 -7.933432e-11 -2.856932e-09 -2.618759e-10 -4.075575e-10
-3.454844e-09 2.299739e-09 2.662004e-10 -1.602210e-09 -1.399818e-10 2.127454e-11
-2.757173e-09 2.099879e-09 2.562492e-10 -1.383513e-09 -3.752199e-11 -3.746115e-12
-2.704146e-09 2.181812e-09 1.797575e-10 -1.640070e-09 -4.972911e-11 2.768898e-10
-2.955977e-09 2.054061e-09 1.652678e-10 -1.845505e-09 -1.160922e-10 -3.542771e-10
1.958486e-09 -1.137921e-08 2.142408e-09 -3.886896e-09 -3.921339e-10 -3.576155e-10
1.136990e-09 -8.904453e-09 2.162875e-09 -3.119253e-09 2.762077e-10 -1.404108e-10
-5.665298e-10 -6.148343e-09 2.249892e-09 -2.793384e-09 -2.117969e-10 -3.230078e-10
-1.149168e-09 -6.628952e-09 2.299428e-09 -3.048317e-09 2.359170e-10 -3.964446e-10
3.901588e-10 -1.008913e-08 2.645194e-09 -2.917638e-09 -4.645417e-10 -6.329790e-12
-2.258377e-09 -8.891376e-09 3.528270e-09 6.888450e-10 -1.230105e-11 1.305368e-10
-3.052984e-09 -8.864617e-09 3.548517e-09 5.344818e-10 1.669111e-12 1.389495e-10
-1.741387e-09 -9.069446e-09 3.396226e-09 2.060608e-09 -5.339878e-11 1.514174e-10
-2.714298e-09 -8.880892e-09 3.587658e-09 1.558210e-09 -2.380196e-10 2.285068e-10
-1.667939e-09 -9.465651e-09 3.522124e-09 9.698002e-10 -1.541511e-11 2.390883e-10
-2.329809e-09 -9.226968e-09 3.505024e-09 6.333405e-10 -1.849887e-10 2.290907e-10
-2.864104e-09 -9.070398e-09 3.419750e-09 1.749289e-09 -2.597211e-11 6.921980e-11
1.265882e-08 -2.014286e-08 -1.489906e-08 -3.330865e-09 -4.697682e-09 -4.419153e-10
1.391199e-08 -1.820065e-08 -1.557632e-08 -2.922027e-10 -4.382092e-09 -2.432841e-11
1.278954e-08 -2.054773e-08 -7.718309e-09 1.654021e-09 -1.632275e-09 2.208825e-10
1.456417e-08 -1.803220e-08 -1.353820e-08 1.771292e-10 -5.468169e-09 4.190979e-10
1.279054e-08 -1.798435e-08 -1.002409e-08 1.568787e-09 -1.020967e-09 2.676885e-10
6.518250e-09 2.935805e-08 -4.537975e-08 -5.839576e-09 -1.736504e-08 9.268742e-09
-1.883089e-09 3.457836e-08 -2.878951e-08 -9.236313e-09 -6.349522e-09 3.852884e-09
4.531220e-11 2.677008e-08 -2.658002e-08 -1.036829e-08 -4.215214e-09 5.174474e-09
-6.966762e-10 2.782166e-08 -2.044311e-08 -1.266763e-08 -5.050150e-09 8.628862e-09
-1.756275e-10 3.524641e-08 -2.848088e-08 -1.030190e-08 -4.578325e-09 7.408912e-09
-1.359608e-09 1.342205e-09 -8.886758e-11 -1.726987e-09 -1.811624e-10 -1.070677e-10
1.694764e-09 -1.138030e-08 -4.337342e-09 6.265775e-09 -5.806744e-09 2.552816e-09
4.435255e-09 -1.505937e-08 -3.733237e-09 4.442333e-09 -5.713553e-09 7.314683e-10
1.268677e-09 -1.122063e-08 -8.776841e-10 3.890584e-09 -1.189044e-09 5.149306e-10
3.736625e-09 -1.289071e-08 -3.304941e-09 2.737244e-09 -1.756620e-09 3.416463e-10
2.699707e-09 -1.141458e-08 -1.449793e-09 4.716916e-09 -2.521204e-09 5.394556e-10
-1.815712e-09 1.838966e-09 1.637801e-11 -1.384085e-09 -2.615509e-10 -1.293341e-10
-3.495505e-09 -2.373858e-09 -1.249461e-09 -7.423515e-09 1.963192e-10 2.442257e-10
-3.802586e-09 -4.567231e-09 -2.638956e-10 -8.398556e-09 9.715203e-10 2.751593e-10
-8.905082e-10 -8.333217e-09 -3.558043e-11 -8.040649e-09 7.128949e-10 3.713939e-11
-2.421137e-09 -3.180010e-09 -2.366759e-09 -9.619029e-09 -5.373546e-11 -3.998575e-10
-4.747479e-09 1.993850e-09 -2.786483e-09 -8.402536e-09 -4.109850e-10 -5.397505e-11
-7.020521e-09 4.155556e-10 6.127543e-11 -6.696466e-09 6.398226e-11 2.361991e-10
-2.335179e-09 -3.864226e-09 -2.820123e-09 -9.920401e-09 2.771987e-09 1.939362e-09
-4.184814e-09 2.295765e-09 4.760405e-10 -8.479599e-10 -1.509708e-10 -4.273990e-11
-4.221412e-09 2.361655e-09 4.118341e-10 -1.330062e-09 -2.304408e-10 -2.165502e-10
-4.367302e-09 2.105270e-09 2.840128e-10 -1.423923e-09 -7.895706e-11 -3.692301e-10
-4.234847e-09 2.054538e-09 4.963092e-10 -1.385306e-09 -2.043683e-10 -2.200176e-10
-4.282730e-09 2.220737e-09 5.402190e-10 -7.044895e-10 -5.952683e-11 -1.394727e-10
-4.334390e-09 2.333095e-09 4.689031e-10 -1.203972e-09 -3.763767e-11 1.776184e-10
7.950462e-09 -2.131673e-08 2.163677e-09 -6.893854e-10 -8.243095e-10 -5.027125e-10
-1.036735e-09 6.921921e-10 4.293099e-11 3.641671e-10 6.308642e-11 4.937828e-12
-3.798240e-09 2.104397e-10 1.306685e-09 -3.145644e-10 2.755732e-10 2.150613e-11
6.749960e-09 -1.810881e-08 1.374654e-10 -2.368393e-09 -1.103804e-09 -8.482804e-10
-3.818029e-09 -3.121898e-10 1.332484e-09 -5.034223e-10 4.625694e-11 -1.396279e-10
-3.831520e-09 -1.845111e-10 1.255680e-09 -4.008878e-10 1.237643e-10 -9.090906e-11
-3.783971e-09 7.253336e-10 1.040940e-09 4.771472e-11 -3.587153e-11 -1.500888e-11
-3.851577e-09 2.012879e-10 1.209334e-09 -1.764332e-10 -5.706990e-11 -8.553297e-11
-3.474552e-09 2.768212e-09 2.417222e-10 -5.930501e-11 -1.721534e-11 -2.678302e-11
-3.744024e-09 2.676304e-09 3.673639e-10 -3.069158e-10 -4.121592e-11 -3.371081e-11
-3.504647e-09 2.571354e-09 2.543381e-10 -4.041996e-10 -5.611256e-11 -9.046430e-11
-3.428859e-09 2.702481e-09 2.637557e-10 -2.497271e-10 -3.014451e-11 -3.342415e-11
-3.464516e-09 2.751175e-09 2.495408e-10 -7.596235e-11 -4.404921e-12 -3.589751e-11
2.131946e-09 4.300359e-09 3.838216e-09 -1.193349e-08 -9.780850e-10 -8.023562e-10
1.670142e-09 4.892073e-09 4.094231e-09 -1.306101e-08 2.610399e-09 3.574732e-10
3.131374e-09 2.244931e-09 1.159876e-08 -1.221233e-08 3.688786e-09 -1.684093e-10
6.015868e-10 8.137470e-09 2.916120e-09 -1.461944e-08 -8.855540e-10 1.490729e-09
3.459237e-09 5.061792e-10 1.203727e-08 -1.373092e-08 4.350838e-09 -6.589986e-10
-1.674806e-09 1.443119e-09 -9.825474e-11 -1.237302e-09 -1.731073e-10 -4.180767e-12
8.348398e-10 2.081686e-10 -2.391549e-10 -1.044282e-09 3.258033e-11 -3.888747e-10
1.126823e-09 -2.930911e-11 -3.296501e-10 -1.577069e-09 -1.759367e-10 -1.719132e-10
-1.830660e-10 7.185301e-10 -2.354099e-10 -2.204313e-09 -2.076113e-10 -2.851541e-11
2.048467e-09 -2.904671e-10 -4.995795e-10 -1.894508e-09 -1.308491e-10 -2.801877e-10
9.868963e-10 2.310756e-10 -3.869252e-10 -2.503954e-09 -7.278622e-12 -8.858292e-11
9.352934e-09 1.874149e-09 -4.842901e-09 5.514285e-09 -4.058853e-10 1.186074e-09
1.657935e-08 3.067365e-09 -4.615377e-09 9.958505e-09 -7.495977e-10 -1.365617e-09
2.077015e-08 -3.512280e-09 -3.036052e-09 4.676712e-09 5.345821e-11 1.435140e-09
1.775532e-08 -4.922399e-10 -2.104640e-09 9.810345e-09 4.862440e-10 -3.026302e-10
2.407542e-08 -8.213296e-09 2.307155e-09 8.664776e-09 1.071389e-09 1.534241e-09
2.499399e-08 -5.532422e-09 -2.937047e-09 5.478079e-09 6.450957e-10 -1.993841e-11
1.801645e-08 -2.264398e-09 -4.009769e-09 5.249832e-09 1.576503e-10 6.494361e-10
-2.882938e-11 7.735830e-10 -1.305547e-10 -1.049899e-09 -1.214686e-10 -1.856114e-10
2.786797e-08 -7.720809e-09 -3.830439e-09 1.828605e-09 5.290075e-12 2.493992e-09
2.013106e-08 -3.709239e-09 -4.170772e-09 2.151723e-09 -6.027352e-10 -6.689211e-10
2.995681e-08 -5.595523e-09 -3.699461e-09 7.049838e-09 8.785093e-10 1.906109e-09
2.795003e-08 -5.652264e-09 -1.982477e-09 5.999485e-09 2.134083e-09 2.468292e-09
1.448286e-08 -6.823404e-10 -6.117208e-09 8.614575e-09 2.878858e-10 -2.200234e-09
1.861361e-08 -1.062510e-10 -7.269792e-09 6.754596e-09 6.183940e-12 -2.845923e-09
-5.737200e-09 2.318470e-08 -2.925177e-08 9.648998e-09 3.306086e-09 -1.253369e-12
-1.487593e-09 2.089903e-08 -3.703550e-08 1.434514e-08 5.761465e-09 -7.693927e-09
5.672840e-11 1.674418e-08 -3.273935e-08 1.417849e-08 1.498673e-08 -7.519674e-09
2.419277e-09 8.733878e-09 -3.069256e-08 1.612530e-08 4.633965e-09 -2.397642e-09
-1.039231e-08 2.612884e-08 -3.198987e-08 1.456292e-08 1.333308e-08 -1.512450e-08
-3.539881e-09 1.877751e-09 5.458478e-10 1.974585e-10 3.171419e-11 -1.726486e-11
-3.803942e-09 1.930443e-09 6.049836e-10 1.859690e-10 4.204348e-11 -4.704814e-11
-3.162853e-09 1.914952e-09 4.210419e-10 1.290625e-10 7.376766e-11 -6.920875e-11
-3.599347e-09 1.915380e-09 4.644769e-10 1.185816e-10 8.022849e-11 -3.372636e-11
-3.837796e-09 1.927068e-09 5.971950e-10 1.334710e-10 3.666367e-11 -6.784578e-11
-3.432433e-09 1.851038e-09 4.976322e-10 3.256926e-10 4.484857e-11 8.314460e-12
-3.352668e-09 1.834821e-09 4.817968e-10 2.527536e-10 7.467804e-12 -2.765910e-11
-3.337828e-09 1.821824e-09 4.997500e-10 1.783955e-10 4.215450e-11 -4.980061e-11
-2.485312e-09 2.111490e-09 1.443716e-10 -2.314984e-10 -8.037992e-11 2.243006e-11
-1.624708e-09 1.648825e-09 -3.390532e-11 -5.402785e-10 -9.350121e-11 4.730882e-12
-1.411597e-09 1.607857e-09 -3.369482e-11 -6.779958e-10 -2.353806e-11 2.915834e-11
-2.126118e-09 1.758892e-09 -2.899880e-11 -9.610097e-10 1.935344e-11 4.530731e-11
-2.825487e-09 2.192244e-09 1.194036e-10 -3.908709e-10 6.310730e-12 6.711476e-11
-5.422460e-09 -5.339540e-09 2.035627e-09 3.669992e-09 2.355707e-10 1.974130e-10
-4.414975e-09 -6.329640e-09 2.232721e-09 3.557502e-09 1.062489e-10 -2.845282e-10
-5.741729e-09 -4.287632e-09 2.468715e-09 1.543784e-09 1.277689e-10 6.907363e-12
-5.500808e-09 -5.883157e-09 2.820497e-09 3.887476e-09 -2.607434e-10 2.924348e-10
-8.275800e-09 6.318645e-09 -1.828303e-09 -6.157484e-09 -4.557236e-09 -2.298362e-09
-4.474382e-09 -7.546758e-09 2.882775e-09 2.304528e-09 5.975929e-10 -5.719908e-11
-4.134732e-09 1.532429e-09 7.959775e-10 2.400369e-10 9.600321e-12 -1.364644e-10
-3.951271e-09 1.731707e-09 6.615579e-10 9.713341e-11 3.206269e-12 -8.947043e-11
-3.738450e-09 1.410291e-09 7.827023e-10 4.023271e-10 2.410583e-11 -1.714693e-10
-3.982938e-09 1.626587e-09 8.036076e-10 1.474074e-10 -3.211019e-11 -1.257720e-10
-3.708967e-09 1.349881e-09 6.747154e-10 4.198338e-10 1.175424e-10 -1.630163e-10
-4.075322e-08 2.434260e-08 8.071682e-08 -6.831639e-09 -4.174402e-09 2.133746e-08
-7.300990e-08 -3.343782e-08 2.013942e-07 -7.693991e-09 -1.907007e-08 -3.392063e-08
-5.094123e-08 -3.104643e-08 1.275904e-07 5.285553e-10 -1.833441e-08 -9.960688e-09
-4.501361e-08 -2.713115e-10 1.190954e-07 1.457986e-08 -4.900690e-09 -4.011189e-09
-5.336419e-08 -3.060218e-08 1.458569e-07 4.108145e-09 -1.329117e-08 -9.304137e-10
-9.739595e-09 1.169487e-08 -2.112776e-09 -1.709729e-09 -2.778797e-10 4.745806e-10
-8.365135e-09 1.008748e-08 -5.163074e-09 -4.232446e-09 9.261574e-10 7.406973e-10
-6.559033e-10 1.555352e-09 -1.492895e-10 -3.257084e-09 1.098290e-10 -8.995960e-11
-8.428993e-09 7.490334e-09 -5.495538e-09 -9.464403e-09 1.888474e-09 2.687199e-09
-1.111381e-08 1.252650e-08 -6.147172e-09 -3.601295e-09 4.961786e-10 -7.471918e-10
-8.547510e-09 9.039528e-09 -6.909058e-09 -9.484282e-09 2.053999e-09 3.097370e-09
-1.164201e-08 1.462509e-08 -8.476304e-09 -6.199503e-09 2.504989e-09 4.786432e-09
-4.956049e-10 1.651341e-09 1.192339e-09 4.877819e-09 7.629919e-11 1.322053e-12
-1.942956e-09 2.752356e-09 1.158758e-09 4.967606e-09 -1.584116e-10 -7.809469e-10
4.796199e-09 -1.584012e-09 1.667749e-09 4.873279e-09 2.069296e-10 -7.322172e-10
8.475356e-09 -3.488533e-09 1.988361e-09 3.954390e-09 -1.052430e-10 -9.939150e-10
1.269831e-09 9.252760e-10 1.690984e-09 6.030785e-09 -1.895056e-10 -7.142758e-10
8.714003e-10 2.628019e-09 1.517441e-09 6.447506e-09 -5.493480e-10 -1.155752e-09
4.634781e-09 -1.432037e-09 1.266688e-09 4.821242e-09 -1.627609e-10 -8.984236e-10
1.704838e-09 -6.396084e-10 -2.742531e-10 4.523244e-10 8.782908e-11 9.432388e-11
2.255401e-09 -1.208398e-09 -3.822958e-10 3.847523e-10 1.825680e-10 -2.040992e-10
2.863265e-09 -1.425623e-09 -4.810277e-10 8.381895e-10 1.459357e-10 -1.828893e-10
1.301230e-09 1.112821e-11 -3.210050e-10 -8.633409e-10 -9.740080e-11 1.769528e-10
3.020691e-09 -1.419516e-09 -4.406813e-10 7.709590e-10 8.165246e-11 -8.411999e-11
2.648172e-09 -1.278562e-09 -4.087453e-10 7.659625e-10 1.383277e-10 -2.340556e-11
2.050685e-09 -1.029771e-09 -3.620850e-10 5.280254e-10 2.803001e-10 -2.259970e-11
2.695351e-09 -1.412352e-09 -4.090202e-10 6.837075e-10 1.301307e-10 -3.315563e-11
-4.559753e-09 2.776420e-09 -2.557012e-10 -2.021927e-09 -2.324950e-10 -6.344103e-11
-4.352039e-09 2.335144e-09 -4.254828e-10 -1.724622e-09 -3.978875e-10 2.251883e-10
-3.773938e-09 3.391988e-09 -8.160272e-10 -3.109646e-09 -5.812395e-10 7.626960e-10
-4.332588e-09 3.576835e-09 -1.006488e-09 -3.076699e-09 -3.122440e-10 5.626916e-11
-2.873317e-09 2.734635e-09 -4.232836e-10 -3.458758e-09 -2.655433e-10 1.614704e-10
-4.703428e-09 1.703318e-09 7.485972e-10 -7.931922e-11 -4.929079e-11 -2.837586e-10
-4.715922e-09 1.663226e-09 8.425352e-10 -3.178151e-10 -1.763611e-10 -4.158276e-10
-4.389676e-09 2.355189e-09 6.323715e-10 -7.705760e-10 -9.888035e-11 -2.598742e-10
-3.756124e-09 2.188216e-09 4.972818e-10 -8.223102e-10 -1.289634e-10 -7.194645e-11
-4.609077e-09 1.556295e-09 7.345111e-10 -3.242781e-10 -1.751433e-10 -3.442926e-10
-4.914577e-09 1.923079e-09 8.366685e-10 -1.582563e-10 1.559419e-11 -8.941845e-11
1.034779e-08 -6.113949e-09 3.876949e-09 -1.759547e-09 7.296388e-10 -2.420218e-09
9.903165e-09 -5.830392e-09 3.904391e-09 3.963890e-10 -2.537519e-12 -2.093359e-09
7.793006e-09 -5.365040e-09 6.292636e-09 3.166511e-09 9.129045e-11 -3.008306e-09
1.002969e-08 -4.638205e-09 5.083996e-09 3.710907e-09 -1.066452e-10 -3.193931e-09
7.706635e-09 -6.027582e-09 6.392339e-09 2.896777e-09 -2.078448e-10 -3.055905e-09
8.885187e-09 -4.529247e-09 3.570434e-09 3.721058e-09 -1.329154e-10 -1.876926e-09
3.898897e-09 -1.592046e-09 -5.646967e-10 -2.846265e-09 -9.713941e-11 2.037353e-10
4.385209e-09 -1.781344e-09 -5.953282e-10 -2.426621e-09 5.013546e-12 -2.090008e-10
2.295542e-09 -7.926753e-10 -4.814650e-10 -2.595983e-09 -4.455872e-11 1.509963e-10
2.416065e-09 -7.852696e-10 -5.088485e-10 -2.728142e-09 -1.719582e-10 1.960550e-10
3.530628e-09 -1.191481e-09 -6.043424e-10 -1.880522e-09 -1.447194e-10 -1.528764e-10
3.091474e-09 -5.485390e-09 2.408599e-08 -9.829518e-09 1.376345e-09 -4.143015e-09
9.197074e-09 -6.490467e-09 2.270890e-08 -9.297509e-09 -1.691445e-09 -7.749205e-09
1.350009e-09 -1.137881e-09 2.607371e-08 -1.451719e-08 7.186894e-09 -6.174334e-09
5.703097e-09 -8.856686e-09 2.690524e-08 -6.294667e-09 2.640531e-09 -8.378471e-10
6.153488e-09 -8.639947e-09 3.289796e-08 -3.847954e-09 1.893080e-09 -1.337680e-08
6.563559e-09 -2.072724e-08 2.666477e-09 3.212772e-09 1.009729e-09 -1.427077e-10
6.497128e-09 -2.019022e-08 3.779042e-09 3.176688e-10 9.182832e-11 2.850453e-11
6.379911e-09 -1.946249e-08 3.768468e-09 9.729580e-10 1.605468e-10 1.521546e-10
6.254488e-09 -2.052421e-08 2.807027e-09 1.703606e-09 2.613274e-10 -2.143137e-10
7.227758e-09 -2.068403e-08 3.308724e-09 4.766236e-10 5.905930e-10 -7.660028e-11
7.813768e-09 -2.031128e-08 2.816380e-09 1.111258e-09 2.035925e-10 -7.732393e-11
7.225096e-09 -2.085823e-08 2.951392e-09 4.991099e-10 3.336667e-10 -4.115475e-11
6.883153e-09 -2.019235e-08 3.680639e-09 3.058853e-10 6.582912e-11 -6.327938e-11
6.907036e-09 -2.020774e-08 3.618501e-09 3.237775e-10 3.854672e-11 7.118306e-11
3.572300e-09 4.022369e-09 -1.658017e-09 -2.309014e-09 1.750599e-09 9.581054e-10
3.692674e-09 3.681250e-09 -2.384025e-09 -2.430543e-09 1.090950e-09 1.023024e-09
1.646551e-08 7.298702e-10 -2.368433e-09 -9.360688e-09 -4.884630e-10 5.476696e-10
-3.981184e-09 -1.920106e-09 1.562038e-09 1.421554e-09 -2.143469e-10 -2.024116e-10
1.127227e-08 1.532683e-08 -4.387828e-08 -6.564518e-09 -7.933555e-09 -1.485195e-09
-6.827912e-09 7.565172e-09 -1.688526e-09 -2.043385e-10 1.814964e-09 -9.062471e-10
1.361199e-08 -5.581028e-09 -3.129221e-08 -4.574751e-09 -1.700760e-08 -1.167203e-09
-5.109252e-09 8.713230e-09 -4.099493e-09 -1.039632e-09 -2.389001e-09 -6.229133e-10
1.450770e-08 7.382342e-09 -3.671527e-08 -7.972553e-09 -1.476645e-08 -1.695402e-09
-7.382303e-09 4.251939e-09 -1.533874e-09 -4.896014e-09 -3.864056e-09 -1.712230e-09
5.960008e-09 1.149245e-08 -3.508935e-08 -1.097329e-08 -1.004157e-08 -3.054820e-09
1.058286e-08 -1.686424e-08 -9.659133e-09 2.882272e-09 -1.954417e-09 2.416636e-10
1.263564e-08 -7.182868e-09 -2.545627e-08 -5.861184e-09 -1.292323e-08 -1.254974e-09
1.014132e-08 4.470110e-09 -2.842681e-08 -8.027741e-09 -4.391161e-09 -1.452924e-09
-2.210354e-09 1.276018e-09 4.264218e-10 1.652681e-09 4.941425e-11 -6.129597e-12
-2.566961e-09 1.161495e-09 4.717728e-10 1.486137e-09 -1.159508e-10 -2.667795e-10
-2.732865e-09 1.247535e-09 6.559424e-10 1.480079e-09 5.140510e-11 -1.757495e-10
-3.562293e-09 1.437719e-09 7.721972e-10 8.848329e-10 6.704881e-11 -8.660128e-11
-4.396059e-09 6.114248e-09 -2.309569e-09 -5.386985e-09 -9.145879e-10 1.141495e-09
-3.695914e-09 1.600494e-09 8.232304e-10 7.455028e-10 -8.375034e-11 -2.938316e-11
4.570582e-09 -1.508824e-08 1.800351e-09 -5.359146e-09 2.618738e-10 1.256412e-10
-3.207270e-09 1.143099e-09 7.777294e-10 7.334293e-10 1.959377e-12 -2.721329e-11
-3.027704e-09 1.485840e-09 6.061311e-10 1.420062e-09 1.247058e-10 -3.309515e-10
6.940991e-09 -3.886092e-09 -5.003322e-10 -1.071298e-09 -2.749578e-12 -1.593777e-10
8.494163e-09 -3.863613e-09 -1.968656e-10 -1.212111e-09 -1.136931e-10 9.167778e-12
-6.415204e-09 -2.918381e-09 2.505611e-09 1.049856e-09 5.416618e-10 -4.535461e-11
-4.802906e-09 -5.648769e-09 3.028799e-09 1.073265e-09 2.036091e-10 5.795858e-11
7.069659e-09 -3.974045e-09 -4.692624e-10 -1.579562e-09 -1.400088e-11 -2.084125e-10
6.908348e-09 -3.239450e-09 -5.120033e-10 -2.614375e-09 -9.247536e-11 3.541896e-10
6.052899e-09 -3.300154e-09 -6.333654e-10 -1.931013e-09 1.652298e-11 1.409783e-11
7.031673e-09 -3.394429e-09 -6.437975e-10 -1.153997e-09 -3.003087e-11 -1.256371e-10
6.633551e-09 -3.307654e-09 -6.399339e-10 -1.490929e-09 2.376158e-11 -3.053371e-10
-7.994609e-09 3.373616e-09 -3.749865e-09 9.082758e-09 1.092508e-09 -1.257587e-09
-6.035346e-09 -3.485151e-09 2.086221e-09 4.472605e-09 1.676623e-09 -4.083501e-11
-8.135032e-09 2.922526e-09 -2.133951e-09 7.019592e-09 -2.683693e-10 7.381915e-10
6.451454e-09 -1.702411e-08 -1.793707e-09 -7.848602e-09 2.916271e-09 7.615879e-10
-7.629114e-09 4.857156e-09 -3.757202e-09 8.493792e-09 1.528270e-09 -4.592563e-10
-9.439968e-09 8.193569e-09 -4.320066e-09 5.782326e-09 3.145165e-09 -2.428754e-09
-6.297161e-09 2.705680e-09 -1.750465e-09 -6.064944e-09 4.828173e-10 1.275439e-10
-3.400099e-09 2.746014e-09 2.322831e-10 -1.755662e-11 -1.377298e-11 1.307299e-11
-8.782905e-09 5.766107e-09 -1.883798e-09 4.520388e-09 8.899742e-10 -3.901535e-10
-9.761848e-09 7.709568e-09 -5.625699e-09 7.333100e-09 1.065555e-09 -1.719961e-09
-1.412289e-09 1.712771e-09 -2.750999e-11 -4.473832e-10 -1.332312e-10 -2.301742e-10
-1.053901e-09 1.505520e-09 -5.882761e-11 -2.288812e-09 2.640288e-11 -3.677503e-11
-7.212194e-09 4.248220e-10 -1.387501e-10 -2.304515e-09 -1.646200e-09 -4.085356e-10
-7.923976e-09 -1.049031e-09 3.476892e-10 -1.027054e-09 -5.214947e-10 -5.216250e-11
-7.012797e-09 -1.928090e-09 1.332960e-09 -7.533072e-10 -1.253818e-09 -2.831930e-10
-7.028472e-09 -7.091252e-10 1.623458e-09 -8.915917e-10 -3.109841e-10 -2.728540e-10
-4.006326e-09 2.044365e-09 6.015686e-10 4.173950e-11 2.590173e-11 -4.773293e-11
-5.279367e-09 -3.002260e-09 -4.316081e-10 -1.889269e-09 -2.028639e-10 -2.141280e-10
-5.442488e-09 -1.275687e-09 -1.518847e-10 -2.259907e-09 -8.166254e-10 1.276751e-11
-3.982114e-09 1.455366e-09 9.530874e-10 3.253918e-10 -2.283974e-10 -4.375857e-10
-5.237109e-09 -4.638969e-09 -9.482405e-10 -2.706415e-09 -1.133151e-09 -6.046764e-10
-4.806136e-09 -4.761665e-09 7.984848e-10 -4.465270e-10 9.866907e-10 -9.711965e-11
-1.109999e-09 1.818855e-08 -1.102654e-08 -1.243757e-08 -2.459352e-09 6.681129e-09
-8.060628e-09 3.223610e-08 -2.583299e-08 -1.663114e-08 -8.908321e-09 9.053889e-10
-3.539856e-09 3.128832e-08 -2.905927e-08 -1.380446e-08 -6.719041e-09 2.182961e-09
-3.947557e-09 2.148674e-09 5.541949e-10 0.000000e+00 3.079315e-12 -1.238565e-11
-1.696068e-09 2.005013e-08 -1.802403e-08 -1.009473e-08 -4.496163e-09 5.618966e-09
-1.242557e-09 2.239912e-08 -1.687014e-08 -1.211015e-08 -7.519402e-10 5.797629e-09
2.233866e-09 2.701626e-08 -3.194904e-08 -6.686269e-09 -4.434394e-10 6.945031e-10
-5.867571e-09 1.674419e-08 -2.478235e-08 1.654064e-08 1.278526e-08 -9.027898e-09
-1.685142e-09 2.690167e-08 -1.859332e-08 -1.127057e-08 -5.803266e-09 8.100853e-09
-3.233851e-09 2.233825e-09 2.642504e-10 -1.359743e-09 -8.446444e-11 -7.582512e-11
-3.745588e-09 2.391666e-09 4.700604e-10 -8.090860e-10 -6.001755e-11 -8.087575e-11
-3.332941e-09 2.669959e-09 2.069118e-10 -1.332152e-10 -3.373446e-11 -5.502954e-11
1.130374e-08 -1.229616e-08 -1.789325e-08 1.421226e-08 7.602374e-09 -1.621627e-09
-2.199732e-09 6.696770e-09 -3.324015e-09 6.319238e-10 -2.419768e-09 -1.790832e-09
3.740091e-09 -1.608793e-09 -6.027525e-10 -1.461352e-09 -2.107532e-10 3.342882e-11
-3.861948e-09 2.417080e-09 5.017600e-10 -7.604888e-10 -9.084333e-11 -1.743519e-10
-3.183779e-09 2.401242e-09 2.973191e-10 -9.869971e-10 -5.902168e-12 8.405454e-11
-7.379799e-10 1.293953e-09 -1.147380e-10 -8.670498e-10 -1.098495e-10 6.283579e-11
-4.018403e-09 2.460517e-09 5.153455e-10 -3.378924e-10 -3.640843e-11 -1.219802e-10
-4.012106e-09 2.553683e-09 4.556693e-10 -7.353975e-10 -8.073092e-11 -1.580358e-10
-3.414433e-10 1.098788e-09 -1.327543e-10 -2.242891e-09 -1.290208e-10 2.218683e-10
2.073843e-09 7.382006e-11 -4.499516e-10 -4.700665e-09 -2.072729e-10 2.392917e-10
7.389085e-10 6.945977e-10 -3.697358e-10 -3.768376e-09 -2.800021e-11 9.225731e-11
-3.454844e-09 2.283326e-09 3.998970e-10 -1.327234e-09 -1.783589e-10 -3.503273e-10
-1.561592e-09 2.222815e-09 -4.670058e-10 -4.466898e-09 -1.753273e-10 -1.371114e-11
2.683732e-09 -1.116578e-09 -5.165139e-10 -1.843798e-09 -1.412055e-10 -1.061996e-10
-1.635338e-09 2.062734e-09 -3.591407e-10 -4.042650e-09 -1.672393e-10 -3.724161e-10
-2.740437e-09 2.217176e-09 -2.310736e-10 -3.301630e-09 -2.031397e-10 -2.866152e-11
-1.832464e-09 1.793858e-09 -2.436797e-10 -3.184861e-09 -1.687295e-10 2.627582e-10
-3.846585e-09 1.174177e-09 9.681405e-10 1.711844e-10 1.108894e-10 -1.219005e-10
5.360808e-09 -2.852344e-09 -7.136940e-10 3.080482e-10 -3.119260e-11 -1.495892e-11
-3.952436e-09 2.093143e-09 8.898504e-10 6.950732e-10 1.667182e-10 -1.871421e-10
-4.138322e-09 1.300571e-09 9.341643e-10 9.665356e-11 -7.492385e-11 -1.268126e-10
-3.535524e-09 1.651952e-09 7.651675e-10 9.636358e-10 1.200804e-10 -3.131158e-10
-3.560563e-09 2.367182e-09 6.475256e-10 1.330669e-09 4.197276e-10 6.845185e-11
-3.724516e-09 1.747288e-09 6.131460e-10 3.368248e-10 -2.892797e-11 4.700240e-12
-3.308205e-09 2.147288e-09 7.853904e-10 1.516584e-09 -4.561418e-11 9.184487e-12
1.701164e-09 -7.550476e-10 -2.543465e-10 5.316592e-11 5.471845e-11 6.868284e-12
-3.311148e-09 2.289148e-09 7.488046e-10 1.564221e-09 2.756022e-10 -3.027720e-10
-4.252546e-09 2.026221e-09 8.803984e-10 7.701346e-10 -2.949654e-10 -6.294896e-10
6.486626e-09 -3.482649e-09 -6.398483e-10 4.894272e-10 4.425352e-11 -5.571188e-11
7.595840e-10 -2.949521e-10 -2.134501e-10 1.106750e-09 6.672663e-12 6.226319e-11
6.641743e-09 -3.752259e-09 -6.436425e-10 -7.653471e-10 -2.190484e-11 -1.377689e-10
6.233256e-09 -3.400925e-09 -5.368961e-10 1.148601e-09 4.656827e-11 -4.428691e-11
-3.372835e-09 1.140110e-09 7.256444e-10 3.872567e-10 -7.293388e-11 6.462475e-11
1.237872e-09 -1.858957e-10 -3.625613e-10 -1.827596e-09 -1.503284e-10 -1.015295e-10
4.815831e-09 -2.758112e-09 -6.924905e-10 -2.655920e-11 -4.539258e-11 1.995071e-11
-3.889646e-09 -1.405169e-09 1.123921e-09 1.559684e-10 -8.513715e-10 -5.805735e-10
-2.803279e-09 -3.997302e-09 1.332511e-09 8.637668e-10 -7.985154e-10 -6.561152e-10
7.533644e-09 -3.611665e-09 -5.020606e-11 1.774086e-09 2.072929e-10 -3.021594e-11
-3.616621e-09 2.008559e-09 4.133627e-10 -1.052511e-09 -4.115004e-10 -2.233079e-10
7.136783e-09 -3.924176e-09 -5.634124e-10 3.311080e-10 1.584690e-10 -1.378512e-10
5.233135e-09 -2.932807e-09 -7.736878e-10 -3.670553e-11 -1.846712e-11 -3.637091e-12
-3.385831e-09 2.533628e-09 3.013740e-10 -6.616994e-10 -4.331230e-11 -1.638991e-10
6.322794e-09 -3.280076e-09 -5.983747e-10 9.295294e-10 -3.320444e-11 -7.058609e-11
6.956107e-09 -3.643717e-09 -6.402342e-10 4.640951e-10 2.930952e-11 -3.629985e-11
7.258418e-09 -3.558330e-09 -2.516255e-10 1.519705e-09 3.045714e-11 -1.258232e-10
2.847152e-09 -1.072058e-09 -5.486100e-10 -8.255201e-10 1.442491e-11 -5.957901e-12
6.324012e-09 -3.265266e-09 -6.091452e-10 9.018412e-10 4.640260e-11 1.184513e-10
6.252733e-09 -1.729725e-08 -1.407988e-09 -2.113963e-09 -8.556823e-10 4.417622e-11
1.217402e-08 -2.332712e-08 -4.217192e-09 5.158225e-10 -7.211045e-10 4.100387e-11
1.773848e-09 -1.241418e-08 2.341950e-09 2.952772e-10 -2.269458e-10 2.316258e-10
-4.803474e-09 1.252554e-09 2.753389e-10 -3.951683e-10 -1.780682e-10 1.825224e-10
-5.107476e-09 2.414595e-09 -3.328141e-09 2.065333e-09 -1.560793e-09 1.930603e-09
4.298015e-09 -1.427305e-08 -3.488714e-09 -2.481496e-09 -3.040321e-10 -7.651817e-10
1.170871e-08 -2.386096e-08 -3.466941e-09 -5.980501e-09 -8.414912e-09 -1.173683e-09
4.797422e-09 -1.431950e-08 -2.793346e-09 -4.826061e-09 -2.033418e-09 -4.742532e-10
4.223866e-09 -1.468661e-08 -1.951996e-09 -5.405423e-10 -3.640084e-10 -1.309275e-10
-4.724074e-09 7.617258e-10 8.756893e-10 -1.017535e-10 -2.075036e-10 -6.040390e-11
1.018782e-08 -1.980755e-08 -8.609325e-09 -2.935719e-09 -1.548307e-09 -4.715675e-10
9.322876e-09 -2.025981e-08 -3.161275e-09 -7.510443e-10 1.480460e-10 1.538629e-10
6.328261e-09 -1.652059e-08 -3.201190e-09 -3.093546e-09 -1.143676e-09 -2.950212e-10
7.808233e-09 -2.167766e-08 -1.410161e-10 3.163725e-09 -2.629013e-09 9.986845e-10
8.405620e-09 -1.883971e-08 -3.333949e-09 -1.800662e-09 -3.428464e-10 -2.446496e-10
-3.946376e-09 2.168903e-08 -1.953350e-08 4.368243e-09 -3.074028e-09 -5.890599e-09
2.742831e-09 -1.076222e-09 -2.953042e-10 2.418876e-09 1.515004e-10 1.526184e-10
-9.624515e-10 5.253828e-09 -2.878490e-09 -1.182439e-09 -3.591421e-09 -6.296930e-10
5.996155e-09 1.225179e-08 1.206153e-09 1.812259e-08 -1.963601e-11 3.243782e-09
2.184111e-09 -5.919602e-10 2.604699e-10 3.449052e-09 -7.235923e-11 -7.081438e-10
3.622191e-09 2.017864e-08 -7.145497e-09 1.857997e-08 1.752200e-09 -1.157310e-09
5.250063e-09 -1.705519e-08 3.246441e-09 -6.077186e-11 -2.531395e-10 -7.970406e-11
-3.703021e-09 2.418438e-08 -1.805592e-08 8.111959e-09 -1.046680e-09 -2.658862e-09
-1.777527e-09 2.416752e-08 -1.611845e-08 8.143281e-09 -2.249544e-09 -4.691496e-09
-1.831317e-09 1.522055e-08 -9.287193e-09 1.064372e-08 -1.104124e-09 -2.286620e-09
4.659888e-09 -1.865842e-08 3.177229e-09 2.560702e-09 -9.113842e-11 1.360712e-10
2.488576e-09 -1.485525e-08 3.735505e-09 4.225749e-10 1.616405e-10 2.611570e-10
4.748128e-09 -1.868185e-08 3.004307e-09 2.561748e-09 9.508839e-11 -2.120215e-10
1.072646e-08 -2.117736e-08 -7.204739e-10 -1.032144e-09 1.430565e-09 1.397338e-10
-4.844991e-09 1.626443e-09 7.022400e-10 -2.542180e-09 -4.467049e-11 -3.662858e-10
4.233475e-09 -1.731239e-08 3.739121e-09 1.141648e-09 -3.092044e-10 5.482703e-11
-4.573987e-09 2.770142e-09 -4.622693e-10 -2.011269e-09 -4.297605e-10 1.194107e-10
3.562356e-09 -1.675363e-08 3.168721e-09 3.697518e-09 1.952147e-10 2.338919e-10
2.540995e-09 -1.576380e-08 3.199156e-09 3.646210e-09 -3.763310e-10 -2.331147e-10
4.644106e-09 -1.856385e-08 3.530915e-09 1.986092e-09 -2.669149e-10 2.498963e-10
-1.302546e-09 1.609766e-09 1.655719e-09 4.564719e-09 -5.842998e-10 -1.647408e-09
4.679587e-09 -1.790083e-08 3.743510e-09 1.520784e-09 1.541599e-10 1.430036e-10
4.787593e-09 -2.010510e-09 -7.050809e-10 -1.533261e-09 1.830669e-11 -9.525936e-12
2.116435e-08 -1.529509e-08 2.856960e-08 -1.031992e-08 1.850040e-10 7.417040e-09
-8.982489e-09 3.806228e-09 5.826335e-10 3.764413e-09 1.837176e-09 -7.172121e-10
-5.467304e-09 1.058694e-08 -1.579091e-08 -1.314063e-08 2.408871e-09 1.887445e-09
3.708062e-09 -2.037751e-09 -7.042851e-10 -1.342574e-09 1.859468e-11 -2.581957e-11
2.644128e-09 -1.222327e-09 -5.328809e-10 -1.637555e-09 -4.410694e-11 -3.028888e-11
5.001566e-09 -1.958216e-09 7.495362e-09 7.056071e-09 3.563893e-11 -2.016762e-09
3.973094e-09 -1.414180e-09 -5.728307e-10 -2.933291e-09 9.858137e-11 -1.887819e-10
1.079849e-08 -5.075466e-09 4.488132e-09 -4.052113e-09 5.446168e-11 -1.012886e-09
4.590813e-09 -1.961748e-09 -6.654766e-10 -2.062898e-09 -1.355982e-11 -1.429470e-10
3.187853e-09 -1.208197e-09 -5.534164e-10 -1.752260e-09 -1.130187e-10 2.373908e-10
-3.372475e-09 8.480082e-09 -2.385297e-08 1.982031e-08 1.172374e-08 -1.094758e-08
-2.232015e-09 2.150528e-09 -1.473950e-08 1.560651e-08 3.015256e-09 -3.352280e-09
2.713566e-09 -1.208483e-08 -8.141825e-10 1.334982e-09 6.211067e-10 -1.700687e-10
1.058864e-08 -1.997463e-08 -7.456944e-09 6.531361e-09 -9.257596e-09 2.532456e-09
-4.863098e-09 2.448679e-09 -2.298828e-10 -1.424040e-09 -2.326699e-10 1.637510e-10
4.294514e-09 -1.432944e-09 8.032766e-10 -6.090124e-09 3.671420e-11 -8.583900e-10
2.112309e-09 -3.942522e-09 -1.595140e-08 1.825995e-08 8.198639e-09 -5.182192e-09
2.736907e-09 -1.596719e-08 2.055526e-09 -1.511595e-09 -1.863456e-10 -4.999934e-11
-1.439009e-08 3.024190e-08 2.352368e-08 -2.088005e-08 -9.929899e-09 7.499124e-09
-1.009937e-08 1.557345e-08 -1.721016e-08 1.248421e-08 8.001362e-09 -9.034102e-09
4.566196e-09 -2.677791e-09 -7.342928e-10 1.274352e-09 4.663586e-11 5.254308e-11
-3.543050e-09 1.387872e-08 -2.824268e-08 1.396857e-08 3.345922e-09 -2.436139e-09
3.122295e-09 -1.252058e-08 -7.404974e-10 -8.351008e-09 7.089247e-10 3.821719e-10
1.862178e-09 -6.203651e-10 -5.039258e-11 2.734046e-09 -5.159150e-11 -4.819896e-10
-1.943333e-09 4.260210e-10 -1.261542e-08 1.541315e-08 5.135216e-09 -1.795778e-09
1.873257e-11 9.288970e-10 -1.934395e-10 -3.152903e-09 -2.480971e-11 -4.233347e-11
9.221277e-10 2.344089e-10 -3.066906e-10 -2.497962e-09 -1.031458e-10 1.887415e-10
-1.265390e-09 1.082491e-09 -1.357419e-10 -1.611900e-09 -2.553424e-11 -2.580995e-10
-9.326655e-10 1.096780e-09 -1.240661e-10 -2.279577e-09 -1.477658e-10 1.798561e-13
-3.922239e-09 2.153004e-09 5.422605e-10 3.213430e-12 -1.191042e-11 -1.235234e-11
-1.720046e-11 9.146319e-10 -2.530345e-10 -2.006045e-09 2.507394e-11 -5.010481e-11
-1.012218e-09 -8.158582e-09 2.082902e-09 -3.948177e-09 -6.008747e-12 -1.314986e-10
-1.151328e-10 7.185301e-10 -2.694183e-10 -2.206288e-09 -2.063969e-10 -2.176193e-11
-2.963024e-09 -2.229983e-09 1.626169e-09 -1.700524e-10 5.135448e-12 -2.663050e-10
8.795277e-09 -5.223613e-09 1.193281e-09 -2.260215e-09 1.489548e-10 -3.812933e-10
-2.947073e-09 -2.526786e-09 1.734096e-09 -3.754645e-10 4.170819e-10 -3.011735e-10
-3.518095e-09 -1.275293e-09 1.418281e-09 -2.532046e-10 1.491611e-10 -3.017129e-10
-2.979994e-09 -1.998808e-09 1.605580e-09 8.759295e-11 -6.255058e-11 -2.467402e-10
-1.420476e-09 1.282299e-09 -2.140199e-11 -6.242100e-10 -5.498269e-11 3.463807e-11
-3.262107e-09 -1.376208e-09 1.533120e-09 -4.939098e-10 3.808093e-11 -4.441937e-10
-3.493571e-09 -9.656160e-10 1.441202e-09 -1.557219e-10 -1.287331e-10 -2.962057e-10
-1.870164e-09 2.863248e-09 1.306695e-09 4.561384e-09 -7.169337e-11 -7.056999e-11
-3.097903e-09 3.881317e-09 9.034042e-10 3.736712e-09 2.359336e-10 -1.889430e-10
-2.846401e-09 3.768689e-09 1.074114e-09 3.783390e-09 2.556717e-10 -4.143168e-10
5.826155e-09 -1.810548e-08 3.499123e-09 -1.019482e-10 8.881597e-16 9.193668e-11
-2.574764e-09 -7.603998e-09 -1.411155e-09 1.168522e-08 5.815348e-10 -1.021503e-10
8.069485e-10 -5.876476e-09 -8.144256e-09 1.397312e-08 1.771945e-09 -1.235425e-09
-4.936587e-10 -7.604275e-09 -3.606018e-09 1.167845e-08 6.064156e-10 2.248814e-10
-6.355288e-10 -7.176118e-09 -3.948055e-09 1.271362e-08 2.600033e-09 -1.670784e-09
-3.665680e-09 1.413564e-09 6.786642e-10 3.676248e-10 6.165679e-11 -1.378031e-10
-3.607512e-09 1.325812e-09 7.768559e-10 1.978444e-10 9.472645e-12 2.701883e-11
-3.844004e-09 -2.646319e-10 1.321219e-09 -3.222957e-10 -4.606604e-11 1.172396e-12
-2.571095e-09 1.420640e-09 2.913998e-10 2.954275e-10 8.277867e-11 -4.835687e-12
-2.222167e-09 1.330051e-09 3.098197e-10 4.031730e-10 1.036500e-10 -3.058087e-11
-3.692007e-09 1.059999e-09 8.129883e-10 1.962485e-10 1.163212e-10 -9.403389e-11
-2.820868e-09 1.605651e-09 3.409584e-10 4.946012e-10 1.515974e-10 -7.828854e-11
-1.761227e-09 1.151733e-09 2.726517e-10 3.344781e-10 5.292919e-12 -1.830380e-11
1.676728e-09 -1.048065e-08 2.371813e-09 -1.380087e-09 5.956217e-10 -5.898031e-10
-2.371582e-09 1.412214e-09 2.829657e-10 2.877369e-10 -5.015988e-12 2.314193e-11
9.967986e-10 -9.767214e-09 2.165502e-09 -4.644255e-09 4.439316e-11 1.039417e-10
3.611054e-09 -1.731213e-08 3.563545e-09 3.373034e-09 1.536971e-10 -9.746415e-11
-3.044484e-10 -1.088511e-08 -1.956456e-09 1.097983e-08 8.795027e-10 -4.687601e-10
-2.457288e-09 1.497977e-09 3.444167e-10 3.404330e-10 7.002832e-11 4.694245e-11
1.831554e-09 -1.158212e-08 1.172237e-09 -6.099287e-09 2.608962e-10 3.527522e-10
-1.743125e-09 1.154959e-09 2.110285e-10 3.442202e-10 4.577949e-11 1.843503e-10
-3.779948e-09 2.778702e-10 1.093617e-09 -2.484293e-10 1.077061e-10 -2.902250e-10
-8.759251e-10 -3.163303e-09 -2.419890e-09 -1.004120e-08 -5.556289e-11 3.438189e-10
-8.373755e-09 1.778001e-08 -2.578534e-08 -1.713627e-08 9.872529e-09 1.136705e-08
-1.644644e-09 1.143643e-09 2.197775e-10 3.677199e-10 6.054934e-11 8.944123e-11
-3.398590e-09 4.801060e-09 -8.982202e-09 3.779525e-09 -4.360577e-09 4.582026e-09
1.299110e-09 1.610328e-08 -3.287499e-08 -1.955401e-10 -1.240152e-08 8.460845e-09
7.733075e-09 -2.102945e-08 1.674556e-09 -1.443742e-09 5.193594e-10 2.233919e-10
-7.792608e-09 -9.980230e-10 1.542970e-09 -1.800626e-09 -1.286998e-09 -2.589846e-10
-1.028820e-10 9.333494e-09 -2.095915e-08 3.219358e-09 -2.212559e-09 3.674627e-09
-2.314989e-09 1.462306e-08 -1.401741e-08 -3.489639e-09 -2.332133e-09 3.382612e-09
-4.224563e-09 1.664716e-09 6.881860e-10 -1.120083e-09 -4.476528e-10 -3.772524e-10
-2.042060e-09 1.800201e-08 -2.536310e-08 -4.041486e-09 -4.524876e-09 2.737131e-09
-3.584047e-09 2.550509e-09 3.523495e-10 -6.046013e-10 -1.276854e-10 -3.184372e-10
-5.828059e-10 9.269713e-09 -2.139380e-08 4.332053e-09 -7.587221e-09 4.610237e-09
-3.343126e-09 1.270970e-08 -1.314154e-08 -2.005735e-09 -3.900529e-09 5.182640e-09
-3.740851e-09 1.398050e-09 8.203747e-10 3.754694e-10 3.514966e-11 -9.533974e-11
1.072325e-08 3.306755e-09 -3.116443e-08 -6.984711e-09 -6.280881e-09 -4.683320e-10
-4.103887e-09 -3.227386e-09 2.303946e-10 -3.886774e-09 -2.589192e-09 -7.777479e-10
7.856475e-10 7.051915e-12 -1.450129e-10 3.958995e-10 8.735542e-11 1.757428e-11
-3.523358e-09 2.011115e-09 4.989802e-10 1.399929e-10 -1.880496e-12 -3.432679e-11
8.205036e-09 -3.554426e-09 -2.308314e-08 -7.903331e-09 -1.158593e-08 -2.733074e-09
8.202509e-09 7.186459e-09 -2.873428e-08 -3.835718e-09 -1.021355e-08 -3.185668e-09
5.515115e-09 -2.271408e-09 -2.035570e-08 -8.468288e-09 -5.406429e-09 -8.542333e-10
4.235398e-09 -1.515106e-09 -1.777979e-08 -9.194261e-09 -8.871565e-09 -3.590918e-09
5.363310e-09 -3.025881e-09 -7.363505e-10 1.293926e-11 1.965990e-12 -9.755863e-12
1.574890e-09 1.389580e-08 -2.852222e-08 -1.036896e-08 -7.680491e-09 -3.164266e-09
-1.036690e-09 7.022711e-10 9.099477e-11 9.146024e-10 1.990242e-10 -8.445383e-11
2.324974e-09 2.642524e-09 -1.604462e-08 -1.031469e-08 -8.271197e-09 -4.956708e-09
-6.230854e-09 2.245343e-08 3.855231e-08 2.297166e-08 3.840851e-09 1.894820e-08
7.778211e-09 -2.516020e-08 7.082523e-08 -1.129134e-08 -3.476486e-09 1.221325e-08
2.597856e-08 -1.620874e-08 8.859855e-09 -1.615917e-09 6.525697e-10 1.081536e-09
1.221317e-08 -3.201954e-09 7.335119e-09 -1.770245e-08 1.454796e-10 4.175008e-09
6.721935e-09 9.672455e-09 9.525640e-09 -2.012229e-08 -3.482246e-09 3.471114e-09
1.815272e-09 -1.693065e-08 7.721704e-08 2.581407e-08 3.563985e-08 1.335631e-08
1.571523e-10 9.476547e-09 3.538934e-08 -2.622330e-08 -8.834627e-09 7.597225e-09
3.097186e-08 -2.515441e-08 5.145995e-08 -9.616192e-09 -3.248758e-09 3.382171e-08
-3.502054e-09 -7.556030e-09 3.570619e-09 1.598125e-09 4.647699e-12 -2.767031e-11
1.020345e-08 -1.555442e-08 -1.575950e-08 1.610640e-08 1.042513e-08 -3.324317e-09
9.139368e-09 -3.995682e-09 6.560752e-10 -2.564408e-09 -1.120115e-10 5.744294e-12
2.205470e-08 -2.504677e-08 3.839346e-08 -8.023539e-09 -8.714169e-10 1.039826e-08
2.160626e-08 -1.512674e-08 1.783370e-08 -9.891889e-09 -4.776040e-10 2.795482e-09
5.013009e-09 -2.610950e-09 -6.896319e-10 -4.715299e-10 -1.515436e-10 -1.244838e-11
7.558436e-09 -2.113440e-09 2.496105e-09 -6.956194e-09 -1.410711e-10 -1.054238e-09
-1.704924e-09 1.156428e-09 3.756977e-10 1.675790e-09 8.151993e-11 1.201417e-10
1.674814e-08 -2.513528e-08 5.548068e-08 -7.155102e-09 -8.795360e-10 3.066014e-09
-2.248257e-09 -7.884473e-09 1.313517e-09 -1.182497e-09 3.152172e-10 -3.986695e-10
-4.555984e-09 -6.887451e-10 2.507989e-10 5.813925e-10 -9.600327e-10 1.183628e-10
-4.359896e-09 7.007586e-10 -5.901550e-10 1.151191e-11 -1.119318e-10 -1.071495e-10
-4.491222e-09 5.278036e-10 -6.517960e-10 1.826390e-10 -1.263760e-09 4.948271e-10
1.362846e-08 -1.820881e-08 -1.528440e-08 -9.086202e-09 8.562732e-09 2.262478e-09
-8.736672e-09 9.012924e-10 1.402189e-09 -1.484275e-10 -5.116199e-10 -1.466360e-10
-1.034243e-09 5.954108e-10 1.337526e-10 1.211094e-09 -1.161693e-10 -1.470826e-10
-5.071779e-09 8.432819e-10 1.613960e-10 1.611624e-10 -4.930227e-10 4.240593e-10
1.115275e-08 -2.398366e-08 -1.434119e-09 2.180068e-10 -7.485763e-10 1.948409e-10
-4.615587e-09 1.725411e-10 1.192273e-10 5.675356e-10 1.943512e-11 2.491216e-10
-3.774277e-09 4.173888e-09 -1.734285e-09 -4.661899e-09 -4.488736e-10 4.628031e-10
8.992678e-09 -3.973542e-09 -1.015232e-10 -1.711177e-09 -7.480216e-11 -4.156968e-10
-2.390397e-09 2.845613e-09 -7.755641e-10 -4.854481e-09 -3.463538e-10 1.145665e-10
-5.018277e-09 1.055289e-09 -8.651302e-10 4.133467e-10 -2.882790e-10 2.684199e-10
-3.539526e-09 2.703855e-09 -2.407687e-10 -2.798612e-09 -1.920348e-10 5.213912e-10
-3.817629e-09 2.612921e-09 -2.782636e-10 -2.483551e-09 -4.874596e-10 1.850622e-10
7.820315e-09 -2.052731e-08 2.870202e-09 -4.384621e-10 4.879226e-10 -7.931345e-11
-3.733890e-09 3.046774e-09 -6.705738e-10 -3.392680e-09 -3.542943e-11 -3.936658e-10
-3.813390e-09 4.071250e-09 -1.533979e-09 -3.764512e-09 -3.590359e-10 9.264689e-10
-5.385151e-09 -1.771476e-09 1.127566e-09 -5.617957e-09 5.337719e-11 -1.087565e-10
-8.825928e-09 3.212959e-09 9.201941e-10 -2.063574e-09 -1.666684e-09 -2.037310e-10
-2.220442e-09 8.164427e-09 -1.840853e-08 1.558088e-09 -2.711071e-09 2.146567e-09
-9.161540e-09 3.432133e-09 -5.992443e-10 -6.153044e-10 -1.935109e-09 -1.802754e-10
-9.165704e-09 4.852814e-09 5.903633e-10 -2.826937e-09 -2.433661e-09 -1.079746e-09
6.523949e-09 -2.938554e-09 1.039965e-09 3.399043e-09 -4.630064e-11 -5.415983e-10
2.011333e-08 -7.272367e-10 -5.627629e-09 6.698508e-09 4.592168e-10 -1.082087e-09
2.158929e-08 -6.977866e-09 -1.363540e-09 -7.821750e-10 -2.182145e-10 8.885198e-16
2.626273e-08 -1.472075e-08 1.327788e-08 -8.281398e-09 -1.329325e-09 5.312338e-09
8.507348e-09 -2.162479e-08 -4.559985e-09 6.726927e-09 2.174837e-09 -1.811024e-10
-9.262514e-09 4.090969e-09 7.909127e-10 -1.041968e-09 -2.299480e-09 -3.242340e-11
1.544003e-08 -2.933204e-09 -2.376064e-09 -6.917737e-09 -7.234420e-10 1.472476e-09
-9.048084e-09 3.570809e-09 2.809366e-10 -1.144321e-09 -2.878627e-09 -3.242375e-10
5.884719e-09 6.241738e-09 -4.466675e-09 2.225624e-09 -2.505837e-09 -2.167305e-10
-1.804260e-09 8.537698e-09 -4.643604e-09 1.521478e-09 -2.804947e-09 -8.587463e-10
9.561660e-10 -1.041337e-08 2.675606e-09 -1.514507e-09 -2.121208e-10 -4.293571e-10
6.480442e-09 -1.861519e-08 3.541429e-09 2.848155e-11 1.905124e-10 -1.872039e-10
5.882193e-10 5.758285e-09 -4.597478e-09 -2.978377e-10 -2.773156e-09 -1.246085e-09
-3.960151e-10 -1.168204e-08 3.735737e-09 4.090850e-10 1.226130e-11 4.218165e-10
-2.572800e-09 -8.813021e-09 3.219212e-09 3.367816e-09 -1.507232e-10 3.443548e-10
-3.508109e-09 6.147463e-09 -2.842615e-09 6.803640e-10 -3.793797e-09 -7.985607e-10
-1.962900e-09 -9.774656e-09 3.217894e-09 3.586013e-09 4.995785e-10 2.400467e-10
-4.532614e-09 7.345352e-09 -2.716571e-09 -1.285086e-10 -3.374601e-09 -1.261721e-09
-4.440826e-09 4.213252e-11 1.184193e-09 -1.824086e-09 -1.810596e-10 -1.741084e-10
-4.501205e-09 -6.729641e-09 3.375351e-09 8.824219e-10 4.127549e-10 1.236778e-10
-4.377039e-09 -9.776731e-10 1.292491e-09 -2.399305e-09 -5.420786e-11 -4.062131e-10
-4.377039e-09 2.383373e-10 1.125934e-09 -2.059797e-09 4.084755e-10 -9.682318e-11
-3.679523e-09 -8.013465e-10 1.455512e-09 -1.257249e-09 -1.448275e-10 -2.994585e-10
-4.143731e-09 1.105812e-09 1.047026e-09 -6.334211e-10 3.433178e-10 7.318361e-11
5.211810e-09 -2.813820e-09 -7.119247e-10 -3.466598e-10 -4.741749e-11 -5.075742e-12
5.089318e-09 -2.789206e-09 -7.103256e-10 -2.495913e-10 -8.421946e-11 1.409539e-11
5.811472e-09 -3.085419e-09 -6.659291e-10 7.806283e-10 1.489141e-11 -2.400680e-11
5.445207e-09 -2.898166e-09 -7.242450e-10 -6.715861e-10 -4.820566e-11 3.921019e-11
5.294173e-09 -2.811520e-09 -7.299823e-10 -1.335830e-10 -7.327250e-11 3.304607e-11
5.368554e-09 -2.878546e-09 -7.202168e-10 -2.686601e-12 6.259632e-11 -2.120171e-11
5.501104e-09 -3.118959e-09 -7.612337e-10 -4.409657e-10 -4.856095e-11 5.878087e-11
-2.986762e-09 1.420843e-09 5.607159e-10 6.000289e-10 -6.757794e-11 5.962497e-11
4.332998e-09 -2.339932e-09 -6.420240e-10 -2.360977e-10 -3.222467e-11 3.244394e-11
4.483408e-09 -2.444245e-09 -6.593557e-10 -1.830816e-10 -8.699108e-11 1.052851e-10
4.807489e-09 -2.758113e-09 -7.169554e-10 -2.652532e-11 -4.534997e-11 4.976242e-12
-4.461369e-09 -8.319923e-10 1.033336e-09 -3.861133e-11 -3.020404e-10 -5.010701e-10
-4.121648e-09 -1.243375e-09 1.484681e-09 -1.793818e-10 -6.718759e-11 -4.399830e-10
-4.397698e-09 -6.059686e-10 8.668477e-10 6.538248e-10 -6.022943e-10 -3.060559e-10
-9.188840e-09 1.423169e-09 1.415675e-09 -3.044325e-10 -3.432385e-10 3.432099e-11
-3.839388e-09 2.150612e-09 4.986676e-10 -1.219069e-11 5.948786e-11 -3.151529e-11
-3.654522e-09 -2.153611e-09 1.382816e-09 3.050300e-10 -4.861097e-10 -4.737943e-10
-3.953215e-09 -1.010322e-09 1.129952e-09 7.187472e-10 -6.472053e-10 -4.159527e-10
-3.688324e-09 1.837803e-09 5.116059e-10 3.329008e-10 1.205655e-10 -1.099754e-10
-2.843792e-09 1.543521e-09 3.946929e-10 4.259832e-10 1.655580e-10 -1.096899e-10
-4.650351e-09 -6.063132e-10 1.107219e-09 7.078183e-10 -6.579464e-10 -2.889588e-10
-2.448009e-09 1.325274e-09 4.266880e-10 1.024687e-09 -5.523404e-11 1.053646e-11
-3.964203e-09 -1.393804e-09 1.177375e-09 7.879016e-10 -8.535233e-10 -3.634282e-10
2.392860e-08 -8.268657e-09 1.895204e-09 8.437791e-09 8.677798e-10 1.855678e-10
-3.358336e-09 1.883997e-09 4.463221e-10 -2.111467e-11 -3.249756e-11 -4.440878e-16
-2.411996e-09 1.343140e-09 3.498664e-10 8.518928e-10 2.111403e-10 -8.220502e-11
2.389093e-08 -1.276828e-08 6.867978e-09 9.589647e-09 5.331158e-10 1.004619e-10
1.427546e-08 3.369442e-09 -3.134650e-09 1.043504e-08 1.116626e-09 1.580122e-09
1.023197e-08 1.416647e-09 7.620133e-09 2.258691e-08 5.627417e-09 4.344003e-09
2.668632e-09 -1.369494e-09 -3.915213e-10 7.103651e-12 -2.161027e-11 -1.303069e-11
-3.198554e-09 1.874463e-09 4.336378e-10 1.814087e-10 5.559331e-11 1.146536e-10
8.845323e-09 6.266904e-09 -2.848209e-09 1.650894e-08 1.326224e-09 -1.356597e-09
9.871271e-09 3.614974e-09 -2.594862e-09 1.290143e-08 -1.079888e-10 1.692495e-10
1.856583e-08 5.796662e-10 -3.063780e-10 1.506011e-08 3.436332e-09 2.062662e-09
4.296346e-09 -2.599424e-09 -6.121270e-10 8.341606e-10 1.361214e-10 4.654199e-11
-4.504670e-09 1.626285e-09 5.191287e-10 -8.649568e-10 -5.634781e-10 -4.951325e-10
-3.439297e-09 2.316016e-09 2.995755e-10 -9.896470e-10 -9.588574e-11 -1.596403e-10
-4.923368e-09 2.533840e-10 2.753389e-10 5.586290e-10 -1.010105e-10 1.775087e-10
-4.413798e-09 1.768969e-09 3.046385e-10 -6.015887e-10 -5.089167e-10 -2.038030e-11
1.938281e-08 -5.482712e-09 -2.132396e-09 6.287672e-09 1.126281e-09 1.887394e-09
-4.635140e-09 2.115035e-09 6.750529e-10 -5.951243e-10 -1.265640e-10 -1.836611e-10
1.761155e-08 1.235633e-09 -2.719416e-09 1.026679e-08 1.247760e-09 3.997667e-10
6.836300e-09 -2.713643e-09 4.037766e-10 -4.456582e-09 -8.347900e-11 -4.083585e-10
7.590369e-09 -3.114370e-09 -5.856027e-11 -3.572309e-09 -7.987677e-11 -3.870353e-10
-2.980368e-09 2.423854e-09 2.003622e-10 -5.811622e-10 -1.105167e-10 -8.530637e-11
3.988740e-09 -3.166253e-10 -2.353564e-10 -5.795820e-09 -2.358069e-10 -1.103589e-10
5.485272e-09 -1.312435e-09 -4.998366e-10 -6.077291e-09 1.051257e-10 2.765308e-10
7.374025e-09 -4.090126e-09 -6.724399e-11 -3.102665e-09 1.237890e-11 -4.320585e-10
9.569090e-09 -4.080414e-09 1.190676e-09 -3.291676e-09 5.052647e-11 -2.508009e-10
8.358668e-09 -3.693939e-09 1.086128e-09 -4.516257e-09 1.257568e-10 -1.268124e-09
3.838903e-10 5.682725e-10 -1.935954e-10 -1.993866e-09 -3.248753e-10 -1.091518e-10
6.234456e-09 1.331226e-08 -4.063034e-08 1.468663e-08 6.452545e-09 6.128190e-10
-4.493331e-09 2.418927e-08 -3.637416e-08 1.289098e-08 4.047444e-09 -6.017245e-09
7.192336e-09 2.962003e-08 -5.802585e-08 1.213332e-08 9.300575e-09 -1.017450e-08
-1.707391e-09 1.597747e-09 -7.095569e-11 -1.042933e-09 -2.249289e-10 -9.275983e-11
-4.413802e-09 1.079018e-09 7.934948e-10 -6.355630e-10 -6.569656e-10 -2.572946e-10
-6.045379e-09 5.832505e-09 -1.939312e-09 -1.209948e-09 -3.974861e-09 -6.358244e-10
-8.639617e-09 8.962752e-09 -6.250079e-09 -3.924941e-09 -7.093696e-09 -7.006088e-09
-3.279650e-09 3.589360e-08 -5.391593e-08 1.670959e-08 2.099324e-08 -2.139718e-08
-3.959719e-09 3.578260e-08 -3.915257e-08 9.310496e-09 1.478768e-08 -1.297874e-08
-8.782849e-09 1.243931e-09 1.453520e-09 -4.440212e-16 -1.973477e-10 -1.722807e-10
2.989621e-08 -9.901937e-09 1.420017e-09 -7.045848e-09 -1.011462e-09 7.056625e-09
2.985966e-08 -9.925358e-09 4.521147e-09 -6.653507e-09 3.572606e-10 7.431803e-09
3.051918e-09 -1.487350e-08 3.557966e-09 3.361807e-09 4.755232e-10 1.386843e-10
2.397497e-08 -3.032533e-09 -1.648418e-09 -9.104274e-09 3.727056e-10 4.277709e-09
1.425434e-08 -3.967629e-10 1.437632e-09 -1.073441e-08 -1.046749e-09 6.459016e-10
9.973830e-09 -2.725490e-10 8.321090e-10 -1.041007e-08 -3.563449e-10 -3.771965e-10
9.487278e-09 5.543889e-10 -3.395415e-10 -9.515661e-09 -6.806083e-10 3.632586e-09
7.632268e-09 -2.050907e-08 3.174847e-09 -1.264780e-09 1.031545e-09 -2.417092e-10
2.316074e-08 -6.555347e-09 8.130832e-10 -7.410085e-09 8.351856e-11 4.380233e-09
-3.566686e-09 -1.151523e-09 -5.841156e-09 1.189922e-08 2.918891e-09 -1.746285e-09
5.454265e-09 -1.880958e-08 2.643942e-09 4.589681e-09 7.888077e-10 -4.860734e-11
-5.599290e-09 -1.145241e-09 -3.548183e-09 1.180426e-08 3.057537e-09 -2.210834e-09
-3.249210e-09 2.421389e-09 2.494325e-10 -6.085967e-10 -1.334994e-10 -1.754947e-10
2.427434e-09 3.944134e-11 -4.318466e-10 -4.516345e-09 9.661627e-11 -2.845982e-10
3.111888e-09 -1.606098e-09 -5.513501e-10 -3.583676e-10 -1.989784e-10 1.325411e-10
3.734183e-09 -8.949143e-10 -4.432694e-10 -4.912115e-09 7.572476e-11 -2.178517e-10
-2.608512e-09 -7.379113e-09 -2.519588e-09 1.165625e-08 2.185433e-09 -9.944862e-10
-6.006100e-09 -9.684316e-10 -1.430867e-09 8.826179e-09 1.357862e-09 2.075940e-11
-3.041694e-09 2.517218e-09 1.444991e-10 -3.202862e-10 -4.072742e-12 -1.597705e-11
-2.954010e-09 2.510428e-09 2.106286e-10 -4.588083e-10 -3.434669e-11 -1.548939e-11
-4.072080e-09 2.461765e-09 4.467808e-10 -7.464824e-10 -1.286473e-10 -3.568146e-10
-2.804863e-09 2.414525e-09 1.451657e-10 -2.542628e-10 1.216094e-11 2.926348e-11
-2.779183e-09 2.412520e-09 1.644951e-10 -3.096781e-10 3.189768e-11 -2.005063e-12
-3.681111e-09 2.729341e-09 3.134677e-10 -1.142282e-10 -1.284284e-11 -1.023368e-10
-2.808321e-09 2.262616e-09 1.667968e-10 -6.811460e-10 5.206260e-11 2.364819e-11
-3.228732e-09 2.248815e-09 3.051750e-10 -1.139001e-09 -2.420874e-10 -2.073107e-10
-1.889823e-09 1.954697e-09 1.389728e-10 -1.390345e-09 -1.977445e-10 1.447065e-12
-1.425887e-09 1.041107e-09 1.970246e-10 5.026222e-10 1.204883e-10 -6.096734e-11
-1.637115e-09 1.058431e-09 1.933003e-10 3.971534e-10 1.312117e-10 1.252558e-10
-1.968975e-09 1.335159e-09 2.279301e-10 4.292526e-10 1.049383e-10 -2.425649e-11
1.701468e-09 -6.507932e-10 -4.407310e-10 -9.059884e-10 -1.496390e-10 -1.018057e-10
-1.244217e-09 7.672321e-10 1.278391e-10 1.744927e-11 8.038776e-11 7.299417e-11
-2.493162e-09 1.366632e-09 3.086398e-10 4.553594e-10 1.155128e-10 -5.532805e-11
2.944560e-10 1.442917e-10 -2.995244e-10 -2.192907e-09 -1.128138e-10 -1.034139e-11
-2.118963e-09 -5.374226e-09 9.718373e-10 2.375666e-10 -8.128831e-11 -4.205065e-10
-1.885246e-09 1.141888e-09 2.882494e-10 4.376433e-10 3.215161e-11 -6.492584e-13
1.153500e-08 -2.628093e-08 -3.196506e-09 -8.101007e-09 -1.159645e-08 -1.222729e-09
1.554694e-08 2.377300e-09 -4.020835e-08 -1.849136e-09 -1.911856e-08 2.552163e-09
1.360836e-08 -3.100158e-08 -8.638539e-10 -2.023599e-09 -1.173906e-08 -9.446144e-10
8.237516e-09 -2.087843e-08 -1.164134e-09 -4.985669e-09 -4.480062e-09 -9.031946e-10
-6.812666e-09 -3.700924e-09 1.966389e-09 -3.720992e-09 -1.394671e-09 -3.676893e-10
-8.116082e-09 1.506264e-09 -5.225398e-10 -1.750364e-09 1.558427e-10 -1.154660e-10
7.376555e-09 -8.992426e-09 2.278032e-08 -1.636614e-10 2.787416e-09 -5.820221e-09
-1.837096e-09 -5.374226e-09 1.451979e-09 8.498890e-11 -1.667142e-10 8.718226e-11
-4.847685e-09 -9.414451e-10 7.870269e-10 1.433889e-09 -1.351087e-09 1.401774e-10
-6.209629e-09 -4.714273e-10 -1.779171e-09 -3.169002e-09 -1.186865e-09 -3.881598e-10
7.495489e-09 -2.231240e-08 1.149663e-09 1.962808e-10 -8.275232e-10 5.150168e-10
-7.843242e-09 -1.659931e-09 1.844183e-09 -1.312185e-09 -1.136516e-09 -1.487770e-10
-5.514272e-09 -3.887488e-09 3.530616e-10 -1.312162e-09 -3.639600e-11 1.693645e-11
-5.640622e-09 9.484341e-09 -5.604440e-09 -1.189350e-09 -4.688144e-09 -5.278902e-09
-7.312407e-09 -9.681411e-10 5.492282e-10 -4.748819e-10 -3.646143e-10 -1.715537e-10
-3.600633e-09 2.393550e-09 7.478667e-10 1.936526e-09 3.355142e-10 -3.322242e-10
-7.078945e-09 -1.788744e-09 4.325642e-10 -1.202831e-09 -2.492451e-12 -4.506440e-11
-7.321511e-09 -4.582281e-10 1.084788e-09 5.147545e-09 2.271697e-09 -5.413277e-10
-8.609694e-09 3.544964e-09 3.806515e-10 1.219629e-09 1.532117e-09 -2.404192e-10
-8.337682e-09 6.379627e-09 -6.786132e-10 1.344155e-09 1.642670e-09 -1.674556e-10
-7.888572e-09 4.239880e-09 3.475220e-11 1.186706e-09 2.572823e-09 -2.229131e-10
-4.178631e-09 2.184585e-09 8.051337e-10 5.877782e-10 3.859844e-10 2.474261e-10
-4.377039e-09 1.217709e-09 1.074700e-09 -1.491813e-09 9.264900e-11 -5.045418e-10
-8.326453e-09 4.220820e-09 5.017082e-10 1.340086e-09 2.234265e-09 -1.742563e-10
5.258577e-09 -1.217712e-08 -5.042804e-09 -5.978929e-09 -1.901745e-09 -7.726671e-10
1.178804e-08 -1.911480e-08 -1.029150e-08 -3.769785e-09 -6.495153e-09 -1.706983e-11
6.404626e-09 -1.719283e-08 -3.210017e-09 -3.226136e-09 -5.749265e-10 3.721385e-11
1.042147e-08 -1.882149e-08 -3.869762e-09 -2.358682e-09 -1.646558e-09 1.399396e-11
1.040395e-08 -1.985473e-08 -5.065140e-09 -2.551564e-09 -1.914637e-10 4.112395e-10
-2.123333e-09 1.182096e-09 2.436491e-10 6.254596e-10 1.821403e-10 -1.260518e-10
1.011154e-08 -1.507193e-08 -1.077073e-08 -5.302748e-09 -8.773870e-10 2.510037e-11
-3.985359e-09 -7.728866e-10 -1.792990e-09 2.665291e-09 -1.020197e-09 5.485355e-10
-2.283105e-10 -5.751946e-09 -1.446503e-09 1.856516e-09 -1.789820e-09 5.783641e-10
4.785436e-10 -7.574857e-09 -5.736451e-09 1.320698e-08 2.258719e-09 -1.225201e-09
-7.045992e-09 1.185148e-08 -3.644881e-09 -5.178853e-09 3.264785e-10 -1.129961e-09
1.133664e-08 -2.477299e-08 -7.595233e-09 4.957309e-09 5.299406e-09 -5.192231e-10
-2.517520e-09 -2.509458e-09 -1.534231e-09 2.355275e-09 -1.204168e-09 3.750389e-10
-6.693558e-10 -4.415567e-09 -2.117897e-09 4.166258e-09 -1.690455e-09 3.631865e-10
-2.822684e-09 -3.025324e-09 -1.577002e-09 2.498937e-09 -1.093086e-09 5.249806e-10
-7.227511e-09 7.583037e-09 -3.805271e-09 -1.847516e-09 -4.094215e-09 -2.114668e-09
1.473211e-08 -4.584885e-09 -3.015279e-08 -9.481523e-09 1.331972e-08 5.735572e-09
1.141584e-08 3.292372e-09 -3.382734e-08 -1.043872e-08 6.058127e-09 2.337172e-09
-8.163180e-09 1.330043e-10 1.430382e-09 1.379604e-09 7.709158e-10 -1.834117e-10
1.456506e-08 1.112856e-09 -4.186149e-08 -8.916993e-09 1.015850e-08 5.344315e-09
2.470688e-08 -2.730298e-09 -4.947560e-08 -2.273259e-10 2.303075e-08 5.134156e-10
1.877733e-08 -7.606054e-10 -4.579470e-08 -1.672477e-09 7.764466e-09 1.551101e-09
-3.183142e-10 -9.586568e-09 9.504859e-10 -4.959209e-10 -3.918443e-10 -3.689772e-11
4.624436e-09 -2.409487e-09 -7.138361e-10 8.601335e-10 8.700652e-12 1.731211e-10
5.027386e-09 -2.932985e-09 -7.074341e-10 1.567479e-10 1.838376e-12 1.007002e-10
5.085148e-09 -2.974447e-09 -6.939214e-10 3.757230e-10 6.181455e-11 -6.759037e-13
4.877000e-09 -2.654082e-09 -7.062225e-10 2.898460e-10 3.206511e-11 9.410844e-11
-2.025949e-09 1.144945e-09 3.324039e-10 1.479278e-09 1.356193e-11 -2.677097e-11
-9.279172e-10 -1.108837e-08 2.901067e-09 5.102017e-09 4.734513e-10 8.311018e-11
-1.245087e-09 7.199521e-10 2.463709e-10 1.368543e-09 1.092288e-10 4.504508e-11
-7.550086e-09 1.275994e-09 4.937748e-10 3.737542e-09 -2.389893e-10 -3.080918e-10
-1.260754e-09 1.148075e-09 3.268132e-10 1.994791e-09 -8.422951e-11 5.385314e-11
-2.206368e-09 1.173195e-09 4.313676e-10 1.380170e-09 5.757761e-11 -1.094316e-10
-6.705820e-09 1.279415e-08 -4.392477e-09 -4.623707e-10 3.292752e-09 -2.383413e-09
3.737985e-09 -1.280400e-08 -4.119568e-09 2.669974e-09 -4.775451e-10 3.495549e-10
2.066773e-09 -1.132735e-08 -3.447096e-10 1.706270e-10 -1.956251e-10 8.446993e-11
-2.459357e-10 -7.756325e-09 -3.348428e-10 2.166483e-09 -1.050349e-09 2.591612e-10
-2.799142e-10 -7.686376e-09 -1.618207e-09 3.089588e-09 4.790133e-10 -1.328199e-10
-2.188224e-10 -6.982905e-09 -5.199294e-10 1.817812e-09 -8.516813e-10 9.599921e-11
1.272847e-08 2.454706e-08 -6.021920e-08 -1.820618e-08 2.112915e-08 1.376807e-08
1.920017e-09 1.713181e-08 2.497838e-09 -1.807510e-08 -4.061382e-09 2.203920e-09
3.770401e-09 -1.348544e-08 -1.797864e-09 2.422705e-09 2.106909e-10 -7.731179e-12
7.540379e-09 6.496089e-09 -2.912517e-09 -8.094048e-09 4.993958e-10 5.897747e-10
-9.348921e-09 7.997605e-09 -3.767906e-09 5.887474e-09 4.439280e-09 -2.318954e-09
3.735781e-09 -1.382132e-08 -4.916529e-10 2.419416e-09 -9.548366e-10 2.994183e-10
6.911052e-10 -9.632458e-09 -2.119482e-10 1.953459e-09 -1.934128e-10 3.285109e-10
1.058019e-09 -1.046895e-08 -3.790723e-10 1.443370e-09 -9.643406e-10 3.914244e-10
2.455159e-08 -9.210904e-09 -5.887122e-10 -5.453394e-10 3.524131e-10 1.845899e-10
1.276630e-08 -2.339865e-08 -6.852580e-09 1.436177e-09 -9.952631e-09 7.712497e-11
9.980470e-09 -1.780578e-08 -5.379753e-09 3.904907e-09 -2.089981e-09 8.118102e-10
9.736635e-09 -2.179889e-08 -2.573977e-09 1.691897e-09 -3.083117e-09 7.999896e-10
1.968171e-09 -1.248014e-08 6.478480e-10 -6.353691e-10 -6.131418e-10 -8.237873e-10
1.095420e-08 -2.371011e-08 -6.949255e-10 3.140223e-09 -4.578703e-09 1.333065e-09
1.207511e-08 -2.388542e-08 -3.223934e-09 -1.124134e-10 -3.752434e-10 7.263323e-11
1.190695e-08 -2.351536e-08 -4.342516e-09 5.287475e-10 -3.316620e-09 2.184522e-10
-7.966978e-09 6.071194e-09 -2.289004e-09 -1.604319e-09 8.488410e-11 1.048035e-10
1.972033e-08 -4.295738e-09 -4.141167e-09 2.905751e-09 -1.576683e-09 1.818556e-10
-4.164088e-09 1.042808e-08 -1.504176e-08 -4.909920e-09 -5.666288e-09 -2.225837e-09
9.980150e-09 -1.912229e-08 -8.608776e-09 4.149151e-09 -4.952382e-09 9.757948e-10
-1.629283e-09 1.619303e-09 -3.167155e-11 -4.170777e-10 -4.793488e-11 1.761102e-11
-1.394229e-09 1.599118e-09 -1.894662e-11 -2.853460e-10 -1.006504e-10 1.540748e-10
2.483711e-08 -6.885567e-09 -4.549259e-09 1.205594e-09 4.337740e-10 2.997554e-10
-6.811866e-09 -1.565032e-09 1.892196e-09 -5.622063e-10 -1.036593e-10 -2.170464e-11
1.816471e-08 -2.264398e-09 -3.781044e-09 5.589380e-09 7.193804e-12 3.584992e-10
-4.634513e-09 -4.999321e-09 1.937758e-09 -1.059348e-09 -1.297274e-11 -8.900440e-12
-8.221095e-10 1.300284e-09 -9.845258e-11 -3.075842e-10 -3.810285e-11 -1.569639e-10
2.424323e-08 -9.323339e-09 -2.621005e-09 1.925760e-09 -1.728874e-12 2.951435e-10
-2.060341e-09 1.926903e-09 5.057688e-11 -5.696776e-11 -1.075395e-10 4.091838e-12
-1.066581e-09 1.371111e-09 -8.255885e-11 -4.851448e-10 -8.375078e-12 -2.127853e-11
-1.497593e-09 1.570518e-09 2.083977e-11 -4.136936e-10 -6.586243e-11 1.071536e-10
-2.189022e-09 1.826245e-09 8.615331e-11 -9.082413e-10 -7.722428e-11 -8.894840e-11
-4.616590e-09 7.478876e-09 -2.459996e-09 4.276799e-10 1.852485e-09 -1.266793e-09
-2.345780e-09 2.148878e-09 1.138263e-10 -4.564331e-10 -7.175349e-11 5.793288e-11
-6.500667e-10 1.366760e-09 -1.821636e-10 -9.905228e-10 -4.460965e-11 -7.277001e-11
-9.386492e-10 1.112949e-09 -1.781919e-10 -1.060277e-09 -1.383904e-11 -2.982139e-10
-1.311033e-09 1.655433e-09 -3.483924e-11 -5.860885e-10 -9.106582e-11 -1.488054e-11
-6.928797e-09 5.558365e-09 -7.850951e-10 4.251144e-09 3.451690e-09 -9.768434e-10
1.427588e-08 -3.399481e-10 5.173946e-10 -1.078050e-08 -5.724091e-10 -1.702145e-11
1.079447e-08 4.159113e-10 -3.220448e-09 4.798195e-10 1.813723e-09 1.807515e-10
-5.710702e-09 8.770977e-09 -2.616588e-09 9.784312e-11 1.981309e-09 -1.087893e-09
-8.871535e-10 1.078336e-09 -8.433787e-11 -8.616290e-10 -9.652945e-11 -1.192713e-11
-3.796018e-09 7.824497e-10 1.045394e-09 -4.144885e-11 1.099951e-10 5.981882e-11
-3.852001e-09 3.844431e-10 1.267071e-09 -3.256469e-10 -1.013478e-11 -2.441780e-10
-3.813309e-09 -7.538219e-10 1.480164e-09 -8.574590e-10 -1.226290e-10 -1.113798e-10
-3.829088e-09 -7.395391e-10 1.315201e-09 -8.941055e-10 1.912412e-10 4.191875e-11
-3.826494e-09 3.758416e-10 1.154139e-09 -4.443916e-10 1.726934e-10 -6.562173e-11
1.812761e-09 -7.588801e-10 -4.783858e-10 -2.187031e-09 -1.218659e-10 1.561729e-11
-3.845187e-09 -3.002771e-10 1.315910e-09 -5.605130e-10 5.355560e-11 -1.695901e-10
-7.923380e-09 3.804454e-09 8.867396e-11 1.027782e-09 2.718765e-09 -1.208057e-10
-8.335642e-09 4.701956e-09 -6.549253e-09 1.201447e-08 3.959762e-09 -3.724812e-09
-4.367302e-09 2.442474e-09 9.422152e-11 -1.857191e-09 -1.462803e-10 5.363443e-11
-3.955288e-09 2.398559e-09 1.705720e-10 -1.786606e-09 -1.701381e-10 3.086118e-10
-3.508296e-09 2.477261e-09 4.288392e-11 -2.208034e-09 -2.559877e-10 2.669265e-10
-4.762724e-09 1.733934e-09 3.738800e-10 -8.501112e-10 -3.411402e-10 2.124618e-10
6.515970e-09 -2.053005e-08 1.648260e-09 3.596711e-09 2.970562e-10 -1.795201e-10
1.272182e-10 4.157261e-10 -2.766373e-10 -1.520151e-09 -1.253866e-10 7.448586e-11
-3.547676e-09 2.341904e-09 7.112755e-11 -2.328672e-09 -1.950313e-10 9.194989e-11
-6.155340e-09 -3.825267e-09 2.066775e-09 8.398071e-09 1.715080e-09 -1.303063e-10
6.933873e-09 -2.033949e-08 3.753077e-09 8.330843e-10 3.906954e-11 3.713835e-11
-4.696136e-09 -4.848546e-09 -1.720508e-09 1.171425e-08 2.470044e-09 -9.063852e-10
-7.076797e-09 1.248866e-09 -1.967625e-09 8.829113e-09 7.370977e-10 2.138355e-11
-7.763392e-09 4.857363e-09 -3.643122e-09 8.494138e-09 1.492785e-09 -1.418070e-09
-6.043012e-09 5.112921e-09 9.042722e-10 2.119006e-09 -3.177370e-10 -1.571605e-10
1.000131e-08 -2.212751e-08 -6.487256e-09 -5.509466e-09 5.065402e-09 4.427680e-10
7.246904e-09 -1.936583e-08 3.150252e-09 -2.297171e-09 4.807013e-10 -3.624393e-10
-5.222494e-09 1.678490e-09 -7.353842e-09 1.250711e-08 1.896345e-09 -1.938212e-09
-3.879421e-09 4.547602e-10 -9.070049e-09 1.504385e-08 5.588893e-09 -2.709984e-09
5.679315e-09 -1.721529e-08 2.792997e-09 -2.518813e-09 1.499085e-10 -3.660298e-10
3.067017e-09 -1.542742e-08 3.734052e-09 8.458894e-10 -1.809999e-10 8.844436e-11
5.297659e-09 -2.218293e-09 -2.553859e-08 1.657024e-08 1.372345e-08 -3.158082e-09
-2.147112e-09 4.105676e-10 -1.092168e-08 1.522411e-08 4.034286e-09 -2.264716e-09
4.831719e-09 -2.795160e-09 -6.364833e-10 1.587607e-10 4.244261e-11 8.231305e-11
-6.217848e-09 6.339321e-09 -9.338207e-09 1.150345e-08 4.520892e-09 -3.188644e-09
-7.989682e-09 9.525732e-09 -1.094414e-08 1.089104e-08 2.441774e-09 -3.041880e-09
-1.723478e-09 -7.282408e-09 -4.442682e-09 1.434681e-08 3.942821e-09 -1.422027e-09
-4.709086e-10 6.000533e-10 1.326725e-10 1.856653e-09 -3.691536e-11 -7.576961e-11
-6.284376e-09 4.701064e-09 -9.551559e-09 1.201661e-08 3.906337e-09 -2.955908e-09
-2.320450e-09 -1.725892e-09 -7.743278e-09 1.335800e-08 9.531926e-10 4.667591e-10
-4.339814e-09 -1.734246e-09 -4.653242e-09 1.270962e-08 1.517834e-09 -3.492964e-10
2.158813e-09 -7.390271e-10 -4.515099e-10 -3.657294e-10 -1.309669e-10 -2.944826e-10
3.402826e-09 -1.416312e-09 -5.373004e-10 -8.601055e-10 -1.310285e-11 -7.983148e-11
2.817231e-09 -1.131088e-09 -5.320675e-10 -1.397054e-10 -5.182654e-11 -1.700449e-10
2.004791e-09 -1.029808e-09 -3.505578e-10 6.014221e-10 2.452042e-10 -2.367806e-11
2.113984e-09 -1.005713e-09 -3.534897e-10 5.252251e-10 -4.922174e-11 1.390332e-11
2.438906e-09 -8.340425e-10 -5.397340e-10 -7.697837e-10 -4.941725e-11 2.850375e-11
2.191766e-09 -8.710843e-10 -4.787859e-10 -6.362304e-10 -1.715910e-10 1.131353e-10
8.301501e-09 -3.532900e-09 -2.195862e-08 -7.645301e-09 -3.947294e-09 -1.275224e-09
1.008411e-08 -1.373364e-08 -1.370926e-08 -5.156319e-09 -7.862429e-09 -3.048175e-10
1.072325e-08 -8.219566e-09 -1.925643e-08 -7.071597e-09 -3.137568e-09 -5.981775e-10
-6.511081e-10 7.396346e-10 -1.625891e-10 -1.495713e-09 -1.046105e-10 3.179790e-11
2.492967e-09 -1.186236e-09 -2.977956e-10 4.775066e-10 2.354339e-11 1.520562e-10
-2.347996e-09 1.434024e-09 3.686296e-10 1.954099e-10 1.677494e-10 -2.386510e-10
2.375330e-09 -1.137649e-09 -3.614704e-10 5.036500e-10 7.369128e-11 3.023379e-10
2.828391e-09 -1.277878e-09 -3.539569e-10 9.861045e-10 2.139526e-10 1.063405e-10
-1.923757e-09 1.238732e-09 2.533409e-10 2.149489e-10 8.615419e-11 -3.865286e-11
-4.049024e-09 2.219684e-09 5.483949e-10 -1.836165e-21 1.013312e-11 1.640110e-11
-3.616744e-09 1.487572e-09 7.256444e-10 5.472267e-10 1.018385e-10 -2.199396e-11
-3.849024e-09 1.868630e-09 6.191767e-10 1.192580e-10 6.543915e-11 -1.631510e-10
3.952188e-09 -2.022869e-09 -4.766898e-10 5.463884e-10 9.597134e-11 9.750986e-11
1.661403e-09 -3.386982e-10 -3.734981e-10 -6.993745e-10 -1.836900e-10 1.495061e-10
3.284429e-09 -2.054043e-09 -4.624512e-10 3.775869e-10 9.641316e-11 4.067346e-11
2.259458e-08 -1.863275e-08 -4.243784e-08 4.587934e-09 1.643388e-08 2.434147e-09
1.792645e-08 -2.116543e-09 -4.009583e-08 1.401448e-08 1.745232e-08 -7.316333e-09
7.093046e-10 1.530998e-10 -6.324474e-11 1.613827e-09 2.043530e-10 -2.716449e-11
1.496153e-08 -8.301164e-09 -3.222643e-08 8.897033e-09 9.069417e-09 -6.064641e-10
3.993047e-09 -1.683989e-08 2.725633e-09 4.586635e-09 1.147855e-09 -1.561833e-10
-7.082761e-09 1.175069e-09 -2.825266e-09 8.954437e-09 1.446879e-09 -1.205175e-09
1.492407e-08 -1.609795e-08 -2.150499e-08 8.356608e-09 7.218009e-09 -7.345404e-10
1.532228e-08 -2.235035e-08 -2.211664e-08 5.365854e-09 6.883130e-09 -3.058694e-10
-8.718304e-09 3.237549e-09 -1.824807e-11 1.861233e-09 6.122483e-10 -9.587175e-11
1.543741e-08 -1.603227e-08 -1.947796e-08 8.438021e-09 6.815032e-09 -6.574532e-10
1.951656e-08 -1.059047e-08 -3.127902e-08 3.249153e-09 4.225508e-09 -1.439447e-10
9.445079e-09 -3.002373e-09 -3.437888e-08 1.924175e-08 1.067499e-08 -3.452239e-09
-9.655008e-09 1.122092e-08 -1.089202e-08 9.835024e-09 3.408049e-09 -3.620684e-09
1.529123e-08 4.750926e-08 -7.719353e-08 3.403022e-09 1.555581e-08 6.510942e-09
-6.150396e-09 1.462603e-08 -5.497529e-09 -2.419212e-09 3.259312e-09 -3.650413e-09
-2.995865e-09 1.624178e-09 3.627332e-10 -4.780176e-12 7.249867e-11 -6.274536e-12
-7.302607e-09 5.878134e-09 -8.291186e-10 2.448927e-09 2.020681e-09 1.023914e-10
-2.229047e-08 3.046802e-08 1.511599e-08 -1.983568e-08 -1.017159e-08 -4.117990e-09
7.160640e-09 -2.041038e-09 3.982391e-09 -8.742630e-09 6.903793e-10 -2.155933e-09
2.023198e-08 -1.454508e-09 -2.830645e-09 -2.514522e-09 2.336853e-09 2.805649e-09
1.943945e-08 4.274229e-09 1.567528e-10 -1.681926e-08 -2.903004e-09 4.924056e-09
-4.531098e-09 -5.507187e-09 3.950706e-10 8.153627e-09 5.019730e-10 -5.660490e-10
1.195629e-08 -7.382125e-09 1.286978e-08 -3.452632e-09 1.994062e-10 -4.143716e-09
1.123023e-08 -6.385823e-09 9.966279e-09 -3.698580e-09 1.751084e-10 -5.649289e-09
-4.613487e-09 -4.325526e-09 2.282997e-09 6.709770e-09 1.375328e-09 -3.328211e-10
-4.410204e-09 -7.906730e-09 2.323831e-09 6.913684e-09 1.454534e-09 -2.137689e-10
1.402091e-08 -5.943356e-09 2.778629e-08 -2.346546e-08 -6.823685e-09 1.311928e-08
8.515221e-09 -5.868793e-09 9.212441e-09 -7.961342e-09 1.033321e-09 -2.339113e-09
-7.425643e-09 4.719396e-09 -7.821743e-12 1.718052e-09 2.463386e-09 -4.363797e-10
1.179345e-08 -2.931678e-09 5.394196e-09 -1.032506e-08 1.908111e-09 -5.453295e-09
-3.789427e-09 1.204826e-09 8.120677e-10 5.604961e-11 4.014566e-12 -1.064064e-10
-4.026572e-09 1.113419e-09 9.220522e-10 -1.951595e-11 4.618239e-11 1.176148e-11
-4.037209e-09 7.525394e-10 1.090036e-09 2.207887e-10 1.175460e-11 -9.100010e-11
-3.981303e-09 8.540200e-10 1.005596e-09 6.516342e-12 1.068630e-10 -2.946954e-11
-2.954025e-09 1.712721e-09 3.836451e-10 -2.310241e-11 7.129253e-11 -1.322520e-11
-1.045525e-08 1.097635e-08 -3.395721e-09 3.894967e-09 2.912342e-09 -4.083641e-09
-1.028389e-08 7.513299e-09 -1.988573e-09 7.609941e-09 3.224252e-09 -3.063651e-09
-3.433582e-09 1.793439e-09 5.580949e-10 3.360496e-10 2.230416e-11 5.333678e-12
-8.567606e-09 3.240667e-09 -4.169269e-10 1.462332e-09 1.032785e-09 -1.404192e-10
-2.545645e-09 1.529154e-09 3.355947e-10 2.700786e-10 4.369127e-11 1.875167e-11
3.027008e-09 -1.179929e-09 -5.054730e-10 -8.038461e-10 -1.837523e-10 1.079253e-10
-3.571970e-09 2.756279e-09 2.955547e-10 -9.487699e-11 -2.260014e-11 -2.630363e-11
-3.974909e-09 2.758909e-10 1.096734e-09 -2.627741e-10 6.409207e-11 -4.602341e-11
-4.362308e-09 2.585953e-09 5.689706e-10 -2.985585e-10 -1.894440e-11 -7.071210e-11
-2.308656e-08 4.313594e-08 5.604055e-09 8.815208e-10 9.196559e-09 1.117978e-08
-3.411196e-09 2.297676e-09 3.711103e-10 -1.148298e-09 -1.840806e-10 -1.951181e-10
4.339997e-09 -2.301336e-09 -6.312177e-10 -7.752909e-11 -1.533660e-10 3.185852e-11
-1.655954e-08 4.809341e-08 -2.263067e-08 -1.034052e-08 4.683377e-09 -1.887904e-09
-1.328999e-08 4.357633e-08 -7.682500e-09 5.776654e-09 1.176635e-08 4.222295e-09
-9.725959e-09 4.414880e-08 -2.836365e-08 4.200510e-09 -6.745945e-09 -3.816964e-09
-3.218293e-10 4.811722e-08 -2.270787e-08 -2.704552e-09 1.836475e-09 -4.816694e-09
-4.712021e-09 4.110694e-10 9.890746e-10 4.852453e-11 -8.518308e-10 -4.078371e-10
-2.872020e-08 4.283600e-08 -2.207375e-09 5.734993e-09 3.984828e-09 -1.005858e-08
-4.091930e-09 4.381595e-08 -3.835050e-08 -9.756545e-10 -2.483030e-09 -1.616773e-09
4.877566e-09 -1.795341e-08 3.684914e-09 1.365612e-09 1.318405e-10 -1.487342e-10
-2.744530e-09 2.294057e-09 1.389733e-10 -9.977805e-10 -1.613417e-10 -1.382422e-10
2.113371e-09 -1.423407e-08 3.803733e-09 2.338340e-09 -2.628986e-10 1.495267e-10
4.537583e-09 -1.507809e-09 1.253433e-08 8.002498e-09 5.628794e-11 -3.984308e-09
-3.963103e-09 5.564882e-09 -2.692666e-09 -5.706499e-09 4.947113e-13 2.446843e-10
-2.799139e-10 -8.271486e-09 -1.054630e-09 3.018262e-09 4.675316e-10 -2.042334e-10
1.936593e-09 -1.577217e-08 4.033451e-09 3.375918e-09 -3.291435e-10 2.572383e-10
4.372313e-09 -1.727006e-08 3.894065e-09 4.194460e-10 -4.873043e-12 1.515435e-10
-9.188840e-09 1.464903e-09 7.567986e-10 -2.424638e-10 -1.887819e-10 -7.282264e-11
3.142774e-09 -1.600539e-08 3.855432e-09 8.197980e-10 6.081736e-10 2.632927e-10
-4.911748e-09 1.355747e-09 3.720708e-10 -3.293743e-10 -6.669376e-11 1.941509e-10
4.089948e-09 -1.698971e-08 3.725065e-09 2.630212e-10 1.084827e-10 7.181233e-11
1.034316e-08 -2.504238e-08 -2.049436e-09 -2.059764e-09 -3.697823e-09 -6.025669e-10
-4.513419e-09 5.114642e-09 -6.895679e-09 -3.565893e-09 -2.754948e-09 -1.208156e-09
-3.473135e-08 -1.258330e-08 1.302565e-07 -1.547255e-08 1.470716e-08 -1.352265e-08
3.457455e-09 -1.706776e-08 3.784085e-09 5.586038e-10 1.010463e-10 -7.054934e-11
5.244151e-09 -3.936655e-09 -1.641327e-08 7.043004e-09 -9.038413e-09 4.235092e-09
-1.135056e-09 -1.070816e-08 4.154881e-10 -6.873148e-09 -5.407429e-09 -1.463560e-09
-5.462297e-10 -8.832714e-09 3.172071e-10 -5.582343e-09 -3.768875e-09 -1.012805e-09
1.186842e-08 -2.798685e-08 9.757355e-10 2.642039e-09 -8.552924e-09 6.009239e-10
-4.996999e-09 -3.456083e-09 7.490728e-10 -1.771617e-09 -1.146458e-09 -2.558696e-10
1.115275e-08 -2.275883e-08 -2.851487e-09 1.046350e-10 -4.513843e-10 1.731003e-10
1.046064e-08 -2.058586e-08 -7.720139e-09 2.011900e-09 -1.650097e-09 4.699327e-10
-2.176326e-11 -7.967152e-09 -2.471233e-09 5.444788e-09 -4.145670e-09 1.905231e-09
-4.300512e-09 -7.289907e-09 -2.584526e-10 -5.484686e-09 -2.778504e-09 -1.312907e-09
-4.540569e-09 -7.845756e-09 1.310391e-09 -5.658602e-09 -2.790239e-09 -1.179246e-09
3.587783e-09 -1.657428e-09 -6.450998e-10 -1.343234e-09 8.643891e-12 -1.234857e-11
2.933076e-10 4.400142e-10 -2.660321e-10 -4.589724e-10 -7.740919e-12 1.945148e-10
-4.187055e-09 -2.756336e-09 3.730394e-11 -6.218028e-09 -3.938322e-09 -1.127523e-09
-5.451062e-10 1.224943e-09 -1.354941e-10 -4.194893e-10 -7.673462e-11 5.484502e-12
-4.474040e-09 -7.464991e-09 3.272238e-10 -8.894245e-09 -4.958793e-09 -2.412460e-09
-5.184226e-09 -3.123597e-09 4.788834e-10 -5.112930e-09 -3.732982e-09 -5.747145e-10
-1.214246e-09 -9.850750e-09 -4.298244e-09 -6.878468e-09 -6.979564e-09 -2.229587e-09
-5.376180e-10 3.041727e-10 1.039457e-11 1.339694e-09 1.289264e-10 1.442846e-11
-3.481606e-10 4.546958e-10 9.978685e-13 1.146516e-09 6.625145e-11 1.308085e-10
4.494610e-09 -2.331291e-09 -6.513554e-10 -9.883872e-10 8.116663e-11 -8.625900e-11
1.525188e-09 -4.420686e-10 -1.219269e-10 1.345872e-09 2.718914e-11 -2.224496e-11
7.869636e-09 -3.239450e-09 -2.527898e-10 -2.713489e-09 -2.648859e-11 -1.604792e-10
1.156227e-09 -3.536240e-10 -1.837446e-10 1.252430e-09 1.219463e-10 8.910250e-11
7.884777e-10 -3.107399e-10 -1.853963e-10 1.235213e-09 5.301876e-11 1.227661e-10
-8.786400e-09 3.317043e-08 -1.574879e-08 5.747134e-09 -1.228534e-08 -7.967681e-09
-3.023997e-09 2.473022e-08 -2.825961e-08 1.695426e-09 -4.133523e-09 -4.082495e-09
-3.334540e-09 2.581785e-09 2.529355e-10 -4.532490e-10 2.381850e-11 -2.652456e-11
-9.388577e-09 2.414986e-08 -1.952264e-08 4.417971e-09 -3.329852e-09 -5.603116e-09
-4.292867e-09 3.383909e-08 -2.529161e-08 2.125735e-09 -8.216941e-09 -7.230011e-09
5.731060e-11 3.352685e-08 -2.000583e-08 1.165751e-08 -3.697148e-09 -5.779452e-09
7.046145e-09 -2.013775e-08 3.411376e-09 -1.345064e-09 5.825022e-10 -4.418482e-10
-1.417606e-09 6.677698e-10 7.265033e-11 2.406828e-10 5.763856e-11 -8.079698e-11
5.291344e-09 -1.765189e-08 2.918107e-09 -2.798367e-09 4.493787e-10 -3.420869e-10
-2.707125e-09 2.418310e-09 1.348077e-10 -4.343614e-11 -9.926146e-11 -1.716893e-11
6.338358e-09 -1.834151e-08 3.364623e-09 -1.062644e-09 4.867123e-10 -2.575100e-10
-3.438423e-09 2.749162e-09 2.367333e-10 4.440899e-16 -1.780021e-11 -1.916201e-11
5.497526e-09 -1.678129e-08 3.264137e-09 -2.295994e-09 2.870997e-10 -2.375650e-10
4.002013e-09 -1.517295e-08 3.042142e-09 -2.713284e-09 -1.152432e-10 -3.368175e-10
1.238054e-08 -4.400754e-10 9.280985e-10 -1.204026e-08 -4.107569e-10 1.625427e-09
4.727565e-10 6.343619e-09 1.424867e-09 -1.548331e-08 -1.036695e-09 5.612133e-10
5.406769e-09 1.042704e-08 3.793543e-10 -1.199733e-08 -2.126512e-09 2.556021e-09
-2.707122e-09 2.402734e-09 1.214293e-10 -8.099033e-11 5.306883e-14 -1.462697e-11
3.934368e-09 8.358390e-09 -2.435022e-09 -7.362261e-09 -1.115552e-09 2.181001e-09
1.047100e-08 1.406398e-09 1.516375e-09 -1.313594e-08 -1.724058e-09 3.345560e-09
-2.086633e-09 1.951492e-09 1.243627e-11 -1.067999e-10 -1.885338e-10 -7.567724e-12
2.363656e-10 8.226469e-09 -2.640709e-09 -6.634960e-09 3.192490e-10 1.348929e-09
4.133615e-09 -1.597905e-08 2.400330e-09 -3.994614e-09 6.347873e-10 1.489343e-10
-1.219471e-09 1.011275e-09 1.721292e-10 1.200770e-09 2.311418e-11 -4.385314e-11
3.276263e-09 -1.375680e-08 2.115979e-09 -4.475841e-09 -1.044897e-10 1.856740e-10
3.006023e-09 -1.294844e-08 2.057428e-09 -4.714775e-09 6.575074e-10 -3.443247e-10
2.070671e-09 -1.094420e-08 2.700488e-09 -3.748527e-09 -2.024876e-10 1.582380e-10
2.624254e-09 -1.379223e-08 2.739350e-09 -2.252380e-09 -6.132896e-10 1.150883e-11
4.062737e-09 -1.461490e-08 2.183835e-09 -3.920322e-09 -4.431393e-10 -2.224179e-10
6.143912e-09 -3.236783e-09 -7.409344e-10 -1.103318e-10 3.234449e-11 -9.076287e-11
5.593613e-09 -3.223519e-09 -7.757497e-10 -3.533918e-11 3.812506e-12 2.044831e-11
5.809603e-09 -3.128981e-09 -7.116334e-10 5.231594e-10 -2.431724e-11 2.352498e-10
5.730535e-09 -3.301040e-09 -7.255119e-10 2.172153e-10 3.454244e-11 3.756395e-11
6.806784e-09 -1.926092e-08 3.639396e-09 -3.631650e-10 2.540381e-10 -1.579764e-10
5.195301e-09 -2.998294e-09 -6.709624e-10 8.465090e-12 4.226132e-11 1.067008e-11
3.290088e-09 -1.783636e-09 -4.388288e-10 4.629993e-10 2.145354e-10 6.656631e-11
3.353861e-09 -1.757959e-09 -5.074341e-10 4.308021e-11 1.046998e-10 3.679279e-13
2.659798e-09 -1.438933e-09 -3.684457e-10 6.897505e-11 2.326739e-10 8.426815e-12
6.454893e-09 -1.868196e-08 3.624949e-09 -3.573108e-10 1.993916e-10 -2.415958e-10
7.045714e-09 -1.999737e-08 3.120356e-09 -7.162003e-11 4.736692e-10 -1.709733e-10
5.821468e-09 -3.144599e-09 -7.502220e-10 7.246226e-11 -1.974088e-11 8.019874e-11
7.004076e-09 -2.014127e-08 3.555270e-09 -2.919342e-11 -3.988187e-11 -7.265860e-11
6.529397e-09 -1.887008e-08 3.585628e-09 -5.004188e-10 1.222609e-10 -2.163012e-10
3.408913e-09 -1.861581e-10 9.220167e-10 5.644403e-09 -2.835759e-10 -8.913821e-10
5.415782e-09 -2.961461e-09 -7.023500e-10 1.006412e-11 4.066505e-11 -1.118927e-11
3.882166e-09 -1.749032e-09 -6.290604e-10 -2.012082e-09 -2.265812e-10 1.099487e-10
4.254147e-09 -2.089680e-09 -5.883143e-10 -8.188219e-10 -1.969043e-10 2.142458e-10
4.300915e-10 5.306400e-11 -2.769687e-10 -5.063678e-10 -8.427795e-11 -6.918910e-11
2.935980e-09 -1.174808e-09 -5.859602e-10 -2.188922e-09 -6.064260e-11 6.057910e-11
6.898174e-09 -1.985217e-08 3.555556e-09 -2.091704e-11 2.529919e-10 -1.410344e-10
1.606967e-09 -2.543645e-10 -3.152789e-10 -1.378311e-10 -2.676428e-10 1.279621e-11
6.922470e-09 -1.983955e-08 3.620216e-09 -1.697811e-10 1.366247e-10 -8.979584e-11
6.936097e-09 -2.005490e-08 3.760665e-09 -1.216701e-10 2.854956e-11 -5.279310e-11
-2.321293e-09 2.341046e-08 -1.767108e-08 -1.646914e-08 -5.761693e-09 5.832211e-09
2.483583e-09 -9.113498e-10 -4.603407e-10 -1.479502e-09 -1.959484e-10 -1.270775e-10
-2.042060e-09 1.866120e-08 -2.048260e-08 -7.270457e-09 4.081615e-10 1.083242e-09
-2.973757e-09 1.313526e-08 -8.134953e-09 -8.300415e-09 -1.185199e-09 3.940104e-09
-3.956730e-09 2.688177e-09 4.155591e-10 -2.041055e-10 -2.691491e-11 -1.287309e-10
-2.989699e-09 1.329668e-08 -1.335258e-08 -8.409489e-09 -2.632334e-10 2.347628e-09
1.606971e-09 -6.321459e-10 -4.011711e-10 -4.666667e-11 -5.594547e-11 -1.145573e-11
-2.311709e-09 2.116884e-09 6.499179e-11 -1.629679e-10 -1.019465e-10 8.818046e-11
-9.111876e-10 1.300393e-09 -3.547296e-11 -1.716854e-09 -2.886426e-10 -1.276475e-10
-3.012901e-09 1.105430e-08 -2.749729e-09 -1.018041e-08 4.403526e-10 2.085629e-09
-8.393624e-10 1.211584e-08 -5.085348e-09 -1.372203e-08 1.900761e-09 9.979359e-10
3.077082e-08 -1.447752e-08 1.343125e-08 8.659623e-10 1.699583e-10 3.353742e-09
-4.530917e-09 1.039886e-09 1.008639e-09 -3.432377e-10 -1.034299e-10 -5.495520e-10
5.745052e-09 -1.758504e-08 -9.114665e-11 1.884390e-10 -7.600076e-10 5.561890e-10
5.033141e-09 -1.839439e-08 2.007544e-09 2.319208e-09 -8.904720e-10 -7.990370e-11
-4.758762e-09 1.027037e-09 8.554446e-10 2.021650e-10 -1.929501e-10 -2.136047e-11
-4.057923e-09 2.495545e-09 3.343654e-10 -8.120339e-10 -1.711223e-10 -4.113073e-10
2.492255e-08 -1.146182e-08 1.351940e-08 -8.474414e-09 -6.330606e-11 5.818999e-09
2.976829e-08 -1.333387e-08 5.155973e-09 -1.736492e-09 -1.701453e-10 2.959655e-09
2.446822e-08 -9.543161e-09 1.067146e-09 -5.415745e-09 -1.218907e-09 3.650705e-09
3.152269e-08 -1.310332e-08 6.107573e-09 1.805246e-09 1.417491e-09 7.659389e-09
6.789350e-09 -2.097164e-08 2.226885e-09 3.802817e-10 -9.519162e-10 -5.117318e-11
3.202122e-09 -1.574247e-08 1.568302e-09 1.829949e-09 -5.238808e-10 7.575796e-10
2.925551e-08 -1.557492e-08 1.094072e-08 -2.365918e-09 1.110111e-09 2.684276e-09
4.709094e-09 -1.500574e-08 -1.196785e-09 1.527144e-09 -1.027806e-09 4.646373e-10
-1.698834e-09 -6.982576e-09 1.871203e-09 6.666074e-10 6.315970e-11 -5.091686e-10
-4.849527e-09 1.558735e-09 1.019344e-09 -2.033937e-10 -9.104895e-11 -3.175640e-10
4.852382e-09 1.951181e-08 -3.326891e-08 -5.872341e-09 -7.509301e-09 -3.879050e-09
5.972475e-09 9.271604e-09 -3.130664e-08 -6.958343e-09 -7.334698e-09 -7.726213e-10
6.681232e-09 1.009088e-08 -3.439775e-08 -9.021867e-09 -1.393594e-08 -5.047630e-09
3.824936e-09 3.158075e-08 -4.355878e-08 -3.943070e-09 -8.746450e-09 -3.768447e-09
-2.761521e-09 -4.396700e-09 1.715426e-09 -1.949754e-10 -2.983851e-10 -3.232740e-10
-3.657655e-09 -1.903246e-09 8.301431e-10 -1.911373e-10 2.759037e-11 -3.859935e-11
7.938977e-09 1.025407e-08 -3.431948e-08 -8.403082e-09 -1.406629e-08 -5.374144e-09
8.203403e-09 1.623684e-08 -4.046685e-08 -6.611047e-09 -6.168830e-09 -1.393096e-09
-3.856033e-09 -1.593721e-09 1.131511e-09 1.094089e-09 -9.292880e-10 -2.991314e-10
-9.897391e-10 -7.756677e-09 1.524378e-09 1.758440e-09 -1.576028e-09 -3.593638e-10
5.502626e-09 -1.829931e-08 1.061599e-09 4.434831e-10 -7.271914e-10 -3.854943e-10
7.727188e-10 2.982148e-10 9.785062e-12 2.571059e-09 1.665020e-10 3.003171e-10
-8.299388e-10 -8.608367e-09 1.203644e-09 3.844174e-10 -2.564988e-10 -2.709288e-10
-3.855472e-09 -2.635343e-09 1.087721e-09 1.781626e-09 -1.348800e-09 -1.435313e-10
9.009362e-10 4.249996e-10 3.625900e-11 3.326775e-09 -9.642215e-11 -2.392777e-10
2.343623e-09 -6.171295e-10 -1.239404e-10 2.779284e-09 -1.958567e-11 -2.773020e-10
1.295434e-09 -1.959131e-10 -1.508171e-11 3.146833e-09 1.649516e-10 -1.632472e-12
-4.468708e-09 2.376135e-09 4.526282e-10 -1.013823e-09 -4.079148e-11 6.039968e-11
-1.463629e-11 2.832725e-10 9.303802e-11 2.359983e-09 2.108086e-10 1.128226e-10
1.820016e-09 -5.347465e-10 -2.273972e-10 2.095042e-09 9.812595e-12 -2.198610e-10
1.401314e-09 -5.345937e-10 -1.603677e-10 2.047055e-09 1.480920e-10 1.525580e-10
1.788926e-09 -8.032130e-09 -4.662486e-09 4.635212e-09 -1.670792e-10 5.270092e-11
-2.024592e-09 1.917702e-09 5.296563e-11 -8.054268e-11 -2.085976e-11 -1.006217e-11
1.797387e-09 -8.501278e-09 -5.863043e-09 4.732315e-09 -3.057973e-09 1.342873e-09
6.024046e-09 -1.236458e-08 -6.198126e-09 4.857759e-09 -2.158100e-10 3.945275e-10
4.357886e-09 1.648204e-09 8.565332e-09 -1.100996e-08 -6.491873e-10 -1.665860e-09
-4.311170e-09 1.775476e-09 7.077210e-10 -6.208876e-10 -2.854724e-10 -8.427437e-11
-4.251966e-09 2.601134e-09 4.893237e-10 -2.516978e-10 -2.219958e-11 -2.827960e-11
-3.463347e-09 2.740855e-09 2.505445e-10 -7.090528e-11 -7.981615e-12 -3.700512e-11
6.889889e-10 4.844131e-09 4.464336e-10 -1.067440e-08 7.976140e-10 -4.324422e-10
-1.781324e-09 9.925574e-10 1.732694e-10 2.075192e-11 3.922235e-11 -2.194378e-11
-1.981553e-09 1.215289e-09 2.499969e-10 1.712843e-10 4.637846e-12 1.401101e-12
-1.823777e-09 1.801498e-09 2.788103e-11 -2.383680e-10 -8.959300e-11 -1.300161e-10
-3.470986e-09 2.740851e-09 2.668785e-10 -6.209966e-11 -5.919709e-12 -3.027578e-12
-6.055705e-10 8.385068e-09 -1.162285e-09 -1.277470e-08 1.994423e-09 -2.606332e-10
2.766511e-09 1.848030e-09 1.899622e-09 -1.029780e-08 -1.660275e-10 4.707978e-11
2.713122e-09 4.922580e-10 6.220893e-09 -1.121603e-08 9.944996e-10 -9.051514e-10
-1.974752e-09 5.827558e-09 -1.481368e-09 -9.599417e-09 -3.318243e-10 1.851474e-09
-1.434045e-09 1.022958e-08 -3.279142e-09 -1.058818e-08 -2.708607e-10 2.120505e-09
-5.456526e-09 1.226177e-08 -7.956721e-09 -6.626541e-09 -2.102130e-10 2.241063e-09
7.443102e-09 -1.809450e-08 -1.809778e-09 2.593333e-09 -1.023046e-09 4.649353e-10
-1.862199e-09 8.649647e-09 -4.038438e-09 -8.462749e-09 -4.448733e-10 1.277095e-09
-2.136517e-09 7.251252e-09 -1.141100e-09 -9.984436e-09 4.025760e-10 1.013769e-09
8.518241e-09 -2.696531e-08 -7.800821e-11 8.597908e-09 -9.556569e-09 3.237657e-09
-1.903191e-09 8.036094e-09 -2.909904e-09 -9.156987e-09 -7.161888e-10 1.934242e-09
-4.729220e-09 1.285849e-09 -1.422934e-09 7.048705e-10 -2.198239e-10 5.694283e-10
-4.729762e-09 4.733600e-10 -1.215341e-09 7.150406e-10 -1.168415e-09 1.417737e-10
-2.317245e-09 -2.990081e-09 -3.043942e-09 3.128386e-09 -8.469061e-10 2.156039e-10
-4.240255e-09 -1.309157e-10 -1.321446e-09 1.853970e-09 -1.363388e-09 6.770187e-10
-3.500618e-09 -1.243745e-09 1.006009e-09 -3.907159e-09 6.541434e-10 9.219303e-11
1.167281e-08 -2.795012e-08 1.820720e-09 1.319125e-10 -1.360962e-09 4.609095e-10
-2.179609e-09 1.052297e-08 -1.322647e-08 -6.151334e-09 -4.920981e-09 -2.502359e-09
4.099719e-10 3.867441e-08 -3.815640e-08 8.362528e-10 -8.563435e-09 -6.123354e-09
1.128537e-08 -2.539343e-08 3.271841e-10 1.764982e-09 -3.697041e-09 5.841345e-10
-4.187272e-09 -2.526301e-09 1.381388e-09 -4.198269e-09 -3.362599e-11 -3.152369e-10
-4.257985e-09 -1.358953e-09 1.107465e-09 -3.687238e-09 -8.200507e-11 -8.414794e-11
-1.888254e-09 -4.274301e-09 4.381850e-10 -6.266197e-09 5.969263e-10 1.733220e-10
1.110826e-08 -2.798071e-08 2.448747e-09 1.368965e-10 -1.405569e-09 9.517054e-11
1.274576e-08 -3.643884e-08 -5.711254e-11 2.697927e-09 -1.069967e-08 9.421142e-10
1.188395e-08 -2.758389e-08 5.348193e-10 7.788836e-11 -9.632815e-10 2.760774e-10
8.632309e-09 -2.012941e-08 -1.585930e-09 3.518474e-10 -6.897340e-10 4.490864e-10
-3.224386e-09 -2.100703e-09 5.608225e-11 -5.854547e-09 -1.255185e-10 -2.701788e-10
-4.128932e-09 -3.405950e-09 1.099750e-09 -6.074378e-09 4.195671e-10 2.860513e-10
-5.239435e-09 1.613719e-09 7.487189e-10 -2.436591e-09 5.449339e-10 1.460180e-10
-5.385151e-09 4.287557e-10 9.220003e-11 -5.152103e-09 6.352483e-10 3.569361e-10
-6.210313e-09 1.181872e-10 6.077152e-10 -4.643669e-09 5.595092e-10 4.189532e-10
-3.309437e-09 2.520439e-09 2.536611e-10 -5.763080e-10 -8.287815e-12 -1.599809e-10
-6.497689e-09 1.119364e-08 -1.284570e-08 -3.672266e-09 -5.603928e-09 -5.159447e-09
-5.266074e-09 1.259455e-08 -9.335729e-09 1.700481e-09 -8.395753e-10 -4.082702e-10
-3.568039e-09 2.538249e-09 3.240399e-10 -6.759772e-10 -5.065104e-11 -8.040729e-11
-1.902628e-09 1.590675e-08 -2.564904e-08 -5.068271e-09 -6.858447e-09 -4.775270e-09
-5.090548e-09 1.258486e-08 -1.131231e-08 -8.299182e-10 -1.851805e-09 -2.726729e-09
-3.160147e-09 2.517287e-09 2.186149e-10 -4.118619e-10 -2.691181e-11 2.924716e-11
-3.422020e-09 2.670353e-09 3.173295e-10 -2.758087e-10 -1.881589e-11 -4.681577e-11
6.032883e-09 -1.446166e-08 -6.096033e-09 5.711239e-09 -3.438857e-09 8.760620e-10
-3.582837e-09 2.733261e-09 2.889862e-10 -9.868106e-11 -6.485923e-13 -1.747180e-11
-4.577618e-09 9.312846e-09 -6.074837e-09 1.081662e-09 -9.396466e-10 -8.159535e-10
-3.502333e-09 2.726337e-09 2.929896e-10 -1.130438e-10 -7.898127e-13 3.260503e-12
-6.480133e-09 4.746326e-09 4.200720e-10 -6.205446e-10 6.404207e-10 5.518212e-10
1.073972e-09 -2.119092e-09 2.297011e-08 -2.180780e-08 -7.063472e-10 2.955299e-09
2.797973e-08 -1.142173e-08 8.676858e-09 1.090975e-08 1.983107e-09 3.843643e-09
-6.432813e-09 3.937818e-09 1.003042e-10 -2.481433e-09 8.736207e-10 4.370105e-10
-6.362616e-09 4.220392e-09 6.099019e-10 -4.185897e-10 -6.281108e-10 -8.173790e-10
-5.815914e-09 3.531802e-09 8.476313e-10 1.337207e-10 2.555053e-10 -3.610057e-10
-6.297161e-09 5.799111e-09 -3.558924e-09 -4.943514e-09 1.161213e-09 1.265494e-09
-9.432794e-09 1.119364e-08 -9.176168e-09 -3.605596e-09 -7.798398e-09 -6.661334e-09
-8.235801e-09 6.885153e-09 -9.573022e-10 -1.984301e-09 1.194034e-09 1.169531e-09
-8.014179e-09 4.032632e-09 -1.301377e-10 -2.769570e-09 -9.240364e-11 8.241963e-11
-1.070914e-08 1.036522e-08 2.204168e-09 3.054154e-09 -1.438624e-09 -1.314648e-09
-8.027053e-09 -2.298179e-10 1.620265e-09 -4.952860e-10 5.765033e-11 -1.339555e-10
-1.015241e-08 1.567737e-08 2.032469e-09 6.203965e-09 -4.231248e-10 -1.405027e-09
-1.093340e-08 1.444389e-08 -7.861661e-09 -1.738380e-09 9.840189e-10 1.457728e-09
-1.245738e-08 1.124393e-08 -1.894119e-09 1.870386e-09 -1.191694e-09 2.085311e-09
-3.952769e-09 1.322995e-09 8.243717e-10 1.914284e-10 -2.044068e-11 -1.515231e-10
-8.157690e-09 9.247509e-09 1.528520e-09 3.647489e-09 1.624355e-09 1.550640e-09
-2.315691e-09 1.284389e-09 2.742482e-10 2.475518e-10 2.224498e-11 -1.075273e-11
-7.789451e-09 1.229218e-08 2.714630e-09 5.457803e-09 -4.468340e-10 -7.811756e-11
-2.107653e-09 1.265944e-09 3.821761e-10 1.252896e-09 1.589709e-10 9.438628e-11
-2.961135e-09 1.704004e-09 4.096221e-10 -7.121193e-12 -1.069436e-11 4.096057e-12
-1.040314e-08 1.042481e-08 -2.027278e-09 -4.000659e-10 8.264536e-10 2.090609e-09
1.188618e-08 -2.249297e-08 -7.389359e-09 -1.142784e-09 -3.242051e-09 6.517825e-11
1.328692e-08 -1.978350e-08 -9.940501e-09 -4.054154e-09 -6.333560e-09 -7.432081e-10
1.192829e-08 4.124244e-09 -2.087704e-09 -1.395366e-08 -1.257641e-09 1.969874e-09
-9.776402e-10 4.260235e-09 -2.377575e-09 -1.389707e-09 1.821070e-09 -2.288984e-09
-1.554001e-09 1.027329e-09 1.927141e-10 1.192073e-09 2.330027e-10 -5.931222e-11
-3.889990e-09 1.177058e-09 9.425007e-10 -8.968859e-11 1.226904e-10 -2.710503e-10
1.085284e-08 -8.437265e-10 -3.000957e-09 -1.851290e-09 1.525368e-09 -1.326970e-10
1.002339e-08 4.300650e-09 -2.205452e-09 -6.156797e-09 6.227166e-10 1.083532e-09
8.443231e-09 5.740895e-09 -2.244902e-09 -7.160462e-09 9.774642e-10 -1.133712e-09
4.279547e-09 1.087516e-08 -3.424186e-09 -1.072153e-08 1.636107e-09 -2.241075e-09
2.461545e-08 -9.869775e-09 1.934259e-09 -6.542212e-09 1.790396e-10 2.919612e-09
1.634490e-08 1.473703e-09 -2.159154e-09 -9.694078e-09 -9.162248e-10 8.389695e-10
-5.019105e-10 4.492611e-10 3.207612e-11 1.056706e-09 7.920886e-11 -3.833667e-11
-1.833816e-09 1.347133e-09 2.301932e-10 2.039519e-09 1.197152e-10 -1.619604e-10
5.180450e-09 -2.962109e-09 -7.591250e-10 -5.674443e-10 -5.129974e-11 6.196155e-13
2.911207e-09 -1.516343e-09 -3.990103e-10 7.474137e-10 6.854393e-11 -4.739297e-11
2.077476e-09 -1.005713e-09 -3.391873e-10 6.307366e-10 -6.116796e-11 -1.084821e-11
4.098577e-09 -2.397750e-09 -5.367378e-10 1.013691e-09 1.393208e-10 2.189186e-10
-3.922237e-09 2.148674e-09 5.507030e-10 -3.145928e-12 0.000000e+00 -1.784350e-12
4.393812e-09 -2.101084e-09 -6.461880e-10 -9.584281e-10 -3.554390e-11 -1.766403e-10
4.332534e-12 9.600942e-11 -5.573364e-11 1.022820e-09 2.833836e-10 -9.597573e-11
-2.852299e-09 1.545284e-09 3.679976e-10 5.251373e-10 1.846048e-10 -1.200075e-10
4.423682e-09 -2.285844e-09 -6.079004e-10 -5.718052e-10 -9.270251e-11 -1.734645e-10
-6.047407e-10 4.757110e-10 9.718271e-11 1.846762e-09 2.021896e-10 -1.313794e-11
4.809841e-09 -1.996904e-09 -6.886323e-10 -1.580551e-09 -5.743415e-11 1.375872e-11
-1.176119e-09 9.344685e-10 1.659055e-10 1.619194e-09 -2.403211e-11 -3.018488e-10
-1.351257e-10 1.038307e-10 -1.070373e-10 -7.207568e-12 1.424287e-10 -7.454926e-12
3.564450e-09 -1.771861e-09 -5.760104e-10 -4.239148e-10 -1.400084e-10 1.436016e-10
-1.391200e-09 9.777645e-10 1.419271e-10 3.743228e-11 2.865663e-11 -1.435785e-11
4.050369e-09 -2.083002e-09 -6.671657e-10 -4.193916e-10 1.528766e-11 1.724748e-10
2.581597e-10 2.313616e-11 -2.131273e-11 2.748326e-10 1.017222e-10 9.723700e-11
3.689285e-09 -1.705319e-09 -5.983534e-10 -4.573257e-10 -1.741141e-11 -1.681097e-10
-2.880281e-09 -9.797009e-09 3.724405e-09 9.049301e-10 1.686847e-10 6.713474e-11
6.267853e-09 -3.102155e-09 -6.751071e-10 9.266995e-10 -5.207157e-11 -4.488854e-12
5.002759e-09 -2.879219e-09 -6.988174e-10 2.303929e-11 1.290884e-11 -5.071499e-13
7.897532e-09 -4.125362e-09 -2.665967e-10 5.965352e-10 6.843094e-11 -1.710029e-10
-2.598664e-09 -9.147177e-09 3.628265e-09 1.390390e-09 1.598766e-11 1.383194e-10
2.899106e-09 -1.968794e-09 -2.584733e-08 -1.836069e-08 1.466383e-08 1.072180e-08
-2.327686e-09 -1.028493e-08 3.751543e-09 6.933558e-10 1.699613e-11 9.291656e-11
8.842328e-09 -5.227041e-09 1.029701e-09 -2.263365e-09 2.769037e-11 -9.467421e-10
2.803806e-08 -1.821291e-08 2.849300e-08 3.294581e-09 8.895002e-10 1.600944e-08
2.274137e-08 -1.938112e-08 2.113825e-08 -9.794167e-09 -6.077239e-10 8.586343e-10
-2.322510e-09 -9.718320e-09 3.725964e-09 1.263391e-09 -6.732037e-11 -1.365584e-10
2.280558e-10 8.066752e-10 -2.339606e-10 -1.309311e-09 -2.546493e-10 5.670797e-12
2.370467e-09 -9.346318e-10 -4.556506e-10 -1.566142e-09 -1.684007e-10 -1.129029e-10
-1.424717e-09 -9.862477e-09 3.747053e-09 1.622917e-09 2.192384e-10 1.783360e-10
9.010718e-09 -3.976547e-09 1.913145e-10 -1.716062e-09 -1.277084e-11 -1.126752e-10
5.180244e-09 -3.002520e-09 -6.891900e-10 -1.444443e-10 -3.942457e-11 3.388506e-11
5.400080e-09 -3.070944e-09 -7.136931e-10 2.846400e-10 3.061967e-11 -3.536416e-11
1.718933e-09 -6.321477e-10 -4.745857e-10 -8.334267e-11 -1.681941e-10 -6.736167e-12
-1.246697e-09 -1.067306e-08 3.707813e-09 1.507880e-09 -1.918610e-10 6.023115e-11
-4.334762e-09 3.408968e-09 9.478252e-10 2.924096e-09 2.229547e-10 -2.962144e-10
-4.943033e-10 5.045333e-10 3.874900e-11 1.405833e-09 1.985920e-10 -1.181542e-10
-3.980373e-09 2.526231e-09 5.797220e-10 -2.311342e-10 -8.933410e-12 -7.436612e-11
-4.426761e-09 2.414920e-09 6.023124e-10 -1.951990e-10 -3.604494e-11 -1.026597e-10
1.410344e-09 -2.453944e-10 -1.313438e-10 2.414864e-09 1.930986e-10 1.064080e-10
4.441005e-09 -2.015882e-09 -3.521539e-10 2.287553e-09 -9.234283e-11 -3.834528e-10
5.655647e-09 -2.863760e-09 -4.442087e-10 2.145001e-09 6.230871e-11 -2.318039e-10
-3.369869e-10 2.932772e-09 2.391018e-10 -8.783158e-09 -1.614753e-10 7.864106e-10
2.171594e-08 -1.070890e-08 1.556294e-08 -9.642510e-09 -1.147878e-09 2.655687e-09
-3.195633e-09 9.957507e-09 -5.730871e-09 -7.889465e-09 -5.921241e-11 -2.456768e-10
5.074686e-09 -2.637815e-09 -5.631113e-10 4.932439e-10 1.599952e-10 1.600059e-11
-4.448920e-10 5.910195e-09 1.206457e-11 -9.196846e-09 -2.525123e-10 1.079992e-09
2.737903e-09 -1.076223e-09 -1.781117e-10 2.516556e-09 1.756622e-10 -4.018252e-11
2.736650e-09 4.454342e-09 9.527921e-10 -1.101111e-08 9.444441e-10 -6.650090e-10
1.810832e-09 -1.959131e-10 -8.454304e-11 3.185777e-09 2.013192e-10 2.018266e-10
-3.365668e-09 7.326644e-09 -3.420341e-09 -6.944341e-09 -9.423462e-10 2.776594e-09
-2.349089e-09 5.100681e-09 -1.483570e-09 -8.164289e-09 4.515917e-10 -3.659932e-10
-1.163872e-08 1.174608e-08 -8.598793e-09 7.836273e-09 3.883396e-09 -3.580438e-09
-2.062923e-10 4.746869e-09 -3.603340e-11 -9.363056e-09 9.763561e-10 -4.669960e-10
-3.326326e-09 -2.217726e-09 1.520882e-09 -1.538364e-09 -2.335443e-11 -1.415326e-10
-5.733352e-08 1.433103e-08 4.133924e-08 -2.660613e-08 -6.396565e-08 -1.242948e-08
-2.910851e-09 -3.086247e-09 1.818349e-09 -1.375926e-09 9.099255e-11 -2.138341e-10
-7.607195e-09 -2.765921e-09 7.216645e-10 9.954624e-09 3.946800e-09 -1.315270e-09
6.358711e-09 -1.978606e-08 6.731655e-10 4.910094e-09 4.013847e-10 3.125811e-10
-2.539280e-09 1.539328e-08 -1.367058e-09 -1.220285e-08 -1.255213e-09 2.899432e-09
-3.418343e-09 -1.651523e-09 1.565398e-09 -1.233972e-09 -1.105895e-10 -1.603042e-10
8.505697e-09 -2.107733e-08 -2.513033e-09 6.453397e-09 3.550135e-09 -4.269487e-10
-2.386349e-09 -3.638490e-09 1.903421e-09 -2.065684e-09 1.163367e-10 -2.048242e-10
-3.387650e-09 -2.413660e-09 1.673732e-09 -2.068329e-09 4.305951e-10 -1.993159e-10
6.060147e-09 -3.224669e-09 -7.586243e-10 -3.831718e-11 4.793957e-11 9.791446e-11
5.486408e-09 -2.935660e-09 -7.825041e-10 9.494110e-10 1.617639e-10 1.485789e-10
-9.542872e-09 1.511084e-08 4.064278e-10 -1.671836e-08 2.193884e-10 -1.717932e-09
1.352724e-08 -2.091596e-09 4.539678e-08 -3.089413e-08 -2.030809e-08 2.112305e-08
-6.728931e-09 6.079397e-09 -8.131540e-10 7.264418e-10 1.935805e-09 -2.252104e-10
5.955537e-09 -2.007693e-08 2.920508e-11 8.449319e-09 -7.512498e-09 3.001184e-09
5.500887e-09 -3.074923e-09 -7.781500e-10 1.296515e-11 1.216294e-11 -3.525632e-11
1.582945e-08 -1.596282e-08 -2.850640e-08 1.005808e-08 1.231047e-08 -1.307870e-09
2.454443e-08 -6.182172e-09 -3.030505e-09 -2.191832e-09 1.143394e-09 1.080248e-09
-3.638401e-08 -3.485501e-08 1.498616e-07 -1.376941e-08 -1.742783e-08 2.039968e-08
5.524437e-09 -3.150195e-09 -7.595542e-10 -7.279864e-13 -3.072476e-11 5.188391e-11
2.086356e-08 4.721140e-09 -1.420731e-09 -1.338144e-08 -2.038287e-09 5.138421e-09
2.389635e-09 6.343438e-09 -3.958559e-09 1.569063e-09 -1.531262e-09 1.755773e-09
2.012288e-08 -3.501112e-09 -4.390596e-09 2.204848e-09 -6.741641e-10 -7.600434e-10
2.703647e-08 -7.324876e-09 -3.315304e-09 -2.946277e-10 1.207825e-09 3.817444e-09
2.735641e-08 -9.877573e-09 -1.559797e-09 -1.813708e-09 -2.095551e-10 3.986580e-10
5.529977e-09 -3.208774e-09 -7.495327e-10 -1.148143e-11 3.575099e-11 8.943035e-11
5.212714e-09 -2.964750e-09 -6.815382e-10 3.400436e-10 2.617273e-11 1.496837e-10
5.389902e-09 -3.081323e-09 -7.065000e-10 4.534360e-11 -1.442626e-11 7.523515e-11
-4.760777e-09 2.591164e-09 -6.290950e-10 -1.598029e-09 -4.224176e-11 -3.766285e-10
-9.983270e-09 7.371836e-09 -1.863898e-09 7.409364e-09 5.063606e-09 -3.239242e-09
-3.548021e-09 2.340443e-09 -2.166478e-11 -2.331162e-09 -2.183238e-10 1.936368e-11
-1.414595e-08 -1.668593e-08 1.016932e-07 -2.539901e-08 -3.106289e-08 3.624965e-08
1.961116e-08 -1.680047e-09 -4.991917e-10 2.032941e-08 8.111701e-09 3.326847e-09
2.500897e-08 -1.789751e-08 2.577050e-08 -1.151965e-08 -2.614916e-09 1.507503e-08
-3.505613e-09 2.380538e-09 -1.082450e-10 -2.815307e-09 -3.982696e-10 -1.552770e-10
-2.330463e-09 1.790849e-09 -2.234306e-10 -3.225539e-09 -1.814695e-10 2.832801e-11
-1.870045e-09 1.979777e-09 -5.135181e-11 -2.778561e-09 -3.618017e-10 -7.220335e-11
8.956869e-10 -9.281867e-09 2.613454e-09 -5.240816e-11 7.183010e-11 -6.716824e-10
-3.470116e-09 2.279453e-09 5.462564e-11 -2.335602e-09 -4.447598e-11 -3.697899e-10
-3.493957e-09 2.391519e-09 -1.297265e-10 -2.764617e-09 2.807532e-12 3.264314e-11
-2.025094e-09 2.270257e-09 -2.404239e-10 -3.544241e-09 -2.073537e-10 5.233602e-11
-3.021244e-08 -3.873946e-09 8.509684e-08 -3.002458e-08 -1.329997e-08 2.702816e-08
-6.770732e-08 -3.460621e-08 1.571593e-07 -1.561663e-08 -1.465654e-08 1.094552e-08
-4.452736e-08 -4.054146e-08 1.586280e-07 9.594778e-09 1.546722e-08 3.051839e-09
-7.844443e-08 -4.354627e-08 1.838449e-07 2.386760e-10 4.742147e-09 8.415226e-09
-6.651423e-08 -3.988389e-08 2.837351e-07 9.886026e-09 3.732771e-08 4.239524e-08
1.914833e-09 -1.404158e-08 -1.804455e-09 1.059806e-08 1.416021e-09 -7.973160e-10
-3.783450e-08 -3.785080e-08 2.154232e-07 2.351236e-08 3.278797e-08 8.207306e-08
2.333024e-09 -1.614659e-08 1.337673e-09 5.568337e-09 -3.585979e-09 7.539910e-10
-5.335893e-09 -3.882283e-10 -3.942383e-09 -4.754855e-09 -1.768957e-09 -4.223173e-10
-4.226833e-09 -5.948131e-11 -5.569654e-09 -5.044574e-09 -9.594845e-10 -8.426718e-10
-2.126845e-09 -2.380984e-10 -6.127684e-09 -6.928985e-09 -2.477124e-09 -1.866548e-09
-5.934851e-09 2.597917e-09 -3.979228e-09 -4.308089e-09 -7.804939e-10 -9.435022e-10
-5.884650e-09 1.179724e-08 -9.880598e-09 -2.213769e-09 -3.121423e-09 4.503164e-09
3.309796e-09 1.642822e-09 8.880048e-09 -1.275707e-08 2.245046e-09 -2.180861e-09
-5.436851e-09 6.007937e-09 -1.320623e-08 -8.606826e-09 -4.011012e-09 -2.916193e-09
-7.099309e-09 5.708703e-09 -7.019200e-09 -5.850258e-09 -2.152663e-09 -1.699284e-09
-5.747277e-10 4.969608e-09 -1.660929e-08 6.057587e-09 -8.006348e-09 6.454892e-09
-4.660988e-09 4.906239e-09 -8.768996e-09 -5.168000e-09 -1.243385e-09 -1.053400e-10
-4.887891e-09 6.219658e-09 -3.425178e-09 -4.114047e-09 -1.090390e-09 1.300668e-09
-1.457877e-09 -9.022036e-09 6.407495e-10 8.959531e-09 8.789989e-10 -5.258161e-10
-6.988993e-11 1.527733e-09 2.025091e-08 -1.675358e-08 1.376066e-08 -4.951612e-09
-1.017295e-09 -1.192264e-08 1.724436e-09 7.180314e-09 7.057250e-10 -1.098590e-10
-4.645527e-09 3.988543e-11 1.626861e-10 4.710490e-10 -1.181060e-09 2.855840e-10
-1.509458e-09 -1.088573e-08 2.794973e-09 4.989183e-09 3.215739e-10 -2.254532e-10
-9.279155e-10 -1.039877e-08 2.650734e-09 5.452946e-09 1.583749e-10 3.717850e-10
9.432459e-10 -1.397741e-08 2.249142e-09 5.599952e-09 4.537570e-10 -3.082691e-10
-3.362453e-09 -3.970504e-09 7.378333e-10 1.325795e-09 -9.161207e-10 8.654505e-11
-5.591375e-09 5.930716e-09 -3.725385e-09 -1.981673e-09 -1.369877e-09 1.402338e-09
9.568661e-10 -1.168926e-08 1.671669e-09 6.078084e-09 9.347376e-10 3.421363e-11
-1.862814e-09 -8.881973e-09 1.509250e-09 7.320446e-09 -2.414231e-10 -5.197294e-12
-1.508379e-09 -8.985737e-09 2.027821e-09 5.060748e-09 1.328518e-09 -2.334026e-10
-1.923876e-09 1.951960e-09 1.183080e-10 -1.813110e-09 -1.742403e-10 1.193068e-11
-2.694680e-10 1.113731e-09 -1.946998e-10 -2.252545e-09 -2.531575e-11 -7.926637e-11
-2.076249e-09 1.600346e-09 -5.882672e-11 -1.600268e-09 9.186961e-12 -2.989653e-10
-2.617872e-09 2.044167e-09 6.719092e-11 -1.461519e-09 -1.350865e-10 -7.780576e-11
-3.504034e-09 1.580686e-09 5.912346e-10 4.498490e-10 9.751022e-11 -4.148104e-11
-3.324595e-09 2.204970e-09 1.857812e-10 -1.681935e-09 2.170708e-12 -9.398648e-11
3.122295e-09 -1.050154e-08 -3.814085e-09 -8.628452e-09 1.725033e-09 3.400041e-10
-3.590299e-09 2.234380e-09 2.967502e-10 -1.464367e-09 -1.001068e-10 2.948175e-11
-5.380645e-09 1.301255e-09 -7.814026e-09 -1.215778e-08 1.348170e-09 9.730528e-10
-3.098761e-09 2.232629e-09 2.026965e-10 -1.205728e-09 -7.365864e-11 1.425055e-10
-2.603914e-09 2.058568e-09 1.904870e-10 -1.246305e-09 -2.189504e-11 4.718692e-11
-1.113503e-09 -6.992825e-09 -7.607526e-09 -1.366824e-08 3.698979e-09 2.376950e-09
9.356706e-09 -1.817634e-08 -6.511789e-09 -9.180342e-09 4.620222e-09 1.406715e-09
-2.401103e-09 2.208021e-09 1.854086e-10 -1.055845e-09 -5.297413e-11 2.904454e-11
-1.230919e-08 9.641324e-09 7.294179e-09 1.060097e-08 -2.060664e-09 3.475268e-09
-4.430008e-09 9.013100e-09 -1.003500e-08 -2.333207e-09 -9.667063e-10 4.590857e-12
1.007478e-08 -7.841394e-09 -1.828669e-08 4.524068e-09 -3.645014e-09 1.235215e-09
-1.074597e-09 -1.234045e-08 3.325884e-10 8.157365e-09 -4.965222e-09 2.040373e-09
-2.810296e-09 7.938814e-10 2.317377e-08 1.282898e-08 -4.259960e-09 -3.156949e-09
-1.559750e-08 -5.793711e-09 2.964545e-08 4.292575e-09 -1.552605e-10 -1.605030e-09
-6.954284e-08 1.274021e-08 9.789243e-08 -2.744932e-08 3.645627e-08 -1.634742e-08
-8.512350e-09 8.904195e-09 3.364140e-08 1.308894e-08 -1.210096e-08 4.270241e-09
-2.330691e-09 2.763322e-09 2.096512e-08 1.216863e-08 -2.775941e-09 -5.938279e-09
7.097966e-09 6.990066e-10 8.796786e-11 -1.076044e-08 1.114241e-09 8.316025e-12
-6.195747e-10 -4.107125e-09 2.214867e-08 7.690082e-09 4.150485e-10 -2.944066e-09
-4.698130e-09 -1.996323e-10 -6.098959e-10 1.310325e-09 -8.808963e-10 5.250372e-10
-2.290733e-09 -4.594002e-09 2.926092e-08 1.274040e-08 -4.531241e-09 -4.944282e-09
3.006270e-09 7.879186e-10 1.650393e-08 1.266366e-08 -4.489632e-09 -4.767124e-09
-3.104112e-09 4.201439e-09 1.487509e-08 1.228362e-08 -1.422080e-09 -3.640420e-09
-1.647152e-09 4.232923e-09 1.541341e-08 1.089026e-08 -2.603454e-09 -2.704441e-09
3.449405e-09 6.203261e-09 5.790751e-09 -1.377004e-08 -1.517919e-10 -3.133750e-10
-4.436445e-09 4.839064e-09 1.616697e-08 1.268140e-08 -3.690725e-09 -5.317232e-09
1.620853e-09 4.834313e-09 1.608612e-08 1.272697e-08 -3.655611e-09 -4.576780e-09
-1.156755e-09 4.970666e-09 8.378071e-09 1.121295e-08 7.957289e-10 7.471346e-10
-3.074632e-09 4.863831e-09 1.144724e-08 1.304535e-08 -3.888120e-09 -3.209316e-09
4.434952e-10 -8.639039e-09 2.280429e-08 -5.407841e-09 3.458841e-09 -5.484013e-09
5.488431e-09 -2.932807e-09 -7.671259e-10 -4.189596e-11 7.422136e-12 1.294909e-10
4.271429e-09 8.298647e-10 2.350524e-10 -8.443658e-09 1.861310e-10 2.110951e-10
-1.235456e-08 1.305720e-08 7.036235e-09 1.037157e-08 -1.125760e-09 -1.390614e-09
8.722863e-09 -3.426543e-09 1.871181e-09 -7.530124e-09 7.985350e-10 -9.026214e-10
-6.298472e-09 1.898613e-08 1.711602e-09 1.465894e-08 -4.926297e-09 -5.309214e-09
-1.142438e-08 1.908444e-08 1.239029e-08 1.116479e-08 -8.009796e-09 -1.193507e-09
9.515525e-09 -4.957503e-09 1.108193e-09 -1.642152e-09 2.062386e-10 -3.615237e-10
9.916836e-09 -4.706792e-09 2.444521e-09 1.365700e-09 3.985344e-10 -3.336067e-10
-4.227440e-09 6.274992e-09 -2.761223e-09 -5.481324e-09 -9.467860e-10 8.448059e-10
9.783759e-09 -8.022076e-09 1.979869e-08 -1.458767e-09 2.025792e-09 -7.163113e-09
9.553970e-09 -5.092121e-09 2.761728e-09 1.815923e-09 2.814871e-10 4.307554e-11
-4.098967e-09 7.616842e-09 -3.988226e-09 -6.920114e-09 -9.176937e-10 2.131259e-09
-4.729037e-09 8.356457e-09 -6.267477e-09 -5.001023e-09 -6.672514e-10 7.399996e-10
-4.212694e-09 7.693129e-09 -3.968987e-09 -6.949671e-09 -3.467706e-10 1.180373e-09
-2.585109e-09 4.843577e-09 -1.930251e-09 -6.179944e-09 -5.347103e-10 1.292735e-09
-4.402040e-09 5.865153e-09 -2.631393e-09 -4.346758e-09 -1.218604e-09 1.948987e-09
6.740263e-09 -2.105945e-09 2.322915e-10 -6.826672e-09 3.986043e-10 -3.979328e-11
-2.961049e-10 5.106665e-09 -1.576098e-09 -8.126561e-09 -4.048091e-10 6.937022e-10
1.398144e-09 -1.038265e-08 2.377538e-10 5.199633e-09 -4.058656e-09 1.653826e-09
-3.567987e-09 -8.066269e-09 3.482558e-09 1.395134e-09 1.963245e-10 7.385899e-11
-2.362720e-09 -8.386283e-09 3.409999e-09 1.107073e-09 -1.624478e-11 1.550673e-10
-3.281645e-09 -8.143576e-09 3.606484e-09 3.211520e-11 1.034849e-10 4.311773e-12
-1.372554e-08 1.501047e-08 -7.861661e-09 -2.040845e-09 1.273250e-09 6.429463e-10
2.590641e-08 -7.530222e-09 6.445193e-09 -9.553683e-09 -2.413449e-09 8.361619e-09
7.254963e-09 -4.914036e-09 1.995089e-08 6.413574e-09 7.222614e-10 -9.138271e-09
-3.103065e-09 2.839773e-09 6.936376e-09 8.839742e-09 -1.551677e-09 -2.235384e-09
-3.290533e-09 2.668695e-09 2.435083e-10 -1.679636e-10 -8.482703e-11 3.958556e-12
2.973195e-10 5.960841e-10 8.292123e-11 2.726132e-09 1.800158e-10 1.431711e-10
-3.539437e-09 2.738397e-09 2.331144e-10 -1.367009e-10 -1.491696e-12 -7.361545e-11
3.958136e-09 -1.432037e-09 1.888731e-09 4.710994e-09 -2.568837e-10 -8.229479e-10
2.969616e-10 4.169672e-10 1.446741e-09 4.411671e-09 -3.372118e-10 -7.717564e-10
-3.311396e-09 2.608889e-09 1.881628e-10 -2.881180e-10 -8.624546e-11 -1.071279e-10
-3.079949e-09 2.623617e-09 1.816018e-10 -2.275913e-10 -7.609380e-11 -5.007528e-11
7.395252e-09 -4.020775e-09 2.445080e-09 -7.166010e-09 1.074945e-10 -8.294021e-10
-4.095134e-09 4.473010e-09 1.639308e-08 1.071502e-08 -2.074009e-09 -2.395230e-09
-1.050285e-09 -1.113181e-08 3.650086e-09 1.198331e-09 3.988591e-12 1.712226e-10
5.833517e-09 -1.507960e-09 8.799087e-09 8.003548e-09 -1.224860e-09 -3.061399e-09
-1.341308e-09 1.777137e-09 5.103261e-09 6.891533e-09 -7.313831e-10 -1.491214e-09
-3.319760e-09 2.731234e-09 1.677702e-10 -3.742717e-11 -5.319833e-11 -4.359779e-11
-7.175780e-09 -3.231053e-09 2.081266e-09 1.740899e-09 2.889835e-10 -9.460921e-11
-7.940034e-10 4.988365e-09 -1.357644e-08 -1.574592e-08 7.230867e-09 5.648332e-09
-3.916941e-09 2.096658e-09 5.472878e-10 9.774759e-11 1.744838e-11 -2.213875e-11
-1.031085e-08 1.619433e-08 -1.079981e-08 -1.121067e-08 2.710903e-09 7.772016e-09
-3.875492e-09 2.082186e-09 5.479870e-10 9.252998e-11 2.675749e-11 -3.788525e-12
2.106470e-08 -3.932935e-09 -5.983880e-08 4.873195e-09 3.342699e-08 -2.900027e-10
-3.799842e-09 2.081737e-09 5.255167e-10 6.436895e-11 9.132028e-12 2.237765e-12
-1.895308e-08 5.281585e-08 -6.953076e-09 -1.079912e-08 -1.469113e-08 -5.930090e-09
-3.931756e-09 2.008401e-09 5.983893e-10 1.625081e-10 4.245426e-11 -2.702533e-11
8.281137e-09 -3.431410e-09 -2.979619e-08 1.852616e-08 1.721582e-08 -7.208262e-09
-3.968777e-09 2.181674e-09 5.424232e-10 7.464696e-12 1.473532e-11 -2.826972e-11
5.603651e-09 5.190713e-10 6.222089e-09 -1.150312e-08 9.846086e-10 -7.780549e-10
-4.741426e-09 1.071621e-08 -7.261548e-09 -7.459546e-09 -2.002530e-09 5.094197e-09
4.034826e-10 -2.187791e-09 -1.583973e-08 -1.404227e-08 1.389143e-09 1.645710e-10
-3.195633e-09 8.959567e-09 -6.267478e-09 -5.977651e-09 -8.032721e-10 9.218599e-10
-3.395003e-09 1.327067e-08 -1.542993e-08 -2.212360e-09 -3.862614e-09 4.627189e-09
-5.512391e-09 1.686413e-08 -1.413200e-08 -6.170920e-09 -2.813886e-09 8.028800e-09
-4.430008e-09 1.140589e-08 -1.097172e-08 -3.976193e-09 -1.685906e-09 1.638862e-09
-5.884650e-09 6.343505e-09 -8.292225e-09 1.365291e-09 -3.457972e-09 3.592983e-09
2.444323e-10 -1.190335e-08 3.425589e-09 3.378263e-09 1.616606e-10 -4.957076e-11
-9.767733e-10 -1.064956e-08 3.512526e-09 7.032721e-10 -1.577630e-10 4.851164e-11
-1.583835e-09 -1.133981e-08 3.846746e-09 9.989054e-10 -1.737391e-10 1.587119e-10
-5.205493e-09 1.461837e-08 -2.102472e-08 -3.413098e-09 -7.332764e-09 1.146192e-08
4.724663e-09 -1.779202e-08 3.552921e-09 2.717094e-09 4.603244e-10 3.016893e-10
8.208955e-09 -2.089557e-08 2.182384e-09 1.961303e-09 1.178940e-09 -4.977729e-11
-2.220442e-09 1.603393e-08 -1.840853e-08 -2.123297e-09 -1.931924e-09 1.417591e-09
4.610442e-09 -1.678599e-08 3.140569e-09 3.969486e-09 5.037371e-11 1.333722e-11
7.180623e-09 -2.031885e-08 3.449208e-09 1.303561e-09 4.053732e-10 -1.033439e-10
4.964451e-09 -1.817350e-08 3.768291e-09 1.124195e-09 -1.905311e-10 2.716023e-10
-9.522587e-10 -1.096260e-08 3.251184e-09 5.008405e-09 9.476343e-11 1.734216e-10
5.285707e-09 -1.888181e-08 3.829080e-09 4.898872e-10 9.386447e-11 8.114998e-11
-7.192302e-09 1.248866e-09 -1.889084e-09 9.038772e-09 3.610049e-09 -1.316819e-09
-4.459618e-09 -5.811598e-09 2.952540e-09 2.504742e-09 -2.058300e-10 -1.821299e-11
-1.255821e-08 4.070590e-08 -7.399677e-09 -1.726495e-08 2.104341e-09 -6.540304e-10
6.575593e-10 -1.294401e-08 3.834412e-09 3.959766e-10 -3.025447e-11 -6.442957e-11
1.724237e-09 -1.542915e-08 3.741100e-09 3.249319e-09 2.282603e-10 -1.887857e-10
4.768119e-09 -1.781758e-08 3.407893e-09 1.804438e-09 8.549523e-11 -1.280211e-10
6.237333e-09 -1.966181e-08 3.686172e-09 6.538049e-10 -9.762057e-11 4.354463e-11
8.551238e-09 -2.043382e-08 8.645684e-10 -1.880802e-09 1.403724e-09 1.769764e-10
6.377673e-09 -1.989952e-08 3.824973e-09 1.273967e-09 5.024469e-11 1.014966e-10
4.736463e-09 -1.760804e-08 2.981878e-09 -2.952536e-09 6.553844e-10 -7.055795e-11
3.006023e-09 -1.182761e-08 2.210728e-09 -4.540432e-09 2.904443e-10 5.654280e-11
5.851161e-09 -1.914967e-08 3.704335e-09 8.195871e-10 -1.720448e-10 4.071765e-11
2.640922e-09 -1.273346e-08 3.048856e-09 -1.995847e-09 -1.759574e-10 4.765416e-11
1.240685e-09 -1.062245e-08 2.770456e-09 -9.431875e-10 4.361345e-10 -5.232240e-11
-6.404730e-10 7.399255e-10 -1.427951e-10 -1.497480e-09 -1.008528e-10 6.748935e-12
2.220084e-09 -1.149155e-08 2.771268e-09 -1.524756e-09 1.171061e-10 -2.348266e-10
2.163760e-08 -3.707877e-09 -4.592612e-09 2.598390e-09 -6.549215e-10 9.528929e-10
-1.685356e-09 1.842492e-09 6.961942e-11 -1.104180e-09 -6.720846e-11 4.146228e-11
1.494522e-09 -1.132175e-08 2.682750e-09 -2.289956e-09 -1.024464e-10 -4.921622e-10
-1.148360e-09 1.250083e-09 -9.172840e-11 -8.286457e-10 -1.578000e-10 -4.143591e-11
2.625420e-09 -1.268384e-08 2.900277e-09 -2.155056e-09 4.566109e-11 1.106416e-10
-2.024588e-09 1.652539e-09 5.739631e-12 -3.048140e-11 -1.372424e-10 5.875300e-12
8.313008e-10 -1.117533e-08 2.974313e-09 -1.195725e-09 -1.088758e-10 -5.241161e-10
1.096723e-08 -2.145117e-08 -8.391529e-09 5.714316e-09 1.357310e-09 3.962498e-10
1.135351e-08 -1.791568e-08 -4.491758e-09 6.754079e-09 2.540529e-09 -5.204946e-10
1.076517e-08 -2.132924e-08 -4.954512e-10 2.695856e-09 1.450688e-09 2.640334e-11
8.507641e-09 -1.994045e-08 -5.598884e-10 6.029093e-09 6.296742e-10 -5.184815e-10
8.514640e-09 -1.939725e-08 -2.437820e-09 6.574478e-09 -8.746670e-11 -2.796650e-12
8.342791e-09 -2.203849e-08 -9.727521e-10 3.986882e-09 7.629850e-10 -2.379414e-10
2.462073e-09 -1.231040e-09 -3.628359e-10 1.369844e-09 1.979403e-10 -1.080515e-10
2.203902e-09 -1.092764e-09 -3.832843e-10 1.271791e-09 1.387135e-10 2.283120e-11
5.501199e-09 -3.074902e-09 -7.625814e-10 1.852909e-11 1.428071e-11 -1.435221e-11
5.668014e-09 -2.862602e-09 -4.343761e-10 2.149533e-09 -7.708129e-11 -4.770304e-10
6.869081e-09 -3.298764e-09 -5.351821e-10 -1.970397e-09 -1.170897e-11 -4.103362e-10
3.286608e-09 -1.852895e-09 -5.523058e-10 1.222759e-09 1.657257e-10 -2.425588e-11
3.113550e-09 -1.220766e-09 -4.793161e-10 1.108857e-09 1.352472e-10 5.662848e-11
5.848152e-09 -3.000123e-09 -5.745826e-10 1.243271e-09 3.772996e-11 -3.064178e-10
-3.910396e-09 -7.475021e-09 3.410837e-09 2.474867e-09 4.737391e-10 3.860967e-11
7.855438e-09 -3.886092e-09 -5.322285e-10 -1.069696e-09 -1.287082e-12 2.402829e-10
2.914280e-09 -1.505468e-09 -3.958687e-10 4.814258e-10 9.811707e-11 -1.047624e-10
4.739674e-09 -2.617384e-09 -6.244028e-10 5.612617e-10 2.333592e-11 -2.133631e-10
4.923681e-09 -2.674988e-09 -6.868457e-10 -1.861178e-11 -3.106412e-11 -7.813750e-12
5.308708e-09 -3.025071e-09 -7.664007e-10 -3.667095e-11 -1.291559e-11 -1.013462e-11
4.106407e-09 -2.015883e-09 -3.977743e-10 2.183766e-09 -1.759038e-12 -2.113030e-10
7.510573e-09 -3.584954e-09 -6.342428e-10 -1.394292e-10 -1.818020e-11 2.389783e-11
2.058803e-09 -1.114981e-09 -1.839786e-10 1.407706e-09 1.697931e-11 -1.392195e-10
2.563496e-09 -1.095881e-09 -2.348663e-10 1.542499e-09 -2.440226e-11 -1.807319e-10
-3.559197e-10 1.010909e-09 -1.911724e-10 -1.845005e-09 -1.589115e-10 -3.099299e-10
-3.361581e-09 -8.796007e-09 3.277643e-09 2.359330e-09 -5.547451e-10 3.647931e-10
2.367158e-09 -1.088746e-09 -3.233431e-10 1.512383e-09 9.057599e-11 1.493794e-10
2.631381e-09 -1.542777e-09 -3.342011e-10 1.432772e-09 6.551938e-11 1.881451e-11
-5.495899e-09 -4.643468e-09 2.817501e-09 1.072904e-09 5.319893e-10 3.652700e-11
-1.459070e-09 -9.805619e-09 3.601513e-09 1.673002e-09 9.769013e-11 -1.070928e-10
-2.626372e-09 2.148674e-09 1.049743e-10 -7.897684e-10 -1.854809e-10 -1.004784e-10
-1.064134e-09 -1.116117e-08 3.453256e-09 2.460290e-09 3.485957e-10 6.060596e-11
-4.134737e-09 -7.453096e-09 3.326840e-09 1.242867e-09 5.621703e-11 -1.056912e-10
2.891645e-08 -1.161611e-08 -5.016445e-10 2.552050e-09 1.342687e-09 3.799066e-09
-1.561985e-09 -1.114984e-08 3.596573e-09 2.331788e-09 2.003634e-10 -1.321459e-10
-3.585763e-09 2.393947e-09 3.933887e-10 -1.245847e-09 -1.309778e-10 -2.051403e-10
-3.977535e-09 2.296861e-09 3.642393e-10 -1.097042e-09 -1.817095e-10 -3.538523e-10
-3.533522e-09 -8.654622e-09 3.173716e-09 2.081593e-09 -1.168909e-11 1.914544e-10
-1.996395e-09 -8.819175e-09 3.485255e-09 3.156574e-09 1.231044e-10 1.186086e-10
-2.085418e-09 -8.987243e-09 3.470649e-09 3.094794e-09 -1.639028e-10 -1.569606e-10
3.218266e-08 -4.628792e-09 -6.937036e-09 3.502041e-09 9.933917e-11 1.692317e-09
5.702998e-09 -1.718270e-08 3.561038e-09 -7.095385e-10 2.049534e-10 -2.325963e-10
5.687092e-09 -1.763398e-08 3.467034e-09 -5.083915e-10 -4.211642e-10 -2.385980e-10
7.015775e-09 -1.976198e-08 3.406868e-09 -9.595712e-10 5.519812e-10 -1.043241e-10
6.400799e-09 -1.875118e-08 3.405651e-09 -2.972006e-10 -1.506422e-10 -1.685312e-10
5.834328e-09 -1.731678e-08 3.375499e-09 -9.914204e-10 6.469398e-10 -2.278532e-10
5.647194e-09 -1.670791e-08 3.012006e-09 -2.368480e-09 5.333416e-10 -1.787761e-10
6.663066e-09 -1.879162e-08 3.360009e-09 -3.432937e-10 -1.057004e-10 -1.541288e-10
5.141596e-09 -2.618152e-09 -6.570496e-10 9.452106e-10 1.081569e-10 4.756467e-11
4.288193e-09 -2.629641e-09 -6.627119e-10 7.832753e-10 9.693943e-11 -2.359668e-11
3.387635e-09 -2.061368e-09 -5.010605e-10 5.508862e-10 5.243112e-11 8.373835e-11
4.697107e-09 -2.300595e-09 -6.476011e-10 9.813357e-10 -5.468764e-12 2.443512e-11
-5.670862e-09 9.312846e-09 -6.074836e-09 -4.406027e-10 -5.709655e-11 -4.990426e-10
4.651833e-09 -2.665196e-09 -6.673375e-10 7.913161e-10 1.437368e-10 1.493296e-10
3.087513e-08 -1.283200e-08 1.391009e-09 1.784468e-09 1.312149e-09 5.164172e-09
-5.964908e-09 8.633706e-09 -4.873211e-09 -3.738547e-10 -1.239425e-09 6.163203e-11
4.041090e-09 -2.358075e-09 -5.590977e-10 7.220238e-10 8.383927e-11 5.329082e-11
4.102309e-09 -2.162953e-09 -5.895675e-10 1.478201e-09 4.544684e-11 2.619496e-10
1.149774e-09 1.033591e-08 -6.175750e-09 4.203782e-09 -2.215672e-09 -2.314209e-09
5.485584e-09 -2.629475e-09 -7.742982e-10 9.524794e-10 6.903161e-11 1.517736e-10
4.742731e-09 -2.297407e-09 -6.167258e-10 9.549600e-10 -1.644151e-11 8.073031e-11
-1.068598e-08 1.738118e-08 -7.383373e-09 -1.600225e-10 -3.669003e-10 3.646670e-10
-9.315226e-09 1.113001e-08 -8.301903e-09 7.174617e-09 1.480569e-10 6.138507e-10
-1.108086e-08 1.758550e-08 -9.709676e-09 1.394580e-09 2.862067e-09 -5.629833e-09
-1.065284e-08 1.311948e-08 -6.476807e-09 3.463481e-09 1.467495e-09 -1.835242e-09
-9.730649e-09 1.118438e-08 -1.143478e-08 9.887618e-09 2.102377e-09 -1.689781e-09
-4.760429e-09 -1.337339e-09 2.387537e-10 1.285110e-09 -5.671386e-10 4.750217e-11
-4.730990e-09 1.862119e-10 5.233058e-10 -2.837784e-10 -5.961831e-10 -7.428941e-11
-4.842336e-09 1.073455e-09 -2.686527e-10 5.167247e-10 -7.199812e-10 5.307448e-10
-2.949423e-09 4.037242e-08 -3.821751e-08 -1.027869e-09 -8.574504e-09 -5.536097e-09
-4.456344e-09 8.864100e-09 -7.118647e-09 -3.075491e-09 -2.251129e-09 3.378157e-09
-4.189246e-09 -1.365605e-09 2.214591e-10 1.550964e-09 -5.912668e-10 1.737198e-10
-4.842336e-09 1.261764e-10 5.186873e-10 8.376859e-10 -2.539473e-10 4.034062e-11
-4.546937e-09 -1.134718e-09 -3.681158e-10 1.475114e-09 -8.584431e-10 5.336547e-10
-5.288353e-09 7.252003e-09 -2.036034e-09 9.317934e-10 1.432310e-09 -3.424381e-10
1.011444e-08 -2.036928e-08 -7.010076e-09 6.070770e-09 -9.121149e-09 2.868604e-09
1.190688e-08 -2.370249e-08 -2.495433e-09 5.189500e-10 -1.351661e-09 2.218147e-10
9.966388e-09 -2.710163e-08 1.010124e-09 4.692129e-09 -5.378887e-09 1.255717e-09
-5.109493e-09 6.091165e-09 -4.290163e-09 -2.449386e-09 -4.329708e-10 5.674696e-10
1.046646e-08 -2.167501e-08 -2.359902e-09 1.610479e-09 -1.120474e-09 2.976245e-10
7.000801e-09 -1.614539e-08 -2.369539e-09 3.688772e-09 -1.254120e-09 -1.540652e-10
1.020542e-08 -2.120959e-08 -2.578913e-09 2.785063e-10 1.008827e-19 1.811138e-10
1.476128e-08 -1.175287e-09 -3.256698e-09 8.251781e-09 1.421309e-09 3.606628e-10
2.511412e-08 -4.201942e-10 -2.699811e-09 1.050971e-08 2.005522e-09 5.312678e-09
1.813971e-09 -5.457377e-10 -3.795882e-10 -2.088039e-10 -1.363369e-10 -7.735890e-11
1.291576e-08 4.760647e-10 -4.483320e-09 8.732660e-09 -2.961812e-10 -5.015193e-10
1.149584e-08 6.128729e-10 -4.187777e-09 9.488219e-09 -6.662474e-10 -5.589570e-10
8.778690e-09 1.501518e-08 -7.777720e-09 1.487654e-08 7.196328e-10 -4.238394e-09
-4.364693e-09 -1.674017e-09 7.306413e-10 1.215234e-09 -6.018137e-10 1.945093e-10
1.274890e-09 -8.867330e-09 -2.353008e-09 4.027950e-09 -2.176512e-09 5.157043e-10
-3.304509e-09 -4.181616e-09 5.797332e-10 4.782279e-10 1.294238e-10 1.027944e-11
1.317865e-08 1.206472e-08 -9.266247e-09 1.634796e-08 9.053475e-10 -3.459813e-09
-4.849126e-09 1.622935e-09 9.583547e-10 -2.556657e-10 -9.858336e-12 -3.531979e-10
2.031213e-09 6.651020e-09 -2.926102e-09 6.594830e-09 -1.775590e-09 -4.180480e-09
2.899031e-09 -1.564974e-08 3.680944e-09 2.366991e-09 3.916445e-10 -7.031897e-11
-4.139678e-09 1.972765e-09 -4.952165e-09 2.030440e-09 -2.428628e-09 1.582437e-09
-4.544290e-09 4.992629e-11 1.046483e-09 -2.498832e-10 -6.482570e-11 -3.130434e-10
8.741416e-10 -1.469822e-08 3.341318e-09 3.026813e-09 1.939546e-10 -2.462084e-10
-4.879007e-09 1.892984e-09 7.934977e-10 -6.825804e-10 4.978062e-11 1.011919e-10
1.589417e-09 -1.397305e-08 2.929567e-09 4.620349e-09 7.659191e-10 -1.607683e-10
2.494226e-09 -1.406580e-08 3.140919e-09 4.366835e-09 6.321148e-10 2.773060e-10
-4.444473e-09 1.875254e-09 5.850378e-10 -9.681271e-10 -1.445972e-10 -8.983969e-11
2.968227e-09 -1.602703e-08 3.057909e-09 2.429795e-09 1.063970e-09 3.177964e-11
-1.235837e-09 -7.804589e-09 5.213974e-10 3.561411e-09 -1.404987e-09 1.737182e-10
1.389420e-09 -1.535798e-08 3.371784e-09 3.227399e-09 2.104958e-10 1.739835e-10
2.652528e-08 -2.005664e-08 1.952221e-08 7.447464e-09 4.784565e-09 1.229350e-08
-5.007696e-09 1.622334e-09 -2.609908e-10 -6.896545e-10 -5.701883e-10 -1.016025e-10
1.823689e-08 -1.938112e-08 5.381286e-08 -1.008630e-08 -2.552359e-09 3.820692e-09
-4.413802e-09 1.376267e-09 7.356333e-10 -6.347687e-10 -5.435169e-10 -2.565284e-10
9.198187e-09 -2.497253e-08 7.186563e-08 -1.038551e-08 -1.249976e-09 3.161571e-08
-4.503726e-09 2.324243e-09 4.597744e-10 -1.258049e-09 -4.786416e-11 9.438850e-11
1.551604e-08 -2.398327e-08 5.072106e-08 1.266529e-08 3.458220e-09 -2.134018e-10
-4.387287e-09 2.506079e-09 5.799290e-10 -3.297973e-10 -8.597179e-12 -7.673690e-11
-2.938715e-08 -4.043281e-08 1.184752e-07 1.140803e-08 1.473832e-08 4.110904e-08
-1.057542e-09 -2.683815e-08 1.004145e-07 -4.955695e-09 -3.150466e-09 4.922634e-09
-4.800481e-09 1.671239e-09 8.451728e-11 -8.951408e-10 -6.307557e-10 2.720463e-10
1.071261e-08 -3.110596e-08 1.896239e-09 -1.962527e-09 -5.784149e-09 -1.036299e-11
4.836492e-09 -3.286791e-08 7.590014e-08 -4.446888e-09 -1.817791e-09 3.138828e-08
3.356188e-08 -2.376349e-08 6.076514e-08 1.371841e-08 6.339687e-09 3.896285e-08
2.809886e-09 -4.257598e-10 -4.402191e-10 -4.283697e-09 -5.247669e-11 4.659750e-11
5.061078e-09 -1.586812e-09 -4.235052e-10 -4.309716e-09 3.998668e-11 -4.690335e-10
1.839310e-09 4.577227e-11 -4.473808e-10 -3.631530e-09 2.803802e-11 -1.995869e-10
1.380698e-09 5.844116e-10 -4.042517e-10 -3.999698e-09 -2.475125e-10 2.523584e-10
1.726599e-09 2.970690e-11 -4.223240e-10 -3.537768e-09 -4.241019e-11 -1.693738e-10
-4.151248e-08 -3.464151e-08 1.580070e-07 -1.575375e-08 -1.496013e-08 1.938027e-08
3.945732e-09 -1.414179e-09 -5.714025e-10 -3.084574e-09 -2.898792e-11 -1.994724e-10
-3.130928e-09 1.955565e-08 -1.186883e-08 8.671051e-09 -1.434011e-09 -6.175496e-10
3.448982e-09 -1.116211e-09 -5.534795e-10 -3.423820e-09 -2.767978e-11 -1.804983e-10
-6.180645e-09 9.411506e-09 -6.074836e-09 8.908043e-13 -7.327295e-11 -6.526177e-10
1.461709e-08 -1.665168e-08 -1.913386e-08 2.658872e-09 -1.046358e-08 1.715089e-09
2.147374e-09 -4.521912e-10 -4.739169e-10 -3.200997e-09 -2.505454e-10 1.346079e-10
1.266542e-09 2.147083e-11 -3.846723e-10 -3.643028e-09 -2.408358e-10 1.769573e-10
-1.296616e-09 1.573993e-08 -1.814537e-08 -1.753532e-09 -2.889421e-09 -1.682911e-09
1.222163e-08 -2.733776e-08 -1.607122e-09 -6.836361e-10 -3.641370e-09 -1.265486e-10
-6.991684e-09 3.138394e-09 -2.686688e-09 -4.599115e-09 -3.654892e-09 -1.536686e-09
1.188394e-08 -2.610274e-08 -3.196541e-10 1.057886e-10 -1.452167e-09 2.436687e-10
1.207511e-08 -2.436674e-08 -3.203525e-09 -1.108135e-10 -1.202924e-09 7.815847e-11
2.102830e-08 -2.996317e-09 -3.730341e-09 -5.400243e-09 2.626368e-10 1.421208e-09
-3.321713e-09 -8.563349e-09 3.822090e-09 7.596235e-11 3.812195e-11 0.000000e+00
1.181576e-08 -2.557653e-08 -5.774646e-10 2.630722e-10 -1.726186e-09 -5.302447e-11
1.192503e-08 -2.600585e-08 -1.760441e-10 7.820660e-10 -4.297267e-09 5.502927e-11
1.183273e-08 -2.481702e-08 -5.299457e-09 8.397010e-10 -5.823910e-09 8.017722e-10
-8.515138e-09 3.592257e-09 6.030043e-10 9.358070e-10 2.510276e-09 -1.227163e-10
-5.300009e-09 -5.811597e-09 2.952540e-09 1.202405e-09 3.615268e-10 1.648459e-10
1.199310e-08 -2.772789e-08 2.562041e-09 6.212989e-10 -3.649893e-09 7.356034e-10
1.339259e-08 -3.295636e-08 -2.963695e-10 -5.533551e-09 -1.246177e-08 -1.262890e-09
-6.015830e-09 -3.484227e-09 6.986065e-10 6.978884e-09 7.852385e-12 -2.175948e-10
-3.312374e-09 2.536239e-09 3.332246e-10 -6.765388e-10 -5.889933e-11 -1.011274e-10
-3.854919e-09 2.397482e-09 3.956555e-10 -1.227228e-09 -6.200740e-11 1.260190e-10
-3.017941e-09 2.339360e-09 1.913554e-10 -8.121055e-10 -4.088285e-12 1.260130e-10
-2.991657e-09 2.194088e-09 2.231353e-10 -1.273613e-09 -4.630163e-11 -2.059392e-10
-9.079287e-09 5.663525e-09 -8.693408e-10 2.908797e-09 2.065842e-09 -6.450567e-10
-6.862521e-09 -2.729274e-09 2.295889e-09 1.334477e-09 6.617573e-10 -3.650403e-10
-4.714132e-09 -6.138562e-09 3.215701e-09 7.553202e-10 -1.795897e-12 -2.712954e-21
-3.027328e-09 2.510301e-09 2.092795e-10 -4.519000e-10 -3.393798e-11 -3.785497e-11
-7.438873e-09 1.420526e-08 -5.108117e-09 -3.534117e-09 2.122420e-09 -4.261727e-09
-3.269157e-09 2.553197e-09 2.111631e-10 -4.074645e-10 -2.536149e-11 -4.877165e-11
-3.296833e-09 2.510761e-09 2.771277e-10 -4.455436e-10 -5.122547e-11 -9.500511e-11
-3.926063e-09 -2.418362e-09 -5.943217e-09 -7.126904e-09 -3.798652e-09 -1.662799e-09
-5.388605e-09 -9.503598e-10 -1.738085e-09 -3.710239e-09 -1.842991e-09 -4.989256e-10
-6.197731e-09 3.155884e-10 -2.530241e-09 -4.647252e-09 -2.567139e-09 -1.592578e-09
-6.437187e-09 1.816356e-09 -2.862482e-09 -3.653387e-09 -4.007938e-10 5.406165e-11
-4.917421e-09 2.094929e-10 -4.301461e-09 -5.371846e-09 -1.553309e-09 -3.360196e-10
-2.396243e-10 6.000542e-10 1.337526e-10 1.948083e-09 -1.162630e-10 -1.767513e-10
-5.424743e-09 -8.361321e-10 -1.953828e-09 -3.692604e-09 -2.268166e-09 -8.289196e-10
-4.221981e-09 -7.503402e-10 -1.998171e-09 -5.024401e-09 -1.956324e-09 -8.808327e-10
-3.510522e-09 -1.159126e-09 1.461301e-09 -3.806757e-10 -1.147673e-10 -2.929612e-10
-3.420214e-09 -1.137574e-09 1.325077e-09 -3.628062e-10 2.285220e-10 -2.157913e-10
6.408030e-09 -3.440824e-09 -7.103296e-10 3.981126e-10 7.887706e-11 3.470185e-11
5.734194e-09 -3.085419e-09 -6.429938e-10 7.179381e-10 9.309456e-11 1.499823e-11
-3.477810e-09 -8.253096e-10 1.567514e-09 -5.072058e-10 7.836021e-11 -3.128019e-10
-3.646150e-09 -5.078440e-10 1.361147e-09 -1.070629e-10 -2.354228e-12 -1.064064e-10
-2.453527e-09 1.400532e-09 3.104286e-10 5.294147e-10 1.480274e-10 -8.497736e-11
-2.651318e-09 1.454774e-09 3.911909e-10 6.159659e-10 1.381668e-10 3.419376e-12
-2.732860e-09 1.579863e-09 3.779044e-10 9.941869e-11 1.203231e-10 -7.952883e-11
-1.198863e-11 1.040021e-10 -5.728396e-11 5.322472e-10 1.006431e-11 -1.975999e-10
2.966820e-09 -1.466466e-09 -3.206959e-10 1.964820e-09 -5.394797e-12 -4.230233e-10
8.737056e-10 -2.947598e-10 -1.680744e-10 5.736893e-10 -7.304646e-11 1.286793e-11
-3.058502e-09 1.335859e-09 5.878960e-10 5.502025e-10 1.269020e-10 -6.313972e-11
-3.090799e-09 1.708193e-09 4.282776e-10 3.267502e-10 8.514894e-11 -1.003151e-10
2.165959e-09 -1.241977e-08 2.677576e-09 -1.726255e-09 4.402314e-10 -2.175545e-10
-1.975206e-09 1.101939e-09 2.242593e-10 4.675345e-10 1.647527e-10 -3.328116e-11
-1.735838e-09 1.164622e-09 1.479581e-10 4.126667e-10 7.706702e-11 -6.808643e-11
-3.272604e-09 1.710848e-09 4.698335e-10 3.315197e-10 9.565837e-11 -8.404957e-11
-2.637105e-09 1.434364e-09 3.098968e-10 2.397567e-10 1.322166e-10 -8.683010e-11
2.725930e-09 -1.302052e-08 2.928773e-09 -2.707289e-09 -6.579683e-10 -1.819286e-10
-2.618591e-09 2.044167e-09 1.109361e-10 -1.395083e-09 -1.379712e-10 9.917955e-12
6.467294e-09 -1.893824e-08 2.453310e-09 -2.004791e-09 1.525144e-10 -6.777855e-11
-2.795059e-09 2.413037e-09 2.113749e-10 -6.170455e-10 -3.900225e-11 -2.980227e-12
-3.165798e-09 2.395375e-09 2.101577e-10 -7.001020e-10 -4.762922e-11 -3.584802e-11
-2.619039e-09 2.345583e-09 2.579306e-10 -7.696532e-10 -1.560808e-10 -2.846594e-10
6.776659e-09 -1.992243e-08 2.730688e-09 3.875440e-09 3.342229e-10 -2.900260e-10
2.725930e-09 -1.249521e-08 2.115978e-09 -3.065966e-09 5.621725e-10 -1.902212e-11
-2.232728e-09 1.815092e-09 9.274626e-11 -1.228928e-09 -8.726109e-11 -7.771705e-11
1.670888e-09 -1.151821e-08 2.849644e-09 -1.614208e-09 -1.676268e-10 6.676559e-11
3.570485e-09 -1.342845e-08 3.092703e-09 -4.196055e-11 8.451462e-11 -5.614043e-11
2.499760e-09 -1.288514e-08 2.975786e-09 -3.598601e-09 -2.481460e-10 -6.112226e-10
5.088948e-09 -2.576822e-09 -7.330241e-10 -1.284759e-09 -2.479530e-11 1.565039e-10
1.120864e-08 -2.717212e-08 2.303404e-09 9.339933e-10 -1.805943e-09 1.857640e-10
-2.636753e-09 1.172447e-09 5.171028e-10 9.176033e-10 1.717015e-10 -1.114675e-10
1.046111e-08 -2.171240e-08 -3.958494e-09 1.950402e-09 -2.854676e-09 4.685767e-10
-3.562341e-09 1.684620e-08 -1.396548e-08 2.292038e-09 -4.595698e-09 -5.756451e-09
-8.490387e-09 5.141006e-09 -1.278723e-09 -1.728609e-09 -3.956288e-09 -1.292712e-09
-4.743072e-09 1.044734e-08 -1.097857e-08 -5.178487e-09 -5.326218e-09 -4.070175e-09
1.058286e-08 -1.934590e-08 -7.285881e-09 2.978377e-09 -2.633029e-09 1.703557e-10
9.088241e-09 -1.946315e-08 -3.868383e-09 1.572294e-09 -4.455372e-10 3.522866e-10
2.333003e-08 -8.978699e-09 2.878143e-09 1.009994e-08 -1.641524e-10 1.616800e-09
1.047042e-08 -2.059017e-08 -4.329149e-09 1.618063e-09 -9.453127e-11 2.194367e-11
9.661654e-09 -2.154973e-08 -1.764108e-09 1.409913e-09 -1.423128e-09 3.917312e-10
-9.082264e-09 1.486390e-09 4.904264e-10 -3.703819e-10 -9.365984e-10 -1.125993e-10
5.368555e-09 -2.963159e-09 -7.652909e-10 9.827528e-12 -1.815548e-12 -8.967937e-12
5.264406e-09 -2.879423e-09 -7.518768e-10 1.497372e-11 -2.297860e-12 1.903089e-10
5.413000e-09 -3.195975e-09 -7.192513e-10 -8.288568e-11 9.147128e-13 6.104944e-11
6.957988e-09 -3.859245e-09 -5.350786e-10 3.090414e-10 -2.037315e-11 -3.839395e-11
-8.637512e-09 1.467638e-09 9.720702e-10 -7.999237e-10 -1.693949e-09 -1.946694e-10
4.625946e-09 -2.287052e-09 -6.768974e-10 -3.389544e-10 -9.811507e-11 2.047631e-10
5.476295e-09 -2.988863e-09 -7.664314e-10 -3.114664e-11 -9.852619e-12 6.137520e-22
-8.721485e-09 8.698251e-10 1.721497e-09 -1.959505e-09 -1.101870e-09 -6.669387e-10
6.774504e-09 -3.339409e-09 -6.384040e-10 1.747982e-10 2.897335e-11 -3.079692e-11
3.763326e-09 -2.149889e-09 -5.143752e-10 3.870866e-10 1.942735e-11 -5.277356e-11
6.028686e-09 -3.307654e-09 -6.981997e-10 -1.374089e-09 -5.339729e-11 -6.150214e-11
-8.564411e-09 2.981789e-09 1.340064e-09 -2.100506e-09 -1.056199e-09 -4.881136e-10
2.897964e-09 -1.174808e-09 -5.470087e-10 -2.281994e-09 -1.800338e-10 2.733931e-10
-8.604283e-09 1.628958e-09 1.019989e-09 -2.326053e-09 -1.376545e-09 -3.154901e-10
4.320670e-09 -2.473870e-09 -6.880883e-10 -9.498795e-10 -1.732590e-10 -3.584660e-12
4.672916e-09 -2.338918e-09 -6.472531e-10 -2.236584e-10 -8.926937e-11 -2.311951e-11
1.549903e-09 -7.650383e-10 -2.744764e-10 1.866688e-09 -7.172263e-12 -2.838019e-11
7.359642e-09 -3.727341e-09 -2.517493e-10 5.494163e-10 4.306366e-11 -1.215009e-10
6.006744e-09 -3.339409e-09 -7.338148e-10 1.622941e-10 5.342937e-11 8.338796e-11
5.505271e-09 -3.081307e-09 -7.297150e-10 2.662582e-11 -6.014463e-13 4.823864e-11
-9.235307e-09 3.395449e-09 3.142564e-10 -6.849659e-10 -1.930369e-09 -4.025631e-10
7.089746e-09 6.727876e-10 -2.072943e-09 -6.464665e-09 -7.575859e-10 8.649288e-10
-9.120063e-09 3.746270e-09 -2.544467e-10 -4.244241e-10 -1.599506e-09 -8.345324e-12
-9.078387e-09 3.403475e-09 8.853291e-10 -7.232823e-10 -2.002089e-09 -1.027759e-10
-7.866880e-10 6.471957e-09 -2.880635e-09 -3.208133e-09 1.045133e-09 -6.455144e-10
-5.219112e-09 1.087516e-08 -5.439966e-09 -8.501673e-09 3.282546e-09 -1.230910e-09
-1.554876e-08 5.175663e-08 -2.966063e-08 -5.087395e-09 -1.127168e-09 -4.544276e-09
-1.555483e-08 5.143054e-08 -2.921792e-08 -4.763735e-09 3.542064e-09 -1.378424e-08
-1.822949e-08 5.308828e-08 -4.205393e-08 4.942739e-09 1.163503e-08 -2.221000e-08
-1.401411e-08 5.041042e-08 -4.973854e-08 -4.353031e-09 1.907522e-08 -1.815020e-08
-5.138174e-09 1.175292e-08 -4.176199e-09 -2.346855e-09 -3.396314e-10 6.912659e-10
3.321851e-09 1.544352e-09 2.161162e-08 -2.196234e-08 -6.153438e-09 1.054020e-08
9.839733e-09 1.749456e-09 1.229240e-08 -1.887779e-08 -4.812166e-09 5.484229e-09
-3.628819e-08 1.311465e-08 5.078132e-08 -2.786988e-08 -3.539511e-09 1.158469e-09
-1.476981e-08 5.305133e-08 -3.072646e-08 -6.879971e-10 -5.245352e-09 -4.370295e-09
-3.745082e-09 2.700066e-09 4.033527e-10 -1.751367e-10 -5.350234e-12 -1.030779e-10
-4.014060e-09 2.562877e-09 3.394010e-10 -7.428099e-10 -7.724799e-11 -1.303069e-10
-4.234364e-09 2.400901e-09 5.042478e-10 -8.343324e-10 -8.384887e-11 -1.098050e-10
7.819579e-09 6.626303e-09 7.386935e-09 1.775499e-08 1.046461e-09 -1.204884e-10
-3.363589e-09 2.527975e-09 3.177454e-10 -6.736522e-10 -5.910605e-11 -9.017054e-11
-4.014140e-09 2.618105e-09 3.866543e-10 -1.880769e-10 -9.931944e-12 -2.243938e-11
-4.178082e-09 2.084198e-09 9.422152e-11 -1.576553e-09 1.019406e-12 9.564394e-11
3.667120e-09 1.757298e-09 -5.652900e-10 -7.828234e-09 1.923910e-10 -2.390825e-10
-3.160634e-09 2.282714e-09 1.650871e-10 -1.058289e-09 -9.187739e-11 -1.456031e-10
-3.570943e-09 2.596573e-09 3.438130e-10 -5.058980e-10 -1.332201e-11 7.376943e-11
-3.162871e-09 2.601443e-09 2.068354e-10 -4.032821e-10 -5.971978e-11 -1.355198e-10
-4.760776e-09 1.800794e-09 -2.298837e-10 -8.517930e-10 -6.724821e-11 1.778591e-10
-3.043447e-09 2.599766e-09 2.085860e-10 -4.017751e-10 -5.236611e-11 -7.802714e-11
-2.644600e-09 3.418559e-09 -1.289236e-09 -5.676428e-09 9.677414e-11 2.676010e-12
-4.100096e-09 1.460101e-09 7.864398e-10 1.043503e-10 -4.020784e-12 -7.343992e-11
-3.775430e-09 2.700879e-09 3.566734e-10 -1.711027e-10 -7.738365e-12 -6.292883e-11
-3.233016e-09 2.591760e-09 2.154903e-10 -3.132037e-10 -5.541945e-11 3.563438e-11
-3.602349e-09 2.747525e-09 2.520002e-10 -1.618359e-10 -3.490563e-11 -1.134681e-10
-4.037560e-09 5.879386e-10 1.080736e-09 1.667559e-10 5.830669e-12 -1.156639e-10
-3.527775e-09 2.784812e-09 2.825757e-10 -1.097682e-10 -4.273248e-12 -1.201350e-10
-3.593939e-09 2.039991e-09 5.239791e-10 -1.049116e-11 -1.058487e-12 -1.147304e-11
-3.715899e-09 1.999895e-09 4.998701e-10 9.998047e-11 2.338885e-11 1.108602e-11
-3.789050e-09 2.059494e-09 5.150378e-10 1.219109e-10 4.406764e-11 -5.144279e-11
-3.371289e-09 1.658279e-09 6.047998e-10 3.801484e-10 5.774714e-11 -5.245004e-11
-3.169321e-09 1.833161e-09 4.675831e-10 1.751639e-10 7.095347e-11 1.678732e-11
-3.066718e-09 1.877963e-09 3.764780e-10 2.030158e-10 3.078379e-11 -1.952294e-11
-3.618165e-09 2.046606e-09 4.709142e-10 1.172591e-10 6.817180e-11 -1.017902e-11
-3.952638e-09 1.192724e-09 9.067036e-10 8.087175e-11 -6.908607e-11 -3.556888e-11
-2.216723e-09 1.253696e-09 2.958700e-10 5.570724e-10 -8.237861e-13 -3.335940e-10
1.036424e-10 4.244987e-10 -8.717471e-11 1.521710e-09 -1.619105e-11 -2.494371e-10
-3.542736e-09 2.073451e-09 5.274456e-10 5.471890e-11 5.458967e-12 2.885780e-11
1.428587e-08 -3.038910e-09 -1.377410e-09 -6.405257e-09 2.885678e-10 3.368815e-10
-2.718327e-09 1.608309e-09 3.120944e-10 -2.141043e-11 1.288550e-10 -3.428346e-11
-3.873965e-09 2.090201e-09 5.130096e-10 8.464002e-11 6.525702e-11 -7.872135e-11
-3.732690e-09 1.683953e-09 6.256924e-10 3.750364e-10 4.533107e-11 -8.039791e-12
-3.604228e-09 1.891451e-09 4.489038e-10 7.817835e-11 1.778140e-11 -4.254772e-11
-3.241624e-09 1.900470e-09 4.111984e-10 8.938317e-11 3.782652e-11 -1.189372e-10
-3.540659e-09 1.997766e-09 4.808309e-10 -3.049680e-11 5.678999e-12 -5.045009e-11
-3.344672e-09 1.834676e-09 4.705925e-10 3.481730e-10 1.090659e-10 -8.942291e-11
-3.755649e-09 1.750199e-09 6.642193e-10 2.704263e-10 9.953283e-11 -1.140802e-10
-3.593939e-09 2.024397e-09 4.849017e-10 3.005596e-12 8.271383e-12 -2.935741e-11
-3.792059e-09 2.059670e-09 5.254659e-10 1.242202e-10 5.030487e-11 -5.336176e-11
-9.279155e-10 -9.032602e-09 1.873826e-09 5.690608e-09 3.451973e-11 1.697262e-10
-3.484313e-09 1.972465e-09 4.623217e-10 2.442224e-11 4.278933e-11 -3.705591e-11
-1.645840e-09 -5.899717e-09 -5.836220e-09 1.302678e-08 1.073807e-09 -6.808607e-10
1.073796e-08 -2.291226e-08 -3.752116e-09 -9.665030e-10 2.262222e-09 2.928682e-10
1.793758e-08 -2.040795e-08 -1.620136e-08 -9.069966e-10 8.504240e-09 -9.603018e-12
8.637560e-09 -2.254598e-09 -3.100523e-08 1.787821e-08 1.472638e-08 -5.790840e-09
1.296801e-08 -2.430126e-08 -8.088974e-09 -2.768368e-10 -1.046505e-08 1.715334e-09
1.486169e-08 -4.589211e-09 -3.448424e-08 -9.311302e-09 5.600583e-09 2.859779e-09
1.478480e-08 -2.308454e-08 -1.602311e-08 2.447906e-09 8.355172e-09 -2.658316e-10
-4.005937e-09 6.436697e-09 -1.651598e-08 1.518240e-08 2.366068e-09 -1.442934e-09
9.981040e-09 -1.563536e-08 -8.428813e-09 3.852196e-09 -5.848724e-10 6.864320e-10
-9.827915e-10 -4.507239e-09 -5.836220e-09 1.204713e-08 1.240765e-09 -8.212109e-10
-5.884075e-10 5.889635e-10 1.845990e-10 1.371655e-09 2.086356e-11 3.440190e-11
1.223954e-08 -1.682553e-08 -1.332169e-08 2.616878e-09 -4.256730e-09 3.915658e-10
-1.778760e-09 1.011274e-09 2.003495e-10 1.001942e-09 8.148904e-11 -6.214895e-11
1.278196e-08 -2.072297e-08 -1.425864e-08 1.820304e-09 -4.515890e-09 6.459036e-10
-1.897913e-09 9.344685e-10 2.970548e-10 1.374426e-09 2.165110e-10 -1.390821e-11
-2.663619e-09 1.315948e-09 3.650822e-10 7.118617e-10 1.339548e-10 -7.059131e-11
1.229420e-08 -2.195067e-08 -9.360964e-09 1.863567e-09 -5.916731e-09 5.152645e-10
-3.414586e-09 1.421375e-09 6.953806e-10 8.431644e-10 1.546259e-10 -1.874731e-10
1.166107e-08 -1.682756e-08 -1.209569e-08 2.565684e-09 -4.092945e-09 1.314418e-09
3.743990e-09 6.817124e-09 -3.252951e-09 3.092901e-09 -2.191858e-09 -1.130463e-09
-5.096622e-09 1.075331e-08 -8.561413e-09 1.784126e-10 -3.222577e-09 -5.293946e-09
3.453966e-10 8.097745e-12 -1.108038e-10 1.566244e-09 -5.374209e-11 -3.234462e-10
-5.830172e-10 5.954099e-10 5.745360e-11 1.324910e-09 -2.526779e-11 5.238854e-11
-6.540928e-10 4.244987e-10 1.000924e-10 1.404407e-09 1.953244e-10 -5.936596e-11
1.188803e-09 8.847759e-09 -6.299151e-09 8.285474e-09 -9.342408e-10 -6.347400e-09
1.246146e-09 -5.887402e-10 -2.849054e-10 1.103050e-09 -7.610135e-11 -1.275868e-11
-5.487166e-10 5.954106e-10 8.807532e-11 1.326140e-09 -2.591401e-11 1.425660e-11
3.814678e-09 4.826304e-09 -5.874937e-09 6.207163e-09 -2.466148e-09 -3.107352e-09
-2.446328e-10 2.478311e-10 2.255884e-11 1.769578e-09 1.768470e-10 4.679834e-11
-2.713511e-09 1.459582e-09 4.356142e-10 1.308810e-09 9.245937e-11 -1.189571e-10
-1.738604e-09 -6.504373e-09 -1.811260e-09 -9.152647e-09 1.688547e-09 5.223901e-10
-7.972923e-10 -8.276734e-09 1.704943e-09 -5.904127e-09 1.801339e-10 -2.049786e-10
1.168362e-09 1.042756e-08 -5.186950e-09 4.159262e-09 -2.670387e-09 -2.155380e-09
3.150740e-08 -1.410270e-08 8.235205e-09 1.930299e-09 1.213841e-09 7.712957e-09
9.555979e-09 -2.144746e-08 -8.127761e-10 -1.598540e-09 1.233153e-09 2.636367e-10
1.002580e-08 -1.226872e-08 -1.393557e-08 5.007460e-09 -6.610709e-09 1.905177e-09
1.007578e-08 -1.131643e-08 -1.469457e-08 4.598215e-09 -2.878981e-09 1.120397e-09
1.361162e-08 -1.312013e-08 -1.788062e-08 1.444526e-09 -3.101797e-09 7.559335e-10
-2.478295e-09 -4.924913e-09 2.104387e-09 -2.921748e-09 -1.210709e-10 3.514745e-12
-9.523711e-10 -3.710403e-09 -2.416360e-09 -1.042483e-08 3.029914e-09 1.005239e-09
3.832312e-09 -1.046949e-08 -7.807506e-09 -1.154410e-08 4.595513e-09 1.387757e-09
4.026619e-09 -1.609425e-08 1.847126e-09 -4.182520e-09 3.074032e-10 -1.107547e-10
1.361166e-08 -1.260324e-08 -1.412072e-08 1.462693e-09 -5.710106e-09 7.395094e-10
1.361219e-08 -9.624447e-09 -2.290018e-08 1.345354e-09 -4.327956e-09 6.802076e-10
4.961091e-09 -9.027354e-09 -1.112424e-08 -1.208252e-08 2.751209e-09 9.478574e-10
-4.651531e-09 -2.296896e-10 9.158074e-10 4.883286e-10 -1.013524e-10 -5.652634e-11
-4.803474e-09 -1.198224e-10 4.383427e-10 2.134453e-10 5.441003e-11 -1.542935e-10
1.503805e-10 -8.383436e-09 -4.980488e-10 -8.234816e-09 9.374817e-10 -7.986509e-11
4.601426e-09 -1.548609e-08 -7.640102e-10 -6.839051e-09 2.183718e-09 3.587090e-10
1.724629e-08 1.001139e-08 -6.510692e-08 -1.376816e-08 2.801975e-08 9.097982e-09
-4.735484e-09 4.784937e-10 7.978347e-10 -6.337819e-11 -3.129093e-10 1.408108e-10
-4.734323e-09 6.719780e-11 6.095329e-10 -3.183367e-10 -1.501985e-10 -5.331477e-11
-3.846496e-09 -2.266776e-09 2.593321e-10 8.116756e-10 1.548639e-10 8.340351e-11
-4.557635e-09 -8.153069e-10 9.492256e-10 -1.035823e-10 -2.843814e-10 -4.162248e-11
1.937670e-09 -1.198252e-08 -4.752844e-10 -8.815768e-09 8.775642e-10 3.510817e-10
-4.467708e-09 -1.353227e-09 8.642278e-10 5.512881e-10 2.658109e-10 -6.039791e-11
6.812218e-09 -1.985515e-08 3.914826e-09 3.753778e-10 1.630249e-10 -2.324785e-11
6.634051e-09 -1.970165e-08 3.914502e-09 4.513111e-10 1.290600e-10 1.073142e-12
-5.426353e-08 9.802015e-09 1.427300e-07 2.732744e-08 7.086615e-08 4.358045e-08
1.213604e-08 -2.467626e-08 -4.177753e-09 -1.263501e-09 -6.970094e-09 -1.406063e-11
-7.067650e-09 9.411504e-09 -6.817760e-09 -2.412147e-09 -1.823857e-10 -2.612481e-10
6.831892e-09 -1.985559e-08 3.530156e-09 2.863101e-10 2.033662e-10 -5.644413e-11
6.045294e-09 -1.893051e-08 3.687923e-09 9.831895e-10 2.032490e-10 2.504019e-11
6.216362e-09 -1.980448e-08 3.847012e-09 5.164410e-10 -3.772671e-11 -2.492284e-12
-4.117208e-09 2.607813e-09 4.953460e-10 -1.613367e-10 -4.341727e-11 -2.433327e-10
-3.727771e-08 6.477273e-09 1.424717e-07 2.343516e-08 -3.152093e-09 5.680294e-09
-2.897421e-09 1.781122e-08 -1.427998e-08 2.079640e-09 -1.223624e-09 -9.982792e-10
-3.718622e-09 2.731078e-09 3.555725e-10 -1.347473e-10 -3.983308e-11 -2.230551e-10
1.718236e-08 4.453971e-08 -7.346829e-08 -8.353550e-09 2.280645e-08 1.227572e-08
8.265995e-09 2.366499e-08 -4.736809e-08 -6.526807e-09 -2.104461e-08 -3.852152e-09
-3.693627e-09 2.685386e-09 3.206098e-10 -3.845684e-10 -6.105738e-11 -8.903006e-11
-3.545575e-09 2.682988e-09 3.023444e-10 -2.881125e-10 -4.827894e-11 -9.031788e-11
-6.246585e-09 9.941319e-10 -2.500442e-09 -3.285801e-09 -6.727372e-10 -2.248921e-10
2.145160e-09 -1.005713e-09 -3.482801e-10 6.054328e-10 -7.581180e-11 8.781864e-13
2.998733e-09 -1.595718e-09 -3.988943e-10 6.381554e-10 7.970824e-11 -1.211432e-10
2.305574e-09 -9.630896e-10 -3.167773e-10 5.819338e-10 6.338641e-11 -1.209106e-10
2.295812e-09 -1.423856e-09 -3.227552e-10 6.756232e-10 -1.938553e-11 -9.498935e-11
5.365267e-09 -2.334368e-09 4.662404e-11 2.830903e-09 -8.475545e-11 -2.120242e-10
2.287074e-09 -6.888945e-10 -3.083591e-10 6.491310e-10 -4.123668e-11 -1.133604e-10
4.624020e-09 -2.005526e-09 -2.916503e-10 2.349518e-09 1.256326e-10 1.389271e-10
2.979469e-09 -1.500175e-09 -4.291971e-10 3.055549e-10 1.008598e-10 2.522300e-10
3.372824e-09 -1.574378e-09 -3.765721e-10 4.078677e-10 5.609424e-11 2.295333e-10
6.391314e-09 -3.529398e-09 -7.511528e-10 -2.140126e-10 -3.379526e-11 1.489467e-11
2.379352e-09 -1.048077e-09 -3.568617e-10 1.447429e-10 1.258116e-10 -2.044898e-11
5.069182e-09 -2.784714e-09 -7.247225e-10 -1.326622e-09 -1.300715e-11 -1.116907e-11
1.544411e-09 -6.696564e-10 -1.647678e-10 7.663009e-10 -4.440792e-11 -3.846963e-10
-1.153978e-09 1.099328e-09 -1.250511e-10 -1.344781e-09 -7.989520e-11 9.420242e-12
3.075803e-09 -1.408015e-09 -4.484835e-10 7.448546e-10 1.042710e-10 1.200093e-10
-3.776972e-09 2.641960e-09 -3.997842e-10 -2.652242e-09 -1.229150e-11 1.613434e-10
2.609266e-09 -1.331084e-09 -3.697824e-10 1.606473e-10 2.929124e-11 5.291745e-11
7.952345e-10 -2.905125e-10 -1.905276e-10 1.091881e-09 8.175886e-11 -5.636602e-11
7.374874e-10 -8.702727e-11 -1.187739e-10 1.090776e-09 1.471441e-10 5.375611e-11
5.848913e-09 -2.538853e-09 -5.422010e-10 -2.569295e-09 -7.565948e-11 -1.522320e-10
-4.154024e-09 -1.843326e-09 7.432925e-10 7.699366e-10 -5.393939e-10 9.673828e-11
3.958640e-09 -1.104577e-09 -3.773022e-10 -5.086081e-09 -2.330589e-10 3.148437e-10
-2.814892e-09 -2.745066e-09 -2.599232e-10 1.159368e-09 -4.805507e-10 -1.326674e-10
8.039302e-09 1.163918e-08 -3.799116e-08 9.537430e-10 -6.028595e-09 1.210775e-09
-4.559905e-09 2.921677e-09 -1.157920e-09 -1.806787e-09 -9.847678e-11 2.372782e-10
-5.873048e-09 5.611987e-09 -3.426355e-09 -1.599650e-09 -1.672271e-09 2.086101e-09
-4.923695e-09 2.887435e-09 -9.458785e-10 -1.289242e-09 -2.244466e-10 -1.105938e-10
-2.866110e-09 8.849078e-09 -9.285674e-09 1.087506e-09 -1.579438e-09 1.117426e-09
-3.926448e-09 -2.288992e-09 9.937975e-10 5.919998e-10 -2.941246e-10 -1.446194e-10
-2.861537e-09 -4.263894e-09 4.192611e-10 1.442156e-09 -7.706364e-10 -1.630726e-11
-3.356719e-09 -3.785937e-09 8.719505e-10 8.262158e-10 -4.282512e-10 -5.958567e-11
-5.512391e-09 1.238288e-08 -1.037675e-08 -2.880476e-09 -3.509214e-09 5.484262e-09
-5.348285e-09 1.114997e-08 -1.251364e-08 -2.369724e-10 -4.097311e-09 5.385124e-09
-3.344689e-09 -3.990939e-09 2.396776e-10 1.317048e-09 -8.144711e-10 1.427651e-10
-9.813467e-10 1.470014e-08 7.513874e-10 -1.621112e-08 -2.472499e-09 1.129467e-09
-4.364693e-09 -5.670788e-10 2.027587e-10 9.499789e-10 -3.185234e-10 -6.872723e-11
7.204224e-10 2.855502e-08 -3.544777e-08 -7.845132e-09 -4.000348e-10 3.551727e-09
2.768587e-08 -1.180887e-08 -5.675687e-10 -2.588058e-10 -5.461099e-10 5.382721e-10
2.344690e-09 7.805686e-10 -4.643264e-10 -6.158996e-09 1.139178e-10 -1.542964e-10
8.744347e-10 8.734169e-11 -3.122764e-10 -1.118585e-10 -2.372743e-10 -1.151412e-12
2.361447e-08 -8.344208e-09 -9.644734e-10 -2.263114e-09 -2.121024e-10 1.210304e-09
2.698263e-08 -1.244252e-08 1.652922e-11 -1.583645e-09 2.869078e-10 1.523139e-09
-1.448037e-10 3.104424e-09 1.165333e-09 -8.976706e-09 9.634641e-10 -8.918259e-10
3.057477e-09 4.984849e-10 4.262128e-10 -7.608779e-09 -8.949941e-11 2.940123e-10
2.876723e-08 -1.341030e-08 5.796349e-09 -3.360571e-09 -4.987011e-10 4.271877e-09
2.721847e-08 -1.087903e-08 -1.850986e-11 -1.358817e-09 2.376598e-11 5.810751e-10
2.616508e-08 -1.068672e-08 -1.037119e-09 -1.140173e-09 2.271219e-10 -4.550716e-10
5.154364e-09 -2.422631e-09 -2.570273e-10 2.754706e-09 1.544160e-10 -7.294831e-11
6.050894e-09 -3.212710e-09 -5.422010e-10 -2.576369e-09 1.455281e-12 -1.091962e-10
3.431794e-09 -1.441696e-09 -5.323129e-10 -1.018137e-09 2.505607e-12 -3.119025e-10
6.892937e-09 -3.863613e-09 -5.603384e-10 -1.127945e-09 -2.840950e-11 -1.221601e-11
5.165306e-09 -2.473755e-09 -7.549001e-10 -1.211665e-09 -1.754470e-10 -4.733758e-11
7.308231e-09 -3.362037e-09 -5.181420e-10 -1.561968e-09 -2.252332e-11 -9.950740e-11
8.325259e-09 -3.750705e-09 -3.880185e-10 -6.931935e-10 6.734835e-12 -1.542300e-10
7.264897e-09 -3.700422e-09 -4.689169e-10 5.128597e-10 9.153234e-12 -2.691627e-10
4.849319e-09 -2.583135e-09 -6.859744e-10 -1.327197e-09 -4.087913e-11 -1.497713e-11
4.519157e-09 -2.287869e-09 -6.336367e-10 -1.318740e-09 -1.913187e-10 1.078390e-10
6.712094e-09 -3.119134e-09 -2.616760e-10 -3.459105e-09 -7.394130e-11 4.878937e-10
4.103724e-09 -2.045895e-09 -6.529635e-10 -1.591898e-09 -1.230769e-10 -1.362857e-10
3.867295e-09 -1.619719e-09 -5.991865e-10 -1.651240e-09 -1.888404e-10 1.072142e-11
-3.504036e-09 1.526461e-09 5.655130e-10 3.029568e-10 1.069940e-10 -2.872680e-11
-3.750108e-09 1.665544e-09 6.198508e-10 3.137666e-10 2.922174e-11 -1.008897e-10
7.396474e-09 -3.294007e-09 -3.886669e-10 -2.066191e-09 1.278244e-11 -1.347322e-11
7.690423e-09 -3.630493e-09 -5.552616e-10 -2.803239e-10 1.842604e-11 -5.165146e-11
-3.975854e-09 1.105107e-09 8.037113e-10 9.587861e-13 1.378563e-10 -3.938694e-11
1.629385e-08 -4.917412e-09 2.295704e-08 -2.073729e-08 -8.303276e-09 1.295125e-08
1.146073e-08 2.254870e-09 -5.342464e-10 -8.223930e-09 8.257890e-10 -1.775259e-09
-3.725384e-09 1.604548e-09 6.896772e-10 3.263314e-10 4.110212e-11 3.822542e-11
-7.899790e-09 3.013229e-08 -1.003786e-08 -1.115482e-08 9.555271e-10 -9.396566e-10
-3.824995e-09 1.199155e-09 9.707315e-10 7.161860e-11 -2.944200e-11 3.590481e-11
2.885680e-08 -1.557492e-08 1.022465e-08 -1.908590e-09 1.448740e-09 1.085533e-08
-4.046430e-09 1.744507e-09 6.951275e-10 1.180061e-10 2.982704e-11 -1.456066e-10
-1.320916e-08 1.997850e-08 -1.003786e-08 -3.485341e-09 4.504752e-11 -5.323675e-11
-3.747021e-09 1.612610e-09 6.855214e-10 1.192664e-10 3.914180e-11 -6.873369e-11
-8.123123e-09 5.510131e-09 -1.000059e-09 2.288102e-09 2.434878e-09 -7.721159e-10
2.957120e-08 -9.480081e-10 -4.763136e-09 8.670797e-09 9.370148e-10 4.863714e-09
-4.041153e-09 1.048019e-09 9.890364e-10 2.803460e-10 -1.010858e-12 3.794209e-11
1.479796e-08 3.224424e-10 4.650129e-10 1.334296e-08 -9.200911e-10 -8.454315e-10
-1.462643e-08 2.493130e-08 -1.894242e-08 2.868353e-09 2.985587e-09 -5.131910e-09
3.612422e-09 -1.722527e-09 -5.904139e-10 -2.787728e-10 -8.047341e-11 -1.612157e-10
5.277130e-09 -2.515218e-09 -6.977507e-10 -1.119039e-09 -3.251532e-11 5.200707e-11
3.930058e-09 -1.682795e-09 -6.345910e-10 -1.728152e-09 6.601447e-11 -7.305556e-11
-8.547235e-09 3.615180e-08 -3.013796e-08 2.807858e-09 4.931650e-09 -3.384290e-09
3.148573e-09 -1.301983e-09 -5.786048e-10 -1.381803e-09 -5.187698e-11 6.865095e-11
-1.315930e-09 -4.164601e-09 -5.602128e-09 -1.221009e-08 1.766969e-09 1.065364e-09
8.608992e-09 8.063704e-09 -6.045928e-09 7.858519e-09 -3.262647e-10 -2.390104e-09
1.753510e-09 -8.420361e-09 -4.966106e-10 -9.482258e-09 9.430187e-10 4.222510e-10
6.491199e-09 -1.600093e-08 -3.814085e-09 -8.142759e-09 -7.158760e-10 -1.072597e-11
3.488026e-09 -1.412498e-09 -6.114973e-10 -1.789292e-09 -1.394329e-10 2.197051e-10
1.431418e-08 -1.579440e-08 -2.610089e-08 1.256566e-08 1.419971e-08 -1.954716e-10
4.408314e-09 -1.815480e-09 -6.187468e-10 -1.354546e-09 -2.237175e-10 8.776824e-11
-3.707058e-09 3.298680e-09 -9.859020e-10 -3.853839e-09 3.022338e-11 7.427670e-12
-1.481321e-09 2.324240e-09 -4.710188e-10 -4.174335e-09 1.211964e-10 5.986678e-11
4.011923e-09 -1.815543e-09 -6.894827e-10 -1.414058e-09 -1.670609e-10 3.138171e-10
-3.990607e-09 3.935394e-10 -4.833332e-09 3.324538e-09 -2.373866e-09 1.919701e-09
-2.797901e-09 3.314804e-09 -8.315304e-10 -4.025027e-09 -6.883352e-10 4.876741e-10
-1.245475e-09 4.014374e-09 -1.506300e-09 -7.036373e-09 -4.001959e-10 1.166548e-09
-4.131539e-09 6.079431e-09 -8.531693e-09 1.795328e-09 -1.018632e-09 1.183621e-09
1.003906e-09 7.455303e-10 -4.643246e-10 -4.926676e-09 1.173861e-10 -3.963416e-10
5.310461e-09 -1.433698e-09 3.092819e-10 -6.139507e-09 -6.855582e-12 -7.790750e-10
2.307889e-09 3.113919e-09 -5.677254e-10 -8.937401e-09 2.643084e-10 -3.052025e-10
-4.051409e-09 2.150507e-09 -6.292670e-09 2.641895e-09 -2.862183e-09 1.388291e-09
-3.725201e-10 8.531558e-10 -1.272579e-08 6.092464e-09 -4.852675e-09 2.881086e-09
-5.103604e-10 6.010708e-09 -2.113925e-08 4.608563e-09 -8.862300e-09 4.449613e-09
-3.398590e-09 7.674208e-10 -7.713658e-09 5.227428e-09 -3.366520e-09 3.338281e-09
-4.947000e-09 6.987334e-09 2.927464e-08 -2.073610e-08 6.597770e-09 -1.432246e-09
-4.084527e-09 3.451911e-09 -6.955889e-09 2.297378e-09 -8.413830e-10 1.626152e-09
-4.729037e-09 5.865580e-09 -4.290163e-09 -2.339010e-09 -4.222327e-10 5.771181e-10
5.446480e-09 -3.820237e-09 -1.849698e-08 6.878100e-09 -8.737810e-09 3.510343e-09
5.741328e-09 4.770345e-09 -2.213165e-08 4.613188e-09 -3.100821e-09 2.329402e-09
3.439049e-08 -1.789751e-08 4.744689e-08 -1.479857e-08 -2.063470e-09 3.188559e-08
1.248999e-09 -3.197036e-09 -1.276427e-08 6.200906e-09 -2.641814e-09 7.152130e-10
3.907717e-09 3.566660e-08 -5.563364e-08 9.824745e-09 5.433692e-09 -8.118170e-09
5.926190e-09 1.913507e-08 -3.712046e-08 -5.152874e-09 -8.790778e-09 -2.546284e-09
-8.489954e-09 3.615180e-08 -3.484284e-08 5.258431e-09 6.112605e-09 -8.251989e-09
1.207511e-08 -2.540471e-08 -1.680495e-09 1.684507e-11 -8.480858e-10 -1.261596e-10
-3.311059e-09 3.565299e-08 -3.675215e-08 8.887070e-09 4.737363e-09 -5.957075e-09
1.280921e-08 2.419190e-09 -3.526813e-08 2.535624e-09 -1.691812e-08 5.261545e-09
-3.469963e-09 8.160321e-09 -1.139706e-08 2.188901e-09 -3.774651e-09 3.018762e-09
1.376485e-08 -3.130948e-09 -3.970527e-08 1.390995e-08 2.126201e-08 -4.456955e-09
7.847405e-09 -7.596176e-09 1.345759e-08 -1.521830e-09 -7.544426e-10 -3.563820e-09
-1.594462e-08 3.684169e-08 -3.126985e-08 4.208245e-10 9.503416e-09 -1.664967e-08
-2.717885e-09 1.557666e-09 3.611742e-10 9.468737e-11 4.553069e-11 -3.414341e-11
-7.415446e-10 3.976217e-09 -1.289236e-09 -6.706601e-09 8.479215e-12 1.656235e-10
4.761063e-10 8.489686e-10 -5.652883e-10 -5.774556e-09 4.377916e-10 -1.104211e-09
-7.450889e-10 2.088453e-09 -5.677254e-10 -7.097588e-09 3.781024e-10 -5.653108e-10
-3.162221e-09 1.858435e-09 4.493215e-10 1.905451e-10 2.594192e-11 -2.551970e-11
-3.508121e-09 1.922920e-09 4.789715e-10 -3.252065e-12 4.028516e-11 2.805778e-11
-2.988923e-09 1.624089e-09 3.727223e-10 -7.395404e-12 7.828035e-11 -1.612466e-11
1.880707e-08 -7.098512e-09 -3.023475e-08 -1.437439e-09 6.050848e-09 4.256812e-10
7.564991e-09 -1.758666e-08 -3.852241e-09 -8.348488e-09 1.540029e-09 4.610560e-10
4.536558e-09 -1.569202e-08 1.279919e-09 -5.927369e-09 -5.253400e-10 -1.118796e-10
1.154732e-08 -1.678114e-08 -8.773497e-09 -8.619314e-09 4.454454e-09 1.369281e-09
-2.820110e-09 1.614003e-09 3.831291e-10 6.548984e-11 6.835466e-11 -5.399181e-11
1.089764e-08 -2.027400e-08 -1.489685e-08 1.010598e-08 8.237379e-09 -1.237849e-09
-3.297814e-09 1.883773e-09 4.167331e-10 8.503198e-11 6.827872e-11 4.764533e-11
-3.440871e-09 9.117782e-10 -5.549737e-09 -1.100849e-08 2.302340e-09 6.324839e-10
-8.759251e-10 -7.778734e-09 -2.419890e-09 -1.011889e-08 6.376257e-10 3.671542e-10
-9.096294e-10 -5.140318e-09 -4.090664e-09 -1.180881e-08 1.087141e-09 2.799787e-10
8.208955e-09 -2.134820e-08 1.761814e-09 2.207414e-09 8.040925e-11 1.024358e-11
8.069315e-09 -2.133874e-08 1.535378e-09 2.394851e-09 1.023154e-09 -1.152900e-10
8.312799e-09 -2.115211e-08 5.462528e-10 3.561913e-09 -5.701917e-10 6.413248e-11
1.078411e-08 -2.136095e-08 -9.862253e-10 2.697584e-09 8.539023e-10 -3.932958e-10
8.730439e-09 -2.134764e-08 -1.437730e-10 4.758075e-09 5.814331e-10 -5.976286e-11
3.289810e-09 1.122038e-08 7.513874e-10 -1.831376e-08 -2.573379e-09 1.195817e-09
-7.357384e-09 2.032614e-08 6.553310e-09 1.829412e-08 2.024115e-09 -4.008014e-09
-7.471056e-08 -3.083683e-08 1.774306e-07 -4.243414e-09 4.233054e-09 -1.379145e-09
8.730439e-09 -2.095351e-08 7.942509e-10 4.198552e-09 1.297791e-09 -5.390146e-10
-8.395654e-09 3.972831e-09 -1.593290e-09 -2.160320e-09 -8.493561e-11 1.289413e-10
2.734948e-08 -9.050641e-09 -3.499101e-09 5.098368e-10 3.386259e-10 5.653114e-10
-9.803518e-09 5.929918e-08 -5.183000e-09 3.817828e-09 1.004256e-08 -2.430680e-09
-8.738996e-09 3.606972e-09 -9.158274e-11 -2.368261e-09 -1.316949e-09 -7.043598e-10
3.297424e-09 2.973765e-08 -4.798163e-08 1.098464e-08 8.102587e-09 -4.185517e-09
2.023788e-08 -8.775900e-09 -3.776726e-08 -4.652047e-09 1.405816e-08 -7.115566e-10
-8.672547e-09 1.146752e-09 2.682503e-10 -1.004585e-09 -4.307821e-10 -1.562883e-10
-7.883464e-09 9.314771e-11 -1.265034e-09 -2.127142e-09 -8.713659e-10 -3.519676e-10
-6.111552e-09 -9.634940e-10 -1.233682e-09 8.795090e-09 7.976777e-10 -8.205512e-10
-8.383977e-09 7.999912e-10 -4.259957e-10 -1.906206e-09 -1.354654e-09 -2.772796e-10
-2.017196e-09 5.896844e-08 -4.703547e-08 8.630755e-10 1.229625e-08 -2.028239e-09
-9.160774e-09 2.516423e-09 -1.099554e-10 -1.185004e-09 -1.348610e-10 -1.741705e-10
-9.270862e-09 -1.410119e-08 1.004145e-07 -2.616641e-08 -1.942685e-09 9.809425e-09
-1.166033e-08 2.168844e-08 -4.749408e-09 -6.292062e-09 -4.133387e-10 -3.119735e-09
1.274913e-08 5.898424e-08 -6.508087e-08 5.076577e-09 1.246433e-09 4.279727e-10
-9.022848e-09 2.542548e-09 -7.618475e-10 -6.766974e-10 -6.343672e-10 -1.752272e-10
-2.579689e-09 -3.999828e-09 1.501832e-09 -4.478560e-09 9.989387e-11 -2.225116e-10
-2.402766e-09 -4.539210e-09 1.833272e-09 -2.528024e-09 1.360058e-10 -1.026539e-10
-8.024439e-10 -6.100642e-09 1.608450e-09 -3.857011e-09 8.384582e-10 1.455599e-10
-3.083581e-09 -3.112225e-09 1.733581e-09 -2.658156e-09 2.277001e-11 -1.968241e-10
-3.083736e-09 -3.275796e-09 1.702319e-09 -2.561963e-09 3.179064e-10 -2.340706e-11
7.784826e-09 -4.430580e-09 -1.968647e-10 -3.953503e-10 -1.258992e-13 -2.575364e-10
1.206121e-08 -4.921678e-09 3.891214e-09 -3.738829e-09 5.508361e-10 -1.982927e-09
2.649116e-09 -2.585046e-09 1.360148e-08 8.372037e-09 -8.702408e-10 -4.043377e-09
-2.229843e-09 -4.493460e-09 1.939591e-09 -2.840435e-09 4.201866e-10 -2.398564e-10
5.326907e-09 -1.686730e-09 3.356608e-09 5.894172e-09 -3.096058e-10 -1.840117e-09
-3.133144e-09 2.338110e-09 1.714584e-10 -7.282550e-10 -7.425505e-11 -8.853818e-11
8.985456e-09 -4.317718e-09 1.394841e-09 1.492382e-09 -6.322184e-11 -9.139373e-10
8.466066e-09 -4.068512e-09 4.430923e-09 3.909027e-09 3.697359e-11 -3.727685e-10
9.532279e-09 -5.365039e-09 5.611264e-09 3.034211e-09 -5.980002e-12 -2.832311e-09
1.439404e-09 2.588472e-09 2.615216e-09 7.709102e-09 -7.512213e-10 -1.805507e-09
5.668373e-09 -5.885825e-09 1.481658e-08 -8.216944e-09 6.517130e-10 -3.328279e-09
1.437500e-08 5.796666e-10 5.461964e-09 1.586854e-08 2.054626e-09 3.272415e-09
5.179546e-09 -1.337869e-09 8.034046e-09 8.821753e-09 -1.742223e-09 -3.529438e-09
-1.031085e-08 6.849559e-09 -1.274044e-08 -1.519512e-08 5.679722e-09 7.291959e-09
-3.134390e-09 2.412939e-09 1.986100e-10 -7.785206e-10 -7.280465e-11 -1.118229e-10
-3.059208e-09 2.354296e-09 2.562439e-10 -8.355427e-10 -1.084810e-11 1.248264e-10
2.071349e-08 1.261892e-08 -4.713761e-08 8.073050e-09 1.848270e-08 -4.055308e-09
-3.719938e-09 2.706459e-09 3.434715e-10 -1.448068e-10 -1.070477e-11 -1.073319e-10
-3.875823e-09 2.429235e-09 4.927962e-10 -7.306158e-10 -8.173290e-11 -8.641010e-11
2.055987e-08 -1.318760e-08 -4.240169e-08 -6.376239e-09 2.123134e-08 3.577638e-09
3.385922e-09 1.674418e-08 -4.251601e-08 1.892112e-08 1.899271e-08 -1.190084e-08
-3.242414e-09 2.641984e-09 1.957177e-10 -3.373666e-10 -5.976242e-11 -1.541933e-10
-9.091243e-10 9.425965e-09 -2.700972e-09 -3.966468e-09 1.705084e-09 -2.930381e-10
-6.465429e-10 3.863931e-11 -7.814026e-09 -1.216356e-08 7.229231e-10 -2.405043e-10
1.725068e-08 -3.064602e-09 -4.633625e-08 -1.372463e-08 2.274064e-08 8.478127e-09
5.835347e-09 1.872488e-08 -4.167787e-08 -1.351626e-08 7.536848e-09 2.562440e-09
6.965659e-09 1.102540e-09 -7.987402e-10 -8.287618e-09 1.522192e-09 4.144133e-10
6.451454e-09 -1.673375e-08 -4.103277e-09 -8.527458e-09 4.315135e-09 5.733687e-10
-7.787930e-09 1.141912e-08 -3.204263e-09 4.122440e-10 1.330128e-09 -1.190255e-09
8.730439e-09 -2.243532e-08 -2.379926e-09 5.044899e-09 2.610885e-09 -2.524811e-10
-3.424633e-09 1.291290e-08 -9.235472e-09 -7.899792e-09 1.000657e-10 8.261086e-10
1.776161e-09 4.079597e-09 -2.037707e-09 -1.222420e-09 1.107080e-09 1.404946e-09
-6.782033e-10 7.545530e-09 -2.328833e-09 -3.553773e-09 1.392843e-09 8.762814e-11
5.587755e-09 3.265673e-09 1.970733e-09 -1.230452e-08 6.232539e-10 -1.708740e-09
3.710771e-10 -4.338631e-09 -6.819386e-09 5.772305e-09 -2.362103e-09 1.620904e-09
2.609393e-08 -9.768860e-09 -2.019832e-09 1.027381e-09 -1.093880e-11 -6.238372e-10
1.171331e-09 2.771978e-08 -2.159821e-08 -3.254638e-09 -1.215399e-09 1.242252e-08
4.597398e-09 -9.399062e-09 -9.900711e-09 6.607888e-09 -4.654935e-09 2.155895e-09
6.573030e-10 -4.211103e-09 -6.036971e-09 5.907601e-09 -2.535923e-09 8.966782e-10
-1.028499e-08 2.757959e-08 -2.080912e-08 -2.502041e-09 3.706661e-09 4.221877e-09
-4.908050e-09 -6.069869e-09 3.133670e-09 7.476542e-10 -1.663407e-10 4.566225e-10
-1.150556e-08 6.146538e-09 1.339281e-08 7.803642e-09 -3.217627e-09 -5.718155e-09
-4.172696e-09 -5.549196e-09 5.626012e-08 -1.388738e-08 -4.421663e-09 -6.069120e-09
1.235235e-08 2.124979e-08 -6.572237e-08 -2.515559e-09 1.399144e-08 5.192469e-09
-3.978506e-09 -8.160209e-09 3.663517e-09 1.099603e-09 9.641561e-11 2.395795e-11
-3.980318e-09 -8.156139e-09 3.626176e-09 1.090912e-09 5.029421e-11 1.563562e-11
2.851768e-09 4.483678e-09 2.382190e-10 -1.107284e-08 1.388402e-10 4.493978e-10
-3.578709e-09 -7.868129e-09 3.545575e-09 3.809162e-10 -1.818590e-11 1.361522e-10
-3.352508e-08 5.734420e-08 -3.562717e-08 1.349379e-08 -2.011386e-08 -1.409597e-08
4.122639e-09 -9.192977e-09 3.029760e-08 3.948276e-09 -1.392340e-09 -5.428198e-09
-4.311126e-09 -7.320251e-09 3.324903e-09 5.610815e-10 5.390999e-11 -8.614033e-12
-3.356886e-09 2.638608e-09 2.493805e-10 -1.833671e-10 3.490763e-12 -4.668754e-11
-3.798977e-09 8.987203e-09 -5.824062e-09 3.502678e-10 -2.152831e-09 -2.069163e-09
-3.065070e-09 2.336606e-09 1.771381e-10 -7.316174e-10 -6.536305e-11 -2.443601e-12
-3.160118e-09 2.644198e-09 2.138179e-10 -1.223466e-10 -1.521339e-11 -7.579937e-12
-3.512088e-09 2.699175e-09 2.459890e-10 -1.176711e-10 3.051776e-11 4.177947e-11
1.306525e-08 -2.316353e-08 -7.693829e-09 3.751781e-09 -1.014546e-08 2.912664e-09
-3.264519e-09 2.571977e-09 2.472196e-10 -3.919361e-10 -5.389689e-11 -5.303744e-11
-8.328469e-09 4.345746e-10 -2.721601e-10 -1.266026e-09 -2.714574e-10 2.532641e-11
-1.310554e-10 -1.419268e-08 1.362725e-09 -4.128358e-09 -4.460239e-09 -5.254379e-10
-3.253354e-09 2.499282e-09 2.114171e-10 -3.669522e-10 -7.621237e-12 -3.477729e-11
-3.513557e-09 2.702206e-09 2.763101e-10 -2.438235e-10 -2.789635e-11 -4.563983e-11
-8.871901e-09 4.407193e-09 -5.733087e-10 -1.775660e-09 -2.469886e-09 -8.703094e-10
-8.692630e-09 9.783196e-10 1.287337e-09 -2.674607e-10 -6.283729e-11 -2.038325e-10
3.738569e-09 -1.434112e-08 3.140110e-09 -2.291227e-09 -1.150431e-10 -3.132772e-10
4.588219e-09 -1.652305e-08 3.296702e-09 -1.119164e-10 -1.278744e-11 -3.496847e-10
2.741586e-09 -1.396627e-08 3.097404e-09 -9.685351e-10 9.892520e-11 -5.542120e-10
3.598416e-09 -1.354997e-08 3.032958e-09 -1.096426e-09 -7.008788e-11 -5.586991e-10
3.531548e-09 -1.398097e-08 3.082903e-09 -2.185199e-10 6.669620e-11 -2.564639e-10
-6.154085e-09 7.965701e-09 -3.457357e-09 4.148135e-10 -2.693411e-09 -1.200040e-09
-6.773537e-09 8.524875e-09 -4.191188e-09 -1.143873e-09 -6.432859e-10 2.235163e-16
-2.305403e-09 -1.027284e-08 3.476489e-09 2.322299e-09 7.959414e-12 6.028555e-11
-8.650307e-09 2.785960e-09 2.982312e-10 -3.218810e-09 -2.657290e-09 -1.062359e-09
2.717932e-08 -9.930948e-09 -2.819273e-09 -6.576828e-11 4.076626e-10 1.047508e-09
2.146509e-08 -4.936289e-09 -4.343668e-09 -2.102007e-09 1.000704e-09 -7.110442e-10
-7.128935e-09 6.793141e-09 -1.712155e-09 -7.055583e-10 -2.817214e-09 -5.040555e-10
-8.618496e-09 5.083442e-09 -8.505818e-10 -3.150444e-09 -2.848615e-09 -1.515687e-09
2.924955e-08 -9.876002e-09 -1.134262e-09 -2.245327e-09 -6.202454e-10 4.635115e-09
1.417842e-08 1.206472e-08 -9.505123e-09 1.465584e-08 2.330224e-09 -3.738912e-09
-5.948495e-09 8.071703e-09 -2.383032e-09 7.410789e-10 -3.876830e-11 4.521228e-11
2.818554e-08 -1.341030e-08 8.859855e-09 -4.409622e-09 1.216666e-10 1.853655e-09
3.995664e-09 1.042704e-08 -6.059520e-10 -1.107838e-08 1.408407e-10 6.155094e-10
2.137337e-08 -4.811660e-09 -4.087010e-09 -2.035580e-09 7.607731e-10 -6.773937e-10
-2.381698e-09 8.424561e-09 -5.509674e-09 -6.861292e-10 -5.133161e-10 -8.874740e-16
2.404926e-08 -6.693248e-09 -1.512463e-09 6.981226e-09 8.580646e-10 1.271411e-09
1.231387e-08 6.670156e-10 6.321207e-09 -1.463469e-08 -4.068752e-11 2.648735e-10
-8.088434e-09 7.240891e-09 -1.277114e-09 -1.145135e-09 -2.375544e-09 -9.080341e-10
-7.545600e-09 7.043744e-09 -1.813262e-09 1.496319e-09 4.679319e-10 2.234450e-16
-8.262606e-09 1.114814e-09 1.864698e-09 4.149918e-09 8.500749e-10 -4.850103e-10
-8.575492e-09 4.275917e-09 -4.964245e-10 -9.682601e-10 -3.760707e-09 -4.429329e-10
6.895078e-09 4.145390e-09 -2.524065e-09 -2.542068e-09 6.980411e-10 6.788912e-10
-5.276041e-09 8.251499e-09 -2.553857e-09 -3.780970e-10 5.823845e-10 -9.009216e-10
-8.842388e-09 5.498956e-09 -7.741829e-11 -9.533157e-10 -2.983316e-09 -2.917887e-10
8.572555e-09 -7.309874e-09 -1.925643e-08 -6.810018e-09 -3.304593e-09 -3.849374e-10
2.824294e-09 -1.102453e-09 -1.405953e-08 -8.520004e-09 -1.561236e-09 -1.036807e-09
2.710437e-09 -5.577331e-09 -9.327227e-09 -8.611936e-09 -5.455472e-09 -1.948728e-09
7.988153e-09 1.014426e-08 -3.125691e-08 -9.059030e-09 -1.192872e-08 -5.918465e-09
5.514862e-09 5.671983e-09 -2.669456e-08 -7.808912e-09 -5.726711e-09 -1.471815e-09
2.640109e-09 -6.417085e-09 -1.453281e-08 -9.052225e-09 -8.463597e-09 -2.580352e-09
-8.985845e-09 1.174608e-08 -5.022523e-09 4.105380e-09 4.889809e-09 -3.329168e-09
5.406541e-09 -8.829521e-09 -8.858319e-09 -7.206852e-09 -4.218578e-09 -7.216545e-10
-8.316217e-09 6.379623e-09 -6.919478e-10 1.130943e-09 1.922902e-09 -1.764917e-10
-5.057116e-09 -4.397156e-09 2.668164e-09 5.280283e-10 2.325331e-10 -1.785017e-11
-7.865998e-09 3.373909e-09 -3.851541e-09 9.089036e-09 1.148724e-09 -3.045840e-10
-6.822055e-09 -1.296918e-11 7.147645e-10 8.063028e-09 1.846617e-09 -8.025379e-10
-7.813277e-09 5.820450e-09 -1.009851e-09 2.631111e-09 2.423834e-09 -7.577567e-10
-8.875203e-09 3.922113e-09 5.387655e-10 1.070643e-09 1.203243e-09 9.378653e-11
2.899516e-08 -1.142661e-08 6.640184e-09 5.230016e-09 3.068399e-09 7.653193e-09
-3.818418e-09 7.495656e-09 -1.552428e-09 -1.027081e-09 2.435166e-09 9.478993e-11
-2.860012e-09 -8.482660e-09 2.901067e-09 3.869014e-09 4.166725e-10 1.826924e-10
-7.074798e-09 -1.730902e-09 1.651726e-09 4.900675e-09 1.342378e-09 -1.785213e-10
-8.671964e-09 2.501561e-09 6.706453e-10 1.103614e-09 1.060332e-09 -7.562884e-11
-2.951665e-09 -6.918653e-09 2.868878e-09 4.260804e-09 7.254740e-10 1.320560e-10
-8.484799e-09 1.987037e-09 9.226220e-10 1.314912e-09 2.262678e-09 -2.713436e-10
-5.057117e-09 -5.374108e-09 2.976066e-09 7.161667e-10 2.306739e-10 8.812862e-11
-5.393433e-09 -4.907948e-09 2.728407e-09 1.363642e-09 3.519940e-11 3.110368e-10
-4.869221e-09 -6.934043e-09 3.288038e-09 1.006788e-09 5.071677e-11 -4.541834e-11
-8.702475e-09 2.267673e-09 1.388479e-09 1.327502e-09 1.792066e-09 -2.681810e-11
-7.473868e-09 7.642355e-09 -1.572571e-09 2.828552e-09 3.447574e-09 -2.311577e-09
-5.430368e-09 7.495652e-09 -2.928788e-09 6.688591e-10 1.585407e-09 -6.108918e-10
-6.384251e-09 5.894171e-09 2.175127e-11 2.593092e-09 1.752351e-09 -1.137558e-09
-6.912831e-09 7.140383e-09 -1.403135e-09 1.577733e-09 1.668295e-09 -5.617400e-10
-8.954387e-09 6.044132e-09 -2.456093e-09 -6.251888e-10 -3.838236e-10 -1.325937e-10
-5.044459e-09 5.464534e-09 -8.981106e-10 8.636685e-10 2.554623e-09 -4.895295e-11
-5.934964e-09 7.659668e-09 -8.975456e-09 -4.613684e-09 -1.710281e-09 -2.426953e-09
1.475362e-08 7.680807e-10 -4.207527e-09 3.351525e-09 -2.551529e-09 -1.161734e-09
-8.086395e-09 5.766427e-09 -1.833400e-09 -4.696150e-09 -5.106506e-09 -2.445339e-09
-6.283692e-09 6.066815e-09 -7.509247e-10 1.219127e-09 2.250948e-09 -3.208656e-10
-8.066943e-09 7.241085e-09 -3.168454e-09 -1.155558e-09 -2.712882e-09 -5.854548e-10
-8.506635e-09 7.546978e-09 -2.423039e-09 -1.045464e-09 -1.999886e-09 -3.451246e-10
-4.538073e-09 7.047721e-09 -2.035057e-09 -6.174408e-10 2.105014e-09 -1.378851e-09
-5.231204e-09 1.274941e-08 -7.726333e-09 -4.857572e-12 -5.822942e-09 -5.293230e-09
-7.970605e-09 7.819566e-09 -4.487077e-09 -2.076757e-09 -3.317124e-10 -1.151361e-10
-6.503182e-09 7.029564e-09 -1.573374e-09 -1.159071e-09 -3.310370e-09 -6.442500e-10
2.593139e-08 -1.789751e-08 2.569137e-08 -1.314841e-08 -7.822860e-10 1.459126e-08
-8.065593e-10 5.057574e-09 -2.565705e-09 -1.254229e-09 -3.395174e-09 -8.624097e-10
-8.087160e-09 3.973380e-09 -2.216435e-09 -2.483513e-09 -4.861360e-10 6.984302e-11
-8.212145e-09 2.553310e-09 -7.618466e-10 -1.902652e-09 -2.608314e-10 -2.823963e-10
-8.181626e-09 7.255157e-09 -2.895159e-09 -9.457564e-10 -2.480893e-09 -5.201329e-10
2.753979e-08 -1.832029e-08 2.125161e-08 3.309349e-09 3.066867e-10 -5.787841e-10
2.206013e-08 -8.562652e-09 8.205448e-09 -1.054179e-08 -3.486367e-09 4.203873e-09
-2.916530e-09 -2.524339e-09 1.693160e-09 -2.012200e-10 -1.440116e-10 -4.119030e-10
2.445805e-08 -7.784405e-09 1.393379e-08 -1.361168e-08 -1.078885e-09 1.040858e-08
1.648526e-08 -3.208164e-09 8.210144e-09 -1.438751e-08 -1.558973e-09 4.208172e-09
-7.819607e-09 6.006085e-10 1.928435e-09 -1.824554e-09 -1.178881e-09 -1.571748e-10
-7.763800e-09 1.324754e-10 1.501692e-09 -2.187048e-09 -1.862193e-09 -2.480830e-10
-6.647889e-09 -1.718272e-09 1.357182e-09 -4.180449e-09 -1.510131e-09 -7.443504e-10
-2.231805e-09 -8.205971e-09 6.871386e-10 -1.894443e-09 -1.582973e-09 -2.828177e-10
2.527295e-08 1.345912e-09 -7.284778e-09 1.352930e-08 2.321736e-09 3.771740e-09
-7.672899e-09 -7.107026e-10 1.614759e-09 -8.511232e-10 -3.401877e-10 1.867817e-11
-3.838730e-09 -1.474820e-10 1.410747e-09 -4.201274e-10 9.093837e-11 -1.917246e-10
-3.678567e-09 -1.631335e-09 1.472968e-09 -1.249706e-09 -1.791256e-11 -1.664073e-10
-6.887036e-09 -1.626248e-09 1.328284e-09 -3.615033e-09 -1.906244e-09 -6.407420e-10
-3.775388e-09 5.518306e-10 1.022463e-09 1.360007e-10 -9.344370e-11 -3.549333e-10
5.356082e-09 -1.633563e-08 -1.060250e-09 -1.580988e-09 -1.436501e-09 -3.382996e-10
8.631102e-09 -2.412048e-08 1.898184e-09 -1.636712e-09 -1.850846e-09 -5.172441e-10
-3.292204e-09 -1.826763e-09 1.475561e-09 2.951950e-11 2.568212e-11 -2.070830e-10
-2.898668e-09 -2.724382e-09 1.546407e-09 -1.814207e-09 1.733661e-10 -5.743361e-10
8.214781e-09 -1.904471e-08 -7.836670e-09 -7.643063e-09 -1.004571e-08 -2.588467e-09
2.659777e-08 -1.142173e-08 1.050529e-10 9.783422e-09 3.134384e-09 4.451096e-09
7.357897e-09 -2.128439e-08 1.516902e-10 -1.738194e-09 -1.386055e-09 -6.225149e-10
1.031911e-08 -2.359748e-08 -1.416976e-09 -1.466714e-09 -1.629570e-10 -3.344556e-10
3.098567e-09 -9.605311e-09 -3.164272e-09 -7.940922e-09 -4.494630e-09 -2.354462e-09
4.578351e-09 -1.528673e-08 -3.942218e-09 -5.436626e-09 -3.822941e-09 -1.004185e-09
6.754761e-09 -1.884283e-08 -9.620842e-10 -3.477580e-09 -3.330231e-09 -1.129931e-09
-7.659572e-09 7.128917e-09 -1.341391e-09 -6.756991e-10 -3.533130e-09 -7.593599e-10
-5.408340e-09 1.186464e-08 -5.157414e-09 9.246933e-10 -3.335868e-09 -3.350913e-09
-8.051976e-09 5.259641e-09 -3.879887e-09 -3.702793e-09 -5.409046e-09 -3.484605e-09
-8.016314e-09 7.546477e-09 -3.301702e-09 -2.275059e-09 -3.818100e-09 -2.012105e-09
-3.498146e-10 -1.123284e-08 2.852712e-09 5.036942e-09 2.923104e-10 3.310475e-10
-2.456789e-09 -9.054155e-09 3.777382e-09 2.496847e-10 3.760015e-11 1.907878e-10
-6.972613e-09 8.212202e-09 -3.733435e-09 2.212574e-10 -2.288143e-09 -5.619245e-10
-7.044474e-09 5.770438e-09 -1.761142e-09 -3.561276e-10 -4.297263e-09 -6.629673e-10
-5.139033e-09 1.065273e-08 -5.194277e-09 6.673599e-10 -3.963621e-09 -3.178600e-09
1.666151e-08 -1.926123e-10 -4.227696e-09 4.186824e-09 -1.110266e-09 -4.051904e-10
8.237387e-09 -2.160046e-08 2.346616e-09 3.136058e-10 7.171949e-10 -4.549849e-11
-5.089539e-09 1.019406e-08 -5.904219e-09 8.310958e-10 -4.811562e-09 -6.448683e-09
6.689924e-09 -2.057479e-08 3.430887e-09 1.038591e-09 5.755929e-11 6.935208e-11
-7.652883e-10 -1.087522e-08 3.608983e-09 6.814522e-10 -2.257596e-10 1.999865e-10
7.024095e-09 5.520849e-09 -4.771164e-09 2.965594e-09 -2.013078e-09 -9.703159e-10
-1.135751e-09 -1.042333e-08 3.655350e-09 3.280518e-10 7.930007e-11 2.826912e-10
9.000424e-09 1.492775e-09 -4.635577e-09 -2.550830e-10 -2.015349e-09 -1.757701e-09
2.918370e-09 4.472486e-09 -3.517283e-09 2.561056e-09 -2.939874e-09 -1.029883e-09
1.419189e-09 6.302916e-09 -3.716685e-09 1.401230e-09 -2.795298e-09 -1.807781e-09
5.989431e-10 -8.876297e-09 2.446198e-09 -1.733794e-09 5.746821e-10 -7.554515e-12
-3.792394e-09 2.427156e-09 3.339848e-10 -7.253935e-10 -1.045284e-10 -1.229367e-10
5.854124e-09 -1.853759e-08 3.745135e-09 1.779430e-10 7.475309e-11 -1.014167e-11
5.283397e-09 -1.906289e-08 3.838176e-09 2.432565e-10 1.279508e-10 -8.703344e-11
-4.357795e-09 2.308557e-09 6.148766e-10 -2.364897e-10 -8.306900e-11 -1.096512e-10
5.487784e-09 -1.910280e-08 3.520512e-09 1.720535e-09 -2.294964e-11 5.788030e-11
6.625248e-09 -1.952596e-08 3.682753e-09 5.004042e-11 1.520488e-10 -9.385948e-11
-4.326476e-09 2.343115e-09 6.022782e-10 -1.081610e-10 -1.080189e-10 -3.190284e-10
5.930948e-09 -1.874046e-08 3.519010e-09 -2.060730e-09 4.091893e-10 -4.657167e-10
7.212069e-09 -2.087925e-08 2.862047e-09 4.772058e-10 4.059728e-10 -5.325629e-12
-4.159929e-09 2.494200e-09 4.942011e-10 -2.319527e-10 -2.975176e-11 -2.959804e-10
5.828067e-09 -1.683628e-08 2.267075e-09 -3.769601e-09 3.451959e-10 -2.939183e-11
5.253445e-09 -1.720771e-08 3.434137e-09 -6.690004e-11 5.156808e-11 -1.212184e-10
-3.700460e-09 2.597863e-09 3.758347e-10 -3.527800e-10 -6.201062e-11 -2.515756e-10
-1.307467e-08 2.909718e-08 3.615592e-09 1.912881e-08 -1.175110e-09 6.499450e-09
6.776659e-09 -2.037065e-08 2.473967e-09 3.816174e-09 8.821828e-10 -1.606713e-10
2.692259e-09 -1.561726e-08 3.855188e-09 5.326912e-10 -2.221810e-16 -1.280034e-10
6.329604e-10 -1.232948e-08 3.408050e-09 3.082111e-09 1.011531e-11 2.286503e-10
-4.986696e-09 3.231828e-08 -2.818594e-08 3.177591e-09 -6.407419e-09 -5.370133e-09
-8.720247e-09 4.712601e-08 -3.379296e-08 3.020859e-09 3.310432e-09 -3.433630e-09
-9.111646e-09 4.736804e-08 -2.399090e-08 1.736240e-09 4.958316e-09 -8.983160e-09
-2.630145e-10 -1.047013e-08 3.201085e-09 3.146376e-09 2.903137e-10 2.849944e-10
-2.418222e-09 -9.573094e-09 3.810500e-09 3.898930e-10 1.779417e-10 1.224576e-11
-4.135958e-09 3.328427e-08 -2.951747e-08 -5.120142e-10 -5.302228e-09 -5.237351e-09
-8.577697e-09 3.204990e-08 -2.809797e-08 1.861645e-09 -5.368490e-09 -3.705250e-09
2.245262e-10 -1.385134e-08 3.431470e-09 2.662047e-09 1.599645e-10 -1.235279e-11
-3.771189e-10 -1.153076e-08 3.806884e-09 2.494254e-10 1.637224e-11 -8.706193e-11
3.646917e-09 -1.732729e-08 3.111475e-09 3.386934e-09 2.454995e-10 -2.527194e-10
6.616725e-10 -1.294401e-08 3.809270e-09 4.733609e-10 -3.386358e-11 2.050871e-10
-7.463273e-09 3.341706e-08 -3.048776e-08 -5.317559e-11 -1.001638e-08 -1.204759e-08
-4.064799e-09 2.276699e-09 6.092975e-10 -9.570722e-10 -1.463066e-10 -2.449237e-10
2.764095e-09 -1.510526e-08 3.660833e-09 8.843095e-10 -4.167766e-11 -9.753043e-11
-4.820911e-09 2.685949e-10 9.923924e-10 2.235283e-10 -9.392903e-11 -2.833484e-10
-4.921159e-09 1.636757e-09 8.794774e-10 4.385292e-11 -5.990830e-11 -3.008800e-10
-4.849798e-09 1.598599e-09 8.791314e-10 -2.240359e-10 -5.382861e-11 -2.930493e-10
6.868973e-09 -1.968437e-08 3.626077e-09 7.020611e-10 3.599257e-10 -1.879272e-10
4.488297e-09 -1.513887e-08 3.241435e-09 -2.557780e-09 -2.002841e-10 -6.711485e-10
-4.506450e-09 1.540370e-09 8.237280e-10 1.022082e-10 -1.132467e-10 -5.234536e-10
-4.766856e-09 1.849751e-09 8.171082e-10 -1.337008e-10 -1.603451e-11 -4.696596e-10
5.356326e-09 -2.887733e-09 -6.202119e-10 1.012907e-09 7.520534e-11 -3.134326e-11
1.987371e-08 5.796662e-10 1.668740e-09 1.506933e-08 3.458777e-09 4.060250e-09
4.788043e-09 -1.784960e-08 3.780611e-09 1.790252e-09 2.407709e-10 1.125011e-10
5.340150e-09 -2.797077e-09 -5.189813e-10 1.703285e-09 -7.229628e-11 7.357226e-12
5.197478e-09 -1.634816e-08 3.375484e-09 -1.502213e-10 1.229137e-10 -5.225271e-10
-1.471013e-09 -5.936989e-09 2.383545e-09 -7.362542e-10 -4.028733e-10 -1.274119e-10
5.416665e-09 -2.809917e-09 -6.380975e-10 9.225910e-10 -2.827559e-11 -1.303004e-10
6.023621e-09 -1.860645e-08 3.436353e-09 -2.686074e-11 1.575065e-10 -3.356923e-10
5.415425e-09 -3.001698e-09 -7.109349e-10 3.843416e-10 2.189060e-11 1.294731e-10
6.666893e-09 -3.267922e-09 -7.493577e-10 1.117457e-10 1.473773e-11 4.470629e-11
6.625266e-09 -2.013721e-08 3.759274e-09 9.332402e-11 1.039120e-10 -2.282288e-10
7.711523e-09 -2.155456e-08 2.360705e-09 1.241836e-10 7.850587e-10 1.025913e-11
6.269028e-09 -1.876558e-08 3.445605e-09 -5.270101e-10 2.505358e-10 -3.184271e-10
6.236046e-09 -3.252457e-09 -7.509122e-10 -7.173786e-11 1.116817e-11 2.042911e-11
6.428372e-09 -3.216256e-09 -7.107406e-10 7.646219e-10 8.147760e-12 3.376329e-11
6.250476e-09 -3.085419e-09 -6.473382e-10 8.776080e-10 1.165190e-10 3.806067e-11
-5.454499e-10 8.363876e-10 -1.877409e-10 -5.752463e-10 -1.096616e-10 -7.203638e-11
5.274942e-09 -2.827122e-09 -5.867244e-10 9.761742e-10 -2.678921e-11 -9.892012e-11
8.725529e-09 -1.867722e-08 -3.524843e-09 8.477106e-09 1.732380e-09 -3.083667e-10
1.258113e-09 7.408250e-09 -6.440801e-09 5.660265e-09 -2.399896e-09 -4.352954e-09
1.072052e-08 -1.328087e-08 -9.414220e-09 1.144219e-08 4.911491e-09 -8.493462e-10
1.057333e-08 -1.763390e-08 -7.273879e-09 9.229398e-09 2.312328e-09 -1.615224e-10
1.003678e-08 -1.689725e-08 -9.515294e-09 9.785053e-09 3.916368e-09 -1.191054e-09
5.048853e-09 -2.687318e-09 -6.934968e-10 3.060918e-10 9.442724e-12 3.405609e-11
7.208223e-09 -1.755381e-08 -9.707036e-09 1.129407e-08 3.389138e-09 -3.642300e-10
5.125374e-09 -2.919368e-09 -7.041375e-10 -1.119105e-10 -3.531764e-11 6.749468e-11
1.579210e-09 -5.349765e-10 -2.899115e-10 2.073849e-09 1.708128e-11 -8.510770e-11
1.131636e-08 -2.256255e-08 -8.135123e-09 7.200585e-09 6.782301e-09 -8.918051e-10
-2.144016e-09 -7.287515e-09 1.855348e-09 1.524373e-09 -1.001799e-09 2.050910e-11
-2.130127e-09 -6.814663e-09 1.133522e-09 1.624922e-09 -1.599449e-09 -1.374069e-12
4.815828e-09 -2.571606e-09 -6.923755e-10 -1.160636e-10 -2.123668e-11 5.221157e-11
5.334829e-09 -3.052770e-09 -6.866281e-10 -2.213374e-11 -3.070466e-11 2.849243e-11
5.745573e-09 -3.180440e-09 -6.813732e-10 6.171942e-10 5.610640e-11 6.976109e-11
-2.457437e-09 1.424347e-09 2.920544e-10 1.251417e-11 1.934247e-10 -7.120970e-12
6.011407e-09 -3.253195e-09 -7.575949e-10 -3.641662e-11 -1.819780e-11 1.208813e-10
-3.980915e-09 2.155453e-09 5.628200e-10 2.874678e-11 2.568168e-11 -4.075962e-11
-1.788037e-09 -7.266754e-09 9.859660e-10 1.998934e-09 -1.113058e-09 9.100742e-11
-1.631454e-09 -7.912418e-09 1.291226e-09 1.333416e-09 -5.084283e-10 1.423913e-10
-1.219330e-09 -8.414291e-09 2.820083e-09 3.222304e-09 -3.497235e-10 1.772341e-10
7.059935e-10 -1.227644e-08 1.557980e-09 1.968630e-09 -4.952080e-10 1.311427e-10
-3.997997e-09 2.063949e-09 5.957075e-10 6.286260e-11 1.122917e-21 8.931522e-12
1.567160e-10 -8.709602e-09 1.258846e-09 2.563422e-10 -2.096885e-10 3.800330e-11
-8.134413e-10 -8.608371e-09 2.099331e-09 4.126857e-10 -1.938028e-10 -5.070388e-11
-7.105274e-10 -9.803076e-09 1.112382e-09 4.675736e-09 -2.216847e-09 6.686945e-10
-2.541839e-09 -5.535518e-09 1.241002e-09 2.577388e-09 -5.355537e-10 -1.463867e-10
-2.624100e-09 -4.503759e-09 1.699284e-09 1.450198e-09 -4.565724e-10 -3.358811e-10
-9.897130e-10 -7.278919e-09 1.979975e-09 1.630430e-09 -1.051726e-09 -4.357721e-10
6.255303e-10 -1.100831e-08 1.259369e-09 1.095876e-09 -9.384922e-10 -1.195929e-10
-9.897306e-10 -8.295714e-09 1.727487e-09 1.716665e-09 -5.229893e-10 -4.678140e-10
2.317333e-09 -1.079993e-09 -3.157066e-10 1.190067e-09 5.542677e-11 5.814660e-11
2.769372e-09 -1.319143e-09 -3.506786e-10 1.203987e-09 -9.010571e-13 -5.864642e-11
6.715588e-10 -9.542767e-11 -1.504419e-10 1.666297e-09 2.359815e-10 1.080851e-10
1.552078e-09 -7.650383e-10 -2.001235e-10 1.852912e-09 8.445400e-11 -4.119227e-11
1.900561e-09 -7.770821e-10 -3.172973e-10 1.775210e-09 -7.733395e-11 -2.583822e-10
1.483791e-09 -5.215255e-10 -1.864291e-10 2.092095e-09 1.239923e-10 1.411203e-10
-3.977141e-09 2.994449e-10 1.193300e-09 -2.411751e-10 4.918954e-12 -1.341569e-10
1.806153e-09 -5.887411e-10 -3.067777e-10 1.165362e-09 -3.624678e-11 1.492313e-10
-3.909644e-09 2.180326e-09 5.218337e-10 5.000933e-11 4.259815e-11 -1.821332e-11
-4.830807e-09 9.646879e-10 8.299113e-10 -4.841092e-10 -6.355849e-11 1.348286e-10
-4.912189e-09 1.453587e-09 3.395466e-10 -3.880132e-10 -5.617000e-10 -9.493961e-11
-4.469525e-09 2.319014e-09 5.120779e-10 -1.170015e-09 -2.689885e-10 -4.452492e-10
6.293824e-09 -1.929218e-08 3.795909e-09 2.212879e-10 8.431766e-11 -5.875744e-11
7.185556e-09 -2.012554e-08 3.737830e-09 5.918360e-10 1.366895e-10 -3.805973e-11
-3.992082e-09 2.360030e-09 4.917196e-10 -5.653384e-10 -1.772188e-10 -4.359333e-10
6.541769e-09 -2.136856e-08 3.659217e-09 2.149851e-09 7.554513e-10 6.807458e-11
-4.847709e-09 2.181926e-09 7.410157e-10 -2.373743e-10 6.453504e-11 -1.025284e-10
-4.444474e-09 1.702338e-09 4.256067e-10 -1.001262e-09 -3.387812e-10 -1.463454e-10
-4.716980e-09 2.182288e-09 7.986298e-10 -3.159775e-10 -2.640577e-11 -2.899159e-10
-2.975412e-09 1.762349e-09 3.958232e-10 4.200817e-11 1.303224e-11 -9.707790e-12
6.498087e-09 -2.073418e-08 3.887703e-09 1.413735e-09 3.348645e-10 7.276335e-11
6.168480e-09 -1.888293e-08 3.738712e-09 5.309011e-10 -9.298739e-11 2.662293e-11
6.803333e-09 -1.985181e-08 3.670419e-09 3.776348e-10 1.263787e-10 -1.301348e-10
6.541508e-09 -1.938234e-08 3.746808e-09 1.760131e-09 5.683977e-11 9.499990e-11
7.733414e-10 -2.754117e-10 -1.517169e-10 5.228054e-10 2.725959e-10 -2.944478e-11
6.340348e-09 -1.921988e-08 3.706924e-09 9.754715e-10 1.316638e-10 -8.097673e-11
5.127197e-09 -1.698015e-08 3.620191e-09 2.005475e-09 9.055624e-11 1.166150e-10
-3.086614e-09 1.721349e-09 3.769540e-10 3.418914e-10 9.662310e-11 -5.862200e-11
-2.457437e-09 1.424971e-09 2.775216e-10 3.990586e-12 4.486855e-11 -7.537304e-12
-2.394256e-09 1.336790e-09 2.873319e-10 1.780185e-10 5.996054e-11 -6.318390e-12
-3.776961e-10 3.748646e-10 -5.603074e-12 1.702409e-11 2.205979e-11 -1.696714e-10
-2.692271e-09 1.573255e-09 3.308760e-10 1.079079e-10 1.071185e-10 -1.199820e-10
-2.176359e-09 1.332244e-09 2.706908e-10 1.267160e-10 7.851852e-11 -1.009267e-10
1.709388e-11 7.999201e-10 -3.361188e-10 -9.808070e-10 -1.915081e-10 -1.390787e-10
3.675343e-09 -2.084605e-09 -4.491088e-10 5.322698e-11 1.324894e-10 -1.745234e-10
3.592318e-10 2.282414e-10 -2.560245e-10 -1.072164e-10 -9.202560e-11 -2.200828e-11
7.317080e-11 8.381056e-10 -2.597975e-10 -5.958962e-10 -1.210873e-10 6.039674e-11
2.951566e-09 -1.337404e-09 -3.664509e-10 1.860950e-09 2.290838e-10 1.550049e-11
-5.453646e-10 1.233960e-09 -8.725465e-11 -4.180567e-10 -1.177983e-10 7.167489e-12
6.512000e-10 2.797025e-10 -2.520841e-10 -2.473897e-10 -1.293601e-10 -8.770218e-11
4.182500e-09 -2.406650e-09 -5.545231e-10 4.194887e-10 1.938676e-10 5.414602e-11
-2.606029e-09 2.420208e-09 1.571259e-10 -5.687664e-10 -1.257293e-10 5.819012e-11
-3.526450e-09 2.584429e-09 2.529346e-10 -3.960283e-10 2.513367e-11 3.250458e-11
-3.193112e-09 1.844390e-09 3.884071e-10 1.161988e-10 3.338579e-11 -4.729173e-11
-3.784265e-09 2.753032e-09 2.806473e-10 -1.173448e-10 1.318945e-13 -1.778450e-10
-2.473854e-09 2.251928e-09 3.251577e-11 -3.727951e-11 -1.206658e-10 -2.818201e-11
3.037606e-08 -1.232873e-08 6.867976e-09 3.490821e-09 5.411289e-10 -1.175542e-10
2.446322e-08 -1.014152e-08 -6.486447e-10 -2.549343e-09 -2.334949e-10 6.752168e-10
-1.236687e-09 7.672387e-10 8.289369e-11 1.253486e-11 1.821041e-10 -3.892886e-12
3.685052e-10 6.110268e-10 -2.221687e-10 -1.780522e-10 -4.600764e-12 9.619860e-12
-2.162752e-09 -5.603150e-09 1.149370e-09 1.154542e-09 -3.916401e-10 -2.571695e-10
1.308250e-08 5.589219e-09 -4.301417e-08 -4.333636e-09 -2.062911e-08 -2.066093e-10
-1.647573e-09 -6.962528e-09 1.232010e-09 8.709374e-10 -1.113180e-09 1.094340e-10
-1.539547e-09 -7.625783e-09 1.203352e-09 1.111129e-09 2.938254e-10 -4.642741e-11
-2.898987e-09 -4.236632e-09 1.005747e-09 -9.301543e-11 -4.441869e-11 -5.956158e-11
-3.495843e-09 1.740405e-09 5.501219e-10 3.539755e-10 6.768319e-11 -6.824308e-11
-3.669625e-09 1.553967e-09 6.725995e-10 2.385438e-10 -5.457218e-12 -2.671041e-11
-3.495854e-09 1.598872e-09 5.501219e-10 3.396536e-10 2.182121e-11 -1.456596e-10
-1.781324e-09 1.106622e-09 2.129266e-10 4.942180e-11 1.065004e-10 -5.472511e-12
-7.543369e-09 5.915958e-09 -5.150663e-09 -2.828328e-09 -2.352461e-09 -9.978287e-10
-3.849346e-09 1.584262e-09 7.132686e-10 1.471591e-10 2.984457e-11 -1.185691e-10
-6.525138e-09 -1.829338e-09 4.146843e-10 -4.258229e-10 1.735057e-11 -2.733680e-11
4.018035e-09 -1.771539e-08 1.696272e-09 -2.933473e-09 -1.155114e-09 -1.799860e-10
-3.803488e-09 1.486860e-09 7.230070e-10 2.165736e-10 -3.122780e-11 -1.323230e-11
-3.718718e-09 1.338694e-09 8.023691e-10 4.307837e-10 3.022797e-11 -1.055319e-10
-4.032700e-09 2.176697e-09 5.029170e-10 2.628486e-11 3.274229e-11 -9.851053e-11
-3.843896e-09 1.334316e-09 8.340142e-10 6.907807e-11 1.242143e-10 -2.674887e-10
-3.016460e-09 1.580684e-09 5.655130e-10 5.973346e-10 1.503842e-11 -7.735546e-11
-7.895746e-10 5.819647e-10 6.685319e-11 1.119160e-09 1.516931e-10 3.522893e-11
-4.029195e-09 9.645991e-10 9.306507e-10 1.798928e-10 7.864864e-11 -2.400839e-10
-3.829542e-09 -1.157332e-10 1.092284e-09 7.557371e-11 -8.063394e-11 -1.354389e-10
-3.943703e-09 6.272387e-10 1.075987e-09 1.129650e-10 -1.257205e-11 -1.435384e-10
-3.990610e-09 7.273417e-10 1.061747e-09 -1.670610e-10 4.122924e-12 -7.135248e-11
-4.013226e-09 1.067475e-09 9.794476e-10 -5.308198e-11 -2.930101e-12 -1.455134e-10
-4.015555e-09 1.083522e-09 8.569181e-10 -5.071543e-11 -2.889067e-11 -1.703300e-10
-3.981843e-09 7.847722e-10 1.008320e-09 -1.559557e-10 1.182876e-11 -2.933931e-10
-3.328509e-09 -1.273345e-09 1.351869e-09 -4.772169e-10 9.790491e-11 -3.010852e-10
-6.282785e-09 1.326432e-10 7.889920e-10 -4.683041e-09 -2.276587e-10 -2.066491e-10
-1.238849e-08 1.242824e-08 -1.095325e-09 9.635708e-10 -1.704185e-10 1.077008e-09
-3.963426e-09 7.068515e-10 9.837124e-10 1.159988e-10 2.643752e-11 -1.503426e-10
5.089670e-09 -2.763099e-09 -7.182535e-10 -5.715948e-10 -7.162870e-11 8.372475e-11
5.379352e-09 -2.956182e-09 -7.567542e-10 -6.083774e-10 -1.254315e-10 9.413981e-11
5.666671e-09 -3.022790e-09 -7.501639e-10 -2.693320e-10 -2.444323e-11 1.673675e-10
5.289172e-09 -3.000417e-09 -7.318035e-10 -6.380646e-11 -4.257461e-11 2.982103e-11
5.233030e-09 -2.912190e-09 -7.249108e-10 -2.679568e-11 -2.024325e-11 2.882228e-11
5.287253e-09 -2.985589e-09 -7.066912e-10 -4.513812e-11 -2.717548e-11 -6.227019e-12
-2.016733e-09 -8.826472e-09 3.412848e-09 3.144140e-09 1.877740e-10 2.082157e-10
6.622009e-09 -1.846251e-08 3.068455e-09 -3.252885e-09 5.797926e-10 -1.244541e-10
5.506311e-09 -1.769149e-08 2.592630e-09 -3.039259e-09 4.711096e-10 -4.863183e-10
5.249613e-09 -1.658295e-08 3.375675e-09 -7.201023e-11 1.201932e-10 -7.767344e-11
5.930979e-09 -1.757485e-08 3.299216e-09 -1.922732e-09 -1.165691e-10 -4.416427e-10
3.046546e-09 -1.289421e-08 3.024339e-09 -6.394212e-10 -2.716607e-10 -4.513267e-10
-4.269344e-09 5.334699e-09 -9.789511e-10 1.469477e-09 2.660780e-09 -3.977973e-10
-2.563384e-09 -8.604205e-09 3.203254e-09 3.882528e-09 3.176331e-10 -1.441585e-10
-3.604288e-10 -1.229408e-08 3.349581e-09 4.872863e-09 -3.156841e-10 1.253758e-10
-1.472120e-10 -1.140211e-08 3.562044e-09 2.195701e-09 3.027587e-10 3.889467e-11
2.358549e-10 -1.383025e-08 3.586799e-09 2.715391e-09 5.969586e-11 -6.666623e-11
1.439897e-08 -1.455467e-09 -3.025503e-09 -2.901064e-09 1.276501e-09 2.310644e-10
-1.885669e-09 -9.831643e-09 3.665312e-09 1.720873e-09 1.209102e-10 2.793507e-10
-4.740022e-10 -1.315736e-08 3.410487e-09 4.403527e-09 4.554918e-10 -1.022946e-10
2.673965e-08 -4.796483e-09 -3.288769e-09 -5.798792e-09 -3.232002e-10 4.059308e-09
-8.896435e-09 9.359824e-09 2.316772e-09 3.466420e-09 -2.048876e-09 -1.508339e-09
-6.410755e-09 6.764963e-09 1.460599e-09 3.772641e-09 -1.301937e-09 -1.388688e-09
2.626208e-08 -1.469720e-08 1.485665e-08 -8.311629e-09 -7.235221e-10 3.790846e-09
-3.782834e-09 4.507835e-09 2.000801e-09 5.105475e-09 -6.868700e-11 -1.066294e-10
-4.051684e-09 8.415995e-09 2.612570e-09 6.600625e-09 -8.898762e-10 -7.791798e-10
-4.262197e-09 5.514494e-09 4.376994e-09 7.574203e-09 -1.059784e-09 -1.176171e-09
1.933620e-08 -2.981318e-09 -4.155112e-09 2.342713e-09 -3.051561e-10 -5.145240e-10
-4.289118e-09 4.830723e-09 2.307725e-09 5.648220e-09 -9.890110e-10 -8.283600e-10
1.939881e-08 -5.456612e-09 -2.849900e-09 5.854478e-09 7.664740e-10 1.477166e-09
1.639136e-09 8.365654e-09 -1.402111e-08 1.086719e-09 -4.373771e-09 3.700537e-09
-9.392938e-10 -1.405899e-08 -6.321805e-10 -1.153068e-08 -7.363843e-09 -2.744989e-09
2.642722e-08 -4.202003e-09 -8.046868e-09 1.124098e-09 -5.598617e-10 -1.405884e-10
-8.739918e-09 1.579751e-09 -6.934586e-11 -1.487964e-09 -1.640593e-09 -6.360524e-10
-5.346923e-10 2.608345e-09 3.429046e-09 6.035422e-09 -3.294169e-10 -1.372511e-09
-3.477751e-10 5.624723e-10 -5.395306e-11 5.328249e-10 7.485279e-11 -4.136513e-11
2.398687e-08 -6.236534e-09 -3.783709e-09 8.401941e-10 -1.171132e-10 6.964869e-10
-4.080758e-10 1.332978e-11 -6.380807e-11 1.904339e-10 7.323253e-11 -9.875800e-11
4.475787e-09 -2.391531e-09 -6.164149e-10 3.759221e-10 -4.620726e-11 -5.274448e-11
6.999166e-10 -6.026497e-10 -2.743441e-10 7.388943e-10 9.165154e-11 8.435386e-11
-5.661108e-09 8.095083e-09 -3.044805e-09 1.520577e-10 1.408221e-09 -1.097716e-09
6.880452e-10 3.765543e-11 -7.837908e-11 6.049227e-10 1.439900e-10 1.774441e-10
2.413920e-08 -2.934091e-09 -2.894828e-09 -9.231457e-09 -5.821363e-10 5.481852e-09
3.312777e-09 9.091624e-09 -1.852084e-09 -1.001646e-08 -1.167946e-09 1.579405e-09
1.026027e-09 -5.072265e-10 -9.780310e-11 5.059733e-10 1.104447e-10 9.672285e-11
2.958259e-09 4.058804e-09 -2.688471e-09 -1.532471e-09 9.904422e-10 -1.911170e-10
1.626081e-10 4.487521e-12 -1.068070e-10 4.231116e-10 1.139879e-10 2.796778e-10
-1.811221e-09 1.110356e-09 1.743290e-10 1.324776e-10 9.546430e-11 5.833101e-11
-1.556236e-09 1.115449e-09 2.454503e-10 6.683067e-10 4.535272e-11 -3.830088e-10
-7.416628e-09 7.438282e-09 -1.930039e-09 2.434012e-10 1.046343e-09 -2.858391e-10
-1.223153e-09 6.139954e-09 -2.502010e-09 9.437822e-10 6.878490e-10 -1.121707e-10
-7.587122e-10 6.609477e-10 4.897238e-11 3.056497e-10 1.729688e-10 -2.255069e-10
-3.937713e-09 7.038697e-09 -1.925518e-09 -5.380347e-10 2.430034e-09 -3.209746e-10
6.265110e-09 -1.958747e-08 3.142044e-09 -2.235492e-09 9.843291e-10 2.613865e-11
4.587064e-09 -1.634816e-08 3.341089e-09 -2.560774e-11 1.147278e-10 -2.406483e-10
-4.000924e-10 6.473622e-10 6.933654e-11 5.976186e-10 7.820540e-11 -8.495071e-11
5.543029e-09 -1.700191e-08 3.318819e-09 -2.283964e-10 2.649483e-10 -3.071426e-10
4.393243e-09 -1.487301e-08 3.125921e-09 -7.279200e-11 8.807721e-11 -5.531026e-10
6.293770e-09 -1.851438e-08 3.602887e-09 -1.567213e-11 1.492204e-10 -2.605174e-10
-9.896510e-10 6.461702e-10 1.305547e-10 5.632544e-10 9.145483e-11 7.877476e-12
6.655131e-09 -1.999938e-08 3.263120e-09 -4.125231e-10 4.420112e-10 -2.097931e-10
6.055487e-09 -1.864032e-08 3.243472e-09 -1.330581e-09 9.294661e-11 -1.950521e-10
-2.015001e-09 1.181827e-09 2.388050e-10 7.286167e-10 1.766737e-10 -8.263734e-11
5.970290e-09 -1.787071e-08 3.488533e-09 -5.060544e-10 -9.723366e-11 -2.850584e-10
-1.339641e-09 6.602248e-10 1.271649e-10 2.850039e-10 1.836689e-10 3.365704e-11
-1.154966e-09 8.036709e-10 1.054714e-10 1.045279e-10 1.114313e-10 -7.382606e-11
-7.888591e-09 1.265921e-10 1.166506e-09 1.520389e-09 3.199845e-10 -3.737277e-11
-7.963740e-09 1.623248e-09 3.655067e-10 5.215864e-09 1.489051e-09 -6.024392e-10
-8.787095e-10 8.174919e-10 2.497158e-10 2.138305e-09 1.275414e-10 2.125732e-10
-6.923234e-09 -1.113736e-09 5.342495e-10 5.442787e-09 7.402967e-10 8.871792e-11
2.636872e-09 -1.342845e-08 3.016852e-09 -9.413680e-11 7.749468e-11 -4.008331e-10
-7.476424e-09 -2.701135e-09 1.030743e-09 4.876697e-09 1.474376e-09 -2.425861e-10
-6.870530e-09 -2.880216e-09 8.125616e-10 5.542749e-09 4.131027e-10 2.478704e-10
-7.625545e-09 -1.233992e-09 1.450307e-09 1.729735e-09 4.351854e-10 -3.495018e-10
-8.372931e-09 9.704868e-10 1.006240e-09 1.862621e-09 4.654008e-10 -1.790025e-10
-2.176315e-11 -5.800370e-09 -3.450411e-09 5.042813e-09 -3.775139e-09 1.557662e-09
-1.669420e-10 3.790686e-10 2.385825e-11 5.423102e-11 2.253522e-10 1.250111e-11
5.187814e-09 -2.935660e-09 -6.568297e-10 8.986456e-10 1.065169e-10 4.384149e-11
-1.417714e-09 -4.896304e-09 -1.422021e-09 4.189310e-09 -2.545229e-09 8.874575e-10
6.728544e-10 -8.056333e-09 4.824177e-10 1.850457e-09 -2.022427e-09 4.463865e-10
-3.997153e-09 2.046136e-09 6.083849e-10 1.374012e-11 9.609868e-12 -9.384271e-11
9.827829e-10 -1.191772e-08 1.019522e-09 7.413728e-09 -2.788245e-09 2.078163e-09
-1.905631e-09 -8.678638e-09 -4.544587e-10 5.980066e-09 -4.467403e-09 1.564837e-09
-1.467176e-09 -4.917254e-09 -1.816485e-10 4.390541e-09 -3.196107e-09 7.815121e-10
3.158208e-09 -1.552082e-09 -4.703011e-10 7.291874e-10 1.217694e-10 2.497214e-11
-4.018542e-09 1.977298e-09 6.360823e-10 9.180923e-11 1.344969e-11 -1.631650e-11
-3.205873e-09 -8.706060e-09 1.972878e-09 5.538574e-09 8.936703e-10 -2.531155e-10
-4.006360e-09 -7.065192e-09 2.817316e-09 6.298334e-09 6.924754e-10 2.482489e-10
4.187546e-09 -2.117380e-09 -5.543490e-10 6.306620e-10 8.948753e-11 7.416356e-11
-5.963923e-09 -6.031772e-09 2.307174e-09 8.201981e-09 2.015288e-09 -3.459819e-10
8.337843e-09 -2.201949e-08 -4.761986e-10 3.994347e-09 1.288670e-09 3.015099e-10
-1.152697e-09 -9.839315e-09 1.704183e-09 8.559532e-09 1.286535e-09 7.116977e-10
3.364183e-09 -2.039763e-09 -4.629706e-10 4.240749e-10 8.171086e-11 2.628866e-11
-8.555370e-09 2.447913e-09 7.296341e-10 1.161112e-09 1.198023e-09 4.789657e-11
2.496636e-09 -1.413850e-09 -4.056038e-10 7.046909e-10 1.397993e-10 -8.943191e-11
8.019736e-10 -5.323703e-10 -1.432299e-10 1.250013e-09 2.459398e-10 -1.262390e-11
-7.198254e-09 -2.068825e-09 1.618727e-09 1.815915e-09 3.102594e-10 -5.091860e-11
-7.212802e-09 7.529870e-10 -7.382663e-10 7.024059e-09 -1.167737e-10 -1.514620e-10
-2.031302e-09 -6.761639e-09 2.197726e-10 7.257663e-09 6.873863e-10 -5.702594e-10
-4.825118e-09 -5.481817e-09 2.028214e-09 7.292781e-09 1.956084e-09 -5.705206e-10
7.539587e-10 -6.043973e-10 -2.317906e-10 7.350856e-10 1.724014e-10 -2.246650e-10
3.664100e-09 -1.113982e-09 -5.378169e-10 -3.481297e-09 1.149103e-11 -2.673606e-10
-4.491978e-09 1.391179e-09 7.494914e-10 -6.049385e-11 -2.041072e-10 -2.877608e-10
-4.413798e-09 1.149985e-09 1.025616e-09 -6.007125e-10 -3.997067e-10 -2.148544e-11
7.623473e-09 -3.605665e-09 -5.350778e-10 -3.785856e-10 -3.693545e-11 4.253020e-11
-4.208338e-09 2.922478e-09 -3.698526e-10 -2.669608e-09 -4.838560e-10 -3.168954e-11
7.171060e-09 -3.605665e-09 -6.179670e-10 -3.641820e-10 -2.298568e-11 -2.193343e-10
7.334677e-09 -3.630493e-09 -6.499854e-10 -2.725806e-10 1.251721e-11 1.461529e-10
6.600176e-09 -3.339409e-09 -7.036693e-10 1.928211e-10 1.632347e-11 7.687490e-11
-4.616535e-09 2.150916e-09 9.943157e-13 -1.533531e-09 -4.129441e-10 -2.823906e-10
6.139496e-09 -3.362037e-09 -6.965353e-10 -1.382636e-09 1.064473e-10 4.920886e-11
5.917767e-09 -3.276265e-09 -7.390906e-10 -1.074505e-09 2.623293e-11 -2.575062e-11
8.155046e-10 5.669053e-10 -3.967893e-10 -5.903338e-09 -5.505862e-10 6.206435e-10
-3.542430e-09 2.522093e-09 -1.655365e-10 -2.948467e-09 -2.589213e-10 -4.083471e-10
-4.088024e-09 1.615359e-09 5.514162e-10 -7.618395e-10 -5.510382e-10 -3.584529e-10
6.030035e-09 -3.266851e-09 -7.353668e-10 -6.707889e-10 2.138816e-11 -3.433898e-11
4.829052e-09 -2.747274e-09 -6.986562e-10 -5.577452e-10 -4.706707e-11 -6.569467e-12
6.682901e-09 -3.305219e-09 -7.566165e-10 -6.291898e-10 -6.830578e-12 2.942269e-11
4.014256e-11 9.359864e-10 -2.729070e-10 -3.124015e-09 -3.687228e-11 6.643019e-12
-8.512050e-09 8.195239e-09 -2.888534e-09 3.490646e-09 1.418381e-09 -4.455849e-10
-7.893137e-09 7.091806e-09 -2.648943e-09 3.423686e-09 1.180671e-09 -9.714380e-10
-7.849519e-09 1.027927e-08 -4.345332e-09 2.105236e-09 2.597079e-09 -2.262504e-09
1.701164e-09 -1.040964e-09 -2.891405e-10 5.770495e-12 1.624947e-10 1.796430e-11
-9.597986e-09 7.793016e-09 -5.919600e-09 7.450462e-09 1.642220e-09 -9.805290e-10
-8.609490e-09 1.116728e-08 -5.659060e-09 5.301482e-09 1.468541e-09 -2.014370e-09
6.934506e-10 -9.542811e-11 -9.504375e-11 1.541635e-09 1.120338e-10 -5.755307e-11
-2.376753e-09 1.434613e-09 3.119101e-10 2.731242e-10 1.449566e-10 -3.381884e-11
-4.968986e-09 2.184055e-09 -5.012999e-10 -5.531495e-10 -2.119838e-10 4.442511e-10
-4.335775e-09 2.342632e-09 -2.203420e-10 -1.736845e-09 -2.031224e-10 4.120117e-11
3.485930e-09 -1.533774e-09 -4.494916e-10 1.335357e-09 9.322476e-11 -8.066725e-11
3.565575e-09 -1.691876e-09 -4.947656e-10 1.094072e-09 7.278481e-11 -1.004419e-10
-4.863098e-09 1.702004e-09 1.538218e-10 -9.384584e-10 -1.065894e-10 -2.758624e-10
-4.696253e-09 2.466468e-09 -2.289013e-11 -1.362521e-09 -1.630782e-10 3.496861e-10
2.130377e-09 -1.090436e-09 -4.040706e-10 4.699459e-10 1.734745e-10 -3.002443e-11
-3.509569e-09 2.159276e-09 2.624496e-10 -1.919642e-09 -2.026669e-10 -2.530931e-11
1.434123e-09 -7.321224e-10 -2.198992e-10 4.008638e-11 2.374597e-10 3.592182e-12
8.526344e-10 -2.947589e-10 -1.680753e-10 5.069949e-10 -7.569056e-11 1.245049e-11
-4.208338e-09 2.680869e-09 -2.409344e-10 -2.028679e-09 -4.736807e-10 4.102729e-10
5.875415e-09 -3.193186e-09 -8.194889e-10 1.643830e-10 1.343786e-11 2.885735e-10
-8.312976e-10 -8.667579e-09 2.222681e-09 -4.091840e-09 5.261775e-11 -1.719336e-10
1.197610e-09 -1.058856e-08 1.796470e-09 -5.626085e-09 -4.991911e-10 -6.058107e-10
2.657761e-09 -1.569782e-09 -4.073978e-10 3.502542e-10 1.056639e-10 -1.506252e-11
1.111827e-09 -6.033316e-10 -1.742504e-10 7.864598e-10 2.023366e-10 -6.985723e-11
-3.416548e-09 -1.174516e-09 1.531233e-09 -1.200389e-09 1.122960e-10 -1.357385e-10
-2.371972e-09 -4.035293e-09 1.990268e-09 -2.072642e-09 3.078073e-10 -6.246337e-11
-1.949908e-09 -3.921619e-09 2.185200e-09 -1.772496e-09 7.795853e-11 -1.445548e-10
-1.214140e-09 -5.705462e-09 2.052675e-09 -3.182873e-09 8.950848e-11 -2.240086e-10
-3.090396e-09 -3.006082e-09 1.830928e-09 -2.487183e-09 1.263171e-10 -6.220569e-11
-2.647615e-09 -3.010820e-09 1.224974e-09 -4.073245e-09 5.781200e-10 2.418741e-10
-1.361784e-09 1.755857e-09 -2.409029e-11 -9.750056e-10 2.534836e-11 -4.486456e-11
2.689568e-09 -1.093677e-09 -2.420620e-08 -1.433733e-08 4.486172e-09 2.357773e-09
-1.113504e-09 -2.687482e-09 -7.626186e-09 -1.294785e-08 5.152685e-09 2.868015e-09
-3.084591e-09 2.587693e-09 2.529346e-10 -3.221192e-10 2.708411e-11 1.146745e-10
-4.747479e-09 4.830659e-09 -3.558926e-09 -8.584888e-09 6.476997e-10 -2.390135e-10
-9.476173e-09 8.683163e-09 -5.630065e-09 -8.182987e-09 1.280987e-09 9.973245e-10
-7.217299e-09 3.324379e-09 -5.424393e-09 -1.115381e-08 2.486163e-09 2.384053e-09
-6.591316e-09 4.609071e-09 -3.310373e-09 -9.567939e-09 1.447062e-09 8.590325e-10
-2.223315e-09 1.384930e-09 3.698040e-10 4.051914e-10 3.602763e-11 -2.772627e-11
-1.315696e-09 1.098981e-09 2.289589e-10 8.696076e-10 2.716494e-11 -6.213361e-11
-3.484919e-09 2.732071e-09 2.719780e-10 -4.858602e-11 -1.073386e-11 1.839062e-11
-1.090496e-09 8.474537e-10 1.135865e-10 9.134189e-10 1.183054e-12 -4.860001e-12
-1.317090e-09 8.081997e-10 1.910252e-10 1.014179e-09 6.457557e-11 -9.167217e-11
-1.872372e-09 1.169711e-09 1.491935e-10 4.118079e-10 8.337575e-11 -9.914780e-11
-1.984201e-09 1.011274e-09 1.955049e-10 1.164784e-09 9.830287e-11 -9.621604e-11
-1.940592e-09 1.800109e-09 3.450062e-11 -1.876757e-09 -1.233462e-10 -1.055167e-10
-2.528434e-09 1.433874e-09 4.085887e-10 8.078418e-10 -6.458301e-11 -2.924860e-11
-2.967351e-10 8.098606e-10 -1.898081e-10 -2.708096e-10 -9.138534e-11 1.126298e-10
-2.772875e-09 1.426935e-09 4.818244e-10 8.749716e-10 3.056033e-11 1.305400e-10
-3.580043e-09 2.738759e-09 2.823910e-10 -1.046772e-10 2.759037e-21 -1.317879e-11
-4.452532e-10 8.683181e-10 -1.891580e-10 -7.445364e-10 -1.054680e-10 -5.465839e-11
-1.576323e-09 1.104782e-09 2.415863e-10 1.063332e-09 -3.133627e-11 -1.226450e-10
9.621657e-09 -2.172924e-08 -1.044580e-09 1.528625e-09 -1.559923e-09 3.040809e-10
5.710457e-09 -3.074740e-09 -6.392581e-10 4.205313e-10 6.439891e-11 1.553614e-10
6.723210e-09 -2.026770e-08 2.569696e-09 2.169815e-09 -2.728711e-09 4.173818e-10
3.684981e-10 2.281961e-10 -2.382667e-10 -5.897416e-11 -1.736677e-11 -9.098944e-12
-2.918970e-09 2.319886e-09 3.140181e-10 -1.000399e-09 -1.621304e-10 7.989476e-11
-1.621961e-09 1.717967e-09 -2.889511e-11 -7.141399e-11 2.214140e-11 -3.162411e-21
6.919570e-09 -1.791860e-08 2.615139e-10 1.324355e-09 -7.031586e-10 2.462685e-10
-1.309733e-09 1.654364e-09 -5.902301e-11 -3.180389e-11 -2.471556e-11 -5.560441e-12
-1.176314e-09 1.259858e-09 -1.021530e-10 -7.324283e-10 -1.190337e-10 1.365705e-10
7.495522e-09 -2.115905e-08 2.291256e-10 3.610470e-10 -1.222113e-09 3.011314e-10
9.641903e-09 -2.152154e-08 2.357816e-10 1.595321e-09 -1.043707e-09 4.680908e-10
8.336888e-09 -2.325361e-08 1.799094e-09 2.046961e-09 -1.352468e-09 2.275103e-10
9.168128e-09 -2.427466e-08 1.952379e-09 1.304765e-09 -1.635882e-09 5.853653e-10
5.497016e-09 -3.002471e-09 -7.673617e-10 -2.426713e-10 -2.270351e-11 3.111544e-11
-3.608513e-09 1.957734e-09 4.999303e-10 2.385514e-11 6.342749e-11 -1.318057e-11
5.715057e-09 -3.065069e-09 -7.423306e-10 -6.331824e-12 -2.727818e-13 2.187051e-11
-3.676507e-09 1.823009e-09 4.928076e-10 3.193650e-10 -2.893685e-12 -2.694733e-12
5.095232e-09 -2.878527e-09 -6.516094e-10 2.703931e-10 8.179385e-11 7.259532e-11
-3.780263e-09 1.979990e-09 5.724945e-10 1.093488e-10 -2.088818e-11 3.956990e-11
-3.854885e-09 2.023063e-09 5.818217e-10 8.633183e-11 1.611644e-11 -2.439093e-11
-4.335321e-09 -6.291240e-09 3.085744e-09 2.842132e-09 3.614252e-10 9.287929e-11
-3.367577e-09 -7.832197e-09 3.324944e-09 2.367875e-09 3.827539e-11 4.139596e-10
2.320958e-09 -7.933449e-10 -5.120093e-10 -2.595066e-09 -2.275480e-11 -1.345685e-11
-1.984924e-09 -7.594593e-09 2.924102e-09 4.326138e-09 3.612732e-10 3.393268e-10
-4.490620e-09 -5.790576e-09 3.047079e-09 2.897921e-09 1.587464e-11 -4.589296e-11
-3.559147e-09 2.662189e-09 2.379834e-10 -4.226944e-10 -1.082282e-10 -1.733429e-10
-5.652358e-09 -3.711413e-09 2.282909e-09 4.171107e-09 3.513438e-10 -2.454596e-10
-5.890319e-09 -3.235569e-09 2.473243e-09 3.068708e-09 4.839875e-10 2.679398e-10
3.661953e-09 -1.875487e-09 -5.466121e-10 1.289145e-09 1.896089e-10 3.841777e-11
-5.518670e-09 -4.723027e-09 3.074123e-09 9.873937e-10 6.147241e-10 2.793739e-10
-2.330398e-09 -7.537693e-09 3.044970e-09 4.628055e-09 2.686494e-10 -3.934805e-10
-4.763111e-09 6.133583e-10 9.121846e-10 -1.041269e-10 -3.057304e-10 -3.406900e-10
-4.830806e-09 5.149428e-10 8.299113e-10 1.533231e-10 3.228617e-11 -1.368532e-10
-2.133605e-09 -7.750484e-09 3.532397e-10 3.180424e-09 -1.148297e-09 5.938744e-10
-4.673626e-09 1.942182e-09 8.844374e-10 -7.842174e-10 -3.614164e-10 -3.622918e-10
-2.040873e-09 -5.490220e-09 2.272621e-09 -9.597473e-10 -7.228362e-11 -3.603735e-10
-2.167992e-09 -3.556260e-09 1.906153e-09 4.215610e-11 -2.103590e-10 -2.863079e-10
-3.130789e-09 -3.862157e-09 1.719588e-09 6.945662e-10 2.159900e-10 -4.200681e-10
-2.884996e-09 -3.163648e-09 1.905115e-09 -8.548104e-10 -3.267470e-11 -2.175727e-10
-2.947485e-09 -2.146646e-09 1.624057e-09 -2.355987e-10 1.475602e-10 -4.723590e-10
-4.385572e-09 1.723282e-09 8.938996e-10 -7.218572e-10 -2.365497e-10 -1.571403e-10
-4.819863e-09 4.524505e-10 9.565007e-10 -4.490593e-10 -2.573386e-10 -2.911488e-11
-2.237243e-09 -3.725085e-09 1.808358e-09 -1.643645e-10 1.337670e-10 -3.748324e-10
-2.599412e-09 -3.206235e-09 1.781372e-09 -3.557066e-11 -2.156231e-11 -2.432015e-10
-4.216554e-09 -1.584906e-09 8.447030e-10 2.287658e-10 -4.090799e-10 -4.411065e-10
6.311429e-10 1.311753e-08 -6.079715e-09 -1.510960e-08 2.793045e-09 6.608118e-10
6.836838e-10 2.453201e-09 1.970733e-09 -1.020534e-08 3.295258e-10 -7.149503e-10
4.297056e-09 -6.816244e-10 4.728578e-10 -8.006534e-09 1.738485e-10 2.445839e-11
6.829002e-09 -1.818937e-09 2.982667e-09 -8.517673e-09 3.730474e-10 -8.162395e-10
-4.291945e-09 2.458956e-09 5.817151e-10 -3.005680e-10 -5.301204e-11 -3.285958e-10
-4.716981e-09 2.192708e-09 7.660943e-10 -2.487477e-10 -5.801115e-11 -3.010439e-10
6.933687e-09 -1.849841e-09 3.260938e-09 -8.538304e-09 8.219567e-10 -1.413994e-09
2.286201e-09 4.874018e-10 1.807507e-09 -8.691141e-09 4.262475e-10 -1.004203e-09
1.348210e-08 -2.191957e-08 -8.458323e-09 -1.031784e-10 -1.713256e-09 1.031172e-12
-4.998730e-09 1.425256e-09 8.122432e-10 -5.545018e-10 -7.917852e-11 -3.777338e-10
1.215705e-08 -2.351378e-08 -4.120738e-09 5.500018e-10 -3.297525e-09 4.575584e-10
8.409893e-09 -1.629211e-08 -5.569124e-09 -5.123784e-09 -3.805047e-09 -8.715128e-10
-4.769781e-09 -3.599654e-10 8.656000e-10 6.884535e-10 -3.646723e-10 -1.561540e-10
1.210862e-08 -2.771717e-08 -2.241767e-10 -9.722222e-10 -5.006774e-09 -1.520294e-10
-8.333042e-09 1.236240e-09 1.405908e-09 3.733476e-09 1.324676e-09 -2.505509e-10
-8.353073e-09 2.979122e-09 -2.615720e-09 7.404945e-09 2.823209e-09 -1.587442e-09
-7.532927e-09 3.091664e-09 -2.649088e-10 6.022187e-09 2.658961e-09 -1.408920e-09
-4.644410e-09 -1.182681e-10 9.468684e-10 -3.754801e-10 9.542578e-21 -1.270717e-11
-4.605031e-09 1.418225e-09 4.730798e-10 -6.516724e-10 -7.246922e-10 4.811668e-11
-4.369330e-09 -7.185683e-10 8.683259e-10 9.897283e-11 -3.767282e-10 -3.531975e-11
-4.357926e-09 2.538881e-09 4.283818e-10 -6.970893e-10 -5.657164e-11 1.260059e-11
-6.980285e-09 -1.670237e-10 -5.211864e-10 7.770611e-09 1.764677e-09 -6.230949e-10
-2.652376e-09 -4.708816e-09 5.917773e-10 1.736598e-10 2.559748e-10 -1.040386e-10
-4.846063e-09 1.994021e-09 7.368728e-10 -5.667777e-11 -3.128209e-11 -9.895240e-11
-8.950501e-09 3.096671e-09 -9.409535e-10 5.238097e-09 2.986816e-09 -6.245002e-10
4.705672e-09 -2.663317e-09 -6.170406e-10 1.223997e-09 1.303534e-10 -1.242382e-10
-2.894559e-09 1.283145e-09 4.638370e-10 7.416793e-10 -5.703083e-11 -1.835856e-10
-3.563493e-09 2.796795e-09 2.518339e-10 -1.066738e-10 -3.896738e-11 -1.011348e-10
-3.836737e-09 2.547201e-09 4.149161e-10 -7.741756e-10 -5.063150e-11 -1.008762e-10
-4.177216e-09 2.639188e-09 4.955618e-10 -3.069465e-10 3.342906e-20 -5.445422e-11
-4.145687e-09 2.641905e-09 4.417908e-10 -1.722420e-10 -3.129164e-11 -2.754619e-10
-2.573149e-09 1.261251e-09 5.348957e-10 1.113081e-09 1.302099e-10 1.067382e-10
-4.685949e-09 2.242261e-09 7.075696e-10 -4.199781e-10 -6.420176e-11 -7.878738e-11
-3.132200e-09 1.287379e-09 6.683463e-10 9.595209e-10 -1.089440e-10 -2.209972e-10
-2.000736e-09 9.776659e-10 3.268132e-10 1.297112e-09 -1.313891e-10 -3.054106e-10
-8.754348e-10 8.059979e-10 1.643490e-10 2.061118e-09 3.735456e-11 -1.987734e-10
-2.692871e-09 1.165843e-09 5.172076e-10 1.337446e-09 -5.166707e-11 -1.646474e-10
-1.983470e-09 1.170519e-09 3.630403e-10 1.395947e-09 7.805667e-11 -6.303436e-11
1.297893e-08 -2.637127e-08 -1.305862e-09 1.309750e-09 -5.016758e-09 3.723259e-10
9.874776e-09 -2.398366e-08 -9.858450e-10 2.841147e-10 -7.869221e-10 1.790800e-10
7.149672e-09 -1.963909e-08 -3.045128e-09 2.979003e-09 -5.148990e-09 1.017603e-09
-2.608210e-09 1.275372e-09 4.201399e-10 1.164614e-09 5.020458e-11 -1.579668e-10
1.219437e-08 -2.209872e-08 -4.465203e-09 3.299022e-10 -3.657616e-10 -6.503620e-11
7.495522e-09 -2.049827e-08 -4.175380e-10 3.603232e-10 -6.157719e-10 2.996455e-10
3.766375e-09 -1.346056e-08 -1.344622e-09 2.309108e-09 -3.310321e-10 3.086140e-11
8.451306e-09 -2.265051e-08 1.631193e-09 4.805237e-09 -6.689489e-09 1.533728e-09
1.147747e-08 -2.209466e-08 -4.619808e-09 7.414216e-10 -6.009202e-10 2.661347e-10
-2.980058e-09 2.308222e-09 -1.096812e-10 -2.704322e-09 -7.475643e-11 3.156022e-10
1.193626e-08 -2.449074e-08 -1.521141e-09 5.522411e-10 -1.099251e-09 3.090816e-11
1.095414e-08 -2.220020e-08 -3.253150e-09 9.809506e-10 -8.320715e-10 5.957643e-10
1.034239e-08 -2.496192e-08 2.657809e-09 2.004708e-09 -3.576427e-09 2.486520e-10
-2.801435e-09 -4.849831e-09 -3.796623e-09 1.200320e-08 2.226598e-09 -4.344929e-10
4.459650e-10 2.866871e-10 -3.693037e-10 -1.485342e-09 2.865264e-11 -6.371081e-11
-4.879007e-09 1.576129e-09 7.934986e-10 1.619727e-11 9.075252e-11 -7.950973e-11
-4.286271e-09 2.158068e-09 5.267453e-10 -1.221847e-09 -2.553580e-10 -1.874125e-10
-4.456233e-09 1.768915e-09 4.936904e-10 -8.850889e-10 -3.368767e-10 -1.582524e-10
-5.037843e-09 -1.042076e-09 -3.305931e-09 1.025557e-08 -9.484058e-11 4.872766e-10
-5.726526e-09 -3.203559e-09 1.043266e-09 7.692441e-09 1.002347e-09 -1.305079e-10
-4.137516e-09 2.566819e-09 -4.180922e-11 -2.306244e-09 -1.998566e-10 -9.184101e-11
-4.933222e-09 1.622935e-09 8.957963e-10 -2.459695e-10 -2.202816e-11 -2.755022e-10
-4.800060e-09 1.465548e-10 7.516663e-10 -2.425854e-10 -3.871140e-10 -2.998604e-10
-7.968763e-09 1.577261e-09 2.038245e-10 5.231882e-09 3.805822e-10 -9.481549e-11
-8.230380e-09 1.937163e-09 -2.947345e-10 5.450493e-09 9.536313e-10 -4.927245e-10
-1.578255e-09 1.597845e-09 3.406297e-11 -1.103145e-09 -2.136199e-10 -7.753798e-11
-8.806610e-09 4.934065e-09 -3.459671e-09 6.945754e-09 -1.125624e-10 -2.172946e-10
-4.201132e-09 1.830351e-09 4.229168e-10 -9.922965e-10 -4.454985e-10 -9.417944e-11
-4.200299e-09 2.102342e-09 4.950067e-10 -6.220322e-10 -7.179862e-11 -2.339006e-10
-3.904645e-09 3.957279e-10 1.160856e-09 -1.589312e-10 -1.269123e-10 -1.490598e-10
3.807932e-10 6.987246e-10 -2.474581e-10 -2.806439e-09 3.047873e-11 -1.227649e-10
-3.838088e-09 2.019185e-11 1.084303e-09 3.964715e-11 1.292240e-10 -2.682971e-10
1.179417e-09 -5.323737e-10 -2.106439e-10 1.174574e-09 1.412682e-10 -1.414038e-10
2.672004e-09 -1.319143e-09 -3.391865e-10 1.091643e-09 5.595968e-12 -2.435421e-10
-4.355929e-10 5.761986e-10 -6.175682e-11 5.287533e-10 7.502354e-11 -1.505618e-11
-3.940803e-11 5.516387e-10 -3.111600e-11 5.510147e-10 7.193812e-11 5.300066e-11
-3.749249e-09 -9.402701e-11 1.228718e-09 -2.720275e-10 6.335488e-13 -3.512121e-10
4.885215e-09 -2.850961e-09 -7.014767e-10 6.930575e-11 5.301450e-11 -6.162904e-11
-1.337924e-09 8.818528e-10 2.409668e-10 1.414930e-09 7.206058e-11 7.285328e-11
-1.656717e-09 1.163811e-09 2.641050e-10 1.062273e-09 1.561435e-10 -7.506817e-11
-1.572508e-09 9.925569e-10 1.790887e-10 5.116846e-11 6.301370e-11 6.344714e-11
-8.596972e-10 5.831131e-10 8.185008e-12 8.563945e-10 1.124867e-10 -7.870349e-11
-3.831388e-09 -2.536691e-10 1.355167e-09 2.001041e-10 1.695983e-10 -1.205349e-10
-6.452421e-10 4.244978e-10 1.006009e-10 1.508968e-09 1.384273e-10 -6.224044e-11
-4.732609e-09 1.558735e-09 8.690320e-10 -2.435800e-10 -3.099476e-11 -3.546321e-10
-3.678314e-09 -7.520207e-10 1.320465e-09 -5.317206e-10 -6.697565e-11 -2.520538e-10
-3.692007e-09 1.448822e-09 7.609566e-10 5.864749e-10 1.047928e-10 -1.635019e-10
-3.861410e-09 1.662235e-10 1.166843e-09 -4.485279e-11 -8.572332e-11 -2.589440e-10
-3.382167e-09 1.050896e-09 7.615526e-10 3.394072e-10 7.598322e-11 -1.461414e-10
-3.521561e-09 -9.542314e-10 1.433781e-09 -2.395908e-10 3.569639e-10 -2.709697e-10
-2.917977e-09 -2.181570e-09 1.640171e-09 1.280481e-10 3.137762e-11 -4.563835e-10
-3.374629e-09 -2.614649e-09 1.835030e-09 -1.895851e-09 -1.493081e-10 5.723866e-11
-3.585021e-09 -5.123657e-10 1.330892e-09 1.341187e-10 -6.134387e-11 -2.127764e-10
-3.706867e-09 -9.838885e-10 1.310348e-09 -9.545875e-10 8.768564e-11 -3.389120e-10
-3.907696e-09 -1.183587e-11 1.190704e-09 -6.226897e-10 7.661716e-11 1.051581e-10
5.409438e-10 -1.041263e-08 -5.550542e-10 -7.953180e-09 5.470086e-10 6.259273e-11
4.651035e-10 6.241008e-11 -9.643986e-11 2.287841e-10 1.435725e-10 -6.830647e-11
9.714238e-10 -5.233955e-10 -2.259077e-10 3.905294e-10 8.237655e-11 -2.183593e-10
-2.603786e-09 1.447451e-09 3.604053e-10 1.126211e-09 1.061146e-10 -1.524708e-10
-3.539523e-09 1.306459e-09 8.231820e-10 6.164940e-10 1.698091e-10 -3.845724e-11
-2.158716e-09 -3.971070e-09 1.748040e-09 -1.680178e-09 5.528605e-11 -6.112971e-10
7.464216e-10 3.752731e-11 -6.166423e-11 6.119851e-10 6.110773e-11 -1.539959e-10
-3.034089e-10 3.843765e-10 -3.647971e-12 4.644907e-10 2.262145e-10 3.111200e-11
-2.564491e-10 6.451359e-10 1.318048e-10 6.464807e-10 2.030482e-10 1.057823e-10
4.102329e-09 -2.057655e-09 -5.643308e-10 5.548295e-11 1.390629e-10 2.648992e-13
-1.107729e-09 7.063949e-10 2.701572e-11 8.291099e-10 1.711640e-10 3.240752e-10
5.451303e-09 -3.102155e-09 -6.751071e-10 8.462593e-10 -5.730427e-11 -3.104916e-11
-4.338073e-09 2.166733e-09 4.746810e-10 -8.248751e-10 -2.709734e-10 -5.534195e-10
6.640553e-09 -3.754315e-09 -6.246710e-10 -7.683467e-10 2.803442e-11 -2.241762e-12
-1.207455e-09 7.185612e-10 1.708915e-10 6.682401e-10 1.490685e-10 1.366216e-10
6.178393e-09 -3.350454e-09 -5.263912e-10 1.124274e-09 7.162316e-12 1.144113e-11
7.634948e-09 -3.331748e-09 -4.767111e-10 1.944524e-09 1.873692e-10 -9.819032e-12
-1.536705e-09 9.172414e-10 2.012586e-10 7.967254e-10 5.424550e-11 -3.052891e-12
-6.693845e-11 3.667289e-11 -5.092082e-11 6.700966e-10 1.729317e-10 2.965062e-11
3.514194e-09 -1.239884e-09 -1.921512e-10 3.225150e-09 1.264688e-10 2.264321e-10
-6.723733e-10 1.428502e-09 3.469465e-10 3.208887e-09 -1.003786e-10 -2.610735e-10
1.765894e-10 3.680101e-11 -1.210765e-11 6.611057e-10 1.801682e-10 -9.959744e-11
-4.587330e-09 3.193584e-09 9.363315e-10 1.701261e-09 -4.703003e-10 -9.065546e-10
-7.571224e-10 5.766969e-10 2.435918e-11 1.932068e-10 1.414853e-10 1.117160e-10
1.007727e-11 1.265521e-10 -2.389522e-11 9.047074e-11 1.330813e-10 -4.218337e-11
6.877646e-09 -2.890077e-09 9.218573e-10 3.415673e-09 1.872603e-10 -5.503652e-10
6.129910e-09 2.969125e-08 -3.559353e-08 -5.244349e-09 -2.069756e-10 4.305196e-09
2.848388e-11 4.757101e-10 1.019815e-10 2.075603e-09 2.102765e-10 2.784160e-10
8.039302e-09 2.363383e-08 -4.017803e-08 -2.500169e-09 -7.020100e-09 2.643179e-09
5.135327e-09 3.027691e-08 -4.615613e-08 -6.283779e-09 -1.689305e-08 1.031640e-08
1.197060e-09 -1.174203e-08 2.206807e-09 -4.541201e-09 2.501035e-10 -2.825293e-12
1.831554e-09 -1.037236e-08 1.172236e-09 -6.697756e-09 8.721779e-11 5.245892e-10
5.376573e-09 -1.596867e-08 -7.986283e-10 -7.105502e-09 1.660073e-09 7.710877e-10
5.135327e-09 2.119132e-08 -4.151389e-08 -2.203661e-09 -1.585506e-08 6.896756e-09
1.522930e-09 -9.938367e-09 -4.141507e-09 -1.015826e-08 2.306453e-09 7.420857e-10
7.041864e-09 2.927559e-08 -4.847925e-08 -5.451876e-09 -7.992358e-09 3.042708e-09
8.881124e-09 -1.994511e-08 -2.558427e-09 -4.739503e-09 1.633613e-09 1.927283e-10
1.022134e-08 2.004616e-08 -4.543015e-08 -3.678049e-09 -6.304612e-09 -1.158565e-10
4.601426e-09 -1.552630e-08 4.900551e-10 -6.602486e-09 1.562754e-09 1.271689e-10
8.090151e-09 3.636547e-08 -5.701056e-08 -7.497597e-09 -1.700773e-08 3.759709e-09
4.536558e-09 -1.503123e-08 4.139205e-10 -6.273634e-09 -3.513818e-10 2.037100e-10
-5.110455e-08 -2.153198e-08 1.694639e-07 -4.576081e-10 3.412563e-09 -8.812796e-09
6.832565e-09 2.469555e-08 -4.585696e-08 -3.365775e-09 -1.822890e-08 1.342334e-09
-3.264873e-09 1.760969e-08 -1.594035e-08 -5.821798e-10 -3.181194e-09 -2.190991e-09
1.458579e-08 -1.246094e-08 -1.490156e-08 -1.613954e-09 -6.332415e-09 1.319176e-10
1.260231e-08 -1.438279e-08 -1.346378e-08 -5.523089e-09 -7.668364e-09 -1.104639e-09
-4.755482e-09 4.419219e-08 -2.898244e-08 3.736024e-09 -6.408496e-09 -7.361416e-09
1.262553e-08 -1.606294e-08 -1.531155e-08 -4.005903e-09 -4.795663e-09 -2.209430e-10
1.264225e-08 -5.185391e-09 -2.346495e-08 -7.718603e-09 -1.060027e-08 -2.309665e-09
7.534141e-09 -2.596609e-08 -1.970770e-10 9.321872e-09 -9.172333e-09 2.881591e-09
-6.168457e-09 1.918041e-08 -2.190104e-08 -2.015812e-09 -7.335284e-09 -8.466115e-09
1.259790e-08 -6.857139e-09 -2.514571e-08 -5.997579e-09 -4.122723e-09 -1.941060e-10
1.398598e-08 -3.074047e-08 -1.701774e-09 3.163479e-09 -1.321565e-08 2.259587e-09
-5.117155e-10 2.458856e-08 -2.136400e-08 4.772657e-09 -3.806876e-09 -3.105164e-09
6.794021e-09 4.494928e-09 -2.923204e-08 4.109031e-09 -1.353326e-08 6.192437e-09
-6.808110e-12 3.862185e-08 -3.890624e-08 -9.643575e-09 -3.654238e-09 -4.770217e-10
1.290661e-08 -1.476184e-08 -1.486187e-08 -5.126547e-09 -5.787216e-09 1.755596e-10
-1.885122e-08 4.031134e-08 -1.742580e-08 -7.918419e-09 7.573894e-11 -1.936446e-09
-1.785875e-08 4.031134e-08 -1.117053e-08 -1.063908e-08 3.234064e-09 -5.206734e-09
-1.981899e-08 5.281585e-08 1.419485e-09 -1.211418e-08 -1.376343e-08 -1.155898e-08
-5.404674e-09 9.202177e-09 -2.470181e-08 1.803283e-08 1.205239e-08 -9.222082e-09
-1.279824e-08 2.549788e-08 -2.993420e-08 1.206418e-08 1.237027e-08 -1.379935e-08
-1.495218e-08 1.815067e-08 3.466150e-08 -2.599180e-08 -1.213383e-08 1.086288e-08
-2.534465e-09 8.699643e-09 -3.607963e-09 -2.586915e-09 5.717584e-10 -7.215677e-10
-1.226256e-08 3.612370e-08 -1.204229e-08 -1.019832e-08 -2.293653e-09 -6.933192e-09
-1.568335e-08 3.696167e-08 -3.021518e-08 1.557575e-09 8.625578e-09 -1.745594e-08
1.034320e-09 2.261251e-10 -1.706076e-08 1.816838e-08 7.202932e-09 -3.954104e-09
-1.049875e-08 3.759026e-08 -2.052063e-08 -4.416582e-09 3.390800e-10 -3.980052e-09
1.561065e-09 -2.325944e-10 -3.439800e-10 -2.195853e-09 -9.015189e-11 2.700689e-10
3.822167e-09 -8.938737e-10 -2.162936e-10 -5.141493e-09 -3.750343e-11 -4.162457e-10
5.444961e-09 -1.302091e-09 -2.126508e-10 -6.214377e-09 -3.437878e-11 4.046981e-10
-1.886817e-08 1.650950e-08 1.878388e-08 -2.187935e-08 -2.204740e-11 2.184227e-09
6.220118e-10 2.082423e-10 -2.589404e-10 -9.972269e-10 6.133538e-12 1.059924e-11
8.297397e-09 -4.024827e-09 -1.633942e-10 -2.350714e-09 -1.697442e-11 1.496332e-10
7.272259e-09 -3.995682e-09 -1.955147e-10 -2.394089e-09 -5.936385e-11 -1.410012e-10
-1.484599e-08 3.783970e-08 -2.077713e-08 -2.654126e-09 -1.542821e-09 -1.693653e-09
-3.692004e-09 1.321755e-09 7.187513e-10 2.080314e-10 3.427059e-11 -1.057023e-10
7.573505e-09 -2.799138e-09 2.216147e-10 -4.421146e-09 3.902389e-11 -2.749611e-10
-3.474656e-09 1.410243e-09 6.201062e-10 2.662897e-10 -2.035261e-11 -9.921941e-11
5.815008e-09 -2.376585e-09 -4.781451e-10 -3.172278e-09 -1.095944e-10 -2.370677e-10
-1.164201e-08 7.997723e-09 -3.685286e-09 -7.670871e-09 2.111288e-09 3.444954e-09
-3.920517e-09 1.462439e-09 7.942473e-10 2.560201e-10 -8.646084e-12 -5.009249e-11
1.271080e-09 3.616950e-10 1.128987e-09 4.643079e-09 2.757880e-10 -4.646881e-10
-6.465430e-10 -1.820821e-09 -7.692955e-09 -1.196418e-08 -1.301064e-10 -4.437753e-11
-7.521891e-10 3.417705e-09 -1.359346e-08 -1.369461e-08 2.663576e-09 2.272867e-09
-3.966265e-09 1.505784e-09 7.241905e-10 1.181655e-10 1.577858e-10 -1.519429e-10
-4.020647e-09 1.719957e-09 7.084024e-10 7.865708e-11 3.944234e-11 -1.292750e-10
-1.860996e-09 -4.550926e-09 -8.443211e-10 -8.914251e-09 1.246442e-09 2.371145e-10
-2.756238e-09 -4.198283e-09 -5.601713e-09 -1.029870e-08 1.768361e-09 7.613669e-10
-8.851782e-10 6.873830e-09 -2.132691e-09 -1.251504e-09 1.469181e-09 -1.432614e-10
-9.876490e-09 1.278711e-08 -2.291149e-09 2.705575e-09 5.127705e-09 -4.006722e-09
-6.810170e-10 8.885421e-09 -2.969577e-09 -2.827918e-09 1.267310e-09 -4.887189e-10
-4.518279e-09 1.648083e-09 9.294490e-10 -2.153981e-10 -3.176024e-10 -3.505270e-10
-1.768556e-09 -5.349815e-09 1.707630e-09 -4.291344e-09 1.067648e-10 -2.956395e-10
-7.183820e-09 2.451714e-08 -1.493188e-08 1.246371e-08 -2.262565e-09 -2.818788e-09
2.891129e-09 5.912134e-08 -8.571326e-08 3.675980e-09 1.169324e-08 1.390163e-08
-3.731435e-08 1.080714e-08 6.835546e-08 2.248764e-08 2.500823e-08 -8.404716e-09
-3.684665e-08 -3.874101e-08 2.077282e-07 2.277681e-08 2.821552e-08 8.331458e-08
-1.633854e-08 5.014610e-08 -4.953516e-08 -1.455767e-08 1.385505e-08 1.591273e-09
-4.117631e-08 1.433103e-08 1.167664e-07 -2.675996e-08 -6.411305e-08 3.467060e-08
-4.975273e-09 1.134842e-08 -1.823961e-09 -5.189791e-10 2.682850e-09 -1.772282e-09
2.394241e-08 -2.044815e-08 2.138478e-08 7.214697e-09 -5.228961e-10 2.220551e-09
-4.955477e-09 9.867390e-09 9.583839e-09 -2.161585e-08 -3.901352e-09 2.267730e-09
-2.787502e-08 -3.874101e-08 1.194105e-07 9.552189e-09 1.601893e-08 3.957075e-08
-1.516601e-08 1.311465e-08 5.078132e-08 -2.444965e-08 -2.343680e-09 4.850996e-09
-2.652720e-08 2.434260e-08 4.486236e-08 1.962136e-09 1.260143e-09 -3.275213e-09
-6.647784e-08 4.794198e-09 1.148313e-07 3.998371e-09 3.242592e-08 7.964273e-09
-1.561471e-08 3.029602e-08 4.393955e-09 -2.073940e-08 -1.119766e-08 -4.607311e-09
-3.011914e-09 2.591183e-08 -2.260714e-08 2.778246e-09 -3.243518e-09 -6.459221e-09
-7.557803e-08 9.800900e-09 1.879837e-07 2.053562e-08 7.499843e-08 1.291289e-08
3.132189e-08 -2.792893e-09 -4.236879e-09 -3.740051e-09 -7.628888e-10 6.357386e-09
-6.013088e-08 -5.832829e-08 1.882761e-07 -4.957365e-09 -2.990985e-08 5.047358e-08
-2.593610e-08 2.434260e-08 1.167891e-07 -1.073387e-08 -1.748178e-09 -1.227734e-08
-4.991189e-09 7.784982e-10 -3.761365e-09 -1.038655e-08 1.494479e-09 1.396017e-09
-4.182834e-08 -4.087818e-08 1.866408e-07 7.117030e-09 1.092566e-09 1.316886e-08
-4.062233e-09 1.565787e-09 8.150187e-10 -6.997181e-11 6.934897e-12 -6.318923e-11
-3.939020e-09 1.433567e-09 8.176118e-10 3.015710e-10 2.498593e-11 -1.048959e-10
8.016942e-09 -3.488533e-09 1.062227e-09 3.656176e-09 1.789638e-10 -2.895850e-10
-3.460672e-10 2.601551e-09 3.474716e-09 7.063707e-09 -5.244025e-11 -1.262374e-09
-1.192401e-08 1.131337e-08 -3.359847e-09 -2.689763e-09 4.917074e-10 2.251508e-09
3.052520e-09 -1.709865e-09 5.245572e-09 6.840899e-09 1.228336e-10 -1.031848e-09
-6.268477e-09 3.439445e-09 -6.621329e-09 -1.032233e-08 3.003056e-09 1.927693e-09
-1.005171e-08 1.236131e-08 -1.231368e-09 1.467947e-09 -4.274909e-10 7.283771e-10
-8.219323e-09 8.576569e-09 5.051959e-12 -3.857251e-10 -1.158884e-10 -3.475640e-10
-5.157104e-09 4.222281e-09 7.280665e-10 9.078101e-10 2.312763e-10 -5.468146e-10
-3.736040e-09 1.610737e-09 6.566443e-10 1.173985e-10 1.399991e-12 -9.419354e-12
-5.078539e-09 2.993483e-09 8.283503e-10 3.171976e-10 -4.654512e-10 -5.162985e-10
-3.991568e-09 1.972351e-09 6.130527e-10 4.095957e-11 1.329448e-11 -2.363347e-11
-3.879236e-09 1.424494e-09 8.240524e-10 1.713794e-10 2.366263e-11 -1.079448e-11
3.747287e-09 -2.118651e-09 -6.383880e-10 3.704330e-10 -2.232103e-12 -1.000808e-10
3.370626e-09 -2.009062e-09 -5.623839e-10 3.239751e-10 1.144846e-10 -2.879270e-10
-3.365668e-09 6.825260e-09 -1.789626e-09 -8.126757e-09 -4.390713e-11 1.889305e-09
6.653505e-09 -2.669412e-09 6.193161e-09 -9.654341e-09 2.012718e-10 -1.411692e-09
2.736580e-09 9.431270e-10 3.109359e-09 -1.137004e-08 2.018762e-09 -8.568757e-10
-2.549050e-09 2.762021e-09 -5.246341e-10 -4.257073e-09 -1.805251e-10 -4.537679e-10
2.405249e-09 2.209916e-09 7.989307e-10 -9.301153e-09 6.403336e-10 -7.631694e-10
4.651175e-09 -2.571746e-09 -5.519563e-10 5.200337e-10 9.463064e-11 1.419564e-10
4.685287e-09 -2.625524e-09 -6.117462e-10 3.915903e-10 3.392359e-11 3.376494e-10
4.255369e-10 2.338291e-09 -6.412746e-10 -5.967370e-09 6.899126e-11 -4.651213e-11
-2.753085e-09 3.740075e-09 -1.187176e-09 -5.610829e-09 -5.824907e-10 4.508639e-10
4.562956e-09 -2.635572e-09 -6.614504e-10 4.251624e-10 6.080204e-11 -8.787193e-11
4.748278e-09 -2.619277e-09 -6.770375e-10 4.992628e-10 -4.000870e-11 -2.349467e-10
4.326870e-09 -2.123556e-09 -6.535599e-10 6.566980e-10 -7.817869e-11 1.283897e-10
-4.732560e-09 1.558732e-09 8.947434e-10 -2.513225e-10 -2.851053e-11 -3.947207e-10
4.360557e-09 -2.391531e-09 -6.330660e-10 3.524425e-10 -4.053968e-11 -4.346079e-12
2.541761e-09 -1.369476e-09 -4.147154e-10 7.744154e-11 1.162075e-10 -1.432303e-10
2.227964e-09 -1.162400e-09 -2.887357e-10 1.092800e-09 1.199937e-10 -6.906697e-11
3.546190e-09 -4.935137e-09 1.277096e-08 6.743273e-09 3.317594e-10 -2.775901e-09
-1.068719e-08 7.598857e-09 1.720402e-10 -1.972447e-09 3.921334e-10 6.918544e-10
-9.227540e-09 1.017780e-08 -3.413215e-09 -4.899278e-09 8.410068e-10 1.109467e-09
1.822027e-09 -7.558988e-10 -3.162555e-10 1.106451e-09 5.508719e-11 2.265590e-10
-1.275337e-08 1.318996e-08 7.041390e-09 5.628934e-09 -3.182323e-09 6.936733e-10
2.205358e-09 -7.403540e-10 -3.692454e-10 1.184131e-09 2.063610e-11 2.941225e-11
6.385652e-09 -2.940122e-09 1.305211e-09 4.491580e-09 -1.073660e-11 -1.114530e-10
3.242384e-09 -1.702178e-09 -4.894827e-10 1.162273e-09 5.871803e-11 4.870404e-11
2.199853e-09 -1.189314e-09 -2.770912e-10 1.233228e-09 8.259593e-11 -8.564260e-11
5.703565e-09 -7.456282e-09 3.029760e-08 1.935817e-09 -5.775744e-10 -5.836522e-09
-4.512255e-09 1.988814e-09 7.764198e-10 -3.347727e-10 -8.036150e-11 -4.270931e-10
-4.290031e-09 -3.665331e-09 4.871930e-10 3.251325e-09 -2.276667e-09 4.554692e-10
4.384697e-09 -4.817610e-09 1.286024e-08 7.141143e-09 -5.547793e-10 -3.945578e-09
-4.156091e-09 2.289239e-09 4.382605e-10 -1.031240e-09 -1.750979e-10 -2.346796e-10
-3.427297e-09 2.352806e-09 3.219758e-10 -1.204677e-09 -1.885557e-10 -1.903087e-10
-3.272352e-09 2.719809e-09 2.105538e-10 -1.170068e-10 -5.614811e-11 -7.946960e-11
8.950542e-09 -5.733716e-10 8.180145e-09 -1.249311e-08 4.572148e-09 -4.671804e-09
4.330729e-09 -1.177859e-09 8.609900e-09 -1.064229e-08 2.882850e-09 -1.821744e-09
-3.971958e-09 -2.767546e-09 1.519493e-09 9.404593e-10 -6.069210e-10 -3.312328e-10
-3.626065e-09 2.397003e-09 2.751412e-10 -1.286574e-09 -1.258501e-10 -1.587972e-10
-3.013500e-09 2.166328e-09 2.666170e-10 -1.028146e-09 -7.190071e-11 -1.995771e-10
-3.147202e-09 2.537064e-09 1.941403e-10 -3.782388e-10 -4.400924e-11 8.760770e-12
-4.476064e-09 -4.695818e-09 2.840406e-09 2.443816e-09 4.869483e-10 -4.270281e-11
-2.574906e-09 -1.004724e-08 3.598979e-09 2.347540e-09 -1.643996e-11 6.663181e-11
7.711513e-09 -2.096049e-08 7.981162e-10 -2.606241e-09 1.088189e-09 -1.178115e-10
4.232303e-09 -1.729066e-08 3.278866e-09 4.932957e-09 6.128598e-10 1.664304e-10
-1.802739e-09 -9.401855e-09 3.660845e-09 1.910713e-09 1.884470e-10 3.129120e-10
-4.377322e-09 -6.842415e-09 3.179626e-09 2.277784e-09 -3.877592e-10 1.268865e-10
-2.308865e-09 -8.677690e-09 3.146215e-09 3.145211e-09 2.440204e-10 -8.138878e-11
-1.863619e-09 -5.799887e-09 -2.651655e-09 1.055857e-08 2.257132e-09 -9.948575e-10
-4.037057e-09 -6.749069e-09 3.283448e-09 1.401740e-09 3.905035e-11 -6.262679e-11
-2.600880e-09 -8.560656e-09 3.492686e-09 1.654104e-09 3.076783e-10 8.535528e-11
3.630599e-09 -1.707387e-08 3.740440e-09 5.342187e-10 2.480625e-10 2.058187e-10
3.755247e-09 -1.491644e-08 -2.424216e-09 1.008245e-08 2.005692e-09 -2.650851e-10
-3.306172e-09 -8.409591e-09 3.665283e-09 9.347576e-10 1.077989e-10 -1.493783e-10
3.052454e-09 -1.766899e-08 3.577154e-09 4.021974e-09 6.182479e-10 2.372916e-10
2.961318e-09 -1.586859e-08 3.357644e-09 5.413128e-09 1.072528e-09 -3.588950e-11
5.169279e-09 -1.634816e-08 3.299673e-09 -2.259157e-10 1.312261e-10 -1.758185e-10
2.940659e-09 -1.602392e-08 2.681989e-09 5.471169e-09 6.810701e-10 1.282765e-10
7.048266e-09 -2.105715e-08 3.392359e-09 -5.753839e-10 6.914565e-10 -1.622742e-10
4.248645e-09 -1.735001e-08 3.697504e-09 3.123120e-09 -6.454926e-11 3.488982e-10
5.454247e-09 -1.871267e-08 3.419268e-09 4.600674e-09 1.213379e-09 3.656801e-11
5.029681e-09 -1.835941e-09 -1.367868e-10 3.384978e-09 1.167856e-10 3.155658e-10
4.577592e-09 -1.777410e-08 3.627197e-09 4.198107e-09 6.374534e-10 -1.071083e-10
8.208956e-09 -2.104212e-08 2.526833e-09 1.912612e-09 5.805781e-10 -3.496223e-10
7.067576e-09 -3.030684e-09 3.449339e-10 2.766628e-09 -3.765575e-12 -2.898436e-10
8.876092e-09 -1.978601e-08 -1.525265e-09 -4.532047e-09 2.242680e-09 3.887635e-10
9.555979e-09 -2.066530e-08 8.435865e-10 -1.570856e-09 2.819478e-11 2.349849e-10
7.308189e-09 -3.386027e-09 -2.276002e-10 1.944749e-09 -1.246495e-10 -2.980187e-10
8.308268e-09 -2.163777e-08 4.393481e-10 3.429516e-09 2.002841e-09 -1.519367e-10
8.270145e-09 -2.093546e-08 2.173815e-09 -1.434753e-09 7.132095e-10 -1.601468e-10
-1.404162e-09 -6.116296e-09 2.297061e-09 -2.174519e-09 -2.438366e-11 -5.390250e-10
5.786162e-09 -1.921289e-08 3.146355e-09 2.482248e-09 4.909840e-10 -2.394321e-10
7.334481e-09 -1.975636e-08 3.203485e-09 -7.623080e-10 2.572054e-10 -1.846860e-10
6.418715e-09 -1.920530e-08 3.611724e-09 1.014649e-11 7.702483e-11 -5.364537e-11
4.640116e-09 -1.835373e-09 5.920153e-11 3.378564e-09 1.045327e-10 2.759890e-10
5.335238e-09 -2.163061e-09 3.638920e-10 4.078198e-09 8.101142e-11 -6.737054e-12
3.284836e-09 -1.803244e-09 -5.108920e-10 1.219900e-09 3.742168e-11 -4.056938e-11
4.517471e-09 -1.584012e-09 1.007736e-09 4.981757e-09 1.343360e-10 -1.458209e-10
6.134881e-09 -2.890078e-09 -8.260059e-14 3.287473e-09 6.411316e-11 -1.062245e-10
4.961043e-09 -1.826985e-09 7.082379e-11 3.346449e-09 -2.201017e-11 -6.437673e-10
-5.725127e-09 -3.319454e-09 2.479282e-09 2.485190e-09 8.049157e-10 -1.262779e-10
-2.541144e-09 -8.905932e-09 3.348988e-09 2.297014e-09 1.159026e-10 2.620870e-10
4.137628e-09 -2.252556e-09 -6.100880e-10 1.863011e-10 1.603684e-11 -7.671530e-11
5.950518e-09 -3.339858e-09 -7.553513e-10 -1.700742e-10 2.911854e-11 1.567351e-10
-5.953813e-09 -3.897563e-09 1.760479e-09 5.161207e-09 1.220375e-09 -1.557916e-10
-6.817560e-09 -2.494986e-09 2.389143e-09 1.354077e-09 2.801419e-10 2.606565e-10
-5.680077e-09 -3.786477e-09 2.646229e-09 1.040813e-09 5.548797e-10 2.141723e-10
-4.676114e-09 1.895048e-08 -2.250788e-08 -3.394171e-09 -7.811549e-09 -9.396646e-09
-3.166300e-09 7.888233e-09 2.808656e-09 6.995694e-09 -4.512975e-10 -1.060414e-09
-3.414945e-09 8.995971e-09 -1.477907e-08 -5.168280e-09 -3.179549e-09 -3.645205e-09
-3.402956e-09 1.031533e-08 -1.347551e-08 -5.646961e-09 -4.594424e-09 -3.317768e-09
5.035684e-09 -2.599419e-09 -6.358976e-10 8.550677e-10 1.282163e-10 -6.226109e-11
-5.503853e-09 1.156215e-08 -1.655948e-08 -4.297272e-09 -5.572396e-09 -3.771578e-09
-1.539471e-09 3.257313e-09 -1.781264e-08 -7.521781e-09 -7.814549e-09 -3.682161e-09
2.199164e-09 -1.158700e-09 -4.846701e-10 1.232202e-09 1.152665e-10 -9.997636e-11
-6.619406e-10 9.445799e-09 -1.925049e-08 -5.920597e-09 -4.293740e-09 -2.724307e-09
-1.381897e-09 1.416186e-09 -1.899103e-11 -7.566365e-10 -1.566325e-10 1.452732e-11
-1.375830e-09 1.600977e-09 -3.366463e-11 -1.572213e-09 5.012524e-11 3.932921e-11
7.943219e-10 2.085114e-10 -2.986376e-10 -8.120906e-10 -1.038392e-10 -3.908851e-11
-2.493962e-09 2.240202e-09 9.600321e-11 -2.020002e-10 -1.859779e-11 -7.858558e-11
-2.640545e-09 2.261746e-09 8.952417e-11 -4.563474e-10 -5.837264e-11 2.835498e-11
3.142347e-09 -1.591327e-09 -5.881959e-10 -1.086899e-10 -1.085070e-10 -6.195933e-12
5.137535e-09 -2.473966e-09 -7.877263e-10 -1.141193e-09 -8.890877e-11 2.091392e-10
-1.601964e-09 1.747657e-09 -1.246403e-11 -2.416596e-10 -9.116574e-11 1.682179e-10
5.031519e-09 -2.538853e-09 -6.654783e-10 -2.315126e-09 2.522249e-11 -8.810153e-11
5.796995e-09 -3.149941e-09 -7.882670e-10 -8.765324e-10 -1.067453e-10 2.014038e-10
-2.712640e-09 2.228881e-09 1.562666e-10 -2.716036e-10 -2.703326e-11 -1.243716e-11
-2.880348e-09 2.377575e-09 1.627563e-10 -6.404464e-10 -1.082432e-10 -1.306693e-10
3.042867e-09 -8.873408e-10 -4.864555e-10 -1.511784e-09 -2.511014e-10 6.617151e-11
4.662912e-09 -2.244869e-09 -6.320395e-10 -1.079651e-09 -2.158938e-10 9.268153e-11
2.647360e-09 -1.094579e-09 -4.260916e-10 -1.263301e-10 -2.669733e-10 2.141465e-11
3.689141e-09 -1.748998e-09 -5.590866e-10 -1.989387e-09 -1.481707e-10 -2.122329e-10
2.755423e-10 5.599397e-10 -1.948144e-10 -7.683996e-10 -2.439123e-10 2.910006e-11
2.810972e-09 -7.933947e-10 -5.215894e-10 -2.683896e-09 4.486900e-11 -1.935272e-10
2.239487e-09 -7.589405e-10 -4.728049e-10 -2.156173e-09 -2.776310e-10 9.025625e-11
7.392652e-09 -3.294227e-09 -4.671108e-10 -2.068013e-09 -9.519829e-11 -1.355469e-10
1.635863e-09 -2.325944e-10 -4.092711e-10 -2.195328e-09 -9.302736e-11 7.088108e-11
-3.599581e-09 2.747528e-09 3.307048e-10 -1.577850e-10 -2.586220e-11 -9.275392e-11
-3.703397e-09 2.722498e-09 3.272267e-10 -1.655032e-10 -2.798384e-11 -9.170220e-12
-7.245955e-10 1.342207e-09 -5.133316e-11 -1.714322e-09 -7.720602e-11 -2.233924e-11
-2.736714e-09 2.262123e-09 1.548743e-10 -4.999641e-10 -1.447811e-10 -4.979228e-11
-3.275186e-09 2.674482e-09 2.105351e-10 -1.570801e-10 -2.965717e-11 -7.849987e-11
-2.945974e-09 2.473974e-09 9.280021e-11 -3.110617e-10 -1.206978e-10 -9.231149e-11
-2.964977e-09 2.547893e-09 1.633524e-10 -2.373763e-10 -3.811751e-11 -5.478937e-11
-4.056867e-09 2.547930e-09 4.154737e-10 -5.419227e-10 -4.363410e-11 -1.326896e-10
-3.853168e-09 2.713957e-09 3.691740e-10 -2.161684e-10 8.004318e-21 -1.851408e-11
-3.127223e-09 2.496445e-09 1.941132e-10 -3.890173e-10 -1.590350e-11 -1.445359e-10
1.188391e-08 -2.540471e-08 -1.461455e-09 5.563549e-12 -8.267087e-10 -2.826187e-12
1.387117e-08 -8.943196e-09 -2.413741e-08 7.587581e-10 -4.326487e-09 1.271234e-10
-3.256647e-09 -1.908822e-09 1.742953e-09 -2.663940e-10 -1.877876e-10 -6.361645e-11
-3.041499e-09 -2.458288e-09 1.678709e-09 -6.671302e-10 -1.609936e-10 -7.190626e-11
-8.243195e-09 6.879066e-10 2.599077e-10 -1.108388e-09 -6.452225e-10 -2.230116e-10
-3.210604e-09 -1.926177e-09 1.680434e-09 -4.864894e-10 -1.303241e-10 -5.840617e-11
-3.778464e-09 -3.228093e-10 1.339607e-09 -2.941214e-10 1.705107e-10 -1.076028e-11
-3.693358e-09 -8.778898e-10 1.488684e-09 -3.928398e-10 -4.087841e-12 -1.636173e-10
-6.166228e-09 -1.758385e-09 -2.721601e-10 -3.010563e-09 -9.379359e-10 -1.060254e-10
-3.439641e-09 -1.591422e-09 1.666362e-09 -5.070042e-10 1.274936e-11 5.691003e-11
-3.688225e-09 -8.060272e-09 3.682400e-09 3.073808e-10 3.588729e-11 -9.687273e-11
-7.468230e-09 9.431700e-09 -6.457574e-09 -2.056706e-09 -2.573684e-09 -1.439745e-09
-7.728715e-09 5.471653e-09 -3.318078e-09 -1.660066e-09 -7.419616e-10 1.924940e-10
-4.996820e-09 7.187861e-09 -2.988577e-09 1.737061e-10 -3.584005e-09 -8.871511e-10
-6.898037e-10 2.785109e-09 -1.494871e-08 -8.038052e-09 -3.851087e-09 -1.077042e-09
-4.008053e-09 -7.537629e-09 3.571017e-09 4.591740e-10 3.968603e-11 -1.081943e-10
-3.259981e-09 -8.675322e-09 3.743529e-09 2.871614e-10 6.290057e-11 1.302207e-10
-2.872810e-09 -9.755470e-09 3.763364e-09 9.480344e-10 6.369921e-11 -1.336220e-10
-3.240451e-09 -8.353131e-09 3.573565e-09 1.508896e-09 6.183476e-11 -1.124098e-10
2.442953e-08 -8.241301e-09 -2.947173e-09 1.068168e-09 1.003340e-10 3.062883e-10
-3.170340e-09 -8.563347e-09 3.762038e-09 1.809179e-10 4.661427e-11 -8.693141e-11
-3.989432e-09 -3.161302e-10 1.511502e-10 8.439767e-10 -7.575113e-10 1.222565e-10
-4.287704e-09 -7.613373e-09 3.524969e-09 7.429812e-10 -2.927081e-11 3.567413e-11
-3.551351e-09 -8.690339e-09 3.445915e-09 2.100683e-09 3.364826e-10 -3.300448e-10
-2.340547e-09 -1.023009e-08 3.800623e-09 8.887246e-10 -6.145950e-11 6.110667e-12
3.130602e-09 5.769738e-09 -2.138325e-09 -1.566545e-09 1.464453e-09 1.091011e-09
-2.388785e-09 -1.034308e-08 3.758611e-09 9.973200e-10 1.415139e-10 8.868511e-11
-3.329810e-09 -8.921751e-09 3.740364e-09 3.264424e-10 -1.046239e-10 -7.818346e-11
-3.387056e-09 -7.920995e-09 3.740364e-09 6.901544e-10 -1.922769e-10 -1.481731e-10
-2.880701e-09 -8.271003e-09 3.696938e-09 1.232798e-09 3.054326e-10 4.345790e-11
1.885993e-08 -5.832183e-09 -2.262928e-09 -2.649655e-10 2.374358e-10 8.213414e-10
-1.077262e-09 -8.425105e-09 3.396101e-10 -7.729399e-09 -1.692477e-10 3.082252e-10
5.514279e-09 -1.631642e-08 2.494183e-10 -6.736303e-09 1.034420e-09 3.623187e-10
-3.970175e-09 1.787167e-09 6.960819e-10 5.722178e-11 3.552403e-11 -3.062883e-11
-4.066917e-09 9.910330e-10 9.536163e-10 2.828449e-11 -3.279732e-11 -2.065006e-10
-4.050167e-09 1.328210e-09 9.139072e-10 -4.389378e-11 1.201528e-11 -7.215117e-11
-3.920122e-09 9.976855e-10 8.911094e-10 2.346479e-10 8.192924e-11 -1.698574e-10
-3.583368e-09 1.769526e-09 5.471934e-10 3.320637e-10 7.008016e-11 -1.414672e-10
2.843580e-09 -1.303949e-08 1.587828e-09 -5.023165e-09 -5.595533e-10 -3.005071e-10
3.062061e-09 -1.426775e-08 8.112890e-10 -5.798956e-09 5.767908e-10 -4.541930e-11
-4.115488e-09 1.575821e-09 8.196741e-10 1.649583e-10 -2.803368e-21 -8.497203e-12
1.907553e-09 -1.233450e-08 2.106799e-09 -4.223988e-09 2.890965e-10 -1.328900e-10
-3.757238e-09 1.761292e-09 5.501217e-10 2.764740e-10 7.120238e-11 -9.934553e-11
-3.649065e-09 1.880116e-09 5.713519e-10 1.948344e-10 2.865408e-11 -2.093237e-11
-4.041008e-09 1.876206e-09 6.742411e-10 1.193956e-10 1.110225e-15 8.711254e-12
1.197060e-09 -9.845142e-09 2.305284e-09 -4.909665e-09 3.665120e-10 -3.589001e-10
3.718178e-10 -9.269311e-09 1.834192e-09 -5.250647e-09 7.672851e-10 2.815010e-10
1.068005e-09 -1.063702e-08 1.578722e-09 -5.430376e-09 1.065655e-09 3.351101e-10
6.872848e-10 -9.743466e-09 5.083742e-10 -7.356007e-09 1.485478e-09 5.875251e-10
3.087794e-09 -1.380758e-08 7.995038e-10 -5.931374e-09 5.481947e-10 -2.423671e-11
-4.026612e-09 6.976677e-10 1.030807e-09 -1.489950e-10 -2.584244e-11 -3.867662e-11
-6.499441e-10 1.190132e-09 -1.040656e-10 -1.531402e-10 -7.502576e-11 4.515521e-11
-2.389340e-09 2.212113e-09 9.014478e-11 -2.590790e-10 -7.827472e-11 -2.961453e-11
-1.830241e-09 1.876035e-09 1.643841e-11 -9.708314e-10 -4.550649e-11 -5.446354e-11
-3.791132e-09 2.591225e-10 1.035872e-09 -2.874657e-10 2.645928e-11 4.501864e-12
-1.302346e-09 1.409129e-09 -3.342748e-11 -7.374787e-10 -4.135736e-11 -5.037115e-11
-1.309736e-09 1.314399e-09 -5.397660e-11 -1.219433e-10 6.103784e-12 -1.820100e-11
-8.239960e-10 1.196584e-09 -8.533307e-11 -2.948886e-10 -1.584857e-10 2.179340e-10
1.316657e-08 1.603401e-09 2.866855e-08 2.578615e-08 8.919786e-09 1.693933e-08
-8.048436e-09 7.493088e-09 -3.849481e-09 -2.490261e-09 -4.090972e-09 -2.270928e-09
-3.995777e-09 1.697244e-08 -1.373257e-08 3.323085e-09 -1.214530e-09 -3.731104e-10
1.075691e-10 1.937093e-08 -1.546210e-08 1.018798e-08 -5.856565e-10 -5.543253e-09
4.267318e-09 1.513289e-08 -9.710088e-09 1.141227e-08 -9.464600e-10 -2.360690e-09
5.330886e-09 1.083139e-08 -6.216134e-09 1.168674e-08 -2.129093e-10 -2.784510e-10
-8.164877e-09 5.915890e-11 7.721128e-10 -4.506457e-10 2.380336e-10 2.912559e-12
-6.946390e-09 2.299815e-09 -3.163604e-09 -3.689676e-09 -4.475220e-10 -3.379879e-10
-3.267209e-09 -8.064875e-09 3.317883e-09 2.458900e-09 4.402530e-10 1.606892e-11
-4.240421e-09 -6.456787e-09 3.063506e-09 1.596570e-09 7.912471e-11 1.575615e-10
1.324555e-08 -1.680047e-09 1.106015e-08 2.164146e-08 6.740497e-09 1.122807e-09
1.341617e-08 3.224420e-10 4.719600e-09 1.571369e-08 -4.006781e-10 1.031523e-09
3.967608e-09 1.149672e-08 -6.013922e-09 1.248746e-08 8.429778e-11 -2.935022e-09
-4.095709e-09 1.491816e-09 7.975831e-10 1.291224e-10 2.562173e-12 -1.246076e-10
-1.651106e-09 -1.067782e-08 3.812527e-09 6.524945e-10 -2.130753e-10 1.530251e-10
-3.010183e-09 -7.081827e-09 2.901067e-09 4.669073e-09 6.152274e-10 1.653796e-10
-3.193911e-09 -8.546388e-09 3.577406e-09 7.449739e-10 1.772729e-10 2.659117e-11
-3.082953e-09 -8.867463e-09 3.601713e-09 1.636137e-09 -1.486168e-10 2.176315e-10
-3.410686e-09 -8.818356e-09 3.834413e-09 1.017294e-09 -1.448881e-10 4.414430e-11
-3.985723e-09 1.407679e-09 8.260397e-10 2.193079e-11 9.833246e-13 -2.402067e-11
-4.099786e-09 1.603223e-09 7.981900e-10 8.953625e-11 9.778278e-11 -9.259721e-11
1.464185e-09 -1.398385e-08 3.614975e-09 2.459851e-09 -1.263632e-10 2.712828e-10
-4.081470e-09 1.756955e-09 7.279248e-10 -2.601874e-11 -2.398082e-13 -1.143123e-10
-3.224386e-09 -3.729074e-09 8.550427e-10 -6.172333e-09 1.170692e-10 4.739323e-12
-4.134275e-09 1.912143e-09 6.787217e-10 6.774092e-11 1.231237e-13 -1.028544e-10
-3.764472e-09 1.942909e-09 5.890661e-10 4.284895e-11 2.677369e-11 -9.105350e-11
-4.082517e-09 1.522011e-09 7.211254e-10 2.613316e-10 4.441292e-11 -1.446070e-10
-1.499655e-09 9.776473e-10 3.232965e-10 1.538810e-09 -2.069467e-11 1.985301e-12
-4.040706e-09 1.278023e-09 9.042425e-10 7.525979e-12 -6.760359e-11 -9.877521e-11
-4.174353e-09 1.590807e-09 7.866998e-10 5.612222e-11 1.322720e-12 -1.476010e-10
-3.867632e-09 1.296917e-09 8.883632e-10 2.601981e-10 -2.887002e-11 -1.459557e-10
-3.875430e-09 1.042295e-09 9.616636e-10 -8.378565e-11 -1.058195e-10 -9.062703e-11
-4.100608e-09 1.694947e-09 7.741421e-10 2.346385e-10 5.618905e-11 -5.053735e-11
-3.947275e-09 3.147358e-10 1.187896e-09 1.799136e-10 -4.440808e-16 2.329648e-11
1.053995e-08 1.556126e-09 -5.126191e-09 6.009039e-09 -4.008253e-10 -9.074616e-10
1.007362e-08 1.010853e-09 -3.658230e-09 1.812753e-09 -1.000493e-09 1.306918e-09
4.260915e-09 5.593738e-09 -5.201462e-09 2.971345e-09 -1.149265e-09 -9.002841e-10
-3.147267e-10 -1.137970e-08 3.642027e-09 1.544188e-09 2.468274e-10 3.615263e-10
1.595279e-09 -1.097629e-08 2.895756e-09 -1.390294e-10 1.789013e-12 -2.639058e-10
2.560639e-09 -1.624557e-08 3.676042e-09 1.782962e-09 3.255238e-10 8.469592e-11
6.630024e-09 -2.064163e-08 3.459256e-09 1.680295e-09 6.338125e-10 -7.681466e-12
-3.912817e-09 1.311541e-09 8.285630e-10 -2.164757e-11 -2.604805e-11 -5.184742e-12
-4.517782e-10 -1.209038e-08 3.362536e-09 4.347528e-09 8.517513e-10 -1.245528e-10
1.934353e-09 -1.541943e-08 3.215948e-09 3.399522e-09 3.581552e-10 2.124545e-10
1.127942e-09 -1.338424e-08 3.515032e-09 4.055425e-09 -1.047153e-10 4.745115e-10
2.315639e-08 -5.536939e-09 -3.607644e-09 5.064992e-09 3.779992e-10 1.600377e-09
1.283334e-08 3.067365e-09 -3.781044e-09 9.036455e-09 -1.539477e-09 -2.483168e-09
2.956785e-08 -1.206312e-08 4.868435e-10 4.178637e-10 -6.435519e-12 3.030394e-10
1.941391e-08 -2.959467e-09 -3.827331e-09 2.430034e-09 -5.317671e-10 -6.794573e-10
2.682699e-08 -4.710031e-09 -4.206625e-09 1.281426e-08 1.964948e-09 4.268168e-09
2.256183e-08 -5.950859e-09 -4.030249e-09 8.784600e-09 3.844985e-10 3.699473e-09
3.260845e-08 -4.201679e-09 1.655242e-09 1.486192e-08 5.202760e-09 1.127627e-08
2.607271e-08 -1.341030e-08 2.989038e-09 -3.159744e-09 -3.898717e-10 9.515691e-10
8.477715e-09 1.451652e-09 -1.888723e-09 -4.807171e-09 7.444832e-10 -3.066488e-10
2.639018e-08 -9.683615e-09 -2.504144e-09 1.096568e-09 3.209489e-10 -2.451368e-10
3.010881e-08 -5.176960e-09 -7.029947e-09 8.063438e-10 -1.465172e-10 2.118395e-09
2.870750e-08 -9.718966e-10 -6.272853e-09 7.973828e-09 -2.900646e-11 3.702263e-09
4.034272e-09 -1.381310e-08 7.921073e-10 -5.709865e-09 5.414789e-10 1.577644e-10
8.888318e-09 -1.950819e-08 -2.461711e-10 -4.311178e-09 1.021243e-09 2.352242e-10
4.916289e-09 -1.698421e-08 1.848962e-09 -4.784239e-09 3.180464e-10 -5.308779e-11
7.483312e-09 -1.982755e-08 -9.052625e-11 -4.991892e-09 9.238090e-10 -6.476908e-11
7.665119e-09 -1.881403e-08 8.041177e-10 -4.234746e-09 -1.966964e-10 1.123150e-10
5.828067e-09 -1.736045e-08 1.767921e-09 -4.007225e-09 8.674936e-10 1.595041e-10
-1.780990e-09 1.693637e-08 -1.149945e-08 4.322032e-09 -2.054570e-09 -2.629044e-09
-5.109252e-09 7.955914e-09 -4.300557e-09 -1.002784e-09 -2.783966e-09 -6.066680e-10
6.129142e-09 2.047394e-09 -4.008191e-09 -3.959340e-10 -1.067763e-09 -3.005147e-10
7.771561e-12 -1.188934e-08 3.732726e-09 6.752443e-10 -1.170366e-10 9.189627e-11
4.564765e-09 -2.630506e-09 -6.166792e-10 4.969247e-10 1.021719e-10 -4.717382e-11
1.092150e-09 -1.354493e-08 3.701256e-09 6.935874e-10 4.019731e-10 4.312573e-11
-3.086935e-10 -1.302459e-08 3.748447e-09 1.517980e-09 1.091816e-10 6.106049e-11
-1.862237e-09 -1.005267e-08 3.827999e-09 3.692744e-10 1.925260e-11 2.028704e-10
2.705331e-08 -1.017446e-08 -7.749632e-10 1.443561e-09 5.790173e-10 4.783327e-10
2.871520e-08 -1.023194e-08 -9.868182e-10 2.860086e-09 4.422409e-10 3.061146e-09
2.409401e-08 -4.866464e-09 9.903891e-10 8.663005e-09 3.275352e-09 2.473990e-09
-1.757142e-09 -9.588339e-09 3.431615e-09 1.893825e-09 -3.140232e-10 1.469851e-10
-1.553259e-09 -1.120003e-08 3.352230e-09 2.345491e-09 4.935166e-12 1.474626e-12
-4.230648e-09 1.109204e-08 -9.194851e-09 1.153141e-09 -1.701260e-10 5.719922e-10
-1.443095e-09 -1.035266e-08 3.747271e-09 7.719727e-10 -1.458388e-12 8.717371e-11
1.936518e-09 9.221311e-09 -6.911823e-09 6.218609e-09 -2.315059e-10 6.384515e-10
-1.560396e-09 -1.136979e-08 3.539050e-09 2.062630e-09 3.045204e-10 -1.811631e-10
1.051308e-08 3.067366e-09 -6.977300e-09 1.013630e-08 -2.527004e-09 -2.453169e-09
2.333029e-09 -1.550142e-08 9.768915e-10 6.022447e-09 -4.864578e-09 8.159196e-10
4.735224e-09 -2.620590e-09 -6.001866e-10 5.564765e-10 5.807060e-11 -1.286526e-10
-7.358696e-08 -4.373841e-08 2.304407e-07 -2.360673e-10 1.179201e-08 5.219628e-09
5.433402e-09 -2.960685e-09 -7.737726e-10 -4.767302e-10 -3.662792e-11 5.832002e-11
-7.086293e-08 -4.326620e-08 1.878675e-07 1.980452e-09 3.318280e-09 2.793527e-09
-1.026758e-07 -4.498006e-08 2.581838e-07 -7.704778e-09 1.642862e-08 6.397206e-09
-4.773338e-09 9.846630e-10 9.338552e-10 7.679702e-11 -5.034306e-11 -4.549117e-11
-4.695656e-09 1.229969e-10 8.001306e-10 -1.340019e-10 -2.827211e-10 -2.250304e-10
-3.885009e-08 -4.690998e-10 8.988921e-08 -1.270418e-08 5.033103e-09 -6.169573e-10
-4.468643e-09 -1.643805e-10 9.636234e-10 3.179947e-10 -2.445926e-10 5.321799e-11
-4.929401e-09 3.166720e-10 9.059495e-10 -5.511613e-11 1.900908e-10 -1.268534e-10
9.696279e-09 -2.038265e-08 -3.028114e-09 8.965292e-10 1.874312e-10 -3.697763e-10
6.714479e-09 -2.025922e-08 -1.894169e-10 2.163998e-09 -2.512347e-09 5.935041e-10
9.731570e-09 -2.300403e-08 -9.358546e-10 3.075080e-09 -4.433654e-09 7.429456e-10
-4.888578e-09 5.416263e-10 8.018834e-10 1.759719e-10 -1.832499e-10 -2.548988e-10
-5.063294e-09 1.089815e-09 6.174909e-10 1.970180e-10 -5.996242e-11 -6.307371e-12
-4.207639e-09 -4.492531e-10 1.309099e-09 -3.264058e-10 2.098089e-10 -6.814979e-10
1.180611e-08 -2.282939e-08 -3.649984e-09 1.585134e-10 -1.885587e-10 -3.815542e-10
1.015323e-08 2.510963e-09 -5.171630e-09 2.475125e-09 -5.039791e-10 -1.396505e-09
1.250546e-08 -1.907795e-08 -9.093850e-09 3.775118e-09 -5.038078e-09 1.058352e-09
3.213489e-09 -1.076060e-08 -4.720004e-09 5.978882e-09 -3.407230e-09 1.391130e-09
5.745054e-09 -1.601299e-08 -1.161262e-09 2.991660e-10 -2.696474e-10 1.497844e-10
6.499703e-09 8.025476e-09 -5.930365e-09 8.234992e-09 -7.942860e-10 -8.375478e-10
-4.592855e-09 -9.761170e-11 -1.963062e-09 2.190490e-09 -6.185212e-10 3.315033e-10
3.599729e-09 6.765678e-09 -5.378799e-09 3.594010e-09 -8.225718e-10 -2.107006e-10
9.088241e-09 -1.855848e-08 -3.868382e-09 2.039891e-09 -6.382557e-10 1.530652e-10
1.250546e-08 -1.973879e-08 -8.562628e-09 3.831096e-09 -9.893955e-09 1.884057e-09
7.443772e-09 -1.893846e-08 -1.997105e-09 2.898844e-09 -2.889700e-09 4.784470e-10
1.796419e-09 -8.105099e-10 -3.759016e-10 -5.974556e-10 -1.077043e-10 5.882916e-11
5.858851e-10 3.537481e-11 -1.923834e-10 -1.328905e-09 -2.103908e-10 1.294017e-10
8.356582e-09 1.714465e-09 -5.013695e-09 5.974147e-09 2.751388e-11 5.122179e-10
-3.836552e-09 7.997660e-10 1.031204e-09 -2.773471e-11 -2.112566e-11 -3.046621e-10
-3.337762e-09 2.695539e-09 2.133071e-10 -3.953682e-11 3.584155e-11 -1.160938e-11
-6.253789e-10 1.297376e-09 -1.165712e-10 -3.978875e-10 -9.309220e-11 1.775033e-10
-3.156930e-09 1.142510e-09 7.706478e-10 7.069008e-10 2.976808e-11 -4.987299e-11
-3.864420e-09 1.012000e-09 1.020359e-09 -1.238105e-10 1.296150e-10 8.011880e-11
7.943335e-10 4.822009e-11 -2.777378e-10 -4.065805e-10 -4.899015e-11 -8.591572e-12
-3.626290e-09 1.102295e-09 9.291776e-10 1.357321e-10 1.641689e-10 -2.910848e-11
1.406333e-09 -2.325944e-10 -4.246679e-10 -2.285937e-09 -1.967511e-10 1.444240e-10
6.026868e-10 -1.297702e-08 3.569966e-09 9.325616e-10 -1.547706e-10 -1.499015e-10
-3.941344e-09 2.359947e-09 2.136060e-10 -2.001416e-09 -2.829992e-10 -1.866733e-10
2.901475e-09 -1.562933e-08 2.827399e-09 4.826243e-09 7.247387e-10 -1.108251e-10
5.613201e-10 -1.293854e-08 3.611531e-09 9.506219e-10 1.255548e-10 2.974675e-10
-3.502244e-09 1.615927e-09 5.607141e-10 4.287295e-10 3.610756e-11 -2.229825e-10
-4.012726e-09 1.059716e-09 8.581216e-10 2.619975e-10 1.190088e-10 -1.723230e-10
-2.199968e-09 1.248393e-09 2.415854e-10 5.360967e-10 -4.564349e-11 -9.699796e-12
2.455256e-09 -1.562218e-08 3.657824e-09 1.860428e-09 1.013638e-10 9.897949e-11
-2.536574e-09 1.436935e-09 4.181300e-10 7.096220e-10 8.211695e-12 -3.268852e-11
-3.021741e-09 1.533147e-09 5.912515e-10 9.534906e-10 1.899827e-10 1.808944e-10
3.143328e-09 -1.655667e-08 3.869555e-09 1.292858e-09 -4.788119e-10 1.246456e-10
-3.693037e-09 -2.816222e-09 1.411641e-09 5.327281e-10 -1.628103e-10 -4.987950e-10
-1.067885e-09 5.037373e-10 9.293011e-11 8.581673e-10 1.221681e-10 4.086570e-11
3.180576e-09 -1.665235e-08 3.889596e-09 1.356352e-09 -7.828454e-11 2.258548e-10
-3.935107e-09 3.222702e-10 1.143499e-09 -3.012264e-10 -2.332867e-11 2.628564e-11
-3.627291e-09 5.494734e-10 8.946683e-10 -5.925483e-11 -1.221043e-10 -2.178779e-10
-3.844004e-09 -7.922552e-12 1.321220e-09 -2.266654e-11 -3.550071e-11 2.584333e-11
-3.486306e-09 -1.043320e-09 1.446123e-09 -7.534400e-10 1.749263e-10 -1.465246e-10
-2.141296e-09 1.221137e-09 4.638379e-10 1.364785e-09 -6.595791e-11 1.043388e-12
3.006023e-09 -1.228155e-08 2.285984e-09 -4.473727e-09 1.055895e-09 -1.716565e-10
-3.311407e-09 -1.049797e-09 1.617841e-09 -7.798620e-10 2.190057e-10 -3.318701e-10
-2.933926e-09 -3.107486e-09 1.925415e-09 -1.333566e-09 5.188472e-11 -2.407038e-10
-2.762301e-09 -1.886778e-09 1.914301e-09 -3.535167e-10 -2.269327e-10 -3.856140e-10
-1.067604e-08 2.426483e-08 -1.713528e-08 -4.667718e-10 2.167600e-09 3.225743e-09
-1.117057e-08 1.920275e-08 -1.836882e-08 6.104262e-10 8.074300e-09 1.468617e-09
-1.452059e-08 2.138993e-08 -1.724859e-08 -4.374603e-09 3.492000e-09 4.172186e-09
1.105149e-08 3.410724e-09 -3.668012e-09 1.128230e-08 1.809943e-09 -3.376758e-11
9.549998e-09 1.149672e-08 -1.001393e-08 1.284032e-08 -2.861811e-10 -3.960772e-09
2.630343e-08 -1.130330e-08 3.353479e-09 -6.315600e-09 -3.223336e-10 1.340939e-09
-5.845869e-09 9.202178e-09 -1.699716e-08 1.261191e-08 8.379874e-09 -3.685202e-09
-9.625832e-09 8.336176e-09 -4.710208e-09 4.892637e-09 -9.750467e-11 -6.940937e-11
-6.608713e-09 -1.388743e-09 -8.737144e-11 7.000372e-09 -2.961080e-10 4.809408e-10
-5.563230e-09 8.238089e-09 -2.825243e-09 -6.446801e-10 6.925123e-10 -4.929139e-10
-6.558876e-09 7.252003e-09 -2.128450e-09 1.380383e-09 7.003927e-10 -2.165588e-10
-2.847196e-10 -2.311924e-09 -1.561928e-08 2.004031e-08 1.058227e-08 -5.841607e-09
-6.331893e-09 1.248865e-09 -4.348214e-09 1.171909e-08 2.762530e-09 -1.415948e-09
-9.623442e-09 1.174608e-08 -5.674141e-09 3.938777e-09 1.227348e-09 -7.479330e-10
-7.444548e-09 9.202178e-09 -1.264387e-08 1.340549e-08 7.671858e-09 -5.411752e-09
4.064830e-09 3.594120e-08 -6.503931e-08 9.591424e-09 2.710314e-08 -1.812036e-08
2.103157e-08 -3.775407e-09 -3.932692e-09 -5.360629e-09 6.680069e-10 1.407327e-09
6.631673e-09 3.067365e-09 -4.634542e-09 7.902272e-09 -7.692662e-10 -2.415008e-09
1.320550e-09 1.139490e-08 -8.639640e-09 5.981713e-09 -2.214093e-09 -3.583850e-09
-2.732383e-10 1.167359e-08 -8.267317e-09 6.833821e-09 -4.821641e-10 -1.231387e-09
-3.026323e-09 1.284588e-09 6.553864e-10 1.001674e-09 -1.969708e-11 -1.601078e-10
-2.708990e-09 -3.613682e-09 1.997907e-09 1.027237e-10 2.901013e-12 -1.493122e-10
6.830350e-10 1.512350e-08 -9.385829e-09 1.160709e-08 -2.967394e-10 -1.360794e-09
1.231653e-08 6.181930e-09 3.628928e-09 1.639957e-08 1.846916e-09 5.222943e-09
-5.634710e-10 1.167141e-08 -8.542111e-09 6.859822e-09 -5.067467e-10 -9.322694e-10
-3.840542e-09 -4.629293e-10 1.478771e-09 -6.055581e-10 1.759088e-10 -8.542066e-13
6.073720e-09 -1.862003e-08 3.550298e-09 -1.232835e-09 -1.111169e-10 -2.892345e-10
-3.223094e-09 -2.875762e-09 1.471573e-09 -2.231990e-10 -1.781482e-10 -6.727824e-10
-3.609188e-09 1.381919e-09 7.157306e-10 2.611122e-10 2.398104e-11 -2.545139e-11
-3.851577e-09 7.538148e-11 1.218879e-09 -4.457654e-10 -4.051248e-11 3.206857e-11
6.107735e-09 -1.899013e-08 3.195299e-09 -1.273319e-09 3.604426e-10 6.435608e-11
2.832619e-08 -8.844253e-10 -5.340761e-09 7.696828e-09 -5.112582e-10 3.755318e-09
3.144625e-08 -1.620874e-08 2.113825e-08 -8.777691e-10 -3.819722e-10 2.005735e-09
2.420523e-08 -6.974189e-09 -3.307269e-09 -2.078408e-10 1.393120e-09 1.052330e-09
1.321151e-08 1.544352e-09 2.055690e-08 -2.203226e-08 -6.169139e-09 9.302314e-09
-3.451694e-09 1.937093e-08 -1.239042e-08 1.099509e-08 -1.340596e-09 -5.520607e-09
5.055132e-09 -1.679304e-08 3.323650e-09 -7.212227e-10 3.988034e-10 3.361739e-11
5.562806e-09 -1.748047e-08 3.409639e-09 -6.022345e-10 -2.574683e-10 -6.225648e-11
-4.164348e-09 4.614220e-10 1.201052e-09 -1.100866e-09 2.214435e-10 3.641243e-11
-9.446451e-09 4.413766e-08 -2.809797e-08 4.248276e-09 -6.725528e-09 -3.521366e-09
-3.981974e-09 3.222427e-10 1.281546e-09 -1.020272e-09 3.226992e-10 1.656851e-10
1.484048e-10 2.026679e-08 -1.898452e-09 1.795543e-08 9.285949e-10 2.803846e-10
-2.995942e-09 2.632412e-08 -2.771605e-08 -2.704370e-09 -7.999050e-09 -8.369460e-09
-9.999890e-12 3.424423e-08 -4.925200e-08 -9.303418e-09 -1.199321e-08 -1.878460e-10
-4.167627e-09 1.108244e-09 1.147918e-09 -6.423086e-10 4.864642e-11 -2.666610e-10
-4.182601e-09 1.075828e-09 9.997416e-10 -5.941837e-10 3.834653e-10 2.963236e-11
5.977711e-09 -1.197031e-08 -1.082507e-08 -5.605380e-09 -2.341304e-09 2.090116e-10
5.977711e-09 -1.468071e-08 -3.488713e-09 -4.740414e-09 -1.700013e-09 1.171325e-10
4.015448e-09 -2.041242e-08 2.389583e-09 -4.396518e-09 -3.398128e-09 2.597411e-11
-1.958869e-09 3.280617e-08 -2.825961e-08 5.355659e-09 -4.822556e-09 -4.207949e-09
7.019895e-09 -1.725290e-08 -1.565595e-09 -2.750559e-09 -8.601572e-10 -1.041742e-09
-3.385646e-09 8.656849e-10 8.082837e-10 2.564364e-10 -2.112688e-11 -2.012945e-11
2.433973e-09 1.033078e-08 -2.853645e-08 -8.927668e-09 -1.240862e-08 -5.997797e-09
-3.659323e-09 1.370425e-09 8.142362e-10 3.172505e-10 2.735461e-10 3.710195e-11
-4.122711e-09 7.727170e-10 1.082290e-09 -3.412087e-10 -2.113363e-10 -2.402354e-10
-6.303637e-09 8.352623e-09 -1.115797e-08 -7.117736e-09 -4.708990e-09 -3.474651e-09
-2.502275e-09 8.073874e-09 -1.962250e-08 -7.767581e-09 -8.881184e-09 -5.040395e-09
7.880232e-10 1.665300e-08 -3.122252e-08 -4.421124e-09 -6.332906e-09 -3.993736e-09
-1.053567e-09 -6.229023e-09 -1.444267e-10 1.352367e-09 -2.231024e-10 1.162598e-10
1.356040e-09 1.011822e-08 -2.608205e-08 2.639931e-09 -4.202340e-09 2.526176e-09
7.461729e-09 -3.212710e-09 -1.955138e-10 -2.780475e-09 -7.252554e-11 -1.350238e-10
3.327214e-09 -1.089319e-09 -5.158101e-10 -3.573141e-09 -2.044795e-10 2.947951e-10
-4.760777e-09 3.406773e-09 -1.157921e-09 -2.204440e-09 -1.750096e-10 2.202576e-10
4.890601e-09 -2.122145e-09 -6.108660e-10 -3.556920e-09 -1.197109e-11 2.557523e-10
-5.018276e-09 3.815199e-09 -2.545684e-09 -1.098061e-09 -4.171703e-10 4.607207e-10
-1.783678e-09 8.596143e-09 -3.989729e-09 -8.436044e-09 -8.305679e-10 1.979364e-09
4.501102e-09 -1.587674e-09 -3.876570e-10 -4.376869e-09 -1.660643e-10 3.754919e-10
4.364237e-09 -1.586635e-09 -5.227218e-10 -4.254299e-09 -5.582907e-11 2.388663e-10
6.753761e-09 -2.799138e-09 -2.834475e-10 -4.267462e-09 -9.212276e-11 3.707332e-10
-4.088381e-09 6.187113e-09 -3.266689e-09 -4.275260e-09 -1.294422e-09 1.805714e-09
-3.963103e-09 5.240435e-09 -2.396042e-09 -4.787495e-09 -5.995194e-12 -6.158399e-10
-3.786216e-09 3.625759e-09 -1.194919e-09 -3.967333e-09 -4.814846e-10 -1.814042e-10
-3.963103e-09 4.519840e-09 -2.155153e-09 -3.618762e-09 -1.215834e-10 2.728946e-10
7.090551e-09 -3.118346e-09 -2.176850e-10 -3.438848e-09 4.192202e-11 -7.049183e-10
-2.640544e-09 3.306539e-09 -9.859003e-10 -4.169802e-09 2.885070e-11 1.154068e-10
3.064335e-09 -6.267609e-10 -4.559100e-10 -4.061656e-09 6.060099e-11 -2.330727e-10
4.246550e-09 -1.106614e-09 -5.594591e-10 -4.977045e-09 -1.295744e-10 3.506544e-10
-1.065932e-09 9.344685e-10 1.312808e-10 1.669094e-09 2.698530e-11 -2.624541e-10
-5.591376e-09 5.319783e-09 -3.591146e-09 -8.534473e-10 -1.478093e-09 2.167542e-09
-5.694947e-10 4.757101e-10 1.004881e-10 1.977062e-09 1.095306e-10 -2.799494e-11
-9.101151e-10 8.415606e-10 1.584479e-10 2.156908e-09 -5.094336e-11 -1.799052e-10
4.837863e-10 2.070664e-10 -2.727041e-12 1.828578e-09 1.371681e-11 -7.663004e-11
4.336496e-10 2.189839e-10 1.352740e-11 1.829392e-09 1.241110e-10 1.556684e-10
-2.866110e-09 2.054525e-09 -8.748790e-09 3.347440e-09 -1.609710e-09 1.158298e-09
-4.158772e-09 1.502096e-08 -1.954367e-08 3.994809e-11 -5.311665e-09 8.301309e-09
-2.643972e-09 3.077378e-09 -8.748788e-09 2.335563e-09 -1.706511e-09 1.169590e-09
-1.876755e-09 2.375089e-08 -5.847145e-09 -2.155794e-08 6.137792e-09 2.772683e-09
-5.512391e-09 1.405523e-08 -9.362035e-09 -7.870275e-09 -1.929587e-09 6.285596e-09
-1.061093e-08 4.356999e-08 -2.881266e-08 -1.115055e-08 -8.515000e-09 4.400667e-09
-5.206899e-09 1.072595e-08 -1.310848e-08 -1.044981e-10 -1.429662e-09 2.831597e-09
1.355959e-09 1.569239e-08 -3.445444e-08 -1.910358e-10 -3.436875e-09 5.040103e-09
3.562501e-10 2.100298e-10 1.676881e-12 1.828589e-09 2.068545e-11 -3.751532e-11
6.886124e-09 -1.304748e-09 -1.969660e-08 -1.001460e-08 -8.477988e-09 -3.919574e-09
2.864756e-09 2.604144e-09 -1.647547e-08 -8.049010e-09 -3.325390e-09 -1.009746e-09
4.551590e-09 -1.836933e-09 3.450147e-10 3.353664e-09 1.188136e-10 1.452181e-10
6.369584e-09 -3.331748e-09 -3.378462e-10 1.820112e-09 1.329588e-10 -1.277635e-10
1.433284e-09 -4.753377e-09 -1.082257e-08 -1.034281e-08 -5.725358e-09 -3.378313e-09
-1.268059e-09 -2.265493e-09 -6.622890e-09 -6.722714e-09 -4.662065e-09 -3.652042e-10
8.071678e-09 -4.458272e-09 -1.996758e-10 -3.438013e-10 1.013363e-10 -1.783600e-10
8.976130e-09 -3.917930e-09 4.070388e-10 1.783454e-09 -1.110629e-10 -3.951710e-10
-2.103203e-09 2.213119e-09 -8.902490e-09 -7.222940e-09 -2.137153e-09 -1.726323e-09
5.444198e-09 -2.899967e-09 -1.639870e-10 2.253481e-09 7.006845e-11 4.753570e-11
1.292416e-10 -2.275665e-09 -1.110572e-08 -8.199832e-09 -5.478869e-09 -2.179481e-09
5.484490e-09 -2.899788e-09 -2.263265e-10 2.256778e-09 3.701538e-12 -4.650155e-10
4.172037e-09 2.170152e-09 -2.864504e-08 -9.260894e-09 -9.037141e-09 -2.732337e-09
7.687156e-09 -3.924176e-09 -5.417613e-10 2.722658e-10 1.086551e-10 1.078995e-10
1.969056e-09 1.067065e-09 1.446742e-09 6.031977e-09 -3.046987e-10 -6.286891e-10
-2.825747e-10 1.138447e-09 -1.266730e-08 -6.850532e-09 -5.200841e-09 -2.172680e-09
-8.646529e-09 -1.387512e-11 1.107089e-09 -8.818066e-10 -7.563183e-10 3.449829e-11
7.671764e-09 -3.859245e-09 -3.884852e-10 2.453858e-10 2.119738e-11 -3.836989e-10
-8.926210e-09 1.144562e-09 1.173514e-09 -1.213989e-10 -3.040168e-11 3.319367e-11
-5.474784e-09 3.817777e-09 7.146523e-10 -4.639270e-10 1.172320e-10 -2.956062e-10
-2.982090e-09 1.280591e-09 6.133933e-10 8.870369e-10 3.904677e-11 -2.273199e-10
-8.193585e-09 2.050902e-09 3.245604e-10 -1.507008e-09 -5.347220e-10 -3.511877e-10
-7.897519e-09 -5.280958e-10 4.715810e-10 -4.900809e-10 -2.192682e-10 9.469958e-11
-8.197491e-09 7.782734e-10 7.936096e-10 -1.043135e-09 -3.689731e-10 -2.572608e-12
-8.893105e-09 8.987282e-10 7.936105e-10 -2.339763e-10 -6.833381e-11 -1.279079e-10
-4.985971e-09 1.444482e-09 9.852652e-10 -5.722450e-10 -1.721525e-10 -3.235561e-10
-4.257985e-09 2.517186e-10 7.767689e-10 -3.273768e-09 3.797762e-10 2.560967e-10
-4.843788e-09 7.266472e-10 9.069621e-10 1.549561e-11 -4.690996e-10 -2.470475e-10
-4.270664e-09 -1.195979e-09 1.235853e-09 2.479247e-10 -1.526889e-10 -2.872631e-10
-6.432813e-09 1.635895e-09 6.329532e-10 -3.228173e-09 2.409558e-10 -1.819296e-10
-6.256832e-09 1.146382e-09 -6.350944e-09 -1.000041e-08 2.012732e-09 2.265915e-09
-8.394136e-09 4.195743e-09 -3.558923e-09 -7.027770e-09 3.318832e-10 6.999675e-10
-4.822799e-09 4.560619e-10 1.033591e-09 2.917271e-10 2.748566e-10 -2.843537e-10
-3.231905e-09 1.905234e-09 6.770891e-10 1.593387e-09 1.365803e-10 5.254241e-12
-5.239435e-09 -6.207923e-11 1.162097e-09 -2.956587e-09 4.441112e-12 -3.296379e-10
-8.248591e-09 3.896785e-09 1.410534e-10 -3.229488e-09 5.833859e-10 1.283402e-10
-1.295203e-08 1.602317e-08 -1.925413e-09 1.623461e-10 -6.218553e-10 1.550501e-09
-4.301311e-09 5.637446e-10 -4.679022e-10 -5.563658e-09 6.743983e-10 5.501061e-10
-5.107475e-09 3.721444e-09 -4.238297e-09 1.146833e-09 -1.834632e-09 1.332752e-09
-4.309328e-09 -1.214174e-09 1.112442e-09 1.477622e-10 4.173759e-10 -1.647682e-10
-4.393093e-09 4.948039e-09 -7.103031e-09 1.018959e-09 -1.416155e-09 2.586659e-10
-8.732216e-09 4.882460e-09 -9.699939e-10 1.224534e-09 8.818464e-10 7.791323e-12
-3.288400e-09 8.759424e-09 -1.400576e-08 2.568824e-09 -4.471455e-09 3.027415e-09
-7.992486e-09 2.464505e-09 -1.141914e-09 5.066735e-09 8.645267e-10 -1.000797e-10
-3.398590e-09 7.336974e-09 -8.363355e-09 2.970045e-09 -3.068299e-09 4.068259e-09
-5.109494e-09 4.491642e-09 -3.395444e-09 -1.380223e-09 -2.309992e-10 -3.784857e-10
-2.594005e-09 4.452130e-09 -1.705653e-09 -5.235005e-09 -5.416885e-10 6.546092e-10
-7.664008e-09 1.489858e-09 7.180012e-10 4.542496e-09 1.308520e-09 -4.909057e-10
-8.459558e-09 2.297158e-09 2.868892e-10 1.775227e-09 1.822272e-10 1.080531e-10
1.038118e-08 -1.823778e-08 -8.198611e-09 -4.049131e-09 -2.752636e-09 -1.706049e-10
-8.610482e-09 1.960534e-09 2.897607e-10 1.851158e-09 6.775702e-10 -2.786460e-10
-2.047365e-08 2.257610e-08 3.962411e-08 2.660576e-08 1.549927e-08 -3.010538e-09
-7.137572e-09 1.954058e-08 -2.586164e-08 -5.593454e-09 -5.974914e-09 -6.409608e-09
1.248672e-08 1.775595e-08 -4.748215e-08 -1.619302e-09 -2.081547e-08 5.633262e-09
-3.602102e-09 2.588349e-08 -2.334575e-08 3.166192e-09 -3.580465e-09 -5.774088e-09
-8.304944e-09 7.529863e-10 -6.219913e-10 5.798314e-09 5.573507e-10 4.315260e-11
1.603020e-09 2.622223e-08 -2.662214e-08 9.909876e-10 -6.624991e-09 -4.409295e-09
4.564353e-09 1.933691e-08 -3.760096e-08 -2.371124e-09 -1.293277e-08 -4.159265e-09
2.296160e-09 -1.157659e-08 2.826989e-09 -1.929746e-09 4.950884e-10 -3.001707e-10
2.806386e-09 -1.358100e-08 2.919913e-09 -2.780005e-09 8.315993e-11 -8.164814e-11
1.084890e-09 -1.089014e-08 2.686906e-09 -3.164880e-09 2.255212e-10 -2.406713e-10
-5.632018e-09 6.016718e-09 -1.760768e-09 -1.610612e-09 -3.771507e-09 -9.330520e-10
1.830820e-08 -5.417377e-09 4.719601e-09 1.869342e-08 -1.120009e-09 2.166829e-09
-4.718282e-08 -2.076000e-08 1.424717e-07 6.918470e-09 6.426657e-09 1.209930e-08
5.681233e-09 -2.194087e-09 -3.017497e-10 -5.019948e-09 1.499423e-10 -4.112075e-10
5.836300e-09 -2.713643e-09 -3.225376e-10 -4.173057e-09 4.708989e-11 -1.800260e-10
1.069769e-09 -1.079916e-08 2.802846e-09 -3.247049e-09 -2.588086e-10 -2.722545e-10
1.078544e-09 -1.098186e-08 2.508523e-09 -3.292996e-09 1.332039e-10 -2.791047e-10
1.221018e-08 -4.630788e-09 6.068738e-09 -5.793585e-09 5.359816e-10 -1.888660e-09
1.099133e-08 -4.678629e-09 2.606192e-09 1.495308e-09 1.324124e-10 -2.506291e-09
-2.682130e-09 -4.008976e-09 -4.869865e-10 2.125452e-09 3.689329e-10 -2.346326e-10
4.621115e-09 -1.978405e-09 -5.714016e-10 -3.561802e-09 -5.830883e-13 -1.361666e-10
1.114948e-09 -9.015066e-09 2.033664e-09 -3.022481e-09 7.831750e-10 -2.132495e-10
1.035800e-08 -4.458272e-09 8.759438e-10 -3.338659e-10 1.109551e-10 -9.497143e-10
3.090998e-09 -1.373427e-08 2.375733e-09 -3.282818e-09 7.914368e-10 -4.415368e-10
2.123329e-09 -1.228141e-08 2.671144e-09 -4.579529e-09 1.801043e-10 -2.121753e-10
3.546500e-09 8.140014e-10 -4.041674e-10 -7.472697e-09 -2.898237e-11 1.399871e-10
2.174172e-09 -1.161447e-08 2.487170e-09 -3.449877e-09 6.912310e-10 -3.819295e-10
6.250241e-09 -2.221860e-09 5.174703e-10 -5.241549e-09 2.125486e-10 -1.065112e-09
5.634886e-09 -1.307826e-09 4.172893e-10 -6.141512e-09 -9.789570e-11 -8.005704e-12
5.042743e-09 -1.433401e-09 -2.162945e-10 -6.119594e-09 -2.191313e-11 -3.512566e-10
1.677633e-09 -1.060807e-08 2.555043e-09 -2.491647e-09 3.739020e-10 -6.495164e-10
-4.444473e-09 2.335130e-09 3.456933e-10 -1.284146e-09 -2.952447e-10 2.640710e-10
1.104415e-08 -5.365039e-09 1.073594e-08 3.688637e-09 -4.987014e-10 -6.811267e-09
-4.891953e-09 1.157128e-09 5.568936e-10 -1.285284e-10 -3.546952e-10 4.225709e-11
-4.936050e-09 1.644249e-09 8.449295e-10 -4.130385e-10 -1.762657e-11 -6.929923e-11
-4.305003e-09 2.294540e-09 5.781877e-10 -1.284544e-09 -3.436351e-10 -1.632632e-10
7.695374e-09 -7.315761e-09 1.481658e-08 -1.457897e-09 7.139799e-10 -2.202041e-09
5.192310e-09 -6.016082e-09 2.320205e-08 -9.830545e-09 5.885529e-10 -3.370072e-09
-2.991642e-09 1.333031e-08 -8.765071e-09 -9.354581e-09 -2.497596e-09 3.323196e-09
-4.931597e-09 1.528651e-09 7.327348e-10 -4.199874e-10 -1.843189e-10 -3.727110e-10
-4.874342e-09 1.680251e-09 5.957301e-10 -5.036451e-10 -1.163101e-10 -3.046964e-10
3.309796e-09 1.085204e-09 1.488930e-08 -1.206056e-08 4.235668e-09 -1.289377e-09
-4.989452e-09 1.479298e-09 8.586527e-10 -1.026135e-10 1.446678e-10 -7.134071e-11
3.506143e-09 5.051162e-10 8.577490e-09 -1.372030e-08 3.578219e-09 -2.181122e-09
-4.847378e-09 1.978533e-09 7.090919e-10 -4.470901e-11 -6.521950e-11 -5.350453e-11
1.498924e-09 -6.794429e-10 -1.925540e-10 7.173095e-10 -1.047495e-12 1.353384e-11
5.762295e-09 -2.444264e-09 4.587037e-09 -9.533656e-09 1.418772e-10 -1.984307e-10
-9.584897e-10 4.903122e-10 3.006928e-11 3.409439e-10 1.350117e-10 7.643841e-11
-1.434045e-09 9.624638e-09 -3.408255e-09 -1.190406e-08 4.010159e-11 3.093524e-09
4.497953e-09 4.591296e-09 -3.758140e-10 -1.264703e-08 1.291602e-09 6.096434e-11
-9.191337e-10 6.737002e-10 1.137193e-10 3.762614e-10 1.383871e-11 6.609102e-11
-4.448923e-10 2.862334e-09 2.250118e-09 -9.714774e-09 1.021525e-09 8.026815e-10
-2.692483e-09 -2.722322e-09 -5.043033e-11 1.089570e-09 -9.878396e-10 4.145078e-10
-9.593200e-09 5.559033e-08 -1.101376e-08 2.885650e-08 -2.936132e-08 -9.786994e-10
-1.737062e-08 1.550271e-08 3.899300e-08 -2.138907e-08 1.382989e-08 -1.187020e-08
3.172005e-10 5.896844e-08 -4.250756e-08 -4.178799e-10 1.361694e-08 -5.427486e-09
8.625853e-09 4.757185e-08 -8.213293e-08 6.541252e-09 1.791132e-08 7.216163e-10
5.868922e-09 1.884681e-08 -4.135759e-08 -1.232770e-08 7.781828e-09 3.541161e-09
1.255310e-08 4.744205e-08 -7.407347e-08 -1.574004e-11 1.714315e-08 3.882353e-09
1.638627e-09 -4.925318e-10 -1.876810e-10 5.186682e-10 1.192799e-10 -1.055992e-10
5.869474e-09 -1.881393e-09 8.032774e-10 -6.943672e-09 9.330937e-11 -5.994989e-10
-1.395106e-10 2.645928e-10 -4.722445e-11 3.077776e-10 4.322831e-11 1.691636e-10
-8.040848e-10 9.112948e-09 -8.293430e-09 1.118422e-09 -1.562729e-09 -1.350703e-09
9.942423e-09 -5.075873e-09 3.338429e-09 -4.019925e-09 7.956925e-11 -2.177279e-09
1.032048e-08 -4.921853e-09 2.299995e-09 -3.717578e-09 5.338655e-10 -1.382538e-10
-5.247891e-11 7.394978e-09 -5.560148e-09 -5.655925e-10 -8.401511e-10 -3.539773e-10
1.120786e-08 -5.831063e-09 5.917508e-09 4.582952e-10 5.670059e-11 -4.300500e-10
-2.751602e-09 8.552870e-09 -5.049856e-09 1.228902e-09 -1.900149e-09 -1.346412e-09
6.392834e-09 5.444583e-09 -5.539191e-09 3.208051e-09 -1.717570e-09 -2.139153e-09
1.502092e-09 7.735835e-09 -6.058571e-09 2.203515e-09 -4.773873e-10 -1.710714e-09
6.212191e-09 -4.117545e-09 9.212442e-09 -7.688050e-09 1.090062e-10 -3.553103e-09
-1.886491e-12 1.200848e-09 -3.412035e-10 -3.545424e-09 -1.748924e-10 -2.409073e-10
3.131269e-09 -1.283145e-08 -9.143473e-09 1.714147e-08 5.774290e-09 -2.544128e-09
-1.642055e-09 1.862465e-09 -2.315683e-10 -3.506686e-09 -1.875420e-10 1.121132e-10
1.229325e-08 1.581737e-08 -5.964033e-08 -1.454320e-08 2.038930e-08 1.491926e-08
-1.204349e-09 2.386059e-09 -7.991257e-10 -4.886462e-09 -4.382206e-10 6.621830e-10
-1.094248e-09 1.986444e-09 -6.593295e-10 -5.392121e-09 -4.646621e-10 3.029173e-10
-2.474756e-10 -9.426806e-09 4.057763e-10 2.219310e-09 -5.863988e-10 2.338291e-10
-2.698797e-09 2.394737e-09 -2.681135e-10 -3.518019e-09 -6.102629e-11 -2.851354e-10
-5.248038e-10 2.058239e-09 -4.718486e-10 -4.933099e-09 -1.470810e-10 6.957435e-11
-1.316571e-09 2.379718e-09 -5.125216e-10 -4.349433e-09 -6.021427e-10 2.180962e-10
4.246292e-10 5.934819e-09 2.406819e-08 1.621649e-08 -3.622052e-09 -5.551743e-09
-2.592676e-09 4.945918e-08 -7.407347e-08 8.478674e-09 1.729118e-08 5.249430e-09
-2.788246e-09 2.113220e-09 -5.112275e-10 -3.579197e-09 -5.838448e-10 2.090795e-10
-5.462194e-09 2.674398e-08 -5.176054e-08 -1.157669e-08 1.943375e-08 1.557331e-08
-4.020911e-09 2.801572e-09 1.874681e-08 8.717827e-09 -6.172255e-10 -3.640495e-09
-5.269258e-09 2.413550e-08 -1.888436e-08 5.629038e-09 -4.420677e-09 -7.800641e-09
-9.146797e-09 4.336973e-09 -9.064296e-10 -1.053237e-09 -2.863612e-10 6.032121e-19
-3.130000e-09 1.782577e-08 -1.694388e-08 -4.099820e-10 -6.596534e-09 -4.553213e-09
-4.304638e-09 1.791575e-08 -1.744796e-08 2.693177e-10 -2.608597e-09 -3.562860e-09
-5.562161e-09 1.692180e-08 -1.707968e-08 1.571879e-09 -2.707571e-09 -3.020893e-09
-2.847397e-09 2.974952e-08 -2.689970e-08 1.127485e-09 -5.730346e-09 -5.873925e-09
-1.655736e-09 1.576186e-08 -2.261201e-08 -5.409505e-09 -8.043936e-09 -3.909318e-09
-7.048129e-09 -8.364154e-10 2.010645e-10 -1.651385e-09 -2.529057e-10 -1.587607e-10
-8.871424e-09 5.373641e-09 -2.289003e-09 -5.180469e-10 -6.138654e-10 -2.527489e-10
-2.430615e-09 1.582656e-08 -1.713895e-08 -4.747427e-09 -8.940172e-09 -5.841060e-09
-8.618006e-09 5.373641e-09 -2.289005e-09 -2.379283e-09 -1.496083e-10 -2.843539e-10
5.383755e-09 -3.010741e-09 -7.396643e-10 3.103730e-11 2.746003e-11 2.813139e-11
-4.097748e-09 -1.008216e-09 -2.892453e-10 1.196087e-09 -1.708146e-09 3.583386e-10
2.147735e-08 -6.012187e-09 -3.261674e-09 8.069741e-10 -9.926970e-11 -2.222048e-16
8.635382e-09 3.993681e-09 -5.464861e-09 3.459822e-09 -1.848690e-10 -2.980149e-10
5.085498e-09 -2.985465e-09 -7.411520e-10 3.764152e-10 5.322382e-12 -6.895637e-12
5.380404e-09 -3.016967e-09 -7.116614e-10 -2.123024e-12 -2.077027e-11 1.216827e-11
2.734948e-08 -8.880644e-09 -2.654154e-09 3.922489e-10 -5.883582e-11 7.574155e-10
1.147804e-09 6.499229e-09 -4.034256e-09 1.492661e-09 -2.902749e-09 -1.514064e-09
2.643444e-08 -1.232873e-08 2.332801e-11 3.368822e-09 -6.773870e-10 6.659435e-10
5.417037e-09 -3.058117e-09 -7.655274e-10 3.796947e-10 5.534639e-11 3.824108e-12
-2.780368e-09 2.131351e-09 1.857794e-10 -1.821783e-09 3.363532e-11 7.014567e-11
5.039893e-09 -2.776145e-09 -6.878738e-10 2.535329e-10 5.023149e-12 -1.276741e-10
5.107288e-09 -2.931943e-09 -6.956768e-10 1.417401e-10 5.471612e-11 -5.755363e-11
-3.822988e-09 4.122018e-10 1.148732e-09 -1.128251e-10 4.084999e-11 -6.670187e-11
2.442953e-08 -6.399017e-09 -3.801429e-09 4.603589e-10 -1.844906e-10 -2.416156e-11
-3.807591e-09 7.009469e-10 9.697558e-10 -9.984680e-11 -1.041682e-10 -1.719962e-10
2.501885e-08 -6.115436e-09 7.453904e-11 1.036641e-08 2.080422e-09 4.963060e-09
2.758135e-08 -1.137549e-08 -6.864980e-10 9.214226e-10 7.295495e-10 8.284469e-10
2.799602e-08 -1.100898e-08 -1.490108e-09 2.547149e-10 6.930312e-11 7.682721e-10
-3.962976e-09 1.004844e-09 9.902990e-10 1.381994e-10 -4.156586e-11 -8.950088e-11
-4.129028e-09 9.470054e-10 1.020630e-09 -1.024746e-10 -2.288447e-12 -1.442928e-10
-3.692005e-09 1.063524e-09 9.229142e-10 2.067071e-10 8.627554e-11 -2.505816e-10
-3.831538e-09 9.422809e-10 9.474346e-10 2.138630e-10 -2.974754e-11 -1.003563e-10
-3.825216e-09 1.254822e-09 9.278507e-10 4.102325e-10 8.911982e-11 6.141664e-11
-2.778350e-09 3.861692e-09 -1.373841e-09 -4.719405e-09 -6.582117e-10 1.134229e-09
-2.182555e-09 6.707415e-09 -4.732537e-09 6.624866e-10 -2.642728e-09 -1.776027e-09
-4.408227e-09 4.291398e-09 -1.687705e-09 -3.268949e-09 -9.865874e-10 9.440459e-10
-4.176260e-09 6.141966e-09 -2.724968e-09 -3.021879e-09 -5.357601e-09 -2.800158e-09
3.065103e-08 -5.020996e-09 -6.733972e-09 2.590715e-09 1.727699e-10 2.219366e-09
-4.884759e-09 4.652706e-09 -2.474294e-09 -3.040779e-09 -8.735705e-10 3.011933e-10
6.129145e-09 3.906921e-09 -3.857734e-09 2.335248e-10 -1.965361e-09 -5.240950e-10
-3.831605e-09 3.346986e-09 -1.093921e-09 -2.996754e-09 -5.072954e-10 4.955433e-10
8.200004e-09 1.396802e-08 -7.982777e-09 1.834787e-08 4.815815e-09 -1.693977e-09
-2.470275e-09 8.108350e-09 -3.518973e-09 2.801920e-09 -3.989016e-09 -3.460437e-09
1.072956e-08 1.434964e-09 -4.333906e-09 2.661996e-09 -1.779628e-09 -1.736798e-09
1.458079e-08 -7.566010e-10 -4.461695e-09 1.828192e-09 -2.438507e-10 1.232168e-09
9.506811e-09 3.235797e-09 -5.296217e-09 3.603036e-10 -1.228925e-09 3.429479e-11
-4.559905e-09 3.754752e-09 -1.629735e-09 -2.694578e-09 -6.621769e-11 -4.661006e-10
-4.835998e-09 2.796478e-09 -8.002488e-10 -1.499054e-09 -7.682643e-10 5.088856e-10
-5.042604e-09 3.018946e-09 -1.481685e-09 -1.337266e-09 -7.865044e-10 2.503464e-11
-3.845226e-09 -7.447304e-09 3.637912e-09 4.517995e-10 1.991005e-10 9.839329e-11
-3.345544e-09 -8.273194e-09 3.717626e-09 1.289657e-10 -8.972745e-11 7.895284e-11
-4.882020e-09 4.021988e-09 -2.204469e-09 -1.883073e-09 -4.907643e-10 3.544112e-10
-9.750103e-10 -1.009529e-08 3.658133e-09 8.325252e-11 7.163159e-12 1.088265e-10
-3.666273e-09 -9.333107e-09 3.226526e-09 4.137703e-09 2.993743e-10 -6.801670e-11
-3.019514e-09 -8.223278e-09 3.514016e-09 1.359863e-10 4.958856e-11 3.087841e-11
-5.250157e-09 8.735301e-09 -7.012327e-09 -2.732165e-09 -2.021174e-09 3.015644e-09
2.034776e-09 -1.509838e-08 3.719356e-09 8.281828e-10 -1.907878e-10 1.757705e-10
-3.432899e-09 -7.401793e-09 3.160253e-09 2.815975e-09 3.166616e-10 2.755918e-10
2.424873e-09 -1.212390e-08 -2.347163e-09 -3.217514e-09 -6.382925e-10 -2.793854e-10
2.670983e-09 -1.476684e-08 -5.790666e-10 -2.204621e-09 5.393803e-10 -1.430838e-10
-4.203965e-09 -6.892124e-09 3.384518e-09 6.442224e-10 1.986653e-10 5.979794e-11
2.541380e-09 -1.558422e-08 4.535416e-10 -1.884045e-09 -2.036884e-09 -6.941199e-10
-2.332155e-09 1.764424e-09 4.422462e-11 -2.379046e-09 -1.293927e-10 -5.668022e-11
-3.086592e-11 -9.593887e-09 -2.133930e-09 -5.890487e-09 -2.236937e-09 -9.335319e-10
2.587702e-09 -1.487030e-08 3.682711e-09 2.343450e-09 4.238006e-10 1.163054e-10
-1.898975e-09 -1.009529e-08 3.660285e-09 2.877205e-10 8.366197e-12 2.887935e-10
-3.059019e-09 -8.223278e-09 3.614911e-09 1.866356e-10 6.409229e-11 2.013798e-10
-4.352476e-09 -6.904751e-09 3.270840e-09 4.201037e-10 6.371484e-11 1.472467e-11
2.727323e-10 -1.323753e-08 3.389341e-09 4.258909e-09 1.715994e-10 3.814179e-10
4.414247e-11 -1.240234e-08 3.540739e-09 3.276103e-09 -1.457221e-10 2.914813e-11
-3.395318e-09 -8.209739e-09 3.533243e-09 1.121039e-09 1.596534e-11 4.334910e-11
-3.007585e-09 -8.223278e-09 3.498448e-09 1.393063e-10 5.418288e-11 3.350120e-11
-2.717391e-09 -9.229994e-09 3.755935e-09 3.817289e-10 3.433631e-11 2.009428e-10
-8.046654e-09 4.436831e-09 -2.970947e-09 -2.818493e-09 -2.076505e-09 -2.334619e-10
2.414398e-09 -1.078972e-08 -3.601475e-09 -4.175849e-09 -2.668744e-09 -7.246301e-10
5.753580e-10 -1.373361e-08 3.027929e-10 -4.844312e-09 -3.277505e-09 -8.795277e-10
1.508742e-09 -1.218229e-08 -3.152656e-10 -3.557562e-09 -2.390817e-09 -2.411327e-10
2.808463e-10 7.196158e-08 -5.822408e-08 6.116370e-09 7.045983e-09 -1.167662e-08
-8.390948e-09 6.159440e-09 -4.113329e-09 -2.531875e-09 -1.046660e-09 -8.922494e-10
-2.359982e-09 8.698912e-09 -5.062100e-09 1.568019e-09 -2.382139e-09 -1.669060e-09
-4.621885e-08 7.163822e-08 5.901329e-09 -6.180918e-09 -3.153097e-08 -2.403874e-08
-2.701793e-09 1.109204e-08 -6.074835e-09 2.771258e-09 5.446879e-10 1.346166e-09
-8.701129e-09 7.241131e-09 -1.911305e-09 -7.819274e-10 -2.792302e-09 -2.801763e-10
1.536342e-10 4.986082e-08 -5.740265e-08 7.666662e-09 2.446008e-09 -4.535253e-09
1.315188e-08 5.108353e-08 -8.282419e-08 1.490851e-08 2.777187e-08 -1.997026e-08
-8.449653e-09 5.992561e-09 -2.661350e-09 -1.982192e-09 -4.342512e-09 -1.410470e-09
-1.501370e-08 5.014610e-08 -2.786716e-08 -3.141526e-09 2.339587e-09 -9.817470e-09
6.449824e-09 -1.865918e-08 3.591859e-09 7.851408e-11 1.918360e-10 -2.251320e-10
5.086828e-09 4.937407e-08 -6.119267e-08 5.025934e-09 5.120585e-09 -4.518159e-09
3.276263e-09 -1.398363e-08 2.115979e-09 -4.289154e-09 -5.535550e-11 1.047924e-10
4.379965e-09 -1.531511e-08 2.532222e-09 -2.802280e-09 6.666134e-10 1.297772e-10
6.204341e-09 -1.891744e-08 2.263469e-09 -2.659757e-09 7.564398e-10 2.633005e-12
5.132120e-09 -1.608672e-08 3.277639e-09 -9.823242e-10 -1.089879e-10 -4.465023e-10
5.717058e-09 -1.726536e-08 3.405279e-09 -2.614498e-11 1.478792e-10 -4.308133e-10
6.234364e-09 -1.814446e-08 2.349260e-09 -2.673548e-09 -4.537539e-10 -2.290224e-10
6.200644e-09 -1.731581e-08 2.718207e-09 -2.616466e-09 -1.017610e-10 -2.555023e-11
2.502765e-09 -1.533281e-08 3.830803e-09 4.551084e-10 1.244067e-10 3.504752e-10
6.746713e-09 -2.013720e-08 3.651646e-09 9.916201e-11 6.535839e-11 -5.245404e-11
2.723334e-09 -1.131088e-09 -5.092802e-10 -1.256348e-10 -1.065950e-10 9.770851e-12
1.855600e-09 -8.178513e-10 -5.014837e-10 -7.434633e-10 -1.220999e-10 2.082237e-10
4.720827e-09 -1.775322e-08 3.487858e-09 2.270280e-09 5.008607e-10 -1.035334e-10
5.015890e-09 -2.547910e-09 -7.200760e-10 -1.006516e-09 -8.784706e-11 9.055601e-11
2.485509e-09 -1.423273e-08 3.628167e-09 4.319333e-09 2.161431e-10 7.343392e-11
1.625740e-09 -1.430393e-08 3.884941e-09 4.768810e-10 1.142930e-10 3.784875e-10
3.651623e-09 -1.527986e-09 -6.091301e-10 -1.355394e-09 8.444667e-11 4.744027e-11
3.054892e-09 -1.414015e-09 -5.855210e-10 -9.233239e-10 -1.137139e-10 -9.377477e-11
-2.653833e-10 -1.051465e-08 3.507051e-09 3.186894e-09 3.383150e-10 1.302156e-10
5.132167e-09 -1.651099e-08 3.206440e-09 -1.132966e-09 -3.765243e-11 -4.720560e-10
2.092054e-09 -6.529728e-10 -3.951978e-10 -8.401377e-10 -3.424383e-11 -4.428447e-11
2.492325e-09 -9.010153e-10 -4.815055e-10 -5.218879e-10 -1.842371e-11 -2.162106e-10
4.206222e-09 -1.529132e-08 3.250330e-09 -6.807089e-10 -7.986078e-11 -2.436907e-10
6.128085e-09 -1.798469e-08 3.349737e-09 -1.109246e-09 -5.429190e-11 7.015944e-12
-3.971788e-09 2.068298e-09 5.844951e-10 2.392575e-11 -8.876899e-12 8.181011e-12
1.986954e-08 1.116245e-08 -6.616593e-08 -5.848919e-09 3.432170e-08 9.510352e-09
1.438086e-08 1.164676e-08 -5.203984e-08 -6.685269e-09 9.552960e-09 2.367504e-09
7.288315e-09 1.718440e-08 -5.281101e-08 -1.160403e-08 1.625298e-08 1.588085e-08
1.723718e-08 4.514963e-08 -7.991661e-08 -1.138932e-08 2.099644e-08 7.944995e-09
-3.849425e-09 1.576089e-09 7.200329e-10 8.560441e-11 3.009820e-11 -1.726906e-10
8.512349e-09 2.014610e-08 -4.250483e-08 -1.146674e-08 1.165886e-08 1.039377e-08
-3.976996e-09 2.142109e-09 5.805525e-10 2.351197e-11 9.131362e-12 -1.688649e-12
-4.014426e-09 2.085660e-09 5.596636e-10 5.881073e-11 2.109335e-11 -2.434919e-11
1.725634e-08 4.333674e-09 -4.962536e-08 -1.348341e-08 2.439079e-08 8.621911e-09
1.195810e-08 -2.688053e-08 -2.379902e-09 3.870432e-09 -8.856275e-09 2.388605e-10
-4.031008e-09 1.709232e-09 6.952845e-10 9.696066e-11 2.385292e-11 -6.827472e-11
-3.985958e-09 1.918138e-09 6.396426e-10 6.597522e-11 -7.319034e-12 -3.567369e-12
-3.987910e-09 2.136664e-09 5.617273e-10 1.840705e-11 -1.120215e-12 -1.321943e-11
-3.636305e-09 1.998982e-09 5.078942e-10 5.607248e-11 3.343326e-12 -5.703582e-11
-3.868354e-09 2.084247e-09 5.376077e-10 8.515633e-11 1.995892e-11 -4.589440e-12
-4.025217e-09 2.008207e-09 6.210115e-10 7.704060e-11 8.102408e-12 -6.108514e-11
3.062840e-09 -1.920047e-08 2.173517e-10 9.377639e-09 -7.142194e-09 2.538818e-09
1.188077e-08 -2.255211e-08 -4.123764e-09 -1.205526e-09 -1.642742e-09 7.527892e-11
1.207727e-08 -2.136530e-08 -6.788680e-09 -2.292490e-09 -1.830873e-09 -1.219768e-09
-3.947298e-09 2.168514e-09 5.451617e-10 6.110668e-13 5.728085e-12 -3.036615e-11
-3.755469e-09 2.040694e-09 4.961103e-10 -9.860557e-12 6.097034e-11 -2.138978e-11
1.213381e-08 -2.308316e-08 -4.343572e-09 -2.074119e-11 -5.904752e-10 -1.331690e-11
1.156520e-08 -2.494646e-08 -5.805845e-11 -1.398837e-10 -1.723639e-09 1.247807e-10
-3.947296e-09 2.219686e-09 5.423006e-10 -1.899458e-11 2.835221e-11 -2.920397e-11
1.220627e-08 -2.197855e-08 -5.012784e-09 2.062851e-09 -8.331869e-09 8.837101e-10
5.287180e-09 -1.890842e-08 3.767502e-09 4.750102e-10 1.903959e-10 1.882847e-10
7.443637e-09 -1.753334e-08 -4.699967e-09 2.883813e-09 -2.574521e-09 4.464036e-10
1.199628e-08 -2.376627e-08 -3.357119e-09 -7.793480e-10 -1.331582e-09 -1.210809e-12
1.210273e-08 -2.350494e-08 -3.600246e-09 3.738807e-10 -5.006469e-10 4.103935e-10
6.541933e-09 -2.122665e-08 3.576016e-09 2.393080e-09 7.301133e-10 -1.665476e-10
4.141918e-10 7.371475e-10 -1.422502e-10 -1.512480e-09 -1.005317e-10 3.419448e-11
7.096483e-09 -2.045826e-08 3.375280e-09 3.408808e-10 -1.253509e-10 8.195222e-12
1.252799e-09 1.542677e-11 -3.509175e-10 -6.776704e-10 -1.282618e-10 3.853216e-10
-2.667200e-12 8.308723e-10 -1.929914e-10 -5.430123e-10 -1.310640e-10 2.915712e-10
6.184830e-10 1.320655e-11 -3.716418e-10 -8.554397e-10 -1.429986e-10 1.305271e-10
-2.825994e-09 1.531000e-09 4.381211e-10 6.702523e-10 6.577661e-11 2.009126e-11
4.372324e-09 -1.706777e-08 3.805554e-09 2.824896e-10 1.015645e-10 -3.626677e-11
3.213490e-09 -1.136737e-08 -4.967261e-09 6.097543e-09 -5.715238e-09 2.287447e-09
-2.622615e-09 1.532097e-09 3.273914e-10 1.227343e-10 1.542499e-11 6.848522e-11
-1.358480e-09 1.307142e-09 -1.424576e-10 -2.571662e-09 -2.695564e-10 2.800915e-11
-1.596021e-09 9.842740e-10 1.675902e-10 1.246785e-10 8.692691e-11 -7.178502e-11
7.971394e-09 -2.201159e-08 1.693332e-09 1.536473e-09 6.979912e-10 1.622510e-10
6.343250e-09 -1.878926e-08 3.389948e-09 -5.867385e-10 4.377316e-10 1.856870e-11
6.928296e-09 -2.068317e-08 3.876594e-09 7.748839e-10 1.997933e-10 9.351320e-11
-1.382634e-09 9.085657e-10 1.307146e-10 3.298886e-10 3.408873e-11 7.159456e-11
-2.383738e-09 1.497044e-09 2.757710e-10 3.548002e-10 4.528512e-11 1.177236e-11
-1.336095e-09 9.351186e-10 1.351990e-10 2.673777e-10 8.812728e-11 -1.586583e-10
-3.423947e-09 -2.425990e-09 1.768378e-09 -1.367553e-09 1.606129e-10 -4.145062e-11
-3.316838e-09 -1.175525e-09 1.692523e-09 -7.987584e-10 -1.593692e-11 1.855155e-12
5.308273e-09 -3.013374e-09 -7.446803e-10 -4.283589e-11 1.358107e-11 -1.222661e-11
3.941260e-09 -1.929447e-09 -5.808845e-10 -1.380145e-10 -1.627229e-10 2.863132e-11
4.670721e-09 -2.611083e-09 -6.503784e-10 -3.259645e-10 -1.043282e-10 3.266021e-11
3.142347e-09 -1.591324e-09 -5.340040e-10 -1.307301e-10 8.449463e-12 -1.130229e-11
2.568883e-09 -1.180084e-09 -4.390752e-10 -5.759488e-10 -2.370627e-10 8.975265e-12
-2.614210e-09 -3.606704e-09 2.036321e-09 -4.691580e-10 -3.115441e-10 -8.232504e-11
2.085730e-09 -6.533325e-10 -4.613785e-10 -8.220558e-10 -1.048781e-10 -2.345479e-11
-3.243730e-09 -1.657573e-09 1.790816e-09 -4.770520e-10 2.147729e-10 -1.218157e-10
-2.879777e-09 -2.428909e-09 1.877687e-09 -7.481391e-10 -8.416423e-11 -2.946157e-10
-2.705659e-09 -3.310789e-09 1.929791e-09 -7.150978e-10 -3.075007e-11 1.648770e-11
-2.322114e-09 -4.435432e-09 1.986188e-09 -1.095103e-09 4.081185e-11 -5.982503e-11
-2.333863e-09 -3.372516e-09 1.835445e-09 -9.320981e-10 1.967346e-10 -1.112355e-10
-2.060991e-10 1.203802e-09 -3.183634e-10 -4.027988e-09 -1.685485e-10 1.434604e-10
4.029313e-09 -8.946566e-10 -3.420584e-10 -4.969182e-09 1.166254e-10 -3.942917e-10
6.656145e-09 -2.218050e-09 1.657146e-10 -5.167146e-09 2.669776e-10 -1.089617e-09
-1.145395e-11 -8.107268e-09 -2.317488e-09 -3.097056e-09 -6.011187e-10 -1.265112e-11
-7.542645e-09 -8.339089e-10 1.010857e-09 -2.687551e-10 -1.580522e-10 4.410937e-11
-1.970810e-10 1.432865e-09 -5.562950e-10 -5.206181e-09 -2.798721e-10 4.153988e-10
1.810848e-09 6.136460e-10 -5.113137e-10 -5.002330e-09 -2.374763e-10 5.287240e-10
2.738540e-09 5.303856e-10 -4.823786e-10 -6.134416e-09 -3.300542e-10 3.558305e-10
2.116616e-09 1.179360e-10 -2.366026e-10 -6.131313e-09 -1.732630e-10 -1.086148e-11
1.297448e-09 6.044236e-10 -4.403473e-10 -4.931661e-09 -4.595915e-10 2.194998e-10
-7.894779e-09 -3.127738e-10 1.241460e-09 -2.558940e-09 -2.594580e-09 -8.460602e-11
-5.928023e-09 1.286457e-08 -7.603276e-09 1.996560e-09 -2.570342e-09 -3.312326e-09
-5.751115e-10 9.184808e-09 -7.605756e-09 1.249558e-09 -2.783225e-09 -3.122848e-09
8.502740e-09 -1.347307e-08 -9.691208e-09 5.979983e-09 -4.100576e-09 2.093893e-09
-5.304660e-09 1.119364e-08 -9.924970e-09 -3.866401e-10 -3.671852e-09 -2.325228e-09
-2.349040e-09 1.687895e-08 -1.262471e-08 4.007483e-09 -3.591458e-09 -4.250052e-09
-4.691980e-11 1.146439e-08 -7.561984e-09 6.747173e-09 -1.682665e-09 -3.139712e-09
-9.141337e-09 4.597013e-09 -1.397847e-09 -9.772290e-10 -6.429643e-10 -2.324116e-10
-9.187349e-09 2.455446e-09 1.428344e-09 -7.909851e-10 -1.460918e-09 6.787904e-11
-1.755279e-09 1.149508e-08 -8.896148e-09 5.638959e-09 -1.684543e-09 -1.792561e-09
-3.840596e-09 -3.994143e-10 1.309459e-09 -4.423484e-10 -1.187254e-10 -2.128381e-10
-3.848487e-09 -4.446292e-10 1.395617e-09 -6.115284e-10 4.162670e-11 -8.292866e-11
-3.646309e-09 -4.790461e-10 1.400251e-09 -1.250886e-10 3.151279e-11 -1.304809e-10
-3.873952e-09 -1.330180e-10 1.289095e-09 -2.853051e-10 -2.597031e-10 -2.236900e-10
-3.831389e-09 -1.661338e-10 1.317344e-09 2.016955e-10 -5.160317e-12 -1.270546e-10
3.901588e-10 -9.902119e-09 2.849644e-09 -2.750402e-09 -6.645542e-10 -1.475627e-10
-8.312974e-10 -8.141813e-09 2.061066e-09 -4.160519e-09 2.892171e-10 -2.518814e-10
-8.024434e-10 -8.156904e-09 2.076055e-09 -3.969324e-09 -2.951239e-11 2.662368e-11
-3.908836e-09 4.033449e-10 1.256864e-09 -7.564572e-11 9.728618e-11 -1.041895e-10
-3.853409e-09 2.156675e-11 1.244703e-09 -6.284884e-11 1.177873e-10 -5.440071e-11
3.629737e-09 -1.441014e-08 2.928771e-09 -1.442606e-09 1.307581e-10 2.131912e-10
4.087608e-09 -1.609550e-08 2.937634e-09 -1.548791e-09 4.004107e-10 -2.653803e-10
7.232011e-10 -8.669485e-09 2.640987e-09 -3.030243e-12 1.387424e-11 -2.816833e-10
4.617249e-09 -1.677291e-08 3.119825e-09 -1.632517e-09 -3.782978e-10 -2.865717e-10
4.597001e-09 -1.685917e-08 2.669550e-09 -1.860780e-09 -1.158253e-10 -4.298546e-11
3.517340e-09 -1.339992e-08 2.910338e-09 -2.930420e-09 5.073231e-10 -1.193864e-10
2.658973e-09 -1.222829e-08 2.875597e-09 -1.997682e-09 2.016209e-10 -2.442233e-10
2.725930e-09 -1.394392e-08 2.543652e-09 -2.976113e-09 -1.321076e-11 7.713799e-11
-3.423304e-09 -6.745212e-09 1.807313e-09 7.886021e-09 5.969517e-11 -7.160652e-10
-3.105009e-09 -9.000076e-09 6.447118e-10 9.871708e-09 1.702154e-09 -3.322680e-10
-2.475249e-09 -6.115426e-09 3.673488e-10 8.521110e-09 1.099586e-09 -1.782152e-11
-5.172279e-09 -3.534512e-09 -6.426339e-10 8.443033e-09 1.173144e-09 -7.452989e-10
-3.630952e-09 -3.560723e-09 -2.342985e-09 9.196838e-09 3.981033e-10 -6.517939e-10
-4.571270e-09 4.409013e-09 3.415539e-09 6.028027e-09 -6.358676e-10 -8.564222e-10
-1.456600e-09 -8.987359e-09 -6.556331e-10 1.004932e-08 1.636884e-09 -7.721113e-11
-1.530457e-09 -8.994569e-09 -6.971836e-10 1.000669e-08 1.026231e-09 -4.976486e-10
-1.255350e-08 1.713181e-08 6.012495e-09 -1.538831e-08 -5.029625e-09 -6.458735e-11
5.260544e-09 -1.888999e-08 3.911833e-09 1.441824e-09 1.535240e-11 3.320009e-10
6.654949e-09 -1.905432e-08 3.585232e-09 -2.190279e-10 -4.825691e-12 -1.753222e-10
-6.615968e-09 1.736436e-08 -3.307343e-09 -8.253267e-09 1.450822e-09 -1.706936e-09
4.177577e-09 8.283022e-09 8.033764e-09 -1.819422e-08 -5.015279e-09 5.760235e-09
3.144618e-09 8.831910e-09 4.010006e-09 -1.806442e-08 1.620053e-09 -2.157363e-09
7.104441e-09 -2.005724e-08 3.580205e-09 -1.345733e-10 7.515659e-12 -1.245299e-10
1.074880e-09 -1.144468e-08 -1.499447e-09 4.223841e-09 -1.762653e-09 1.873793e-09
-9.793973e-09 1.997850e-08 -7.109318e-09 -4.612651e-09 1.133762e-09 -3.218551e-09
-8.646257e-09 1.732366e-09 3.486529e-10 -3.349554e-09 -2.243964e-09 -1.076724e-09
2.502963e-09 -1.533281e-08 3.883832e-09 4.573639e-10 1.242311e-10 7.279066e-12
4.616117e-09 -1.740527e-08 2.684676e-09 5.286473e-09 3.234408e-10 -3.484839e-10
7.048182e-09 -1.919162e-08 3.384277e-09 -6.879608e-10 6.559182e-10 -2.230891e-10
4.127899e-09 -1.635845e-08 8.084942e-10 1.515025e-09 -1.921019e-09 3.488120e-10
2.865263e-09 -1.088629e-08 -3.364223e-09 3.796452e-09 -1.994776e-09 2.846860e-10
5.454286e-09 -1.781031e-08 3.293933e-09 4.802512e-09 8.424981e-10 -1.583291e-10
6.734076e-09 -1.980442e-08 3.477522e-09 1.841510e-10 1.909404e-10 -2.044045e-10
7.140047e-09 -2.048148e-08 2.915693e-09 1.387268e-09 8.787606e-10 -3.009712e-10
8.523018e-09 -2.149187e-08 1.615234e-09 -1.669753e-11 8.294232e-10 7.545182e-11
-9.053060e-09 5.426523e-09 -1.473639e-09 -7.746479e-10 -2.052125e-09 -4.689754e-10
-8.694330e-09 5.743010e-09 -1.779326e-09 -6.205465e-10 -1.237749e-09 -9.370760e-11
-9.283932e-09 3.964274e-09 -3.734670e-10 -4.526051e-10 -1.450600e-09 -1.253726e-10
-8.162140e-09 3.619183e-09 -2.256289e-09 -3.206419e-09 -2.625649e-09 -1.171199e-09
-3.813309e-09 -4.314415e-11 1.403492e-09 -6.191869e-10 1.211209e-10 8.349632e-11
1.977727e-09 -6.932384e-10 -4.248482e-10 -1.084699e-10 -2.183443e-10 -1.277201e-11
1.162865e-10 5.587601e-10 -2.377618e-10 -6.251319e-10 -2.013787e-10 -5.701245e-11
-5.414429e-10 8.061463e-10 -1.898242e-10 -1.234710e-09 -1.685694e-10 -2.888557e-10
-3.833300e-09 3.410605e-13 1.293420e-09 -6.540513e-10 1.197491e-10 1.193845e-11
7.475714e-09 -2.178871e-08 1.450223e-09 5.372553e-09 -6.401675e-09 1.111794e-09
-3.826494e-09 -1.602620e-10 1.180418e-09 -6.242344e-10 -3.736877e-11 -2.170295e-10
-1.707345e-09 1.761717e-09 1.418243e-11 -9.212604e-10 -1.885025e-11 -2.342553e-10
4.166054e-10 5.598950e-10 -2.245915e-10 -7.632706e-10 -2.472132e-10 1.273848e-11
-3.423417e-09 -2.011247e-09 1.709943e-09 -1.352709e-09 2.883426e-10 -3.660428e-11
-3.539530e-09 -4.364469e-10 1.472849e-09 -3.219660e-10 -3.336609e-11 -1.676712e-10
-1.997222e-09 1.996591e-09 3.027112e-11 -6.270016e-10 -1.406684e-10 -2.119738e-11
-2.573629e-09 2.139933e-09 6.425527e-11 -7.580112e-10 -1.308206e-10 -1.336950e-10
2.923433e-08 -9.204802e-09 -3.400458e-09 -2.061976e-09 1.456059e-10 4.391464e-09
2.723476e-08 -1.103501e-08 -1.628693e-09 1.134539e-10 1.594624e-10 8.796011e-10
3.684981e-10 6.109442e-10 -1.670366e-10 -9.893064e-11 -2.224858e-10 -3.921308e-13
1.089513e-08 2.364339e-09 -2.450958e-09 -2.137012e-09 1.524686e-09 1.835243e-10
2.066807e-08 -5.290869e-09 -2.142869e-09 -1.745710e-09 -7.370393e-12 2.393985e-09
-3.704966e-09 9.959456e-09 -5.870354e-09 1.230598e-09 -3.773626e-09 -4.436605e-09
2.494868e-08 -5.757214e-09 -5.867082e-10 -6.771311e-09 -3.795337e-10 3.445202e-09
3.648458e-09 -2.389298e-09 -1.687756e-08 -7.501455e-09 -3.657950e-09 -3.648306e-10
5.997264e-09 5.375307e-09 -2.669456e-08 -7.933940e-09 -5.643471e-09 -1.548527e-09
2.594897e-08 -6.108504e-09 -3.477216e-09 -3.642614e-09 2.634733e-10 2.644177e-09
2.420523e-08 -6.972765e-09 -3.642391e-09 -4.962447e-11 4.770983e-10 1.081268e-09
2.143681e-10 1.607443e-10 -6.303669e-11 1.055473e-09 -7.220180e-11 5.381140e-11
2.436398e-08 -7.035228e-09 -3.878121e-09 -2.129996e-10 6.904818e-10 1.101738e-09
-1.959803e-09 -5.768240e-09 2.188549e-09 -1.946078e-09 -1.826053e-10 -1.529975e-10
-4.762821e-10 3.882663e-10 1.062350e-11 4.828797e-10 -4.405714e-11 1.964295e-11
-2.333910e-09 -3.636670e-09 1.964241e-09 -9.259417e-10 -2.565449e-11 -1.100735e-10
-2.067291e-09 -4.518379e-09 2.198490e-09 -9.444635e-10 -5.009282e-11 -3.007178e-10
-1.714155e-09 -5.551963e-09 2.229963e-09 -1.022347e-09 -5.449685e-11 7.594192e-11
-2.443924e-09 -4.281828e-09 2.003267e-09 -1.645043e-09 -3.927640e-10 -7.653900e-11
4.215684e-09 -1.478869e-08 3.190998e-09 -9.023466e-10 -2.759970e-10 -3.590808e-10
-3.198691e-09 -2.572366e-09 7.060952e-11 2.262316e-09 -1.290352e-09 2.808632e-10
4.379965e-09 -1.565689e-08 2.928771e-09 -2.593243e-09 6.255587e-10 -7.167223e-11
-4.471233e-09 7.041843e-10 7.228196e-10 5.863810e-11 -8.895364e-10 -2.293561e-10
-4.771242e-09 -8.008794e-10 4.150453e-10 1.855366e-09 -1.310556e-09 1.898109e-10
-4.207639e-09 -1.243379e-09 1.376485e-09 -1.995644e-10 -1.156426e-10 -5.657402e-10
-4.142715e-09 -1.657118e-09 8.025891e-10 1.472828e-09 -5.299358e-10 -2.149030e-10
-4.115324e-09 -1.903242e-09 8.877481e-10 -1.536371e-10 1.981260e-11 -1.300129e-10
-2.894423e-09 -5.126337e-09 -1.183379e-09 2.984471e-09 -5.899476e-10 2.644717e-10
1.110423e-08 -2.811078e-08 2.429746e-09 -1.704152e-10 -1.530504e-09 1.256751e-10
1.156520e-08 -2.625740e-08 2.330660e-10 -1.914291e-11 -1.019813e-09 -2.628586e-11
6.121070e-09 -1.775197e-08 3.224490e-09 -1.181965e-09 1.063896e-10 -1.700986e-10
-4.455194e-09 8.687573e-09 -4.470732e-09 -9.401488e-09 -9.068540e-10 4.966986e-09
4.597787e-09 -1.686826e-08 2.820267e-09 -1.862664e-09 -2.483891e-10 -1.200055e-10
6.115916e-09 -1.911057e-08 2.835674e-09 -1.273541e-09 9.950436e-10 -1.242030e-10
6.790033e-09 -2.025082e-08 3.368020e-09 -4.381042e-10 1.526581e-10 -2.219355e-10
4.617308e-09 -8.002953e-09 -1.132529e-08 6.048511e-09 -2.408440e-09 1.183670e-09
9.966138e-09 -3.050327e-08 3.231806e-09 5.513248e-09 -6.912412e-09 8.665116e-10
-2.605132e-09 1.493818e-09 3.344771e-10 2.422651e-10 5.806511e-11 4.814926e-11
-3.479535e-09 1.780560e-09 5.409588e-10 2.902585e-10 -1.966205e-13 -1.564704e-11
-2.599467e-09 1.525121e-09 3.022227e-10 8.530465e-11 3.417733e-11 -5.504841e-11
1.010959e-08 -2.514483e-09 -3.514717e-08 -9.031036e-09 -1.144933e-08 -2.251563e-09
-2.407674e-09 1.236874e-09 2.282459e-10 1.811531e-10 9.300738e-11 8.123036e-11
7.314891e-09 -2.186372e-08 3.324292e-10 -6.492735e-09 -6.458647e-09 -1.298444e-09
1.456959e-08 -3.071695e-09 -2.937546e-08 -7.249485e-09 -1.421376e-08 -2.641710e-09
1.167814e-08 -2.804799e-08 1.648498e-09 3.898037e-11 -1.515174e-09 2.331080e-10
-2.838312e-09 1.552070e-09 3.447089e-10 2.503167e-10 7.423684e-11 4.424772e-11
-3.160201e-09 1.793103e-09 4.278464e-10 1.346807e-10 9.620971e-12 -9.419876e-11
1.327438e-08 -2.816359e-08 1.183949e-09 2.642739e-10 -7.162715e-09 1.123293e-10
3.248617e-09 6.482362e-09 -2.723541e-09 -4.133979e-09 7.236383e-10 7.744539e-11
-3.448145e-09 1.816309e-09 5.162222e-10 2.549377e-10 9.035467e-12 -3.452061e-11
-3.791616e-09 2.046461e-09 5.301422e-10 9.101164e-11 2.174660e-11 -3.852652e-11
-1.275670e-08 1.751311e-09 9.910891e-08 2.531056e-08 -2.116784e-08 -4.933351e-08
-2.168101e-08 -1.534738e-09 1.188484e-07 2.399945e-08 -3.888739e-08 -3.941707e-08
-4.709175e-08 -2.138440e-08 1.355613e-07 -5.701390e-09 -1.809587e-09 -2.293235e-08
-1.614072e-08 -1.421489e-08 8.681882e-08 7.128989e-09 -3.034651e-10 -1.921627e-08
8.121880e-09 -2.095548e-08 3.356751e-09 -1.921849e-10 5.121838e-10 -1.482437e-10
8.193147e-09 -1.917569e-08 -2.391042e-09 1.553560e-09 -1.103906e-09 5.606981e-10
6.348525e-09 -2.013738e-08 3.472450e-09 1.347539e-09 -2.607072e-10 1.706451e-10
6.815341e-09 -1.884008e-08 3.499756e-09 -4.400885e-10 2.490295e-10 -1.293342e-10
7.591995e-09 -2.130589e-08 3.437282e-09 8.717309e-10 8.783607e-10 -8.047452e-11
-7.325918e-09 1.209787e-08 -4.710207e-09 1.752067e-09 9.494139e-11 -2.863905e-10
-2.934151e-08 -2.050247e-08 1.019154e-07 -7.233322e-09 1.587178e-09 -6.904417e-09
-7.998000e-09 2.465232e-09 -1.035605e-09 5.068210e-09 7.805801e-10 -5.555537e-10
-8.357443e-09 1.117702e-08 -5.933868e-09 5.362250e-09 1.814338e-09 -1.120005e-09
-5.373112e-08 -2.955451e-08 1.196319e-07 1.723832e-09 -1.218920e-08 -1.620344e-08
-8.845875e-10 5.775843e-09 -2.101569e-09 -1.236142e-09 1.735854e-09 -1.382152e-10
-2.248232e-08 -1.803307e-08 1.190511e-07 -2.583819e-09 -2.696489e-09 -3.518502e-08
-9.342452e-09 6.625584e-09 -7.098637e-10 5.714124e-09 4.838261e-09 -2.078038e-09
-8.250092e-09 1.280065e-08 -2.493634e-09 1.026462e-09 1.597169e-09 -2.341481e-09
-2.921138e-09 -3.148966e-09 -1.784641e-09 2.748912e-09 -1.025125e-09 4.542588e-10
-1.144802e-09 6.677672e-09 -2.936346e-09 -8.253886e-10 -3.144352e-09 -6.829759e-10
-9.358481e-10 -2.928697e-09 -3.229779e-09 4.125639e-09 -1.634584e-09 9.076487e-10
1.942052e-09 -8.387031e-09 -6.243435e-09 4.562375e-09 -1.717018e-09 6.683929e-10
-2.176315e-11 -3.579355e-09 -3.977693e-09 5.474807e-09 -3.708996e-09 1.359648e-09
-2.320698e-09 1.541418e-08 -2.909351e-08 -9.082070e-09 -1.139926e-08 -7.927172e-09
-7.140021e-09 7.268603e-09 -2.619779e-09 -1.717377e-09 -4.957644e-09 -2.742808e-09
-4.818890e-10 -6.445320e-09 -3.297284e-09 4.109078e-09 -1.704647e-09 8.848002e-10
-8.172374e-09 5.369888e-09 -7.214291e-10 -1.632613e-09 -3.519722e-09 -6.827020e-10
-5.495917e-09 7.260963e-09 -1.387276e-09 -2.349120e-09 -4.556259e-09 -4.232143e-09
-2.235033e-09 7.836327e-09 -5.073839e-09 4.268754e-10 -3.368901e-09 -1.911137e-09
1.460449e-09 -1.038815e-08 -4.526261e-09 5.537559e-09 -3.124167e-09 1.276334e-09
-7.777687e-10 -4.352669e-09 -2.622477e-09 4.852387e-09 -2.334022e-09 6.797631e-10
-3.750017e-09 -6.395361e-09 6.123075e-10 -5.374758e-10 -3.001581e-10 -3.504412e-10
1.836144e-09 -1.025432e-08 -3.306612e-09 4.880848e-09 -3.824473e-09 2.074549e-09
-7.769685e-09 2.339285e-09 -1.636560e-09 -3.433123e-09 -7.197667e-10 -1.172786e-09
-7.060491e-09 4.584191e-10 -2.721610e-10 -1.501392e-09 -2.531353e-10 -2.774138e-10
-8.070778e-09 1.973833e-09 -2.934299e-09 -3.100586e-09 -1.716974e-09 -2.192915e-10
-3.755760e-09 -7.083528e-09 -2.386692e-09 -5.002737e-09 -3.115262e-09 -8.523172e-10
-8.664703e-09 1.143373e-09 1.883047e-09 -3.538361e-10 -5.595613e-10 1.448397e-12
-9.262251e-09 3.651808e-09 -1.413268e-09 -5.578618e-10 -8.333587e-10 -1.872169e-11
-9.040098e-09 4.266044e-09 -9.167032e-10 -5.139189e-09 -5.035663e-09 -1.752642e-09
-3.992648e-09 2.324688e-09 5.818805e-10 -1.290623e-09 -2.913351e-10 -1.651276e-10
-4.340868e-09 2.303513e-09 6.641694e-10 -5.434474e-10 -1.075080e-10 -2.755152e-10
-4.201170e-09 2.226674e-09 5.037353e-10 -1.018353e-09 -2.624061e-10 -2.824698e-10
-9.044974e-09 4.041293e-09 -1.102033e-09 -1.003202e-09 -4.328130e-10 -6.721619e-10
-4.776670e-09 6.092211e-10 9.666175e-10 -1.507920e-10 -4.441271e-10 -3.518943e-10
-3.500687e-09 2.169736e-09 3.306195e-10 -1.242201e-09 -2.875351e-10 -1.127861e-10
-7.987758e-09 3.962107e-09 -1.980875e-09 -2.633799e-09 -2.197874e-09 -5.516305e-10
-2.916043e-09 2.477746e-09 1.753935e-10 -5.044720e-11 -2.665679e-11 1.880696e-11
7.447917e-09 -1.751459e-08 -6.165825e-09 2.915175e-09 -1.142308e-09 5.308768e-10
7.000800e-09 -1.566022e-08 -5.500279e-09 4.039488e-09 -2.404508e-09 2.330571e-10
3.950325e-09 -8.755851e-09 -8.788474e-09 6.284939e-09 -2.836836e-09 1.095668e-09
4.280224e-09 -1.137754e-08 -5.209596e-09 5.295056e-09 -1.257028e-09 3.945582e-10
-3.572413e-09 2.756282e-09 2.373006e-10 -9.956214e-11 -2.607647e-11 -6.572498e-11
9.453890e-09 -1.902865e-08 -7.141005e-09 3.761401e-09 -5.486033e-09 1.354032e-09
-3.461673e-09 2.789768e-09 2.642664e-10 -7.610801e-11 -4.162048e-11 -6.703860e-12
6.138892e-09 -3.196004e-09 -7.850671e-10 -1.166383e-10 4.102829e-12 1.388128e-10
7.688061e-09 -1.319486e-08 -8.741440e-09 4.490058e-09 -2.997098e-09 1.674004e-09
-5.264949e-09 2.865177e-09 5.402274e-10 -1.496653e-09 3.955081e-10 3.592939e-10
-5.521702e-09 2.712913e-09 7.117769e-10 -1.271751e-09 5.363436e-10 3.021683e-10
-5.385151e-09 2.450951e-09 -1.313785e-10 -4.291773e-09 3.223687e-11 -2.838651e-10
-5.081829e-09 -2.174578e-09 -2.768168e-10 -7.437677e-09 -2.704244e-10 -1.600153e-10
-6.085768e-09 4.226930e-09 -2.165486e-10 -3.002238e-09 -2.584333e-11 -2.893965e-10
2.674831e-09 -1.072059e-09 -5.486100e-10 -6.422629e-10 1.061493e-10 -4.908274e-11
2.269392e-09 -8.965708e-10 -4.292282e-10 -3.483571e-10 -1.535503e-10 1.603582e-10
-5.157612e-09 2.394078e-09 -4.527605e-10 -4.219161e-09 5.754890e-10 4.403284e-10
-6.425088e-09 3.386685e-09 2.431544e-10 -2.126213e-09 -4.472882e-10 -4.706587e-10
4.192194e-10 -1.441931e-08 4.655257e-08 2.478881e-08 6.792118e-09 5.216964e-09
6.670827e-10 -2.091596e-09 5.003083e-08 -3.201549e-08 -1.936462e-08 2.377917e-08
1.845792e-09 -1.428613e-08 4.589143e-08 2.515506e-08 1.972153e-08 2.144619e-08
1.882031e-08 -2.044815e-08 5.671548e-08 8.639863e-09 -1.376663e-09 4.402761e-09
-3.641128e-09 2.558181e-09 3.662657e-10 -6.126450e-10 -5.690264e-11 -1.039902e-10
-2.707125e-09 2.094168e-09 1.457714e-10 1.121059e-11 -5.057710e-11 -1.240030e-11
-4.844792e-09 2.036337e-08 -2.173866e-09 1.904623e-08 3.754420e-09 -2.979058e-09
-1.197873e-09 5.124563e-09 3.857749e-08 2.543660e-08 8.671888e-09 8.939267e-09
2.949312e-09 -1.370684e-09 -5.009448e-10 -2.996077e-10 -1.281559e-10 -1.321959e-10
-3.941344e-09 2.126285e-09 4.022822e-10 -1.230705e-09 -1.914155e-10 -1.315286e-10
-4.345583e-09 2.239276e-09 6.493992e-10 -6.812217e-11 -6.928064e-11 -3.909619e-10
7.033620e-09 -5.417377e-09 4.655257e-08 2.082816e-08 7.619738e-10 6.708790e-09
1.025476e-08 1.404061e-09 6.867067e-09 2.261043e-08 6.479838e-09 8.004892e-10
2.237552e-08 -9.742963e-09 2.511060e-08 1.812224e-08 1.807906e-09 1.246238e-08
-5.257091e-09 -3.993261e-09 1.269752e-09 -5.359110e-09 -2.185127e-09 -6.906747e-10
2.647391e-08 -9.269599e-09 1.786879e-08 1.568312e-08 3.311965e-09 1.480259e-08
2.865264e-09 -9.297236e-09 -5.209596e-09 3.760545e-09 -1.477036e-09 3.134120e-10
-9.187353e-09 1.933793e-09 5.010814e-10 -8.497691e-10 -7.617771e-10 -1.110423e-10
-5.266623e-09 -3.087797e-09 8.669865e-11 -4.574101e-10 1.208661e-19 -1.321201e-10
3.260982e-09 -1.345491e-08 3.033184e-09 -2.354559e-09 6.750440e-10 -4.399860e-10
-8.943255e-09 1.306688e-09 4.476415e-10 -2.814811e-10 -1.147793e-10 1.735434e-11
-1.145306e-11 -9.317958e-09 -2.317488e-09 -2.145628e-09 -3.956468e-10 -3.355947e-10
2.818369e-09 -1.249587e-08 2.961839e-09 -1.020597e-09 1.132313e-10 -2.621184e-10
1.063186e-09 -1.047741e-08 2.204408e-09 -2.587892e-09 6.789888e-10 -4.625084e-10
1.693854e-09 -1.153250e-08 2.612197e-09 -2.499798e-09 -3.284383e-10 -4.455763e-10
-4.731106e-09 -4.310741e-09 -2.884621e-10 -1.430643e-09 -8.140419e-10 -3.126330e-10
1.685675e-09 -1.138426e-08 2.680151e-09 -2.481243e-09 1.470981e-10 -6.069050e-10
9.300133e-09 -2.124436e-08 -1.467972e-10 -6.162968e-10 -8.870580e-10 -5.643084e-10
-3.855496e-09 -3.479053e-09 1.213670e-09 1.752042e-09 -8.424994e-10 -1.049106e-10
1.839387e-09 -1.484528e-08 2.285002e-09 -6.179834e-10 -9.563596e-10 3.036416e-11
-3.379379e-09 -2.901945e-09 1.458304e-09 1.472554e-09 -1.205826e-10 -1.154071e-10
-2.468573e-09 -5.049062e-09 1.683239e-09 8.020153e-10 -8.557994e-10 -3.695889e-10
-2.352653e-09 -5.986093e-09 1.317980e-09 3.063983e-09 -1.969374e-09 1.771661e-10
-8.646762e-09 9.783179e-10 9.026553e-10 -2.019759e-10 -1.230887e-10 -1.588535e-11
-3.848985e-09 2.676503e-09 3.800071e-10 -1.831544e-10 2.049472e-13 -9.629097e-11
-3.208497e-09 2.509192e-09 2.827778e-10 -4.316982e-10 -5.064693e-11 -6.497525e-11
-4.468413e-09 2.439974e-09 5.680771e-10 -5.650262e-10 -1.565193e-12 5.870415e-11
-3.856486e-09 -3.891003e-09 9.398460e-10 1.681262e-09 -1.339958e-09 -1.113938e-10
-2.221916e-09 -4.461143e-09 9.356724e-10 1.593827e-09 -1.282411e-09 -1.544898e-10
-4.144431e-09 2.665672e-09 4.399401e-10 -1.921192e-10 -3.200729e-11 -1.992657e-10
-4.073404e-09 2.562976e-09 5.017080e-10 -5.467116e-10 -8.482604e-11 -9.768630e-11
-2.934675e-09 -4.963963e-09 7.623979e-10 7.680190e-10 -5.913656e-10 -1.385355e-10
-2.760874e-09 -4.597950e-09 1.273580e-09 -1.769073e-10 1.784045e-10 -3.265772e-10
-2.848700e-09 -6.898055e-09 1.245589e-09 3.980698e-09 -1.388478e-09 -5.091716e-11
1.046164e-08 -2.060018e-08 -5.555822e-09 2.019904e-09 -2.795224e-09 3.940772e-10
6.807594e-09 -2.032225e-08 3.851455e-09 -3.365801e-10 -2.672963e-11 -1.715107e-10
7.227106e-09 -1.896428e-08 3.128760e-09 -1.532392e-09 1.163097e-10 -1.130402e-10
6.811688e-09 -2.007124e-08 3.620602e-09 -3.725727e-10 -3.352794e-10 -1.017491e-10
7.223684e-09 -1.988979e-08 2.727939e-09 -1.357886e-09 9.557450e-10 -3.744155e-10
3.786344e-09 -1.346271e-08 -6.818945e-10 3.664802e-10 1.785532e-19 2.436056e-10
9.671978e-09 -2.175563e-08 -3.344460e-09 1.630456e-09 -3.087174e-09 4.635331e-10
6.826762e-09 -2.014851e-08 3.697857e-09 1.274548e-10 4.042307e-10 -2.418736e-10
1.150438e-09 -9.114443e-11 -7.998668e-11 2.274911e-09 -6.808287e-11 -5.443157e-11
2.019442e-10 2.929679e-10 5.629897e-11 2.498541e-09 1.110789e-10 5.649481e-11
-3.580336e-11 2.801268e-10 5.067147e-11 2.351487e-09 -8.731151e-11 -4.683769e-10
1.102463e-08 -2.258509e-08 -3.139584e-09 -2.750169e-10 -4.803815e-10 -2.757461e-11
-4.946846e-09 -1.056446e-09 -2.500442e-09 -5.036314e-09 -9.084875e-10 -1.509530e-10
-3.636153e-09 1.059032e-08 -1.797095e-08 -7.266440e-09 -6.821783e-09 -4.834503e-09
-3.758460e-10 5.895942e-10 1.114255e-10 2.620161e-09 9.447100e-11 -1.481180e-10
-3.164614e-09 4.159610e-09 -1.257847e-08 -8.060428e-09 -4.328407e-09 -1.533773e-09
-1.767764e-09 1.167892e-09 2.918030e-10 1.957116e-09 5.364194e-11 -2.868612e-10
-7.229479e-10 -9.655835e-09 -2.052219e-09 -4.709200e-09 -3.654860e-09 -1.139069e-09
-4.916526e-09 7.669808e-09 -1.187031e-08 -5.007175e-09 -1.424695e-09 -1.024011e-09
1.696989e-08 -6.647156e-10 -3.553092e-09 4.910751e-09 -7.114995e-10 -6.367862e-10
-2.794522e-09 1.293290e-09 5.649008e-10 9.169696e-10 6.040213e-11 -1.797340e-11
-2.233140e-09 1.146312e-09 4.087140e-10 1.471123e-09 -1.084022e-12 -8.300338e-11
-2.647855e-10 6.569056e-10 2.052181e-10 2.497456e-09 7.757683e-12 -3.496359e-11
-3.856670e-09 1.054068e-09 8.979710e-10 2.648469e-10 8.623952e-11 -1.325748e-10
6.692692e-09 -1.947888e-08 3.709656e-09 1.243512e-10 1.201215e-10 -5.087497e-11
-1.089445e-09 1.147870e-09 2.927996e-10 2.211822e-09 2.648342e-10 -1.833689e-11
7.549704e-09 -1.992792e-08 3.552778e-09 3.050545e-10 2.142221e-10 -4.469864e-11
7.048233e-09 -2.069504e-08 3.527779e-09 -6.186822e-10 2.883562e-11 -1.579478e-10
7.466410e-09 -2.044585e-08 3.699619e-09 3.721857e-11 3.802605e-10 -2.987888e-10
1.986533e-09 -1.037401e-09 -2.321641e-10 4.908318e-11 1.226880e-10 -1.601408e-10
5.197663e-09 -2.458893e-09 -5.369190e-10 1.481825e-09 1.358276e-10 2.547065e-10
4.206834e-09 -2.048897e-09 -4.849174e-10 6.565304e-10 1.202600e-10 4.948845e-10
1.262599e-09 -6.426939e-10 -1.870193e-10 1.951894e-10 1.438317e-10 1.650381e-10
6.635841e-09 -1.966602e-08 3.828471e-09 1.840808e-10 -1.698088e-10 1.399658e-11
2.965599e-09 -1.645197e-09 -3.967302e-10 1.073890e-09 5.398704e-11 -2.802003e-11
6.000915e-10 -9.542722e-11 -1.315668e-10 1.672785e-09 2.303568e-10 1.281859e-10
1.530368e-09 -1.062896e-10 -3.110578e-11 3.078574e-09 -1.137859e-10 -1.819074e-10
6.805554e-09 -2.015888e-08 3.760098e-09 1.624138e-10 5.338873e-12 -4.396028e-11
3.926131e-09 -2.164389e-09 -5.336163e-10 1.526302e-09 1.748457e-10 2.791434e-11
2.224181e-09 -1.183887e-09 -3.191691e-10 4.366393e-10 -1.734612e-12 5.568068e-11
-3.725201e-10 -2.111301e-09 -1.107956e-08 7.231972e-09 -5.345062e-09 3.940353e-09
2.940796e-09 -1.612867e-09 -4.184466e-10 2.763022e-10 1.394049e-10 1.222404e-10
-3.826495e-09 6.097460e-10 1.177647e-09 -6.568191e-11 8.226642e-11 -2.958216e-10
3.388390e-09 -1.500597e-09 -5.030929e-10 2.976810e-10 1.185694e-10 -2.726597e-11
-4.126409e-09 2.621547e-10 1.224960e-09 -2.127381e-09 3.538058e-12 -3.198082e-10
2.380665e-09 -1.308483e-09 -4.021583e-10 1.235915e-09 2.423389e-10 1.152145e-10
-7.972923e-10 -6.179907e-09 6.228493e-10 -5.904092e-09 -3.072212e-10 -4.041320e-10
3.179424e-09 -1.783506e-09 -4.436900e-10 4.460548e-10 2.063699e-10 3.507300e-11
-3.626307e-09 -1.994931e-09 1.511137e-09 -2.659329e-09 6.756951e-11 -2.787481e-11
3.283457e-09 -2.071130e-09 -5.233394e-10 5.637832e-10 1.382962e-10 -1.246585e-10
-3.590106e-09 -4.863594e-10 1.332134e-09 -2.368708e-10 -6.301624e-13 -1.405571e-10
-3.478264e-09 -1.464243e-09 1.546765e-09 -4.386880e-10 -3.435385e-10 -3.097183e-10
-3.806060e-09 9.781531e-10 1.048398e-09 2.784075e-10 2.895306e-11 -2.002345e-10
2.865264e-09 -1.196121e-08 -1.054631e-09 3.576719e-09 -1.379543e-09 6.467953e-11
4.932527e-09 -2.563884e-09 -6.891465e-10 -1.260490e-09 -1.045262e-10 -5.776069e-11
-3.907697e-09 3.653460e-10 1.166945e-09 -2.930273e-10 -5.959189e-11 -1.588672e-10
-3.906495e-09 -1.240212e-09 1.403052e-09 -1.722190e-09 -2.093857e-10 -3.040612e-10
-3.906495e-09 2.047571e-10 1.281644e-09 -1.133945e-09 6.240142e-11 -4.219463e-10
5.968799e-09 -3.267922e-09 -7.496030e-10 4.938008e-11 8.298502e-12 7.479684e-12
6.860295e-09 -3.305219e-09 -6.826006e-10 -6.731440e-10 4.304868e-11 -1.038415e-10
5.584399e-09 -3.185838e-09 -7.491203e-10 1.897388e-10 -1.434769e-11 7.806578e-11
5.603468e-09 -2.962217e-09 -7.310721e-10 -1.006273e-09 -2.396692e-11 -3.533387e-11
6.086043e-09 -3.386530e-09 -4.838592e-10 6.815782e-10 -4.472714e-11 -2.960412e-10
5.920203e-09 -3.339409e-09 -7.030240e-10 1.252126e-10 9.342683e-12 4.489131e-11
6.297856e-09 -3.605665e-09 -6.398277e-10 -3.211366e-10 -3.397971e-11 -6.503043e-11
5.891384e-09 -3.267922e-09 -7.516752e-10 7.824524e-11 -1.689371e-11 4.244782e-11
4.627964e-09 -2.555171e-09 -7.133663e-10 -1.608902e-09 -1.888369e-10 1.348481e-10
3.436044e-09 -1.112459e-09 -5.130669e-10 -3.444018e-09 -7.624326e-11 3.484164e-10
5.331921e-09 -3.006068e-09 -7.301446e-10 -4.891693e-11 -4.433887e-11 4.793055e-11
6.460466e-09 -3.630493e-09 -6.811245e-10 -2.033936e-10 4.346168e-11 -8.415824e-11
5.233030e-09 -2.912185e-09 -6.886749e-10 -5.204476e-11 -1.086691e-10 3.399547e-11
1.485940e-09 -1.159147e-08 1.242583e-09 -6.517974e-09 3.104976e-10 -2.142931e-10
1.894293e-09 -1.232665e-08 1.935410e-09 -4.242051e-09 6.549339e-11 -2.171878e-10
-2.229843e-09 -4.346905e-09 1.810736e-09 -2.914533e-09 1.512914e-10 -2.233087e-10
-4.102463e-09 -1.622343e-09 1.456783e-09 -2.789824e-09 -1.590550e-10 -2.652026e-10
-3.936639e-09 6.383609e-10 1.174191e-09 -2.138667e-11 1.808131e-11 -2.506391e-10
-4.153230e-09 2.627312e-10 1.179101e-09 -2.141079e-09 3.718461e-10 3.451081e-11
5.760730e-09 -3.266851e-09 -7.632295e-10 -6.610850e-10 1.306921e-11 9.734702e-11
5.085892e-09 -2.504512e-09 -7.240959e-10 -1.087553e-09 -1.026842e-10 1.454509e-10
-4.097946e-09 -3.435398e-09 1.053701e-09 -6.066697e-09 -7.282869e-11 -1.052224e-10
5.566334e-09 -2.784714e-09 -7.107821e-10 -1.388413e-09 4.277096e-11 -2.432745e-10
-3.554365e-09 -6.348877e-10 1.365313e-09 1.490990e-10 3.150480e-11 -3.775721e-10
5.173021e-09 -2.852025e-09 -7.317613e-10 -6.483648e-10 3.574759e-11 -1.160416e-10
-1.943116e-09 6.941073e-09 -2.237093e-09 -1.347488e-09 1.695040e-09 -1.481165e-09
3.200163e-09 -1.384302e-08 2.751937e-09 -4.332362e-09 3.266849e-10 -5.619114e-10
-4.660585e-09 2.039967e-09 9.216525e-10 -4.815759e-10 5.489920e-10 1.099851e-10
-5.264949e-09 1.497513e-11 1.050849e-09 -2.783348e-09 1.123828e-10 1.642046e-10
-6.423637e-10 -6.619303e-09 2.322757e-09 4.089795e-11 4.272183e-11 -6.550619e-10
-6.422476e-09 2.836228e-09 4.908665e-10 -1.467069e-09 1.193917e-10 2.060359e-10
2.587104e-09 -1.299610e-08 -3.922542e-10 -8.726968e-09 8.379699e-10 2.721693e-10
1.767162e-09 -1.042057e-08 -5.550116e-10 -8.489255e-09 5.468386e-10 9.285397e-11
4.524482e-09 -1.428485e-08 8.360395e-10 -5.436134e-09 7.625256e-10 3.389197e-10
2.587104e-09 -1.213832e-08 -1.015845e-09 -8.926845e-09 5.873475e-10 1.504184e-10
8.978400e-10 4.748109e-09 -2.221523e-09 4.375585e-10 1.249058e-09 1.360729e-09
-7.236947e-10 -8.098500e-09 1.214770e-09 -5.827513e-09 3.996963e-10 2.291308e-10
-4.247205e-09 5.207665e-10 -3.578715e-10 -5.572625e-09 1.879408e-10 -1.120886e-10
1.662298e-09 5.800673e-09 -2.385962e-09 -1.511242e-09 1.996402e-09 -1.795140e-09
-2.607264e-10 1.279498e-08 -4.103225e-09 6.619100e-09 -2.469604e-09 -5.879596e-09
-5.188491e-09 2.454186e-08 -1.320928e-08 1.292037e-08 -2.624822e-09 -4.704965e-09
-4.006880e-08 3.902057e-08 5.449986e-08 1.505223e-08 4.302179e-08 -3.312423e-09
-2.012123e-10 2.823969e-08 -1.432707e-08 1.623298e-08 4.213490e-09 -3.583168e-09
-7.174616e-09 6.090333e-09 -2.929145e-09 -5.688371e-09 -7.549639e-09 -4.771245e-09
2.378363e-08 -3.666355e-09 -5.373453e-09 4.738427e-09 -4.205308e-10 1.012949e-10
-4.531096e-09 1.042672e-08 -5.588781e-09 8.056739e-10 -2.760485e-09 -2.397767e-09
-5.122652e-09 1.550465e-08 -1.245013e-08 4.143933e-09 -3.675195e-09 -5.564759e-09
-1.288449e-09 1.955565e-08 -1.250296e-08 8.795217e-09 -1.555934e-09 -1.199262e-09
-5.442079e-09 7.955902e-09 -2.903883e-09 -9.547241e-10 -2.592627e-09 -1.094235e-09
-4.490401e-09 1.015939e-09 8.832322e-10 3.801760e-11 -1.207169e-10 -3.742922e-10
3.116165e-09 5.539314e-09 -2.287325e-09 -3.431806e-09 1.548599e-09 1.885654e-10
1.104684e-08 -8.203698e-10 -1.812126e-09 -1.979284e-09 1.266948e-09 2.204003e-09
-3.470482e-08 1.395770e-08 4.584213e-08 -2.346752e-08 -2.216693e-08 1.510886e-09
1.687023e-08 -2.192160e-10 -3.403877e-09 -4.052897e-09 5.905157e-10 -1.878713e-09
3.361809e-09 2.545100e-09 -3.110056e-09 8.655965e-12 1.081573e-09 -2.677139e-10
-4.519977e-08 1.809748e-08 4.612632e-08 -2.535512e-08 -2.095762e-08 7.382716e-11
-1.781498e-09 -6.197568e-09 1.760761e-09 -5.161138e-11 -3.485980e-10 -6.238471e-10
4.293023e-09 1.352580e-08 -2.446425e-09 -9.878764e-09 1.036419e-09 9.912564e-11
-1.088514e-09 -1.007959e-08 -1.296947e-10 4.018786e-09 -2.741046e-09 6.210801e-10
2.804293e-09 -1.125596e-08 -3.257434e-10 4.586419e-09 -3.095176e-09 1.063062e-09
4.675942e-09 -1.651722e-08 -3.467657e-10 4.935812e-09 -2.664641e-09 2.859288e-10
4.021500e-09 -1.693836e-08 1.498450e-09 5.805158e-09 -5.420149e-09 1.837095e-09
3.778808e-09 -1.552719e-08 3.844833e-10 3.560917e-09 -1.332717e-09 1.615397e-10
1.696458e-09 -1.310913e-08 1.503992e-09 2.283977e-09 -1.011020e-09 4.139650e-11
-2.829580e-09 -2.700494e-09 1.784375e-09 -6.292677e-10 -5.893930e-11 -3.119178e-10
-2.945995e-09 -2.290861e-09 1.583653e-09 -3.592504e-10 -6.794609e-11 -3.280336e-10
-1.584920e-08 2.929007e-08 -4.369777e-10 -1.991597e-08 -6.484080e-09 -3.586784e-09
-5.607474e-09 1.042704e-08 -1.279594e-09 -9.080554e-09 2.544878e-09 -3.137252e-09
6.173515e-09 -7.764553e-09 -1.590565e-08 -1.439325e-08 8.141456e-09 3.520050e-09
-7.888661e-10 3.201481e-09 -1.176499e-08 -1.388707e-08 5.565818e-09 2.512911e-09
-7.365607e-09 2.391523e-08 -2.197572e-08 8.523551e-09 9.536882e-09 -7.529212e-09
9.356706e-09 -1.799699e-08 -1.119514e-08 -9.974291e-09 7.017183e-09 1.266718e-09
-1.186413e-09 2.153573e-09 -6.412737e-10 -5.361004e-09 1.038725e-10 -2.109503e-10
3.902201e-09 -1.363677e-10 6.242740e-11 -7.232026e-09 -2.524856e-10 4.573830e-10
-1.124477e-09 3.085628e-09 -7.207506e-10 -7.645205e-09 -2.030387e-10 6.397893e-10
-5.109494e-09 3.080245e-09 -2.545684e-09 -3.893632e-10 -3.183711e-10 4.541349e-10
-4.887359e-09 6.205028e-09 -3.467090e-09 -4.103626e-09 -4.723524e-10 4.051643e-10
-3.890045e-09 -1.620434e-09 1.245972e-09 7.181455e-10 -2.601089e-10 -6.582084e-10
-2.598110e-09 -3.081652e-09 1.822229e-09 -1.044345e-09 1.185270e-10 -3.618934e-10
2.399826e-09 3.996130e-09 -1.263141e-09 -9.436632e-09 -1.689065e-10 5.865028e-10
1.790448e-10 3.397319e-09 -7.893011e-10 -7.352173e-09 -4.594658e-11 1.396093e-10
-2.701753e-09 2.112915e-09 -4.710206e-10 -3.585943e-09 1.860736e-10 -2.119971e-10
-1.361279e-09 4.208038e-09 -1.193071e-09 -6.421417e-09 -6.539395e-10 5.602716e-10
-5.342528e-09 8.591258e-09 -7.096081e-09 -2.581047e-09 -8.591010e-10 1.012415e-09
-4.729037e-09 6.886471e-09 -5.216804e-09 -3.652903e-09 -6.455703e-10 -4.197969e-10
-3.424633e-09 1.290873e-08 -4.823240e-09 -8.835303e-09 -2.033530e-09 1.792442e-09
-4.616599e-09 2.178649e-09 9.115886e-10 -6.539619e-10 3.877962e-10 1.269966e-10
-4.657411e-09 3.615180e-08 -4.400993e-08 5.107516e-09 6.254308e-09 -5.169796e-09
8.802254e-09 -7.038136e-09 -1.990538e-08 -1.270951e-08 3.920928e-09 2.101830e-09
-3.464283e-09 -1.123284e-09 1.620075e-09 -4.217622e-10 3.305438e-10 -2.838365e-10
-2.811156e-09 -2.484826e-09 1.774996e-09 -1.089646e-09 3.240883e-10 -5.884510e-10
7.157927e-09 -1.524358e-08 -3.230453e-09 1.039704e-08 1.826262e-09 -5.683989e-10
-3.309324e-09 -1.278910e-09 1.646087e-09 -7.484755e-10 -2.598581e-10 -3.473107e-10
1.522233e-08 -1.858207e-08 -1.504616e-08 7.396868e-09 8.200973e-09 -1.135153e-09
1.215122e-08 -2.466641e-08 -7.732182e-09 -4.966014e-10 5.495061e-09 -2.118845e-10
-3.541262e-09 -6.861489e-10 1.328100e-09 -5.984671e-10 9.252321e-11 -3.752305e-10
-3.410635e-09 2.306189e-09 2.546185e-10 -9.468998e-10 -1.421526e-10 -2.189151e-10
-3.854133e-09 2.473275e-09 4.855074e-10 -4.034146e-10 -1.039646e-10 -3.082069e-10
-4.419706e-09 2.393957e-09 5.845011e-10 -6.384186e-10 -8.729184e-11 -1.741358e-10
-4.378450e-09 2.380074e-09 4.613749e-10 -9.933385e-10 -9.026968e-11 -2.967528e-10
-4.599656e-09 2.255834e-09 7.081513e-10 -1.229941e-10 -4.180523e-11 -2.160735e-10
1.287155e-08 3.528397e-08 -6.016985e-08 1.959919e-09 1.494612e-08 9.057817e-09
-3.747622e-09 2.348143e-09 4.002778e-10 -1.256415e-09 -1.750293e-10 -1.038645e-10
-8.350066e-09 6.236211e-08 -4.888365e-08 -4.249759e-09 -9.114765e-09 1.837529e-09
2.709470e-09 -1.185835e-08 3.729658e-08 1.577314e-09 -9.704706e-09 -1.474159e-08
-2.149615e-09 3.373414e-08 -4.306520e-08 -2.926959e-09 -1.515580e-08 -1.005247e-08
-3.335001e-09 1.734971e-09 5.168717e-10 4.937472e-10 1.130824e-10 1.964000e-11
-3.334709e-09 1.777705e-09 5.003975e-10 2.169163e-10 8.940959e-11 -5.734169e-11
-2.879570e-09 1.772534e-09 3.684104e-10 1.768870e-10 8.579900e-11 -1.098166e-11
1.049796e-08 -7.672201e-09 -2.282713e-08 6.437134e-09 -1.210527e-08 3.944750e-09
-3.972787e-09 1.556058e-09 9.154992e-10 1.502192e-10 3.221925e-10 1.645291e-10
1.022134e-08 2.804861e-08 -4.750543e-08 -4.828099e-09 -9.081049e-09 9.918142e-10
-5.747277e-10 7.359271e-09 -1.772727e-08 6.185131e-09 -6.921401e-09 6.617508e-09
-5.717026e-09 -5.406797e-09 2.387357e-09 3.163723e-09 -2.439489e-10 2.290959e-10
-6.255314e-09 -1.357006e-09 1.657869e-09 3.410309e-09 6.799761e-11 -2.561651e-10
6.731328e-09 4.917192e-09 -3.075223e-08 4.127066e-09 -4.806578e-09 3.167803e-09
-6.525471e-09 -3.101133e-09 1.768012e-09 1.376597e-09 9.593215e-11 -6.260325e-12
-7.020521e-09 5.379279e-09 -1.488259e-09 -4.997799e-09 1.657789e-10 -7.839384e-11
-5.255947e-09 -4.809816e-09 2.615746e-09 2.437330e-09 7.050104e-10 1.301077e-10
-5.443408e-09 3.134635e-09 -2.176249e-09 -6.798359e-09 1.411585e-09 5.257749e-10
-3.957236e-09 -7.577102e-09 3.543676e-09 1.281076e-09 1.790641e-10 1.240714e-10
-5.005030e-09 -6.337517e-09 3.129871e-09 1.075966e-09 1.303573e-10 -1.919980e-10
-3.679039e-09 -6.912961e-09 3.004260e-09 2.674681e-09 4.898115e-11 3.921539e-10
-9.227541e-09 3.294887e-09 -2.251864e-09 -7.606352e-09 1.430737e-09 1.439116e-09
-6.297161e-09 3.739382e-10 -4.527596e-10 -6.439571e-09 4.406366e-10 4.003267e-10
8.802914e-09 -1.049746e-08 -1.757598e-08 -1.266595e-08 3.776980e-09 2.050511e-09
1.710660e-09 7.854719e-09 -1.677844e-09 -1.280946e-08 1.267934e-09 7.462511e-10
-5.184390e-09 -5.391787e-09 2.904866e-09 9.688841e-10 6.211098e-11 2.555756e-11
-2.502969e-09 6.081505e-09 -2.692666e-09 -6.578788e-09 -6.579493e-11 3.462262e-10
-6.175772e-10 5.106454e-09 5.790751e-09 -1.165731e-08 4.010555e-10 -1.405781e-09
-9.813467e-10 2.245806e-08 -2.413487e-08 -1.260551e-08 -4.866803e-09 2.579156e-09
-4.297316e-09 -6.982323e-09 2.836952e-09 3.343103e-09 3.959564e-10 -1.583469e-10
2.261106e-08 -6.679863e-09 -1.075319e-09 8.205885e-09 1.010093e-09 2.172670e-09
-4.448923e-10 7.386210e-09 -1.870671e-09 -9.421213e-09 2.852958e-10 1.264502e-09
1.623811e-09 7.855196e-09 3.655418e-10 -1.280447e-08 1.221946e-09 -3.106118e-10
-3.365668e-09 5.994439e-09 -2.203847e-09 -5.534166e-09 -1.061041e-09 1.548847e-09
-3.498384e-10 4.175221e-09 -9.483658e-10 -8.567596e-09 -4.421078e-10 9.884344e-10
2.807949e-08 -1.343392e-08 1.535773e-09 -1.322533e-09 5.789438e-10 7.832711e-11
2.248696e-08 -7.077950e-09 -2.554469e-09 1.440241e-09 1.602141e-10 8.790988e-10
1.881234e-08 -5.235865e-09 -2.608010e-09 2.755388e-09 -1.194025e-10 1.245745e-09
-7.076091e-08 -3.077029e-08 1.831640e-07 -1.352383e-09 6.317056e-09 4.059507e-09
-5.945043e-08 4.735930e-09 1.227167e-07 4.950330e-09 3.313304e-08 1.569430e-08
-7.995541e-09 2.620416e-09 -6.677914e-11 -5.333631e-09 -1.116448e-10 6.300459e-11
-2.803572e-09 -4.494800e-09 1.676807e-09 1.213024e-09 -3.422721e-10 -5.442259e-10
1.248672e-08 2.063955e-08 -4.150899e-08 -8.579982e-10 -1.614956e-08 6.302175e-09
-4.177663e-08 5.201380e-09 4.486236e-08 -1.772143e-08 4.763572e-09 2.116600e-09
-7.284567e-08 -2.068083e-08 1.776444e-07 -8.186215e-09 3.003882e-08 -1.266768e-08
-5.052395e-08 -3.353441e-10 8.799879e-08 -2.307912e-08 -2.256522e-08 7.069477e-09
-7.280943e-08 -3.136273e-08 2.390089e-07 3.284121e-09 -9.427453e-09 -3.310979e-09
-6.697269e-08 -4.240960e-08 1.917772e-07 -1.998794e-09 3.816421e-10 6.955192e-09
8.392981e-09 -2.225810e-08 2.039389e-09 4.055710e-09 -3.925135e-09 7.430140e-10
-1.665165e-08 1.010922e-08 7.403799e-08 -2.069559e-08 2.107898e-08 -2.753457e-08
9.400649e-09 -2.289115e-08 5.902476e-10 5.554592e-10 -2.480882e-10 4.030322e-10
-1.400639e-08 3.224086e-08 -2.822784e-08 -1.103474e-08 5.557568e-09 2.414695e-08
-7.096290e-09 2.777649e-09 2.406819e-08 1.088760e-08 -3.921850e-09 -6.262578e-09
-1.377118e-08 1.574664e-08 -9.890229e-09 -6.135518e-09 2.939218e-09 7.032763e-09
-9.859608e-09 7.673102e-09 4.720857e-09 5.101067e-09 -1.216077e-09 -9.931937e-10
1.058873e-08 -2.331649e-08 -1.199221e-09 6.575192e-09 -5.631650e-09 2.402339e-09
8.267099e-09 7.377763e-09 -4.000621e-08 -6.652382e-09 -1.842450e-08 -3.704959e-09
8.451700e-09 -2.355558e-08 5.549974e-10 4.802418e-09 -5.313493e-09 1.517792e-09
1.187210e-08 -2.699260e-08 1.836119e-09 5.698302e-10 -1.683836e-09 -2.654004e-10
-6.878569e-09 1.130969e-08 1.528273e-08 1.633175e-08 -5.501222e-10 -3.511078e-09
2.579188e-09 -1.277477e-08 3.065723e-09 -2.323078e-10 -8.882528e-16 1.601266e-10
-1.129565e-08 9.564012e-09 -5.163074e-09 -5.504618e-09 8.501917e-10 5.139233e-10
1.120832e-08 -2.688291e-08 -3.278675e-09 3.652408e-09 -8.603726e-09 1.061120e-09
1.228637e-08 -2.873345e-08 2.047843e-09 7.312952e-10 -5.055764e-09 2.237240e-10
-4.558781e-09 1.462603e-08 -4.356975e-09 -4.174169e-09 4.395106e-10 -2.016816e-09
-4.474069e-09 8.827792e-09 -2.587082e-09 -2.527170e-09 1.429823e-09 -9.770502e-10
-1.453147e-10 -9.035170e-09 2.370642e-09 -4.194313e-09 -2.296329e-11 -2.417034e-10
-7.905858e-09 1.039062e-08 -4.220216e-09 2.058428e-09 2.716108e-09 -2.325225e-09
-3.928232e-09 7.215267e-09 -2.311783e-09 -1.313145e-09 1.804223e-09 -2.021911e-10
7.530203e-09 -2.095888e-08 3.387911e-09 3.008813e-09 1.244994e-09 2.603647e-10
8.266852e-09 -2.001257e-08 6.731637e-10 4.604600e-09 3.590814e-10 1.201315e-10
-9.973348e-09 7.569986e-09 -8.225318e-10 5.509052e-09 4.204368e-09 -2.393387e-09
-1.134911e-09 1.558209e-08 -1.389734e-09 -1.161669e-08 -1.915246e-09 1.834123e-09
5.452019e-09 -1.700768e-08 3.005492e-09 -3.633334e-09 3.738971e-10 -4.800154e-10
7.711513e-09 -1.898429e-08 2.156235e-09 -2.602679e-09 7.023786e-10 -1.381095e-11
-5.822637e-09 1.110715e-08 -3.380593e-09 1.369742e-10 2.866759e-09 -2.494571e-09
2.566415e-09 -1.253863e-08 -2.252378e-09 -3.304338e-09 -2.863473e-09 -6.522367e-10
5.606260e-09 -1.596506e-08 2.153173e-09 -4.078403e-09 5.029228e-10 -2.458156e-11
2.661426e-09 -1.285273e-08 2.952603e-09 -1.946609e-09 9.558398e-11 -2.104513e-10
6.622828e-09 -1.773288e-08 2.157778e-09 -3.453636e-09 6.934817e-10 -2.602180e-10
4.601426e-09 -1.529268e-08 7.347074e-10 -6.387592e-09 1.801827e-09 3.472872e-10
-2.851882e-09 1.528345e-09 4.290006e-10 6.785648e-10 1.123339e-10 -1.148170e-10
-2.849108e-09 1.681431e-09 4.313920e-10 3.078231e-10 5.129980e-11 -7.569501e-12
-3.856911e-09 1.322155e-09 8.123970e-10 2.705276e-10 -1.757039e-12 -1.408627e-10
-7.917417e-10 -1.097448e-08 -7.388070e-10 -4.390198e-09 -2.761745e-09 -1.228367e-09
-1.855911e-09 1.125595e-09 2.416405e-10 8.954260e-10 1.600149e-10 8.146783e-11
-4.034214e-09 1.377677e-09 6.970668e-10 2.894508e-10 1.423235e-10 -2.563963e-10
-3.163543e-09 1.604502e-09 4.861871e-10 4.060801e-10 6.573320e-11 -2.745870e-11
-2.820648e-09 1.609490e-09 3.916893e-10 4.936849e-10 8.400347e-11 -6.255774e-11
-3.401258e-09 1.616327e-09 6.131451e-10 2.300835e-10 2.572631e-11 -4.748646e-11
-2.715479e-09 1.381418e-09 4.649592e-10 7.368779e-10 4.875167e-11 -7.714251e-11
-1.633383e-09 9.700862e-10 2.150540e-10 8.618239e-10 5.850387e-11 -1.699862e-10
-1.629011e-09 -8.230558e-09 -3.962060e-10 -2.077873e-09 -1.359281e-09 1.626177e-11
1.310254e-08 5.592045e-09 -3.890279e-08 -4.001523e-09 -1.792704e-08 1.276011e-10
9.585275e-10 -3.824825e-10 -1.432822e-10 1.115170e-09 3.037375e-10 -5.486099e-11
1.111555e-11 -1.203834e-08 -6.408296e-10 -2.386776e-09 -1.958283e-09 -9.711880e-10
5.065601e-10 -9.542767e-11 -1.003455e-10 1.538972e-09 1.152134e-10 5.624345e-11
-2.324723e-09 1.051335e-09 2.843552e-10 6.250893e-10 5.243073e-11 -5.490630e-11
1.829935e-09 -8.566263e-10 -2.774183e-10 3.713737e-10 1.499590e-10 1.651521e-10
1.097115e-09 -5.842349e-10 -1.824885e-10 3.094254e-10 1.614171e-10 -1.722993e-10
-4.612784e-09 2.009668e-09 5.764282e-10 -9.669619e-10 -5.385625e-11 -3.822215e-11
-4.266989e-09 2.327909e-09 2.898468e-10 -1.518804e-09 -2.653058e-10 -4.390799e-11
-3.462531e-09 2.309581e-09 2.028782e-10 -1.850988e-09 -6.962653e-11 2.583935e-10
-1.092341e-09 7.023466e-10 9.757350e-11 8.351164e-10 2.125967e-10 -9.898338e-11
-3.000897e-09 1.766623e-09 4.001302e-10 4.608771e-10 3.235034e-11 -5.888467e-11
-2.785038e-09 2.126618e-09 2.196954e-10 -1.928213e-09 -2.290452e-10 -1.019467e-10
3.997718e-10 -1.034657e-10 -9.692402e-11 1.374869e-09 1.907263e-10 1.109035e-10
-4.061724e-09 2.218098e-09 4.050833e-10 -1.270823e-09 -2.274907e-10 -1.553697e-10
-3.838874e-09 2.416279e-09 3.156844e-10 -1.375113e-09 -1.100222e-10 2.159695e-11
-3.337762e-09 2.715602e-09 2.362359e-10 -1.258460e-11 0.000000e+00 -4.675371e-12
-9.078054e-09 4.914624e-09 -6.860995e-10 -1.847524e-09 -2.260730e-09 -6.721310e-10
-3.256112e-09 2.692721e-09 2.459899e-10 -8.224621e-11 2.197265e-11 1.729694e-11
-2.200155e-08 -7.467097e-10 3.635944e-08 1.321571e-08 -2.856395e-08 -1.243989e-09
-6.995759e-09 5.180555e-09 -4.238406e-09 -3.723658e-09 -9.543537e-10 3.794383e-10
-3.443484e-09 2.740853e-09 2.362359e-10 -5.304113e-11 4.690470e-12 -4.440892e-16
-6.952557e-09 8.386499e-09 -4.811819e-09 4.009868e-10 -2.031311e-09 -7.877825e-10
-3.686122e-09 2.717233e-09 3.187504e-10 -1.695861e-10 -2.014988e-11 -1.114842e-11
-7.551101e-09 6.855949e-09 -5.425746e-09 -2.635020e-09 -1.934802e-09 -1.059836e-09
-5.938006e-09 2.561395e-09 -6.689133e-09 -4.297255e-09 -3.068178e-09 -1.753457e-10
-3.698276e-09 2.722501e-09 3.174812e-10 -1.635382e-10 -2.785683e-11 -8.427042e-11
-2.869284e-09 2.547216e-09 1.959086e-10 -2.445234e-10 -3.649220e-11 4.127876e-11
-7.066992e-09 5.222264e-09 -5.881152e-09 -4.675678e-09 -3.107667e-09 -2.333137e-09
-6.572055e-09 4.177515e-09 -3.056353e-09 -3.930399e-09 -2.813707e-09 -1.101456e-09
-7.450964e-09 6.673910e-09 -3.739062e-09 -4.288866e-09 -3.975996e-09 -2.777029e-09
6.659263e-09 4.806837e-09 -5.550099e-09 1.872743e-09 -4.447975e-10 1.133449e-09
-7.389845e-09 7.806944e-09 -2.996584e-09 -2.426217e-09 -5.015043e-09 -3.340330e-09
8.379965e-09 3.291438e-09 -5.275153e-09 1.975575e-10 -6.133170e-10 -7.714274e-11
9.006013e-09 2.097283e-08 -5.273061e-08 1.210908e-08 2.688439e-08 -9.956508e-09
3.164455e-10 7.388218e-09 -5.211298e-09 -6.819789e-10 -1.331334e-09 4.364955e-10
1.523997e-08 2.680302e-10 -5.322266e-09 6.038635e-09 -8.778942e-10 -1.971786e-09
-6.953234e-09 4.605612e-09 -3.362634e-09 -2.257102e-09 -1.871524e-09 -2.557654e-10
-5.521384e-09 9.547895e-09 -7.889534e-09 -7.959745e-10 -1.977411e-09 -1.108779e-09
1.045953e-09 8.390064e-09 -6.819292e-09 2.442456e-09 -5.832399e-10 -1.099229e-09
2.419959e-08 -8.874762e-09 -2.196579e-09 2.517486e-09 -1.467362e-10 7.938628e-11
-2.956554e-09 -4.507221e-09 -3.816945e-09 1.189473e-08 1.377349e-09 -1.064964e-09
1.785360e-09 -1.118774e-08 -1.054629e-09 1.902794e-09 -1.260516e-10 4.109901e-10
-4.302697e-09 -1.742239e-09 -5.585558e-09 1.269107e-08 3.352457e-09 -1.895322e-09
1.539869e-09 -1.094346e-08 7.398779e-10 9.328771e-09 3.403091e-10 -1.981764e-10
-4.305028e-09 1.292559e-09 -1.963062e-09 8.256169e-10 -4.324203e-10 3.106956e-10
1.509641e-09 -1.274659e-08 -1.278068e-09 1.014965e-08 2.318919e-09 -8.695324e-10
-1.364217e-09 9.620464e-10 1.328344e-10 4.089140e-10 1.928909e-10 5.727863e-12
2.190785e-09 -1.081148e-08 -3.444147e-09 1.156468e-08 1.266554e-09 -1.464992e-10
3.918893e-10 -8.978156e-09 -1.956455e-09 9.826856e-09 1.056646e-09 -5.794280e-10
-3.355938e-09 2.756160e-09 2.142708e-10 -4.473755e-11 9.832136e-13 -4.685186e-11
-2.798567e-09 2.446386e-09 1.588223e-10 -1.468887e-10 -5.049268e-11 -4.440938e-11
-3.147113e-09 2.666839e-09 1.869016e-10 -7.619594e-11 -4.262168e-11 2.672418e-11
-2.790147e-09 2.225876e-09 1.566371e-10 -2.920574e-10 -2.851139e-11 -3.072517e-11
-1.990625e-09 1.238606e-09 2.059997e-10 -9.329426e-12 1.603586e-10 -3.321909e-11
-2.308173e-09 2.117496e-09 1.107048e-10 -8.535972e-11 -1.057731e-10 2.042460e-10
-2.033258e-09 2.169489e-09 2.549250e-11 -2.854943e-10 -1.110997e-10 1.861977e-11
-3.935829e-09 1.945921e-09 6.300935e-10 1.389293e-10 7.761500e-12 -1.653462e-11
-2.127759e-09 1.971965e-09 2.591083e-11 -3.954322e-10 -1.605927e-10 -8.174128e-11
-3.089202e-09 1.769141e-09 3.967195e-10 2.549658e-10 1.162115e-10 -1.975919e-11
-1.242347e-09 1.769390e-09 -3.616785e-11 -3.187867e-10 -6.404322e-11 3.367345e-11
-2.879913e-09 2.469710e-09 1.425735e-10 -1.099645e-10 -6.725909e-11 -1.147025e-10
-2.980499e-09 2.528921e-09 1.418132e-10 -8.488010e-11 -5.630563e-11 2.329681e-11
-3.940521e-09 2.151366e-09 5.452554e-10 -9.988899e-12 1.999650e-12 -3.054201e-11
-4.014448e-09 2.085656e-09 6.068452e-10 5.890017e-11 2.002043e-11 -2.615146e-11
-2.772201e-09 2.481970e-09 1.056537e-10 -2.630491e-10 -1.060796e-10 -4.439282e-11
-4.046177e-09 1.709232e-09 7.232575e-10 1.001172e-10 1.371925e-11 -4.828049e-11
-4.550049e-09 1.537262e-09 6.761489e-10 -3.220564e-10 -8.145012e-11 -2.006777e-10
-4.594213e-09 1.910969e-09 6.765584e-10 -5.703613e-10 -1.806735e-10 -3.770910e-10
-4.748790e-09 1.875508e-09 8.310079e-10 -4.960070e-10 -1.778373e-10 -3.687074e-10
-4.276610e-09 -4.507005e-09 -2.342984e-09 1.002484e-08 1.550009e-10 -3.689069e-10
-4.073465e-09 2.519279e-09 3.682110e-10 -7.388863e-10 -6.840017e-11 -3.304578e-10
-5.885890e-09 -4.227437e-09 2.601945e-09 1.098630e-09 1.078413e-10 2.369563e-19
-8.330347e-09 2.807035e-09 8.360213e-10 1.688435e-09 2.086958e-09 -3.072241e-10
-4.013362e-09 2.540641e-09 4.720349e-10 -7.402187e-10 -5.965428e-11 -1.202627e-10
-8.721960e-09 4.908737e-09 -6.859544e-10 1.776528e-09 4.549285e-10 -8.865620e-16
-3.720303e-09 -6.199349e-09 2.146309e-09 4.914960e-09 -4.085754e-11 2.556622e-11
-7.063038e-09 -1.674619e-09 2.271160e-09 1.138042e-09 5.569070e-10 -6.502510e-11
-4.716976e-09 2.186072e-09 7.093681e-10 -2.939302e-10 -3.570955e-11 -2.241014e-10
2.002128e-08 2.033199e-08 -6.677179e-08 8.468665e-09 1.298310e-08 -1.709497e-09
-5.991113e-09 -3.203558e-09 3.303424e-11 8.036193e-09 2.263105e-09 -7.534342e-10
-8.630300e-09 1.752676e-09 1.405055e-09 1.285881e-09 1.028713e-09 -3.195131e-10
-8.431489e-09 5.952381e-09 -1.550549e-09 1.793258e-09 7.395593e-10 -9.862422e-11
-7.400366e-09 -1.428244e-09 1.713899e-09 5.110575e-09 1.918288e-09 -2.684210e-10
-4.731363e-09 1.876025e-09 8.469128e-10 -4.183542e-11 -1.926708e-10 -3.422156e-10
-4.451874e-09 2.079256e-09 6.723320e-10 -2.384337e-10 -7.893375e-11 -3.592513e-10
-7.349591e-09 8.336176e-09 -2.825245e-09 1.455327e-09 -1.006781e-10 -3.178999e-10
-6.030056e-09 8.091955e-09 -3.540451e-09 7.149404e-10 3.224772e-10 5.151285e-10
-2.280656e-09 1.315948e-09 3.812797e-10 8.957022e-10 1.030420e-11 -3.090594e-11
-4.447523e-09 2.375262e-09 6.241558e-10 -1.781213e-10 -2.053924e-11 -3.400846e-10
5.677805e-09 -1.886894e-08 2.395672e-09 -2.573098e-09 9.616305e-10 -3.388295e-10
-3.538145e-09 1.891827e-09 5.244469e-10 2.132929e-10 1.346456e-11 1.232692e-11
6.239231e-09 -1.922888e-08 1.751705e-09 -2.793475e-09 3.519339e-10 -1.355709e-10
7.630557e-09 -2.024875e-08 2.508596e-09 -1.589184e-09 -3.398433e-10 2.919842e-11
-1.003854e-09 7.772423e-10 9.302425e-11 8.617160e-10 -3.661338e-11 -1.630740e-11
-2.074099e-09 1.102596e-09 3.537743e-10 9.955115e-10 3.262893e-11 7.669088e-11
-4.697727e-10 2.984368e-10 -6.239675e-12 1.347275e-09 2.144584e-11 -2.379086e-10
-2.592580e-09 1.533053e-09 3.459051e-10 2.486908e-10 6.613596e-11 3.537459e-11
6.562341e-09 -1.989715e-08 2.918424e-09 2.267555e-09 6.583449e-10 -2.429124e-11
1.584966e-09 -1.442928e-08 3.601791e-09 1.317903e-09 3.005329e-11 -5.493873e-11
7.711513e-09 -1.900090e-08 2.146700e-09 -2.598582e-09 8.552582e-10 -8.909962e-11
6.467294e-09 -1.933495e-08 2.754130e-09 -1.787103e-09 1.824962e-10 1.060424e-10
2.449889e-10 -1.300219e-08 3.697817e-09 3.118286e-09 5.735803e-10 2.106146e-10
3.323170e-09 -1.536856e-08 1.602087e-10 7.286412e-09 1.500920e-09 2.731002e-10
7.566852e-09 -1.929587e-08 2.748218e-09 -1.579180e-09 1.632856e-10 -6.277867e-12
4.372311e-09 -1.731701e-08 3.859043e-09 4.159331e-10 1.367986e-10 1.722840e-10
6.497963e-09 -2.016562e-08 3.667977e-09 3.130904e-10 4.564393e-11 3.521716e-11
7.875105e-09 -1.961107e-08 2.453310e-09 -2.243471e-09 1.262228e-10 -3.794454e-11
6.562341e-09 -1.960790e-08 3.520513e-09 1.892162e-09 1.788083e-10 2.914820e-10
7.491884e-09 -2.059933e-08 3.317655e-09 5.482735e-10 2.611841e-10 9.941159e-11
1.215122e-08 -2.225102e-08 -2.659986e-09 -6.486946e-10 3.196126e-09 -3.703047e-10
-4.675252e-09 8.175642e-10 1.011815e-09 -1.026473e-09 6.871425e-11 -3.563803e-10
2.977952e-09 -1.649838e-08 3.758105e-09 1.261341e-09 4.882241e-10 -1.392413e-10
-4.440826e-09 1.281869e-09 1.050849e-09 -1.374801e-09 3.024894e-10 2.300866e-10
-4.690211e-09 4.728751e-11 1.055592e-09 -1.786559e-09 2.309525e-10 7.137718e-11
-4.180947e-09 1.636637e-10 1.183959e-09 -1.023262e-09 -9.821040e-13 -2.498519e-10
-3.861100e-09 4.697696e-10 1.114586e-09 -3.970117e-10 5.610568e-11 -1.965483e-11
5.722814e-09 -1.895317e-08 3.079757e-09 2.894936e-09 1.824161e-10 3.007781e-10
-3.789601e-09 5.930212e-10 9.693994e-10 -2.497804e-10 5.868972e-12 -1.123913e-10
2.540994e-09 -1.566863e-08 3.552923e-09 3.070113e-09 -6.031620e-10 3.327187e-10
5.295003e-09 -1.695487e-08 4.265381e-10 8.234466e-09 1.013730e-09 -4.632903e-10
-4.099328e-09 1.675970e-09 1.006488e-09 7.179090e-11 1.804228e-10 1.405219e-10
9.507507e-09 -2.416673e-08 9.692096e-10 -1.222229e-09 -1.418759e-09 -6.122756e-10
1.251871e-08 -3.097993e-08 -1.803729e-09 -2.271949e-09 -1.071217e-08 1.259168e-09
-6.564030e-09 9.722919e-09 -8.436452e-09 -2.250731e-09 -3.832524e-09 -3.284906e-09
1.009326e-08 -2.152939e-08 -3.186049e-09 -1.558061e-09 -1.013749e-09 -2.276540e-10
-4.141919e-09 1.819830e-09 1.001071e-09 -9.912644e-12 1.042441e-10 -3.976373e-10
6.913655e-09 -1.135457e-08 -1.134456e-08 -1.188894e-08 1.041123e-09 3.283882e-10
1.300840e-08 -2.097138e-08 -9.615481e-09 -1.677207e-09 -1.418615e-09 -2.637490e-10
1.049796e-08 -1.397649e-08 -1.723007e-08 6.531054e-09 -9.146012e-09 3.239917e-09
-8.254349e-10 -5.127315e-09 -5.122154e-09 -1.189534e-08 2.560724e-09 1.626322e-09
6.173515e-09 -1.331806e-08 -1.179054e-08 -1.372299e-08 6.747141e-09 3.427273e-09
1.387117e-08 -3.983435e-09 -2.942848e-08 3.793968e-10 -4.067652e-09 4.996533e-10
2.148540e-08 9.135195e-09 -5.802700e-08 7.785167e-09 1.208672e-08 -5.407889e-09
4.164312e-09 -1.012410e-08 -5.235868e-09 -1.033172e-08 9.333982e-10 4.437559e-10
3.832311e-09 -1.057893e-08 -5.290514e-09 -1.097121e-08 3.302152e-09 8.515470e-10
-2.168796e-09 -7.005836e-09 -5.263439e-10 -6.180016e-10 -4.438925e-16 -1.591243e-10
9.492857e-09 -2.023942e-08 -5.153736e-09 3.213840e-09 -7.732188e-09 4.583920e-10
4.298015e-09 -1.267426e-08 -3.488714e-09 -3.354162e-09 -6.912479e-10 -3.424745e-10
1.245059e-08 -2.954361e-08 -1.708018e-10 -3.270565e-09 -1.069259e-08 -1.480257e-09
1.165499e-08 -2.640561e-08 -1.674451e-09 -8.002158e-10 -3.672454e-09 7.667544e-11
1.593540e-09 -5.298348e-10 -1.850413e-10 2.084278e-09 1.058109e-10 1.934530e-10
-4.316091e-09 1.109204e-08 -7.862203e-09 1.636326e-09 -5.025489e-10 -3.671368e-10
3.667618e-09 -1.830894e-09 -3.857670e-10 1.723241e-09 1.299991e-10 -6.562451e-11
3.737172e-09 -1.494495e-09 -3.394187e-10 1.994792e-09 7.325973e-11 2.963203e-10
4.562780e-09 -2.404205e-09 -6.758825e-10 8.299491e-10 2.732337e-11 -1.383227e-11
5.071543e-09 -2.458893e-09 -5.545715e-10 1.579837e-09 3.769618e-11 6.662648e-11
-7.242821e-09 6.793600e-09 -3.682715e-09 -6.304073e-10 -1.805340e-09 -4.997627e-10
-6.921320e-09 9.714615e-09 -4.662835e-09 -5.970891e-10 -9.548136e-10 -4.007425e-10
-4.412884e-09 9.511713e-09 -5.675824e-09 8.765437e-10 -6.570709e-10 -1.096573e-09
5.400693e-09 -2.963159e-09 -7.423306e-10 1.749256e-11 7.996645e-12 2.057021e-11
2.757535e-09 -1.429344e-09 -4.352581e-10 5.173817e-11 -5.446932e-11 -5.636286e-21
5.219439e-09 -2.663796e-09 -6.374523e-10 1.246807e-09 1.268188e-10 1.393177e-10
-6.209479e-09 9.411505e-09 -6.442241e-09 -1.277281e-09 -1.252684e-09 -8.650061e-10
6.244104e-09 -2.873552e-09 -3.529763e-10 1.817161e-09 3.489324e-11 -5.980438e-11
2.891271e-09 -1.336165e-09 -4.060658e-10 1.774384e-09 1.102463e-10 -1.436429e-11
4.454151e-09 -2.391531e-09 -5.761009e-10 4.603312e-10 3.122901e-12 -2.457368e-11
5.130974e-09 -2.747738e-09 -7.343885e-10 5.406606e-10 5.899875e-11 4.927409e-11
5.293053e-09 -2.458893e-09 -5.990457e-10 1.500467e-09 3.579970e-11 4.579226e-12
4.859295e-09 -2.739070e-09 -7.136949e-10 7.379666e-10 -1.601274e-12 2.257645e-10
4.143260e-09 4.494960e-10 9.151942e-09 9.858473e-09 -9.049958e-10 -3.279350e-09
2.504438e-08 -1.082343e-08 -2.871125e-09 2.417327e-09 -3.263209e-10 4.944757e-10
2.886099e-08 -1.168700e-08 2.013826e-09 -2.996542e-09 -5.810745e-10 3.268871e-09
2.717933e-08 -9.929318e-09 -1.938455e-09 -5.853384e-11 2.512136e-10 1.026837e-09
1.372769e-09 5.749814e-09 -2.544779e-09 -5.938091e-09 1.502839e-09 -1.985869e-09
-3.022512e-09 3.615867e-09 9.132235e-09 9.849099e-09 -1.004758e-09 -2.874405e-09
1.202675e-08 -1.568792e-10 6.128928e-10 -1.211417e-08 1.945460e-09 -1.715584e-09
-2.667312e-09 3.594069e-09 7.321810e-09 9.472714e-09 -6.928988e-10 -1.752455e-09
-2.345929e-09 5.097084e-09 1.360148e-08 1.085185e-08 1.617827e-09 -1.079156e-09
-2.263467e-09 2.092664e-09 8.930057e-11 -2.264415e-10 -2.643841e-11 -9.779999e-11
8.133536e-09 5.005708e-08 -7.109923e-08 9.719769e-09 2.327972e-08 -1.687722e-08
1.626062e-08 4.368454e-08 -7.539930e-08 6.770435e-09 1.292759e-08 -4.941431e-09
-3.310701e-09 2.357702e-09 2.576399e-10 -1.220738e-09 -5.105127e-11 -9.864462e-11
-3.798620e-09 2.688173e-09 3.721916e-10 -1.900746e-10 -3.354250e-11 -1.201468e-10
-2.552762e-09 2.204262e-09 1.844866e-10 -1.018686e-09 -4.348300e-11 5.715595e-12
-4.145352e-09 2.665676e-09 4.860077e-10 -2.059943e-10 -3.730838e-11 -1.391551e-10
-7.865113e-10 1.167346e-09 -9.021095e-11 -2.582909e-10 -6.826073e-11 -1.170130e-10
-1.921031e-09 1.820451e-09 -9.272139e-12 -3.172262e-10 -2.389733e-11 1.410934e-10
1.156055e-08 2.998466e-08 -7.007943e-08 8.182659e-09 1.211911e-08 -4.647380e-09
-3.454842e-09 2.218068e-09 1.960174e-10 -1.852113e-09 -2.158951e-10 -2.279197e-10
-2.799435e-09 2.165477e-09 1.126310e-10 -3.974949e-10 -8.131018e-11 -4.264189e-11
8.233232e-10 2.093010e-10 -3.694365e-10 -2.681932e-09 -1.662381e-10 6.645950e-11
-3.309673e-09 2.305571e-09 3.246095e-10 -1.636442e-09 -1.206333e-10 -1.101941e-10
-2.962150e-09 2.359279e-09 2.540785e-10 -9.637247e-10 3.804823e-11 3.409539e-11
6.435031e-09 -3.546479e-09 -6.416024e-10 -2.061156e-10 -2.100129e-11 -6.614487e-11
1.525112e-08 2.022150e-08 -5.968769e-08 9.313537e-09 1.300615e-08 1.576060e-09
-5.382842e-09 4.421796e-08 -4.612609e-08 1.288260e-09 5.277221e-09 -5.944390e-09
1.619987e-08 3.408067e-08 -6.273203e-08 1.357208e-08 2.962420e-08 -1.182544e-08
5.147337e-09 -2.852025e-09 -7.469545e-10 -5.824055e-10 -4.459610e-11 -9.416246e-11
3.040015e-09 -9.068738e-10 -4.753287e-10 -1.381337e-09 -7.987494e-11 1.275030e-11
6.065752e-09 -2.720580e-09 -6.676797e-10 -2.033335e-09 -9.952261e-11 -3.610423e-11
3.417853e-09 -1.431461e-09 -5.393703e-10 -1.046334e-09 -1.044399e-10 3.036438e-10
1.113204e-09 -9.738804e-09 2.616833e-09 -9.869354e-10 3.165424e-11 -3.857289e-10
3.941846e-09 -2.212154e-09 -6.618888e-10 -3.986411e-11 -1.331384e-10 1.422285e-11
8.166816e-10 -8.879640e-09 2.481647e-09 -1.663231e-09 -5.327471e-10 -3.114066e-10
2.139014e-09 -1.233189e-08 2.811952e-09 -1.789632e-09 -4.115712e-10 -3.714148e-10
1.679862e-09 -1.171194e-08 2.924136e-09 -2.432833e-09 -3.462306e-10 -4.976772e-10
2.797829e-09 -1.278296e-08 2.948438e-09 -7.086808e-10 6.810521e-10 -4.074651e-10
3.412462e-09 -1.527986e-09 -6.425758e-10 -1.220808e-09 -3.157563e-11 1.699263e-10
2.636874e-09 -1.284207e-08 3.028346e-09 -7.693566e-11 -9.827857e-10 -4.628795e-10
5.228391e-09 -1.978405e-09 -3.225358e-10 -3.798362e-09 -1.819655e-11 -2.813494e-10
-9.100381e-09 5.179446e-09 -1.482077e-09 -1.135990e-09 -9.889095e-10 -2.926548e-11
-8.000210e-09 6.712755e-09 -2.282147e-09 -2.446578e-09 -2.668452e-09 -1.207275e-09
-5.909566e-09 -1.714037e-09 -1.451616e-09 8.446025e-09 1.111247e-09 2.790965e-11
-7.899858e-09 2.559952e-10 1.748292e-09 1.498055e-09 1.485985e-09 -1.883022e-10
-7.476630e-09 1.175070e-09 -7.382672e-10 7.152884e-09 -1.892939e-10 -2.350555e-10
-5.913131e-09 -6.029773e-09 8.175380e-10 8.190160e-09 2.165778e-09 -7.408074e-10
-9.137958e-09 5.158817e-09 -1.744172e-09 -1.077094e-09 -7.863175e-10 -1.327383e-10
-9.257413e-09 7.103616e-09 -1.694050e-09 -1.572961e-09 -3.240729e-09 -1.351192e-09
-1.555870e-08 7.410254e-09 2.259800e-08 1.128211e-08 -1.284282e-08 -1.221839e-08
-1.038245e-08 1.724755e-08 -1.207013e-08 5.023970e-09 2.639224e-09 -4.154605e-09
-8.196392e-09 1.638302e-08 -1.087608e-08 7.070284e-09 3.873982e-09 -3.894273e-09
-5.778513e-09 1.175069e-09 -5.009301e-09 1.016843e-08 2.930660e-10 -6.759961e-10
-3.855178e-09 1.590026e-09 7.656384e-10 1.740570e-10 1.764366e-11 -6.650044e-11
-4.050167e-09 1.400537e-09 9.139081e-10 2.399023e-10 2.903855e-11 6.144152e-11
-8.162592e-09 4.975548e-09 -1.357452e-09 -3.006246e-09 -1.395140e-09 -9.088319e-10
-3.943784e-09 5.879368e-10 1.245877e-09 1.679443e-10 2.368994e-12 -2.805869e-10
-3.898977e-09 1.017276e-09 1.065404e-09 1.510982e-10 6.619327e-11 -1.567372e-10
-7.684793e-09 7.819567e-09 -4.487079e-09 -1.170160e-10 -7.999796e-10 -1.492830e-10
2.113118e-09 -1.422784e-08 3.741890e-09 2.370516e-09 -2.197897e-10 6.169757e-10
-3.848411e-09 6.330234e-10 1.052975e-09 -1.770784e-11 -1.087330e-11 -1.736093e-10
5.661782e-11 -1.221679e-08 3.580469e-09 6.255543e-10 3.018715e-10 8.610601e-11
-3.807591e-09 1.087827e-09 9.384591e-10 4.135472e-10 1.246125e-10 -2.043152e-10
1.741523e-09 -1.296933e-08 3.797336e-09 1.958376e-09 -9.893641e-11 -4.034884e-12
-1.670271e-09 -1.006566e-08 5.928680e-10 9.560664e-09 5.758916e-10 -4.245380e-10
1.714615e-09 -1.403772e-08 1.671669e-09 7.476968e-09 5.043932e-10 -6.365752e-11
-1.029487e-09 -1.095130e-08 3.689157e-09 5.040150e-10 3.558870e-10 9.979972e-11
2.021352e-10 -1.317759e-08 3.831588e-09 1.463843e-09 6.342851e-10 4.763374e-10
1.922645e-09 -6.481562e-10 -3.995106e-10 -1.013172e-09 9.747647e-12 -1.432210e-11
8.860339e-10 -2.595313e-11 -3.260503e-10 -1.584647e-09 -1.670572e-10 -1.203350e-10
3.583511e-09 -1.199886e-09 -5.438463e-10 -1.793317e-09 -2.620015e-11 -9.475354e-11
-4.366292e-09 -7.031556e-09 2.801683e-09 3.411880e-09 3.243668e-10 -1.514566e-11
2.957793e-09 -1.427903e-08 2.212898e-09 5.110378e-09 9.635546e-10 -1.284950e-11
-3.649268e-09 -6.916326e-09 3.098362e-09 2.674926e-09 1.508141e-10 7.716451e-11
1.870880e-09 -1.408617e-08 3.728266e-09 2.247817e-09 1.151982e-10 1.135803e-11
1.372580e-08 -2.296012e-08 -1.508255e-08 -4.476084e-09 9.096334e-09 6.509350e-10
1.684180e-09 -4.021947e-10 -4.120797e-10 -1.596461e-09 -2.658620e-10 1.138719e-10
1.981574e-09 -2.875781e-10 -4.794898e-10 -1.888792e-09 -7.618353e-11 1.095239e-10
1.015472e-09 -1.362649e-08 7.688794e-10 8.139913e-09 5.056078e-10 -1.152560e-10
4.724663e-09 -1.827115e-08 2.540435e-09 3.734728e-09 2.282421e-10 1.029283e-10
2.830141e-09 -1.174808e-09 -4.983391e-10 -2.188385e-09 -6.268008e-11 2.502919e-10
1.067179e-08 -3.015912e-08 1.607820e-09 -9.824463e-09 -1.030048e-08 -2.259010e-09
-4.345115e-09 1.103458e-09 -6.141267e-09 -7.388240e-09 -3.873434e-09 -2.062153e-09
5.037661e-09 -2.460486e-09 -7.212533e-10 -1.238859e-09 -7.996051e-11 1.031415e-10
-1.689996e-09 -2.437558e-09 -1.003801e-08 -7.528901e-09 -5.899010e-09 -1.878634e-09
3.001420e-09 -1.016689e-09 -5.340142e-10 -2.213755e-09 7.775558e-11 -1.967493e-10
-3.443989e-09 9.364586e-09 -1.187031e-08 -3.366888e-09 -1.767185e-09 -1.444707e-09
-3.400376e-09 8.654970e-10 7.862697e-10 2.581493e-10 -7.924550e-12 -1.124110e-10
8.151364e-10 -9.703352e-09 2.725788e-09 -2.179583e-10 6.660882e-16 1.046094e-10
1.156520e-08 -2.456678e-08 -1.482140e-09 -2.004787e-10 -1.068298e-09 -1.370348e-10
-5.270567e-10 7.519301e-09 -1.932322e-08 -6.827224e-09 -3.865581e-09 -1.882487e-09
4.020367e-10 -5.646634e-09 -5.651282e-09 -6.054253e-09 -4.381067e-10 -4.354086e-10
8.572556e-09 -1.351225e-08 -1.082507e-08 -6.323586e-09 -1.628425e-09 -4.415250e-10
7.316861e-09 -2.771905e-08 1.498521e-09 -8.159387e-09 -9.905807e-09 -1.107886e-09
-3.114347e-09 1.159027e-09 6.296732e-10 7.008154e-10 -1.720712e-11 -9.831469e-12
-4.075289e-09 1.463976e-09 9.686987e-10 2.367475e-10 9.297452e-11 -1.143851e-10
-4.863498e-09 2.816806e-09 -7.406533e-10 -1.279615e-09 -7.038823e-10 6.281373e-10
-3.672543e-09 2.545978e-09 3.800080e-10 -5.568306e-10 -1.712430e-11 7.664980e-12
-3.901016e-09 2.372701e-09 2.325695e-10 -1.916043e-09 -3.038903e-12 4.658108e-11
-1.431152e-09 1.810929e-09 -1.898304e-10 -2.516503e-09 -1.822462e-10 -3.257061e-11
-3.679761e-09 1.244278e-09 9.534977e-10 5.678178e-10 1.066676e-10 7.566658e-11
-3.728196e-11 5.954899e-10 -4.657910e-10 -3.878096e-09 -3.219165e-10 3.078084e-10
-2.845663e-09 2.015717e-09 -2.844480e-11 -2.562152e-09 -3.323630e-10 5.268452e-11
1.018757e-09 1.059612e-09 -4.829042e-10 -5.049927e-09 -8.620510e-11 1.020156e-10
-4.178082e-09 2.889073e-09 -3.997833e-10 -2.767631e-09 -4.892442e-11 1.287408e-10
-2.467964e-09 1.055384e-09 5.612697e-10 1.013478e-09 -9.521206e-11 -2.413181e-11
-4.444473e-09 2.449939e-09 1.726477e-10 -1.881969e-09 -3.499059e-10 -2.385070e-10
-4.559905e-09 4.563821e-09 -2.155153e-09 -3.501068e-09 -1.253797e-10 2.454602e-10
-3.257846e-09 1.342488e-09 6.200112e-10 8.127670e-10 -1.201161e-11 -5.223977e-11
-3.498697e-09 1.093852e-09 7.719287e-10 6.370255e-10 -6.536904e-11 -2.772407e-10
-3.109078e-09 1.406555e-09 6.319407e-10 8.090694e-10 1.332157e-10 8.626430e-11
-2.772765e-09 2.516981e-09 -3.831446e-10 -3.367932e-09 -3.350600e-10 3.882067e-10
4.560833e-09 -2.191011e-09 -5.978320e-10 1.195731e-09 9.221590e-11 -5.775092e-11
4.721671e-09 -1.902844e-09 1.152940e-08 8.088497e-09 -1.055328e-09 -4.398505e-09
7.122262e-09 -3.643710e-09 3.452869e-10 2.195391e-09 4.737255e-12 -2.985587e-10
4.257688e-09 -2.005526e-09 -3.726166e-10 2.246697e-09 1.049199e-10 1.997350e-10
-8.405393e-09 6.828180e-09 -7.755259e-09 9.600115e-09 2.391860e-10 -6.728031e-10
-6.129352e-09 1.387872e-08 -2.066804e-08 1.342704e-08 3.823541e-09 -5.589725e-09
3.612377e-10 -2.093580e-09 1.591238e-08 9.700252e-09 -2.209372e-09 -2.416407e-09
1.275359e-08 4.610779e-09 4.610393e-09 -1.459085e-08 -6.581282e-09 8.253984e-09
-9.897883e-09 1.209787e-08 -6.554330e-09 4.291681e-09 1.871059e-09 -2.504187e-09
5.265304e-09 -3.240684e-09 -2.071362e-08 1.629330e-08 1.110025e-08 -4.570740e-09
-2.355797e-08 5.014610e-08 -1.742580e-08 -6.029019e-09 9.360589e-10 -1.153476e-09
3.067786e-08 -9.904660e-09 7.740875e-11 -2.677644e-09 -2.485773e-10 3.317044e-09
3.164575e-08 -1.204167e-08 6.911413e-09 -7.690201e-09 -2.564731e-09 1.017559e-08
-3.603292e-09 -1.143027e-09 -4.925968e-09 1.191735e-08 1.089260e-09 -2.105289e-10
-1.789140e-08 5.502343e-08 4.791025e-08 1.957319e-09 -2.774059e-08 -1.125149e-08
7.723774e-09 5.509654e-09 -3.474806e-08 1.454438e-08 6.062480e-09 -2.361605e-09
1.324367e-08 -2.348806e-08 -7.790238e-09 9.288979e-10 6.353185e-09 1.692124e-10
1.787303e-08 -1.457400e-09 -4.425375e-09 -3.671285e-09 1.667555e-09 7.441936e-10
-1.124045e-08 2.605109e-08 -2.223440e-08 6.018292e-09 4.376050e-09 -6.462240e-09
-9.033284e-09 1.632534e-08 -1.535150e-08 8.613382e-09 1.141337e-09 5.139396e-10
-8.761072e-09 6.828180e-09 -5.309810e-09 8.114622e-09 1.602029e-09 -1.842409e-09
9.770433e-10 -1.812597e-09 1.610590e-08 7.514240e-09 -1.973931e-09 -4.496300e-09
2.636115e-08 -9.824747e-09 -2.568305e-09 -4.269687e-10 2.838649e-10 4.957470e-10
1.951645e-08 -3.495583e-09 -4.348914e-08 1.292655e-08 2.568583e-08 -8.368087e-09
-1.293738e-08 3.013229e-08 -9.455650e-09 -8.701178e-09 2.583721e-09 -2.172394e-09
2.710072e-08 -5.185132e-09 1.624134e-10 -1.128446e-08 -2.455978e-09 8.497121e-09
3.256125e-08 -5.698095e-09 -4.319198e-09 -4.402143e-09 4.557688e-10 7.407286e-09
-7.090533e-10 5.937419e-10 5.193668e-11 6.408141e-10 5.438183e-11 1.408151e-10
-2.366363e-11 4.421796e-08 -4.953516e-08 -1.244785e-09 7.832305e-09 -6.957457e-09
-9.748362e-10 8.631589e-10 3.215472e-11 8.679588e-10 8.545831e-12 1.060085e-11
-1.354258e-09 8.757013e-10 1.853380e-10 1.375943e-09 3.541989e-11 3.434675e-11
6.689925e-09 -1.993290e-08 3.430888e-09 5.161085e-10 1.814420e-10 -1.323230e-10
5.740864e-09 -2.122145e-09 -4.053105e-10 -3.787422e-09 -1.567855e-10 5.106804e-11
2.751960e-09 -6.308989e-10 -4.663443e-10 -3.985565e-09 7.853274e-12 -1.113130e-10
3.100016e-09 -8.557222e-10 -5.016796e-10 -4.122783e-09 -2.584307e-10 2.378266e-10
7.878371e-10 -8.575274e-11 -6.932455e-11 1.059338e-09 -3.927880e-11 -1.817721e-11
3.265888e-09 -1.174808e-09 -5.619452e-10 -2.344345e-09 -1.325842e-10 1.432132e-10
-2.686777e-09 1.971808e-09 2.875611e-11 -2.457015e-09 -4.691103e-11 -1.668379e-10
-1.503286e-11 4.244978e-10 1.046514e-10 1.503895e-09 1.336262e-10 2.381719e-10
5.997876e-09 -2.784714e-09 -6.981997e-10 -1.486762e-09 -3.735754e-11 -5.975220e-11
-1.349297e-09 1.011274e-09 1.544382e-10 1.185664e-09 1.339480e-10 4.336600e-10
-7.911574e-10 5.039316e-10 -3.539746e-11 8.682534e-10 1.152066e-10 -1.500089e-11
3.768470e-10 4.130580e-10 -2.659902e-10 -1.414428e-09 -1.329689e-10 -3.100631e-12
6.616325e-09 2.072592e-09 -2.219394e-09 1.381276e-10 4.138189e-10 -9.133427e-11
-1.215502e-09 1.358644e-09 -6.347634e-11 -3.865797e-11 8.658185e-12 -5.245582e-12
-5.014784e-10 1.875822e-09 -2.943068e-10 -3.977700e-09 1.199041e-11 -1.161848e-11
4.224351e-09 -1.105772e-09 -3.018927e-10 -5.022553e-09 -2.787155e-10 1.672577e-10
2.117119e-09 7.992998e-10 -5.017196e-10 -6.043028e-09 2.347225e-11 -4.470335e-11
2.666187e-09 -6.259997e-10 -4.432703e-10 -4.069057e-09 4.869772e-11 -4.029852e-10
-5.241149e-08 -4.240960e-08 1.866408e-07 -3.348291e-09 1.382551e-09 1.697973e-08
-4.640327e-08 1.969421e-08 7.521343e-08 -5.709363e-09 3.580040e-09 7.650848e-09
3.468801e-09 6.485335e-09 -2.705972e-09 -4.165880e-09 6.286423e-10 4.897381e-10
-4.870032e-08 2.543672e-08 8.141234e-08 -4.528818e-09 5.150081e-08 -1.390343e-08
-3.827227e-08 1.136135e-08 1.142206e-07 2.017381e-08 2.726457e-08 2.620736e-09
-2.371792e-11 6.502812e-09 -2.840384e-09 -2.682199e-09 4.884081e-11 9.595071e-10
1.192364e-08 2.357499e-08 -4.586137e-08 -6.758539e-09 -1.781318e-08 -2.079325e-09
8.720537e-09 1.389270e-09 -1.255611e-09 -5.705749e-09 1.590846e-09 -7.551466e-10
5.500874e-09 -2.223413e-09 1.348544e-09 4.226450e-09 1.907603e-10 -7.159223e-11
7.157679e-09 2.072592e-09 -2.189958e-09 2.178475e-10 7.048477e-10 9.008485e-10
5.163657e-09 -1.540151e-09 3.540526e-09 5.986629e-09 -1.671253e-10 -1.378620e-09
5.886871e-09 -2.938554e-09 4.662493e-11 3.159509e-09 -2.733036e-11 -3.050820e-10
2.307593e-08 -7.534692e-09 1.578128e-09 -5.313403e-09 2.384664e-10 -1.380389e-09
5.695773e-09 -3.180663e-09 -7.626455e-10 -1.916593e-10 9.929005e-12 -4.163447e-11
-9.379022e-10 6.812328e-10 6.538237e-11 1.129141e-11 -4.401901e-11 -9.940736e-22
8.173407e-09 -4.640193e-09 2.240029e-09 -5.563835e-09 6.204957e-10 -1.817016e-09
5.698096e-09 -3.092993e-09 -7.554107e-10 1.418878e-11 5.851003e-13 3.004025e-11
6.965610e-09 -3.663833e-09 1.039965e-09 3.628284e-09 -1.505186e-10 -4.209142e-10
6.201471e-09 -3.180664e-09 -7.632295e-10 -2.313295e-10 2.904440e-12 1.486811e-12
-4.991188e-09 -2.356967e-09 -2.343691e-09 -1.071013e-08 1.441708e-09 1.172928e-09
-9.523712e-10 -8.590987e-09 -2.389009e-09 -1.063842e-08 1.851612e-09 8.996863e-10
-3.802585e-09 5.076624e-10 -2.218297e-09 -7.610981e-09 7.171919e-10 3.526254e-11
5.818628e-09 -2.998030e-09 -7.846217e-10 -6.245587e-10 -3.854950e-11 7.218015e-11
-4.659747e-09 1.280390e-09 1.026391e-09 -1.315099e-09 3.108125e-10 1.155638e-10
-7.462819e-09 5.178179e-09 3.465082e-10 -3.480174e-10 -4.956272e-11 8.691877e-11
-8.612170e-09 1.301528e-08 -8.726995e-09 -9.556748e-09 2.125690e-09 1.909413e-09
5.736448e-09 -2.927829e-09 -7.855312e-10 -2.927101e-10 4.204359e-11 -9.541901e-11
-8.973755e-08 -5.832829e-08 1.971986e-07 -1.700992e-08 -2.920048e-08 1.754475e-08
5.660631e-09 -3.028153e-09 -7.750569e-10 -1.678648e-10 -1.176181e-11 2.747047e-11
7.331523e-09 -9.324318e-09 2.076700e-08 4.406311e-10 1.242968e-09 -5.344721e-09
5.561716e-09 -3.228328e-09 -7.786127e-10 -4.778175e-11 1.177414e-11 3.929213e-11
-1.181839e-08 1.753315e-08 3.625630e-08 2.966423e-08 1.839568e-08 1.112137e-08
-1.922754e-08 2.755552e-08 1.501701e-08 -1.914550e-08 -6.096214e-09 -7.555249e-10
6.602569e-09 -1.896635e-08 2.980063e-09 2.835097e-09 2.186973e-10 -8.104006e-11
4.616449e-09 -1.678427e-08 3.130687e-09 3.965509e-09 1.391764e-10 -3.142220e-10
-6.328948e-08 -1.570871e-08 1.917772e-07 8.469739e-09 2.157471e-09 7.428408e-09
4.724664e-09 -1.772662e-08 2.973622e-09 3.268268e-09 7.231127e-10 -2.396620e-10
4.616117e-09 -1.695525e-08 2.120666e-09 5.823936e-09 1.616454e-10 9.024181e-11
6.284266e-09 -2.051136e-08 2.993600e-09 1.681017e-09 7.947221e-11 -4.861182e-11
-9.478241e-10 1.908936e-08 -7.138024e-09 -1.285866e-08 3.655691e-09 2.680493e-09
6.263611e-09 -1.848430e-08 1.817461e-09 5.250078e-09 7.122125e-10 -2.857762e-11
-4.168920e-09 1.612111e-08 -2.028742e-08 -1.030692e-09 -6.084140e-09 7.889832e-09
-5.744938e-09 -3.887552e-09 2.629179e-09 2.778156e-09 1.156264e-09 -8.791595e-11
-4.754344e-09 -4.338604e-09 1.343057e-09 6.787991e-09 1.211086e-09 4.362488e-11
-3.627273e-09 -6.030960e-09 2.750818e-09 5.659984e-09 9.935629e-10 1.446232e-11
-4.319190e-09 -7.575840e-09 2.971167e-09 4.491533e-09 4.119138e-10 2.027071e-10
1.350009e-09 2.250086e-09 1.159796e-08 -1.316717e-08 3.700216e-09 -4.446390e-09
-2.187747e-09 3.387933e-08 -9.084190e-09 -1.265642e-08 8.074347e-09 2.220514e-09
1.834152e-08 1.743950e-08 -6.343234e-08 1.698137e-08 3.245696e-08 -1.364354e-08
7.027713e-09 -2.004687e-08 3.177186e-09 -7.537429e-10 -5.443018e-10 2.655787e-11
8.273546e-09 -2.095512e-08 2.373477e-09 -4.879383e-10 8.779606e-10 -7.448420e-11
8.373807e-09 -2.194710e-08 2.618671e-09 5.521534e-10 1.030547e-09 -2.048418e-10
4.612160e-09 -1.548777e-08 3.266633e-09 -5.758950e-10 -1.841442e-10 -3.699767e-10
7.343107e-09 -2.065426e-08 2.455106e-09 -1.337286e-09 4.319660e-10 -2.587030e-10
-1.223504e-08 5.856928e-08 -4.250756e-08 1.139916e-08 1.352063e-08 2.235733e-10
8.270818e-09 -2.102587e-08 3.213764e-09 -1.275607e-09 9.200731e-10 -4.349865e-11
2.169028e-09 5.014786e-08 -5.047276e-08 6.921191e-09 6.615908e-09 1.249072e-08
6.282943e-09 -1.851438e-08 3.551699e-09 -4.795453e-11 1.563116e-10 -1.428141e-10
7.757941e-09 -2.129635e-08 3.393523e-09 -6.069840e-10 6.518830e-10 -9.331402e-11
7.644859e-09 -6.013524e-09 7.770224e-09 2.898506e-09 7.413436e-11 -2.506239e-09
-5.218486e-09 1.718965e-09 -2.245088e-09 1.280315e-09 -3.980267e-10 3.640293e-10
-2.720775e-09 -9.952448e-10 -3.722494e-09 3.110367e-09 -1.826659e-09 5.059415e-10
9.132919e-09 -4.642908e-09 3.388175e-09 -5.597128e-09 3.499799e-10 9.897768e-10
7.493762e-09 -5.147229e-09 6.607713e-09 3.040307e-09 -1.881331e-10 -2.973506e-09
1.173656e-08 -6.438638e-09 8.856224e-09 -3.310948e-09 8.171938e-10 -5.624715e-09
8.814908e-09 -7.102243e-09 1.270823e-08 1.902952e-09 5.945595e-10 -3.299597e-09
-4.923368e-09 8.204477e-10 -2.868235e-10 3.829267e-11 -3.032357e-10 -1.872411e-10
-5.110454e-09 9.791297e-10 1.344742e-10 1.114654e-10 -4.315514e-11 -3.416445e-11
1.327445e-08 -6.099570e-09 8.217930e-09 -1.977139e-09 7.170484e-10 -4.444771e-09
2.151205e-09 -4.218612e-09 1.360148e-08 7.470142e-09 -4.524163e-10 -3.814388e-09
-5.301731e-09 8.208678e-10 -4.383693e-10 9.016421e-10 -6.439760e-10 3.247438e-10
9.175337e-09 -6.474706e-09 1.481658e-08 -9.287272e-09 7.492018e-10 -2.854444e-09
-4.767537e-09 2.598222e-09 -2.235508e-09 -1.476903e-12 -2.505933e-10 2.591040e-12
-4.835996e-09 4.299363e-09 -1.690180e-09 -2.406030e-09 -8.739849e-10 1.273527e-09
-4.988199e-09 4.479508e-09 -2.434679e-09 -2.248732e-09 -8.914540e-10 7.934480e-10
1.188216e-08 2.254871e-09 -8.902772e-10 -9.100891e-09 -2.086469e-11 -1.756215e-09
-9.031680e-09 5.247509e-09 -9.666987e-10 -7.983498e-10 -1.648153e-09 -2.289990e-10
-9.267962e-09 3.736782e-09 -9.511276e-10 -5.937650e-10 -6.346497e-10 -9.541412e-11
-7.269099e-09 7.275576e-09 -3.503734e-09 -5.371637e-10 -9.336829e-10 -5.799912e-10
-9.098287e-09 5.826855e-09 -7.117684e-10 -9.453931e-10 -2.265400e-09 -3.403584e-10
-4.863499e-09 1.545259e-09 1.791101e-11 -7.265441e-10 -5.447853e-10 1.261871e-10
-4.873213e-09 2.813797e-09 -1.113687e-09 -1.285056e-09 -8.154057e-10 4.046907e-10
2.541535e-08 -6.886682e-09 -4.226867e-09 1.800920e-09 7.346975e-10 -1.916404e-10
2.354120e-08 -2.799705e-09 -3.622031e-09 6.286811e-09 8.699266e-10 1.691482e-09
3.588100e-09 -1.349787e-09 -5.213733e-10 -1.331335e-09 -2.453618e-10 -1.864353e-11
1.439246e-08 -1.467015e-09 -3.801319e-09 2.395382e-10 -1.782099e-09 6.894840e-11
5.227085e-09 -2.473924e-09 -7.904952e-10 -1.058340e-09 -1.678458e-10 1.679286e-10
-9.601484e-10 8.390064e-09 -6.819293e-09 1.906467e-09 -4.046159e-10 -7.649488e-10
-1.104016e-09 1.194493e-09 -2.277978e-10 -3.451474e-09 -2.179228e-10 5.448730e-11
-3.960032e-10 1.195449e-09 -1.563594e-10 -3.478204e-09 -2.293261e-10 4.245883e-10
1.279717e-08 6.196070e-10 -4.952389e-09 5.710959e-10 -2.091953e-10 -2.222835e-16
4.398633e-10 6.985417e-10 -2.887215e-10 -2.847698e-09 6.321936e-11 -1.200378e-10
1.735286e-09 2.250089e-11 -3.845448e-10 -3.508093e-09 -1.100331e-10 4.057457e-10
-6.647571e-11 9.305321e-10 -3.126432e-10 -3.263972e-09 -1.537609e-10 -6.174128e-11
-2.022031e-09 1.808614e-09 -1.471436e-10 -3.396960e-09 -9.149903e-11 -1.253361e-10
-3.704722e-09 -7.400854e-09 3.348659e-09 3.034545e-10 -1.429123e-11 -2.986701e-11
-1.646105e-09 -9.856276e-09 3.341742e-09 3.208535e-09 2.634697e-10 4.381227e-10
1.904951e-09 -1.409953e-08 3.381507e-09 2.218242e-09 3.205547e-11 -4.238232e-11
-1.692168e-09 1.761641e-09 4.988476e-11 -2.344688e-09 -1.336569e-10 1.098102e-10
-3.963635e-09 1.831241e-09 7.275034e-10 2.124523e-11 -2.776179e-11 3.574208e-11
-1.117286e-09 1.510442e-09 -9.923529e-11 -2.316785e-09 4.726541e-11 1.391598e-11
3.030991e-08 -1.142173e-08 6.416427e-09 9.507904e-09 2.785151e-09 9.293348e-09
2.319902e-08 -8.277021e-09 -9.257980e-10 -5.002768e-09 5.871722e-10 1.179049e-09
2.736243e-08 -1.148711e-08 3.836429e-10 2.287254e-09 1.873590e-11 -5.441445e-10
2.689496e-08 -1.431859e-08 4.613146e-09 1.182036e-09 7.315866e-10 1.565475e-09
-2.979991e-09 -2.032653e-09 1.808774e-09 1.091462e-10 3.274292e-11 -3.878795e-10
2.786333e-08 -1.038137e-08 6.098287e-09 1.127808e-08 1.381177e-09 4.480463e-09
-3.064858e-09 -2.664952e-09 1.803518e-09 -5.976104e-10 1.590772e-10 -1.837166e-10
-3.927203e-09 9.538850e-10 9.191758e-10 2.151498e-10 1.556433e-10 -1.526319e-10
1.573838e-09 -6.596297e-10 -2.849736e-10 6.786344e-10 -8.332224e-12 2.036826e-11
-3.745760e-09 -1.619602e-10 1.214008e-09 1.303373e-10 1.358162e-10 -4.242875e-10
-3.839544e-09 2.147225e-10 1.169627e-09 -1.148557e-10 2.237664e-10 -2.337412e-10
-2.695728e-10 4.244978e-10 2.345679e-12 1.465791e-09 7.089906e-11 1.245337e-11
1.299014e-10 8.741807e-11 -9.871393e-11 1.241918e-09 -1.765810e-11 -2.017895e-10
4.589141e-09 -1.658295e-08 3.184453e-09 -8.873891e-11 1.123650e-10 -4.365285e-10
-2.732197e-10 1.784395e-10 -2.031353e-11 1.115879e-09 1.552769e-10 1.881201e-10
1.104040e-09 -6.384613e-10 -2.255631e-10 6.917676e-10 8.036427e-11 -9.438850e-11
-5.088936e-10 -6.753917e-09 2.498136e-09 -1.133134e-09 -3.131232e-10 -4.486957e-10
7.837819e-10 -8.506174e-11 -1.273113e-10 1.102780e-09 1.376894e-10 -4.236306e-11
3.240539e-09 -1.398095e-08 3.022921e-09 -1.155964e-09 6.231875e-10 1.920527e-11
2.579356e-09 -8.873791e-10 -5.392595e-10 -1.549619e-09 -2.151006e-10 3.149617e-10
9.356066e-09 3.107651e-09 -1.520561e-09 -1.261246e-09 2.940877e-09 2.435042e-09
-3.994822e-09 1.751525e-09 7.390257e-10 2.313021e-10 -1.159139e-11 5.949374e-11
4.509344e-09 -2.375815e-09 -6.768220e-10 -1.285963e-09 -4.213774e-11 7.470463e-11
3.073430e-09 -1.372230e-09 -5.209542e-10 -1.618261e-09 -2.009667e-10 2.142175e-11
-3.927688e-09 1.957468e-09 6.108589e-10 1.696909e-10 -2.105072e-11 1.662537e-11
-3.877303e-09 9.256631e-10 8.019592e-10 -6.081402e-11 3.724551e-11 -1.252708e-10
-3.996305e-09 1.128715e-09 9.152150e-10 1.114193e-10 2.794498e-11 -7.352408e-11
-3.727488e-09 1.673703e-09 5.655134e-10 2.528812e-10 9.723555e-12 -1.199563e-10
-4.200018e-09 1.199671e-09 9.547212e-10 1.147082e-10 -4.162448e-11 -5.978817e-11
3.886653e-09 -1.788137e-09 -6.167735e-10 -9.650043e-10 -2.559621e-10 9.788925e-11
2.813438e-09 -1.001093e-09 -5.398437e-10 -1.171614e-09 -1.677325e-10 -6.537027e-11
2.291291e-09 -9.535265e-10 -4.787717e-10 -1.605703e-09 -5.859552e-11 6.960604e-11
-4.070479e-09 1.676509e-09 7.858909e-10 6.048895e-11 -3.402945e-11 -2.676481e-11
3.970147e-09 -2.155326e-09 -6.589710e-10 -9.087873e-10 -1.122186e-10 3.201750e-11
3.768785e-09 -1.621741e-08 -4.148648e-10 -6.191699e-09 -4.291848e-09 -1.238057e-09
-4.745759e-09 7.115997e-10 1.027323e-09 1.600649e-10 -4.414966e-10 -3.665133e-10
-4.752218e-09 8.620553e-10 9.861818e-10 1.620881e-10 1.928457e-11 -4.573772e-10
-5.283089e-09 -3.374486e-09 7.210239e-10 -9.615313e-10 -6.644707e-10 -3.540752e-10
3.248733e-09 -1.394374e-08 -5.423336e-09 -8.082796e-09 -8.181951e-09 -2.843061e-09
-4.201158e-09 1.825464e-09 5.201968e-10 -9.597073e-10 -4.476786e-10 -2.257967e-10
-4.502136e-09 1.959023e-09 7.327516e-10 -7.029203e-10 -2.918414e-10 -3.379240e-10
-1.168815e-09 -9.977427e-09 4.112877e-10 -7.324988e-09 -5.064187e-09 -1.448195e-09
-3.328163e-09 -1.784316e-09 -2.686688e-09 -5.290528e-09 -3.684379e-09 -1.155213e-09
7.452448e-10 -2.753708e-10 -1.958664e-10 5.822771e-10 2.367675e-10 -7.863510e-11
-1.300210e-10 -1.074679e-08 2.427646e-09 -3.705738e-09 -2.449329e-09 -2.045442e-10
-6.168801e-09 -3.658172e-09 1.582684e-09 -3.444069e-09 -1.544909e-09 -3.169720e-10
-2.141381e-09 1.832364e-09 8.286571e-11 -9.594507e-10 -8.327872e-11 2.117861e-11
1.701164e-09 -8.304371e-10 -2.305072e-10 6.647305e-11 1.656115e-10 8.249401e-12
-9.840759e-10 1.321402e-09 -4.936940e-11 -5.771303e-10 -8.651813e-11 -1.126355e-11
3.403647e-09 5.378329e-09 -2.016729e-09 -6.039478e-09 1.035307e-09 -1.548781e-10
-1.696350e-09 1.653544e-09 -1.230527e-11 -7.095781e-11 -7.533575e-11 -2.539390e-10
-2.461448e-09 2.189951e-09 8.810641e-11 -4.644662e-10 -3.238598e-11 1.364839e-10
-1.516469e-09 9.619860e-10 1.288298e-10 3.814529e-10 1.813153e-10 -3.118389e-11
-1.596203e-09 1.601788e-09 8.633272e-11 -4.542020e-10 -7.283485e-11 -1.881866e-10
-2.635081e-09 2.293678e-09 1.406670e-10 -1.318297e-10 -1.406031e-11 7.453349e-11
-2.835744e-09 2.408877e-09 1.673790e-10 -4.549694e-11 -7.088974e-11 1.320277e-11
3.819984e-10 1.530678e-10 -1.145866e-10 1.583211e-09 1.625789e-10 -2.698056e-10
3.313999e-09 -1.740348e-09 -5.127037e-10 6.164578e-10 -5.057754e-11 1.240585e-11
-2.737407e-09 2.446960e-09 1.586644e-10 -1.351839e-10 -5.002765e-11 -2.510964e-11
1.348027e-09 -5.323728e-10 -1.827591e-10 1.194071e-09 1.869714e-10 2.563690e-10
-3.178302e-09 2.630363e-09 2.032459e-10 -9.570389e-11 4.661827e-12 -7.023870e-11
-6.966241e-09 1.479126e-10 8.120882e-11 7.937644e-09 1.978488e-09 -4.817460e-10
-8.532135e-09 1.211001e-09 1.329804e-09 3.969943e-09 1.742934e-09 -4.513505e-10
-8.029353e-09 -1.154967e-09 1.976492e-09 4.013451e-09 9.193433e-10 -3.150000e-10
-5.350302e-09 -1.349976e-09 1.289573e-09 6.808925e-09 1.319603e-09 -1.843191e-10
-1.399708e-09 2.613068e-09 2.217551e-09 5.882042e-09 -1.680638e-10 -3.428688e-10
1.376433e-09 1.065120e-09 2.065909e-09 5.860257e-09 -1.832955e-10 -8.379211e-10
4.763699e-09 -3.598125e-10 5.206259e-09 7.338146e-09 -1.747814e-10 -1.735288e-09
2.916914e-09 -3.526675e-10 3.367198e-09 6.730412e-09 4.751698e-10 1.119099e-10
-4.393519e-09 3.280611e-10 1.079879e-09 3.148841e-10 -1.236994e-10 -5.979502e-10
-4.666719e-09 1.472089e-09 8.746530e-10 -4.187047e-10 -3.019851e-11 -2.044467e-10
-4.538653e-09 1.231986e-09 8.775674e-10 -1.771532e-10 -1.449145e-10 -4.398484e-10
-2.443924e-09 -4.363014e-09 2.229961e-09 -1.611323e-09 -4.582306e-10 -1.119127e-10
-2.013268e-09 -4.048633e-09 1.970257e-09 6.377610e-11 3.317613e-11 -5.765589e-10
3.599365e-11 2.616829e-09 2.252247e-09 6.105498e-09 -3.601435e-10 -1.523996e-09
-3.315350e-09 -1.854859e-09 1.428821e-09 -1.504830e-09 -9.958656e-11 -3.526528e-10
4.249529e-09 -3.808421e-10 3.367605e-09 6.601644e-09 -1.024082e-09 -2.833351e-09
8.208955e-09 -2.140493e-08 3.060189e-09 1.737009e-09 1.059104e-09 1.965905e-10
-7.698608e-09 -2.021805e-11 6.987735e-10 -1.781818e-09 -1.655691e-09 -8.020962e-11
-5.239789e-09 -4.592446e-09 5.875083e-10 -2.681391e-09 -1.446216e-09 -6.770754e-10
-7.497167e-09 -1.067132e-09 -2.719558e-11 -3.697543e-09 -1.878854e-09 -1.237148e-09
-8.113142e-09 6.237769e-09 -4.465576e-09 -2.728994e-09 -1.346820e-09 -7.095248e-10
-1.087983e-09 1.359974e-09 -5.242029e-11 -4.630933e-10 -1.579096e-10 2.347589e-11
-7.883461e-09 2.521504e-09 -1.548584e-09 -2.120981e-09 -5.925014e-10 -3.494604e-10
-5.576379e-09 -1.989066e-09 -4.938894e-10 -2.601876e-09 -1.190253e-09 -4.269445e-10
-5.433819e-09 -2.741348e-09 -7.274306e-10 -2.312686e-09 1.304622e-10 6.649858e-11
-7.829801e-09 -5.275007e-10 9.364785e-10 -4.992171e-10 -2.026483e-10 -1.613072e-10
-8.832423e-09 1.436433e-09 1.539700e-09 -3.919554e-10 -1.097721e-09 -1.458037e-10
-2.465548e-09 -7.288339e-09 -1.376326e-09 -3.181601e-09 -1.265339e-10 8.673262e-11
1.102134e-08 -2.060729e-10 -4.568414e-09 5.127240e-09 -1.276253e-09 -6.542885e-10
-8.669294e-09 4.174956e-09 -1.116898e-09 -2.576537e-09 -1.696511e-09 -6.575401e-10
-3.619483e-09 -3.049168e-09 -5.965039e-09 -9.071643e-09 -2.140335e-09 -1.778749e-09
-7.182880e-09 -2.745843e-09 4.788827e-10 -7.295585e-09 -4.858167e-09 -1.691141e-09
-8.805726e-09 2.253863e-09 4.112786e-10 -1.049177e-09 -1.016613e-09 -2.101484e-10
-7.878421e-09 1.665330e-09 -2.172982e-09 -6.339866e-09 -5.836363e-09 -2.295539e-09
-3.148637e-10 8.069083e-10 -1.518423e-10 -1.340535e-09 -2.236056e-10 2.232313e-10
-8.156169e-09 4.304201e-10 1.791691e-09 -2.357146e-10 -3.802803e-10 -5.908374e-11
-5.224706e-09 -6.949278e-09 4.788832e-10 -9.143453e-09 -4.473695e-09 -2.131734e-09
8.188739e-10 1.115597e-11 -3.013847e-10 -8.546087e-10 -9.835536e-11 -3.449123e-10
-9.113031e-10 1.337744e-09 -1.034399e-10 -1.121690e-09 -1.689893e-10 9.474644e-11
-6.883840e-10 7.950254e-10 -1.161544e-10 -9.162953e-10 -1.426781e-10 6.595885e-11
-9.187353e-09 1.938533e-09 1.396212e-09 -6.025189e-10 -1.184375e-09 -3.744689e-10
-2.232641e-09 -8.544282e-09 1.533863e-09 -1.333690e-09 -7.619838e-10 -3.301246e-10
-2.008921e-09 -6.395361e-09 1.971792e-10 -3.537890e-10 -3.784368e-10 -2.343574e-10
-3.471999e-09 -6.643141e-09 -1.645105e-10 -7.969801e-09 -5.035708e-09 -2.636309e-09
1.236575e-10 4.054046e-10 -2.315841e-10 -1.545942e-09 -2.726055e-10 6.799494e-11
-1.968191e-09 1.164234e-09 2.883953e-10 1.037749e-09 1.043827e-10 2.223710e-11
-2.255781e-09 1.338354e-09 2.873444e-10 1.927671e-10 6.033627e-11 -3.007983e-12
1.673188e-08 -3.922683e-09 -5.342473e-10 -5.062339e-09 -3.900339e-10 1.309282e-10
1.271037e-10 5.660272e-11 -8.462808e-11 4.162670e-12 2.041712e-10 -5.207279e-12
-1.813684e-09 1.081737e-09 1.832559e-10 5.914105e-10 1.359692e-10 1.429975e-10
-2.191342e-09 1.224812e-09 2.984761e-10 6.775296e-10 1.294655e-10 -1.537694e-10
-8.805284e-09 4.814738e-09 -1.274973e-09 -4.454556e-09 -5.096463e-09 -2.304004e-09
7.929186e-10 -3.275904e-10 -1.377596e-10 1.239670e-09 1.093536e-10 7.145151e-11
-8.264525e-09 3.379348e-09 -1.274574e-09 -2.989185e-09 -2.756431e-09 -3.802636e-10
-8.346641e-09 3.401194e-09 -9.715739e-10 -6.960658e-09 -5.698269e-09 -3.054985e-09
2.411209e-08 -9.202831e-09 -1.610732e-09 -6.774048e-11 -2.402520e-10 8.688157e-10
-4.726921e-10 3.736851e-10 -8.991030e-12 -8.424372e-12 1.080183e-10 -1.168399e-12
-6.283692e-09 6.066815e-09 -1.046316e-09 1.222845e-09 2.264367e-09 -3.617870e-10
-8.764919e-09 3.240667e-09 -4.169278e-10 4.181066e-09 -2.553397e-10 -9.367618e-11
-2.246683e-09 2.071614e-09 1.496838e-10 -1.175251e-09 3.552270e-11 -5.881962e-11
-2.574913e-09 2.101888e-09 1.775409e-10 -1.157411e-09 -8.010037e-12 2.401412e-11
-5.932003e-09 -5.883538e-09 1.601881e-09 8.684966e-09 2.693945e-09 -2.538658e-10
-6.827100e-09 -2.281864e-09 9.640715e-10 5.453864e-09 1.015544e-09 -5.868226e-10
-1.992712e-09 1.753448e-09 -3.366374e-11 -1.015398e-09 1.827122e-12 -3.384200e-10
-1.637681e-09 1.551630e-09 -6.147527e-12 -1.032040e-09 -1.432172e-10 -1.538161e-11
7.059058e-09 -1.907681e-08 -3.345943e-09 2.667373e-09 -2.362988e-09 1.400763e-09
1.952095e-09 -1.604750e-08 -1.785856e-09 6.582813e-09 -5.101486e-09 1.643954e-09
-5.935130e-09 -3.101132e-09 1.768012e-09 3.590771e-09 -9.874590e-11 -3.221334e-11
2.451924e-09 6.342304e-09 -2.982824e-09 -2.275341e-09 1.619894e-09 -9.874685e-10
-6.216745e-09 -4.748441e-09 1.583625e-09 4.796755e-09 3.032499e-10 -1.614289e-10
7.249446e-09 -2.189684e-08 -1.940817e-09 5.220486e-09 -6.787522e-09 1.451725e-09
7.255473e-09 -2.120099e-08 -4.050901e-09 5.289029e-09 -7.423382e-09 1.433247e-09
-6.032128e-09 -3.918358e-09 2.621106e-09 1.433119e-09 8.332766e-10 6.312101e-11
6.693792e-09 -1.902137e-08 -5.690626e-10 3.081359e-09 -3.202018e-09 8.139245e-10
-8.755270e-09 6.508770e-09 -3.733349e-09 7.720381e-09 4.563383e-09 -2.525156e-09
-6.963134e-09 -1.452183e-09 2.031236e-09 7.649464e-09 2.031483e-09 -5.149710e-10
4.686914e-09 -1.635876e-08 1.821768e-09 4.884150e-09 -3.606344e-09 4.510842e-10
-6.956797e-09 2.124372e-10 1.050221e-09 7.900678e-09 2.730291e-09 -6.101081e-10
5.844257e-09 -1.386103e-08 -3.635646e-09 4.371077e-09 -2.422090e-09 6.806985e-10
6.813486e-09 -1.676560e-08 -6.557549e-09 6.861661e-09 -8.365003e-09 2.744200e-09
5.747674e-09 -1.440384e-08 -2.023329e-09 5.446190e-09 -4.542612e-09 2.231652e-09
-5.752365e-11 -8.793945e-09 2.629258e-09 -2.388394e-09 -3.111188e-10 -4.803801e-10
-8.865305e-09 2.371273e-09 -2.361134e-09 9.199088e-09 4.220681e-09 -1.637124e-09
-4.398696e-09 4.953460e-10 8.255872e-10 -1.140766e-10 -8.828603e-10 -3.563441e-10
-1.422880e-09 -5.372690e-09 1.830638e-09 -2.071195e-09 -3.525368e-10 -4.424376e-10
2.477584e-08 -9.210983e-09 -1.331422e-09 -5.447969e-10 3.607579e-10 3.054335e-10
-5.578354e-10 -6.095155e-09 2.440717e-09 -2.817311e-09 -5.785248e-10 -8.848765e-11
1.063776e-09 -1.056396e-08 2.612317e-09 -2.417917e-09 1.362426e-10 -2.758169e-10
-4.398541e-09 4.014575e-10 1.162042e-09 -4.282313e-10 -3.616936e-10 -4.668284e-10
-4.803630e-09 6.238503e-10 9.961600e-10 -1.619569e-10 -4.662970e-10 -3.469791e-10
8.373790e-09 -2.196313e-08 2.164546e-09 7.969812e-10 7.033658e-10 -3.193079e-11
8.064349e-11 -9.735759e-09 1.845724e-09 6.904111e-10 -7.694217e-10 -1.058339e-10
1.182248e-08 -2.687468e-08 1.524301e-10 4.149263e-10 -8.694996e-10 2.484268e-11
1.095436e-08 -2.325125e-08 -4.158067e-09 3.215212e-09 -5.147376e-09 1.015604e-09
-4.397498e-09 -4.512026e-10 1.115091e-09 8.079253e-10 -8.078038e-10 -4.492288e-10
-4.712068e-09 2.024274e-10 1.267862e-09 -8.558687e-11 -2.039005e-10 -4.858596e-10
1.123824e-08 -2.676210e-08 -3.219132e-09 3.924591e-09 -8.778178e-09 3.331601e-10
5.859825e-09 -1.851438e-08 3.560286e-09 4.408163e-11 1.379141e-10 -1.068904e-10
-4.782065e-09 7.260210e-10 1.099170e-09 2.695466e-11 3.891376e-11 -5.478376e-10
9.453710e-09 -1.957551e-08 -3.272539e-09 3.680297e-09 -4.864830e-09 1.300087e-09
9.386866e-09 -1.922442e-08 -3.783275e-09 3.898032e-09 -6.496655e-09 1.566455e-09
7.242026e-09 -1.792066e-08 -2.213487e-10 4.645850e-09 -3.350060e-09 1.291526e-09
5.954890e-09 -1.773296e-08 2.346994e-10 8.285256e-09 -3.316306e-09 2.409774e-09
6.771923e-09 -1.983709e-08 3.565297e-09 6.244516e-11 1.378491e-21 1.103762e-11
5.721596e-09 -1.684652e-08 3.292378e-09 -6.734042e-10 3.376061e-11 -3.396191e-10
-5.546932e-09 7.482975e-09 -1.140543e-09 5.650437e-11 2.808733e-09 -2.518470e-10
-1.207114e-09 -5.670512e-09 1.941327e-09 -2.004602e-09 4.421511e-10 -5.020995e-10
-2.510012e-09 -2.536634e-09 1.862882e-09 -1.574664e-09 1.052539e-10 -5.507568e-10
1.816056e-08 -3.138649e-09 -4.577351e-08 1.395295e-08 2.147826e-08 -5.518013e-09
-2.800292e-09 -3.379833e-09 1.847378e-09 -1.571582e-09 -2.393363e-10 -4.185350e-10
-1.662367e-09 -4.029713e-09 1.967829e-09 -1.586593e-09 2.643175e-11 -4.712821e-10
-1.991843e-09 -4.965827e-09 2.021001e-09 -5.887621e-10 3.011380e-10 -4.285421e-10
-2.507037e-09 -2.652010e-09 1.853698e-09 -1.522421e-09 -4.035849e-11 -4.166318e-10
-2.524805e-09 -4.113272e-09 1.971879e-09 -1.110898e-09 4.104939e-11 -4.440744e-10
-3.890686e-09 8.122534e-10 9.817722e-10 3.498886e-10 4.345213e-11 -2.447876e-10
-3.938949e-09 6.455019e-10 1.038828e-09 3.967670e-11 -4.218662e-11 -2.183911e-10
-3.954997e-09 7.069474e-10 9.818284e-10 3.027041e-10 -3.079825e-11 -6.082115e-11
-3.156903e-09 2.453373e-09 2.225318e-10 -7.865621e-10 -1.181637e-10 -1.282982e-10
-2.234847e-09 2.109269e-09 9.051293e-11 -2.478648e-10 -6.602657e-11 8.026690e-12
-3.083937e-09 2.613289e-09 1.429603e-10 -1.305445e-11 -8.425693e-11 -3.704270e-11
-8.798862e-09 6.508770e-09 -4.128737e-09 7.787949e-09 1.237244e-09 -4.707152e-10
-9.708445e-10 -4.854204e-09 -5.308496e-09 1.299130e-08 2.905422e-09 -9.158203e-10
-3.942038e-09 -3.203559e-09 -1.872690e-09 1.056039e-08 1.817122e-09 -5.991627e-10
-5.906911e-09 6.539419e-09 -1.309470e-08 1.465531e-08 6.673048e-09 -5.721366e-09
-7.410758e-09 1.068639e-08 -4.480754e-09 1.291142e-09 2.834952e-10 -3.541405e-10
-4.655212e-09 -6.306954e-09 3.166159e-09 6.907070e-10 6.039371e-10 -2.299495e-10
-8.992647e-09 4.778737e-09 -1.432779e-09 5.241502e-09 1.525939e-09 -7.474898e-10
-3.981351e-09 8.563035e-10 1.016773e-09 9.553178e-11 3.642087e-11 -2.058134e-10
5.653988e-09 3.956482e-09 -2.606063e-09 -2.174461e-09 2.553201e-10 1.336308e-09
-3.981192e-09 1.076768e-09 9.301671e-10 1.607974e-10 4.459476e-11 -1.047434e-10
-3.893725e-09 8.954162e-10 1.056578e-09 2.148726e-10 9.279155e-11 -2.246632e-10
-8.180093e-09 5.341364e-09 -8.674439e-10 3.399729e-09 3.595431e-09 -5.768109e-10
-7.638423e-09 6.049725e-09 -4.751155e-10 5.131828e-10 2.429069e-09 -1.856058e-10
6.129142e-09 3.881683e-09 -3.412807e-09 2.027560e-10 -2.261836e-09 -5.017000e-10
2.983822e-09 -1.462277e-08 3.238274e-09 5.623582e-09 5.805796e-10 -1.829625e-10
3.424820e-09 6.174956e-09 -5.080069e-09 3.454539e-09 -3.079733e-09 -2.062150e-09
5.113575e-09 -1.940437e-08 3.695486e-09 2.809853e-09 1.163140e-10 1.526749e-10
3.543011e-09 -1.646097e-08 3.863477e-09 1.783230e-09 1.048095e-10 4.143272e-10
4.460301e-09 -1.772756e-08 3.309406e-09 4.288749e-09 7.040264e-10 3.708931e-10
2.398687e-08 -6.399011e-09 -3.861174e-09 8.568684e-10 -2.301291e-10 7.094865e-10
3.052583e-09 -1.629144e-08 3.484258e-09 4.181970e-09 1.100144e-12 8.305097e-11
-3.562869e-09 -7.066578e-09 3.224920e-09 1.471508e-09 -1.088389e-12 7.336154e-11
-4.495206e-09 -5.348824e-09 2.271135e-09 4.198554e-09 6.448849e-10 -9.520429e-11
-3.396107e-09 2.764350e-09 2.228417e-10 -2.876543e-11 -8.509193e-12 -5.219281e-11
-3.016215e-09 2.552646e-09 1.873819e-10 -5.010214e-11 -1.064704e-12 -2.898259e-11
-3.439634e-09 2.794277e-09 2.106024e-10 -7.796386e-11 -1.564993e-11 -8.623013e-11
-3.443484e-09 2.715600e-09 2.459881e-10 0.000000e+00 1.312550e-11 -5.514167e-11
-2.049858e-09 1.970975e-09 4.949596e-11 -3.842389e-10 -1.548255e-10 -3.882133e-11
-1.565022e-09 1.664301e-09 5.625500e-12 -5.495426e-11 -1.493010e-10 -6.838308e-12
-5.907214e-09 -4.085659e-09 2.370936e-09 4.207715e-09 1.080531e-09 1.595842e-10
-4.929658e-09 -5.425509e-09 2.989414e-09 8.665756e-10 2.798524e-10 8.029132e-12
-2.531788e-09 -8.602869e-09 3.251561e-09 1.323240e-09 1.949491e-10 -8.628542e-12
-2.773088e-09 2.246547e-09 1.382139e-10 -3.251324e-10 -5.026801e-11 -3.440792e-11
-2.896527e-09 -8.925927e-09 3.376831e-09 1.841343e-09 1.364216e-10 2.939693e-11
-2.234591e-09 1.988284e-09 8.379564e-11 -1.217145e-09 -1.551017e-10 6.129441e-11
-8.770193e-10 1.360178e-09 -9.284040e-11 -5.746406e-10 -1.516111e-10 -2.011991e-10
2.922413e-09 -1.282118e-09 -5.631171e-10 -4.729641e-10 -1.604761e-11 1.968075e-10
-3.834758e-09 -6.570009e-09 3.393021e-09 1.364602e-09 2.883163e-10 -1.850965e-12
-3.714556e-09 -7.120929e-09 3.361285e-09 5.040350e-10 1.428100e-10 1.437532e-10
-3.899427e-09 -7.201361e-09 3.288290e-09 6.728573e-10 2.306478e-10 2.172706e-11
-4.536469e-09 4.453682e-11 9.267465e-10 1.846385e-10 -6.550973e-10 -3.545142e-11
-4.504376e-09 -4.255067e-10 1.581857e-10 5.128625e-10 -7.754766e-10 -1.903297e-12
-4.089358e-09 -1.299346e-09 1.074513e-09 3.101706e-10 -3.099737e-10 -2.471442e-10
-4.249474e-09 -1.025832e-09 1.053914e-09 3.896248e-10 -3.165204e-10 -3.107097e-10
5.494545e-09 -2.932807e-09 -7.770353e-10 -4.165141e-11 -1.353312e-11 -1.323741e-10
5.233133e-09 -2.752500e-09 -7.809460e-10 -8.594392e-11 2.400102e-11 -4.125484e-21
-4.606994e-09 6.735634e-10 6.739793e-10 -9.866206e-11 -6.610901e-10 -1.881931e-10
5.354713e-09 -2.971015e-09 -7.664309e-10 -1.375800e-10 -1.471562e-11 6.065504e-11
-4.473222e-09 5.303398e-10 9.077736e-10 -1.867892e-10 -2.759034e-10 -3.594345e-10
5.212710e-09 -2.813659e-09 -7.752061e-10 -3.459610e-10 -5.107546e-11 -3.862721e-11
4.794360e-09 -2.610956e-09 -6.515455e-10 -4.645276e-10 -1.572738e-10 5.476108e-11
4.406393e-09 -2.206192e-09 -6.774217e-10 -1.270917e-10 5.826239e-11 -4.441040e-16
6.330607e-09 -1.856062e-08 1.386038e-09 6.811339e-09 6.268861e-10 -6.350898e-10
8.566417e-09 -1.984904e-08 -5.206302e-11 6.107814e-09 1.492711e-09 -3.775590e-11
5.873830e-09 -2.954274e-09 -7.366134e-10 -7.195533e-10 1.258038e-11 -8.093437e-11
5.555349e-09 -3.180663e-09 -7.601191e-10 -1.845138e-10 4.459100e-12 1.045830e-11
-3.833271e-09 2.608408e-09 3.800071e-10 -5.684267e-10 1.319833e-11 5.101360e-11
-4.252526e-09 2.542439e-09 5.548424e-10 -7.179093e-10 -4.596323e-12 7.598722e-11
-4.505343e-09 1.491848e-09 7.349472e-10 -7.094092e-10 -3.770212e-10 -5.551765e-10
6.246064e-09 -1.838303e-08 1.911117e-09 5.243786e-09 1.479128e-10 -2.274495e-10
2.922662e-09 -1.556008e-08 1.855303e-09 7.632079e-09 9.497316e-11 -3.646806e-10
-4.298810e-09 2.225258e-09 6.197980e-10 -1.262846e-09 -1.957958e-10 -2.776683e-10
2.964873e-09 -1.395309e-08 5.075718e-10 8.341749e-09 2.012093e-10 2.883691e-10
-4.511030e-09 2.192706e-09 6.589167e-10 -2.962919e-10 -3.908984e-11 -3.302763e-10
3.809665e-09 -1.712461e-08 2.120410e-09 5.586061e-09 7.644343e-10 -2.337280e-10
-9.188840e-09 1.393785e-09 1.180282e-09 -2.197647e-10 0.000000e+00 -2.149227e-10
3.264024e-09 -1.631064e-08 2.378179e-09 6.240359e-09 -1.359774e-10 -6.806334e-11
4.616117e-09 -1.748327e-08 1.284159e-09 6.217604e-09 1.002684e-09 -1.525298e-10
-3.269501e-09 -1.786503e-09 1.410040e-09 -5.816279e-10 1.546664e-10 -2.931753e-10
-3.563246e-09 -4.768337e-10 1.231183e-09 -3.453839e-10 -1.338817e-10 -3.588165e-10
-7.255510e-09 -1.444554e-09 8.277867e-10 -3.245044e-10 2.080924e-10 -2.570144e-11
-3.679754e-09 -2.532921e-10 1.293946e-09 -4.295232e-10 -1.327169e-10 -3.269227e-10
-3.678567e-09 -1.633385e-09 1.478553e-09 -1.251040e-09 -1.402842e-10 -3.258180e-10
-3.105864e-09 -1.667230e-09 1.696295e-09 -1.233954e-09 -1.790395e-10 -2.253581e-10
-8.644397e-09 2.560051e-09 3.753726e-10 -4.483144e-09 -4.086218e-09 -9.956801e-10
-3.279907e-09 -1.932828e-09 1.579229e-09 -1.138450e-09 2.729206e-11 -4.328116e-10
-3.696194e-09 2.426113e-10 1.265239e-09 -2.414806e-10 1.091339e-10 -3.486527e-10
-5.185264e-09 -3.180036e-09 5.019105e-10 -1.926186e-09 -1.398230e-09 -4.768710e-10
-4.404599e-09 -5.473299e-09 1.227663e-09 -4.817303e-09 -3.256326e-09 -1.176302e-09
-3.429644e-09 -3.963936e-10 1.475065e-09 -2.554712e-10 -1.543132e-10 -3.819951e-10
-4.022108e-09 2.663196e-09 4.538971e-10 -2.426135e-10 -8.552381e-12 -4.956124e-11
-1.917528e-09 7.882522e-09 -3.567826e-09 -5.618648e-09 3.398204e-10 -1.816929e-09
-6.211870e-09 7.543062e-09 -1.687679e-09 -1.513998e-10 1.980475e-09 -3.428902e-10
5.762406e-09 4.103230e-09 -3.097075e-09 -1.862792e-09 1.626669e-09 -3.918426e-10
1.071350e-08 -2.680199e-08 1.613654e-09 -1.227038e-09 -1.503520e-09 -1.351759e-10
-4.023534e-09 -3.150212e-09 -1.030215e-09 -2.324882e-09 -2.502161e-10 -2.147909e-10
3.821006e-09 4.312197e-09 -2.235299e-09 -2.559761e-09 1.310229e-09 -1.040425e-09
-8.186181e-10 8.890417e-09 -3.032738e-09 -2.770098e-09 1.264925e-09 -7.440767e-10
-4.006180e-09 6.419030e-09 -1.963878e-09 8.405326e-10 1.489493e-09 8.138035e-10
-6.128406e-09 7.252003e-09 -2.339362e-09 1.380146e-09 6.996423e-10 4.367573e-10
-9.522569e-10 6.139954e-09 -2.708770e-09 9.645547e-10 7.672118e-10 3.782425e-10
5.216536e-09 -1.057945e-08 -1.125250e-08 -8.956956e-09 -7.505117e-09 -1.580537e-09
1.102463e-08 -2.456678e-08 -1.598388e-09 -1.828160e-10 -1.062015e-09 -3.965848e-10
-3.530310e-09 -7.177707e-10 1.368809e-09 -1.461677e-10 -4.805489e-12 -1.893423e-10
4.374777e-09 -1.700294e-08 2.223873e-09 1.210406e-09 -1.142933e-10 -1.204496e-10
-7.104426e-10 -1.063297e-08 1.720663e-09 4.979315e-09 -2.286600e-09 4.329581e-10
-3.536583e-09 -6.537340e-10 1.383973e-09 -5.852405e-10 4.659451e-11 -3.913997e-10
-3.292203e-09 -1.826766e-09 1.486940e-09 7.288214e-11 2.440093e-11 -3.996565e-10
-3.592735e-09 -1.757647e-09 1.482469e-09 -7.924228e-10 -1.529201e-10 -2.585788e-10
3.276416e-09 -1.564541e-08 1.350076e-09 1.915675e-09 -1.111182e-09 1.657565e-10
7.172842e-09 -1.736053e-08 -2.113199e-10 2.168640e-09 -1.922517e-09 2.257444e-10
2.961894e-09 -1.566555e-08 1.362841e-09 6.015748e-09 -4.930132e-09 1.322448e-09
-2.896303e-09 -3.031237e-09 1.833228e-09 -8.635976e-10 -5.560379e-10 -3.423728e-10
-3.260035e-09 1.544644e-09 -7.980545e-09 4.602807e-09 -2.333234e-09 1.352092e-09
-2.942482e-09 -2.717851e-09 1.740747e-09 -3.993148e-10 2.840487e-10 -3.451879e-10
1.113204e-09 2.866871e-10 -3.775393e-10 -1.481969e-09 3.104095e-11 1.666833e-10
-2.851062e-09 2.248543e-09 1.858020e-10 -1.284659e-09 -6.277190e-11 2.934142e-11
-9.774785e-10 1.159968e-09 -3.366374e-11 -1.300692e-09 -2.025491e-11 1.623608e-10
3.588129e-09 -1.916701e-09 -5.528840e-10 3.456884e-10 1.877976e-11 1.934117e-10
-3.993097e-09 2.665914e-09 3.748912e-10 -9.853940e-11 -1.269274e-11 -2.957599e-10
-2.851062e-09 2.289223e-09 1.650875e-10 -1.172057e-09 -1.338998e-10 -8.601253e-11
2.004002e-09 -9.096657e-10 -3.489333e-10 2.429414e-10 6.623080e-11 1.637412e-10
-2.989239e-09 2.080931e-09 1.765486e-10 -1.251290e-09 4.006573e-11 -2.344649e-10
-3.670333e-09 2.429267e-09 3.182565e-10 -1.096081e-09 1.951861e-11 2.905602e-11
-3.584768e-09 2.691178e-09 3.280909e-10 -1.911147e-10 -2.946332e-11 -5.769252e-11
3.753378e-09 -2.095792e-09 -5.802088e-10 4.423930e-10 9.274670e-11 1.269951e-10
-3.454844e-09 2.314334e-09 2.973695e-10 -1.273802e-09 -1.155305e-10 -9.657164e-11
-2.490326e-09 2.180783e-09 8.304468e-11 -4.916376e-10 -8.650514e-11 -1.513372e-10
-2.851062e-09 2.044167e-09 1.185132e-10 -1.395621e-09 -1.800717e-10 -3.580469e-11
-3.281905e-09 2.217520e-09 2.754241e-10 -1.308697e-09 -8.240963e-11 -1.180044e-10
-3.746317e-09 2.395449e-09 4.246297e-10 -8.039189e-10 -9.267098e-11 -7.500073e-11
3.107131e-09 -1.583897e-09 -4.655996e-10 3.295892e-10 1.742140e-11 -1.805320e-10
-3.066981e-09 2.475727e-09 1.491780e-10 -3.086562e-10 -1.309525e-10 -8.532719e-11
-2.835741e-09 2.416201e-09 1.095088e-10 -4.873968e-11 3.707612e-11 1.406386e-11
2.902819e-09 -1.401333e-09 -4.491776e-10 7.792391e-10 5.983689e-11 2.132858e-10
3.489781e-09 -1.789636e-09 -4.687828e-10 9.410726e-10 1.208449e-10 5.394890e-11
-3.713819e-09 1.016224e-09 8.970789e-10 7.870415e-11 5.146061e-11 3.535128e-11
-3.495854e-09 1.580887e-09 6.535741e-10 3.113745e-10 9.972106e-11 -1.631842e-10
-3.923783e-09 6.204761e-10 1.066344e-09 2.598366e-11 -2.064870e-11 -2.274936e-10
3.700100e-09 -2.042052e-09 -4.862857e-10 1.049042e-09 -4.861468e-11 -1.929217e-10
-4.026611e-09 8.482131e-10 1.030807e-09 1.570608e-10 7.195800e-12 9.565149e-11
6.111542e-09 -2.634186e-09 -5.684502e-10 -2.508264e-09 -7.343437e-11 5.232381e-11
5.093185e-09 -2.122145e-09 -5.499894e-10 -3.740403e-09 -1.909035e-10 3.857457e-10
3.719071e-09 -2.135683e-09 -5.543890e-10 7.250638e-10 4.209266e-11 2.710747e-10
5.343738e-09 -2.980229e-09 -7.313159e-10 -7.166046e-11 -2.204317e-11 1.536621e-11
4.231309e-09 -1.592046e-09 -5.596901e-10 -3.056205e-09 -1.775649e-10 1.243370e-10
2.099452e-09 -7.582823e-10 -3.800709e-10 -4.273402e-10 -6.967693e-11 9.326073e-11
1.423872e-09 7.279950e-10 -4.200267e-10 -4.878089e-09 7.658030e-11 -2.759124e-10
2.261943e-09 -4.521903e-10 -4.971339e-10 -3.292612e-09 -1.850022e-10 1.098512e-10
-7.464862e-09 2.544120e-10 1.278849e-09 -1.084819e-09 -5.277195e-10 1.086962e-10
-8.327639e-09 4.223812e-10 1.304146e-09 -3.280447e-10 -5.951589e-10 -1.079332e-10
-6.653668e-09 -2.870999e-09 1.128914e-09 -2.496726e-09 -6.516052e-10 -7.778609e-10
4.211001e-09 -2.083551e-09 -6.413772e-10 -2.047285e-09 -1.451133e-10 3.101557e-10
2.915849e-09 -1.427602e-09 -5.293104e-10 -9.435134e-10 1.524669e-11 2.845835e-11
4.411190e-09 -1.776634e-09 -6.155312e-10 -2.555988e-09 -6.596634e-11 1.455676e-10
4.399732e-09 -2.083551e-09 -6.935901e-10 -1.888341e-09 -7.584888e-11 1.431033e-11
6.202509e-09 -3.415311e-09 -5.856169e-10 7.458114e-10 1.056059e-10 2.237286e-10
-8.480373e-09 4.304201e-10 1.509354e-09 -1.528644e-10 -2.541307e-10 1.079091e-10
6.254185e-09 -2.903854e-09 -2.537321e-10 2.183627e-09 4.408507e-11 -3.045342e-12
-8.811193e-09 1.394646e-09 1.612373e-09 -3.659300e-10 -1.143635e-09 -4.931267e-11
6.016172e-09 -3.386027e-09 -2.275993e-10 1.832565e-09 -9.728740e-11 -1.404541e-10
-1.254135e-09 8.122711e-10 2.608149e-10 2.070370e-09 6.692491e-11 2.677636e-11
6.078444e-10 -9.114354e-11 -3.110578e-11 2.223822e-09 -1.130491e-10 -2.654390e-10
-1.131468e-09 6.920216e-10 1.129810e-10 9.428170e-10 1.622633e-10 8.966783e-11
-1.581252e-09 6.987109e-10 1.736140e-10 8.254859e-10 1.843554e-10 -1.220759e-10
7.153025e-10 2.715977e-09 1.547539e-09 6.474770e-09 1.434964e-10 4.035840e-12
-8.971206e-10 6.796537e-10 1.220659e-10 1.270463e-09 7.433831e-11 -3.913980e-11
-5.000373e-10 4.486553e-10 3.941025e-11 1.021816e-09 8.479084e-11 -6.065082e-11
1.197060e-09 -1.156104e-08 2.243890e-09 -4.488465e-09 -6.490086e-11 -1.832376e-10
-5.018057e-10 4.468532e-10 -1.108669e-12 1.057586e-09 2.474079e-10 -2.918032e-11
6.109658e-09 -1.910540e-08 2.768185e-09 -1.260397e-09 1.204312e-10 7.561449e-11
-4.257985e-09 -2.567471e-09 1.374437e-09 -4.053523e-09 1.184921e-10 1.591873e-10
7.587109e-10 -1.098227e-08 2.678491e-09 -3.493142e-09 -1.079126e-10 -1.838719e-10
-3.843112e-09 -7.296359e-10 1.341956e-09 -9.014094e-10 -1.598763e-10 -1.901442e-10
7.090599e-09 -2.015701e-08 3.509947e-09 2.032964e-10 1.035962e-10 -4.438037e-11
7.050936e-09 -2.016849e-08 3.503854e-09 2.452968e-10 6.427992e-11 -2.159817e-11
-8.905083e-10 -8.488954e-09 2.935501e-10 -8.161688e-09 9.359901e-10 -3.650441e-11
-2.579690e-09 -5.338935e-09 1.954731e-09 -4.499118e-09 -3.397889e-10 -2.429914e-10
1.485940e-09 -1.062070e-08 1.506798e-09 -6.713887e-09 8.197270e-10 -3.063441e-10
1.508723e-09 -9.888395e-09 -4.361066e-09 -1.015992e-08 1.410379e-09 2.899183e-10
4.435848e-09 -1.451006e-08 2.191783e-09 -4.565074e-09 4.594460e-10 -2.480139e-10
-5.412106e-09 3.171855e-09 -2.435310e-09 -6.709526e-09 3.730789e-10 3.457075e-10
6.903482e-09 2.207084e-08 -5.134209e-08 -3.955890e-09 -2.268188e-08 9.902914e-10
6.721666e-09 -2.017626e-08 3.840475e-09 2.268985e-10 1.364604e-10 -1.227944e-10
6.654325e-09 -1.961723e-08 3.660869e-09 -2.550100e-10 3.469553e-10 -1.829306e-10
8.436542e-09 3.501935e-08 -4.925200e-08 -6.296443e-09 -1.205824e-08 -5.726280e-10
-6.451010e-09 4.344264e-08 -3.532874e-08 -1.431601e-12 -1.937762e-09 -2.203089e-09
2.738366e-08 -4.942632e-09 -5.051486e-09 -2.286683e-09 7.163356e-10 2.671831e-09
1.428102e-08 -1.799975e-08 -1.492002e-08 4.171003e-10 -5.310231e-09 -5.165619e-10
1.308765e-08 1.913282e-08 -4.629322e-08 -3.870943e-09 -5.679635e-09 9.334802e-10
-1.546152e-11 4.255142e-08 -2.860506e-08 -8.759518e-09 -1.181187e-08 -1.138923e-09
1.429342e-08 -8.175121e-09 -2.561417e-08 2.938558e-11 -4.365189e-09 7.961677e-10
5.636048e-09 4.279204e-09 -2.909943e-09 -2.793496e-09 1.160949e-09 -2.045820e-09
1.261654e-08 -9.878692e-09 -2.030098e-08 -6.046622e-09 -1.573071e-09 -5.215279e-10
-1.954189e-09 -6.730931e-09 1.227533e-09 2.011187e-09 -1.559901e-09 2.284862e-10
-3.985669e-09 4.051817e-10 -4.605775e-09 3.316715e-09 -7.881433e-10 5.913764e-10
-2.720775e-09 -4.557623e-09 -1.574533e-09 3.582974e-09 -1.505785e-09 6.026566e-10
-5.205493e-09 1.614577e-08 -2.260413e-08 -7.891025e-10 -6.722366e-09 9.643597e-09
-3.308129e-09 -2.660929e-09 6.989818e-10 5.247061e-10 -5.082925e-10 -3.654477e-11
-4.158771e-09 6.268549e-09 -1.680424e-08 4.203260e-09 -6.981194e-09 6.634607e-09
8.695304e-09 1.474102e-08 -3.511650e-08 3.176510e-09 -1.356205e-08 9.372793e-09
-4.273851e-09 -8.114842e-10 7.314971e-10 4.135424e-10 -6.363271e-10 -2.645790e-10
-4.909005e-09 2.596696e-10 -6.109953e-10 1.171497e-09 -7.944378e-10 4.326282e-10
-2.835836e-09 -1.851895e-09 -1.857438e-09 2.132443e-09 -9.148684e-10 2.712189e-10
-2.097347e-09 -4.351242e-09 1.124247e-10 1.324507e-09 -5.810785e-11 -2.785359e-10
-4.305028e-09 -2.206324e-10 -1.353922e-09 1.348597e-09 -2.661347e-10 -8.353028e-11
-2.086001e-08 -1.136491e-09 9.379367e-08 -1.055480e-08 5.391732e-10 -1.531794e-08
-5.301730e-09 3.790356e-09 -2.138148e-09 -6.580633e-10 -1.135240e-09 5.533365e-10
6.091308e-09 7.161416e-09 -2.674831e-08 5.988476e-09 -1.148641e-08 7.547152e-09
-1.870620e-08 1.436832e-08 4.039120e-08 -2.056541e-08 7.992632e-09 -4.459305e-09
-1.567297e-08 -2.105567e-09 1.042406e-07 -1.300320e-08 -4.802072e-09 -3.348863e-08
1.326251e-08 -2.275065e-08 -1.198599e-08 1.337040e-09 2.884549e-09 -1.637714e-10
6.566096e-09 -1.960217e-08 3.685606e-09 1.016726e-09 2.612582e-10 -2.281153e-11
8.759441e-09 -1.815404e-08 -6.657815e-09 8.939533e-09 3.555180e-09 -5.826124e-10
7.608874e-09 -2.144921e-08 2.196870e-09 9.773576e-10 -2.010188e-10 2.245066e-10
1.137499e-08 -2.226074e-08 -3.927686e-09 4.356365e-09 1.701405e-09 -5.423079e-11
1.471954e-09 -1.539848e-08 3.754249e-09 1.316070e-09 1.550002e-10 1.241220e-10
1.105726e-08 -2.039353e-08 -6.376403e-09 9.343024e-09 3.767833e-09 -1.466480e-09
3.272526e-09 -1.676843e-08 1.469863e-09 6.558134e-09 1.489185e-09 -3.886820e-10
-1.498413e-08 -7.761907e-09 7.460034e-08 -1.591161e-08 8.424508e-09 -2.501019e-08
-7.913645e-09 -4.667725e-09 6.884665e-08 -2.241709e-08 8.974036e-10 -2.179407e-08
-4.835997e-09 4.505384e-09 -1.814198e-09 -3.362776e-09 -8.959499e-10 6.262459e-10
-2.416235e-08 -2.169121e-08 1.344136e-07 -7.907197e-09 -1.479042e-09 -2.363295e-08
-3.370409e-09 -2.585185e-09 1.054261e-09 7.582206e-10 -4.765077e-11 3.481668e-13
-4.863498e-09 3.356998e-09 -9.467565e-10 -2.034128e-09 -6.932079e-10 1.469393e-10
-1.748662e-08 1.222096e-08 8.361815e-08 -1.998397e-08 3.660539e-08 -1.170068e-08
-2.595760e-09 4.451087e-09 -1.666298e-09 -5.232296e-09 -4.892766e-10 4.000324e-10
-1.702958e-10 8.785395e-10 -1.795333e-10 -6.575949e-10 -4.621115e-11 8.654810e-11
-5.087182e-09 2.069984e-09 -1.034565e-09 -4.609255e-10 -7.243055e-10 5.549888e-10
1.891291e-08 -3.662266e-09 -3.692859e-09 2.694638e-10 1.434156e-09 7.232507e-10
-1.091347e-09 1.297026e-09 -1.118540e-10 -8.841807e-10 -1.287830e-10 -5.758050e-11
-1.539561e-09 1.511337e-09 -1.157081e-10 -1.001276e-09 -1.160368e-10 -1.593858e-11
-3.534193e-09 2.841519e-09 -4.439022e-10 -3.416843e-09 -2.691583e-10 4.152718e-11
-2.822808e-09 2.385215e-09 1.379277e-10 -6.616596e-10 -1.182692e-10 -9.562099e-11
-1.188493e-09 1.122259e-09 -8.767453e-11 -1.374622e-09 -2.496139e-10 -6.870993e-11
-2.141906e-08 -1.409879e-09 1.200146e-07 3.611719e-09 3.889337e-10 -1.045854e-08
-4.447983e-09 5.896844e-08 -4.953516e-08 -7.892300e-10 1.135578e-08 -4.915866e-09
-1.042353e-08 3.723677e-08 -3.000001e-08 6.736008e-09 8.872854e-09 -1.199189e-08
-4.684662e-10 -1.223679e-08 3.810102e-09 2.370530e-09 -3.332676e-10 3.203924e-10
-1.533804e-09 -8.707943e-09 3.381482e-09 2.838011e-09 9.023668e-10 2.798292e-10
-8.000288e-09 2.247624e-08 -3.868642e-10 -1.250801e-08 5.491329e-10 -1.309927e-09
-2.582494e-09 -9.801625e-09 3.658109e-09 1.249132e-09 -1.140430e-11 1.704330e-10
-4.098375e-09 -6.946904e-09 3.031201e-09 2.626487e-09 5.420859e-10 -2.416609e-10
-2.259713e-09 -8.939500e-09 3.516185e-09 7.128995e-10 1.284006e-10 1.255329e-10
-1.575148e-08 3.779795e-08 -2.600703e-08 -1.435562e-10 -2.681791e-10 -7.244051e-09
1.467653e-08 2.326760e-08 -6.572237e-08 -4.686350e-09 1.488387e-08 4.165908e-09
1.362846e-08 -1.603810e-08 -2.336093e-08 -1.066758e-08 1.216120e-08 3.097363e-09
-4.952467e-10 -1.200233e-08 3.629643e-09 2.400817e-09 3.493039e-10 1.506280e-10
7.028588e-09 -1.876129e-08 -5.277645e-11 -4.162687e-09 1.312684e-09 1.112359e-10
7.483312e-09 -1.872512e-08 5.806804e-10 -4.701656e-09 1.795913e-09 2.026252e-10
7.665119e-09 -1.935722e-08 -3.341127e-10 -4.480499e-09 6.828049e-10 3.319632e-10
1.276149e-08 7.196158e-08 -5.936820e-08 5.332360e-10 7.587040e-10 -5.157259e-09
5.518489e-09 -1.632629e-08 5.502265e-12 -6.736346e-09 5.390672e-10 3.828682e-11
2.591031e-09 2.097283e-08 -4.258515e-08 1.861288e-08 2.130053e-08 -1.311117e-08
1.931179e-08 8.073324e-09 -7.821140e-08 -7.272685e-09 2.627520e-08 4.864935e-09
4.536558e-09 -1.490696e-08 -7.404974e-10 -6.509216e-09 -7.509704e-10 -8.251333e-11
7.558121e-09 -1.754149e-08 -2.688227e-09 -8.348185e-09 2.157267e-09 6.887181e-10
6.451454e-09 -1.646784e-08 -2.200065e-09 -8.256597e-09 2.978106e-09 3.645851e-10
1.482844e-08 1.254277e-08 -4.186968e-08 -5.345640e-09 1.257302e-08 6.763439e-09
1.681530e-08 2.097283e-08 -6.210430e-08 1.633698e-08 3.021311e-08 -1.283518e-08
-7.109502e-09 5.787468e-08 -6.138261e-08 -1.572833e-09 -2.282409e-09 -1.747929e-08
2.219209e-08 3.424591e-08 -7.790966e-08 -2.216592e-09 3.212736e-08 1.215465e-10
-9.495640e-10 9.227064e-09 -6.573355e-09 1.668977e-09 -8.652035e-10 -6.549248e-10
-2.094478e-08 7.163822e-08 1.289519e-08 -1.165295e-08 -3.677421e-08 -8.280559e-09
-6.485271e-09 6.530641e-09 -4.264527e-09 -9.825836e-10 -4.950562e-09 -1.998403e-09
2.519779e-08 -4.199271e-09 -5.762951e-08 1.210847e-11 2.950718e-08 2.745703e-09
-2.464746e-09 1.182711e-09 5.202532e-10 9.271881e-10 -1.097233e-11 1.029066e-11
-6.473091e-09 7.043440e-09 -1.655704e-09 -1.075414e-09 -3.455397e-09 -2.179076e-09
-5.079419e-09 1.086083e-08 -7.292284e-09 8.597259e-10 -4.237673e-09 -5.838208e-09
-2.696832e-11 1.285305e-08 -1.152085e-08 -1.447305e-08 -4.518875e-09 5.147674e-09
3.309796e-09 7.954250e-09 5.196207e-09 -1.397495e-08 2.840417e-09 -1.358234e-09
1.827084e-09 1.454044e-09 8.796357e-09 -1.291102e-08 1.186010e-09 -5.105497e-10
-1.705171e-08 3.447406e-08 2.047953e-08 -2.546834e-08 1.482644e-08 -8.865169e-09
5.548530e-09 7.175634e-09 -7.677024e-09 4.472126e-09 -2.385481e-09 -3.482479e-09
1.418757e-09 6.644584e-09 -5.229444e-09 1.961346e-09 -2.332320e-09 -2.574429e-09
1.195331e-08 1.764660e-08 -4.545324e-08 -1.375908e-09 -2.033717e-08 4.754048e-09
1.688363e-09 -7.492348e-09 3.029760e-08 7.983748e-10 -5.982985e-10 -7.106063e-09
-2.991273e-09 9.341703e-09 -6.181241e-09 1.953440e-09 -1.113176e-09 -6.406398e-10
8.606694e-09 3.263837e-09 -5.036962e-09 1.730551e-10 -9.130796e-10 5.884739e-10
-7.040439e-09 9.960464e-09 -4.231046e-09 -5.164088e-10 -3.687552e-09 -2.343424e-09
-4.932428e-09 2.013670e-08 -1.074431e-09 -2.153425e-08 -5.232532e-09 8.585315e-10
5.165058e-09 -1.461434e-08 -1.416319e-09 -7.654428e-09 1.738928e-09 2.194425e-10
-4.119932e-08 6.272004e-08 8.249645e-08 9.043440e-09 -5.981306e-08 -2.582090e-08
3.122295e-09 -1.271779e-08 -1.749051e-09 -8.505174e-09 1.926202e-09 4.483378e-10
-5.453253e-08 -1.329101e-08 1.304282e-07 -7.853228e-09 1.638168e-08 -1.551204e-08
2.587104e-09 -1.111924e-08 -2.936288e-09 -9.094565e-09 1.440311e-09 2.796996e-10
-7.165175e-08 -1.570871e-08 1.484670e-07 -4.102820e-09 -8.529977e-09 -2.160052e-08
7.594748e-09 -1.710078e-08 -5.459763e-09 -8.881047e-09 8.974056e-10 -1.349605e-12
1.278037e-08 -2.194880e-08 -1.009927e-08 1.771299e-09 -5.830379e-09 6.382870e-10
4.164311e-09 -9.509051e-09 -7.627285e-09 -1.085707e-08 2.208922e-10 -1.491024e-10
-1.679882e-08 3.302782e-08 -5.183002e-09 1.744479e-08 2.014152e-09 1.310406e-09
2.505527e-09 1.631523e-09 4.358771e-08 -2.877426e-09 4.733816e-09 -3.250722e-08
-4.117386e-08 -6.792952e-10 1.167891e-07 1.053590e-08 -9.749754e-09 -2.778709e-09
4.607968e-09 -8.482612e-09 2.622760e-08 3.161070e-10 3.387896e-09 -5.540940e-09
5.140891e-09 -1.093019e-08 -5.932355e-09 -1.159665e-08 2.420401e-09 1.232614e-09
-3.371927e-09 1.414571e-09 6.966174e-10 3.511353e-10 1.891598e-11 -1.672618e-11
3.832312e-09 -1.345236e-08 -3.625019e-09 -1.103959e-08 2.840742e-09 7.873679e-10
5.819233e-09 -5.963022e-09 2.961900e-08 3.084964e-09 4.478149e-10 -8.503447e-09
7.562489e-09 -1.734460e-08 -4.751495e-09 -8.834592e-09 3.405730e-09 1.061101e-09
2.339478e-09 -7.428245e-10 -4.456369e-10 -3.990526e-10 -1.807070e-10 -1.732843e-10
-4.455194e-09 1.149066e-08 1.224626e-08 -1.242207e-08 7.847369e-09 1.413771e-09
6.536220e-09 1.540879e-10 2.186410e-08 -1.192863e-08 6.382982e-09 -7.814896e-09
2.211571e-09 -6.459396e-10 -4.019989e-10 -1.088391e-09 -6.568658e-11 1.337339e-10
5.062208e-10 3.203793e-10 -2.686631e-10 -1.790992e-09 -2.156848e-10 1.986009e-10
1.350009e-09 3.272785e-09 1.131602e-08 -1.523690e-08 7.726568e-09 -4.374245e-09
-9.844009e-11 -3.322780e-09 3.542987e-08 -1.195587e-08 8.370373e-09 -3.619974e-09
1.114254e-09 3.394796e-11 -3.715881e-10 -1.500776e-09 -2.126818e-10 3.085591e-10
1.533111e-08 -1.900365e-08 -1.168282e-08 5.421757e-09 2.754746e-09 -9.111303e-10
9.214625e-09 -2.285442e-08 -6.373395e-10 9.806133e-10 1.030091e-09 2.184126e-10
1.166918e-08 -2.025097e-08 -5.113471e-09 -4.229567e-09 1.771005e-09 8.556165e-11
6.975794e-09 -2.025959e-08 3.070865e-09 -4.036417e-10 2.542231e-10 -5.648149e-11
-5.569682e-09 8.125670e-09 -3.201921e-09 5.153141e-10 1.152240e-09 -1.021760e-09
-8.038288e-09 8.896102e-09 -2.592499e-09 1.777050e-09 7.318457e-10 -2.602236e-10
8.373791e-09 -2.186419e-08 3.407685e-09 6.525802e-10 9.391073e-10 -3.436962e-11
6.464499e-09 -1.969622e-08 3.381740e-09 3.768590e-09 6.577118e-10 1.818966e-10
3.047892e-09 1.087516e-08 -1.064182e-09 -9.945489e-09 2.463534e-09 -1.790948e-09
-7.806495e-09 9.720829e-09 -4.213529e-09 6.644545e-10 1.750588e-10 -4.799805e-10
-5.957396e-09 1.326229e-08 -4.570470e-09 -3.260727e-09 9.102797e-10 -1.667861e-09
-2.544019e-09 8.862336e-09 -3.301930e-09 -2.663537e-09 2.312222e-10 -4.249299e-10
-6.480395e-09 1.462603e-08 -4.708301e-09 -3.895321e-09 2.092499e-10 -1.010692e-09
8.544529e-09 -2.072318e-08 8.246404e-10 -1.897546e-09 -1.766587e-11 -1.441798e-10
6.252154e-09 -1.740191e-08 1.716800e-09 -3.584086e-09 3.974642e-10 -4.634981e-11
4.152481e-09 -1.454887e-08 3.125322e-09 -1.174655e-09 8.239641e-10 -2.568477e-10
5.606260e-09 -1.602467e-08 2.418417e-09 -4.053328e-09 7.071173e-10 -2.113567e-10
-8.865327e-09 2.551326e-09 7.924330e-10 -2.342868e-09 -2.533183e-09 -7.707144e-10
-2.666424e-09 1.544529e-09 3.694554e-10 4.834824e-10 1.559022e-10 -5.611245e-11
-7.169254e-09 -2.249526e-09 7.182563e-10 -2.236207e-09 -7.287330e-10 -2.723370e-10
-8.845873e-09 2.733968e-09 1.888363e-10 -9.430048e-10 -9.511940e-10 -7.435252e-11
-7.181884e-09 -1.720612e-09 1.820520e-09 -1.519438e-09 -1.001034e-09 -3.039284e-10
-2.210017e-09 1.174215e-09 2.335574e-10 4.038068e-10 1.214853e-10 1.315565e-10
-3.646083e-09 7.021548e-10 9.278498e-10 -7.588603e-12 1.125966e-11 7.624035e-11
-7.900013e-09 -5.703438e-10 1.414822e-09 -2.502128e-09 -1.582719e-09 -1.338512e-10
2.102554e-09 -7.650383e-10 -2.941078e-10 1.882444e-09 1.740952e-10 8.726875e-11
7.382148e-10 -2.754145e-10 -1.937350e-10 5.174497e-10 2.697957e-10 -7.893619e-11
2.435774e-09 -1.319143e-09 -3.470504e-10 1.131806e-09 -3.246958e-11 -1.274492e-10
5.366330e-10 8.097523e-12 -1.131442e-10 1.595440e-09 -5.149792e-11 -4.742517e-11
-3.189631e-09 -2.055550e-09 1.610895e-09 -1.217825e-09 -1.951634e-10 -5.652901e-10
-2.128837e-09 -3.692033e-09 1.928202e-09 -8.045182e-10 4.879486e-11 -1.850219e-10
-2.569460e-09 -2.452921e-09 1.742432e-09 -4.780980e-10 1.261345e-10 -4.851724e-10
-3.157593e-09 2.482749e-09 2.121996e-10 -1.640084e-10 -4.238609e-11 -8.328227e-12
5.259022e-09 -3.867113e-09 -1.950739e-08 1.653792e-08 3.034450e-09 -1.217663e-09
9.350526e-09 -8.505689e-09 -2.056264e-08 1.354684e-08 4.313203e-09 -1.228892e-09
3.691253e-09 -5.899695e-09 -1.110858e-08 1.306099e-08 2.710440e-09 -1.162722e-09
-2.242034e-09 2.174804e-09 3.048539e-11 -2.398670e-10 -1.162512e-10 -2.646544e-11
-2.781311e-09 2.044167e-09 5.293455e-11 -1.389696e-09 -1.279200e-10 -1.574053e-10
-2.248881e-09 1.829880e-09 9.579448e-11 -9.044947e-10 -6.451883e-11 -1.229206e-10
-3.455625e-09 2.739708e-09 2.695688e-10 -6.682921e-11 -7.546408e-12 3.465228e-12
-3.837869e-09 2.766575e-09 3.375613e-10 -1.380922e-10 -3.423661e-11 -1.760541e-10
-3.216480e-09 2.614083e-09 2.500666e-10 -5.110117e-10 -9.606632e-11 -1.670628e-10
5.939562e-09 -1.960830e-08 3.819364e-09 4.238467e-10 -2.221198e-16 -8.866419e-11
5.487784e-09 -1.882030e-08 3.520514e-09 1.021896e-09 3.388023e-11 -2.232081e-10
1.015346e-09 -1.354756e-08 3.775086e-09 6.662342e-10 1.827700e-10 7.287415e-11
-5.970549e-10 -1.216212e-08 3.697817e-09 1.273273e-09 -1.631015e-10 -2.749898e-10
2.836426e-09 -1.078310e-08 -5.636612e-09 1.243798e-08 2.332961e-09 -6.992937e-10
2.257834e-09 -3.746539e-09 -1.549083e-08 1.542224e-08 2.069933e-09 6.865696e-10
4.282478e-09 -7.305269e-09 -9.952984e-09 1.415924e-08 4.284590e-09 -9.952984e-10
5.771887e-09 -1.922290e-08 3.210953e-09 3.600856e-09 7.778189e-10 -1.155560e-10
5.114426e-09 -1.989881e-08 3.591753e-09 3.326220e-09 6.328265e-10 9.844028e-11
5.102754e-09 -1.845764e-08 3.833606e-09 1.736453e-09 2.481178e-10 2.204649e-10
5.243558e-09 -1.839351e-08 3.677685e-09 1.601208e-09 3.038877e-10 -6.895995e-11
5.182098e-09 -1.816656e-08 2.980779e-09 4.226411e-09 3.211956e-10 2.547842e-10
5.114743e-09 -1.912838e-08 3.449740e-09 3.518970e-09 3.346358e-10 -8.721285e-11
-2.970999e-09 -2.471285e-09 1.692291e-09 -1.562968e-09 1.034406e-10 -2.699756e-10
-3.780908e-09 -5.392486e-11 1.265725e-09 -2.498182e-10 9.106427e-11 -1.745406e-10
-3.808418e-09 2.722933e-10 1.150887e-09 -2.349609e-10 9.260126e-11 -2.337783e-10
-3.316838e-09 -2.918908e-09 1.691247e-09 -1.239593e-09 3.131345e-11 1.453554e-11
-3.891738e-09 1.577600e-10 1.237867e-09 -1.618947e-10 -9.835288e-11 -5.422285e-11
-8.080247e-09 1.367845e-08 -6.642740e-09 -1.170265e-09 1.146697e-09 -2.037878e-09
-5.246955e-09 5.249860e-09 -4.611037e-09 -6.725138e-10 -5.231984e-10 3.783133e-10
-7.913525e-09 1.135481e-08 -4.070131e-09 5.023350e-10 8.941568e-10 -6.152906e-10
5.033432e-09 -1.894572e-08 2.084964e-09 3.211298e-09 -2.220831e-09 4.288231e-10
1.399163e-09 6.253049e-09 -2.563657e-09 -2.020736e-09 2.079462e-09 -5.011055e-10
2.068241e-09 -1.175007e-08 -4.976792e-10 1.882754e-10 -1.163658e-09 1.923420e-10
-3.983186e-09 -3.960309e-09 5.651517e-10 3.056204e-09 -2.374611e-09 6.101343e-10
-2.682130e-09 -2.280971e-09 -8.085665e-10 1.774493e-09 -1.980256e-10 7.073231e-11
-7.824202e-09 8.336175e-09 -4.097613e-09 2.574113e-09 1.314836e-09 -1.120969e-09
-3.239556e-09 -7.634279e-09 7.770733e-10 5.597668e-09 -3.325376e-09 1.114159e-09
-8.202972e-09 7.184568e-09 -2.285793e-09 2.471390e-09 1.857681e-09 -1.126537e-09
-4.882498e-09 4.066246e-09 -2.328884e-09 -1.915803e-09 -9.647574e-10 1.063261e-09
-4.543311e-09 2.447338e-09 6.419656e-10 -3.657865e-10 -8.881396e-16 -5.305223e-11
-3.909076e-09 2.514048e-09 4.607652e-10 -2.247420e-10 -6.194867e-11 -1.378813e-10
-4.505796e-09 1.672932e-09 8.782062e-10 -3.778133e-10 -2.088507e-10 -3.358342e-10
-4.815257e-09 5.437055e-10 9.242707e-10 -4.695746e-10 -2.599543e-11 -7.931344e-11
-4.381399e-09 1.841990e-09 5.746896e-10 -5.893738e-10 -2.927695e-10 -1.944842e-10
5.805260e-09 5.727484e-09 -1.018141e-09 -6.713961e-09 5.752992e-10 -4.903984e-10
-8.154739e-09 6.826896e-09 -1.952735e-09 2.543433e-09 2.022111e-09 -8.627031e-10
1.288194e-08 -1.682312e-10 -3.454400e-09 -3.557733e-09 7.739280e-10 7.721199e-10
4.751605e-10 1.331694e-08 -4.836546e-09 -5.921408e-09 3.590395e-09 -2.988822e-09
3.961897e-09 8.376081e-09 -2.249450e-09 -7.384409e-09 6.065024e-10 -1.577871e-10
-2.384978e-09 6.510191e-09 -2.848746e-09 -1.977219e-09 -1.972131e-10 1.369638e-10
-3.373387e-09 7.122995e-09 -2.264455e-09 -4.702681e-10 4.048071e-09 -1.819140e-09
-3.805870e-09 2.100951e-09 5.376972e-10 3.473355e-11 1.064637e-11 -5.257794e-11
-1.841992e-09 1.137496e-09 2.183906e-10 6.049619e-10 1.462355e-10 -1.834083e-10
-2.396758e-09 1.515069e-09 2.886011e-10 1.565335e-10 4.167860e-11 -5.872192e-12
-4.011818e-09 -5.046919e-09 -1.030215e-09 -1.908102e-09 1.203500e-10 -3.826974e-10
-3.507379e-09 1.471084e-09 7.684182e-10 8.316709e-10 9.692647e-11 -1.040457e-10
-8.920205e-09 9.783179e-10 1.180282e-09 -1.269624e-10 -2.031557e-10 0.000000e+00
-1.274767e-10 -1.182571e-08 1.515509e-09 -2.673093e-09 -9.290595e-10 -5.556038e-10
6.472091e-09 -1.841673e-08 3.813190e-10 -9.757883e-10 -7.247221e-10 -7.794494e-10
-2.681839e-09 1.315948e-09 3.430478e-10 8.564145e-10 5.357736e-11 -4.571099e-11
-4.767756e-09 -3.275744e-09 1.416417e-09 -1.472982e-10 -4.098992e-10 -2.550762e-10
-5.549175e-09 -1.492983e-09 -5.343859e-10 -2.468677e-09 -1.159026e-09 -4.376267e-10
-3.272317e-09 1.825777e-09 3.976712e-10 7.215498e-11 -1.594143e-13 -8.490951e-11
1.038118e-08 -1.644694e-08 -1.069580e-08 -4.108022e-09 -1.796473e-09 -1.257279e-10
4.225569e-09 -1.516419e-08 -2.033874e-09 -5.677590e-10 -1.231587e-09 -2.500871e-10
-3.889150e-09 2.079785e-09 5.473704e-10 1.159923e-10 8.843037e-12 1.748990e-12
-2.711953e-09 1.554897e-09 4.028786e-10 1.361320e-10 6.071121e-11 1.834266e-11
4.666434e-09 -2.563356e-09 -6.910543e-10 -9.328985e-10 -4.900502e-11 -8.122170e-11
1.968142e-09 -1.248014e-08 -3.378957e-10 -4.303606e-10 -7.597487e-10 -1.345748e-10
5.094746e-09 -2.500523e-09 -7.185310e-10 -1.094629e-09 -3.343031e-11 -4.395001e-11
5.089804e-09 -2.903495e-09 -7.765397e-10 -2.398785e-10 6.278311e-12 9.076962e-12
-3.751515e-09 -5.370263e-09 2.341523e-10 -5.155368e-10 -7.765577e-10 -3.262961e-10
5.430423e-09 -3.092830e-09 -6.991381e-10 4.097536e-10 1.772865e-11 -6.021961e-11
5.982117e-09 -3.174137e-09 -7.753617e-10 -5.606644e-10 -1.436644e-11 5.132639e-11
3.622677e-09 -1.736521e-09 -5.912988e-10 -3.500718e-10 -6.217538e-11 1.723068e-10
-8.413250e-09 1.964726e-09 6.494556e-10 1.669448e-09 3.463860e-10 1.156547e-18
1.223954e-08 -1.687460e-08 -9.659133e-09 2.442643e-09 -1.954273e-09 2.541418e-10
5.724761e-09 -2.852025e-09 -7.247225e-10 -7.403925e-10 -1.618249e-11 4.586642e-11
-3.530928e-09 1.291717e-09 8.238619e-10 5.307008e-10 3.184342e-11 -1.173761e-10
-3.980204e-09 1.481714e-09 8.169863e-10 4.533396e-11 -5.075140e-11 -4.958389e-11
5.398771e-09 -2.973397e-09 -7.807532e-10 -4.431220e-10 -2.049805e-11 -1.136835e-11
8.514025e-09 -1.452718e-08 -7.592145e-09 4.476247e-09 -1.572955e-09 4.139342e-10
5.787520e-09 -3.003975e-09 -7.639562e-10 -6.231463e-10 -9.763168e-11 1.055027e-10
5.629669e-09 -3.065664e-09 -7.953513e-10 -5.263847e-10 6.148393e-11 -7.089640e-11
-4.562220e-09 2.992095e-10 9.664189e-10 -2.107308e-10 -6.861356e-11 -4.091373e-10
-8.485813e-09 2.319173e-09 1.188782e-10 4.924850e-09 3.364964e-09 -6.035196e-10
-4.639557e-09 2.030933e-09 6.484646e-10 -8.623832e-10 -6.272407e-10 -3.176234e-10
1.250546e-08 -1.730874e-08 -1.582130e-08 3.839884e-09 -8.266602e-09 1.330931e-09
-8.159656e-09 6.828180e-09 -3.459670e-09 5.835667e-09 2.021006e-11 -3.009248e-10
-4.738324e-09 1.969648e-09 6.930008e-10 -4.652012e-11 -2.245948e-11 -4.084659e-10
-4.742597e-09 1.852960e-09 4.588772e-10 -1.026418e-09 -4.160101e-10 -1.771809e-10
-4.525849e-09 1.795232e-09 5.774403e-10 -6.046119e-10 -2.401115e-10 -6.087403e-11
-4.688655e-09 2.079602e-09 6.420495e-10 -7.147385e-10 -1.224740e-10 -3.266780e-10
-5.444267e-10 -1.103499e-08 4.406453e-10 -3.072007e-09 -7.729271e-10 -1.209399e-09
3.792782e-09 -1.566048e-08 -2.554728e-09 -6.073199e-09 -4.094674e-09 -1.144285e-09
5.417572e-09 -2.810109e-09 -6.989747e-10 9.226584e-10 7.339851e-12 -6.476442e-11
-4.567985e-09 2.017017e-09 6.929772e-10 -5.283780e-10 -1.717702e-10 -3.598608e-10
5.021331e-09 -2.462399e-09 -5.933143e-10 1.419761e-09 -3.910249e-11 -1.932907e-10
1.275881e-08 -2.061851e-08 -7.586197e-09 1.782287e-09 -2.955462e-09 3.790432e-10
5.229583e-09 -2.797077e-09 -4.471801e-10 1.774203e-09 -1.076704e-10 -3.704059e-11
1.172035e-08 -2.297972e-08 -3.124057e-09 -2.532419e-12 4.440888e-16 7.764989e-11
1.211812e-08 -2.361737e-08 -3.747080e-09 -5.140965e-10 -4.270158e-10 -3.956673e-10
8.416707e-09 -2.209060e-08 -1.992664e-09 4.702661e-09 -6.277708e-09 1.000413e-09
1.320404e-08 -2.918539e-08 -4.456139e-09 1.144237e-09 -9.929048e-09 9.778482e-10
1.199539e-08 -2.323131e-08 -4.412574e-09 -7.468541e-10 -5.679117e-10 1.235476e-10
1.387117e-08 -1.257648e-08 -1.927458e-08 8.710796e-10 -3.271972e-09 2.284950e-10
1.255753e-08 -2.022188e-08 -8.807852e-09 -3.480119e-09 -6.365140e-09 -8.608878e-10
1.008655e-08 -1.314370e-08 -1.441108e-08 -5.334821e-09 -2.933751e-09 -3.265583e-10
1.362331e-08 -1.812508e-08 -9.963537e-09 -9.510195e-10 -1.457006e-09 -3.272098e-10
1.465130e-08 -1.717988e-08 -1.851588e-08 -1.917750e-09 -1.059491e-08 -2.841507e-10
1.262553e-08 -1.168763e-08 -2.169069e-08 -4.374150e-09 -3.680473e-09 1.396439e-10
-3.033383e-09 2.412207e-09 1.954827e-10 -3.206621e-10 2.731779e-11 -4.942535e-11
-3.839469e-09 8.261871e-10 9.629915e-10 -3.023315e-11 -2.932321e-12 6.085976e-11
-3.807591e-09 1.065917e-09 9.639818e-10 5.158184e-11 1.091585e-10 7.054356e-12
3.590346e-09 -1.639892e-09 -5.853162e-10 -1.303734e-09 -6.364356e-11 -3.170686e-11
2.101731e-09 -8.175953e-10 -4.629617e-10 -7.534116e-10 -1.139523e-10 -2.854604e-10
-4.082718e-09 1.222504e-09 9.126673e-10 2.140110e-11 -1.236766e-11 -1.614406e-10
1.713625e-09 3.465916e-11 -3.435483e-10 -1.413354e-09 -2.950218e-10 7.761569e-12
1.481472e-09 -9.653567e-11 -4.360179e-10 -9.263392e-10 -1.372844e-10 -1.988842e-11
3.316746e-09 -1.815347e-09 -6.263803e-10 -1.229382e-09 -1.246757e-10 -1.741050e-10
1.941803e-09 -5.432073e-10 -4.441172e-10 -1.827790e-09 -1.986480e-10 2.239994e-10
4.701301e-09 -1.783794e-08 3.630566e-09 1.557757e-09 7.379211e-12 6.009349e-11
-8.834166e-09 2.687111e-09 8.474754e-10 -9.940573e-10 -1.893225e-09 -2.065216e-10
7.048691e-09 1.462805e-08 -3.367585e-08 2.145437e-09 -4.512838e-09 2.908012e-09
1.771162e-09 -1.348280e-08 1.743411e-09 6.224278e-09 8.471373e-10 2.504552e-11
5.641492e-09 -1.757498e-08 1.152378e-09 6.763678e-09 3.682925e-10 7.266810e-11
6.897664e-09 -2.022715e-08 3.424161e-09 -4.930698e-10 6.009860e-11 -8.522370e-11
7.302050e-09 -2.106421e-08 2.749297e-09 -1.077015e-09 7.019243e-10 -1.879998e-10
7.711513e-09 -2.020507e-08 1.721424e-09 -2.619644e-09 3.380053e-11 -1.105234e-10
8.208955e-09 -2.260344e-08 4.551008e-10 2.472985e-09 1.480263e-09 -1.663605e-10
6.358711e-09 -1.902485e-08 2.540434e-09 3.986642e-09 2.323188e-10 1.077232e-10
1.413017e-08 -1.984249e-08 -8.391528e-09 3.409840e-09 1.591807e-09 1.290741e-10
6.136521e-09 -1.806539e-08 3.300076e-09 -1.086320e-09 1.273985e-10 -1.178839e-10
1.214314e-08 -1.616617e-09 -2.942848e-08 2.118721e-09 -4.681983e-09 7.405516e-10
4.128641e-09 -1.560729e-08 3.136971e-09 -1.334804e-09 2.824385e-11 -3.617856e-10
7.875040e-09 -1.593856e-08 -7.273878e-09 9.036300e-09 2.539666e-09 1.005574e-10
6.600043e-09 -1.951032e-08 3.203485e-09 -7.361250e-10 1.138982e-10 4.812646e-11
-6.450681e-09 1.937093e-08 -1.424882e-08 8.008029e-09 -3.894889e-09 -7.889489e-09
-8.118562e-09 1.550465e-08 -9.256491e-09 2.524634e-09 -5.491809e-09 -7.849094e-09
-7.230330e-09 2.831745e-08 -6.957614e-09 1.719614e-08 3.111419e-09 -4.727618e-09
-7.525420e-09 3.242945e-08 -1.858816e-08 3.176257e-09 -9.240819e-09 -7.326575e-09
7.846436e-09 -2.093025e-08 2.377890e-09 -3.825950e-10 2.324141e-11 2.352585e-11
1.825792e-08 3.281341e-08 -7.795374e-08 1.031200e-08 2.278202e-08 5.953410e-10
-1.389673e-08 2.787105e-08 -9.116800e-09 1.082791e-08 -1.052840e-09 -8.560725e-09
1.878739e-08 2.460301e-08 -6.452268e-08 1.175811e-09 1.412357e-08 -5.310360e-10
-6.477748e-09 2.427477e-08 -3.726136e-08 -9.368204e-09 -1.036790e-08 -7.422621e-09
-3.320982e-09 2.468552e-08 -2.400754e-08 2.678918e-09 -5.020325e-09 -6.163142e-09
2.162293e-08 -1.051391e-09 -5.501604e-08 -4.066628e-10 1.223324e-08 4.386928e-09
2.041677e-08 1.059441e-08 -5.565731e-08 -6.512988e-09 1.154570e-08 3.013768e-09
-4.178082e-09 2.509983e-09 -9.706191e-11 -2.284090e-09 -4.363487e-11 -3.101580e-10
2.051708e-08 9.887129e-09 -6.452268e-08 4.554459e-09 1.394700e-08 -5.633520e-10
-1.463983e-08 5.239129e-08 -3.335236e-08 -4.086529e-09 -7.283553e-09 -6.823555e-09
-5.018276e-09 2.391253e-09 -1.640880e-09 -2.885237e-10 -2.470393e-10 -2.885204e-10
8.713304e-09 -4.430579e-09 2.724900e-10 -3.622180e-10 -2.399508e-11 -9.177350e-10
1.022454e-08 2.017599e-08 -4.757793e-08 1.363420e-08 9.745146e-09 -4.393591e-09
8.458819e-09 -4.155230e-09 1.400835e-10 7.187341e-10 5.276310e-11 -7.704564e-10
6.854357e-09 -3.479678e-09 -4.022551e-10 1.389433e-09 3.504372e-11 -4.392480e-10
6.358712e-09 -1.966217e-08 1.744275e-09 4.394776e-09 1.015350e-09 -1.854969e-10
8.069315e-09 -2.194874e-08 4.061045e-10 2.758566e-09 1.564906e-10 2.527027e-10
2.618406e-09 7.666307e-09 -2.628156e-08 -1.396255e-08 5.521051e-09 2.839795e-09
1.145195e-08 -6.019764e-09 -2.959612e-08 -1.195412e-08 6.234392e-09 1.271697e-09
6.344315e-09 -1.961524e-08 -6.043344e-11 6.298423e-09 1.538034e-09 2.011573e-10
1.372602e-08 -1.967641e-08 -7.907162e-09 -3.040682e-09 9.256364e-10 2.228675e-10
9.257492e-09 -1.890291e-08 -4.564551e-09 8.205732e-09 2.268029e-09 -1.101373e-10
1.372580e-08 -2.151828e-08 -8.046478e-09 -3.958998e-09 5.564000e-09 5.521385e-10
-1.031085e-08 6.899696e-09 -1.051705e-08 -1.491282e-08 6.604970e-09 7.642970e-09
9.661714e-09 -2.331148e-08 -2.101711e-09 -2.317888e-09 2.685914e-09 -1.571210e-11
7.040457e-09 -1.882241e-08 3.516116e-10 -4.119355e-09 -1.457094e-10 -7.926870e-11
-5.380645e-09 3.828432e-09 -1.192895e-08 -1.225117e-08 4.365335e-09 1.024748e-09
1.091753e-08 -2.097684e-08 -4.490662e-09 5.476864e-09 2.395132e-09 -6.090078e-10
-5.371240e-09 6.574670e-10 -1.326072e-09 -6.952609e-09 3.501259e-10 6.107175e-10
2.808557e-09 2.367263e-09 -3.480033e-08 -1.743922e-08 1.345138e-08 1.209538e-08
4.034821e-10 1.010657e-09 -1.580853e-08 -1.432586e-08 -9.862200e-11 4.253920e-10
-1.077262e-09 -4.856587e-09 -7.282210e-10 -7.429981e-09 -4.189440e-10 -3.253236e-10
-2.005161e-09 -1.783071e-09 -1.889524e-09 -8.616794e-09 7.745200e-10 1.295988e-10
-7.020521e-09 3.062342e-09 -1.149536e-09 -6.145130e-09 8.350718e-10 8.028443e-10
-5.674447e-09 2.297377e-08 -2.414482e-08 -1.134306e-08 4.539969e-09 1.620664e-09
-7.575132e-10 8.101093e-10 2.285299e-10 2.103969e-09 7.528560e-11 -1.099154e-10
2.564840e-08 -1.014152e-08 2.989039e-09 -3.659435e-09 4.250483e-12 1.045572e-09
-1.246505e-09 1.171771e-09 2.056004e-10 2.346083e-09 4.941242e-11 -1.025784e-10
-2.287734e-09 1.184734e-09 3.857634e-10 1.741910e-09 2.296179e-10 -1.469405e-10
-1.445931e-09 1.428956e-09 4.717711e-10 2.359597e-09 -8.968604e-11 -1.141738e-10
1.397778e-09 -1.062901e-10 5.161427e-11 3.022001e-09 -7.047948e-11 -1.851919e-10
1.894852e-08 -7.784405e-09 3.454662e-09 -1.026794e-08 -1.631885e-09 3.748195e-09
-3.739631e-11 6.916223e-10 1.314859e-10 2.614297e-09 -9.411272e-11 -9.421885e-11
2.462799e-08 -1.148329e-08 3.517080e-09 -8.315420e-09 4.027685e-10 2.685486e-09
-1.098448e-09 1.171941e-09 2.496048e-10 2.351189e-09 4.667200e-11 -1.860241e-10
-3.558864e-09 1.635755e-09 7.853904e-10 9.681897e-10 -6.256839e-11 4.776624e-12
2.455220e-08 -1.314011e-08 1.128201e-08 -7.686506e-09 2.127498e-09 7.826972e-10
2.964658e-08 -9.887822e-09 -1.750422e-09 -1.774660e-09 4.307677e-11 3.273162e-09
1.164291e-09 -1.959131e-10 1.343530e-10 2.984607e-09 2.804597e-10 -5.988210e-11
2.751719e-08 -1.426558e-08 3.239697e-09 9.949784e-10 3.111829e-10 2.627094e-09
2.806983e-08 -1.027643e-08 -1.524589e-09 -2.749225e-10 -2.445994e-10 6.838694e-10
6.891998e-11 1.028309e-09 2.130198e-10 3.319982e-09 -1.775833e-10 -1.846221e-10
1.810019e-09 5.672558e-09 -2.000808e-08 4.472063e-09 -4.560664e-09 1.586627e-09
-2.166364e-09 3.065276e-08 -4.135759e-08 -7.974288e-09 7.921747e-09 4.209324e-09
-7.371188e-09 4.797187e-09 -6.175545e-09 1.000930e-08 6.633848e-11 6.963407e-10
2.441602e-09 2.496423e-08 -2.847870e-08 -4.604412e-09 -8.348390e-09 9.670891e-09
8.695304e-09 6.768334e-09 -3.708258e-08 5.699783e-09 -1.687303e-08 8.706744e-09
7.403121e-09 1.770710e-08 -4.275963e-08 -9.115182e-10 -5.039161e-09 3.089705e-09
-6.337950e-09 4.706624e-09 -8.655572e-09 1.204046e-08 1.589663e-09 -6.329694e-10
-6.897177e-09 7.835324e-10 -4.043220e-09 1.238464e-08 3.553765e-09 -1.748817e-09
8.039302e-09 1.648741e-08 -3.907293e-08 8.461708e-11 -4.737291e-09 5.079798e-10
-8.381623e-09 1.587991e-08 -2.163302e-08 1.148647e-08 3.646953e-09 -3.405107e-09
-1.076489e-08 1.209787e-08 -8.914313e-09 6.093708e-09 2.582452e-10 -7.977743e-10
5.135327e-09 3.327289e-08 -2.578479e-08 -8.751859e-09 -3.516597e-09 8.241746e-09
8.372460e-09 -4.706792e-09 9.011405e-10 1.002057e-09 -1.987111e-11 -2.016511e-10
7.655521e-09 -3.793955e-09 2.258025e-10 -4.246214e-09 2.271319e-10 -3.749989e-10
1.078061e-08 -4.940388e-09 2.444522e-09 -1.646300e-09 -1.289796e-10 1.015312e-10
-6.310356e-09 6.272669e-09 -8.525788e-09 1.158345e-08 2.114872e-09 -8.562608e-10
9.053495e-09 -5.828777e-09 2.444522e-09 2.414057e-10 1.048319e-10 -7.701830e-10
-2.593195e-09 -1.709182e-09 -1.120785e-08 1.619689e-08 3.162256e-09 -1.859586e-09
-8.226988e-09 9.253242e-09 -9.273819e-09 1.063299e-08 3.390869e-09 -1.930049e-09
-8.754357e-09 9.253240e-09 -6.938476e-09 9.969852e-09 3.985125e-09 -2.996779e-09
-6.631853e-08 -4.033132e-08 1.768205e-07 9.643935e-09 1.778114e-08 1.619754e-08
-8.379037e-09 6.582580e-09 -4.313368e-09 -5.574174e-09 -8.169733e-11 -3.997470e-10
-5.580897e-08 2.540260e-08 5.062075e-08 -3.827385e-09 5.046916e-08 5.590795e-09
-1.113503e-09 -9.951311e-10 -9.174669e-09 -1.331329e-08 5.057109e-09 3.238832e-09
-4.991189e-09 4.148135e-09 -5.188397e-09 -9.522772e-09 4.880932e-10 5.195456e-10
-1.363487e-08 2.137779e-08 -1.087342e-08 -3.967217e-09 3.795475e-09 8.244408e-09
-6.794203e-08 -2.040689e-08 1.560918e-07 1.007995e-08 8.813638e-09 2.236069e-08
-7.921107e-08 -4.372073e-08 2.834601e-07 -1.684778e-10 2.298337e-08 3.179314e-08
-8.045471e-08 -2.065129e-08 1.722133e-07 -7.308741e-09 3.058701e-08 -1.930675e-08
-1.591605e-08 -2.240074e-08 1.004145e-07 -1.771890e-08 -4.551857e-09 1.373078e-08
-2.671447e-08 6.477272e-09 3.609535e-08 2.351374e-08 -3.244684e-09 4.459647e-08
-7.120910e-09 4.212852e-08 -2.816485e-08 -7.464579e-09 -2.059880e-09 -3.392107e-09
-2.693625e-08 3.860491e-08 1.248635e-08 1.342568e-08 4.553058e-08 5.861080e-09
-2.849042e-08 2.713006e-08 5.948269e-08 6.524963e-09 -1.021743e-10 -2.396082e-09
-4.324594e-08 3.724117e-08 3.606271e-08 -1.369062e-08 3.028892e-09 3.597496e-09
-3.754956e-08 1.981699e-08 8.732877e-08 -4.666471e-09 2.209722e-09 -4.114559e-09
-3.164428e-08 2.710877e-08 4.301903e-08 8.285667e-09 -1.474989e-09 9.819661e-09
-9.819949e-09 3.406647e-08 -1.938834e-08 6.489689e-09 3.623172e-09 1.222393e-09
-5.536663e-08 5.201379e-09 9.478347e-08 -1.388399e-08 1.524647e-09 -2.172117e-08
-5.287641e-08 4.702028e-09 1.476810e-07 5.062143e-09 3.364230e-08 -1.033046e-09
-2.651103e-08 4.046875e-08 1.583759e-08 -1.088315e-09 1.364690e-08 1.452391e-09
-6.656297e-08 4.675670e-09 8.128915e-08 4.158855e-09 2.868636e-08 1.636812e-08
-5.759208e-08 -2.014925e-08 1.831640e-07 1.300133e-08 5.677075e-09 2.704488e-09
2.562057e-08 -9.313795e-09 -2.324293e-09 1.391507e-09 -9.899036e-11 1.288517e-09
1.155018e-08 -4.625998e-09 2.249388e-08 -1.879965e-08 5.470431e-09 -2.055195e-08
-2.728887e-08 -5.985031e-09 9.379367e-08 -1.619457e-08 2.455855e-09 -1.277313e-08
-3.263576e-08 2.156514e-08 5.213964e-08 -2.450076e-08 1.766870e-08 -5.247230e-09
2.117968e-08 -6.260639e-09 2.332978e-11 7.271783e-09 -1.180847e-10 -1.020616e-09
2.435686e-08 -9.282076e-09 -2.719051e-09 -1.950233e-09 8.618167e-10 5.814599e-10
2.285295e-08 -6.168275e-09 -3.776269e-09 4.478323e-10 -8.518769e-10 -2.550661e-10
-7.032949e-08 -1.237173e-08 1.608643e-07 -1.282220e-08 2.093408e-08 -8.960417e-09
-3.231567e-08 1.962919e-08 4.239912e-08 -2.534286e-08 9.175373e-09 -1.328793e-08
1.456417e-08 -1.927102e-08 -1.775629e-08 1.204425e-10 -9.859427e-09 3.897256e-10
-4.371745e-09 -1.051073e-09 1.011509e-09 -1.674158e-10 1.158468e-10 -2.469822e-10
1.670888e-09 -1.123906e-08 2.849645e-09 -1.390212e-09 -8.681322e-11 1.964601e-10
-4.204790e-09 -7.880274e-10 1.313202e-09 -1.589284e-10 -2.640537e-10 -3.318221e-10
8.839620e-09 -6.436423e-09 -2.491986e-08 -1.300174e-08 6.456053e-09 2.151662e-09
-2.177671e-09 -7.550005e-09 1.765663e-10 3.188479e-09 -4.423549e-10 2.784543e-10
-9.648037e-09 7.495414e-09 -4.569705e-10 -1.059198e-09 -8.004419e-11 1.182408e-10
-2.020482e-09 -5.848629e-09 5.199183e-10 1.300416e-09 -1.338645e-10 -1.014964e-10
-6.800618e-09 6.182379e-10 -7.565524e-09 -1.344940e-08 3.445390e-09 3.302252e-09
-1.387093e-08 3.474817e-08 -1.872214e-08 -6.645008e-09 -4.308870e-09 1.322311e-08
-2.682129e-09 -4.792810e-09 -1.444276e-10 2.228656e-09 1.904821e-10 -1.389790e-10
1.045147e-08 -4.636617e-09 3.930224e-09 -5.655797e-09 7.069756e-10 -3.854213e-09
-4.055064e-09 -1.226769e-09 9.425261e-10 3.139025e-10 -1.936428e-10 -2.815675e-10
-4.264775e-09 -1.404376e-09 1.249458e-09 7.537049e-10 -1.461348e-10 -1.726543e-10
1.580478e-08 -1.974511e-08 -2.297126e-08 -2.462315e-09 5.575608e-09 6.560785e-11
-7.324185e-09 8.574004e-09 -4.365531e-09 -6.531713e-10 -4.967018e-10 -3.620721e-10
-8.596053e-09 6.928238e-09 -2.553084e-09 -1.194672e-09 -5.392433e-10 1.288438e-18
1.164030e-08 -2.096247e-08 -1.033819e-08 -4.799355e-09 2.779040e-09 6.892974e-11
1.362846e-08 -1.609021e-08 -1.758918e-08 -9.278647e-09 8.190088e-09 2.092771e-09
1.394886e-09 1.295705e-08 -8.031533e-09 7.142319e-09 -3.751387e-09 -5.697289e-09
1.308947e-08 1.351114e-09 -4.255079e-09 2.631814e-09 -1.730412e-09 1.203420e-10
1.685304e-08 -1.430317e-08 -1.888936e-08 -6.457883e-09 9.457901e-09 2.450529e-09
8.466650e-10 1.711453e-11 -3.548157e-10 -7.069976e-10 -1.815615e-10 6.850009e-11
1.040644e-09 7.897771e-11 -3.047855e-10 -3.998624e-10 -1.785379e-10 -2.332514e-10
9.595542e-10 6.693401e-11 -2.999867e-10 -3.495790e-10 -1.221856e-10 -2.825362e-10
3.494627e-10 2.079092e-10 -2.729230e-10 -8.750138e-10 -1.358977e-10 -1.301244e-10
2.671078e-08 -4.574475e-09 -4.306283e-09 1.344137e-09 1.158456e-09 2.651582e-09
5.753884e-09 6.919332e-09 -6.314606e-09 4.433655e-09 -6.521929e-10 -1.560249e-09
1.263893e-09 -3.029887e-10 -3.980718e-10 -1.746934e-09 -7.970757e-11 1.084319e-10
-3.308442e-09 -7.889413e-09 3.467980e-09 2.557938e-10 -7.888368e-11 8.925749e-11
8.166134e-10 -2.218714e-11 -3.241118e-10 -1.600443e-09 -6.810667e-11 5.833634e-11
-3.845226e-09 -7.450240e-09 3.479351e-09 3.978198e-10 -5.811104e-11 8.172574e-11
-1.870513e-10 7.542926e-10 -2.097038e-10 -1.771880e-09 -1.547802e-10 -9.878520e-11
-1.635964e-09 -1.040782e-08 3.259268e-09 2.416928e-09 2.792173e-10 1.103654e-10
-3.321713e-09 -8.276965e-09 3.740364e-09 0.000000e+00 1.534888e-10 -8.142464e-11
-8.309549e-09 5.769230e-09 -1.352687e-09 -5.468868e-10 -2.724068e-09 -7.787602e-10
-8.463723e-09 5.182835e-09 -2.167746e-10 -1.859751e-09 -3.139475e-09 -1.461002e-09
-8.752869e-09 3.347384e-09 3.578555e-10 -3.117573e-09 -2.865744e-09 -1.053610e-09
-8.491501e-09 1.581659e-10 1.033880e-09 -3.973639e-10 -4.355001e-10 3.684186e-11
-6.465753e-09 -2.637788e-09 4.821281e-10 -3.703840e-09 -3.228505e-09 -8.549924e-10
-8.543904e-09 1.515144e-10 -1.354109e-09 -7.973116e-09 -6.813540e-09 -3.407542e-09
-8.784295e-09 1.740439e-09 9.113748e-10 -7.813408e-09 -3.290332e-09 -2.368812e-09
2.389388e-08 -3.328761e-09 -6.176182e-09 6.196213e-09 6.751129e-10 -1.557168e-10
-8.078591e-09 -1.229785e-09 -1.141390e-10 -7.225701e-09 -5.349187e-09 -2.535995e-09
-7.398031e-09 6.445824e-09 -4.750816e-09 -4.363297e-09 -4.687023e-09 -3.314081e-09
-7.837228e-09 6.775559e-09 -1.374988e-09 -4.192971e-10 -3.715682e-09 -6.494669e-10
-7.596943e-09 6.857634e-10 -4.730247e-09 -7.082119e-09 -6.142162e-09 -3.237647e-09
-8.920207e-09 1.393785e-09 7.936105e-10 0.000000e+00 -1.976916e-10 -1.208269e-10
-6.763168e-09 2.561395e-09 -2.686688e-09 -4.685746e-09 -4.174918e-09 -1.951208e-09
-9.031677e-09 3.765876e-09 -4.930030e-10 -4.756142e-10 -1.625642e-09 -5.135181e-11
-7.388651e-09 1.991557e-09 5.763059e-10 -5.601549e-09 -3.629947e-09 -1.498059e-09
3.517453e-10 -1.138198e-08 1.100724e-09 -1.228241e-09 3.968959e-10 -4.088836e-10
-2.881384e-10 -1.210233e-08 -1.629854e-09 -2.546852e-09 -1.517599e-09 -3.237681e-10
6.115606e-10 -1.315782e-08 3.753460e-09 1.867820e-09 -4.287792e-12 1.726967e-10
-1.855359e-09 -1.009530e-08 3.585937e-09 4.097327e-10 2.468914e-11 1.383582e-11
-2.993751e-09 -8.868286e-09 3.777047e-09 2.674199e-10 1.627412e-10 -1.072409e-11
-9.749055e-10 -1.153076e-08 3.797256e-09 2.876943e-10 1.531131e-11 9.483281e-11
1.008993e-08 -1.108690e-08 -1.208246e-08 4.252634e-09 -4.614602e-09 1.426898e-09
-4.036114e-10 -1.168203e-08 3.679502e-09 3.976233e-10 1.144040e-11 2.900968e-11
2.636155e-09 -1.499199e-08 3.596059e-09 2.422588e-09 1.223643e-10 2.592233e-10
1.291100e-08 -2.322113e-08 -4.125915e-09 -1.637778e-10 -3.169003e-09 3.907035e-10
2.380361e-09 -1.078975e-08 -4.253893e-09 -4.174901e-09 -2.663744e-09 -8.972960e-10
-2.657242e-09 -3.190897e-09 1.953733e-09 -1.075190e-09 -1.615594e-10 -3.603553e-10
3.477622e-09 -1.603610e-08 2.282890e-09 -3.421316e-09 1.175600e-09 -2.287597e-10
2.747782e-09 -1.257201e-08 2.906841e-09 -1.102321e-09 -4.677969e-11 -5.032623e-10
-2.884888e-09 -5.170993e-09 1.224972e-09 -6.147965e-09 4.492542e-10 2.342722e-10
5.900964e-09 -7.647002e-10 5.584013e-10 -7.708585e-09 1.277048e-10 -3.551270e-10
-5.287912e-10 1.000172e-09 -1.581573e-10 -8.393841e-11 -1.750117e-10 -1.550227e-11
2.444605e-10 7.185301e-10 -2.478715e-10 -2.104077e-09 -1.073945e-10 4.711409e-11
5.629467e-09 -3.035676e-09 -7.773302e-10 -1.865846e-10 -5.731970e-12 4.875600e-11
5.018496e-09 -2.868503e-09 -6.866101e-10 -1.262090e-10 4.618972e-12 1.710720e-11
5.441141e-09 -2.892768e-09 -7.525993e-10 -3.235714e-10 -6.435386e-11 1.187179e-10
-4.784281e-09 1.831688e-09 2.154334e-10 -6.648977e-10 -5.464486e-10 -2.027345e-10
-4.874343e-09 1.958762e-09 4.568923e-10 -1.009775e-09 -1.494449e-10 1.179060e-10
-3.521172e-09 1.805834e-09 5.273755e-10 1.982086e-10 -2.917733e-11 -5.369394e-11
-3.587980e-09 1.839392e-09 5.506540e-10 1.411182e-10 2.224559e-11 -4.690631e-11
-4.975862e-09 1.657792e-09 1.033896e-09 -2.759184e-10 -1.771188e-10 -3.304464e-10
-3.737183e-09 2.050148e-09 4.900840e-10 8.412382e-11 8.171064e-11 -4.463796e-11
-3.959316e-09 2.166415e-09 5.508598e-10 4.601208e-12 2.277067e-12 4.555800e-12
-3.372952e-09 1.897272e-09 4.765832e-10 1.179679e-10 3.136491e-11 3.751555e-11
-3.597748e-09 2.047252e-09 4.575422e-10 1.102032e-10 6.772165e-11 -3.315903e-11
-4.680228e-09 1.851252e-09 7.338388e-10 -6.668275e-10 -4.527493e-13 1.330418e-10
-4.907748e-09 1.043991e-09 8.156893e-10 -4.321929e-10 -3.124434e-11 1.008633e-10
-4.708234e-09 2.366917e-09 6.741194e-10 -1.193628e-09 -6.445810e-11 -2.690734e-10
-4.737346e-09 1.742022e-09 3.629295e-10 -8.671400e-10 -9.219735e-12 -1.084631e-10
-4.668232e-09 2.204423e-09 5.346528e-10 -1.211028e-09 -3.057751e-10 -1.991801e-10
-3.416099e-09 1.842432e-09 4.385354e-10 3.019931e-10 4.509193e-11 1.788242e-11
-2.351088e-09 1.412213e-09 2.898028e-10 2.818652e-10 -3.274714e-12 8.574474e-12
-2.618183e-09 1.448875e-09 4.134328e-10 5.852097e-10 7.700018e-11 -1.493502e-10
5.433467e-09 -3.031844e-09 -7.589644e-10 1.979825e-11 -1.471221e-11 1.762368e-11
6.373698e-09 -1.965791e-08 3.896972e-09 6.625965e-10 -5.057176e-11 1.169493e-10
4.908712e-09 -2.680034e-09 -6.610317e-10 3.528316e-10 5.581702e-11 -7.468648e-11
6.743075e-09 -1.951638e-08 3.709761e-09 8.367829e-11 1.356320e-10 -1.519207e-10
4.269470e-09 -2.364410e-09 -6.273824e-10 5.801886e-10 7.399142e-11 -1.020106e-10
-2.317245e-09 -3.976817e-09 -2.021546e-09 3.239225e-09 -3.769631e-10 2.873794e-10
1.456417e-08 -2.083991e-08 -9.796966e-09 1.384266e-10 -1.085767e-08 9.275465e-10
5.502621e-09 -1.829931e-08 2.296664e-09 4.142892e-10 -7.543086e-10 2.793114e-10
4.356439e-09 -2.098665e-09 -5.796994e-10 5.661656e-10 7.434287e-11 8.155510e-11
4.199807e-09 -2.288890e-09 -6.094754e-10 2.121556e-10 3.571243e-11 8.489698e-11
4.178472e-09 -2.075107e-09 -5.147580e-10 5.645366e-10 5.980993e-12 -8.060741e-11
4.451497e-09 -2.391588e-09 -6.273595e-10 7.725576e-11 6.919154e-11 -1.176836e-13
8.394227e-09 -2.231240e-08 2.322750e-09 5.151093e-10 -6.893697e-10 5.112064e-10
3.353863e-09 -1.770334e-09 -4.796865e-10 6.670608e-11 -4.394574e-11 -1.830980e-12
2.993695e-09 -1.573453e-09 -4.954654e-10 6.172922e-10 8.937517e-11 -8.042607e-11
1.773092e-09 -1.241418e-08 1.013704e-09 3.590713e-10 -1.399580e-10 -2.559451e-10
-1.232429e-09 -6.913437e-09 1.368516e-09 3.179673e-09 -1.508518e-09 4.741711e-10
2.524594e-09 -1.433090e-08 1.748261e-09 1.377887e-09 -1.390551e-09 4.970107e-10
2.822899e-09 -1.256432e-09 -4.538165e-10 9.685581e-10 2.198730e-10 1.463788e-10
3.299396e-09 -1.723132e-09 -3.957701e-10 1.190706e-09 1.084409e-10 -3.069414e-10
5.871695e-09 -1.667446e-08 -1.554893e-09 4.509826e-09 -4.193199e-09 1.859596e-09
1.696373e-09 -1.199149e-08 2.140165e-09 2.551454e-09 -2.050167e-09 -6.185728e-11
3.947286e-09 -2.020748e-09 -4.883254e-10 5.429581e-10 9.641102e-11 8.572620e-11
3.182122e-09 -1.714845e-09 -4.526810e-10 1.206014e-09 1.182194e-10 -1.890577e-10
3.600179e-09 -1.901224e-09 -4.859149e-10 1.647345e-09 8.983467e-11 -2.977796e-11
4.633083e-09 -2.422149e-09 -6.282250e-10 9.009601e-10 9.156009e-11 4.426082e-11
4.102059e-09 -2.042052e-09 -4.664997e-10 1.088449e-09 -1.681112e-11 -1.846168e-11
-1.565453e-09 9.798331e-10 1.924718e-10 8.155370e-10 1.027898e-10 2.923384e-11
-1.499405e-09 9.925580e-10 1.449232e-10 2.844658e-11 1.137883e-10 -1.057954e-11
-8.169390e-09 -9.454340e-10 3.583804e-10 1.002804e-08 4.109054e-09 -1.770772e-09
-4.116032e-10 5.527578e-10 2.546408e-12 8.504537e-10 9.940093e-11 -8.038437e-11
-1.031722e-09 6.968186e-10 8.182566e-11 3.593374e-10 1.105632e-10 -4.089884e-11
-4.898078e-09 1.212759e-08 2.953794e-08 -2.322169e-08 3.056846e-09 -1.303942e-09
-1.227143e-09 7.998295e-10 1.148255e-10 2.437011e-10 3.366196e-11 1.195166e-10
-4.430008e-09 7.615185e-09 -9.285674e-09 -4.871244e-10 -1.052026e-09 1.473549e-09
-3.044077e-09 9.028618e-10 -6.335479e-09 4.058019e-09 -2.293803e-09 2.442765e-09
-4.025647e-09 -1.557240e-09 1.548904e-09 1.793239e-09 -6.983614e-10 9.111190e-11
2.265803e-08 -6.701701e-09 -1.297657e-09 8.625233e-09 9.469223e-10 3.114077e-09
-4.305027e-09 -1.667146e-09 -8.085674e-10 1.900452e-09 -3.501999e-10 2.889025e-10
2.668263e-08 -1.142173e-08 7.345879e-09 9.751584e-09 2.810248e-09 5.238647e-09
-3.080601e-10 -8.868054e-09 -1.467731e-09 3.921462e-09 -2.075725e-09 8.481136e-10
2.139084e-08 -6.260639e-09 4.650129e-10 9.048855e-09 -7.826386e-10 -5.915757e-10
-4.730392e-09 -1.362936e-10 1.108807e-09 6.000414e-10 -7.877941e-10 -2.108991e-10
6.629339e-10 -1.050787e-08 1.344021e-09 9.146881e-10 -1.220708e-09 2.841821e-11
6.550382e-10 -7.705927e-09 -8.577561e-10 1.860710e-09 -8.524748e-10 1.723193e-10
7.063163e-10 -1.169486e-08 1.049105e-09 2.025296e-09 7.337788e-10 1.238179e-10
1.696294e-09 -1.340945e-08 1.558565e-09 2.798958e-09 -2.992670e-09 1.466451e-10
-4.240255e-09 -2.286367e-09 -4.285949e-10 2.328216e-09 -8.208977e-10 2.299245e-10
-4.912189e-09 1.883853e-09 2.803349e-10 -7.589857e-10 -4.093779e-10 3.307525e-10
-2.969847e-09 -4.966390e-09 1.546217e-09 7.587774e-10 -5.822640e-10 -1.006213e-10
1.292443e-10 -9.493497e-09 -6.826876e-09 -8.091219e-09 -4.621623e-09 -2.149073e-09
-2.198121e-09 -5.858051e-09 3.596972e-10 1.457967e-09 -4.098448e-10 1.011884e-10
-5.832418e-10 1.891599e-08 -3.122252e-08 -3.934495e-09 -7.209300e-09 -3.474430e-09
8.405622e-09 -1.740390e-08 -5.492044e-09 -2.899282e-09 -8.673577e-10 -1.474261e-10
-3.212195e-10 -9.586568e-09 2.118789e-09 -7.705001e-10 -1.698641e-10 -7.582981e-10
-1.088530e-09 -9.305397e-09 1.379909e-09 4.008665e-09 -1.640348e-09 6.095579e-10
4.413535e-09 -1.466730e-08 -1.983748e-09 2.931117e-09 -4.957136e-09 1.066593e-09
7.143271e-09 -3.026311e-09 4.705707e-10 -5.616284e-09 4.375687e-10 -1.091160e-09
-1.087403e-08 7.994404e-09 -1.623212e-09 7.297608e-09 5.453613e-09 -3.366775e-09
6.026826e-09 -1.406563e-08 -4.572956e-09 4.813079e-09 -1.715234e-09 4.619272e-10
-1.905231e-09 -8.022809e-09 -2.163977e-09 5.769281e-09 -4.120534e-09 1.810403e-09
-9.966671e-09 1.937445e-09 -2.852039e-10 9.818223e-09 5.004020e-09 -1.904177e-09
5.745053e-09 -1.660168e-08 -1.832593e-09 3.273393e-10 -1.436139e-09 2.526311e-10
1.243250e-09 -5.788583e-09 -1.117810e-08 1.462555e-08 3.584538e-09 -1.125722e-09
-7.953001e-09 7.529870e-10 -4.169296e-10 4.250027e-09 -9.444019e-10 3.195439e-10
-1.685667e-09 -5.682646e-09 -1.600798e-09 1.036117e-08 6.882628e-10 -1.081522e-10
-2.245349e-10 -5.792723e-09 -1.189320e-09 1.858437e-09 -6.531558e-10 1.733959e-10
-4.786232e-09 2.209164e-09 2.979685e-10 -1.478642e-09 -1.426561e-10 -2.296764e-10
-4.863098e-09 1.279489e-09 4.568923e-10 -3.864953e-10 -4.574230e-11 1.188369e-10
-4.912190e-09 2.313037e-09 -5.433076e-11 -1.453951e-09 -5.197469e-10 -1.297094e-10
-2.762816e-09 -4.742521e-09 1.030303e-09 2.647119e-09 -2.218782e-09 -1.519925e-10
7.176880e-09 -3.085230e-09 4.730487e-10 -5.517795e-09 1.000993e-10 9.237356e-11
-4.208338e-09 2.032983e-09 1.874279e-10 -1.541326e-09 -4.620346e-10 5.138779e-12
-4.731554e-09 1.684754e-09 5.671730e-10 -1.202006e-09 -2.454863e-10 -2.123226e-10
-2.870445e-09 -5.144077e-09 -6.969971e-10 3.823390e-09 -2.849666e-09 1.633451e-09
-2.799138e-10 -5.068614e-09 -2.021545e-09 2.784917e-09 -1.774527e-10 8.549739e-11
5.040873e-09 -2.812881e-09 -6.822800e-10 -5.630463e-11 -8.553791e-11 2.687151e-11
-9.366642e-10 -2.834160e-09 -3.621048e-09 4.076330e-09 -1.232352e-09 4.616551e-10
-4.215742e-09 2.423188e-09 4.956844e-10 -1.311254e-09 -9.040135e-11 -1.694498e-10
-4.223770e-09 2.053884e-09 6.612035e-10 -1.180236e-09 -2.721613e-10 -4.344193e-10
-6.660383e-10 1.083643e-09 -1.438190e-10 -1.583946e-09 -9.825474e-12 -9.124257e-12
-3.165038e-09 2.572147e-09 2.046772e-10 -1.786393e-11 1.032996e-11 -3.675709e-22
-4.910684e-09 1.814428e-09 8.273535e-10 -2.412735e-12 1.004827e-10 -3.250431e-10
-4.464312e-09 2.329564e-09 6.446519e-10 -2.795388e-10 -5.740830e-11 -7.704148e-11
-4.616974e-09 2.018373e-09 5.993428e-10 -9.738795e-10 4.122480e-11 -2.129268e-10
-4.632554e-09 2.225720e-09 6.501661e-10 -1.385265e-10 4.756906e-11 -1.686562e-10
-2.689007e-09 9.333295e-09 -1.869188e-08 -6.944021e-09 -2.362032e-09 -8.243081e-10
-3.951195e-09 8.811683e-09 -1.814537e-08 -6.097021e-09 -2.267173e-09 -1.230950e-09
-3.243422e-09 2.365327e-09 2.540794e-10 -9.002310e-10 3.834533e-11 4.093104e-11
-3.016218e-09 2.553292e-09 1.536629e-10 -6.696128e-11 -5.728785e-11 -3.402967e-11
-5.357519e-09 1.206441e-08 -1.580308e-08 -4.017911e-09 -3.022188e-09 -2.020965e-09
-3.337762e-09 2.681700e-09 2.153047e-10 -2.365230e-11 -2.712552e-11 -1.185985e-11
-5.763345e-09 1.157171e-08 -1.266699e-08 -4.480914e-09 -5.339262e-09 -5.644659e-09
-6.407923e-09 8.352623e-09 -7.678664e-09 -4.322689e-09 -2.417133e-09 -1.395809e-09
-4.888099e-09 1.244759e-08 -9.256829e-09 -1.238104e-09 -2.754567e-09 -2.926549e-09
5.824711e-09 -1.790535e-08 3.239649e-09 -8.965667e-10 1.396847e-10 -1.874381e-10
6.269050e-09 -1.875179e-08 3.625408e-09 -5.523318e-10 7.860913e-11 -3.048279e-10
3.532427e-09 -1.398098e-08 3.120641e-09 -1.714896e-10 6.512790e-11 -8.218437e-10
1.691718e-09 -1.044292e-08 2.709950e-09 -2.550281e-09 1.155177e-11 -4.552211e-10
4.930571e-09 -1.660403e-08 3.017790e-09 -2.302636e-09 4.755651e-10 -2.616155e-10
-2.647616e-09 -4.241006e-09 1.533923e-09 -4.253585e-09 1.646177e-10 7.243422e-11
-3.614479e-09 -1.625762e-09 1.499565e-09 -2.944137e-09 8.498668e-11 -2.050446e-10
-3.085659e-09 -2.415189e-09 1.496252e-09 -2.510479e-09 6.443572e-10 3.674927e-11
-6.650893e-10 9.516219e-10 -1.607336e-10 -6.617462e-11 -1.941407e-10 5.500045e-13
4.723960e-09 -2.204641e-09 -7.088072e-10 -8.065499e-10 -1.609474e-11 1.713820e-10
3.941260e-09 -2.212138e-09 -6.252741e-10 -5.347900e-11 -1.595901e-11 1.309619e-11
-2.478295e-09 -3.347326e-09 1.805002e-09 -2.603911e-09 1.661151e-10 8.334342e-11
5.326993e-09 -2.837196e-09 -7.309531e-10 -1.365498e-09 -1.519940e-11 1.342182e-10
3.375546e-09 -1.407924e-09 -5.928376e-10 -8.485225e-10 -7.767709e-11 -1.435307e-11
4.638604e-09 -2.557152e-09 -7.080551e-10 -9.484480e-10 -3.676670e-12 -4.232281e-11
4.910760e-09 -2.542221e-09 -7.291834e-10 -9.813239e-11 -8.078693e-11 3.836931e-12
-2.478295e-09 -4.419931e-09 1.978440e-09 -2.794456e-09 -1.636815e-10 -7.169766e-11
-3.707388e-09 -7.576810e-10 1.454122e-09 -1.275856e-09 5.012002e-10 1.021027e-11
4.838274e-09 -2.083551e-09 -6.347918e-10 -2.068311e-09 -1.305949e-10 8.881396e-11
4.195300e-09 -2.192152e-09 -6.137929e-10 -1.732865e-10 -1.059857e-10 -3.647493e-11
-3.833520e-09 3.725296e-10 1.293314e-09 -3.186667e-10 3.771601e-10 6.256062e-11
4.208856e-09 -2.227579e-09 -6.387224e-10 -6.977652e-10 3.086909e-11 -6.287804e-11
-3.374629e-09 -1.341458e-09 1.635599e-09 -1.461753e-09 5.627765e-11 1.093072e-10
-3.374628e-09 -2.235772e-09 1.737160e-09 -1.708912e-09 -2.257829e-10 -8.272436e-11
-5.366034e-09 -5.056204e-09 2.431185e-09 3.670331e-09 4.620957e-10 -4.352574e-11
-7.236946e-10 -8.119671e-09 1.608451e-09 -5.705165e-09 4.531264e-11 1.622651e-10
-4.230269e-09 2.534579e-09 5.037211e-10 -4.464933e-10 -5.870948e-11 -2.614289e-10
-5.836839e-09 -4.448882e-09 2.925319e-09 1.405078e-09 -6.085954e-11 -2.833808e-10
-4.482318e-09 -5.074327e-09 2.707137e-09 2.620997e-09 8.236023e-10 -3.131683e-10
-6.607178e-09 -1.303733e-09 1.655185e-09 4.851388e-09 1.775830e-09 -4.653339e-10
-6.042473e-09 -3.928255e-09 2.322802e-09 5.108759e-09 1.204534e-09 -1.592851e-10
-5.764702e-09 -3.908862e-09 2.696589e-09 2.785154e-09 2.780076e-10 -8.369950e-11
-3.019687e-09 2.244041e-09 2.582383e-10 -1.077880e-09 -1.784264e-10 -5.479472e-11
-3.014577e-09 -8.704344e-09 2.750034e-09 5.404837e-09 8.148267e-10 -8.693824e-11
-3.963346e-09 -9.032602e-09 2.532501e-09 5.856449e-09 7.860581e-10 -3.743178e-10
-5.032950e-09 -3.843647e-09 1.783434e-09 6.189916e-09 2.952165e-10 3.783969e-10
-4.387368e-09 2.494769e-09 6.356613e-10 -3.572480e-10 -3.190781e-11 -2.164457e-10
-3.741894e-09 2.578229e-09 3.921117e-10 -3.817542e-10 -4.813794e-11 -2.369729e-10
-4.587852e-09 2.310646e-09 6.622152e-10 -1.484293e-10 4.211898e-11 -2.551639e-10
-4.399603e-09 2.420339e-09 4.749823e-10 -5.822955e-10 -1.276533e-10 -3.903822e-10
-4.235244e-09 1.876998e-09 6.519998e-10 -3.287774e-10 -4.361945e-10 -5.148498e-10
-4.074728e-09 -3.832294e-09 9.008847e-10 5.883619e-09 7.385959e-11 1.878690e-10
5.891294e-10 -9.155977e-09 2.502087e-09 -1.759749e-09 1.516420e-10 -1.463480e-10
-2.647615e-09 -5.106948e-09 1.805002e-09 -4.278860e-09 3.571401e-10 9.326983e-11
4.408711e-09 -1.594717e-08 2.394489e-09 -3.576367e-09 7.404332e-10 -3.113035e-11
7.266800e-09 -1.771671e-08 -1.640633e-09 4.708237e-10 1.172842e-19 1.245522e-10
3.733966e-09 -1.362690e-08 3.045665e-09 -3.283506e-09 7.389390e-11 -2.124182e-10
1.049356e-09 -1.026256e-08 2.531635e-09 -2.549825e-09 2.770570e-10 -4.402458e-10
-3.288321e-09 2.688997e-09 2.476805e-10 -2.974212e-10 -6.124568e-11 -5.916412e-11
2.400111e-09 -1.189103e-08 2.781826e-09 -3.365460e-10 1.787296e-10 -3.569695e-10
3.499063e-09 -1.336305e-08 2.834007e-09 -2.923537e-09 3.538177e-10 -2.974621e-11
-3.806598e-09 2.747525e-09 3.214662e-10 -1.097904e-10 -2.044431e-11 -1.453659e-10
2.847070e-09 -1.246635e-08 2.794006e-09 -8.534601e-10 -1.368430e-10 -2.295795e-10
-3.941344e-09 2.159006e-09 5.104992e-10 -1.206488e-09 -1.182746e-10 -4.592282e-11
-3.945446e-09 2.680573e-09 3.865863e-10 -2.735745e-10 -1.163980e-11 -2.245497e-11
-4.116741e-10 -1.200046e-08 3.849110e-09 5.285598e-10 -2.585199e-10 2.396240e-10
-4.685949e-09 2.264649e-09 7.156133e-10 -4.207195e-10 -1.825406e-11 -8.176371e-11
-4.326447e-09 2.411227e-09 5.276637e-10 -1.096807e-10 5.789036e-12 -3.225606e-10
-2.471271e-09 -9.850107e-09 3.649969e-09 1.116707e-09 2.769418e-10 -5.978995e-12
4.042501e-09 -1.730087e-08 2.210758e-09 -7.820864e-10 -7.842271e-10 -5.723770e-10
-1.342343e-09 -1.086833e-08 3.796317e-09 6.065011e-10 2.242977e-10 8.781642e-12
-1.120631e-09 -1.187209e-08 3.750904e-09 7.937844e-10 -9.917250e-11 2.393796e-10
-1.982855e-09 -9.857793e-09 3.337328e-09 2.693275e-09 3.460670e-10 -1.399252e-10
-1.466728e-09 -1.113843e-08 3.665993e-09 2.000936e-09 -1.853169e-10 3.556695e-10
-1.094401e-09 -1.106435e-08 3.726684e-09 1.187418e-09 1.211744e-10 2.285864e-10
1.264118e-08 -1.674463e-08 -1.914689e-08 -5.749774e-09 -1.258645e-08 -1.050993e-09
5.486085e-10 -8.912760e-09 -6.727507e-12 1.577869e-10 4.441491e-16 1.897097e-10
-8.334253e-09 1.147670e-09 -3.390308e-10 -2.131351e-09 -1.038801e-09 -6.204288e-10
6.761793e-10 -1.083950e-08 6.727743e-10 1.317017e-09 -1.867897e-09 -1.694626e-10
-8.817738e-09 2.730411e-09 5.336838e-10 -2.249904e-09 -2.372320e-09 -7.036176e-10
-4.571330e-09 -6.115426e-09 1.738512e-09 7.149331e-09 1.217586e-09 -2.761931e-10
-1.884416e-09 -1.005267e-08 3.789811e-09 3.973497e-10 2.089928e-11 -1.237013e-10
-1.337664e-09 -1.024366e-08 3.751357e-09 1.321005e-09 1.463419e-10 1.089847e-10
-2.289477e-09 -1.054604e-08 2.855940e-09 5.004159e-09 5.611212e-11 1.010161e-10
1.977245e-10 -1.251194e-08 1.538404e-09 6.858018e-09 1.352101e-09 -6.093219e-10
-8.315633e-09 5.875840e-09 -2.064388e-09 -5.158101e-10 -2.421122e-09 -5.361298e-10
-8.281809e-09 3.041595e-09 -9.905561e-10 -3.585556e-09 -3.384268e-09 -1.614495e-09
-1.504213e-11 -1.014580e-08 8.322543e-10 8.247567e-09 7.645098e-10 2.195755e-11
-3.896397e-09 -6.905760e-09 2.801747e-09 2.938899e-09 3.360856e-10 -2.192913e-10
1.616275e-09 -1.410180e-08 6.337375e-10 7.956260e-09 1.121089e-09 -5.442305e-10
-1.814175e-09 -9.032602e-09 2.033439e-09 6.274701e-09 5.582510e-10 -1.386062e-10
2.429270e-10 -1.218510e-08 2.929864e-09 4.081741e-09 7.498104e-10 2.169870e-10
-1.984724e-09 -1.058205e-08 3.680675e-09 2.424933e-09 -7.227374e-11 3.694406e-10
-2.160927e-09 -9.302736e-09 3.512490e-09 5.111040e-10 -9.387824e-11 1.690978e-10
7.117237e-10 -3.375234e-09 -7.741107e-09 5.630074e-09 -3.136335e-09 2.004842e-09
1.222926e-08 3.669998e-09 -3.628346e-08 4.523772e-10 -5.918001e-09 2.044999e-09
-5.873048e-09 7.826390e-09 -5.056281e-09 -4.389603e-09 -1.961696e-09 2.803177e-09
1.323559e-08 -3.016231e-08 6.404917e-10 6.465750e-10 -9.811369e-09 9.380504e-10
1.007022e-08 -4.133383e-09 -2.312425e-08 -8.049779e-09 -1.139410e-08 -2.891206e-09
1.003973e-08 -7.598143e-09 -1.610716e-08 4.560780e-09 -7.847266e-09 2.291660e-09
1.810019e-09 1.333872e-09 -1.719393e-08 5.804947e-09 -2.878050e-09 2.261148e-09
-3.977127e-09 -9.515051e-10 -3.088747e-09 2.826662e-09 -2.062239e-09 6.316194e-10
5.335519e-09 -1.411153e-08 -2.369540e-09 2.273414e-09 -4.315304e-10 2.124945e-10
-9.089344e-09 2.506654e-09 -7.361001e-11 -4.862990e-10 -6.373315e-10 -2.251257e-10
-1.488972e-09 2.203011e-10 -1.013432e-08 5.191762e-09 -4.567850e-09 2.615638e-09
-1.336628e-09 -5.664489e-09 1.194923e-09 4.018823e-09 -2.156787e-09 3.549840e-10
7.466047e-09 -3.415311e-09 -4.875735e-10 7.811180e-10 9.235909e-11 -1.439626e-10
7.140113e-09 -3.917930e-09 4.070397e-10 1.645318e-09 -1.394533e-10 -5.838461e-10
-8.863662e-09 6.507843e-09 -1.934492e-09 -2.042886e-09 -2.132872e-09 -2.689381e-10
2.553397e-08 -5.574890e-09 -2.862678e-09 5.334368e-09 2.754845e-10 5.671682e-10
7.462842e-09 -3.921215e-09 2.311644e-10 1.625641e-09 2.025492e-10 -4.292311e-11
2.458635e-08 -8.987213e-09 -3.459552e-09 1.585800e-09 2.840577e-10 3.390370e-11
7.823005e-09 -3.663833e-09 2.894509e-09 3.790857e-09 -5.825683e-12 -7.719458e-10
8.710919e-09 -3.924176e-09 -2.394884e-10 4.144442e-10 6.875154e-12 -4.696619e-10
2.453720e-09 -4.945139e-10 1.055799e-09 4.331952e-09 2.589085e-10 1.013598e-10
8.969056e-09 -4.125826e-09 1.394654e-09 3.244817e-09 1.951022e-10 -9.157781e-10
2.720371e-08 -9.780332e-09 -2.749027e-09 -1.268265e-10 3.021156e-10 1.091468e-09
8.810547e-09 -4.674363e-09 5.342341e-09 4.089379e-09 1.663677e-11 -9.693497e-10
2.575326e-08 -7.651575e-09 -4.271843e-09 -1.037007e-09 1.933770e-10 5.711708e-10
2.672602e-08 -3.286791e-08 5.509049e-08 -3.515660e-09 -2.702903e-09 3.193244e-08
2.723538e-08 -8.625349e-09 -3.771987e-09 1.743138e-10 4.029048e-10 1.337599e-09
3.302718e-08 -1.287092e-08 7.256350e-09 2.566100e-09 3.015849e-09 9.907643e-09
5.425339e-09 6.298763e-09 -5.772790e-09 3.905115e-09 -4.103044e-09 -4.634504e-09
2.699612e-08 -5.075289e-09 -3.974138e-09 6.065658e-09 1.259927e-09 2.578663e-09
3.684564e-08 -2.005664e-08 5.607103e-08 9.584032e-09 6.016073e-09 3.682004e-08
3.210201e-08 -6.215436e-09 -4.681897e-09 7.184257e-09 1.457266e-09 6.246906e-09
3.752896e-08 -1.283602e-08 -5.870899e-10 1.190188e-09 1.114230e-09 1.041823e-08
2.382562e-08 -5.361475e-09 -6.041899e-09 4.329798e-09 -5.230218e-10 -7.982008e-11
-6.675452e-10 9.171677e-10 -5.549352e-09 -1.029937e-08 2.305044e-09 1.284822e-09
3.721969e-09 2.032461e-08 -1.201675e-08 1.845577e-08 2.824126e-09 -2.343685e-09
1.086363e-09 9.221313e-09 -6.977300e-09 6.002889e-09 -6.177635e-11 1.014513e-09
2.803322e-10 2.455059e-08 -1.186883e-08 1.315057e-08 -2.501809e-09 -1.947099e-09
7.306762e-09 1.753315e-08 3.750635e-09 2.733711e-08 1.457011e-08 4.768462e-09
2.203321e-08 -1.500434e-08 1.862838e-08 -9.401815e-09 -3.761236e-10 1.037615e-08
-4.747479e-09 -2.497571e-09 -2.314047e-09 -9.656238e-09 6.021432e-10 7.241036e-10
-5.179867e-10 -3.863597e-09 -1.126036e-08 -1.334683e-08 2.573927e-09 1.898567e-09
-2.247683e-08 5.741168e-08 1.605030e-08 -1.050931e-08 -1.871466e-08 9.424552e-09
-1.444183e-08 4.031134e-08 -8.490308e-09 -1.138492e-08 2.863086e-09 -1.662719e-09
1.637566e-08 3.417525e-08 -7.932789e-08 4.543765e-09 3.829013e-08 -3.310460e-09
-9.788693e-09 -2.091596e-09 6.515996e-08 -3.338749e-08 -2.083526e-08 2.523257e-08
-3.467839e-08 3.769885e-08 4.584102e-08 -1.577669e-08 -1.799910e-08 1.517050e-09
-2.584918e-08 5.281585e-08 -1.983453e-08 -2.560342e-09 -4.328512e-09 -2.529749e-08
-8.905083e-10 -5.820032e-09 -1.277130e-09 -7.931724e-09 -1.900811e-10 -8.797820e-11
-1.820532e-09 -7.320096e-09 1.937344e-10 -8.815881e-09 1.871705e-09 4.425809e-10
-6.465428e-10 -6.131752e-09 -7.627285e-09 -1.280334e-08 9.584324e-10 4.033708e-10
-1.372607e-09 3.192827e-09 -7.494186e-10 -6.748789e-09 -6.913692e-11 1.094282e-10
1.621908e-09 -8.839701e-09 -2.953217e-09 -9.788486e-09 -2.727021e-10 -1.520552e-10
7.702680e-09 -3.863613e-09 -3.866116e-10 -1.119728e-09 -3.483128e-11 -4.397931e-10
3.156261e-09 8.590294e-10 -1.531841e-11 -7.823673e-09 -2.959368e-10 2.889953e-10
1.615496e-09 -9.955760e-09 -3.166415e-09 -9.974239e-09 2.987919e-09 1.045031e-09
-6.305385e-10 1.046220e-08 -4.823240e-09 -1.047518e-08 -7.452055e-10 1.030785e-09
2.149366e-08 4.519886e-09 -3.883868e-09 1.780794e-08 6.042735e-09 4.422839e-09
-2.160504e-08 2.359273e-08 1.810903e-08 -2.758612e-08 -1.340020e-08 -3.051684e-09
-1.001989e-08 5.005708e-08 -4.398146e-08 1.217468e-08 9.216348e-09 -1.668703e-08
1.959855e-08 -3.650872e-09 -3.388766e-09 4.100421e-09 4.278045e-11 1.864521e-09
1.050834e-08 -6.952709e-10 -3.521200e-09 5.628659e-09 -7.123931e-10 -1.192084e-09
1.419879e-08 -4.763090e-10 -5.119527e-09 7.380003e-09 1.238106e-09 -1.186369e-09
-2.557121e-08 7.163822e-08 -1.823819e-08 -7.655125e-09 -3.058019e-08 -1.198241e-08
2.550397e-08 -9.933905e-09 -4.399184e-08 -8.928967e-10 2.242505e-08 2.637361e-09
-7.940033e-10 -4.067822e-09 -1.687202e-08 -1.624894e-08 8.059383e-09 6.326710e-09
1.071065e-08 1.820948e-08 -5.320036e-08 1.338606e-08 2.832509e-08 -1.142580e-08
1.412413e-08 -1.534796e-08 -1.520455e-08 -7.165492e-09 2.106334e-09 4.323568e-10
1.751537e-08 1.500067e-09 -4.740991e-09 5.282434e-09 -5.400669e-10 -1.345258e-11
-5.984955e-10 1.025394e-08 -6.730339e-09 3.769632e-09 -1.810831e-09 -1.062401e-09
1.454682e-09 7.412133e-09 -7.833957e-09 5.720719e-09 -2.456922e-09 -3.952020e-09
2.822281e-09 1.494972e-08 -2.578279e-08 -1.787331e-08 9.699067e-09 1.093447e-08
1.294724e-08 3.593882e-09 -2.304213e-09 1.252349e-08 -3.915615e-10 1.444788e-09
5.055126e-09 5.960567e-09 -2.594525e-09 1.296621e-08 7.275972e-10 -1.004549e-09
4.034819e-10 8.850903e-09 -1.579091e-08 -1.309571e-08 1.955030e-09 1.064515e-09
5.852624e-09 7.905122e-09 -3.382734e-08 -1.298155e-08 4.304540e-09 1.149056e-09
-5.380645e-09 1.320301e-08 -1.579091e-08 -1.056861e-08 3.083944e-09 1.898917e-09
4.531820e-09 -2.017243e-08 3.318406e-10 8.818072e-09 -7.510879e-09 3.001510e-09
-2.412516e-09 8.187337e-09 1.908833e-08 -1.810200e-08 2.622808e-09 1.111890e-09
3.572285e-09 -1.429236e-08 3.108964e-09 -1.122581e-10 -6.715020e-10 -1.890545e-10
2.117878e-09 -1.574360e-08 -6.528627e-10 6.350145e-09 -5.752591e-09 2.199295e-09
-1.176888e-08 4.177507e-08 -2.860506e-08 -1.377042e-08 -1.168969e-08 2.788675e-10
-2.998555e-08 -2.141746e-08 1.200146e-07 -4.654101e-09 -2.599046e-09 -1.081538e-08
-6.984177e-09 9.426391e-09 1.549767e-08 1.371390e-08 -4.721059e-09 -3.529745e-09
2.671395e-09 -4.238348e-09 3.909239e-08 2.743131e-09 -5.631008e-09 -1.383080e-08
7.243999e-09 -1.678287e-08 -2.687261e-09 4.710294e-09 -3.841531e-09 1.330712e-09
-1.033855e-07 -2.082988e-08 1.963231e-07 -1.315694e-08 3.407255e-08 -9.630208e-09
-2.274176e-09 -1.796815e-08 5.626012e-08 -4.480335e-09 -4.951623e-09 -5.215935e-09
-8.787451e-09 7.562643e-09 7.713693e-09 1.093166e-08 1.084364e-09 7.276983e-09
1.223474e-08 -2.648262e-08 1.527352e-09 4.208784e-09 -7.566126e-09 1.280651e-09
-1.372228e-08 2.289724e-08 -6.058602e-09 2.781267e-09 6.828576e-10 3.580305e-10
-2.533734e-09 3.008074e-09 6.361791e-10 2.754124e-09 -2.925962e-10 6.587843e-12
4.675137e-09 5.947370e-08 -7.026109e-08 8.167026e-09 1.364387e-09 2.147348e-10
-1.270402e-08 5.568558e-08 7.242311e-09 1.048998e-08 -4.534655e-08 8.178180e-09
-3.276532e-09 -6.190589e-09 7.144962e-08 -9.864657e-09 1.348718e-08 -2.052882e-08
6.048045e-09 -2.278016e-08 2.620078e-09 6.689587e-09 -5.841444e-09 1.059279e-09
5.033254e-09 -1.937313e-08 2.483295e-09 2.665526e-09 -2.250566e-09 -1.373255e-10
-8.207910e-09 4.902917e-08 -3.432315e-08 -3.668961e-09 -1.975231e-08 -4.253599e-09
-1.896125e-08 -1.508960e-08 8.829901e-08 2.428953e-09 3.298875e-10 -9.218054e-09
-7.450841e-09 -6.139104e-10 4.806478e-08 1.113175e-08 -3.145096e-08 -2.007450e-08
-1.201933e-08 1.079735e-08 3.020424e-08 -2.256158e-08 1.054772e-08 -8.340302e-09
5.307877e-09 -2.844959e-09 -7.368171e-10 -2.544597e-10 -4.242418e-11 4.584177e-11
5.266484e-09 -3.032378e-09 -7.152192e-10 3.954697e-11 2.084983e-11 3.411071e-11
-3.123896e-08 -2.859167e-08 1.113408e-07 7.671366e-09 -1.193457e-08 -2.554286e-08
-1.915934e-08 -1.464172e-08 1.200146e-07 4.756845e-09 -2.995740e-09 -1.159469e-08
5.484112e-09 -3.011745e-09 -7.722121e-10 -7.995671e-11 -3.310771e-11 9.509454e-11
5.368554e-09 -2.961262e-09 -7.658612e-10 9.805075e-12 -1.809220e-12 -8.979484e-12
7.707950e-09 -2.100182e-08 3.495721e-09 1.877397e-09 6.562942e-10 4.466438e-11
5.379675e-09 -2.837196e-09 -7.840883e-10 -1.354292e-09 -4.647149e-11 7.022716e-11
5.495497e-09 -3.030578e-09 -7.308106e-10 -9.671752e-11 -2.932946e-11 2.774780e-11
5.499064e-09 -3.017141e-09 -7.507491e-10 3.544386e-11 2.150645e-11 9.576429e-11
5.742624e-09 -2.900399e-09 -7.606218e-10 -3.088430e-10 -4.737666e-11 -1.311473e-11
4.625473e-09 -1.572207e-08 3.169159e-09 -1.496073e-09 -5.975231e-11 -2.240365e-10
4.437793e-09 -1.511580e-08 3.118877e-09 -4.427169e-09 -4.537635e-11 7.890089e-11
4.736115e-09 -1.644401e-08 3.127575e-09 -3.288030e-09 4.195790e-11 -4.224613e-10
4.815831e-09 -2.571612e-09 -6.216545e-10 -7.847767e-11 -1.664682e-10 4.306067e-11
5.426971e-09 -2.966181e-09 -7.177117e-10 1.999931e-10 3.468684e-11 -4.276046e-11
5.902878e-09 -3.067596e-09 -7.701351e-10 3.499912e-10 4.872426e-11 -1.356670e-11
6.083538e-09 -3.190858e-09 -8.166285e-10 3.459108e-12 1.628697e-11 9.071688e-12
5.830463e-10 -8.971474e-09 2.421663e-09 -2.616286e-09 -7.126083e-11 -7.616618e-10
-2.762396e-09 -3.060586e-09 1.708705e-09 -5.260584e-10 -2.390244e-10 -2.229839e-10
6.854040e-10 -8.124264e-09 2.071564e-09 -4.358175e-09 3.957762e-11 -1.079820e-10
-3.210110e-09 -1.519965e-09 1.629865e-09 -5.514387e-10 1.546774e-10 -5.419709e-11
1.379865e-10 -8.345848e-09 2.222655e-09 -2.911423e-09 5.056986e-10 -3.369713e-10
6.047449e-09 -3.285486e-09 -7.238090e-10 -8.582518e-11 -1.347084e-11 9.855983e-11
5.756419e-09 -3.148274e-09 -7.681646e-10 4.354484e-11 -3.293027e-11 -9.268919e-11
3.660583e-09 -1.583951e-08 2.628530e-09 4.382207e-09 4.119849e-10 -9.900414e-11
1.955858e-10 -1.376478e-08 3.749489e-09 2.404248e-09 -5.337908e-11 2.161489e-10
6.239134e-10 -6.848921e-11 -1.842755e-10 1.610895e-09 2.574371e-10 1.914935e-11
-7.946528e-09 7.316300e-09 1.107781e-09 2.889559e-09 -2.780869e-10 -4.498015e-10
-1.041226e-09 -1.101814e-08 3.721198e-09 3.309075e-10 -5.574352e-10 2.703635e-10
6.923306e-11 -1.165299e-08 3.418483e-09 3.434978e-09 1.164522e-10 4.185019e-11
-9.279155e-10 -1.076188e-08 3.455392e-09 5.204718e-09 2.997536e-11 -9.579382e-11
-2.042060e-09 1.858136e-08 -1.062422e-08 -8.586503e-09 -4.314748e-09 2.444861e-09
-9.852386e-11 -1.276636e-08 3.441432e-09 3.883330e-09 -1.798872e-11 6.869838e-11
1.771162e-09 -1.481331e-08 3.141917e-09 5.332786e-09 1.021938e-10 -1.584178e-11
8.118661e-11 -1.162183e-08 3.155540e-09 4.550236e-09 -9.283885e-11 2.715439e-10
5.042544e-11 -1.252895e-08 2.586364e-09 4.882799e-09 6.261323e-10 1.267891e-13
2.510820e-08 6.398663e-10 -7.071902e-09 1.280626e-08 1.837088e-09 2.715004e-09
1.760884e-08 -5.569179e-10 -3.274497e-09 9.651389e-09 7.642229e-10 4.584713e-10
1.758734e-08 -5.248158e-09 -2.931826e-09 2.942784e-09 3.190097e-10 -4.391049e-10
2.254956e-08 -6.386195e-09 7.191936e-10 8.872969e-09 5.397102e-10 3.832978e-09
1.760702e-08 -7.494129e-10 -4.594173e-09 7.145242e-09 1.268486e-09 2.213205e-10
2.413938e-08 -6.399057e-09 -2.616450e-09 7.077227e-10 1.255281e-10 2.666589e-10
1.662608e-08 -7.123168e-10 -3.687277e-09 3.859564e-09 -9.095270e-11 -4.216514e-10
1.713726e-08 -2.264397e-09 -4.197313e-09 3.756890e-09 -3.847784e-10 2.316272e-10
1.805344e-08 -2.474479e-09 -4.096061e-09 1.108626e-09 -4.853027e-10 -9.697443e-11
-3.949840e-09 -1.882210e-09 1.539386e-09 8.002100e-10 -3.936187e-10 -3.667877e-10
-3.356719e-09 -2.731239e-09 1.815970e-10 5.182498e-10 -3.662493e-11 -6.616885e-11
-3.377064e-09 -2.943416e-09 9.910042e-10 2.275069e-12 2.644285e-11 -2.720766e-10
-3.885717e-09 -4.517780e-09 9.917720e-10 3.915978e-09 -2.069484e-09 1.058793e-09
-7.381677e-09 2.093846e-09 -1.457228e-09 -5.479101e-09 -3.271609e-09 -1.746703e-09
8.862173e-10 1.442739e-10 -3.028542e-10 -2.120175e-09 -2.933753e-10 6.245382e-11
4.021187e-09 -1.506770e-08 3.214787e-09 -9.474980e-10 -4.130887e-10 -1.272136e-10
3.955033e-09 -2.080901e-09 -6.545240e-10 -8.282327e-10 -1.435969e-10 1.872491e-11
4.177293e-09 -1.904686e-09 -5.885610e-10 -9.564940e-10 -9.640488e-11 4.028944e-11
-6.618320e-09 -2.656392e-09 1.718234e-09 -1.510013e-09 -7.046589e-10 -1.441252e-10
3.324127e-09 -1.526363e-09 -5.702971e-10 -1.718936e-10 5.708944e-11 4.440696e-16
2.507145e-09 -6.443743e-10 -5.195808e-10 -1.507488e-09 7.197221e-11 1.527904e-10
8.260059e-11 6.300427e-10 -2.094254e-10 -7.447194e-10 4.592415e-11 -6.551204e-12
-4.034115e-09 2.008207e-09 5.866754e-10 7.349765e-11 2.314327e-11 -4.388845e-11
1.626742e-09 -4.149960e-10 -4.286473e-10 -4.548031e-10 -1.074296e-11 1.891203e-10
-5.111982e-10 9.101164e-10 -1.535554e-10 -1.025815e-10 4.692113e-11 -9.626480e-21
-3.970559e-09 1.775939e-09 6.704148e-10 1.249218e-10 5.640122e-11 -4.875034e-11
1.718933e-09 -2.575183e-10 -4.072582e-10 -5.958348e-11 7.336921e-13 3.266276e-13
-4.055258e-09 1.744822e-09 7.752416e-10 1.066655e-10 5.543575e-11 -1.537991e-10
-2.207230e-10 7.950831e-10 -1.407909e-10 -3.466756e-10 -1.287268e-10 -2.673534e-10
2.026846e-09 -6.443752e-10 -5.013154e-10 -1.559470e-09 3.864598e-11 1.306777e-11
-2.166587e-10 9.120225e-10 -2.562679e-10 -1.926767e-09 -1.350342e-11 2.655653e-12
8.120820e-10 2.866871e-10 -3.891421e-10 -1.321462e-09 -1.290879e-10 3.227050e-10
1.494012e-09 -2.195915e-10 -3.891412e-10 -8.327363e-10 1.275691e-11 -2.834732e-11
-3.992183e-09 1.982237e-09 6.136323e-10 7.383605e-11 1.385880e-11 -7.940137e-11
-3.855169e-09 2.024453e-09 5.605116e-10 6.845724e-11 2.786549e-12 -4.488809e-11
1.192735e-08 -2.375978e-08 -3.991047e-09 -1.105079e-09 -3.899374e-09 -3.129264e-10
-4.007269e-09 1.972383e-09 6.285985e-10 -1.644995e-11 2.112754e-12 -4.027823e-11
2.518803e-09 -4.972670e-09 2.680122e-08 9.431509e-09 -8.948451e-10 7.884522e-10
5.494150e-10 -2.123246e-09 3.435624e-08 4.407843e-09 -1.605910e-09 -4.140090e-09
4.730001e-10 -8.953952e-09 3.578932e-08 2.812689e-09 -3.133665e-09 -5.221780e-09
5.454659e-11 -1.167564e-08 3.355554e-09 3.457290e-09 5.613266e-11 7.457523e-11
-5.013535e-09 1.401336e-09 6.367160e-10 -7.793229e-10 5.185186e-11 -2.762414e-10
-4.771540e-09 -3.744685e-10 1.064181e-09 6.736579e-10 -4.404852e-10 -1.444269e-10
9.300139e-09 -2.124436e-08 -1.365899e-09 -4.876646e-10 -1.045593e-09 -6.974132e-11
-4.426858e-09 -7.459171e-10 -2.205018e-10 1.364354e-09 -2.208840e-10 -2.877356e-10
7.451776e-09 -1.612897e-08 -7.794399e-09 -3.304613e-09 -1.928007e-09 -2.436566e-09
2.844214e-09 -1.594861e-08 1.470771e-09 -7.227958e-09 -4.843411e-09 -1.085781e-09
-4.642397e-09 2.707568e-09 8.613190e-10 1.883756e-10 3.066385e-10 -4.446916e-10
-4.912189e-09 1.040867e-09 5.745386e-10 -2.238060e-10 -1.463475e-10 -1.937896e-10
-4.593338e-09 -4.329181e-10 1.124000e-09 9.695778e-10 -1.429764e-10 7.316126e-11
-2.990962e-09 -8.960422e-09 3.792808e-09 3.692189e-10 -1.200282e-10 8.926104e-11
-4.494790e-09 -6.821020e-09 3.392849e-09 7.697638e-10 -5.920597e-11 2.011415e-10
-4.443261e-09 -2.138485e-10 1.150052e-09 2.348086e-10 -8.208985e-10 -1.874924e-10
-4.842335e-09 -4.823892e-10 1.390839e-10 9.197869e-10 -9.902819e-10 2.149337e-10
6.564236e-09 -1.989915e-08 3.833635e-09 3.867533e-10 -8.287037e-11 1.114664e-12
-4.203962e-09 -6.875291e-09 3.420627e-09 5.886083e-10 -5.237277e-11 6.380763e-11
6.419181e-09 -1.992416e-08 3.450866e-09 1.245970e-09 3.680778e-10 -6.000717e-11
-3.102121e-09 1.772567e-09 4.093033e-10 1.786104e-10 8.698425e-11 5.086231e-11
6.272824e-09 -1.975181e-08 3.364033e-09 1.554957e-09 6.331493e-10 -1.732688e-10
7.039916e-09 -2.022014e-08 3.468290e-09 1.441825e-11 2.347242e-10 3.437473e-12
-2.524926e-09 1.479525e-09 3.543108e-10 2.326008e-10 6.289991e-11 -1.269862e-10
-3.985820e-09 2.114327e-09 5.975549e-10 2.880029e-12 -2.804285e-12 -3.591299e-11
-3.425951e-09 1.952708e-09 4.151173e-10 -1.973177e-11 8.913337e-11 -3.176526e-11
6.355909e-09 -1.940458e-08 3.578914e-09 9.782420e-10 1.880474e-11 2.460732e-11
-2.995861e-09 1.704739e-09 4.223715e-10 -2.009781e-12 -3.396367e-12 -9.943602e-12
6.239742e-09 -1.978955e-08 3.840398e-09 5.351939e-10 -1.081917e-10 -9.839218e-11
7.995611e-09 -2.091974e-08 2.749694e-09 -5.547502e-10 6.941456e-10 -2.109776e-10
7.185478e-09 -1.958472e-08 3.486737e-09 5.032115e-10 2.557208e-10 -1.211986e-10
-2.854840e-09 -1.009654e-08 2.942247e-09 3.969496e-09 4.455948e-10 6.484435e-11
-5.089099e-09 3.604588e-09 8.297638e-10 1.018415e-09 -2.267688e-10 3.115242e-11
-5.057117e-09 -5.915414e-09 3.146369e-09 7.459437e-10 2.234646e-10 7.181855e-11
-4.087095e-10 6.797620e-10 7.257484e-11 1.307771e-09 2.054072e-10 -5.841039e-11
-4.954966e-09 5.005708e-08 -5.259258e-08 3.257714e-09 1.692713e-08 -1.389785e-08
2.649796e-09 -1.132960e-09 -3.216096e-10 1.430726e-09 1.329684e-10 2.381649e-10
-2.815129e-09 1.505947e-09 4.061727e-10 2.152147e-10 2.464251e-11 -6.917789e-11
-2.853868e-08 -4.087818e-08 1.324472e-07 8.230112e-09 -9.602630e-11 3.144861e-08
-2.895270e-09 1.580685e-09 4.968150e-10 6.232845e-10 9.284107e-11 1.318317e-10
-2.230077e-09 1.512643e-09 2.887084e-10 1.255883e-10 4.184825e-11 4.453667e-12
-2.452715e-09 1.412214e-09 2.702123e-10 2.165246e-10 -4.440448e-11 -1.082334e-11
4.082914e-09 -2.417654e-09 -4.880092e-10 9.756838e-10 9.685341e-11 4.877276e-11
-1.444267e-09 1.081585e-09 1.236682e-10 4.251233e-10 1.121644e-10 -3.974693e-11
-3.951866e-09 1.986075e-09 5.802621e-10 1.367204e-10 1.758649e-11 -4.612644e-11
-3.221761e-09 1.769511e-09 3.880558e-10 1.557177e-10 -4.112000e-11 2.476241e-12
-1.957644e-09 1.248393e-09 2.702141e-10 6.267700e-10 -1.578870e-11 -1.697236e-10
4.013904e-09 -1.830894e-09 -4.583445e-10 1.740551e-09 1.568368e-11 -8.019652e-11
2.231877e-09 -1.430231e-09 -4.065999e-10 6.065992e-10 8.690781e-11 -1.831380e-11
6.269024e-09 -1.797993e-08 3.484903e-09 -5.229678e-10 -7.536210e-11 -2.967043e-10
2.177227e-09 -1.600753e-08 3.600987e-09 3.578323e-09 -1.010546e-11 -1.967365e-11
1.389940e-09 -1.367283e-08 3.801825e-09 4.049498e-10 4.130651e-11 -7.494156e-12
2.943655e-09 -1.160209e-09 -3.959006e-10 1.339266e-09 8.523748e-11 3.145484e-12
-1.954788e-09 -1.046530e-08 3.616876e-09 2.481030e-09 4.550349e-10 7.299983e-11
8.868106e-11 -1.244557e-08 3.782625e-09 1.201030e-09 -3.760019e-10 8.585799e-11
2.692451e-08 -8.105956e-09 -3.880466e-09 1.223888e-09 -3.243958e-10 2.013693e-09
4.298763e-09 4.477591e-09 -2.871527e-09 3.604872e-10 -4.157796e-09 -1.226274e-09
2.371210e-08 -3.294416e-09 -3.123828e-09 5.982817e-09 3.507960e-10 1.983278e-09
6.410111e-09 -2.028396e-08 3.572162e-09 3.070695e-09 8.159739e-10 -9.453660e-11
3.542496e-09 -1.688707e-08 3.562845e-09 2.070165e-09 4.692300e-10 2.150342e-10
3.630600e-09 -1.731701e-08 3.881337e-09 3.545891e-10 1.398601e-10 -3.251951e-11
3.630600e-09 -1.699509e-08 3.846977e-09 5.551448e-10 7.375722e-11 1.201255e-10
6.382512e-09 6.901670e-09 -6.041368e-09 4.301199e-09 -8.268071e-10 -1.068870e-09
1.581469e-09 6.054948e-09 -5.471114e-09 2.577120e-09 -1.057370e-09 -1.910826e-09
7.324280e-09 3.993682e-09 -5.464861e-09 4.227319e-09 -2.460627e-10 -2.457456e-10
9.731660e-10 -1.243298e-08 3.672921e-09 3.167620e-09 1.242495e-10 2.767479e-12
4.282283e-09 -1.782751e-08 1.886719e-09 4.887783e-09 1.118456e-09 3.774185e-10
-6.070442e-10 -1.145252e-08 3.697817e-09 1.950152e-09 -5.491162e-13 3.632561e-11
1.805344e-08 -2.345261e-09 -4.617192e-09 8.064149e-10 1.059189e-09 -4.634471e-11
-3.044076e-09 -3.063692e-09 -3.499293e-09 5.187935e-09 -2.074624e-09 1.422844e-09
-1.939888e-10 1.441340e-08 -9.194849e-09 5.775696e-09 -7.156915e-10 -6.507619e-10
-5.670822e-09 1.070206e-08 -6.435183e-09 8.585759e-11 -2.179233e-09 -1.414329e-09
-2.551867e-09 1.550465e-08 -8.444504e-09 5.377464e-09 -2.475139e-09 -4.521952e-09
1.522775e-09 7.380651e-09 -5.182899e-09 -2.422022e-10 -1.882551e-09 -3.223870e-10
-3.626307e-09 -9.610748e-10 1.374437e-09 -2.388424e-09 5.167058e-10 2.432894e-10
-2.720775e-09 -3.130622e-09 -2.738735e-09 3.460181e-09 -1.847340e-09 7.467877e-10
-5.107475e-09 -4.603846e-10 -1.051669e-09 3.006860e-09 -1.060494e-09 9.130783e-10
-4.592855e-09 1.815655e-09 -3.348872e-09 1.553918e-09 -8.101548e-10 -1.502430e-10
-5.591376e-09 2.926273e-09 -1.933220e-09 2.526109e-10 -1.339703e-09 1.180831e-09
-4.139498e-09 6.247340e-09 -8.542521e-09 1.764052e-09 -3.374058e-09 2.297376e-09
3.469736e-11 -8.499053e-09 2.619254e-09 -1.045362e-10 1.914326e-10 -1.616549e-10
-3.224386e-09 -5.089329e-09 1.360933e-09 -6.331696e-09 -1.913220e-10 -1.350753e-10
-2.643971e-09 1.073071e-10 -6.306368e-09 3.394707e-09 -1.559885e-09 1.554140e-10
-1.682106e-10 -8.656780e-09 2.139618e-09 -4.272301e-09 1.647953e-10 -3.852462e-10
-1.140967e-09 -5.158097e-09 2.149297e-09 -1.412116e-09 -2.889244e-12 -1.822282e-10
-5.478517e-09 2.403393e-09 -3.872045e-09 2.517660e-09 -1.949088e-09 2.081680e-09
-1.533406e-09 -6.077883e-09 2.285892e-09 1.539045e-11 2.355849e-11 -1.587476e-10
-5.534162e-09 4.415646e-09 -4.585756e-09 2.306545e-10 -7.747778e-10 9.149909e-10
-4.393093e-09 7.674054e-09 -9.285675e-09 -5.522087e-10 -1.072642e-09 1.480436e-09
-2.145658e-09 -4.282735e-09 2.087632e-09 2.179534e-11 -4.440852e-16 9.241763e-11
1.447790e-08 -9.492785e-09 -2.570099e-08 -1.641980e-09 -4.730339e-09 1.510092e-10
1.461709e-08 -1.063158e-08 -2.270472e-08 1.957131e-09 -1.178618e-08 2.431276e-09
-3.626308e-09 -2.757091e-09 1.635599e-09 -2.840438e-09 3.465781e-10 1.371783e-10
-1.328905e-09 -5.850861e-09 2.104385e-09 -2.379609e-09 -4.369758e-10 -2.091275e-10
-6.805751e-10 -7.426395e-09 2.150599e-09 -3.568445e-09 1.447062e-10 -6.037705e-10
3.901588e-10 -8.909215e-09 2.487243e-09 -2.866149e-09 -2.006724e-10 2.726365e-11
-3.472585e-09 -2.478708e-09 1.817304e-09 -2.462905e-09 1.453946e-10 -1.354009e-10
1.312863e-09 1.149672e-08 -5.366870e-09 1.106858e-08 -8.422597e-10 -3.306393e-09
-1.041826e-08 -4.087818e-08 1.056183e-07 7.569541e-09 -4.452308e-10 1.086285e-08
1.360949e-08 -1.566845e-08 -1.653059e-08 1.972508e-09 -8.824758e-09 1.007773e-09
1.411957e-08 -2.262018e-09 -3.191609e-08 -3.929827e-09 -5.168483e-09 1.160201e-10
1.562017e-08 -8.815521e-09 -2.414250e-08 -2.824296e-09 -1.143783e-08 3.178293e-10
1.223954e-08 -1.373053e-08 -1.694412e-08 2.380174e-09 -3.142108e-09 5.762146e-10
1.124070e-08 -7.714419e-09 -2.082143e-08 4.380379e-09 -1.067237e-08 2.782459e-09
1.391199e-08 -1.419980e-08 -1.927457e-08 -6.209348e-10 -3.581118e-09 2.326941e-10
-2.539734e-09 1.951156e-09 6.384182e-11 -1.938387e-09 -1.899201e-10 -7.951884e-11
-9.508252e-10 1.108394e-09 -1.848783e-10 -2.320293e-09 -7.214695e-11 -3.995564e-10
-1.272708e-09 1.601434e-09 -4.479128e-11 -1.554643e-09 4.002783e-11 1.727551e-11
4.067148e-09 -1.961748e-09 -5.884813e-10 -1.836063e-09 -8.170087e-11 -1.566971e-10
1.450429e-08 -1.295776e-08 -2.054149e-08 -1.930859e-09 -3.141496e-09 8.286123e-10
2.531180e-09 -9.104895e-10 -5.044909e-10 -6.022731e-10 -5.950240e-11 3.452825e-10
4.171767e-09 -2.040562e-09 -6.381624e-10 5.634844e-10 1.256950e-11 -5.182366e-11
1.646930e-09 -2.971277e-10 -4.410015e-10 -1.815624e-09 -1.190072e-10 2.094032e-10
4.310107e-09 -1.961748e-09 -6.276011e-10 -1.983929e-09 5.939996e-11 -2.521201e-10
5.485439e-09 -2.658250e-09 -6.678471e-10 9.504243e-10 1.492325e-10 1.583550e-10
5.440798e-09 -2.998221e-09 -6.980712e-10 5.849322e-10 4.413364e-11 1.727235e-11
2.631915e-09 -7.872956e-10 -5.530065e-10 -2.796550e-09 -5.424372e-11 -2.891862e-10
3.548502e-09 -1.692082e-09 -5.092153e-10 1.091683e-09 7.078660e-11 -1.305356e-10
3.511901e-09 -1.181253e-09 -5.849214e-10 -1.874580e-09 -2.036077e-11 1.013079e-10
4.428709e-09 -2.380649e-09 -5.743710e-10 1.119574e-09 8.093728e-11 -1.542532e-10
5.879398e-09 -2.994191e-09 -7.436356e-10 4.416141e-10 1.044834e-11 -1.921674e-11
2.738476e-09 -1.016689e-09 -5.013145e-10 -2.114685e-09 1.707968e-12 -1.171276e-10
5.308905e-09 -2.739070e-09 -6.423466e-10 8.134061e-10 -2.439479e-12 1.500773e-10
-1.881800e-09 7.946421e-09 -4.120883e-09 -4.605960e-09 1.205182e-09 -9.906254e-10
5.482806e-09 -2.849923e-09 -6.597132e-10 9.436944e-10 6.043038e-11 -1.150857e-12
-8.451142e-09 2.349968e-08 -7.897863e-10 -2.100227e-08 -3.615068e-09 -3.766730e-09
8.390373e-10 -1.062895e-10 1.489537e-10 2.899428e-09 -1.808881e-10 -3.828049e-10
-1.229534e-09 5.493865e-09 -1.546216e-09 1.857207e-09 3.710018e-09 -9.408480e-10
-3.060858e-10 4.748109e-09 -2.336203e-09 6.377219e-10 1.778254e-09 -2.524412e-10
-2.287585e-09 6.840919e-09 -2.940204e-09 -6.943774e-10 2.845042e-11 -3.476917e-10
-5.859313e-09 1.489999e-08 -6.784512e-09 -2.817667e-09 1.007583e-09 -1.861412e-09
-3.784788e-09 8.063432e-09 -3.673790e-09 -5.823888e-09 7.469369e-10 -8.136727e-10
-3.288441e-09 1.326229e-08 -4.120882e-09 -4.461652e-09 2.228320e-10 -5.112650e-10
-1.553127e-10 4.237606e-10 3.161111e-10 2.950456e-09 -2.045053e-10 -6.851972e-10
3.312786e-10 1.006089e-09 1.982752e-10 3.504281e-09 2.982179e-10 1.476644e-10
-1.084936e-09 6.697412e-10 2.130189e-10 2.220103e-09 -2.138916e-10 -3.863407e-10
-1.620140e-09 9.545333e-10 4.202170e-10 1.562618e-09 4.258483e-12 -2.795708e-11
-2.592495e-09 1.545325e-09 3.467844e-10 2.476723e-10 -3.410050e-12 4.108158e-11
8.801363e-09 -2.284041e-08 8.195684e-10 -1.516167e-10 1.493474e-09 -2.251417e-10
-2.516405e-10 6.839020e-10 1.684461e-10 2.477451e-09 3.987699e-12 -4.008571e-11
-9.231034e-10 6.000533e-10 1.314850e-10 1.784837e-09 -1.053664e-10 -2.918989e-10
6.504157e-10 2.886411e-10 2.325207e-11 2.464049e-09 2.297495e-12 -1.658911e-10
1.479258e-08 -2.266169e-08 -7.739470e-09 2.130115e-09 5.551743e-09 -6.172658e-10
-9.066987e-10 5.685217e-10 2.194600e-10 2.304480e-09 3.061380e-10 -3.981504e-11
-4.453097e-09 2.434043e-09 7.261218e-10 -1.811595e-10 2.525535e-11 -6.064704e-12
-1.428891e-08 -4.325184e-09 6.938710e-08 -2.827196e-08 -9.384657e-09 -2.756887e-09
8.468248e-09 4.368436e-08 -7.007943e-08 6.819353e-09 1.289723e-08 -4.347105e-09
2.360858e-08 -1.938112e-08 3.592336e-08 -1.104833e-08 -1.616282e-09 1.040012e-08
-1.490483e-09 2.872330e-09 -1.422169e-08 5.236224e-09 -3.080483e-09 2.745954e-09
-1.084524e-09 -7.079643e-09 3.879221e-10 -1.307431e-10 -1.201403e-09 9.394335e-11
-3.272406e-09 7.802933e-09 -2.426125e-09 -1.452020e-09 4.864946e-10 1.251774e-10
-8.486829e-09 4.646553e-09 -6.709961e-10 8.342944e-10 1.640145e-09 -1.656552e-10
-8.316221e-09 4.479014e-09 1.681146e-10 1.399349e-09 1.613724e-09 -3.185885e-10
-8.113662e-09 6.833565e-09 -2.564554e-09 2.525652e-09 2.184940e-09 -1.126378e-09
-8.559639e-09 4.926538e-09 -9.614980e-10 1.434792e-09 7.107859e-10 -5.710299e-11
-8.641217e-09 4.624211e-09 -4.068750e-10 7.635248e-10 1.547078e-09 -2.471900e-10
-1.914391e-09 1.584616e-09 -2.943068e-10 -3.115543e-09 1.217857e-10 -5.538858e-10
-6.133192e-10 9.153152e-10 -2.474572e-10 -2.021389e-09 7.590617e-12 -3.021006e-10
-8.061361e-09 7.118308e-09 -2.952734e-09 3.406195e-09 9.734584e-10 -2.465930e-10
-9.126598e-09 7.808121e-09 -4.022328e-09 5.209786e-09 7.477529e-11 5.435046e-10
-7.043702e-09 -1.465473e-09 1.024713e-09 9.059755e-09 3.381618e-09 -1.080054e-09
-3.444219e-09 2.159941e-09 2.325704e-10 -1.869548e-09 1.279865e-12 5.203660e-11
-1.844727e-09 1.498767e-09 -1.492886e-10 -2.215049e-09 1.170739e-10 -3.526779e-10
-2.935586e-09 2.159972e-09 9.633339e-11 -2.126911e-09 -1.075438e-10 -1.519620e-10
-3.060769e-10 6.971879e-10 -4.200285e-10 -3.669347e-09 7.900352e-11 -4.641514e-10
-1.233523e-09 1.825949e-09 -1.837019e-10 -3.424271e-09 -1.153624e-11 8.127721e-12
-2.410825e-09 5.470785e-09 -2.248925e-09 5.624412e-10 1.646298e-09 -1.941438e-10
-8.501243e-09 8.178890e-09 -2.630496e-09 3.450082e-09 1.323430e-09 -9.814875e-10
1.153246e-08 -1.676646e-08 -1.064385e-08 -8.628304e-09 3.342843e-09 7.265297e-10
1.416259e-08 -1.464765e-08 -1.943973e-08 -7.581147e-09 4.697745e-09 5.909795e-10
-7.387067e-09 6.068719e-09 -1.125906e-09 4.434016e-10 2.310419e-09 3.338447e-10
9.755185e-09 -1.673612e-08 -6.478040e-09 -7.963321e-09 7.927412e-10 1.306988e-10
1.165849e-08 -2.066275e-08 -7.252968e-09 -4.517125e-09 4.040519e-10 -1.937830e-10
2.430449e-08 -1.774709e-08 -3.518554e-08 3.226779e-09 1.923820e-08 -1.087321e-09
-8.157161e-09 7.455265e-09 -2.212168e-09 2.436960e-09 -7.489831e-11 7.258704e-11
1.372602e-08 -1.992525e-08 -1.109447e-08 -3.287571e-09 3.236598e-09 3.999623e-10
3.101427e-09 -1.192017e-09 7.518874e-11 3.156275e-09 -1.446896e-10 -2.806084e-10
-3.337921e-09 7.844810e-09 -2.761353e-09 -1.345056e-09 8.771802e-10 -3.802181e-11
7.369421e-09 -3.633485e-09 9.509948e-11 1.936301e-09 -1.413295e-10 -4.397324e-10
-8.938448e-09 5.827629e-09 -1.725313e-09 3.254092e-09 1.933297e-09 -6.985988e-10
4.646563e-09 -1.432037e-09 6.404868e-10 4.787988e-09 -1.341816e-10 -5.391747e-10
6.940144e-09 -3.280156e-09 3.255742e-10 3.011361e-09 8.589750e-11 -4.158754e-10
3.351587e-09 -1.239884e-09 5.759482e-11 3.194604e-09 2.767371e-10 -1.140446e-10
4.577460e-09 -2.462398e-09 -6.423466e-10 1.412827e-09 -3.435408e-11 -5.520029e-12
-8.879994e-09 3.756800e-09 1.264013e-09 4.073214e-09 1.414589e-09 -1.030889e-09
4.064938e-09 -2.206093e-09 -5.284853e-10 1.220451e-09 3.046496e-11 -1.578395e-11
6.682613e-09 -2.713643e-09 -1.045075e-11 -4.255842e-09 1.059459e-10 -7.003558e-10
8.485797e-09 -4.940389e-09 6.560743e-10 -1.694587e-09 -2.292100e-11 -1.114626e-10
-4.180896e-10 5.773835e-09 -2.491377e-09 -3.830481e-10 2.160322e-09 -2.511268e-10
-6.341310e-09 7.058177e-09 -1.660870e-09 -5.322971e-10 1.933395e-09 -3.068845e-10
-1.139203e-09 -6.998640e-09 2.424128e-09 -1.584246e-09 1.064231e-10 -2.568105e-10
5.754011e-10 -9.882405e-09 2.730026e-09 -1.703953e-09 8.719936e-11 -2.382633e-10
-5.264950e-09 1.326507e-09 8.348975e-10 -2.155641e-09 -2.085847e-10 -2.868613e-10
-5.157612e-09 3.864464e-11 1.872742e-10 -4.886379e-09 3.492495e-11 -9.281575e-11
-5.239435e-09 2.955153e-09 6.259091e-10 -1.635366e-09 9.956901e-11 -4.799029e-10
-5.495461e-09 1.097145e-09 9.443446e-10 -1.900537e-09 2.384302e-10 1.274243e-10
-2.637538e-09 1.731824e-09 1.001077e-09 3.184399e-09 -4.520828e-10 -7.591681e-10
-7.604369e-08 -4.240960e-08 1.888083e-07 -3.327871e-09 1.393905e-09 1.235860e-08
8.247540e-10 -1.082907e-08 2.906747e-09 -1.246636e-09 -6.813621e-10 -3.206546e-10
-4.671929e-08 -1.668593e-08 1.365848e-07 -2.871250e-08 -2.829503e-08 3.876843e-08
-3.265180e-08 -4.038519e-08 1.066370e-07 1.107718e-08 1.590558e-08 1.799828e-08
-1.313111e-08 -2.051083e-09 3.515451e-08 -2.090015e-08 -8.126160e-09 9.447010e-09
-1.416744e-08 -4.213948e-09 8.070307e-08 -2.858906e-08 -1.482051e-08 2.615454e-08
-1.944711e-08 -3.520314e-08 1.301006e-07 -1.580590e-09 5.721231e-10 2.592513e-08
1.101037e-09 -9.531186e-09 2.493021e-09 -8.286471e-10 -1.289362e-10 -3.266438e-10
-4.757741e-09 4.719215e-08 -3.677112e-08 -1.120891e-09 -1.607848e-08 -3.499746e-09
-6.848623e-08 -5.832829e-08 2.131570e-07 -1.120514e-08 -2.532435e-08 3.658948e-08
-4.899718e-08 -2.205335e-08 1.347317e-07 -4.253821e-09 -1.037050e-09 -2.488111e-08
-3.541978e-11 -7.304140e-09 2.431387e-09 -1.121006e-09 2.123706e-10 -6.700437e-10
1.784596e-09 1.580017e-08 -7.917190e-10 -1.827044e-08 4.560842e-09 7.378846e-10
-8.393622e-10 7.488561e-09 5.790751e-09 -1.361737e-08 -8.536954e-10 8.881162e-10
-4.455194e-09 1.531280e-08 -8.271852e-09 -9.374232e-09 -7.556088e-10 4.946954e-09
1.382551e-09 1.937828e-08 -1.570790e-08 -9.069594e-09 -2.296648e-09 5.437894e-09
-1.455158e-09 2.196330e-08 -4.135759e-08 -1.126387e-08 8.300141e-09 4.532127e-09
-1.192462e-08 4.924467e-08 -2.909968e-08 -5.084003e-09 -1.567334e-09 2.159893e-08
-6.185630e-11 -8.435155e-09 2.555187e-09 -2.590590e-09 6.302975e-11 -6.287999e-10
-5.353411e-10 -7.756300e-09 2.459980e-09 -1.308336e-09 -7.793890e-10 -3.711560e-10
-1.716775e-08 2.553134e-08 -1.496141e-09 1.274464e-09 1.983469e-09 8.690023e-09
-5.022257e-09 9.894456e-09 6.725290e-09 8.850893e-09 -1.997427e-09 -1.558465e-09
-7.976392e-09 7.780528e-09 -1.537479e-09 -3.049362e-09 3.326456e-10 1.002766e-09
-1.164201e-08 1.710472e-08 -7.036800e-09 -4.236825e-09 5.562984e-10 2.866086e-09
1.405750e-09 2.805302e-09 9.026367e-09 9.585342e-09 -1.734954e-09 -3.102425e-09
2.252130e-09 -1.179839e-08 2.978476e-09 -1.407066e-09 9.199792e-10 -2.527656e-10
-3.458144e-09 5.473863e-09 1.359843e-09 4.541859e-09 -3.998779e-11 -1.749535e-10
-7.980015e-09 7.929690e-09 -4.569705e-10 -2.043965e-10 -2.687494e-11 2.326158e-10
-7.475942e-09 5.177772e-09 4.931457e-10 -3.379975e-10 2.702697e-10 -1.231522e-10
1.099447e-09 -1.004092e-08 2.699276e-09 -7.825608e-10 7.718920e-10 -4.761504e-10
-5.066496e-09 1.892176e-09 8.270513e-10 -4.811034e-10 -7.017054e-11 5.838885e-11
-1.302824e-10 -7.643766e-09 2.165963e-09 -3.981574e-09 6.235670e-10 -1.627201e-10
-3.652000e-09 2.827555e-09 9.020527e-09 9.127295e-09 -1.734207e-09 -3.409282e-09
-1.259452e-08 1.319385e-08 -1.669419e-09 3.591408e-09 2.645494e-09 1.988746e-09
-1.325741e-08 1.419700e-08 6.138498e-09 6.463645e-09 -3.985907e-09 -1.331307e-09
-7.203521e-09 9.930307e-09 3.768907e-09 7.610476e-09 -4.330846e-10 9.887171e-10
2.243503e-09 -1.247564e-08 2.748755e-09 -1.563182e-09 2.034795e-10 -2.977036e-10
3.676567e-09 -2.581318e-09 1.024245e-08 7.144018e-09 -4.290795e-10 -3.411423e-09
1.800312e-08 -3.718447e-09 -4.057119e-08 9.050480e-09 1.211511e-08 -1.201784e-09
-6.916898e-09 8.105444e-09 -3.207945e-09 -1.354535e-09 -3.688680e-09 -5.445792e-09
-1.866580e-10 -8.532108e-09 2.846591e-09 -4.215746e-09 -1.060454e-09 -4.626483e-10
1.439246e-08 -1.400104e-09 -4.158510e-09 1.746603e-11 -1.067517e-09 1.238170e-10
1.095098e-09 -1.058679e-08 2.460339e-09 -2.566726e-09 4.874795e-10 -2.795438e-10
-1.833309e-09 -6.030568e-09 2.078816e-09 -3.969520e-09 1.965156e-11 -7.167082e-11
-1.772241e-09 -4.428958e-09 1.482799e-09 -4.336226e-09 -1.155220e-11 -3.274198e-10
-1.144802e-09 5.767304e-09 -4.285492e-09 -9.947749e-10 -1.968642e-09 -3.911849e-10
-3.349975e-09 1.461684e-09 5.761063e-10 7.685537e-10 1.124345e-10 -1.216560e-10
-3.371473e-09 1.397748e-09 6.755121e-10 5.618321e-10 3.868827e-11 -1.893294e-10
-2.736982e-09 1.415349e-09 4.346483e-10 8.672504e-10 -4.242617e-11 -4.821699e-11
2.311567e-08 -5.546836e-09 -4.252769e-09 1.085929e-10 -2.203742e-10 1.082071e-09
-3.020434e-09 1.438616e-09 4.266871e-10 6.594849e-10 -2.764589e-11 -1.867182e-10
1.733113e-08 -3.686029e-09 -3.580695e-09 3.899821e-09 -4.213686e-10 -5.263026e-10
2.970844e-08 -1.283176e-08 1.765017e-09 1.317483e-09 1.419174e-09 4.479736e-09
-9.073236e-09 1.345571e-09 1.297972e-09 -3.038085e-10 -4.508247e-10 -2.511591e-11
-8.156169e-09 9.070007e-10 1.748094e-09 4.722436e-20 -1.313196e-10 2.063359e-10
-3.411829e-09 1.714010e-09 5.735776e-10 2.384564e-10 2.880096e-11 -6.838463e-11
-3.504034e-09 1.576490e-09 6.635847e-10 5.088658e-10 5.511192e-11 -8.987244e-11
-3.270002e-09 1.414518e-09 6.699850e-10 9.031687e-10 2.083311e-11 1.153372e-11
-9.187349e-09 3.726997e-09 5.803069e-10 -4.654259e-10 -1.633049e-09 -2.131548e-10
-9.085818e-09 1.751292e-09 1.976792e-10 -9.758327e-10 -4.466911e-10 -3.285968e-10
-6.746541e-09 -2.712802e-09 4.788827e-10 -5.506598e-09 -3.624580e-09 -9.141468e-10
-9.187357e-09 2.436213e-09 5.209562e-10 -7.231863e-10 -1.302793e-09 -1.831832e-10
-3.617381e-09 1.271170e-09 7.069056e-10 5.728573e-10 -2.717526e-11 5.098894e-12
-3.172353e-09 1.616674e-09 5.385852e-10 4.130166e-10 2.656678e-11 -1.912448e-11
7.165687e-09 -2.142762e-08 -1.713749e-10 3.286776e-09 -2.818407e-09 1.255068e-09
-8.535851e-09 1.007901e-09 1.534712e-09 -2.694227e-10 -9.626542e-10 -1.403490e-10
-4.095064e-09 -5.887014e-09 6.015530e-10 -3.441843e-09 -1.746567e-09 -7.039926e-10
7.322498e-09 -1.718117e-08 8.392593e-10 2.004584e-09 -1.409835e-09 -2.561516e-10
-7.341342e-09 9.020294e-09 -5.580983e-09 -1.748471e-09 -2.627044e-09 -1.962032e-09
-9.361644e-09 3.129593e-09 4.264233e-11 -7.073844e-10 -1.194280e-09 -4.183453e-11
8.843891e-09 -1.060180e-08 -1.506154e-08 -1.261012e-08 6.955875e-09 3.002786e-09
-8.675513e-09 1.963079e-09 1.295762e-09 -6.618914e-10 -1.199647e-09 5.687639e-11
-9.136507e-09 5.131597e-09 -1.470640e-09 -2.557446e-09 -3.576168e-09 -9.352623e-10
5.335519e-09 -1.558971e-08 -2.369539e-09 1.890701e-09 -1.062348e-10 3.809375e-10
6.027356e-09 -1.404268e-08 -4.181087e-09 4.840019e-09 -8.325041e-10 4.765891e-10
7.429851e-09 -1.754508e-08 -3.271578e-09 2.519626e-09 1.950327e-10 1.393220e-10
3.726545e-09 -1.328893e-08 -1.321059e-09 2.646742e-09 -2.230171e-09 3.974569e-10
1.848269e-09 -8.839608e-09 -3.272131e-09 4.761503e-09 -1.369829e-09 4.256087e-10
1.840486e-09 -8.828746e-09 -2.479396e-09 4.687027e-09 -5.226546e-10 4.344861e-10
7.585237e-09 -1.647083e-08 -6.005895e-09 -9.250991e-09 3.120139e-09 7.105971e-10
1.166198e-08 -2.015226e-08 -3.915573e-09 -4.211297e-09 2.751858e-09 5.678790e-10
1.023049e-08 -2.040018e-08 -6.478040e-09 -4.651080e-09 -4.727485e-11 7.264633e-11
1.000131e-08 -2.059992e-08 -2.369042e-09 -5.028511e-09 3.163058e-09 4.197744e-10
1.000131e-08 -2.077894e-08 -3.380048e-09 -5.231507e-09 2.548398e-09 2.258511e-10
9.755185e-09 -1.611867e-08 -8.581382e-09 -8.386655e-09 2.184983e-09 4.097006e-10
-3.865457e-09 5.194911e-10 1.039164e-09 4.373968e-11 5.645140e-11 -2.258480e-10
9.755186e-09 -1.562396e-08 -1.134456e-08 -8.576652e-09 8.034333e-10 2.451986e-10
-3.825193e-09 -4.583018e-10 1.396857e-09 -1.501301e-10 -1.673939e-10 -5.240852e-11
-3.996310e-09 1.128713e-09 9.793022e-10 1.377201e-10 2.059131e-11 -1.881397e-10
9.356706e-09 -1.723765e-08 -7.795856e-09 -9.619394e-09 4.302857e-09 1.020621e-09
1.325669e-08 -2.194948e-08 -8.158166e-09 1.199679e-09 -3.553047e-11 -1.105536e-10
1.372580e-08 -2.083145e-08 -9.818871e-09 -4.139768e-09 4.908434e-09 3.868987e-10
6.913655e-09 -9.465938e-09 -1.352790e-08 -1.211794e-08 1.710609e-09 5.064681e-10
-3.884322e-09 2.139908e-09 5.266922e-10 3.507861e-11 3.212564e-11 -3.736278e-11
-3.258481e-09 1.861103e-09 4.147416e-10 1.500331e-10 2.241485e-11 6.629230e-11
-3.925837e-09 1.979764e-09 6.196039e-10 1.181996e-10 -7.082335e-12 -1.639386e-11
3.573085e-09 -1.466256e-08 3.215958e-09 -1.030258e-10 7.611245e-11 -2.485228e-10
-3.921816e-09 1.963411e-09 6.235941e-10 7.012584e-12 -1.150768e-11 1.630786e-11
-4.038640e-09 1.941324e-09 6.007699e-10 1.109157e-11 -1.773592e-11 -1.038931e-10
-3.969532e-09 1.980728e-09 6.301291e-10 2.165579e-11 6.075584e-12 -1.528122e-11
-4.037774e-09 1.682487e-09 7.335248e-10 3.098622e-10 7.344614e-11 -1.338196e-10
-3.757086e-09 1.820741e-09 6.108598e-10 1.026172e-10 4.107825e-12 -1.725925e-12
-4.099656e-09 1.709228e-09 7.986722e-10 9.473577e-11 1.594280e-13 -1.007152e-10
-4.035130e-09 1.417909e-09 8.093490e-10 -8.265855e-11 1.142308e-11 -2.158108e-10
-4.064534e-09 2.132769e-09 5.904979e-10 7.268408e-11 3.428591e-11 -5.066314e-11
-4.086334e-09 1.806075e-09 6.802685e-10 9.554490e-11 3.272804e-11 -8.612244e-11
-4.034816e-09 2.008207e-09 6.337917e-10 7.501844e-11 1.503908e-11 -4.646197e-11
-3.883886e-09 1.965225e-09 6.124745e-10 1.193617e-10 1.117018e-11 -7.562145e-12
-3.271018e-09 1.831297e-09 4.324692e-10 7.851585e-11 6.501388e-11 5.668292e-11
1.580473e-08 -1.923412e-08 -1.638755e-08 -2.395536e-09 1.125284e-09 1.540343e-11
5.312698e-09 -3.071659e-09 -6.556247e-10 -2.306161e-10 -7.536016e-11 5.436007e-11
-3.956570e-09 2.111177e-09 5.730625e-10 1.947820e-11 1.281486e-11 -2.540501e-11
1.193057e-08 -2.262900e-08 -7.907163e-09 2.086842e-10 4.817322e-10 3.666734e-10
5.451502e-09 -3.180308e-09 -8.466734e-10 6.642990e-10 3.569070e-11 1.707012e-11
6.202253e-09 -3.339409e-09 -7.077032e-10 2.136973e-10 -1.069389e-11 -4.902256e-11
1.162915e-08 -2.094535e-08 -8.722861e-09 -4.812787e-09 4.668645e-09 7.049031e-10
-3.406388e-09 2.789770e-09 1.852491e-10 -4.134293e-11 -3.429057e-11 -3.641865e-11
7.598950e-09 -1.643688e-08 -7.514907e-09 -9.229178e-09 2.219900e-09 2.197071e-10
-3.319759e-09 2.720610e-09 1.917178e-10 -2.250600e-11 -7.107981e-12 -3.982992e-11
1.140329e-08 -2.201722e-08 -2.429798e-09 3.940770e-09 2.643949e-09 -4.527352e-10
1.070417e-08 -2.118608e-08 -1.044303e-09 -1.049571e-09 9.764816e-10 -2.271202e-10
1.070491e-08 -2.295053e-08 -5.046259e-09 -1.002180e-09 1.696807e-09 -2.734259e-10
1.011495e-08 -2.256607e-08 -5.697851e-10 1.490306e-09 7.639542e-10 -2.415768e-10
-3.406386e-09 2.787957e-09 1.830143e-10 2.582208e-21 -3.632306e-11 3.355760e-12
1.011495e-08 -2.179362e-08 4.820402e-10 1.198062e-09 1.723036e-09 -4.804710e-10
9.915775e-09 -2.212248e-08 -9.857111e-10 1.767738e-09 1.501756e-09 1.394062e-11
1.074136e-08 -2.220015e-08 -2.688024e-09 3.021939e-09 -4.419163e-10 -4.964829e-11
2.307472e-09 -4.521912e-10 -4.449410e-10 -3.080707e-09 -1.506248e-10 2.185440e-10
2.610229e-09 -7.850272e-10 -5.124363e-10 -2.801650e-09 -1.247440e-10 1.363422e-10
-2.313127e-09 2.149394e-09 9.926371e-11 -4.624832e-10 -2.646494e-11 -4.347767e-11
-3.317164e-09 2.793833e-09 2.008527e-10 -4.754996e-11 -1.881739e-11 -3.759715e-11
-3.203653e-09 2.541714e-09 2.642899e-10 -5.670828e-10 -6.379097e-11 -1.166930e-10
2.922176e-09 -1.016689e-09 -5.739231e-10 -2.322021e-09 -2.367839e-11 -2.551683e-10
3.676971e-09 -1.784689e-09 -6.067642e-10 -2.373361e-09 -2.298350e-11 6.024292e-11
6.048216e-09 -2.201951e-08 1.013888e-09 6.032237e-09 -4.220631e-09 1.353730e-09
7.162653e-10 2.188800e-10 -3.371339e-10 -2.625385e-09 -2.105864e-10 8.085066e-11
1.115275e-08 -2.306984e-08 -2.364625e-09 1.377127e-10 -9.749170e-10 2.981577e-10
1.785360e-09 -9.958343e-09 -1.054631e-09 2.030540e-09 -3.773790e-10 3.587600e-10
-7.104647e-10 -9.073760e-09 1.540160e-09 4.900744e-09 -2.755794e-09 7.469397e-10
1.546502e-09 -2.567446e-11 -4.077418e-10 -2.181360e-09 6.812321e-11 -1.285860e-10
2.254231e-09 -2.825038e-10 -4.654774e-10 -3.064539e-09 8.913981e-11 -1.230358e-10
-2.256519e-09 -5.183148e-09 -1.049378e-09 2.881563e-09 -1.225010e-09 7.996581e-10
4.674357e-09 -8.918269e-09 -8.676468e-09 5.778074e-09 -3.532089e-09 1.594426e-09
3.213490e-09 -8.699244e-09 -9.054244e-09 6.292304e-09 -5.478359e-09 2.095004e-09
1.052155e-08 -1.114020e-08 -1.694412e-08 4.314687e-09 -2.510242e-09 3.499090e-10
8.514025e-09 -1.086693e-08 -1.317372e-08 4.603706e-09 -2.018591e-09 6.872744e-10
8.502740e-09 -1.314799e-08 -1.265420e-08 6.249993e-09 -6.469093e-09 2.256097e-09
-5.212135e-09 2.961498e-09 -3.078461e-09 3.847001e-10 -1.695724e-09 5.878333e-10
-4.511058e-10 3.843361e-10 -2.765788e-12 4.355298e-10 2.144077e-10 2.031375e-12
8.365806e-10 -2.735394e-10 -1.974585e-10 3.056572e-11 5.831996e-11 6.252510e-11
-4.076721e-10 3.843668e-10 3.581890e-11 4.581889e-10 2.293045e-10 1.739575e-11
5.244151e-09 -1.073646e-08 -1.317667e-08 7.729213e-09 -6.769915e-09 3.598959e-09
5.038418e-09 -3.590221e-10 -1.719393e-08 5.095924e-09 -1.996443e-09 1.358167e-09
6.091308e-09 2.311043e-09 -2.556751e-08 6.064849e-09 -1.287051e-08 7.612476e-09
1.052155e-08 -2.973888e-09 -2.389317e-08 3.817733e-09 -3.146872e-09 7.447358e-10
-8.316213e-09 4.479013e-09 3.823484e-10 1.509400e-09 2.212701e-09 -2.989076e-10
1.049796e-08 -9.807615e-09 -1.899388e-08 6.096711e-09 -1.041678e-08 3.684318e-09
1.683357e-08 -1.603734e-08 -2.209172e-08 8.697990e-09 7.324182e-09 -3.487634e-11
-8.026528e-09 2.371424e-09 -1.814248e-09 9.246982e-09 4.159385e-09 -2.390317e-09
1.531913e-08 -2.055795e-08 -1.654883e-08 5.292110e-09 1.051405e-08 -3.500879e-10
1.579001e-08 -2.177802e-08 -1.601973e-08 -2.793907e-09 9.780918e-09 9.621397e-10
-5.786701e-09 -2.392694e-09 1.915708e-09 4.579231e-09 6.003633e-10 1.601936e-10
-8.094137e-09 1.303962e-09 9.749206e-10 1.440986e-09 2.291542e-09 -1.278316e-10
-8.804293e-09 3.807245e-09 4.223342e-10 5.332798e-09 2.691016e-09 -8.159153e-10
-8.562605e-09 2.318751e-09 7.618572e-10 5.430537e-09 2.830385e-09 -8.669534e-10
1.789802e-08 -1.850179e-08 -1.869247e-08 -7.899267e-10 8.178659e-09 3.154569e-10
1.534299e-08 -1.680210e-08 -1.653467e-08 5.762059e-09 1.148128e-09 -6.641558e-10
-8.007831e-09 2.370211e-09 -3.917733e-11 9.258471e-09 4.647009e-09 -1.986574e-09
-8.469827e-09 5.952381e-09 -1.249608e-09 1.780796e-09 6.877603e-10 -1.420974e-10
1.412709e-08 -1.842353e-08 -1.728422e-08 3.869851e-09 2.909009e-09 3.166281e-10
-1.144802e-09 6.677729e-09 -2.807391e-09 -8.151968e-10 -3.098526e-09 -6.686234e-10
1.372602e-08 -1.953717e-08 -1.520455e-08 -3.201650e-09 1.194362e-09 4.794387e-10
1.800965e-08 -1.781694e-09 -3.220055e-09 7.959750e-09 -8.861870e-11 -5.248320e-10
1.522775e-09 5.764395e-09 -5.026877e-09 -3.562528e-11 -2.229915e-09 -3.560334e-10
7.586060e-09 2.158835e-09 -3.732003e-09 -7.090883e-10 -2.407017e-09 -2.825676e-10
5.027323e-09 -1.128790e-08 -7.996502e-09 -1.203624e-08 3.908979e-09 1.734440e-09
1.887983e-10 7.185301e-10 -1.544560e-10 -2.101230e-09 -1.214722e-10 1.752980e-10
2.254286e-08 -5.952231e-09 -3.830833e-09 7.203287e-10 7.471990e-11 1.109058e-09
1.438034e-09 -2.575185e-10 -3.702096e-10 -1.100586e-10 -1.072695e-10 4.027667e-12
2.164006e-09 -6.462531e-10 -3.984302e-10 -1.083150e-09 2.433416e-11 -3.536820e-10
3.565299e-09 -1.527986e-09 -5.884813e-10 -1.490938e-09 1.230216e-11 4.386624e-11
2.652787e-09 -1.223066e-09 -5.397101e-10 -1.633905e-09 -5.506817e-11 8.837020e-11
-5.712355e-10 1.347644e-09 -1.733094e-10 -4.783836e-10 -1.364420e-11 -6.645262e-11
2.855873e-08 -1.110863e-08 2.616717e-09 2.809613e-09 2.304002e-11 2.429932e-09
1.077072e-08 1.690275e-09 -4.376724e-09 2.516939e-09 -1.669142e-09 -1.738419e-09
1.516688e-09 -2.575192e-10 -3.887513e-10 -1.157418e-10 -8.496786e-11 -1.479283e-10
4.543512e-10 -1.332925e-08 1.692450e-09 -1.535319e-09 -1.465815e-09 -8.786467e-10
-1.892818e-09 -9.822994e-09 1.779169e-09 -6.504529e-09 -2.958025e-09 -7.897339e-10
1.193762e-09 -5.288303e-11 -3.236686e-10 -5.252556e-10 -8.809175e-12 -2.258189e-10
2.227396e-09 -6.729220e-09 -7.237386e-09 -5.470452e-09 -1.787749e-09 -1.619784e-10
2.227397e-09 -1.055561e-08 -3.488713e-09 -4.737120e-09 5.706457e-10 3.287344e-10
6.373359e-09 -1.979734e-08 3.611687e-09 9.511346e-10 2.612849e-10 -3.242192e-11
4.634855e-09 -1.785014e-08 3.808091e-09 6.251217e-10 4.892207e-10 7.732903e-11
-2.136565e-09 1.479745e-08 -3.771386e-09 -7.032401e-09 2.121149e-09 -3.049784e-09
7.800280e-10 7.122487e-09 -1.291498e-09 -4.685327e-09 1.076152e-09 1.319209e-09
3.421653e-09 -1.499442e-08 2.794840e-09 -2.622818e-09 3.668756e-10 -3.695846e-10
4.436651e-09 -1.558166e-08 2.892340e-09 -4.336077e-09 5.048986e-10 -1.127119e-10
3.648968e-09 -1.394493e-08 2.780063e-09 -3.117978e-09 5.836214e-10 -4.524690e-10
5.677407e-09 -1.781357e-08 3.447546e-09 -5.512626e-10 -7.811307e-11 -1.753946e-10
5.162074e-09 -1.853759e-08 3.763934e-09 3.686988e-10 8.077583e-11 2.766169e-10
4.999553e-09 -1.842297e-08 3.842272e-09 9.233747e-10 -3.235019e-10 -4.264367e-12
-2.024565e-09 1.800821e-09 3.499623e-11 -1.258543e-09 -4.729150e-11 -1.156475e-10
-1.373532e-09 1.560117e-09 8.635981e-12 -1.304511e-09 -1.815956e-10 4.599021e-11
-1.987462e-09 6.587210e-09 -2.613835e-09 -4.563891e-10 6.685956e-10 7.096210e-10
-4.059561e-09 9.720830e-09 -4.213528e-09 -1.538615e-09 6.816010e-10 -9.107386e-10
2.607152e-09 7.946421e-09 -2.685232e-09 -5.492032e-09 8.120580e-10 -1.365581e-09
-2.979348e-09 2.269943e-09 2.826832e-10 -1.095046e-09 -1.273488e-10 -1.748688e-10
-4.103661e-09 2.701698e-09 4.034335e-10 -1.671738e-10 -6.104631e-12 -1.170727e-10
-3.639870e-09 2.392740e-09 3.331984e-10 -1.277197e-09 -1.110368e-10 -1.640429e-10
-8.702475e-09 2.267692e-09 8.300267e-10 1.133228e-09 1.062601e-09 -1.011817e-10
4.379965e-09 -1.564105e-08 2.267075e-09 -3.060165e-09 3.558558e-10 -3.639533e-11
3.261726e-09 -1.378381e-08 2.889876e-09 -2.373425e-09 -2.274502e-10 -5.570510e-10
-2.848207e-09 -3.784153e-09 5.038636e-11 1.347191e-09 -6.386165e-10 -8.951085e-11
-4.918550e-09 2.765965e-11 1.004900e-09 6.002781e-10 -7.349121e-10 -5.995737e-11
6.467294e-09 -1.842011e-08 3.203485e-09 -1.701579e-09 -5.514651e-10 4.033664e-12
-4.918551e-09 2.798153e-10 1.070273e-10 5.464244e-10 -1.146486e-09 1.623105e-10
3.975096e-09 -2.061414e-09 -5.456982e-10 6.459305e-10 1.538829e-10 1.894293e-11
4.186166e-09 -2.360556e-09 -5.957066e-10 5.355855e-11 1.569281e-10 -1.472700e-11
5.232710e-09 -3.029280e-09 -6.884884e-10 7.083294e-11 -5.215675e-12 3.039702e-11
5.268347e-09 -3.081327e-09 -7.040266e-10 5.022716e-11 -1.064321e-11 2.949779e-11
4.119824e-09 -1.963035e-09 -6.219629e-10 -6.852741e-10 -1.483798e-10 6.515599e-11
-3.983015e-09 2.180967e-09 5.472622e-10 -8.881789e-16 1.396949e-11 -1.722111e-11
4.873991e-09 -2.334368e-09 -2.979776e-10 2.710876e-09 -1.180449e-10 -1.186775e-10
5.089753e-09 -3.060247e-09 -6.460020e-10 4.493242e-10 6.915735e-11 8.977641e-11
5.060686e-09 -2.616438e-09 -6.552660e-10 4.984168e-10 8.193959e-11 7.296164e-11
-1.683695e-08 3.920969e-08 9.251120e-09 2.226276e-09 -1.543756e-08 2.399602e-08
-3.947299e-09 2.175081e-09 5.004281e-10 5.332623e-12 3.250644e-11 -3.397238e-11
4.338133e-09 -2.107809e-09 -6.030798e-10 1.028252e-09 2.054475e-10 6.887335e-11
4.674703e-09 -2.625765e-09 -6.463483e-10 2.040689e-10 7.721079e-11 -1.174214e-10
5.002759e-09 -2.673551e-09 -6.622574e-10 1.938277e-11 1.048502e-10 -1.599165e-12
5.301235e-09 -2.334368e-09 -1.602944e-10 2.759364e-09 -1.453930e-10 -3.612199e-10
1.898346e-09 8.624923e-11 1.489546e-10 3.944912e-09 -1.661560e-10 -2.306626e-10
1.572570e-09 -2.821027e-11 2.546829e-10 3.939779e-09 1.895988e-10 -1.161862e-10
4.186166e-09 -2.371762e-09 -5.588701e-10 3.895950e-11 2.052369e-11 -1.276690e-11
1.064367e-09 9.100658e-10 3.046097e-10 4.230039e-09 2.704865e-10 2.773088e-10
3.064657e-09 -4.489617e-10 2.403331e-10 4.524018e-09 -9.902576e-11 -4.834042e-10
1.888925e-09 -7.375043e-10 -3.430141e-10 1.829475e-09 3.050987e-10 5.047041e-11
3.473533e-09 -1.930253e-09 -5.103677e-10 1.096788e-10 4.944689e-11 -8.288115e-11
5.354961e-09 -2.961463e-09 -7.542393e-10 1.002995e-11 -1.498987e-11 4.776846e-12
1.575205e-09 -7.773675e-10 -2.644818e-10 1.191599e-09 1.943528e-10 -3.113357e-11
1.622547e-09 -9.792629e-10 -3.076783e-10 9.196053e-10 8.818768e-11 -9.091750e-11
3.777483e-09 -1.346127e-09 2.395568e-10 4.005254e-09 2.080623e-10 1.923262e-11
2.591976e-09 -5.721800e-10 -5.877787e-11 3.639013e-09 -6.164436e-11 -2.578355e-10
3.958456e-09 -2.077555e-09 -5.069003e-10 3.517397e-10 1.536491e-10 1.968239e-10
1.219385e-08 5.516454e-09 -4.336369e-08 1.521603e-08 6.583380e-09 -5.700208e-09
3.792030e-09 -2.042052e-09 -5.127028e-10 9.735263e-10 3.275136e-11 -2.301881e-10
1.276511e-09 -6.922805e-10 -2.590523e-10 3.986543e-10 1.218562e-10 6.918743e-11
3.278767e-09 -1.784158e-09 -4.441660e-10 5.317693e-10 1.780178e-10 7.459822e-11
3.234793e-09 -1.192017e-09 -3.831602e-11 3.203583e-09 -1.065686e-10 -2.973031e-10
3.774330e-09 -1.698360e-09 -1.316032e-10 2.833201e-09 -3.039491e-11 -4.956883e-10
-1.447495e-09 1.600453e-09 -3.942957e-11 -1.582552e-10 -9.284462e-11 4.729206e-11
-3.286256e-09 -1.762703e-09 1.612815e-09 1.277169e-10 1.981160e-10 -1.998319e-10
-4.061787e-09 2.579133e-09 4.702887e-10 -1.299556e-10 -3.677270e-11 -3.288348e-10
-2.040964e-09 -4.702974e-09 2.088447e-09 -9.582014e-10 -1.520906e-10 -3.647762e-10
-1.975220e-09 -4.539734e-09 2.022307e-09 -4.770798e-10 5.629068e-10 -3.150101e-10
-3.320157e-09 -2.016642e-09 1.711558e-09 -1.038537e-09 -7.549999e-11 -1.675275e-10
-4.200730e-09 2.547370e-09 5.208607e-10 -2.329991e-10 -1.998135e-11 -2.226169e-10
-2.335322e-09 -3.623479e-09 2.044373e-09 -9.023536e-10 2.387954e-10 -1.373455e-10
-2.035677e-09 -5.272828e-09 2.203618e-09 -8.966557e-10 -5.592230e-10 -3.783660e-10
-3.984987e-09 2.682864e-09 4.257084e-10 -2.533822e-10 -4.955658e-11 -2.402455e-10
-4.200547e-09 2.547370e-09 4.730183e-10 -2.449108e-10 -2.651435e-11 -2.661766e-10
-4.818395e-09 2.004104e-09 7.892593e-10 -3.921654e-10 -8.881390e-16 -5.027490e-11
-2.091916e-09 -3.619201e-09 2.199479e-09 -7.521211e-10 -1.645347e-10 -3.550815e-10
-3.676591e-10 -7.669211e-09 2.104993e-09 -3.367811e-09 3.355598e-10 -4.205397e-11
-3.234285e-09 -1.671969e-09 1.884492e-09 -1.209277e-09 -1.437731e-10 -4.026582e-10
1.071282e-08 -2.734331e-08 3.260521e-09 -1.788662e-09 -3.503422e-09 8.309755e-11
-1.924511e-09 -5.084844e-09 2.092913e-09 -1.994138e-09 8.122325e-11 -3.939071e-10
1.693906e-08 -4.234254e-09 -3.725050e-09 2.795498e-09 2.775178e-10 -2.881464e-10
9.849773e-09 -2.076342e-08 -2.955357e-09 -4.338818e-10 -4.439342e-16 -1.786391e-10
2.682402e-08 -1.102618e-08 -8.874662e-10 -2.684377e-09 1.432819e-10 7.699061e-10
1.144095e-08 -6.465372e-09 -2.431779e-08 -1.147331e-08 3.188647e-09 9.178211e-10
4.379730e-09 -1.027030e-08 -6.792882e-09 -5.278849e-09 -4.540107e-09 -1.660557e-09
2.066196e-08 -6.372016e-09 -1.121872e-09 -3.081269e-09 6.503123e-12 1.885466e-09
4.228269e-09 -1.603701e-08 -7.759531e-10 -4.772458e-10 -6.960275e-10 -4.441050e-10
5.216536e-09 -1.427001e-08 -6.260310e-09 -8.697817e-09 -7.630515e-09 -2.348706e-09
-7.902110e-09 -6.848087e-10 4.552603e-10 -1.119385e-09 -5.053291e-11 -1.437659e-10
-2.830790e-09 -5.128786e-09 -1.363334e-10 2.917616e-09 -1.448519e-09 7.109981e-10
-1.053567e-09 -6.994635e-09 -1.444267e-10 1.476313e-09 -4.305334e-11 5.796363e-11
9.523351e-10 -1.129801e-08 1.981142e-09 7.904836e-10 3.869726e-11 -3.149782e-10
2.067902e-09 -1.308561e-08 6.223346e-10 2.123229e-10 -6.058336e-10 1.710583e-10
1.409439e-08 -1.278280e-09 5.602039e-09 -1.352039e-08 1.329102e-09 -1.290174e-09
2.297698e-08 -8.081489e-09 6.942180e-10 -6.875177e-09 5.948762e-10 1.334513e-09
7.904966e-10 -1.247185e-08 3.327164e-09 3.256306e-09 -1.465489e-12 3.242450e-10
-4.000336e-09 -1.041196e-09 4.861658e-10 6.452873e-10 -2.641377e-10 1.701929e-10
1.352129e-09 -9.697084e-09 1.289938e-09 5.254201e-09 -2.002046e-09 1.309882e-09
-4.592856e-09 3.963910e-09 -4.950116e-09 5.720199e-10 -8.338070e-10 7.083554e-10
3.934525e-09 -1.321072e-09 7.519052e-11 3.903790e-09 -1.407281e-10 -3.286098e-10
-4.009735e-09 -2.461316e-09 1.160583e-09 7.118290e-10 -4.746008e-10 -1.543776e-11
-4.927937e-09 7.373062e-10 8.631191e-10 1.921842e-10 -8.196254e-10 -2.037832e-10
1.368579e-09 -1.124244e-08 3.232168e-10 4.779333e-09 -3.247638e-09 1.004901e-09
-4.923368e-09 2.121106e-09 -8.651293e-10 -5.991177e-10 -3.712231e-10 2.724083e-10
-4.073554e-09 -8.008627e-09 3.570618e-09 2.203128e-09 1.253997e-10 -2.765093e-10
-2.762703e-09 -5.826637e-09 1.312124e-09 3.105285e-09 -1.819498e-09 -3.247947e-11
-5.301730e-09 2.722913e-09 -1.742865e-09 2.252947e-10 -1.122073e-09 1.080100e-09
-4.049937e-09 -5.152703e-09 2.122576e-09 5.427990e-09 4.983655e-10 -2.496048e-10
-2.222377e-09 1.154697e-09 6.104557e-10 1.165687e-09 1.030171e-10 -4.234333e-10
-3.139301e-09 1.064953e-09 6.807781e-10 5.716991e-10 -1.378209e-11 -1.387677e-10
-1.563763e-09 -1.109767e-08 3.206715e-09 4.575904e-09 1.161975e-10 5.158452e-11
-1.961286e-09 -8.358017e-09 2.921710e-09 6.120645e-09 -3.946040e-10 -2.098353e-10
-3.421002e-09 -9.143087e-09 3.464257e-09 1.952170e-09 4.698575e-11 -1.239719e-11
3.780235e-09 -1.697209e-09 -1.169544e-10 2.835967e-09 1.699030e-10 1.469265e-10
-4.818903e-09 1.595107e-09 5.563749e-10 -2.540992e-09 6.230310e-10 2.150555e-10
4.044156e-09 -2.233097e-09 -4.946756e-10 1.692640e-09 3.567296e-11 -1.642247e-11
2.497337e-09 -1.007439e-09 -1.519984e-10 2.420376e-09 -5.800693e-11 -2.118550e-10
-3.556622e-09 1.109522e-09 8.232286e-10 4.569893e-10 -1.494405e-10 -1.588529e-11
6.367516e-09 -1.728571e-08 -2.041217e-09 -2.733533e-09 -1.393161e-09 -2.680598e-10
5.031723e-09 -2.083448e-10 6.792629e-10 -7.273618e-09 -1.520635e-10 -4.190270e-10
-3.230024e-09 1.859104e-09 6.560956e-10 1.300355e-09 4.166645e-11 -1.740138e-10
-9.508194e-10 9.971552e-10 4.232694e-10 3.031391e-09 2.663578e-10 -1.683929e-10
-3.069731e-09 1.866511e-09 6.051635e-10 1.662399e-09 -4.968271e-11 -3.951293e-10
-1.247158e-09 1.379192e-09 3.726779e-10 2.451503e-09 2.224139e-10 -2.941569e-11
1.456417e-08 -2.106899e-08 -1.011169e-08 1.487032e-10 -5.518741e-09 4.488232e-10
6.766365e-10 -8.124705e-09 2.062046e-09 -4.374259e-09 2.425614e-10 -5.207840e-11
-2.341393e-09 -5.051994e-09 1.957479e-09 -2.189031e-09 2.693709e-10 -1.287384e-10
-4.187272e-09 1.552949e-10 9.157031e-10 -3.438550e-09 1.685865e-10 -5.049603e-10
-5.157612e-09 -1.674984e-09 7.767706e-10 -5.321681e-09 2.650085e-10 2.275482e-10
1.213381e-08 -2.248891e-08 -4.343571e-09 -4.504775e-11 -6.070202e-10 -1.196332e-11
1.173350e-08 -2.280406e-08 -3.866381e-09 -5.144165e-10 -8.105739e-11 4.461609e-10
-4.130289e-09 -6.244494e-10 1.320902e-09 -2.566461e-09 2.242999e-10 -3.095080e-11
4.202631e-09 -1.409681e-08 2.816570e-09 -3.615869e-09 -2.812554e-10 -2.080413e-11
1.128540e-08 -2.197500e-08 -4.814358e-09 -1.151055e-09 -5.318017e-10 -2.649907e-10
1.038118e-08 -1.872928e-08 -5.492044e-09 -3.579323e-09 -1.317108e-09 2.174221e-10
-4.389542e-09 1.650950e-08 1.878388e-08 -2.189143e-08 -2.025452e-11 1.110135e-09
-8.203613e-09 1.644140e-08 -1.141245e-08 7.028080e-09 2.654504e-09 -2.021935e-09
-1.279659e-08 1.795975e-08 -1.517758e-08 1.049198e-08 5.701249e-09 -8.010678e-09
1.238476e-08 -5.854685e-09 5.803613e-09 3.270535e-10 3.385449e-10 -3.710917e-09
1.253041e-08 -2.018116e-08 -8.543544e-09 -3.561358e-09 -1.761287e-09 -3.158207e-11
9.268934e-09 -3.921215e-09 2.526397e-10 1.749407e-09 1.991832e-10 -4.623200e-10
7.583220e-09 -4.068512e-09 2.894509e-09 3.454509e-09 -1.143929e-10 -8.962164e-10
-3.939855e-09 -1.438828e-09 1.166290e-09 4.415609e-10 -1.314071e-10 -1.194618e-10
9.307195e-09 -5.100419e-09 1.753246e-09 1.393435e-09 -1.563981e-10 -5.742847e-10
-2.523114e-09 -5.921985e-09 1.158388e-09 3.198045e-09 -2.296048e-09 1.465620e-10
-4.799360e-09 4.992629e-11 1.057190e-09 -2.651115e-10 -6.607159e-11 -2.580562e-10
8.729252e-09 -4.491419e-09 5.007115e-10 1.076804e-09 1.480879e-10 -7.757706e-10
8.441583e-09 -4.698556e-09 -8.629475e-11 -1.053135e-09 -3.445304e-11 -4.239180e-10
1.047270e-08 -4.694048e-09 1.231514e-09 -8.776742e-10 2.575684e-11 -8.651659e-10
-4.548571e-09 -7.279608e-10 9.212742e-10 -1.351685e-10 -4.450407e-11 -8.813128e-11
9.981358e-09 -1.779063e-08 -6.215623e-09 3.901203e-09 -1.288682e-09 6.432939e-10
-3.495506e-09 6.923173e-11 -2.314047e-09 -6.886492e-09 1.135590e-09 8.609287e-10
-8.109979e-09 2.574295e-09 -1.671591e-10 -5.415180e-09 7.441302e-10 8.909902e-10
2.835642e-09 6.725478e-09 -2.472242e-08 -1.554472e-08 5.441284e-09 4.828510e-09
2.723457e-09 5.387008e-09 -1.978086e-08 -1.446416e-08 6.695724e-09 5.972187e-09
4.492570e-09 -1.334327e-08 -1.861164e-09 2.607614e-09 -2.053785e-09 3.638077e-10
-7.940032e-10 -2.069975e-09 -1.475814e-08 -1.659531e-08 1.011899e-08 5.993402e-09
4.380064e-09 -1.607558e-08 2.869343e-10 1.876567e-09 5.413700e-10 4.560160e-10
1.269005e-08 -2.446767e-08 -8.174378e-09 -6.345905e-09 -1.163549e-08 -2.646595e-09
9.399611e-09 -6.045605e-09 3.159162e-09 -4.691301e-10 3.178659e-10 -1.901723e-09
8.184962e-09 -5.650329e-09 5.917508e-09 3.229310e-09 3.097571e-11 -1.232670e-09
6.010629e-09 -6.282490e-09 9.669656e-09 6.867067e-10 4.590978e-10 -2.219733e-09
8.771129e-09 -5.686086e-09 1.024244e-08 3.577351e-09 5.396235e-10 -6.318259e-10
1.055578e-08 -2.946233e-08 2.396691e-09 1.903345e-09 -4.641811e-09 3.033403e-10
1.148955e-08 -4.957503e-09 2.492168e-09 -1.726061e-09 2.743035e-10 -2.015233e-09
1.179951e-08 -5.077044e-09 3.607252e-09 2.001345e-09 1.667924e-10 -1.336813e-09
1.163640e-08 -2.560561e-08 1.632561e-10 -4.038978e-10 -1.869410e-09 2.782072e-10
3.319363e-09 -1.192018e-09 -1.519975e-10 3.136070e-09 -5.208056e-11 -2.610014e-10
1.072994e-08 -6.094299e-09 5.391229e-09 -1.877594e-09 5.447432e-10 -1.581007e-09
9.868835e-09 -5.854685e-09 2.520293e-09 9.371851e-11 1.620691e-10 -1.492125e-09
9.577064e-09 -4.024827e-09 5.525376e-10 -2.430851e-09 4.734502e-11 -8.099073e-10
1.017593e-08 -4.788218e-09 6.648425e-09 4.076567e-09 1.222542e-10 -2.342782e-09
4.768567e-09 -1.958216e-09 6.684473e-09 7.063080e-09 -6.676814e-10 -1.919947e-09
1.029832e-08 -6.347263e-09 7.753331e-09 -2.249521e-09 1.684964e-10 -3.195252e-09
8.336956e-09 -2.445565e-08 2.962406e-09 2.374040e-09 -3.131569e-09 1.301076e-10
1.042695e-08 -5.558385e-09 3.574991e-09 1.137287e-09 -1.829883e-10 -1.765668e-09
6.882789e-09 -2.022352e-08 1.844841e-09 1.453486e-09 -1.208246e-09 4.164240e-10
6.918346e-09 -2.010910e-08 1.221134e-09 1.257844e-09 3.196863e-10 3.111443e-10
8.402607e-09 -2.227592e-08 -3.676554e-10 4.025737e-09 -3.594557e-09 8.260921e-10
3.273651e-09 5.258002e-10 3.707655e-08 -1.667109e-08 1.425344e-08 -1.503110e-08
-2.874422e-08 -1.770013e-08 8.446164e-08 -3.275250e-09 3.681749e-09 -1.369108e-08
7.000800e-09 -1.357389e-08 -7.592145e-09 4.007541e-09 -1.755716e-09 2.566184e-10
-5.060452e-09 -6.711392e-09 5.626012e-08 -1.496307e-08 -4.228597e-09 -5.949243e-09
7.181610e-09 -2.085503e-08 2.652466e-09 2.139532e-09 7.360030e-10 -9.376394e-11
9.005952e-09 -1.346648e-08 -1.212445e-08 5.860918e-09 -4.177665e-09 1.142307e-09
3.006023e-09 -1.349958e-08 1.066897e-09 -5.073077e-09 1.411513e-09 4.812625e-11
8.294063e-10 -9.808803e-09 2.308592e-09 -3.886153e-09 -4.163736e-10 -2.463300e-10
2.123121e-09 -1.174365e-08 2.176989e-09 -4.540768e-09 2.397902e-10 -1.815217e-10
-1.258749e-09 -9.888879e-10 2.197704e-08 -1.016286e-08 1.512826e-10 4.385470e-10
1.058286e-08 -1.958275e-08 -3.868384e-09 2.574176e-09 -1.160286e-09 -2.615124e-10
-7.165330e-09 -1.504694e-09 1.988351e-09 1.555566e-09 7.210643e-10 -1.845737e-10
-7.555349e-09 -1.434561e-09 2.008297e-09 1.312075e-09 6.092558e-10 -4.389438e-10
-8.056979e-09 -9.267618e-10 1.806436e-09 1.260095e-09 5.118537e-10 -9.460344e-11
-7.658303e-09 1.886592e-09 -2.026761e-10 4.598608e-09 1.546139e-09 -5.059941e-10
2.025535e-09 -6.668541e-10 -4.482632e-10 -1.584848e-10 7.587753e-11 4.440652e-16
-8.992906e-09 4.790712e-09 -1.082933e-09 5.238736e-09 7.227514e-10 -7.814433e-10
-7.797203e-09 -1.457889e-09 1.875152e-09 1.496533e-09 6.671019e-10 2.354803e-10
-1.010675e-09 1.003668e-08 -2.296646e-09 -4.096022e-09 2.210649e-09 -3.574879e-10
5.245747e-09 -2.941924e-09 -6.965617e-10 -7.676254e-10 -2.681288e-11 6.537529e-11
-4.049898e-10 -1.212548e-08 3.832350e-09 5.267524e-10 3.515477e-11 1.766658e-10
5.475524e-09 -2.971015e-09 -7.613856e-10 -1.545911e-10 2.257489e-12 -2.144507e-12
-3.476647e-09 -8.119225e-09 3.706579e-09 2.182734e-10 4.193845e-11 4.941381e-12
-3.689669e-09 -8.148946e-09 3.673801e-09 3.704792e-10 -5.386047e-11 9.641221e-11
5.497495e-09 -3.024716e-09 -7.376242e-10 1.825629e-10 1.474455e-11 6.101475e-11
5.646609e-09 -3.014118e-09 -7.467911e-10 2.423773e-10 -1.540949e-11 7.888890e-11
5.616959e-09 -3.230115e-09 -7.452443e-10 -7.140349e-11 -1.860179e-12 7.777001e-11
-2.209200e-09 -5.561501e-09 1.772705e-09 1.176658e-09 -5.966995e-10 -2.161290e-10
-2.969390e-09 -4.164405e-09 9.679288e-10 4.854398e-10 -1.922905e-10 -2.076255e-10
-3.984920e-09 -2.348409e-09 -2.628844e-10 1.825345e-09 -4.535017e-10 1.759959e-11
-1.106896e-09 -1.107433e-08 3.831135e-09 4.256000e-10 -2.092430e-20 -2.458211e-11
-2.937436e-09 -3.467193e-09 1.919088e-09 -1.374424e-09 -1.535895e-10 -2.752516e-10
-3.866206e-09 2.516414e-10 1.296419e-09 -2.228814e-10 3.240475e-11 -1.989071e-10
-3.913920e-09 6.706973e-10 1.119219e-09 -4.849077e-11 -7.517348e-11 -1.718587e-10
-3.873739e-09 -7.660500e-09 3.637446e-09 3.650777e-10 2.644107e-11 1.930609e-20
-3.901179e-09 4.291985e-10 1.300585e-09 6.765888e-11 4.990286e-12 -2.378883e-10
5.242960e-09 -2.422631e-09 -1.746838e-10 2.840887e-09 2.212339e-10 1.449907e-11
-2.899367e-09 -3.373628e-09 1.687794e-09 -1.455852e-09 -3.132729e-10 -2.648235e-10
-3.263916e-09 -1.345882e-09 1.477857e-09 -1.578281e-10 -3.536070e-10 -5.852608e-10
-3.702728e-09 1.832059e-09 5.481433e-10 2.998912e-10 2.475975e-11 -5.230849e-11
-3.994824e-09 1.726015e-09 7.390257e-10 -5.492496e-12 -1.614353e-11 -2.500666e-11
-3.933516e-09 1.748168e-09 7.207812e-10 6.423506e-11 3.712641e-11 -1.346280e-10
-3.904071e-09 1.796048e-09 6.806400e-10 2.788907e-10 -1.159606e-11 -3.806383e-11
-3.962977e-09 1.056950e-09 1.030807e-09 -5.202496e-11 -8.826184e-11 1.114885e-10
-2.403953e-09 -3.959689e-09 1.891510e-09 -2.112000e-09 -2.873919e-10 -6.254426e-10
-3.847509e-09 3.711325e-10 1.205920e-09 5.416800e-11 3.997647e-11 -5.985745e-11
-3.838994e-09 -5.553957e-11 1.131215e-09 -1.144689e-10 5.191247e-11 -2.272527e-10
-3.268459e-09 -8.251303e-09 3.226525e-09 3.434352e-09 6.537509e-11 1.389902e-10
-2.098714e-09 -8.698515e-09 8.293406e-10 8.086058e-09 1.555067e-09 -4.350058e-10
9.326317e-10 -1.364639e-08 2.929863e-09 5.243107e-09 -7.604739e-11 5.750955e-12
-3.985863e-09 1.095366e-09 9.153216e-10 -6.601109e-11 3.220091e-11 -4.988901e-11
-5.636141e-09 -5.304380e-09 2.215925e-09 3.929528e-09 6.961214e-10 -2.861408e-10
-4.563034e-09 -6.796673e-09 2.146309e-09 5.881955e-09 3.647748e-12 -9.543677e-11
2.437501e-10 -1.394249e-08 3.401900e-09 3.698266e-09 4.082501e-10 -7.084272e-11
-5.174736e-09 -6.115425e-09 8.633885e-10 6.881088e-09 1.759707e-09 -3.944376e-10
-3.839094e-09 -2.348499e-10 1.312824e-09 -2.591277e-10 -2.236239e-11 -1.298073e-10
5.515195e-09 -4.406771e-09 -1.687756e-08 -8.672485e-09 -2.562491e-09 -9.597016e-10
-3.974195e-09 9.012737e-10 9.768453e-10 -2.364332e-12 1.001554e-10 -1.191474e-10
1.031415e-08 -2.449743e-08 -1.490381e-10 -1.396743e-09 -1.916807e-09 -2.456830e-10
-3.879260e-09 5.881526e-10 1.082746e-09 -4.176126e-11 1.413794e-10 7.779554e-12
9.343575e-09 -1.840936e-08 -8.695886e-09 -6.780940e-09 -9.753318e-09 -1.989745e-09
3.653121e-09 -9.312632e-09 -7.237386e-09 -7.425632e-09 -1.738466e-09 -1.769438e-10
-3.958661e-09 8.250218e-10 1.006828e-09 -1.107661e-10 -1.211256e-10 -1.538678e-10
-3.837988e-09 -3.667386e-10 1.110978e-09 -4.548530e-10 -1.696025e-10 -2.179579e-10
-3.982162e-09 6.202301e-10 1.065992e-09 -2.224532e-10 -7.887813e-11 -2.238619e-10
-3.935107e-09 7.024568e-10 1.143499e-09 1.097865e-10 -4.766854e-11 -2.633817e-11
-1.627815e-08 4.107101e-08 -3.003410e-09 -2.771953e-09 -8.551550e-09 1.074146e-10
1.391199e-08 -1.761421e-08 -1.051754e-08 -4.017013e-10 -1.703466e-09 -1.414371e-10
5.384049e-09 -1.051412e-08 -8.756504e-09 -6.787106e-09 -3.192561e-10 -3.605795e-10
1.169146e-08 -1.993744e-08 -7.061325e-09 -3.253491e-09 -3.981204e-09 -1.936664e-11
8.414189e-09 -2.028655e-08 -1.877531e-09 -4.648493e-09 -4.428637e-09 -7.687412e-10
-1.169429e-09 7.650709e-08 -1.199683e-08 3.378497e-09 -2.832971e-08 5.932936e-09
-5.144116e-10 1.077838e-09 -1.114162e-10 -7.960939e-10 -1.159197e-10 -1.931610e-11
-2.827178e-09 2.375116e-09 7.937562e-11 -6.533005e-10 -1.108282e-10 -7.485212e-11
-1.678299e-10 1.082467e-09 -1.821532e-10 -1.573162e-09 -2.849720e-12 -1.158213e-10
2.621769e-09 4.987231e-08 -6.232389e-08 6.061455e-09 1.465265e-08 1.393813e-08
-1.116671e-10 8.307737e-10 -1.729963e-10 -4.466851e-10 7.433387e-12 -1.912017e-10
-1.495598e-09 1.585045e-09 9.365930e-11 -5.440326e-10 -3.314238e-11 -2.183046e-10
-2.492442e-09 2.164660e-09 1.321232e-10 -3.647571e-11 3.178968e-11 -2.319103e-21
4.729350e-09 5.002462e-08 -6.318770e-08 5.161492e-09 1.519058e-08 7.780965e-09
-1.860002e-09 -8.365495e-09 1.138252e-10 -1.154186e-09 2.298242e-10 -2.097578e-10
8.196589e-09 -5.757349e-09 -1.773496e-08 -8.145985e-09 -1.443179e-09 -9.457399e-10
-1.388564e-08 5.925636e-08 -2.974923e-08 4.358146e-09 9.013803e-09 1.119185e-08
3.274465e-09 5.021527e-08 -5.039123e-08 7.818261e-09 6.537777e-09 1.113843e-08
1.183821e-08 -1.992169e-08 -5.888164e-09 -3.589061e-09 -8.400905e-09 -4.886613e-10
5.820943e-09 -2.373316e-09 -4.469931e-10 -3.159856e-09 -6.219818e-11 1.075926e-10
1.595749e-08 4.619188e-08 -6.936301e-08 -8.794520e-09 2.017694e-08 1.265039e-08
6.727827e-10 4.587237e-10 -2.703349e-10 -2.898348e-09 -1.555520e-10 2.678473e-10
3.594682e-09 -1.414179e-09 -5.739240e-10 -2.837367e-09 3.672485e-11 -6.592416e-11
-2.762705e-10 -8.846434e-09 -2.479038e-09 3.861011e-09 -5.315641e-10 4.387675e-10
-4.086159e-09 1.806075e-09 7.414807e-10 9.672939e-11 2.887290e-11 -9.582834e-11
-3.977528e-09 1.567404e-09 7.337446e-10 -3.308687e-11 6.067624e-11 -2.600808e-11
-2.643972e-09 -2.178204e-09 -4.481293e-09 4.240613e-09 -1.102184e-09 7.606720e-10
-3.989571e-09 1.959862e-09 6.611267e-10 4.773826e-11 1.851586e-11 -4.335254e-11
-3.925384e-09 2.160654e-09 5.468583e-10 1.868106e-11 7.110423e-12 -5.344503e-12
2.888301e-11 -2.771111e-09 -4.300500e-09 4.413334e-09 -3.271852e-10 2.888063e-10
7.429797e-09 -1.776525e-08 -2.615863e-09 2.523556e-09 -5.129284e-10 1.450586e-10
1.536344e-10 -8.740560e-09 7.945284e-10 1.804290e-10 -3.295839e-10 -2.544824e-10
-5.478517e-09 6.492102e-09 -6.924799e-09 1.375513e-09 -2.245164e-09 3.154749e-09
-4.771226e-09 -8.549144e-10 1.168265e-09 1.837120e-09 -1.114917e-09 3.508905e-10
-4.530270e-09 4.992629e-11 1.072689e-09 -2.528466e-10 -6.300782e-11 -3.386966e-10
-2.753180e-09 -5.374226e-09 1.357172e-09 -1.208957e-10 -2.077827e-10 -2.418289e-10
-4.771239e-09 -6.794165e-10 8.446019e-10 1.698063e-09 -1.198104e-09 2.167754e-10
-4.115759e-09 -1.243375e-09 1.123451e-09 -1.542682e-10 4.099388e-12 -4.952535e-10
7.483312e-09 -2.007120e-08 -1.402843e-09 -5.167883e-09 2.115397e-09 3.831468e-11
1.023049e-08 -1.976515e-08 -2.175831e-09 -4.255429e-09 3.573364e-11 2.461329e-10
6.491199e-09 -1.593518e-08 -2.579401e-09 -7.755489e-09 1.551915e-11 3.295946e-10
1.023049e-08 -1.999794e-08 -4.287469e-09 -4.362258e-09 1.313778e-09 3.422639e-10
-3.545194e-09 1.970660e-09 5.002940e-10 1.360023e-10 -1.632872e-11 4.230416e-11
-3.297425e-09 1.828982e-09 4.456124e-10 3.130918e-10 9.603751e-11 -1.340069e-10
7.665119e-09 -1.956093e-08 -1.400197e-09 -4.754236e-09 -3.921308e-11 1.028122e-10
-2.884888e-09 -1.898745e-09 -7.282219e-10 -5.717065e-09 1.226660e-09 5.897986e-10
-3.495506e-09 -3.860392e-09 -7.282210e-10 -7.720789e-09 1.507121e-10 4.113722e-10
-3.671606e-09 1.809983e-09 5.497305e-10 3.101888e-10 1.699585e-11 -2.018574e-11
6.500912e-10 -8.124649e-09 1.182251e-09 -5.995998e-09 3.706220e-10 -1.624245e-11
-2.884889e-09 -4.032978e-09 4.513239e-10 -6.079387e-09 5.575749e-10 1.838800e-10
-4.693469e-09 6.456036e-11 1.164512e-09 -1.780805e-09 -1.961761e-10 -3.034922e-10
-2.721962e-09 1.274076e-09 5.560477e-10 1.632049e-09 -2.999558e-10 -2.724230e-10
-3.593939e-09 1.909081e-09 4.670124e-10 -4.298784e-11 4.043654e-12 -2.757350e-11
-3.415213e-09 1.670129e-09 5.655134e-10 4.216281e-10 7.904410e-11 -1.850048e-11
-4.018826e-09 1.946077e-09 6.284371e-10 1.061856e-10 6.724898e-12 -4.273890e-11
6.069374e-09 -1.892949e-08 3.657341e-09 4.450524e-10 -1.555696e-10 -7.601941e-11
6.744620e-09 -2.006244e-08 3.734392e-09 1.863683e-10 1.593938e-10 -3.462830e-11
-4.520499e-09 2.571249e-09 8.270513e-10 2.956144e-10 3.383849e-11 1.034977e-10
-4.140998e-09 1.311881e-09 9.017582e-10 9.877009e-11 7.766843e-11 -1.784302e-10
-1.934675e-09 -1.040951e-08 3.669955e-09 1.510041e-09 -1.643235e-10 2.390020e-10
-3.602030e-09 3.133702e-08 -1.342700e-08 -1.678118e-08 4.506690e-09 2.240897e-10
1.584967e-09 -1.441849e-08 3.601789e-09 2.181762e-09 3.162981e-11 1.976295e-10
-1.812901e-08 6.477273e-09 4.401698e-08 2.068989e-08 -2.987711e-09 6.809654e-10
-3.989300e-09 -9.032602e-09 2.069007e-09 5.873557e-09 5.979648e-10 -2.105685e-10
-4.751355e-08 2.548171e-08 8.015502e-08 -5.337477e-09 5.109422e-08 -1.470895e-08
-1.048006e-09 -1.170637e-08 3.787816e-09 9.834538e-10 3.483490e-10 -4.575984e-11
-5.220701e-09 3.611498e-08 -1.998869e-08 1.186173e-08 -3.982286e-09 -5.527060e-09
1.661842e-08 4.002564e-09 -2.884728e-09 1.587328e-08 3.712828e-10 8.175857e-11
1.594636e-09 -1.413401e-08 3.376988e-09 2.152780e-09 7.072369e-10 1.881273e-12
-2.108549e-09 2.910011e-08 -1.493188e-08 1.817107e-08 -1.855429e-09 -2.040645e-09
-2.909687e-08 2.709067e-08 2.761046e-08 9.767063e-09 -3.686771e-10 -3.313982e-10
3.656737e-09 -1.594467e-08 3.157158e-09 4.358665e-09 5.019997e-10 -1.082245e-10
2.188739e-09 -2.778394e-11 1.199023e-10 4.011746e-09 2.545721e-10 9.310175e-11
2.588699e-09 -1.513405e-08 3.014585e-09 4.904277e-09 1.026340e-10 3.208469e-10
-7.092665e-09 -9.537912e-10 3.772396e-08 1.577882e-08 -2.771264e-08 -2.684196e-08
1.289454e-09 -1.456211e-08 3.840616e-09 1.108052e-09 1.847290e-10 1.544094e-10
-2.292672e-08 1.178084e-08 3.569713e-08 8.287699e-09 -2.048170e-08 -8.525649e-09
3.863349e-09 -1.717632e-08 3.622628e-09 2.528837e-09 1.244571e-10 5.931389e-11
5.702809e-09 -4.585330e-09 2.408599e-08 -1.136319e-08 9.256090e-10 -3.396169e-09
-1.059238e-08 7.650709e-08 -3.098080e-08 1.203383e-08 -1.759505e-08 -7.563773e-09
-2.241083e-08 4.911366e-08 -4.277071e-08 1.291332e-08 -5.457242e-08 -1.953220e-08
3.457520e-09 -1.706777e-08 3.793328e-09 4.142187e-10 9.950218e-11 3.610009e-10
-1.667845e-09 1.390037e-09 -1.576095e-11 -1.256399e-09 -9.878975e-11 7.335199e-11
-1.090287e-08 1.063301e-08 -1.295231e-10 2.059873e-09 -3.635390e-10 -2.233231e-10
-7.545713e-09 6.797755e-09 2.734803e-10 8.155375e-10 7.895300e-10 8.331816e-10
-1.251900e-08 1.695897e-08 -1.083502e-08 -7.643749e-09 2.219172e-09 2.904515e-09
-1.250330e-09 1.382970e-09 -3.169354e-11 -1.419648e-09 -1.095677e-10 -1.295011e-10
-9.227541e-09 7.758342e-09 -3.795938e-09 -6.302334e-09 2.208832e-09 2.466396e-09
-1.799441e-09 1.829937e-09 4.085443e-11 -1.376033e-09 -8.662049e-11 -2.401857e-12
-1.358943e-08 3.254868e-08 -2.456113e-08 8.874181e-10 6.684140e-09 1.663341e-08
3.721444e-09 -4.022060e-09 1.874681e-08 8.297969e-09 5.099773e-10 -2.368447e-09
-2.617269e-09 2.262606e-09 1.277929e-10 -4.928296e-10 -3.518297e-11 -9.418091e-12
-2.659502e-09 2.190632e-09 9.111401e-11 -3.935092e-10 -7.717693e-11 -1.442081e-10
-7.287887e-09 1.124183e-08 1.525340e-08 1.184526e-08 -6.261503e-10 -4.470339e-09
-1.384504e-08 1.460758e-08 -1.845814e-09 4.137567e-09 2.044428e-09 9.619962e-10
-2.270390e-09 1.962618e-09 7.911982e-11 -7.616752e-10 -1.295020e-10 -9.393250e-11
-1.220440e-08 1.488081e-08 -1.500009e-10 7.394042e-09 -3.301883e-09 8.178262e-10
-4.219175e-09 1.127449e-08 1.339281e-08 1.401575e-08 -2.719483e-09 -5.007128e-09
-9.294387e-10 8.312136e-09 -5.969093e-09 6.127103e-10 -9.654899e-10 4.942735e-10
4.473600e-09 5.559688e-09 -5.610778e-09 7.735590e-11 -2.922440e-10 -2.220898e-16
-2.311696e-09 2.203629e-09 8.762902e-11 -4.935761e-10 -8.221673e-11 -5.748244e-11
2.125519e-08 -5.260831e-09 -3.157850e-09 1.717974e-09 -1.342577e-10 -7.675683e-11
3.390388e-09 6.759547e-09 -6.045779e-09 3.630337e-09 -7.399861e-10 -7.511727e-10
-3.362318e-09 2.754733e-09 2.365326e-10 -4.081357e-11 -7.600809e-12 -5.097034e-12
-1.168615e-09 1.381894e-09 -3.707701e-11 -7.937873e-10 -4.441780e-11 -8.235634e-12
-2.655311e-09 2.263027e-09 1.496838e-10 -6.894057e-10 5.231887e-11 3.300871e-11
1.137844e-08 7.351066e-10 -4.735489e-09 3.113559e-09 -7.060013e-10 -5.066267e-10
8.610439e-09 -3.678057e-09 2.016955e-09 -4.689114e-09 -5.274483e-11 -6.491416e-10
7.451859e-09 -3.100375e-09 1.303851e-09 -5.688068e-09 -1.691292e-11 7.257144e-10
-9.019684e-09 4.781477e-09 -1.501494e-09 -5.060247e-09 -4.750402e-09 -2.042968e-09
-7.617762e-09 6.761276e-09 -2.322516e-09 -3.631784e-10 -3.238028e-09 4.498979e-11
-6.503186e-09 7.955907e-09 -3.066898e-09 -8.888659e-10 -2.674933e-09 -3.661165e-10
-7.268000e-09 -1.118155e-09 1.819020e-09 1.624525e-09 1.522967e-09 -1.016907e-10
2.669690e-09 -1.007439e-09 -2.332827e-10 2.365780e-09 -1.019893e-10 -1.928848e-10
9.607576e-09 -4.940389e-09 1.373504e-09 -1.602811e-09 -8.503675e-11 -1.021084e-09
-8.802403e-09 2.760292e-09 1.365232e-09 4.610867e-09 -3.660868e-10 -1.456766e-10
-8.130280e-09 1.890630e-09 1.377576e-09 1.334706e-09 1.669587e-09 1.040935e-10
9.353747e-09 -4.920819e-09 1.505896e-09 -3.813816e-09 4.518019e-10 -1.015888e-09
7.936305e-09 -3.061060e-09 2.344146e-09 -6.099419e-09 1.959327e-10 -1.737828e-09
8.100362e-09 -3.020629e-09 1.551820e-09 -5.694236e-09 5.248113e-10 -2.117712e-09
-6.016349e-09 5.517800e-09 -7.618119e-10 7.115410e-11 2.785653e-09 -1.622005e-10
-8.163180e-09 1.171274e-09 8.644494e-10 1.367042e-09 9.250996e-10 -1.947360e-10
8.357108e-09 -5.075178e-09 2.016956e-09 -4.064233e-09 1.105101e-10 -6.998233e-10
-8.637954e-09 1.302046e-09 1.453706e-09 5.437477e-09 2.298646e-09 -8.552159e-10
5.902583e-10 -9.919197e-09 2.620032e-09 -1.724848e-09 1.790706e-10 -1.295994e-10
-5.710442e-09 -3.816472e-09 1.741000e-09 -6.302958e-10 -6.366214e-10 -4.010017e-10
1.150278e-09 -9.114354e-11 -1.108038e-10 2.284687e-09 -7.350653e-11 -2.661849e-11
-8.664701e-09 1.138952e-09 7.908474e-10 -3.568790e-10 -4.786085e-10 8.572520e-11
-5.523311e-10 -7.170200e-09 2.438020e-09 -6.322903e-10 6.618724e-10 -4.427930e-10
-1.533406e-09 -5.677093e-09 2.252079e-09 3.372116e-11 3.565532e-10 -1.273836e-10
2.480773e-09 -1.590903e-09 -3.964542e-10 5.493221e-10 7.425227e-11 6.935874e-11
4.206810e-09 -5.758114e-09 2.973105e-08 3.395896e-09 2.983430e-10 -9.050279e-09
-2.323169e-09 -4.470849e-09 2.086527e-09 -1.053908e-09 9.439827e-11 -2.143665e-10
3.142347e-09 -1.131088e-09 -5.605520e-10 -4.602629e-11 5.348455e-11 2.864374e-14
3.986482e-10 4.142973e-10 -3.462262e-10 -1.423113e-09 -1.197076e-10 -2.885914e-12
1.698230e-09 -6.321468e-10 -4.053078e-10 -9.347432e-11 -1.133888e-10 4.286016e-11
-1.628981e-10 7.396324e-10 -2.041709e-10 -1.494157e-09 -1.042650e-10 -7.886025e-11
2.575769e-09 -5.705468e-09 2.267331e-08 4.090886e-09 -3.282646e-09 -4.282092e-09
-2.708990e-09 -3.206859e-09 1.941973e-09 1.344365e-10 -2.251754e-12 -1.947199e-10
3.469758e-11 -8.399059e-09 2.592819e-09 -8.675838e-11 2.548628e-12 -2.300379e-10
2.104328e-09 -2.973097e-10 -4.257632e-10 -1.804314e-09 -1.710898e-11 -2.157087e-10
-1.960181e-09 -9.550555e-09 3.537279e-09 8.114309e-10 7.183665e-11 4.200186e-10
-3.170571e-09 -8.381290e-09 3.435938e-09 1.130194e-09 -3.168351e-12 1.284333e-10
-2.011720e-10 -8.191735e-09 2.582571e-09 -1.339975e-09 1.546407e-10 1.465262e-10
2.422276e-10 1.276619e-10 -8.863177e-11 4.622214e-10 1.276002e-10 -2.688960e-12
2.379348e-09 -1.036802e-09 -3.758567e-10 9.531886e-11 -9.498624e-12 -2.390710e-11
-2.606203e-09 -9.235686e-09 3.824648e-09 1.802061e-10 -1.313284e-20 -3.643841e-11
2.196268e-09 -7.659922e-10 -2.745162e-10 1.277172e-09 1.880858e-10 -6.079492e-11
2.138567e-09 -6.709342e-10 -2.538050e-10 5.610712e-10 1.112678e-10 -1.270606e-11
9.215340e-11 2.233840e-10 -9.925216e-11 1.263546e-09 9.188073e-11 5.636779e-11
1.589866e-09 -5.122081e-10 -2.186218e-10 1.472114e-09 1.116656e-10 -2.126844e-10
-1.583299e-09 -1.145041e-08 3.755352e-09 1.036758e-09 2.205951e-10 1.569349e-10
-2.310790e-09 -9.139322e-09 3.616874e-09 1.509793e-09 4.313883e-12 -1.256759e-12
-3.476648e-09 -8.106249e-09 3.699623e-09 2.029354e-10 -1.681699e-11 4.040324e-12
-4.008363e-09 1.069681e-09 9.294183e-10 1.768092e-10 9.281687e-11 -2.680089e-10
3.176065e-09 -1.770630e-09 -3.988379e-10 9.599472e-10 8.213907e-11 -3.881073e-11
7.926975e-10 -2.906418e-10 -1.406191e-10 1.093503e-09 8.387114e-11 -4.407630e-11
-4.054613e-09 1.131669e-09 9.264256e-10 1.715406e-10 4.042278e-11 -2.253352e-10
-3.922045e-09 1.827742e-09 6.601826e-10 9.893419e-12 2.969514e-11 -3.996226e-11
-4.125183e-09 1.449664e-09 8.646932e-10 1.665734e-10 1.006684e-11 -5.346035e-11
-3.474347e-09 1.412605e-09 6.828067e-10 2.626641e-10 9.499668e-11 -1.051539e-10
1.715130e-08 -2.501293e-09 -4.045150e-09 -7.439182e-11 -1.263542e-09 4.562278e-10
5.567815e-09 -3.070944e-09 -7.367111e-10 3.137647e-10 1.508654e-12 -1.076788e-10
1.617956e-09 -5.154641e-10 -2.787619e-10 1.483435e-09 1.291744e-10 -2.256599e-10
7.911467e-10 8.097745e-12 -1.123719e-10 1.577436e-09 -4.292524e-11 -1.088347e-10
-2.570280e-09 2.271161e-09 9.700440e-11 -1.246296e-10 -5.899037e-11 -5.191525e-11
-3.178584e-09 2.664937e-09 1.704052e-10 -7.611778e-11 -4.288592e-11 -5.629019e-11
-3.319757e-09 2.787957e-09 1.852489e-10 -9.494627e-13 -3.545098e-11 -3.763612e-11
-2.634037e-09 2.328287e-09 1.389731e-10 -8.389671e-10 -1.038669e-10 -7.734791e-11
-3.120377e-09 2.515328e-09 1.584375e-10 -1.605631e-10 -5.267398e-11 -2.685974e-11
-3.056783e-09 2.663454e-09 1.859024e-10 -2.612799e-10 -4.595474e-11 -6.563794e-11
1.982611e-09 -7.650383e-10 -3.341336e-10 1.914179e-09 1.569036e-10 1.567000e-10
5.145452e-09 -2.739070e-09 -6.745822e-10 7.725104e-10 -3.612947e-11 6.318479e-11
-8.912165e-09 5.583395e-09 -1.187220e-09 -9.203873e-10 -2.647761e-09 -4.546969e-10
6.517657e-09 4.965749e-09 -6.088178e-09 8.475222e-09 7.123073e-10 -1.102472e-09
-7.759727e-09 4.704994e-09 -1.497963e-09 -3.668112e-09 -5.593660e-09 -2.425794e-09
1.292434e-10 -1.107907e-08 -4.257670e-09 -8.483181e-09 -6.244386e-09 -2.554904e-09
-9.540640e-09 3.502834e-09 -2.498188e-09 -8.203830e-09 -7.033655e-09 -4.475513e-09
-1.730029e-10 -1.102988e-08 -1.130714e-09 -1.816023e-09 5.142335e-10 -7.177414e-11
5.830441e-10 -8.788822e-09 2.618428e-09 -2.608236e-09 1.802523e-10 -7.578852e-10
1.790183e-09 -1.143585e-08 2.835314e-09 -2.721143e-10 -3.432121e-11 -2.179516e-10
-1.138872e-09 -6.546333e-09 2.267537e-09 -1.527320e-09 2.058220e-11 -5.408257e-11
6.570419e-09 5.757314e-09 1.255410e-09 -1.497713e-08 -5.860972e-10 1.247196e-09
-1.219052e-08 2.067846e-08 6.111744e-09 9.251920e-09 -3.180575e-09 -1.114538e-09
2.593668e-09 1.511084e-08 4.064278e-10 -1.687918e-08 1.919447e-10 -6.824461e-10
1.442556e-08 -6.784347e-09 1.805269e-08 -1.865659e-08 3.248326e-09 -7.486902e-10
7.618499e-09 1.513729e-09 6.434009e-09 -1.663339e-08 -1.467824e-09 3.949540e-09
4.209086e-09 -1.409364e-08 2.543399e-09 -3.605947e-09 -2.260381e-13 7.164697e-11
6.172035e-09 2.254870e-09 -1.064182e-09 -9.402103e-09 1.211786e-10 -2.254632e-10
4.722703e-09 -3.154199e-11 8.959393e-09 -1.291345e-08 6.872712e-09 -5.854983e-11
-1.381248e-09 7.266039e-09 -2.808569e-09 -6.515922e-09 1.221237e-09 -9.089508e-10
-2.158882e-09 -3.341798e-09 1.716228e-09 -1.440100e-09 1.238148e-10 -6.451833e-10
-2.167971e-09 -3.613680e-09 2.164531e-09 6.106160e-11 2.412448e-11 -4.506602e-10
1.769094e-08 1.513729e-09 5.947602e-09 -1.677845e-08 -1.504930e-09 4.286970e-09
-1.030941e-09 -6.191631e-09 2.054313e-09 -2.120256e-09 2.007231e-10 -7.554144e-10
1.603915e-08 -3.203930e-09 8.921877e-09 -1.439681e-08 -1.343890e-09 1.552370e-09
-3.826494e-09 -1.506475e-10 1.197284e-09 -6.319296e-10 -5.833445e-11 -1.869140e-10
-3.327341e-09 -2.466315e-09 1.633242e-09 -1.504879e-09 1.304974e-10 -4.159357e-10
7.771554e-09 1.394150e-09 -6.097167e-11 -8.973565e-09 -9.525952e-11 1.640380e-09
-1.323340e-09 1.245583e-09 -9.818546e-11 -7.991525e-10 -1.470619e-10 -9.307377e-11
2.759002e-10 7.839587e-10 -1.583491e-10 -8.920300e-10 -1.179357e-10 -1.038791e-10
-1.964430e-09 1.976887e-09 6.345546e-11 -4.618464e-10 -1.189959e-10 -1.633285e-10
-1.151196e-09 1.456160e-09 -3.848455e-11 -8.230563e-10 -5.203016e-11 -3.680145e-11
-1.120112e-08 5.341049e-09 -4.858456e-10 8.820761e-09 4.470353e-09 -2.666114e-09
-9.584911e-10 1.374706e-09 -1.894307e-10 -9.946316e-10 -9.296605e-11 -3.537852e-10
-2.795121e-09 2.316336e-09 1.365739e-10 -6.173968e-10 -5.566370e-11 -3.184419e-11
-1.108470e-09 1.620325e-09 -4.433165e-11 -3.665863e-10 -4.248499e-11 -1.205702e-13
-1.309736e-09 1.313582e-09 -1.035652e-10 -8.647278e-11 -1.971242e-10 -1.387046e-11
3.918673e-09 -1.321072e-09 3.509659e-10 3.894375e-09 -1.331586e-10 -4.937437e-10
3.048739e-09 -4.647704e-10 3.071592e-10 4.501814e-09 1.762144e-10 1.755920e-10
9.416934e-10 1.699135e-09 7.240208e-10 5.260110e-09 3.314400e-10 3.198699e-10
1.655574e-09 8.624967e-11 3.372853e-10 3.823963e-09 -7.854532e-11 -2.727343e-10
2.843294e-10 9.088383e-10 5.482379e-10 4.079484e-09 1.305862e-10 3.879408e-11
-9.048549e-10 1.518165e-09 6.277729e-10 3.999165e-09 -1.064198e-10 -4.902208e-10
2.366945e-08 -6.433582e-09 1.232784e-09 9.263098e-09 1.770656e-09 5.061362e-09
3.020113e-10 1.578841e-09 3.784146e-10 4.374517e-09 1.997380e-10 -1.074407e-11
3.547854e-09 9.221313e-09 -6.819292e-09 6.274195e-09 -1.697025e-10 1.575860e-09
-2.205123e-09 -6.318498e-09 6.776895e-10 -1.444811e-09 -4.197431e-10 -2.474139e-10
-4.206891e-09 -3.607721e-09 -2.377329e-09 -4.988942e-09 -8.892094e-10 -6.484635e-10
-2.835725e-09 -5.816521e-09 -1.080375e-09 -3.580578e-09 -6.473916e-10 -8.530465e-11
2.292730e-10 -9.239647e-09 -3.542838e-09 -5.557629e-09 -2.268625e-09 -6.907381e-10
3.576314e-09 -1.633458e-08 -3.809133e-09 -7.128188e-09 -7.922326e-09 -1.867823e-09
-3.981482e-09 -1.398619e-09 -2.397209e-09 -5.879318e-09 -2.937990e-09 -9.557457e-10
1.080467e-09 -3.544079e-08 7.729381e-08 -2.283142e-10 -2.514496e-09 3.476704e-08
5.235591e-10 -5.218582e-09 -7.974870e-09 -6.575558e-09 -1.764379e-09 -6.374359e-10
-8.961302e-09 3.618423e-09 6.774361e-10 -8.819319e-10 -2.059457e-09 -5.894418e-11
1.046818e-08 -2.683815e-08 5.671548e-08 -8.515087e-10 -5.245595e-10 6.476445e-09
-6.795236e-09 -2.461798e-09 2.069132e-10 -5.478602e-09 -3.305319e-09 -1.065981e-09
-2.293531e-09 -4.742899e-09 -9.430332e-10 -2.806426e-09 -1.125490e-09 -4.648355e-10
9.692113e-09 -7.104483e-09 8.296904e-09 1.864785e-09 4.948362e-10 -4.788022e-09
-7.909135e-09 3.820562e-10 -1.592682e-10 -1.985729e-09 -1.440126e-09 -6.667099e-10
7.849159e-09 -5.643985e-09 7.299801e-09 3.173278e-09 1.297993e-10 -2.466868e-09
-8.664699e-09 9.070007e-10 1.791691e-09 -2.570442e-10 -3.996392e-10 -3.820100e-11
3.455512e-09 -1.097694e-09 9.118972e-09 8.432889e-09 -1.157664e-09 -3.584201e-09
4.211847e-09 -2.584408e-09 1.184288e-08 8.160716e-09 -9.976399e-10 -4.987693e-09
-8.354929e-09 3.497307e-09 -1.952837e-09 -2.020731e-09 -2.167661e-09 -4.525646e-10
-9.262514e-09 4.099192e-09 -2.096741e-10 -9.054821e-10 -1.879396e-09 -1.931180e-10
-8.966317e-09 2.285068e-09 1.009091e-09 -7.634484e-10 -1.871061e-09 -2.237317e-10
-6.634072e-09 1.056307e-09 -3.067203e-09 -4.373441e-09 -2.619749e-09 -1.072903e-09
-7.859537e-09 1.656211e-09 1.071057e-09 -2.603413e-09 -1.566096e-09 -9.182880e-12
-6.229847e-09 3.308140e-09 -3.730648e-09 -5.668857e-09 -3.113136e-10 -1.420430e-09
-8.709376e-09 5.974073e-09 -3.204112e-09 -4.589615e-10 -9.812500e-10 -3.821959e-10
-8.058784e-09 2.434183e-09 -2.175503e-09 -3.225384e-09 -1.092113e-09 -4.328586e-10
4.488244e-09 -1.581422e-08 2.979977e-09 -2.756591e-09 3.692609e-10 -6.166101e-10
-6.729833e-09 -3.576552e-10 -1.266554e-09 -3.011464e-09 -8.979795e-10 -3.920093e-10
-6.245812e-09 -3.782574e-10 -3.454240e-09 -5.272822e-09 -1.615918e-09 -1.177778e-09
-4.653331e-09 -5.189570e-09 3.039765e-09 3.256037e-09 2.849272e-10 3.336308e-10
1.676768e-09 -1.073993e-08 2.702381e-09 -1.206119e-09 4.217748e-11 -6.171479e-10
-7.552917e-09 5.648921e-10 1.153573e-09 4.670405e-09 8.922147e-10 -4.201420e-11
-8.707833e-09 3.497330e-09 -3.654259e-10 4.729802e-09 3.991510e-09 -1.081932e-09
-7.955183e-09 2.369246e-09 -6.251715e-10 9.068907e-09 3.616098e-09 -2.086690e-09
2.636868e-09 -1.143585e-08 2.876556e-09 3.343398e-11 2.549716e-11 -2.966638e-10
-7.268195e-09 -1.616826e-09 1.557666e-09 3.322984e-09 1.031362e-09 2.998286e-10
-3.512064e-09 1.734069e-09 5.771397e-10 3.384271e-10 7.248768e-11 -8.239331e-11
-7.471490e-09 -2.697191e-09 1.294795e-09 4.863366e-09 1.262407e-09 -1.943409e-10
-3.131961e-09 -6.696348e-09 2.554566e-09 4.290850e-09 5.430745e-10 -1.850631e-10
-3.807591e-09 6.737935e-10 9.450769e-10 -1.060876e-10 4.734879e-12 -1.226499e-10
-3.763285e-09 -7.598802e-10 1.357381e-09 -6.915297e-10 -1.082208e-10 7.134737e-12
-7.595080e-09 -1.738092e-09 1.997304e-09 3.695604e-09 1.232668e-09 -4.832164e-10
-4.921583e-09 1.783516e-09 7.353007e-11 -8.827567e-10 -1.275851e-10 -1.992475e-10
-6.588203e-09 -3.802469e-09 2.553622e-09 1.572368e-09 6.654564e-10 -7.552214e-11
-3.949032e-09 -1.164821e-09 -1.017240e-10 6.541647e-10 2.415939e-10 -1.434780e-10
-6.111065e-09 -3.692943e-09 5.794270e-10 8.281694e-09 2.611235e-09 -9.784979e-10
-4.606222e-09 -6.248091e-10 4.683116e-10 6.995301e-10 -1.081609e-09 -4.570411e-11
-4.823909e-09 3.308065e-10 -6.058616e-10 1.092615e-09 -3.039584e-10 -2.171507e-11
4.288332e-09 -2.591963e-09 -6.169536e-10 2.672636e-10 1.150589e-10 3.427347e-11
-5.310701e-09 -2.880216e-09 6.986065e-10 6.169944e-09 -6.018306e-12 -1.880407e-10
5.380404e-09 -3.016967e-09 -7.092567e-10 -3.099631e-12 -1.772745e-11 1.178235e-11
5.359317e-09 -3.078296e-09 -7.189338e-10 -3.957826e-11 3.761214e-12 2.928313e-11
-3.970351e-09 -6.788925e-09 1.706076e-09 6.186471e-09 2.284635e-10 -1.598047e-10
-5.242263e-09 -6.348471e-09 2.952540e-09 3.343640e-09 -7.436229e-11 -3.540384e-10
-3.869835e-09 6.180301e-10 1.041594e-09 -2.715490e-10 2.045475e-11 -2.931806e-10
-4.011077e-09 2.182697e-09 5.874217e-10 3.764478e-11 3.394707e-11 -4.201029e-12
-4.049024e-09 2.182697e-09 5.423002e-10 4.952128e-11 3.144551e-11 -3.238121e-11
-3.877034e-09 2.066773e-09 5.821077e-10 2.820943e-11 5.624390e-12 -1.688782e-11
-3.922240e-09 2.147528e-09 5.250564e-10 -2.787104e-12 1.402523e-11 -1.028688e-11
-3.384003e-09 1.821927e-09 5.002940e-10 2.865907e-10 -2.005507e-11 -6.050227e-11
-3.888781e-09 1.239364e-09 8.926533e-10 -1.184213e-10 8.373957e-11 -1.938407e-10
1.723762e-09 -8.232690e-10 -3.214400e-10 2.178012e-10 2.736589e-11 -1.247048e-10
-3.969918e-09 6.051331e-10 9.215828e-10 -2.294420e-10 -1.904416e-11 -1.582627e-10
-1.391196e-09 7.672281e-10 9.571499e-11 -4.179590e-11 1.752865e-11 -2.011635e-11
1.747448e-09 -3.795741e-11 -3.729443e-10 -1.555489e-09 -1.220167e-10 1.379967e-10
2.908886e-09 -1.321288e-09 -5.251870e-10 -2.701088e-10 -1.121145e-10 1.681761e-10
1.773957e-09 -3.382430e-10 -3.372094e-10 -6.300871e-10 -2.483907e-10 7.746803e-11
1.367495e-09 -2.195923e-10 -3.891412e-10 -6.387835e-10 1.144813e-10 -6.152612e-11
7.094538e-10 1.864588e-10 -2.921574e-10 -1.472316e-10 8.531531e-11 -4.441143e-16
-4.145198e-09 1.232639e-09 8.884093e-10 -1.145661e-11 9.957801e-11 -6.744849e-11
-3.504036e-09 1.451477e-09 6.620595e-10 4.099885e-10 4.123624e-11 -9.974754e-11
-3.963424e-09 7.068479e-10 1.036629e-09 1.173390e-10 2.226952e-11 -1.588616e-10
-3.722194e-09 2.774377e-09 3.294587e-10 -1.755946e-10 -3.579181e-11 -1.452617e-10
-3.841927e-09 2.462262e-10 1.243321e-09 1.542368e-10 8.323420e-11 -6.813450e-11
-3.961066e-09 1.262404e-09 8.811776e-10 5.102363e-11 -5.042033e-11 -7.028056e-11
-3.522662e-09 2.777451e-09 2.488907e-10 -1.060112e-10 -2.819633e-11 -9.032952e-11
-9.229857e-09 6.455350e-09 -2.792055e-09 5.709106e-09 2.745634e-09 -1.857919e-09
-3.634721e-09 2.762444e-09 2.856393e-10 -1.601781e-10 -7.802647e-12 -1.329938e-10
-3.847244e-09 2.713902e-09 3.655889e-10 -1.867440e-10 -3.709488e-11 -2.321130e-10
-3.290394e-09 2.311205e-09 2.068672e-10 -9.825826e-10 -1.264009e-10 -2.415806e-10
-3.745650e-09 2.615081e-09 1.939608e-10 -6.818724e-10 -1.178637e-10 -4.163545e-10
3.560390e-09 -1.578977e-08 2.317768e-09 3.086424e-10 -8.314527e-10 -2.873888e-10
-4.064182e-09 1.207176e-09 9.245378e-10 5.844791e-11 1.672751e-11 7.657430e-12
-3.962977e-09 1.272351e-09 9.629915e-10 3.412994e-10 3.452993e-11 5.515499e-11
1.072453e-08 -2.318911e-08 -5.290851e-09 3.270994e-09 1.589743e-09 -2.928051e-10
8.266852e-09 -2.087836e-08 -9.030758e-10 5.036498e-09 1.685026e-09 -2.284117e-10
7.837945e-09 -1.789419e-08 -2.235526e-09 7.934293e-09 9.009140e-10 -3.252642e-11
5.014882e-09 -1.440595e-08 -2.233188e-09 1.088306e-08 1.019474e-09 -3.901491e-10
5.484952e-09 -1.831233e-08 -1.556175e-09 8.677655e-09 3.004765e-09 -5.531842e-10
5.412154e-09 -1.593855e-08 -1.117509e-09 9.035106e-09 -4.152869e-10 1.979705e-11
8.394241e-09 -2.231240e-08 1.003433e-09 4.775728e-10 -7.738070e-10 2.179653e-10
5.706140e-09 -1.722353e-08 -2.235526e-09 7.895411e-09 1.148454e-09 3.946918e-10
6.330608e-09 -1.938657e-08 -1.887446e-09 7.858733e-09 2.100502e-09 -4.475820e-10
-1.446709e-10 1.043414e-10 -6.258860e-11 1.002565e-11 9.680833e-11 -3.357203e-12
-4.511039e-09 2.192703e-09 6.610152e-10 -2.808631e-10 -3.879830e-11 -2.748270e-10
7.332126e-10 -3.232792e-10 -1.391554e-10 7.652545e-11 4.549250e-11 -5.182521e-13
-4.586467e-09 1.699714e-09 5.854526e-10 -3.954503e-10 -1.073741e-10 -1.878679e-10
-3.745773e-09 2.390629e-09 4.329346e-10 -1.258594e-09 -1.101597e-10 -2.479410e-10
-4.874343e-09 1.326579e-09 7.934977e-10 -1.634874e-10 -2.434917e-10 9.987744e-11
-4.642588e-09 -2.536922e-10 8.329333e-10 4.747767e-10 -1.703240e-10 -1.392175e-10
-4.503728e-09 1.999247e-09 6.501653e-10 -4.828378e-10 -1.176406e-10 8.336620e-11
2.203671e-09 -1.163008e-08 -1.562674e-09 -6.337806e-10 -4.436694e-16 -3.311704e-10
7.214954e-09 -1.728918e-08 -3.201875e-09 -2.013081e-09 -6.189146e-10 -8.272377e-11
-1.315692e-09 7.012724e-10 1.852918e-10 8.734640e-10 1.919632e-10 -6.271939e-11
-5.321077e-11 1.228686e-10 -8.867296e-11 5.341629e-10 1.286108e-10 -6.261006e-12
3.717053e-09 -2.009305e-09 -5.070719e-10 2.509665e-10 1.061924e-10 8.775503e-11
-9.261978e-10 6.677325e-10 9.993140e-11 2.392888e-10 5.789258e-11 5.430523e-11
7.441194e-10 -3.084031e-10 -2.065587e-10 1.197786e-09 3.968603e-12 1.373712e-11
-3.678567e-09 -2.207194e-10 1.390300e-09 -6.804140e-10 1.340166e-10 -2.809339e-10
-3.520641e-09 -3.336238e-10 1.250803e-09 -2.030607e-10 1.342840e-10 -4.621589e-10
-3.813309e-09 -1.020771e-09 1.545803e-09 -1.112539e-09 -7.604672e-11 6.722090e-11
3.676412e-09 -1.785280e-09 -5.845725e-10 -2.372732e-09 -3.569660e-11 6.807521e-11
6.172544e-09 -3.195357e-09 -7.786167e-10 -1.978953e-10 1.290068e-11 3.591305e-11
6.285220e-09 -3.239449e-09 -5.747944e-10 -2.519827e-09 -9.706014e-12 4.557543e-11
4.111342e-10 -1.785239e-11 -1.087022e-10 2.511360e-10 1.617946e-10 1.423649e-10
7.183353e-09 -3.307654e-09 -5.603376e-10 -1.547607e-09 -2.736765e-11 -1.322853e-11
1.280268e-09 6.341702e-09 -1.932322e-08 -7.308576e-09 -3.726699e-09 -2.006896e-09
4.326616e-09 -1.410119e-08 5.381286e-08 -2.161811e-08 -3.119032e-09 6.600365e-09
9.178223e-10 -3.006433e-10 -2.798100e-10 1.743819e-09 2.448701e-10 4.700624e-10
-6.683382e-10 -6.528946e-10 -1.276956e-08 -8.040007e-09 -2.408695e-09 -8.317426e-10
-2.025787e-09 1.693906e-08 -2.243338e-08 -4.937179e-09 -4.646225e-09 -4.956094e-09
6.471594e-09 -1.841673e-08 -9.780308e-10 -8.993890e-10 -7.860916e-10 6.690426e-11
9.601671e-10 -5.323796e-10 -1.595017e-10 1.080900e-09 2.256651e-10 -7.101386e-11
1.021654e-09 -4.116805e-09 -8.804829e-09 -5.818936e-09 -2.651106e-09 -1.428538e-09
-1.655859e-09 5.037570e-10 -1.263924e-08 -7.861945e-09 -5.080507e-09 -1.870780e-09
3.126200e-08 -1.284636e-08 7.846348e-10 1.861258e-09 1.191326e-09 6.382528e-09
3.646719e-09 -7.312150e-09 -1.110826e-08 -7.594333e-09 -3.709478e-09 -3.570103e-10
6.691229e-09 -1.825725e-08 -2.385777e-09 -2.174456e-09 -1.986966e-09 -4.235576e-10
-2.832173e-09 -1.932518e-09 -4.122742e-09 -4.828405e-09 -9.616619e-10 -3.601004e-10
1.827675e-08 1.513729e-09 3.807028e-09 -1.543063e-08 -3.461655e-09 4.598966e-09
-3.457869e-09 -6.344090e-09 -3.780127e-09 -8.040178e-09 -5.590582e-09 -2.399467e-09
1.391628e-09 2.802404e-09 -1.428284e-08 -1.006182e-08 -5.864445e-09 -3.808262e-09
8.572556e-09 -1.198303e-08 -1.413565e-08 -6.581247e-09 -3.992761e-09 -5.930844e-10
8.020312e-09 -1.146168e-08 -1.738110e-08 -9.161908e-09 -1.132760e-08 -2.393488e-09
2.402230e-08 -6.245279e-09 -2.303452e-09 -2.406328e-09 7.915560e-11 -5.711929e-10
2.457574e-09 -9.301099e-09 -2.463131e-09 -3.521960e-09 -1.021622e-09 -2.427707e-10
4.102057e-09 -1.783776e-09 -6.141057e-10 -2.467383e-09 -1.224825e-10 2.513305e-10
4.661693e-09 -2.175025e-09 -6.898329e-10 -1.766256e-09 -7.372294e-11 -6.853018e-12
7.012384e-09 -3.392631e-09 -6.255636e-10 -1.147408e-09 -9.327650e-12 4.791057e-11
2.734948e-08 -1.098905e-08 -2.014791e-09 1.985511e-10 -1.383212e-10 6.431984e-10
2.014508e-08 -6.275031e-09 -2.797625e-09 -2.879758e-09 1.652097e-09 4.244317e-11
5.383065e-09 -2.986881e-09 -7.200742e-10 -5.970033e-10 -1.267735e-10 1.116989e-10
5.067811e-09 -2.885917e-09 -7.567658e-10 -2.417859e-10 -4.655132e-11 7.035861e-11
2.628745e-08 -8.632263e-09 -3.948704e-09 1.471046e-10 4.911437e-10 1.457095e-09
3.153537e-09 -1.755110e-09 -5.360096e-10 -9.477993e-10 -5.047740e-11 1.338049e-10
6.061676e-09 -3.300524e-09 -6.701719e-10 -1.927011e-09 -3.612979e-11 -3.945777e-11
5.118158e-09 -2.555093e-09 -6.233027e-10 -1.479719e-09 -4.215960e-11 4.529153e-10
2.662428e-08 -1.557492e-08 6.039526e-09 -2.097838e-09 7.739548e-10 6.288296e-09
2.630671e-08 -1.126780e-08 4.363504e-09 -6.326385e-09 -6.870310e-10 1.447643e-09
-5.087963e-09 2.157251e-09 -9.037717e-10 -5.044074e-10 -2.161329e-10 4.978459e-11
1.686545e-08 -5.832188e-09 -2.396831e-09 6.981148e-10 3.724178e-10 3.788121e-10
-4.039385e-09 2.061594e-09 -4.634154e-09 1.929948e-09 -6.540459e-10 2.607933e-10
-4.393093e-09 2.796933e-09 -4.950116e-09 1.604767e-09 -8.377195e-10 7.079954e-10
-2.317245e-09 -4.102523e-10 -4.481293e-09 2.515449e-09 -1.231786e-09 7.736058e-10
-1.555757e-09 8.570100e-10 -7.833439e-09 4.857515e-09 -2.821497e-09 2.475377e-09
6.043609e-09 -1.389638e-08 -8.798659e-09 5.575121e-09 -2.459180e-09 9.516600e-10
-4.563270e-08 5.602918e-10 8.732877e-08 -1.714292e-08 4.860024e-10 -5.238873e-09
-1.040845e-09 -4.130197e-09 -3.992701e-09 4.679546e-09 -3.084992e-09 1.961727e-09
-5.149630e-08 -3.082073e-08 1.694639e-07 -3.414979e-09 3.595101e-09 -8.799090e-09
-4.010471e-09 1.210889e-10 -3.296420e-09 2.550231e-09 -4.371352e-10 7.477179e-10
-1.096226e-09 -3.962815e-09 -7.921093e-09 4.616964e-09 -2.415435e-09 9.899508e-10
3.486413e-09 -2.495972e-10 1.061082e-09 5.600595e-09 1.709828e-10 2.744516e-11
-7.454481e-12 2.734200e-09 7.277334e-10 5.294365e-09 1.343436e-10 -2.594256e-10
-7.848467e-08 -1.251464e-08 1.551162e-07 -1.137789e-08 2.192549e-08 -1.628257e-08
-1.634366e-08 4.911366e-08 -3.013836e-09 8.497258e-09 -6.004939e-08 2.580989e-10
-7.356060e-08 -3.037321e-08 1.791431e-07 2.806161e-09 -1.734683e-08 -1.048717e-08
-3.159218e-08 1.253191e-08 7.213677e-08 -2.472206e-08 3.254143e-08 -2.444019e-08
-6.634137e-08 -1.183455e-08 9.650563e-08 -1.975390e-08 -5.791288e-08 -1.557698e-08
-2.891766e-09 -3.874101e-08 8.701795e-08 7.744952e-09 1.773045e-08 4.484281e-08
1.972057e-08 -2.438075e-08 2.648677e-08 1.215224e-08 6.737576e-09 7.725281e-09
1.885993e-08 -4.081007e-09 -2.664899e-09 -2.588937e-10 4.023552e-11 8.236449e-10
-7.589199e-08 -3.077623e-08 1.847169e-07 -5.504649e-09 -1.008203e-08 -4.136774e-08
-2.811366e-09 1.527207e-09 4.159273e-10 2.630991e-10 1.172242e-10 -1.014328e-10
8.893684e-09 1.730924e-09 3.837318e-08 2.725125e-08 7.619183e-09 1.066503e-08
9.442152e-09 1.149672e-08 -9.056790e-09 1.260898e-08 -2.506918e-09 -4.428568e-09
2.387958e-08 -2.044815e-08 3.609515e-08 7.473972e-09 -3.619086e-10 1.404682e-08
-1.532099e-08 5.642396e-08 -3.345734e-08 6.475057e-09 -7.358937e-09 -3.011755e-08
-1.164566e-09 9.132100e-10 1.519365e-10 2.217897e-10 1.102638e-10 -1.052780e-11
3.289065e-10 7.650709e-08 -4.420460e-08 1.172491e-08 -1.737808e-08 -1.985407e-09
-7.361430e-09 6.566864e-08 -6.791699e-08 1.217013e-08 -4.395903e-09 8.932306e-09
1.312960e-08 4.938656e-08 -6.613480e-08 5.448444e-09 4.827390e-09 -5.839885e-09
-6.559887e-09 4.421796e-08 -4.400994e-08 4.795581e-09 7.473304e-09 -4.623055e-09
-3.394878e-10 7.912071e-11 -6.684875e-11 2.582026e-10 1.658822e-10 -1.606610e-11
-4.410525e-10 5.516760e-10 4.321166e-11 8.563741e-10 5.051160e-11 1.061402e-10
-9.149126e-11 3.028200e-10 -5.528378e-11 1.284758e-09 5.194181e-11 1.210507e-10
1.101785e-08 -2.032959e-08 -2.797725e-09 4.837581e-09 9.782797e-10 2.677914e-13
-1.872760e-09 1.074168e-09 2.307341e-10 7.470593e-10 1.607492e-11 -9.889223e-11
1.767830e-10 3.678391e-11 -6.964762e-11 6.609698e-10 3.754993e-11 -2.817746e-12
9.915775e-09 -2.297455e-08 -2.563232e-09 2.079313e-09 2.082769e-10 2.772057e-10
1.193057e-08 -2.133700e-08 -2.563232e-09 1.378057e-11 3.268181e-10 1.988734e-10
-6.107586e-09 1.678488e-09 -5.009301e-09 1.033719e-08 3.709788e-10 -5.816831e-10
2.239453e-10 5.152012e-11 -1.110718e-10 1.774920e-10 1.218223e-10 -1.673393e-10
-1.037854e-09 5.095624e-10 -7.462209e-11 8.830382e-10 -4.974778e-11 -6.134437e-11
6.940984e-09 2.452075e-08 -4.395309e-08 -3.054689e-09 -7.610566e-09 5.466542e-09
-3.549119e-09 8.020796e-09 -1.473346e-08 2.046814e-09 -3.706026e-09 3.652555e-09
-1.425051e-09 6.414984e-10 1.154596e-10 4.760989e-10 1.722841e-10 -4.638886e-11
1.270536e-08 3.549676e-08 -6.829968e-08 -2.422527e-10 1.296123e-08 4.867537e-09
-1.391196e-09 9.777505e-10 1.166622e-10 2.380645e-11 1.195824e-10 -1.246159e-11
1.595994e-09 7.196158e-08 -5.950445e-08 1.056161e-08 3.639139e-09 -1.134527e-08
1.819462e-08 4.461780e-08 -7.730796e-08 -9.644365e-10 2.694470e-08 2.367701e-09
-1.411910e-08 1.697964e-08 -1.863601e-08 -1.479199e-08 7.941187e-09 1.338528e-08
-4.435128e-10 5.583316e-10 7.147705e-11 6.268679e-10 3.949618e-11 -5.774253e-10
-1.014993e-09 8.526353e-10 1.518798e-10 8.887822e-10 1.193535e-10 -1.719425e-10
-1.200092e-09 7.772423e-10 9.302337e-11 8.052318e-10 -1.720300e-11 1.741185e-11
8.659598e-09 -2.390277e-09 -3.012968e-08 -1.469208e-08 1.282559e-08 6.511199e-09
8.648908e-10 1.507870e-09 1.164480e-08 -1.421880e-08 3.041231e-09 -5.293666e-10
-8.113944e-09 3.164905e-08 -7.547652e-09 -1.633574e-08 6.032189e-09 -4.490034e-10
1.203242e-08 -2.790381e-09 8.346336e-09 -1.012832e-08 2.693754e-09 -4.136852e-09
-4.501484e-10 2.778437e-08 -9.170275e-09 -1.300519e-08 7.216773e-09 4.075168e-09
1.350009e-09 1.539693e-08 2.925117e-09 -1.776082e-08 5.635608e-09 -1.794638e-09
5.542646e-10 -9.508258e-09 2.686579e-09 -3.311095e-09 -4.278398e-10 -7.331158e-10
2.456631e-09 -1.220426e-08 2.841010e-09 -2.958251e-09 2.906805e-10 -7.062743e-10
-9.813468e-10 2.190418e-08 -1.095280e-08 -1.523815e-08 2.947807e-09 4.214042e-10
7.538770e-10 -1.100577e-08 2.594167e-09 -3.504542e-09 3.520540e-11 -9.101309e-11
3.238042e-09 6.309145e-09 1.907408e-08 -1.896551e-08 2.823961e-09 9.943826e-10
-4.321646e-10 2.212053e-08 3.421271e-09 -2.030408e-08 6.886543e-09 -2.615120e-09
-3.918895e-09 1.738245e-08 -1.207932e-08 -1.088347e-08 -3.380591e-09 8.460483e-09
5.170267e-09 -1.929775e-08 1.781754e-09 -1.877132e-09 -1.915572e-09 -5.875260e-10
1.129142e-09 -1.056464e-08 2.471733e-09 -4.183521e-09 1.922234e-10 -6.605242e-10
-7.709911e-09 9.525733e-09 -7.755258e-09 8.227807e-09 4.711436e-10 -7.835463e-10
2.821524e-09 -5.629018e-09 -9.090229e-09 -8.405002e-09 -1.842398e-09 -1.002210e-09
1.158215e-08 -1.970074e-08 -6.641136e-09 -3.881472e-09 -8.648273e-09 6.525178e-10
-1.235610e-08 1.778116e-08 -1.053528e-09 -7.941671e-09 4.792105e-10 -2.691374e-09
2.612022e-11 -8.669481e-09 2.445658e-09 -9.836767e-11 -1.748246e-11 -6.932695e-10
-8.079703e-09 1.724755e-08 -8.914313e-09 2.217045e-09 6.113319e-10 -1.138707e-09
-6.388525e-09 1.087516e-08 -3.468899e-09 -6.633179e-09 1.213974e-09 -1.473803e-09
2.942092e-09 -1.335810e-09 -4.923821e-10 1.797935e-09 7.634924e-11 -2.193734e-11
-6.443856e-09 2.168844e-08 -7.455712e-09 -6.965834e-09 6.976393e-11 -3.102665e-09
3.265082e-09 -1.783681e-09 -4.875413e-10 1.142761e-10 1.835447e-10 -2.023892e-11
-8.158061e-09 2.396627e-08 -4.511950e-09 -1.305110e-08 3.809532e-10 -2.462769e-09
-8.702492e-09 2.424748e-08 -1.043149e-08 -2.427319e-09 1.582661e-09 -2.685979e-09
-1.279155e-08 1.787702e-08 -9.887220e-09 2.703813e-09 1.793012e-09 -4.853776e-09
4.819762e-09 -2.554688e-09 -7.469563e-10 -4.103657e-10 7.091816e-11 -4.850542e-11
4.804214e-09 -2.542221e-09 -7.016494e-10 -3.559869e-11 -6.831527e-13 7.017942e-12
-1.037240e-08 1.326229e-08 -5.439966e-09 -9.818167e-10 -1.612657e-09 1.168722e-09
-1.062701e-08 1.795975e-08 -9.252839e-09 4.911076e-09 2.170951e-09 -2.641377e-09
4.804214e-09 -2.758113e-09 -6.887599e-10 -2.341483e-11 -5.530287e-11 5.815348e-12
5.294766e-09 -2.932807e-09 -7.411853e-10 -1.729523e-11 4.083338e-11 7.532641e-12
-5.908514e-09 1.254582e-08 -1.427998e-08 -2.030377e-09 -8.248272e-10 -6.098419e-10
-4.803474e-09 -5.191314e-11 7.306404e-10 4.424104e-10 2.353764e-10 7.293011e-11
-5.566884e-09 1.252581e-08 -1.275881e-08 -2.332502e-09 -1.551571e-09 1.168592e-10
-5.410998e-09 1.687289e-08 -1.494983e-08 1.622472e-09 -3.961568e-09 -4.365022e-09
-7.104704e-10 -1.043026e-08 4.761147e-11 4.879067e-09 -4.184057e-09 7.260758e-10
-3.436796e-09 -2.505259e-09 6.199130e-10 6.250394e-10 2.545120e-11 -5.044276e-11
-3.983805e-09 1.441340e-08 -1.305141e-08 4.002956e-09 -2.888490e-10 -1.766824e-10
5.030977e-09 -2.554688e-09 -7.469554e-10 -5.564164e-10 4.498157e-11 -2.975131e-11
4.325210e-09 -2.284055e-09 -6.940541e-10 -5.696263e-10 -6.998235e-11 4.883605e-11
-3.330523e-09 1.919964e-08 -1.433312e-08 1.458180e-09 -5.651851e-09 -5.613652e-09
3.941842e-09 -1.864126e-09 -6.239995e-10 -8.447542e-11 3.407113e-12 6.190159e-12
4.160563e-09 -2.083551e-09 -6.438210e-10 -1.928151e-09 1.471245e-11 2.754117e-10
-5.139705e-09 1.919563e-08 -1.532823e-08 7.326570e-10 -4.947990e-09 -4.222676e-09
-5.604815e-09 1.239936e-08 -1.131110e-08 -1.308308e-11 -1.908120e-09 -2.241179e-09
-2.735728e-09 1.769050e-08 -1.938108e-08 -9.322826e-10 -3.192667e-09 -2.973956e-10
8.632309e-09 -1.997302e-08 -2.109774e-09 2.833975e-10 -4.530769e-10 1.829640e-10
8.632309e-09 -2.049827e-08 -7.564949e-10 4.039565e-10 -6.372831e-10 3.631836e-10
-3.766746e-09 1.793266e-08 -2.136400e-08 -3.455896e-11 -2.377476e-09 -1.814699e-09
-6.702599e-09 3.885287e-09 -3.110170e-09 -5.009656e-09 -3.772394e-09 -1.948710e-09
-7.963317e-09 7.042779e-09 -4.907386e-10 -2.878069e-09 -2.740840e-09 -1.822535e-09
-8.073516e-09 7.999791e-09 -4.833245e-09 -2.444680e-09 -1.489404e-09 -6.838503e-10
-8.133782e-09 6.489302e-09 -1.801306e-09 8.064376e-10 1.004198e-09 -3.254859e-10
-7.322500e-09 7.391814e-09 -4.101297e-09 -2.026423e-09 -3.114259e-09 -1.632415e-09
-8.887409e-09 4.322129e-09 -1.438759e-09 -2.318035e-09 -3.870877e-09 -1.059106e-09
-6.761266e-09 7.423940e-09 -2.221417e-09 6.744427e-10 7.388505e-10 1.867477e-10
-7.969349e-09 9.994734e-09 -6.485813e-09 2.456102e-09 1.681807e-09 -1.635282e-09
1.255239e-08 1.341852e-09 -1.567886e-09 -5.526370e-09 1.906156e-10 3.326746e-10
-8.973352e-09 4.557485e-09 -5.656640e-10 -1.836209e-09 -2.507883e-09 -8.392958e-10
-7.099890e-09 8.238090e-09 -2.825244e-09 1.658039e-09 -1.213145e-10 -2.213696e-10
-8.506634e-09 7.533897e-09 -3.374469e-09 -1.132140e-09 -1.122674e-09 -2.979295e-10
-5.700690e-09 8.713227e-09 -4.850433e-09 -1.121249e-09 -1.196860e-09 -3.455072e-10
-5.523493e-09 8.713228e-09 -5.014124e-09 -1.298049e-09 -1.930379e-09 2.352122e-12
-6.083853e-09 7.849025e-09 -2.927592e-09 4.022014e-10 -2.899978e-09 -9.691611e-10
3.554617e-09 -1.689928e-08 3.552922e-09 2.215328e-09 7.662537e-11 2.799538e-11
3.826951e-09 -1.657285e-08 2.701978e-09 5.057254e-09 4.562373e-11 3.838663e-11
5.894304e-09 -2.994022e-09 -7.450058e-10 4.463078e-10 1.082965e-11 7.497558e-12
6.065688e-09 -3.191346e-09 -7.180536e-10 5.792315e-10 3.721780e-12 -8.871504e-11
2.166225e-09 -6.443743e-10 -5.486118e-10 -1.334708e-09 -1.040856e-10 3.407301e-10
6.424460e-09 -1.920530e-08 3.532642e-09 2.576339e-11 8.593992e-11 -1.212815e-10
6.418897e-09 -3.209787e-09 -7.042436e-10 6.965568e-10 -3.933380e-13 6.473477e-11
6.054265e-09 -3.070945e-09 -7.516761e-10 2.818346e-10 -1.924122e-11 3.886846e-11
4.509843e-09 -1.604550e-08 3.366548e-09 -1.857641e-10 -8.882323e-16 1.451627e-10
7.748247e-09 -2.128602e-08 2.710622e-09 7.688221e-10 7.816188e-10 -2.511790e-10
3.319528e-09 -1.334378e-08 1.363125e-09 -5.252611e-09 -1.696867e-10 -4.288383e-10
3.506086e-09 -1.398972e-08 2.757595e-09 -3.155119e-09 1.287077e-10 -3.455721e-10
5.438496e-09 -3.065069e-09 -7.423324e-10 2.427031e-11 -1.397063e-12 2.695155e-11
5.606260e-09 -1.776611e-08 1.049850e-09 -4.264152e-09 7.357258e-10 -2.175233e-10
5.748153e-09 -3.245523e-09 -6.933525e-10 2.735927e-10 -5.083020e-11 -1.118096e-10
5.606260e-09 -1.709787e-08 1.826114e-09 -4.118634e-09 -1.946547e-10 -2.918711e-10
7.555428e-09 -3.925082e-09 -2.543948e-10 4.417961e-10 1.876789e-11 -1.254269e-10
4.972640e-09 -2.737737e-09 -6.975631e-10 -1.873642e-09 -3.414325e-12 2.525813e-11
5.697824e-09 -2.931298e-09 -7.522531e-10 -6.940620e-10 -7.155132e-11 7.947976e-11
7.237239e-09 -3.386530e-09 -4.838592e-10 6.959540e-10 -3.612957e-11 4.819922e-11
-2.037893e-08 2.990566e-08 6.643034e-09 -1.808195e-08 -1.084689e-08 -1.149408e-09
-8.144086e-09 1.784210e-09 1.565562e-09 1.282511e-09 1.606262e-09 2.144623e-11
-8.056979e-09 1.171425e-09 1.419605e-09 1.114906e-09 1.181129e-09 -6.325429e-11
-3.952388e-08 2.368087e-08 5.436747e-08 -3.355645e-08 -3.453616e-08 4.508340e-09
-7.108262e-09 -1.445636e-09 2.237745e-09 1.539382e-09 1.252898e-09 1.696550e-10
-3.278405e-09 1.681578e-09 5.728324e-10 2.882614e-10 3.487677e-11 -6.863798e-11
-3.874704e-09 1.587943e-09 7.768559e-10 3.813287e-10 3.128964e-11 1.548939e-11
-5.291366e-09 1.209918e-08 -8.128140e-09 -6.559275e-09 -1.589109e-09 4.302741e-09
-3.019106e-09 1.039344e-08 -2.856456e-09 -1.147166e-08 7.563074e-10 3.036992e-09
-3.903219e-09 1.795181e-09 6.593908e-10 2.793443e-10 3.380940e-11 -1.115630e-11
-8.355411e-09 1.930244e-08 -1.570707e-08 -5.676243e-09 -2.299101e-09 5.907050e-09
-4.741426e-09 9.199542e-09 -4.117730e-09 -8.734708e-09 -1.203396e-09 3.811101e-09
-7.841452e-09 8.378210e-09 3.577624e-09 6.569271e-09 -1.000233e-09 5.771685e-10
-4.837091e-09 4.524160e-09 1.473254e-09 3.357965e-09 -7.045666e-10 -1.227045e-09
-6.432813e-09 5.257200e-09 1.981650e-10 -1.438354e-09 1.933487e-10 -5.574616e-10
-6.414883e-09 1.158783e-09 -2.490508e-09 -1.002006e-08 2.257137e-09 1.453087e-09
-3.745075e-09 1.842984e-09 6.122542e-10 1.906834e-10 -5.588419e-12 -7.099568e-11
-3.595074e-09 1.524024e-09 5.571015e-10 6.229663e-10 -2.820744e-11 2.762213e-11
5.867185e-10 9.252764e-10 2.394882e-09 5.793884e-09 -5.147039e-11 -1.119290e-09
-5.866012e-09 5.008728e-09 5.157599e-10 1.037904e-09 7.564900e-10 4.960770e-10
-7.770928e-09 8.945107e-09 1.089348e-09 2.172276e-09 -5.646069e-10 -2.253636e-10
-3.911927e-09 1.310424e-09 8.297125e-10 2.912026e-10 4.720402e-11 -6.743051e-12
-9.737624e-09 6.310866e-09 -1.115401e-09 -4.753882e-09 3.759055e-10 3.250099e-10
-3.478776e-09 1.815596e-09 4.925811e-10 2.790173e-10 -4.954148e-12 -2.593725e-11
-4.226699e-09 -3.437517e-10 -4.317521e-09 -5.032084e-09 -1.571220e-09 -7.738526e-10
4.316991e-11 3.309509e-09 5.251777e-09 8.539442e-09 3.660249e-10 -8.081611e-10
-9.189714e-09 8.203306e-09 1.172890e-09 1.115328e-09 -4.742635e-10 -5.841293e-12
-9.734563e-09 9.707258e-09 -1.295222e-10 1.969902e-09 -4.884591e-10 -9.460648e-11
-8.561554e-09 1.798565e-09 -4.651053e-10 -4.455483e-09 -5.123590e-09 -1.177137e-09
-6.288839e-09 4.884398e-09 2.448457e-09 3.922477e-09 5.906447e-10 4.525122e-13
-7.811312e-09 3.168846e-09 -6.833853e-10 -3.227082e-09 -2.197249e-09 -7.750536e-10
-4.645168e-09 4.524227e-09 5.313243e-09 9.041142e-09 -1.658495e-10 -1.220802e-09
-8.584265e-09 6.207821e-10 6.141638e-10 -1.883580e-09 -1.637263e-09 -3.602290e-10
3.179905e-09 -4.355372e-09 2.080948e-08 7.038759e-09 -4.013859e-10 -7.808950e-09
-4.195636e-09 4.971085e-09 7.259804e-09 1.142707e-08 1.557530e-09 -4.781008e-09
-5.950664e-09 -4.403533e-09 2.885655e-09 6.887424e-10 6.257355e-10 -9.739143e-11
7.383605e-09 -1.958216e-09 6.608093e-09 7.660074e-09 -6.468721e-10 -2.969986e-09
-7.051431e-10 4.477508e-09 5.313244e-09 8.982104e-09 -1.450552e-10 -1.387287e-09
-7.078294e-09 6.282979e-09 -6.120766e-10 9.807958e-10 2.431376e-09 -4.083248e-10
-7.055895e-09 6.290738e-09 -6.817759e-09 -3.958222e-09 -3.436733e-10 -3.150902e-10
-1.552914e-09 5.461922e-09 -1.924588e-09 -1.426544e-09 2.541578e-09 -5.356001e-10
-8.606858e-09 2.852457e-09 2.724603e-10 -4.376425e-09 -4.179868e-09 -1.043553e-09
-8.141236e-09 -5.413403e-10 7.187775e-10 -3.588463e-09 -3.088471e-09 -5.778547e-10
-9.719308e-09 2.315189e-09 3.959602e-10 9.705159e-09 3.655196e-09 -1.927041e-09
-9.023285e-09 3.683360e-09 3.741816e-10 2.965814e-09 1.582500e-09 -3.509942e-10
-7.585513e-09 2.644874e-09 -2.080726e-09 -3.656489e-09 -1.329996e-09 -2.126823e-10
-7.799167e-09 6.920802e-10 -8.544496e-10 -7.099096e-09 -5.977207e-09 -3.353629e-09
8.502740e-09 -1.656987e-08 -7.063852e-09 6.285186e-09 -8.308510e-09 2.645067e-09
6.403840e-09 -1.646003e-08 -1.911744e-09 1.385654e-09 4.910636e-10 -3.593332e-10
-3.109623e-09 2.228004e-09 9.337109e-11 -2.455552e-09 -1.588116e-10 8.506823e-11
8.337115e-09 -2.498923e-08 1.734739e-09 3.138853e-09 -3.984351e-09 9.673353e-10
6.152224e-09 -1.974383e-08 2.059757e-09 1.357364e-09 -1.570403e-09 2.795485e-10
-8.701125e-09 5.907484e-09 -1.310231e-09 -1.182943e-09 -2.581439e-09 -4.933547e-10
3.425957e-09 -1.462605e-08 2.319290e-09 2.571772e-09 -2.066112e-09 3.420713e-10
1.147747e-08 -2.146539e-08 -4.619809e-09 1.088031e-09 -7.342462e-10 1.192579e-10
4.385038e-09 -1.712115e-08 6.951173e-10 1.962478e-09 -1.405990e-09 3.956722e-10
-8.155985e-09 7.361151e-09 -1.809130e-09 1.024188e-09 5.582055e-10 -3.024381e-10
-5.314472e-09 -3.510371e-09 1.856112e-09 7.473983e-09 1.419588e-09 -2.186308e-10
-8.988613e-09 6.489303e-09 -1.801306e-09 3.463680e-09 -1.947398e-10 -1.326370e-10
3.481044e-09 -1.308561e-08 1.040240e-09 3.523943e-10 -4.848304e-10 4.885012e-10
-8.520594e-09 3.551770e-09 1.018254e-10 8.284480e-10 2.046476e-09 -1.934271e-10
-4.501313e-09 -6.038152e-09 2.726279e-09 4.114578e-09 6.579385e-10 -1.369527e-10
-9.021779e-09 3.922108e-09 -1.676224e-10 1.280629e-09 1.533960e-09 -2.458935e-10
1.095632e-09 -7.821743e-11 -3.567084e-10 -2.935321e-10 -1.505449e-10 1.145362e-10
4.162439e-10 4.044036e-10 -2.309244e-10 -1.497923e-09 -2.730982e-10 4.322975e-11
2.655094e-08 -5.923458e-09 -3.764554e-09 7.738631e-10 6.779712e-10 2.207806e-09
3.116575e-08 -1.143032e-08 -2.880254e-09 5.203919e-09 3.282315e-09 6.585130e-09
2.043729e-08 -5.271705e-09 -4.085261e-09 1.619809e-09 1.278611e-10 1.682843e-09
2.064100e-09 -8.872219e-10 -3.738854e-10 -1.394568e-09 -2.013003e-10 1.422872e-10
1.386158e-09 -3.375256e-10 -3.567246e-10 -5.217498e-10 -2.097131e-10 -1.893824e-11
-3.932175e-09 1.780181e-09 6.843841e-10 1.884795e-10 -6.397327e-12 4.307621e-11
-4.021834e-09 1.887765e-09 6.719052e-10 1.928857e-11 2.671130e-11 -4.550560e-11
-4.097223e-09 1.460105e-09 8.867462e-10 1.036598e-10 2.406342e-11 -1.330052e-10
7.584285e-09 -4.271433e-09 2.749673e-09 3.853456e-09 -1.267729e-10 -1.156194e-09
-3.838197e-09 2.977592e-10 1.046705e-09 -1.264975e-10 -7.010681e-11 -2.107576e-10
-3.997524e-09 1.241244e-09 8.407148e-10 5.994449e-11 5.677736e-11 -1.713771e-10
-1.085738e-08 2.102557e-08 -6.058601e-09 1.860519e-09 1.809593e-09 -5.878380e-10
1.022615e-08 -4.271433e-09 4.130920e-09 3.998261e-09 -2.117201e-10 -3.108360e-09
-3.791483e-10 1.816183e-09 5.092220e-09 7.352270e-09 -6.958085e-10 -6.304686e-10
-3.765422e-09 2.606733e-10 1.324884e-09 -2.737157e-10 2.890488e-11 -2.008257e-10
3.772880e-09 -1.684674e-09 4.430923e-09 6.079707e-09 -1.845103e-10 -1.487912e-09
-3.266921e-09 -8.094035e-09 3.649857e-09 -4.440864e-16 4.779899e-11 2.958700e-11
7.184714e-09 -4.068512e-09 3.632990e-09 3.566649e-09 -1.802361e-10 -1.408097e-09
6.452421e-09 -1.958215e-09 3.925567e-09 7.160145e-09 -5.553365e-10 -2.137322e-09
4.714484e-09 -1.702312e-09 4.430922e-09 6.958631e-09 -1.886798e-10 -1.070182e-09
7.186046e-09 -2.141193e-08 3.658662e-09 1.139438e-09 7.504186e-10 -7.592196e-11
7.073944e-09 -2.063657e-08 3.564417e-09 4.202509e-10 2.194391e-10 3.654554e-11
8.801363e-09 -2.185704e-08 2.128505e-09 -1.465849e-10 1.122132e-09 -8.870926e-11
7.546399e-09 -2.042577e-08 2.152786e-09 -1.620605e-09 1.109103e-09 -1.021772e-10
7.039916e-09 -2.065572e-08 3.339342e-09 1.440917e-10 -1.111022e-11 5.717493e-11
6.481907e-09 -2.006244e-08 3.798097e-09 1.577305e-10 1.615166e-10 -1.393341e-10
7.334481e-09 -2.112499e-08 2.540575e-09 -7.009662e-10 2.688960e-11 -7.769341e-12
-3.007585e-09 -7.783061e-09 3.388421e-09 7.080728e-21 -1.294755e-10 1.823315e-10
-2.375362e-09 -8.717643e-09 3.543685e-09 2.000333e-10 1.185387e-10 2.135735e-10
9.229078e-09 -2.285890e-08 -1.029303e-09 9.641353e-10 9.540930e-10 -3.206635e-10
9.321429e-09 -2.111195e-08 1.575251e-09 5.342098e-10 5.666851e-10 -3.155002e-10
7.867490e-09 -2.121710e-08 2.350418e-09 1.261503e-09 -4.468597e-10 2.118883e-11
-3.845308e-09 1.523825e-09 7.390257e-10 7.089068e-11 6.302736e-11 3.193878e-11
-1.576813e-09 1.979550e-09 -3.689200e-10 -3.817318e-09 -2.088328e-10 4.959650e-10
-4.072779e-09 1.080599e-09 9.914158e-10 1.889717e-10 -1.110220e-15 8.559375e-12
-4.074774e-09 5.899903e-10 1.136816e-09 -3.726752e-11 -1.117217e-10 -5.831224e-11
-4.108966e-09 1.437682e-09 8.144367e-10 2.865652e-10 2.752676e-11 -8.151368e-11
-3.991437e-09 8.735498e-09 -1.590778e-08 1.448347e-08 7.831547e-09 -5.514480e-09
-6.676508e-10 3.565386e-08 -4.629977e-08 8.770131e-09 4.823448e-09 -2.151690e-09
-4.077283e-09 1.057074e-09 9.642642e-10 -1.680962e-10 2.531619e-11 -9.437784e-11
2.395282e-10 4.989833e-08 -6.540007e-08 7.572774e-09 2.300548e-08 -1.499028e-08
-8.926478e-09 3.723677e-08 -3.115247e-08 5.670901e-09 9.748790e-09 -1.190680e-08
-1.675695e-08 3.013229e-08 -8.490309e-09 -6.500676e-09 1.626110e-10 -5.098335e-10
-3.010782e-09 2.089903e-08 -2.824268e-08 1.159899e-08 3.675992e-09 -2.483114e-09
-4.689699e-09 2.586357e-08 -3.915728e-08 1.251772e-08 1.546355e-08 -1.330995e-08
5.585163e-09 3.372533e-09 -2.782738e-09 -2.713128e-09 1.775685e-09 -7.476041e-10
-9.760189e-09 2.605109e-08 -3.013796e-08 6.636811e-09 3.773931e-09 -3.123330e-09
-1.045140e-08 2.549788e-08 -1.840855e-08 6.390823e-09 6.584067e-09 -6.952157e-09
-5.351841e-10 -7.500324e-09 2.394971e-09 -7.016487e-10 4.208172e-10 -5.583803e-10
2.123743e-09 -1.120424e-08 2.385165e-09 -4.631809e-09 6.118754e-10 -2.710588e-10
2.122804e-09 -1.184409e-08 2.984352e-09 -4.595961e-09 -7.097865e-10 -1.373615e-10
-1.355475e-09 -6.636283e-09 2.086977e-09 -3.308579e-09 -8.855905e-11 -3.790065e-10
-6.657199e-09 -3.532839e-09 1.138721e-09 -5.739151e-09 -3.241191e-09 -1.166395e-09
-1.165561e-08 2.549788e-08 -1.589943e-08 7.440060e-09 5.588711e-09 -7.703445e-09
-5.757855e-09 -1.705129e-09 -2.686688e-09 -4.413563e-09 -3.693075e-09 -1.359176e-09
-4.097314e-09 1.460101e-09 8.034586e-10 9.773071e-11 3.502398e-11 -1.103964e-10
-4.102242e-09 1.665676e-09 7.599033e-10 1.492086e-10 3.603196e-11 -1.477017e-10
-5.127553e-09 -3.476391e-09 2.047932e-09 -1.832167e-09 -1.063747e-09 -2.952244e-10
-3.585020e-09 -3.206928e-10 1.318964e-09 1.660583e-10 4.248779e-11 -1.764235e-10
-3.742382e-09 -3.206928e-10 1.207049e-09 1.102256e-10 1.020872e-11 -1.897242e-10
5.854817e-09 -1.906289e-08 3.802057e-09 2.857794e-10 1.234155e-10 5.183987e-11
-3.899203e-09 3.908633e-10 1.136029e-09 1.662543e-10 3.403400e-11 -2.959211e-10
-3.479199e-09 -1.545911e-09 1.605547e-09 -4.559742e-10 -7.781004e-11 -2.033348e-10
-3.747841e-09 -7.389644e-11 1.270334e-09 -1.096236e-10 6.068102e-11 -2.909914e-10
4.234725e-09 -1.620602e-08 -5.780258e-10 5.391194e-09 -4.663542e-09 1.165751e-09
-4.040047e-09 1.715445e-09 7.184466e-10 1.433041e-10 1.611133e-11 9.378789e-12
3.213490e-09 -8.702377e-09 -6.456215e-09 5.690392e-09 -3.585249e-09 1.682218e-09
2.163875e-09 -1.140475e-08 -5.222002e-09 -9.760567e-09 -7.136771e-09 -2.825105e-09
9.503001e-09 -2.928719e-08 2.486581e-09 -1.030191e-08 -9.341708e-09 -2.283006e-09
6.611820e-09 -1.718563e-08 -2.369942e-09 -3.371579e-09 -2.174769e-09 -3.693051e-10
-3.598165e-09 -4.954614e-10 1.257181e-09 3.871126e-11 5.479017e-11 -2.747769e-10
2.844962e-09 -1.652285e-08 5.210770e-10 -7.712551e-09 -6.452284e-09 -1.343732e-09
-3.968958e-09 1.456707e-09 8.215659e-10 9.708323e-11 9.840434e-12 -9.799359e-11
2.236586e-09 -1.557621e-08 -7.634189e-10 -1.105285e-08 -8.164792e-09 -3.477589e-09
-2.478974e-08 4.261360e-08 -2.898244e-08 -7.001658e-09 -5.955255e-09 -1.652097e-09
4.643112e-09 -1.742649e-08 3.679979e-09 6.842968e-10 -1.731232e-10 -1.844303e-11
-1.474521e-08 5.562452e-08 -8.515631e-09 2.226989e-08 -2.482162e-08 -1.022850e-09
-4.077917e-09 1.628293e-09 7.411869e-10 -4.387158e-12 -1.238454e-12 -1.359106e-10
5.113364e-09 -1.736754e-08 3.412025e-09 2.683338e-09 9.804759e-10 2.657563e-11
1.238311e-08 -5.073951e-10 -3.319032e-09 -9.870410e-10 1.453427e-09 -7.974197e-10
1.686545e-08 -2.436290e-09 -1.988790e-09 -4.525584e-10 2.058912e-09 2.165827e-10
2.840659e-08 -9.607078e-09 -1.861806e-09 -2.018163e-09 5.178522e-10 1.709495e-09
-7.069413e-09 9.837369e-09 -2.310351e-09 -4.512995e-10 -3.096899e-09 -2.816972e-09
1.391021e-08 3.872573e-10 -4.723235e-09 2.224719e-09 -2.169045e-10 -2.559438e-09
-2.148291e-09 2.119805e-09 1.765486e-10 -1.678362e-09 2.403944e-11 1.010835e-10
3.856286e-09 -2.105918e-09 -5.762015e-10 9.557039e-10 1.203823e-10 -1.899094e-10
-8.903242e-09 3.967169e-09 2.455793e-10 -1.384030e-09 -2.788138e-09 -3.816879e-10
4.665711e-09 -1.750410e-08 3.635168e-09 1.216859e-09 3.246501e-10 -2.657825e-11
-8.414155e-09 1.684638e-09 1.267764e-09 -5.607461e-10 -1.088509e-09 -5.333833e-11
5.161633e-09 -1.853759e-08 3.820652e-09 4.653593e-10 7.315881e-11 -8.322942e-11
1.606971e-09 -2.543601e-10 -3.977503e-10 -1.718377e-10 -6.345036e-11 1.966294e-11
1.191421e-08 1.440819e-08 -5.397919e-08 1.389367e-08 2.553714e-08 -9.784887e-09
3.544197e-09 -1.582645e-08 3.708901e-09 1.122561e-09 1.386619e-11 1.697535e-10
-3.855810e-09 -2.267520e-09 1.292495e-09 1.367161e-09 -1.170567e-09 -3.571980e-11
-7.831466e-09 -4.781722e-10 1.890049e-09 -1.609332e-09 -8.165422e-10 -1.785763e-10
-2.695445e-09 1.957466e-09 1.266987e-10 -1.851379e-09 -2.123361e-10 -2.378331e-10
-6.553751e-09 -1.829342e-09 9.156271e-10 -3.677663e-10 -1.680611e-11 -4.446326e-10
-6.514000e-09 -1.704089e-09 2.002343e-09 -2.068581e-09 -1.345108e-09 5.058764e-11
-2.720776e-09 -5.028928e-09 -1.277422e-09 3.690827e-09 -2.395529e-09 1.027146e-09
-6.336142e-09 -3.275744e-09 2.058671e-09 -4.399503e-10 -2.198401e-10 -3.040455e-10
-7.145044e-09 -1.001879e-09 1.876674e-09 -1.367466e-10 -4.282305e-10 9.724832e-11
-2.975222e-09 -3.275288e-09 1.151645e-09 6.771683e-10 -8.234398e-10 -1.521892e-10
-4.771217e-09 -4.921485e-10 -7.903855e-11 1.669446e-09 -1.332708e-09 4.387016e-10
3.361809e-09 2.545145e-09 -1.945138e-09 2.614604e-10 2.088377e-09 -1.214588e-10
3.361809e-09 4.129910e-09 -2.383519e-09 2.963194e-10 2.161917e-09 -4.885869e-11
5.086219e-09 -2.852343e-09 -7.136949e-10 2.751347e-10 -4.858391e-11 -8.750201e-11
4.451497e-09 -2.398696e-09 -6.265015e-10 6.230388e-11 -9.075490e-12 -3.463896e-14
4.035003e-09 -1.830894e-09 -4.863505e-10 1.719510e-09 4.125911e-11 -8.149792e-11
6.600043e-09 -1.897129e-08 3.203485e-09 -6.832610e-10 2.126048e-10 6.748824e-11
-3.879450e-09 2.091661e-09 5.541940e-10 5.546674e-12 -1.528844e-11 9.556800e-12
7.537019e-09 -1.929206e-08 2.776540e-09 -1.573012e-09 2.552938e-10 -1.528226e-10
7.007336e-09 -2.072009e-08 3.442405e-09 5.705517e-10 5.642304e-10 -6.885170e-11
-3.926063e-09 -3.713343e-09 -2.416236e-09 -7.103746e-09 -3.646802e-09 -1.703829e-09
-1.894054e-09 -9.915118e-09 5.531366e-10 -7.433630e-09 -5.161626e-09 -1.376390e-09
-3.947557e-09 2.142110e-09 5.507030e-10 1.320100e-11 -1.860734e-12 0.000000e+00
-3.726486e-10 -1.258574e-08 3.280009e-09 4.951631e-09 2.402584e-10 -1.194417e-10
1.359920e-08 -2.178298e-08 -1.011416e-08 -7.137093e-10 -5.650503e-09 3.306121e-10
1.072862e-08 -2.625740e-08 2.887419e-10 -2.939364e-10 -1.041209e-09 2.986818e-10
1.072862e-08 -2.625740e-08 2.253080e-09 -4.170619e-10 -7.617422e-10 -1.340310e-10
9.130588e-09 -2.560511e-08 2.505598e-09 -4.669150e-10 -1.344336e-09 1.366803e-10
-3.940483e-09 1.877231e-09 6.151162e-10 1.556177e-10 4.398515e-11 -9.740186e-11
-3.693971e-09 1.975499e-09 5.002949e-10 9.067857e-11 -4.115375e-11 1.146638e-11
-2.607900e-09 1.545180e-09 3.192480e-10 7.204948e-11 1.157123e-10 3.477540e-11
7.950467e-09 -2.131673e-08 2.578961e-10 -6.781509e-10 -8.627474e-10 -2.242368e-10
-3.736169e-09 2.696826e-09 2.963070e-10 -4.011127e-10 -1.819589e-11 -1.886276e-10
-3.067998e-09 -2.338842e-09 1.796315e-09 7.577161e-11 5.568632e-21 3.674616e-11
1.856547e-08 -5.832212e-09 -3.070974e-09 -1.011012e-10 1.107576e-09 -3.660002e-11
-3.473312e-09 2.789768e-09 1.957057e-10 -6.026468e-11 -3.115486e-11 -6.245160e-11
-4.793415e-09 2.362022e-10 9.231149e-10 -2.693645e-10 -1.602026e-10 -3.442768e-10
5.810131e-09 3.106361e-09 -2.981279e-09 -2.888410e-09 2.006844e-09 -5.679502e-10
-4.999177e-09 1.390281e-09 6.266871e-10 -7.697665e-10 -6.169132e-11 -1.639514e-11
2.571944e-09 -1.228496e-08 -3.060481e-10 -3.241095e-09 -2.005575e-09 -5.372419e-10
-3.452483e-09 7.093349e-09 -1.918005e-09 1.909399e-10 2.409413e-09 -5.464390e-10
-2.410825e-09 5.470772e-09 -2.223218e-09 6.520220e-10 1.951023e-09 -1.903668e-10
-3.678567e-09 -7.001884e-10 1.409373e-09 -9.940884e-10 2.747584e-10 -7.754331e-11
-6.933937e-10 -5.260271e-09 -2.390958e-09 -5.296363e-09 -3.730134e-09 -1.207612e-09
-3.730230e-09 -1.252715e-09 1.520460e-09 -1.540709e-09 -4.202061e-11 -1.237060e-10
5.625481e-09 -1.992025e-08 1.258864e-09 -2.216619e-09 -1.327763e-09 -4.104790e-10
-3.617367e-09 -6.489316e-09 1.240387e-09 -6.839089e-10 -4.428784e-10 1.967408e-10
-2.830458e-09 -5.838401e-09 -1.030215e-09 -4.414365e-09 -1.499418e-09 9.305091e-11
-3.926063e-09 -5.303987e-09 -2.686688e-09 -7.494273e-09 -4.493455e-09 -2.043137e-09
6.310898e-09 -1.691601e-08 -2.338313e-09 -6.115353e-10 -4.436671e-16 -3.451004e-10
3.128510e-09 -1.362441e-08 -2.175610e-09 -2.207027e-09 -1.307450e-09 -6.352883e-10
1.257275e-08 -1.863889e-08 -1.051754e-08 9.062178e-10 -1.790628e-09 -7.966355e-11
-3.394849e-09 1.352760e-09 7.248335e-10 5.339753e-10 1.471658e-10 -1.430137e-11
5.666978e-09 -1.828649e-08 -3.361325e-10 7.197634e-09 1.623080e-09 -2.341766e-10
1.357972e-08 -6.542765e-09 -2.545525e-08 -5.052481e-09 -1.299921e-08 -1.326039e-09
3.536219e-09 -1.491309e-08 -3.509379e-10 9.511469e-09 5.670129e-10 -1.286402e-10
1.262553e-08 -1.681258e-08 -1.069580e-08 -3.836651e-09 -1.803895e-09 -1.010250e-10
5.216536e-09 -7.119109e-09 -1.469547e-08 -9.043816e-09 -7.872551e-09 -1.658446e-09
1.013501e-08 -1.636549e-08 -7.943050e-09 -5.342569e-09 -1.733697e-09 -2.907922e-10
5.007438e-09 -2.239241e-08 -1.177906e-09 -1.234829e-08 -1.023549e-08 -3.212561e-09
7.902568e-09 -2.616895e-08 1.238404e-09 -3.413367e-09 -4.883318e-09 -3.914392e-10
3.789149e-09 -1.097265e-08 -5.707196e-09 1.054888e-08 2.819990e-09 -4.396501e-10
4.941080e-09 -1.199341e-08 -5.644857e-09 -6.049008e-09 -1.142854e-09 7.202283e-11
9.343575e-09 -1.349161e-08 -1.693191e-08 -7.548536e-09 -1.023468e-08 -1.617876e-09
2.435836e-09 -1.213073e-08 -1.731227e-09 -3.317833e-09 -2.386485e-09 2.944096e-10
5.052630e-09 -1.650442e-08 -1.677343e-10 1.031229e-08 9.241515e-10 -1.048105e-09
6.309751e-09 -1.971464e-08 -5.745517e-10 6.237186e-09 6.955859e-10 -1.730976e-10
5.004360e-09 -1.789707e-08 -5.558350e-09 1.110587e-08 4.637914e-09 -5.814232e-10
8.436934e-09 1.662757e-08 -4.387828e-08 -6.263469e-09 -8.323072e-09 -9.932392e-10
-1.695839e-08 2.442217e-08 4.212142e-11 -1.363702e-08 -1.294004e-09 -3.798432e-09
-4.240255e-09 1.012808e-09 -1.728755e-09 1.361963e-09 -1.316447e-09 3.625211e-10
-4.699390e-09 -2.219469e-10 -5.340477e-10 1.319201e-09 -2.809670e-10 9.464063e-11
-7.866023e-10 -2.937787e-09 -4.390786e-09 4.038822e-09 -4.933925e-10 -1.289716e-10
-8.904593e-09 1.795975e-08 -9.068278e-09 3.589283e-09 3.384160e-09 -3.532378e-09
-1.237468e-08 1.778253e-08 -3.537465e-09 -7.930438e-09 -2.908006e-10 -2.064164e-09
6.676530e-09 -3.266851e-09 -6.398260e-10 -7.632326e-10 -8.140222e-11 3.311618e-11
1.115976e-08 -2.747395e-08 1.745522e-09 -7.534666e-10 -1.554947e-09 -4.243983e-10
6.102926e-09 -2.837196e-09 -6.734462e-10 -1.483516e-09 -2.220979e-11 5.219358e-11
5.467448e-09 -2.727218e-09 -6.841230e-10 -1.962363e-09 -6.689493e-11 2.545713e-10
5.090248e-09 -2.956162e-09 -6.928009e-10 -5.426074e-10 -8.978596e-11 7.487597e-11
7.904267e-09 -2.316796e-08 1.534094e-09 -2.272203e-09 -1.361278e-09 -2.100871e-12
5.554464e-09 -2.971015e-09 -7.601191e-10 -2.407517e-10 -1.933149e-11 1.027356e-11
-4.271006e-09 -9.275780e-11 -1.859324e-09 2.447841e-09 -8.954798e-10 3.306649e-10
-4.842336e-09 1.963016e-09 -6.289236e-10 -3.183928e-10 -7.553325e-10 3.143219e-11
-4.240255e-09 -2.479574e-09 -2.285105e-11 2.392345e-09 -1.376496e-09 6.208480e-10
1.533373e-08 -3.569175e-08 -1.096490e-09 1.307444e-09 -1.337338e-08 1.316980e-09
1.463073e-08 -3.405850e-08 -1.022768e-09 -4.852361e-09 -1.336390e-08 -8.465449e-10
-2.310765e-08 4.510035e-08 1.560139e-08 1.874844e-08 1.876298e-08 -8.513805e-09
1.311425e-08 2.022475e-08 -5.107053e-08 -3.651771e-09 -2.267912e-08 -3.140912e-10
1.214827e-08 5.383961e-09 -3.820016e-08 -1.731886e-10 -1.789182e-08 2.957852e-09
1.562017e-08 -8.317178e-09 -2.987908e-08 -2.447142e-09 -1.577056e-08 5.586628e-10
6.656217e-09 -2.117194e-08 1.647373e-09 -6.215082e-10 -8.807023e-10 3.157035e-10
5.171100e-09 -2.945539e-09 -7.360659e-10 1.311748e-10 1.925043e-11 -9.217338e-11
5.295823e-09 -3.005924e-09 -7.656578e-10 -8.176700e-10 -9.955148e-11 -2.630060e-11
1.354345e-08 -6.227804e-09 -2.514341e-08 -5.195336e-09 -4.284598e-09 -3.453789e-10
-4.408600e-09 1.264116e-08 -9.407871e-09 8.972047e-10 -8.992340e-10 -7.688152e-10
5.419703e-09 -8.753868e-09 -1.215746e-08 -7.164066e-09 -2.450428e-09 -4.234042e-10
6.006232e-09 -3.339843e-09 -8.641294e-10 -1.511214e-10 5.005639e-11 8.925749e-12
1.280637e-08 -1.673227e-08 -1.414944e-08 3.440879e-09 -5.182723e-09 4.126554e-10
-3.338076e-10 -1.146745e-08 3.535855e-09 1.158278e-09 8.349616e-11 2.194125e-10
9.343575e-09 -1.709933e-08 -8.915362e-09 -6.650884e-09 -5.357976e-09 -1.113801e-09
1.328692e-08 -1.655048e-08 -1.333473e-08 -4.030249e-09 -6.497202e-09 -7.689404e-10
1.624196e-09 -1.430393e-08 3.749878e-09 4.381064e-10 1.071421e-10 1.210387e-11
1.450486e-08 -9.436944e-09 -2.372190e-08 -1.876165e-09 -1.198189e-08 6.028138e-10
1.022134e-08 1.361006e-08 -4.389956e-08 -2.626105e-09 -7.513223e-09 6.313949e-10
1.596845e-09 -1.345377e-08 3.722035e-09 1.774302e-09 1.914524e-10 3.868073e-10
4.616117e-09 -1.772063e-08 2.660669e-09 5.238748e-09 7.417245e-10 -2.232670e-10
-3.044077e-09 2.613515e-09 -7.881393e-09 3.350105e-09 -2.738123e-09 1.929004e-09
2.994512e-09 -1.649810e-08 3.864697e-09 2.322430e-09 3.044325e-10 1.797642e-10
-5.478517e-09 7.398259e-09 -7.828564e-09 2.365021e-10 -2.669575e-09 2.431832e-09
-3.835076e-08 1.127595e-08 8.545820e-08 2.027021e-08 2.217497e-08 5.479942e-09
1.186835e-08 -1.428613e-08 8.573186e-08 2.837385e-08 2.287631e-08 4.668217e-08
3.315215e-08 -3.018982e-09 -4.729879e-09 -5.660445e-09 4.681809e-10 7.395366e-09
6.530986e-09 -1.960173e-08 3.961557e-09 1.013646e-09 2.450024e-10 2.217413e-10
6.848266e-09 1.042704e-08 1.204150e-09 -1.254561e-08 -1.371380e-09 1.263931e-09
5.615390e-09 -1.853063e-08 3.759702e-09 2.471321e-10 1.181141e-10 5.372369e-12
-2.653340e-08 1.124431e-08 7.901070e-08 2.003586e-08 2.405013e-08 2.396431e-08
7.760513e-09 1.926021e-08 -4.879712e-08 -1.059004e-08 8.389600e-09 1.281164e-08
2.091842e-08 2.383804e-08 -6.495273e-08 -1.915673e-09 1.181473e-08 -8.303858e-11
4.337967e-09 -1.693208e-08 3.783441e-09 3.843530e-10 1.665516e-10 1.950625e-10
5.816189e-09 2.171198e-09 -4.137501e-08 -1.431097e-08 1.089620e-08 2.586963e-09
1.688439e-08 -5.335688e-09 6.271997e-09 1.490706e-08 2.512680e-09 2.331796e-09
9.653001e-09 6.538933e-09 3.927703e-11 1.751950e-08 2.250430e-10 -3.296480e-09
-2.394975e-09 -3.375516e-09 1.813989e-09 -2.017946e-09 2.022686e-10 -1.441465e-10
-3.316838e-09 -1.474437e-09 1.545803e-09 -8.288430e-10 -2.291882e-10 -2.365930e-11
-4.601070e-10 -8.042772e-09 2.291121e-09 -2.664564e-09 -4.723332e-12 -2.513226e-10
-3.316838e-09 -2.366095e-09 1.929790e-09 -1.147871e-09 -3.807108e-10 -8.612577e-11
-1.887509e-08 6.272004e-08 9.763169e-08 -1.080475e-08 -6.960262e-08 -4.972272e-09
-1.714155e-09 -5.265709e-09 2.229960e-09 -9.805990e-10 1.440270e-11 9.603918e-11
3.912312e-09 4.981262e-08 -7.196047e-08 2.599453e-09 1.426727e-08 1.827016e-08
-5.108908e-08 -3.104164e-08 1.189145e-07 5.807442e-10 -1.814955e-08 -1.131211e-08
-5.061223e-08 -1.570871e-08 1.167891e-07 -2.295057e-09 -9.653959e-09 -2.666506e-09
-2.200037e-08 4.784413e-08 -1.881475e-09 7.102657e-10 -1.900482e-08 -1.588623e-08
1.595279e-09 -1.104417e-08 2.746688e-09 -1.417905e-10 1.782712e-10 -2.508240e-10
-3.664223e-08 6.272004e-08 3.943127e-08 6.030694e-09 -5.690668e-08 -5.698328e-09
-1.705286e-08 4.589913e-08 -2.210772e-09 3.453525e-09 -1.632661e-08 -1.422203e-08
-4.410885e-08 4.911366e-08 9.737549e-08 1.766273e-08 -6.534043e-08 -1.997540e-08
2.625925e-09 -1.379610e-08 2.515883e-09 -2.304329e-09 1.080920e-09 -1.229971e-11
-2.773752e-10 6.952782e-09 2.020846e-08 -1.893072e-08 1.020377e-08 -5.126468e-09
-1.685142e-09 2.517855e-08 -4.015882e-09 -1.779137e-08 9.391233e-09 5.053608e-09
-3.918895e-09 1.858873e-08 9.790757e-10 -1.592102e-08 8.788124e-09 5.681574e-09
-3.026257e-09 1.034280e-08 -3.185469e-09 -1.144827e-08 1.850281e-09 2.239964e-09
3.728223e-09 -7.227703e-09 1.898172e-08 -1.425397e-08 -5.370097e-09 6.263674e-10
-4.808609e-10 -7.875302e-09 2.500590e-09 -9.818417e-10 5.054557e-10 -4.942714e-12
1.595280e-09 -1.117639e-08 2.963292e-09 -5.573678e-11 6.206835e-11 -4.158982e-11
-5.769671e-09 -3.901439e-09 2.516718e-09 3.841479e-09 1.244698e-09 -1.842161e-10
-5.399244e-09 6.157299e-09 -1.067187e-08 -7.521353e-09 -5.116676e-09 -4.291085e-09
4.771831e-10 -9.474004e-09 6.548371e-10 -7.170370e-09 -6.704797e-10 -4.383440e-10
-2.569456e-09 -2.944839e-09 1.477112e-09 -3.982095e-10 5.111812e-10 -5.693431e-10
-3.387649e-09 -3.192488e-09 1.730825e-09 -2.248342e-09 -1.182925e-10 -3.224490e-10
3.469713e-11 -8.771522e-09 2.625341e-09 -3.407825e-11 1.269429e-12 -6.219213e-11
2.350962e-10 -8.832048e-09 2.678247e-09 -8.572384e-10 -4.108500e-10 -9.705087e-11
-7.095585e-10 1.007230e-09 -9.920909e-11 -1.580219e-09 -2.095595e-10 4.807331e-11
3.271950e-09 -1.748973e-09 -6.316454e-10 -2.048193e-09 -9.203016e-11 2.481593e-11
1.250789e-09 -1.007150e-10 -4.403866e-10 -1.085556e-09 -2.137877e-10 -8.031034e-11
-2.308076e-09 2.203360e-09 1.344485e-10 -4.805469e-10 -7.229395e-11 -2.620842e-11
-2.752945e-10 1.011805e-09 -1.603691e-10 -1.863118e-09 -2.683567e-10 -4.898304e-11
-9.922809e-10 1.010720e-09 -1.149199e-10 -1.870657e-09 -1.358429e-10 -4.732725e-11
-2.711947e-09 6.710488e-09 5.212051e-09 1.361207e-08 4.649627e-09 -1.735735e-08
-7.770172e-09 5.686717e-09 3.196887e-08 1.768201e-08 5.395848e-09 -2.899026e-09
-1.379203e-08 2.747248e-08 -2.119691e-09 1.176608e-08 -3.566303e-09 9.480632e-09
5.276700e-09 -3.072182e-09 -6.934302e-10 3.594828e-10 7.804345e-11 1.105006e-10
-5.511118e-09 9.407803e-09 3.965061e-08 1.560284e-08 -1.416839e-08 -1.091415e-08
5.399459e-09 -3.086151e-09 -7.023377e-10 4.272686e-11 -1.613152e-11 8.154222e-11
8.072014e-10 4.236065e-10 1.891158e-10 3.181015e-09 7.476685e-12 -3.121894e-10
-2.594635e-09 1.247435e-09 4.828866e-10 1.746835e-09 3.465457e-10 -1.963807e-10
5.246271e-09 -2.876440e-09 -7.495387e-10 -1.148525e-09 -1.488019e-10 1.364386e-10
-3.101005e-09 2.565347e-09 6.433893e-10 2.727022e-09 -4.775025e-11 -3.296420e-10
-4.918910e-10 9.049312e-10 7.712164e-10 3.687773e-09 -3.606072e-10 -9.962409e-10
-3.819443e-10 9.093697e-10 7.754042e-10 3.727740e-09 4.051334e-10 1.528442e-10
5.433511e-09 -3.093117e-09 -6.484706e-10 4.093244e-10 6.147738e-11 1.631908e-10
-2.966308e-09 1.550465e-08 -1.065742e-08 5.647168e-09 -2.814521e-09 -3.381899e-09
5.618714e-09 -3.149888e-09 -7.978906e-10 -8.434100e-10 -3.109546e-11 -3.864908e-12
1.059938e-09 1.955565e-08 -1.305141e-08 1.006140e-08 -4.805787e-10 -5.249259e-10
-1.936389e-09 1.156571e-08 -9.889651e-09 5.663347e-09 -1.300594e-09 -2.424120e-09
-2.784522e-09 2.485265e-09 2.007514e-10 -3.049812e-10 -2.028444e-11 -2.798872e-12
-1.729714e-09 1.893662e-09 4.625855e-12 -9.578530e-10 -2.122456e-10 6.601647e-11
-2.603259e-09 2.256520e-09 1.954819e-10 -6.438019e-10 2.368328e-11 -6.662249e-11
-3.338884e-09 2.649827e-09 2.114531e-10 -1.550289e-10 -1.586864e-11 -3.376499e-11
-2.299725e-09 2.005287e-09 1.418243e-11 -4.594627e-10 4.804068e-11 5.677414e-11
7.043795e-09 -1.839676e-08 -3.249699e-09 8.861202e-09 2.103425e-09 -4.903585e-10
2.998121e-09 -1.455273e-08 -7.289493e-10 8.871974e-09 1.515365e-09 3.475442e-11
-3.132093e-09 -8.563349e-09 3.823789e-09 1.361000e-10 3.868816e-11 9.107626e-11
-6.548332e-09 -9.854517e-10 1.674863e-09 -1.937545e-09 -1.327747e-09 1.919260e-10
-3.476647e-09 -8.276965e-09 3.822091e-09 1.460281e-10 0.000000e+00 -3.887690e-11
-1.274980e-09 1.776862e-09 -1.276956e-08 -6.533758e-09 -3.542686e-09 -6.318150e-10
2.081389e-09 -1.217231e-08 4.477885e-11 -1.001260e-08 -6.186894e-09 -2.471418e-09
-4.202615e-09 -1.457388e-09 -3.292225e-09 -4.879369e-09 -3.269689e-10 -5.825527e-10
-3.803283e-09 -7.914806e-09 3.607040e-09 3.160654e-10 -1.473712e-10 3.495204e-12
-1.256119e-09 -3.739874e-09 -6.928106e-09 -7.091804e-09 -3.015531e-09 -3.530279e-10
2.141967e-10 -5.299428e-09 -2.493909e-09 -5.448794e-09 -3.578455e-09 -1.470004e-09
-8.931323e-09 2.664676e-09 5.820899e-11 -1.430250e-09 -3.982965e-10 3.169687e-11
-2.298736e-09 -7.628200e-09 7.017453e-11 -2.673274e-09 -1.542998e-09 -4.772926e-10
-6.960956e-09 8.352623e-09 -6.225524e-09 -4.691581e-09 -6.047279e-09 -3.466102e-09
-4.364694e-09 -5.262102e-11 -3.046008e-11 4.279490e-10 -1.653353e-10 1.601489e-10
-7.537675e-09 -8.339107e-10 1.736200e-09 -1.510081e-10 -2.563358e-10 -3.924696e-10
-4.339031e-09 1.366852e-09 -6.434407e-09 -5.363391e-09 -1.368798e-09 -9.944738e-10
-3.660574e-09 8.724750e-10 -6.957366e-09 -9.777825e-09 -1.686941e-09 -1.916568e-09
-4.733999e-09 -3.078178e-10 3.814158e-10 1.085547e-09 -1.026008e-10 2.146905e-11
-4.808859e-09 9.914896e-10 5.646057e-10 2.252934e-10 -5.608438e-10 1.483156e-10
-6.965591e-09 4.206218e-09 -3.488553e-09 -4.863893e-09 -3.513597e-09 -1.391549e-09
3.933414e-10 -1.324131e-08 3.833525e-09 5.557208e-10 -2.220938e-16 -4.424816e-11
-6.233694e-09 2.561396e-09 -6.405823e-09 -5.723525e-09 -2.925822e-09 -1.579829e-09
3.554617e-09 -1.682477e-08 3.552922e-09 1.402681e-09 9.543277e-11 -3.822329e-10
1.632994e-08 1.358511e-08 -6.037922e-09 1.731890e-08 4.405769e-09 9.454901e-10
1.386264e-09 -1.367283e-08 3.844388e-09 4.273000e-10 4.324452e-11 2.377401e-10
-3.867961e-09 2.091401e-09 5.541940e-10 8.506273e-11 -1.525446e-11 -1.139006e-11
-1.597343e-09 1.225179e-08 1.175170e-08 1.820135e-08 -1.191929e-10 3.871301e-09
-3.691081e-09 1.975240e-09 5.002931e-10 8.607145e-11 -4.124781e-11 8.056666e-12
1.825338e-09 1.083139e-08 -5.115535e-09 1.170833e-08 -2.338054e-10 8.488792e-10
1.663828e-08 3.224426e-10 2.549118e-09 1.490456e-08 2.081135e-10 1.261707e-09
3.246258e-09 -1.535113e-09 -5.279097e-10 -8.840617e-11 -2.001154e-10 1.094935e-11
-2.837842e-09 1.591206e-09 4.003060e-10 4.645389e-10 3.923159e-13 -6.425616e-11
-3.691912e-09 1.834526e-09 6.326801e-10 1.794693e-10 2.884071e-11 3.542921e-11
-3.043549e-09 1.772679e-09 3.880558e-10 2.354747e-10 -1.911937e-11 2.762701e-11
3.137104e-09 -1.545442e-08 3.743426e-09 1.330835e-09 1.290927e-10 8.663895e-11
-3.285018e-09 1.696545e-09 5.065610e-10 3.027729e-10 3.924860e-11 -1.017766e-10
1.167862e-08 -2.783062e-08 1.865320e-09 -1.566316e-10 -1.218231e-09 -2.161757e-10
-4.120226e-09 1.965239e-09 6.781060e-10 1.234861e-10 3.369860e-11 -9.877654e-11
-2.799553e-09 1.591295e-09 3.880540e-10 4.864331e-10 -2.222045e-11 -7.815681e-11
-3.496679e-09 -1.294945e-09 1.536971e-09 -2.511586e-10 1.797755e-10 -4.813239e-11
3.361809e-09 4.748109e-09 -2.502348e-09 2.594429e-10 1.479147e-09 -1.220579e-10
-6.609227e-09 2.123185e-09 -3.163605e-09 -3.287839e-09 -4.313425e-10 -4.178604e-10
-2.808890e-09 -2.940286e-09 1.844159e-09 -4.040941e-10 2.760698e-10 -7.775225e-11
1.087160e-08 2.450781e-09 -1.628712e-09 -6.385384e-09 -1.957382e-10 2.904936e-09
8.430199e-10 7.946421e-09 -3.440623e-09 -4.881946e-09 1.475422e-09 -2.672035e-09
-2.410818e-09 6.419011e-09 -2.374771e-09 7.363319e-10 1.637610e-09 -1.744991e-10
5.260170e-09 -1.875662e-08 3.593618e-09 1.672036e-09 2.610073e-10 2.023708e-10
5.415778e-09 -2.961262e-09 -7.553678e-10 1.003714e-11 -3.106713e-12 3.308465e-13
6.024358e-09 -3.305219e-09 -8.077250e-10 -6.222918e-10 -4.463796e-11 4.085177e-11
5.007232e-09 -1.856620e-08 3.866396e-09 9.281178e-10 1.133540e-12 6.215231e-11
5.955409e-09 -1.462366e-08 -6.213843e-09 8.135983e-09 -7.355243e-09 2.882501e-09
1.600255e-09 -1.367806e-08 3.641304e-09 1.192128e-09 -3.635231e-11 2.731647e-10
6.373996e-09 -1.881148e-08 3.634100e-09 4.085907e-10 -8.013151e-11 -1.573452e-11
6.313355e-09 -1.929218e-08 3.729092e-09 3.186610e-10 7.056467e-11 1.763969e-10
4.527520e-09 -3.362927e-10 2.314131e-10 -6.889330e-09 1.843337e-10 -8.966712e-10
5.924996e-09 -2.935014e-09 -7.311287e-10 -7.509955e-10 -1.845818e-11 -3.295064e-11
6.648603e-09 -3.266851e-09 -7.394659e-10 -6.902040e-10 1.938347e-11 -2.225231e-11
1.184435e-08 -2.318660e-08 -3.323810e-09 -1.944809e-10 -4.440574e-16 -8.188228e-11
1.322203e-08 -2.934984e-08 -1.681333e-09 1.209055e-09 -1.004639e-08 1.376877e-09
-2.493756e-09 1.327390e-09 6.683480e-10 1.307383e-09 -9.379719e-11 2.766254e-11
2.888323e-11 -7.340352e-09 -4.300501e-09 4.795863e-09 -7.361331e-10 3.572790e-10
-1.328905e-09 -6.814346e-09 2.582570e-09 -2.298507e-09 -5.578085e-10 -1.709395e-10
-1.755380e-09 -5.250884e-09 1.904272e-09 -1.912810e-09 2.732836e-10 -2.947393e-10
4.832087e-09 -2.331291e-09 -6.513563e-10 -1.230943e-09 -6.214584e-12 -2.547029e-11
3.855195e-09 -1.721532e-09 -6.408203e-10 -4.467431e-10 -5.611678e-11 -9.304335e-12
-3.439641e-09 -1.344373e-09 1.666361e-09 -2.426235e-10 2.497558e-12 3.497114e-11
4.085562e-09 -1.948310e-09 -6.425758e-10 -7.168091e-10 1.999600e-11 1.818457e-11
-3.286255e-09 -2.032651e-09 1.651342e-09 1.498077e-10 -1.828093e-12 -1.651015e-10
8.069315e-09 -2.042098e-08 2.458781e-09 2.050285e-09 8.544365e-11 1.697731e-10
-2.333878e-09 -3.372415e-09 1.952334e-09 -9.316276e-10 1.116796e-10 -1.103015e-10
6.702909e-09 -2.006244e-08 3.791878e-09 1.849796e-10 1.600211e-10 -8.871015e-11
-1.837460e-09 -5.093861e-09 2.134931e-09 -6.366270e-10 3.809495e-10 -3.495493e-11
-3.578639e-09 -9.834515e-10 1.417474e-09 -5.928600e-10 1.110219e-10 -1.765997e-10
-3.036773e-09 -7.497350e-09 2.379534e-09 4.645542e-09 -9.298695e-11 3.384832e-10
-3.585325e-09 -8.439995e-10 1.446793e-09 1.374749e-10 2.220608e-16 5.876455e-11
-1.971144e-09 -4.214955e-09 1.874042e-09 -5.134710e-10 -1.182847e-10 -2.372903e-10
6.816654e-09 -1.996856e-08 3.550195e-09 -4.569433e-11 7.983614e-11 9.908074e-12
5.321466e-09 -1.749352e-08 3.234558e-09 -1.162118e-09 -1.999112e-11 2.377358e-11
-3.764906e-09 -8.492384e-09 3.431978e-09 2.180556e-09 6.479182e-10 1.475490e-10
-2.121737e-09 -1.122639e-08 2.027823e-09 6.512875e-09 -9.712919e-11 1.452900e-10
-6.041544e-09 1.997850e-08 -5.439967e-09 -6.805186e-09 -7.325405e-11 -6.694893e-10
-1.175085e-08 1.462603e-08 -8.393209e-09 -1.880358e-11 3.484275e-09 -5.417868e-09
6.994532e-09 -1.994750e-08 3.164369e-09 1.200157e-11 3.007349e-10 -1.348268e-10
5.321466e-09 -1.707549e-08 3.234559e-09 -9.070839e-10 8.126832e-11 1.473297e-10
-7.704999e-09 2.312316e-08 -2.165679e-08 9.043479e-09 3.568144e-09 -3.318289e-09
3.096672e-09 -8.664673e-10 -5.072485e-10 -3.966191e-09 -1.197737e-10 2.331993e-10
-3.918895e-09 2.155696e-08 -1.895859e-08 -1.060181e-08 -2.105222e-09 8.174860e-09
1.095118e-09 2.227862e-10 -4.011427e-10 -2.552466e-09 2.891354e-11 -1.142397e-10
3.481031e-09 -1.308561e-08 1.889979e-10 2.688295e-10 -5.771390e-10 1.031910e-10
4.280224e-09 -8.474613e-09 -7.223280e-09 5.151457e-09 -1.318768e-09 2.779743e-10
-4.261937e-09 2.677822e-09 7.546321e-10 1.252890e-09 1.209828e-10 -2.171601e-10
-4.007429e-10 6.269425e-09 -1.417601e-08 4.331201e-09 -2.470444e-09 2.920553e-09
1.280921e-08 -6.357187e-09 -2.852709e-08 4.567786e-09 -1.407453e-08 4.581940e-09
8.015244e-11 8.071636e-09 -2.531911e-08 5.324781e-09 -1.017408e-08 8.324146e-09
-3.100323e-09 3.933111e-09 5.688499e-10 3.765074e-09 6.723535e-10 7.211656e-10
4.968516e-10 -3.973519e-09 -7.900847e-09 5.988676e-09 -2.392116e-09 1.551563e-09
-1.003939e-09 1.455596e-09 4.370388e-10 2.982250e-09 6.571565e-11 -2.126381e-10
6.886124e-09 -9.423690e-09 -1.480308e-08 -1.083209e-08 -8.818251e-09 -3.318247e-09
1.258835e-08 -1.376465e-08 -1.436137e-08 -5.595232e-09 -3.009549e-09 -7.507073e-10
5.919038e-09 2.571580e-08 -4.570899e-08 -7.465553e-09 -1.964838e-08 -4.450378e-09
-1.652373e-09 2.037068e-09 5.560494e-10 2.821878e-09 -2.703633e-10 -1.962421e-10
1.411958e-08 -7.776316e-09 -2.600992e-08 -3.579033e-09 -6.194334e-09 -1.875826e-10
-1.206546e-09 1.798220e-09 -1.023368e-10 -3.396495e-09 -1.369329e-10 3.222502e-10
-2.583227e-09 2.880797e-09 -7.184111e-10 -3.946140e-09 -2.910762e-10 7.037484e-10
-4.306708e-09 2.775239e-09 -6.623222e-10 -2.452947e-09 -4.276399e-10 -2.519440e-10
1.122366e-08 2.497390e-09 -3.116443e-08 -7.582894e-09 -6.098166e-09 -5.304640e-10
1.072325e-08 -5.353384e-09 -2.444818e-08 -6.947518e-09 -5.499399e-09 -5.046132e-10
-1.173800e-09 8.798506e-09 -2.377046e-08 1.483896e-08 3.527532e-09 8.911778e-10
-2.723208e-09 2.479948e-09 -4.233440e-10 -3.403805e-09 -2.235173e-10 1.857680e-10
-2.469356e-08 2.225267e-08 1.858373e-08 -2.424198e-08 -1.371608e-08 -5.643011e-10
-2.135687e-08 3.612370e-08 -1.763854e-08 -4.167496e-09 3.272443e-09 -1.447976e-08
1.580462e-08 -1.956183e-08 -1.210618e-08 -2.389296e-09 3.218470e-09 -2.368868e-11
1.798383e-08 -2.075451e-08 -2.679995e-08 -1.133427e-09 1.464986e-08 9.867771e-11
1.075686e-08 -2.298882e-08 -2.517572e-09 2.833887e-09 3.547587e-09 -1.033968e-10
1.158868e-08 -1.548592e-08 -1.451979e-08 -9.045244e-09 6.825009e-09 1.390868e-09
1.326214e-08 -2.153727e-08 -5.313005e-09 9.990061e-10 1.700936e-09 -3.138029e-10
1.704466e-08 9.090352e-09 -5.136637e-08 8.235177e-09 1.171768e-08 -2.558378e-09
6.262460e-09 -1.971076e-08 7.449517e-10 5.685084e-09 1.960741e-09 -2.970670e-10
9.355094e-10 -2.453944e-10 -5.692247e-11 2.326304e-09 2.445828e-10 -5.737855e-12
3.596607e-10 4.232832e-10 1.833329e-10 3.208274e-09 8.258039e-11 2.338130e-11
8.673074e-09 -1.990430e-08 -1.820097e-09 7.754071e-09 2.193303e-09 -8.743599e-10
-3.042301e-09 -5.675159e-09 -7.103571e-10 -1.597699e-09 5.798373e-10 2.484883e-10
1.165854e-08 -2.713887e-08 8.698688e-10 -3.373159e-10 -1.366440e-09 -5.711631e-11
1.256471e-08 -2.403331e-08 -2.199960e-09 -6.385599e-09 -1.314185e-08 -2.538037e-09
4.955894e-09 -2.742400e-09 -6.682046e-10 -1.113705e-10 -5.262524e-11 -1.171330e-11
2.606156e-09 -1.007439e-09 -3.172973e-10 2.366320e-09 -1.024389e-10 -1.159830e-10
5.816150e-09 -2.956198e-09 -7.814802e-10 -6.635692e-10 -1.163117e-10 1.330667e-10
-9.749327e-10 -1.410119e-08 7.018097e-08 -2.392372e-08 -4.595574e-09 1.768214e-08
2.947372e-08 -1.620874e-08 1.581376e-08 -1.924982e-09 3.647478e-10 6.442577e-09
5.238681e-09 -2.902635e-09 -7.820042e-10 -1.162638e-09 -1.108902e-10 1.574194e-10
-3.709489e-09 1.402625e-09 7.460650e-10 6.664602e-11 1.410017e-11 -1.894813e-10
-2.443924e-09 -3.355364e-09 1.835031e-09 -1.465217e-09 -1.401812e-10 6.345768e-11
-3.890678e-09 1.148615e-09 8.403673e-10 3.451503e-10 -4.512213e-11 -2.404105e-10
-3.907696e-09 9.208736e-10 1.137471e-09 -2.060930e-11 2.015417e-10 1.117875e-10
-3.953970e-09 9.382624e-10 1.122261e-09 -1.502836e-10 1.194206e-10 -3.211025e-10
-3.523633e-09 1.160405e-09 8.115437e-10 5.166103e-10 1.634233e-10 -2.217921e-10
-4.036559e-09 7.040279e-10 1.097302e-09 2.099351e-10 1.068652e-10 -4.529964e-11
1.689341e-09 4.466275e-10 9.998038e-10 4.754839e-09 -1.018181e-10 -4.913057e-10
-3.344690e-09 1.802256e-09 6.555780e-10 1.484829e-09 -1.010692e-12 -1.233896e-10
-4.013390e-09 8.961862e-10 8.844294e-10 2.397433e-10 -2.168998e-11 -6.936018e-11
-4.034635e-09 1.511756e-09 8.022840e-10 1.183442e-10 1.738276e-11 -1.464714e-10
-3.572787e-09 1.222435e-09 7.053687e-10 1.903544e-10 1.224348e-10 -1.902641e-10
-6.212870e-09 6.509027e-09 1.108860e-09 3.359904e-09 5.791576e-10 4.034358e-10
-3.834934e-09 1.664302e-09 7.237877e-10 2.896221e-10 1.422296e-11 -6.139023e-11
-3.685647e-09 2.434515e-09 7.305712e-10 1.603814e-09 -3.223339e-10 -4.987825e-10
2.752444e-09 9.252760e-10 1.002684e-09 6.241091e-09 1.775447e-11 -3.329156e-10
-5.212550e-09 3.414737e-09 4.740115e-10 5.911959e-11 7.593473e-10 2.844608e-10
5.541787e-09 1.186115e-09 1.807508e-09 -1.027552e-08 5.266048e-10 -1.301478e-09
2.426851e-09 2.299228e-09 7.015188e-11 -8.942024e-09 -1.120708e-10 9.184142e-11
2.424643e-09 2.944873e-10 1.384693e-09 -9.010440e-09 5.095557e-10 9.918399e-11
5.519736e-09 5.141898e-11 1.995250e-09 -8.809102e-09 4.624536e-10 -1.283534e-09
-1.434046e-09 6.958931e-09 1.691468e-09 -1.179213e-08 6.398485e-10 3.225191e-09
-3.474245e-09 -9.032600e-09 3.570619e-09 1.365009e-09 -3.536449e-10 -9.287016e-12
9.292951e-09 -4.081105e-09 5.004222e-09 -7.352808e-09 1.595956e-10 -3.207385e-09
9.305576e-09 -5.782614e-09 1.290511e-08 -7.589545e-09 4.600271e-10 -5.126342e-09
5.608471e-09 -2.199160e-09 5.957178e-09 -1.126928e-08 4.529440e-09 -7.533472e-10
7.198316e-09 -3.417895e-09 5.803757e-09 -7.527558e-09 5.155753e-10 -5.711800e-10
8.536837e-09 -6.341465e-09 5.988621e-09 -3.290911e-09 7.416969e-10 -2.578372e-09
-1.464336e-09 -1.029414e-08 3.571454e-09 3.378613e-10 9.895440e-11 1.150267e-10
2.712950e-08 -1.206312e-08 4.868426e-10 3.199780e-10 1.588996e-11 5.811105e-10
2.442953e-08 -8.223476e-09 -2.478023e-09 1.117819e-09 -1.243021e-10 2.520948e-10
6.340874e-10 -1.266566e-08 3.695718e-09 4.060863e-10 1.233810e-10 3.559373e-10
6.595640e-09 -1.912272e-08 3.643505e-09 1.936793e-10 -2.157285e-11 -1.219083e-10
5.966252e-09 -1.889265e-08 3.739968e-09 2.969163e-10 2.276941e-10 3.467282e-11
2.026928e-08 -4.112457e-09 -3.877702e-09 1.394192e-09 -1.681815e-10 -9.483909e-10
2.692184e-08 -1.066045e-08 -1.673638e-09 5.129031e-10 -1.124500e-11 -1.153520e-20
-8.351400e-09 6.379625e-09 -1.338333e-09 1.395456e-09 1.748188e-09 -3.419367e-10
1.733423e-08 -1.636708e-08 -1.728422e-08 1.099388e-09 3.267134e-09 1.515188e-11
1.532428e-08 -1.890056e-08 -1.128170e-08 5.396185e-09 6.271483e-09 -5.283862e-10
1.293225e-08 -1.472236e-08 -1.913412e-08 1.087069e-08 8.358109e-09 -1.009079e-09
-8.298702e-10 -5.982130e-09 2.264434e-09 6.883649e-11 5.375567e-11 -2.227210e-10
1.264225e-08 -1.462900e-08 -1.684317e-08 -7.789248e-09 -1.000023e-08 -2.245851e-09
1.411958e-08 -1.116503e-08 -2.169069e-08 -3.486872e-09 -3.854648e-09 -1.292526e-10
-1.991360e-09 -4.037082e-09 1.867346e-09 -5.673942e-10 1.955203e-10 -4.297715e-10
9.967986e-10 -1.064553e-08 2.165503e-09 -4.302650e-09 1.593872e-10 1.449207e-11
7.577719e-09 -2.047587e-08 2.833318e-09 -5.548938e-11 -8.115637e-13 1.324907e-11
6.028588e-09 -1.963940e-08 2.686723e-09 3.568525e-09 1.282066e-09 -2.259364e-10
6.712373e-09 -2.025750e-08 3.740264e-09 2.250716e-10 1.110227e-15 7.993162e-12
2.580684e-08 -8.874762e-09 2.332889e-11 3.732140e-09 3.001364e-10 3.395828e-10
-8.298706e-10 -6.077880e-09 2.426472e-09 -1.878386e-11 3.485012e-11 -4.877042e-10
-5.452596e-10 -7.138084e-09 2.513518e-09 -1.274908e-09 -2.600429e-10 -4.100679e-10
1.707864e-08 1.463729e-09 -5.210773e-09 5.413073e-09 -3.054681e-10 -6.713730e-10
4.312151e-09 -3.416035e-09 2.214024e-08 1.044878e-08 -1.417488e-09 -4.818805e-09
-2.937425e-10 -1.152542e-08 3.225193e-09 1.965574e-09 5.502087e-10 2.010062e-13
-4.318546e-09 -6.250160e-09 3.036881e-09 2.888819e-09 2.989705e-10 9.413520e-11
-2.884957e-09 -8.212805e-09 3.431574e-09 1.237949e-09 5.291823e-11 -5.895184e-11
-5.098717e-09 4.480122e-09 1.601171e-08 1.211022e-08 -7.548481e-10 -3.071209e-09
-3.713140e-09 9.485248e-10 8.461489e-10 1.014198e-10 1.039329e-10 -2.114426e-10
-3.779790e-09 9.256746e-10 9.345000e-10 -2.014586e-10 2.836231e-11 -2.662743e-10
-3.979807e-09 1.045816e-09 1.141911e-09 3.495825e-11 -1.255351e-11 -1.256960e-10
-1.192674e-08 1.280612e-08 1.052725e-09 8.539567e-09 7.656328e-10 1.732501e-09
-1.801687e-09 -4.596139e-09 2.078119e-09 -4.036794e-10 -2.344596e-10 -4.232721e-10
-1.241172e-08 9.151907e-09 2.871605e-08 1.403787e-08 -1.135679e-08 -2.243801e-10
-4.251087e-09 -6.033943e-09 3.119680e-09 6.350080e-10 2.208055e-10 6.671036e-11
-1.128961e-09 -7.702602e-09 2.460044e-09 -3.014257e-09 -3.907941e-11 -3.175881e-10
-1.640753e-08 5.725693e-08 -5.870405e-08 -8.836543e-09 2.826619e-08 -1.046635e-09
-1.921741e-09 3.324235e-08 -2.662502e-08 -1.373600e-08 -6.972547e-09 3.329433e-09
-3.541889e-11 -7.540627e-09 2.036266e-09 -1.116177e-09 5.219272e-10 -6.753633e-10
-2.229843e-09 -6.156308e-09 1.982406e-09 -3.104339e-09 -3.316838e-10 -4.858007e-10
-1.576111e-08 1.398862e-08 3.024181e-08 -2.030015e-08 1.012293e-08 -8.322962e-09
-1.353021e-09 -5.128756e-09 2.172782e-09 -8.765233e-10 -8.721124e-10 -7.015263e-10
-2.229843e-09 -6.357429e-09 2.116392e-09 -3.140979e-09 1.006914e-09 3.760319e-12
7.231784e-10 -8.771522e-09 2.815124e-09 -4.396172e-11 5.774492e-12 -4.272849e-10
-1.388013e-09 -5.748219e-09 2.289389e-09 -2.094136e-09 -2.669946e-11 -5.428176e-10
-3.923415e-09 2.752177e-09 3.485066e-10 -1.865317e-10 -3.090661e-11 -1.949649e-10
-5.434849e-08 4.711053e-09 1.184780e-07 3.501413e-09 3.025422e-08 -1.255269e-08
-3.924611e-09 2.752174e-09 4.030092e-10 -1.894709e-10 -3.220357e-11 -1.334535e-10
-3.585011e-08 4.056482e-08 3.049722e-08 -5.311843e-09 9.202882e-09 3.870545e-09
2.043031e-09 -1.032398e-09 -3.124230e-10 3.199019e-11 7.050305e-11 -1.641065e-11
3.265082e-09 -2.084605e-09 -4.621854e-10 -1.104494e-11 1.875164e-10 8.737233e-12
3.265082e-09 -1.793427e-09 -4.295759e-10 7.845680e-11 7.999623e-11 -1.034128e-11
1.767484e-09 -6.023129e-10 -3.074083e-10 7.581076e-10 8.838663e-11 -1.462481e-10
-3.773646e-08 3.891579e-08 4.810232e-08 1.459679e-08 4.220267e-08 -7.036670e-09
-2.143548e-08 4.193331e-08 -2.178969e-09 -7.990791e-09 6.274734e-09 -1.181643e-09
-6.341344e-09 5.296385e-09 -1.301386e-10 -1.199399e-09 2.434981e-10 3.422071e-10
-6.509142e-09 1.543143e-09 5.402274e-10 -3.054717e-09 3.704503e-11 1.767160e-10
2.199698e-09 -1.182540e-09 -3.806538e-10 1.356893e-09 1.535324e-10 2.848766e-11
-5.258141e-09 1.952046e-09 8.996324e-10 -6.520080e-10 2.629529e-10 -3.791398e-10
4.623630e-10 -1.045627e-08 2.059563e-09 1.349310e-10 -4.727159e-10 -3.987843e-10
-5.238160e-11 -1.101480e-08 3.317306e-10 4.019302e-09 -2.853133e-09 1.322581e-09
5.790338e-09 2.030027e-08 -4.664455e-08 -9.254585e-09 -1.646564e-08 -2.741502e-09
-9.767501e-09 3.523471e-08 -2.668511e-09 5.007588e-09 3.351440e-10 -5.451830e-09
5.423473e-09 -1.642042e-08 -5.261875e-09 -6.946458e-09 -7.440392e-09 -1.215837e-09
2.846519e-09 -1.836487e-08 2.347385e-10 -8.719008e-09 -7.490365e-09 -2.316773e-09
-1.563671e-08 4.305152e-08 -2.152835e-08 1.131293e-08 -1.356543e-09 -7.178823e-09
-7.638386e-08 9.800977e-09 1.809280e-07 2.100770e-08 7.539228e-08 8.351324e-09
2.081682e-09 4.593215e-11 -4.241282e-10 -3.822179e-09 -1.426037e-10 -7.810594e-11
8.000103e-09 -2.193779e-08 1.572946e-09 1.585908e-09 3.934484e-10 -1.196381e-10
6.776659e-09 -2.090957e-08 7.305712e-10 4.662954e-09 1.250473e-09 -1.521949e-10
-4.484180e-08 -2.265075e-09 1.236270e-07 1.394031e-08 -5.816915e-09 -2.938706e-09
6.604249e-09 -1.895619e-08 2.996720e-09 2.827899e-09 1.665276e-10 -1.477021e-11
7.530208e-09 -2.113761e-08 2.370360e-09 2.881128e-09 8.118728e-10 -1.031155e-10
9.298849e-09 -2.212704e-08 6.013776e-10 6.650074e-10 2.002463e-09 -1.467122e-10
-6.818092e-09 6.232221e-08 -9.663464e-08 1.165811e-08 1.862866e-08 3.475733e-09
1.371420e-08 2.450429e-09 -2.325179e-09 -5.450850e-09 1.304990e-09 3.618406e-09
-3.441084e-09 3.036243e-08 -3.552525e-08 -7.648880e-09 1.066278e-08 -6.101390e-09
4.273376e-09 -1.769605e-08 1.919916e-09 4.927131e-09 2.266063e-10 -2.423194e-10
1.284555e-08 -3.075910e-08 1.437809e-09 -1.091710e-09 -6.480393e-09 1.587803e-10
1.293967e-08 1.556546e-09 -1.887228e-10 -9.893301e-09 -7.095525e-11 1.429500e-09
5.216536e-09 -1.404677e-08 -1.049366e-08 -8.237052e-09 -6.489877e-09 -2.188639e-09
-6.787779e-09 -4.075997e-10 7.194871e-10 -4.045607e-09 -3.103730e-09 -5.109981e-10
-6.962962e-09 6.091050e-09 -7.584989e-09 -5.582925e-09 -7.898902e-09 -4.429689e-09
1.245751e-08 -2.421029e-08 -9.070854e-09 -6.562197e-09 -1.197986e-08 -1.607321e-09
1.390980e-08 -3.362591e-08 -4.529143e-10 3.010997e-09 -1.201712e-08 1.599797e-09
1.328692e-08 -2.220869e-08 -1.020516e-08 -4.007715e-09 -1.147208e-08 -5.476241e-10
1.225144e-08 -2.778815e-08 2.930077e-09 -7.497212e-10 -3.799740e-09 2.762126e-10
-1.453392e-09 9.619203e-10 1.877019e-10 3.511051e-10 2.233925e-10 -2.253764e-11
2.017015e-08 -6.544981e-09 5.232614e-09 -9.346178e-09 -4.432899e-10 1.574195e-09
-3.504036e-09 1.409427e-09 7.268446e-10 4.111691e-10 1.715450e-11 -9.745627e-11
1.961964e-08 -7.784405e-09 4.438150e-09 -1.015258e-08 -1.237530e-09 5.039178e-09
1.833332e-08 1.513729e-09 4.386175e-09 -1.505312e-08 -2.171106e-09 4.780365e-09
1.311880e-08 1.359587e-08 -8.954628e-09 1.616760e-08 1.597346e-09 -3.550889e-09
7.952279e-10 -6.173373e-11 -1.327113e-10 1.239328e-09 1.752352e-10 -1.016859e-11
1.470433e-09 -6.404441e-10 -2.764060e-10 3.580070e-11 -6.572143e-11 -4.440939e-16
7.332126e-10 -3.451193e-10 -1.435172e-10 1.866389e-10 3.100657e-10 -1.424194e-12
1.377126e-08 1.228956e-09 -4.103472e-09 3.018160e-09 -1.611847e-09 4.578767e-10
-2.948052e-09 1.704461e-09 3.737191e-10 3.454713e-10 7.295808e-11 1.096187e-11
-2.401922e-09 7.054245e-09 -2.276650e-09 -6.039112e-10 -3.332715e-09 -2.328895e-09
-8.241725e-09 2.586924e-09 -7.618475e-10 -1.918103e-09 -2.515588e-10 -2.963494e-10
-8.392580e-09 5.132756e-09 -6.772464e-10 -1.376002e-09 -3.554724e-09 -5.915651e-10
-8.866261e-09 2.660475e-09 2.809217e-10 -1.032364e-09 -2.755913e-09 -2.824743e-10
-9.065854e-09 4.271777e-09 1.232534e-10 -2.718045e-09 -3.065378e-09 -1.123903e-09
-9.164837e-09 5.142869e-09 -5.419519e-10 -5.886983e-10 -2.331759e-09 -1.750985e-10
2.668816e-09 -1.221271e-08 2.979721e-09 -1.115206e-10 8.855072e-11 -6.022675e-10
4.045305e-09 -1.454714e-08 3.080922e-09 -2.841991e-10 2.527807e-10 -4.105330e-10
-7.895883e-09 2.600527e-09 -2.476832e-10 4.541690e-09 1.731300e-09 -6.708340e-10
-4.363520e-09 2.585949e-09 5.495391e-10 -2.999208e-10 -1.910783e-11 -1.518258e-10
-4.936503e-09 1.638268e-09 8.719687e-10 -4.044086e-10 -2.569167e-11 -3.634261e-11
-7.151957e-09 -2.615150e-09 -7.883219e-10 9.198249e-09 3.306279e-09 -1.074553e-09
9.070243e-09 7.657008e-11 -2.007996e-09 1.845191e-11 9.998795e-10 2.618852e-10
-2.475123e-09 -2.583054e-09 3.271348e-10 2.390036e-09 -1.230026e-09 7.189335e-10
2.095203e-08 -5.070212e-09 -3.363545e-09 -2.403032e-09 4.349910e-10 -8.021664e-10
5.493457e-09 -1.536683e-08 -2.725195e-09 -1.806584e-09 5.789773e-10 2.326075e-10
-8.941003e-09 5.832116e-09 -9.640377e-10 3.240031e-09 1.649835e-09 -7.043580e-10
-3.580864e-09 7.105397e-09 -2.443638e-09 8.608623e-10 3.712448e-10 6.391813e-19
2.235403e-10 6.622242e-09 -2.685901e-09 -1.603900e-09 6.505243e-10 -1.412833e-09
-3.889778e-09 -1.036344e-09 1.372109e-09 3.425477e-10 -5.322585e-10 -4.705074e-10
-1.101445e-09 -8.740558e-09 1.055746e-09 6.101453e-11 -3.697522e-10 -7.728797e-11
-7.010361e-10 -7.622644e-09 -4.989209e-11 9.976412e-10 6.302627e-10 -1.941322e-10
1.318561e-08 -2.154372e-10 -2.004283e-09 -4.122837e-09 5.177645e-10 -6.038279e-10
-1.864968e-09 -7.263367e-09 1.565764e-09 -6.188075e-09 -4.326401e-10 -1.993320e-10
-3.060876e-10 6.139953e-09 -2.344640e-09 5.917030e-10 1.364393e-09 -2.529030e-10
2.456637e-09 -1.202940e-08 2.620624e-09 -2.852141e-09 -2.636185e-11 -6.723917e-10
4.963858e-09 -9.090729e-09 -9.138688e-09 -1.209226e-08 3.960925e-09 1.460716e-09
1.478349e-08 -2.189438e-08 -1.053083e-08 2.493773e-09 4.363577e-09 -2.637071e-10
1.414867e-08 -1.205073e-08 -2.431779e-08 -7.499359e-09 2.956956e-09 8.520209e-10
1.894644e-08 -6.148695e-09 -3.847676e-08 -2.098138e-09 1.023666e-08 4.373897e-10
6.283656e-09 -2.799137e-09 -4.451861e-10 -4.140214e-09 2.347544e-11 6.818335e-11
6.850207e-09 -3.212710e-09 -3.840874e-10 -2.641670e-09 4.964971e-11 -5.112724e-10
-3.188896e-09 1.503769e-09 7.246070e-10 9.363731e-10 1.753668e-10 1.847229e-10
-3.673827e-09 7.402070e-10 9.534968e-10 1.053060e-10 -6.577672e-11 7.676881e-11
1.818034e-08 -1.761256e-08 -2.180551e-08 2.423731e-10 8.143119e-09 -1.414906e-09
-3.632962e-09 7.499916e-10 9.133894e-10 -2.101964e-11 5.844980e-11 -2.715343e-10
-3.998312e-09 8.235164e-10 9.694199e-10 -1.407006e-10 -1.007539e-11 -1.031419e-10
4.193398e-10 -8.935222e-09 -1.383913e-09 1.066688e-08 1.910175e-09 -2.683237e-10
1.264225e-08 -3.030215e-09 -2.942929e-08 -7.723602e-09 -1.415150e-08 -2.313132e-09
1.006776e-08 -2.110774e-09 -2.915859e-08 -8.114180e-09 -1.492964e-08 -3.013554e-09
-1.905683e-10 -1.169903e-08 -6.518981e-10 1.197174e-08 2.014038e-09 -3.845907e-10
2.674235e-10 -1.286553e-08 -9.574821e-10 9.704903e-09 2.355531e-09 -3.589147e-10
-3.210743e-08 4.358331e-08 1.848664e-08 -2.352695e-08 1.385966e-08 -2.538710e-08
1.457077e-08 6.266848e-09 -4.011321e-08 -7.072089e-09 -1.742824e-08 -1.074212e-09
3.306132e-09 1.794264e-08 -3.712046e-08 -6.924752e-09 -8.715281e-09 -2.426269e-09
6.047235e-09 -3.247023e-09 -8.057752e-10 -2.128760e-10 -2.993297e-11 6.121081e-11
4.804815e-09 1.016053e-08 -3.197173e-08 -7.485764e-09 -1.364495e-08 -4.517405e-09
-1.560544e-09 3.290503e-09 -1.260333e-08 4.848670e-09 -1.559506e-09 2.632462e-09
5.302211e-09 -1.694668e-08 6.457235e-10 8.288603e-09 1.347447e-10 -5.287930e-10
-1.386800e-09 9.776582e-10 3.229088e-10 1.390925e-09 -3.568656e-11 5.790479e-12
8.574946e-10 -6.360942e-09 -3.666576e-09 7.017809e-09 -3.919571e-09 3.027481e-09
-2.467080e-09 1.063504e-09 5.809633e-10 1.006630e-09 6.335532e-11 -3.517053e-11
-3.744329e-09 4.725539e-09 -1.414496e-08 3.943062e-09 -3.563081e-09 2.689676e-09
1.248999e-09 -4.841843e-09 -9.703934e-09 6.001182e-09 -1.109320e-09 5.713793e-10
4.280224e-09 -6.789671e-09 -9.703936e-09 5.016147e-09 -9.212195e-10 4.133041e-10
1.248999e-09 2.501483e-09 -1.719393e-08 4.868623e-09 -3.487105e-09 2.103974e-09
-5.747275e-10 -1.228687e-09 -1.472449e-08 8.158458e-09 -6.893126e-09 4.859173e-09
-3.130290e-09 1.263926e-09 6.693845e-10 9.568846e-10 -1.223972e-10 -2.269069e-10
8.709140e-09 5.318441e-09 -2.639091e-09 -6.481561e-09 4.245109e-10 4.236468e-10
-4.668374e-09 2.225267e-08 1.808716e-08 -2.433898e-08 -1.371204e-08 4.981051e-09
-1.028393e-08 2.917910e-08 -7.095777e-10 -2.068122e-08 -6.310100e-09 -2.429566e-09
3.684715e-09 -1.462358e-09 -4.071546e-10 2.043753e-09 -8.112835e-11 -2.595897e-10
3.354031e-09 -1.615873e-09 -4.664980e-10 1.662621e-09 1.611244e-11 8.810352e-11
-1.613785e-08 2.368087e-08 4.162544e-08 -3.291778e-08 -3.486433e-08 1.089934e-08
-4.884208e-09 5.160112e-10 8.944583e-10 2.007116e-10 -2.652211e-10 -2.758824e-10
-3.770599e-09 4.173671e-09 -1.683354e-09 -4.661375e-09 -4.204779e-10 2.584206e-10
3.629737e-09 -1.442351e-08 2.928772e-09 -1.664292e-09 1.271392e-10 9.332968e-11
6.218704e-09 -1.730839e-08 2.669034e-09 -2.629120e-09 6.536927e-11 -1.946508e-10
1.333609e-09 1.855956e-09 -7.712778e-10 -6.831882e-09 -1.811061e-10 -1.411765e-11
-1.250584e-08 3.610752e-08 7.179979e-09 1.698804e-08 -1.256291e-08 3.668723e-09
-3.720627e-09 3.429321e-09 -8.914380e-10 -3.857294e-09 -6.226111e-10 2.461974e-10
4.647438e-11 1.214109e-09 -4.061032e-10 -5.230444e-09 -7.775913e-11 -5.027008e-10
-3.787430e-10 -8.524992e-09 2.416181e-09 -2.720619e-09 -8.738410e-11 8.898300e-12
-1.337714e-09 2.960361e-09 -7.554806e-10 -5.250483e-09 -3.944451e-10 2.757590e-10
1.741665e-09 1.518411e-09 -5.572240e-10 -6.241468e-09 -2.802132e-10 3.202615e-10
-4.696163e-10 1.247607e-09 -4.797018e-10 -4.977216e-09 -5.970155e-11 8.382769e-11
-5.071117e-10 1.206524e-09 -3.393250e-10 -4.064782e-09 -2.129448e-10 -2.768696e-11
-3.687128e-09 7.235217e-10 8.630234e-10 -4.389645e-11 1.599444e-10 -3.135732e-10
-3.848958e-09 1.535411e-09 6.609557e-10 4.509291e-10 1.276841e-10 -2.060180e-10
5.803813e-09 -3.103820e-09 -8.210317e-10 4.234650e-10 -8.771098e-12 1.479625e-10
8.644729e-09 -4.558658e-09 1.451308e-09 1.161480e-09 9.525085e-11 -5.611083e-10
9.046991e-09 -4.678629e-09 1.123686e-09 1.372003e-09 2.499261e-10 -8.019987e-10
-3.775384e-09 -4.689582e-12 1.134323e-09 1.007198e-10 1.175477e-10 -3.208249e-10
6.537303e-09 -1.901052e-08 3.148866e-09 1.917106e-09 3.918170e-10 1.669809e-10
-8.105790e-08 -1.183455e-08 2.163074e-07 3.350408e-09 -6.727038e-08 -8.155611e-10
-7.465322e-08 -4.390452e-08 1.818178e-07 -1.443797e-09 3.005045e-10 -2.449917e-09
-6.353269e-08 -1.183455e-08 1.383327e-07 -1.017698e-08 -5.318933e-08 2.751757e-08
6.562341e-09 -2.058131e-08 2.458783e-09 2.606711e-09 8.078782e-11 1.935052e-10
-8.683595e-09 1.367477e-08 -1.078346e-08 -9.600460e-09 2.901527e-09 2.327750e-09
4.443826e-09 -1.740848e-08 2.634037e-09 4.454012e-09 -4.196816e-10 1.509930e-10
6.330608e-09 -1.837418e-08 4.920713e-10 7.399951e-09 2.580314e-10 -6.255130e-11
-1.092753e-08 2.121297e-08 -1.607750e-08 -8.301108e-09 2.989783e-09 4.441863e-09
-5.487855e-09 7.020195e-09 -2.418734e-08 -1.284418e-08 8.022982e-09 1.463257e-09
-1.031085e-08 1.976255e-08 -1.041856e-08 -1.104211e-08 7.704428e-10 7.607090e-09
-1.168438e-08 1.136375e-08 -2.014022e-09 -2.575260e-09 7.375648e-12 8.894054e-10
-1.338812e-08 2.312768e-08 -5.707318e-09 -1.809160e-10 -1.246378e-09 5.959448e-09
-3.424071e-10 8.015644e-10 2.712409e-08 1.311366e-08 -4.539690e-09 -6.424216e-09
-6.800618e-09 5.239857e-09 -1.047730e-08 -1.275311e-08 3.423426e-09 3.851628e-09
-6.800618e-09 1.015474e-08 -1.096150e-08 -1.103102e-08 3.020994e-09 3.152012e-09
-1.086679e-08 2.298894e-08 -1.729766e-08 -7.927429e-09 3.045664e-09 4.305796e-09
-6.089787e-09 3.299802e-08 -5.183002e-09 8.613823e-09 -2.444589e-09 4.011131e-09
-3.757882e-09 6.301392e-08 -5.084656e-08 1.895720e-08 -4.281938e-09 -4.132924e-09
-2.705659e-09 -3.164075e-09 1.929789e-09 -5.810752e-10 -7.105423e-14 7.253975e-11
-2.708990e-09 -3.307866e-09 1.974412e-09 1.174692e-10 1.830063e-10 -1.310304e-10
-9.689112e-10 3.606160e-08 -4.891569e-08 1.413102e-08 1.450172e-08 6.638413e-09
-1.532218e-09 1.423254e-09 7.978471e-10 3.472205e-09 3.291846e-10 -3.046117e-10
-8.312974e-10 -8.671790e-09 2.089794e-09 -4.091866e-09 8.124079e-11 -1.716590e-10
7.122872e-10 -9.654980e-09 1.161298e-09 -6.258720e-09 1.911324e-10 -5.031209e-11
-3.305882e-09 2.405099e-09 7.471384e-10 2.080282e-09 2.793388e-10 -3.915520e-10
-2.770847e-09 -2.707773e-09 1.571342e-09 -4.451449e-10 5.716888e-10 -2.694801e-10
-5.415946e-09 4.047002e-09 1.069433e-09 2.749342e-09 -2.043817e-10 -4.347992e-10
8.075958e-10 -8.188490e-09 2.617504e-09 -1.933697e-09 4.101299e-10 -3.167661e-10
-4.290941e-10 1.026680e-09 3.462128e-10 3.069025e-09 2.209233e-12 -9.785150e-11
-3.936459e-09 3.340246e-09 7.254872e-10 1.786024e-09 6.449964e-10 5.606497e-10
-2.118980e-09 -4.649978e-09 1.926508e-09 -2.721086e-09 6.970814e-12 -7.290486e-10
-3.712338e-09 2.193668e-09 6.361809e-10 1.756888e-09 -5.132583e-10 -3.140246e-10
-1.803617e-09 2.461132e-09 7.968870e-10 3.317011e-09 -1.043687e-10 -4.713816e-10
-3.550737e-11 -7.518254e-09 2.516758e-09 -2.066063e-09 1.423209e-10 -6.947741e-10
-2.898976e-09 -4.374543e-09 1.747764e-09 -2.778371e-09 1.967293e-10 -4.516318e-10
-3.823471e-09 2.662755e-09 1.614424e-09 3.588483e-09 -6.866667e-10 -5.905025e-10
-1.033994e-09 -6.722971e-09 2.255684e-09 -2.971925e-09 -2.309284e-10 -6.358420e-10
3.712666e-10 4.587237e-10 -2.917586e-10 -3.006255e-09 -2.579861e-10 1.134526e-10
-1.027490e-09 1.097224e-09 -1.753931e-10 -2.279540e-09 -1.477475e-10 6.994838e-11
1.171125e-09 -2.567524e-11 -4.649117e-10 -2.270264e-09 -1.933634e-11 -3.422809e-10
1.031371e-10 6.229195e-10 -3.052358e-10 -1.710284e-09 -1.381117e-10 1.437559e-10
1.231564e-09 -2.567457e-11 -3.693055e-10 -2.125015e-09 3.085621e-11 -5.348766e-11
-6.473106e-09 1.387872e-08 -1.491825e-08 1.033974e-08 1.756609e-09 -1.410680e-09
-9.019051e-09 2.605109e-08 -1.584659e-08 2.046181e-09 1.250837e-09 -1.528938e-09
-7.691161e-09 9.253240e-09 -1.315978e-08 1.363084e-08 5.633851e-09 -4.326470e-09
-1.141660e-08 1.724755e-08 -1.584659e-08 6.642303e-09 1.240104e-09 -1.523496e-09
-1.012815e-08 1.123857e-08 -8.556069e-09 9.160631e-09 4.044128e-09 -4.681784e-09
-3.777870e-09 2.272608e-09 -1.037711e-08 1.349542e-08 1.308643e-09 -1.076998e-09
-7.238657e-09 9.525733e-09 -1.491825e-08 1.222140e-08 1.214999e-09 -1.233330e-09
4.685092e-09 -2.555113e-09 -7.592731e-10 -1.565136e-09 -7.984569e-11 2.860445e-11
-5.009434e-09 7.835339e-10 -6.824712e-09 1.253587e-08 3.422985e-09 -9.567964e-10
-3.347003e-09 7.835332e-10 -9.578345e-09 1.445706e-08 4.748213e-09 -2.379396e-09
8.665435e-09 -3.179004e-09 -2.606772e-08 1.767431e-08 1.191212e-08 -7.403495e-09
4.405899e-09 -2.200511e-09 -6.778946e-10 -1.712616e-09 -2.502965e-10 1.132288e-10
-3.128115e-09 -5.542392e-09 -5.586038e-10 9.166604e-09 -1.055462e-10 3.215930e-10
6.883490e-09 -2.010104e-08 3.325713e-09 -3.229229e-10 -3.758138e-11 -1.101341e-11
8.266853e-09 -2.031674e-08 -2.797726e-09 5.579711e-09 9.808234e-10 2.985178e-10
9.335257e-09 -2.118692e-08 1.693294e-09 4.735377e-10 7.775027e-10 6.665873e-11
4.371547e-09 -1.586526e-09 -5.672725e-10 -4.255220e-09 2.191030e-13 -1.204183e-10
8.523018e-09 -2.231152e-08 8.435865e-10 2.322839e-10 -1.093703e-11 2.482443e-10
8.801363e-09 -2.163103e-08 1.666998e-09 -2.391211e-10 2.151350e-10 -1.891260e-10
1.011495e-08 -2.406230e-08 -2.511729e-09 1.629616e-09 2.815123e-09 -3.263283e-10
3.096249e-09 -8.602176e-10 -4.989502e-10 -4.057239e-09 -3.041833e-10 2.371943e-10
9.915776e-09 -2.123820e-08 4.061045e-10 1.602121e-09 2.386500e-10 1.374056e-10
6.820993e-09 -1.981847e-08 3.730774e-09 -2.341238e-11 6.577561e-11 -1.826028e-11
5.224297e-09 -2.953385e-09 -7.376277e-10 1.763111e-10 1.957512e-11 5.109802e-11
-1.284965e-09 1.360116e-09 -6.942447e-11 -5.409622e-10 -1.811636e-10 -3.440648e-11
-1.259939e-09 1.090141e-09 -1.143945e-10 -1.621076e-09 -1.509117e-10 -1.501688e-12
-6.650893e-10 9.516148e-10 -1.069091e-10 -6.942535e-11 -4.222467e-11 -2.686741e-14
-2.977189e-09 1.612645e-09 4.683249e-10 5.756156e-10 4.565609e-11 2.993728e-11
3.649468e-09 -1.725958e-09 -4.791212e-10 1.204407e-09 7.959884e-11 1.292830e-10
-6.409966e-10 5.238894e-10 3.996448e-11 2.401437e-10 2.217493e-11 -1.353830e-10
-6.051124e-10 5.575700e-10 4.077827e-11 4.190182e-10 8.377898e-11 2.620324e-10
2.348379e-10 2.823519e-11 -8.359491e-11 2.960476e-11 -5.463674e-11 -4.440924e-16
4.771740e-09 -2.642493e-09 -6.750365e-10 4.453660e-11 -4.322959e-11 -4.440931e-16
1.186301e-08 -2.702574e-08 -2.730812e-10 4.508585e-10 -4.969773e-09 3.260417e-10
1.257275e-08 -2.149872e-08 -8.150580e-09 9.579638e-10 -2.367998e-09 -1.174386e-10
1.284561e-08 -3.753856e-08 2.373161e-09 -1.158216e-09 -9.942537e-09 1.684587e-10
1.229658e-08 -2.872710e-08 2.509555e-09 7.603070e-10 -4.981066e-09 7.909809e-10
1.111175e-08 -3.000780e-10 -1.805811e-09 1.011942e-08 2.106332e-10 -1.575895e-09
-6.524182e-09 -3.293444e-09 2.367709e-09 1.427935e-09 2.303131e-10 -1.441056e-10
2.278896e-08 -4.629500e-09 -5.506347e-09 3.155320e-09 1.683541e-10 -6.844751e-10
5.895245e-09 6.153822e-09 -2.443008e-09 6.592668e-09 6.047511e-10 -2.219276e-10
-8.702475e-09 3.922107e-09 5.666245e-10 7.621255e-10 1.615566e-09 -3.205836e-11
-4.850781e-09 1.023489e-08 -6.494894e-09 9.305380e-10 -4.494983e-09 -5.574821e-09
-6.750334e-09 -2.146337e-09 2.282903e-09 1.340573e-09 1.079059e-09 -7.092743e-11
9.506813e-09 2.156684e-09 -4.811441e-09 4.582765e-10 -1.033200e-09 -5.150280e-11
2.571564e-08 1.645610e-09 -3.599609e-09 1.231090e-08 -4.852670e-10 5.085629e-09
-6.963061e-09 -2.131458e-09 1.741560e-09 1.240778e-09 1.458655e-11 1.284004e-10
-7.789149e-09 -2.961604e-10 1.009022e-09 1.623417e-09 6.980816e-10 -7.853784e-11
-8.475741e-09 8.630413e-09 -2.476670e-09 -5.599461e-09 -6.468909e-09 -4.831280e-09
-5.255899e-09 -6.115427e-09 2.085355e-09 6.663321e-09 7.159440e-10 -4.614697e-10
-7.973409e-09 1.286915e-10 1.009280e-09 1.558387e-09 4.667264e-10 -2.178897e-10
-3.701675e-09 -7.566054e-09 3.531375e-09 2.886802e-10 2.682853e-10 4.936640e-11
-6.810724e-09 8.755483e-09 -4.745100e-09 6.381389e-10 -1.421604e-09 -2.961238e-10
-6.100823e-09 8.352622e-09 -6.761160e-09 -2.892933e-09 -3.650582e-09 -2.060039e-09
-7.099655e-09 -3.020420e-09 1.694805e-09 4.688796e-09 1.365166e-09 -5.879310e-10
-6.163722e-09 -4.150613e-09 1.969895e-09 4.426331e-09 9.239477e-10 -3.325618e-10
-5.379784e-09 -1.314463e-09 8.293206e-10 6.864601e-09 1.572478e-09 -3.016789e-10
-7.609190e-09 -2.961604e-10 1.009023e-09 4.219660e-09 -1.889325e-10 -1.092797e-10
6.739804e-09 -2.013720e-08 3.840619e-09 7.713030e-11 9.038592e-11 -1.317000e-10
3.598444e-09 -1.370039e-08 2.975096e-09 -1.339053e-09 -8.652400e-11 -6.476321e-10
-8.611025e-09 4.704239e-09 -1.544354e-09 -3.940443e-09 -5.436281e-09 -2.139303e-09
6.731136e-09 -1.923980e-08 3.569010e-09 -2.305912e-10 -1.072473e-10 -2.374023e-10
8.523018e-09 -2.068615e-08 2.196870e-09 2.592062e-11 6.274292e-11 5.315837e-11
-3.943696e-09 7.068515e-10 1.070029e-09 1.232614e-10 3.401079e-11 -1.308811e-10
8.557334e-09 -2.153381e-08 -1.464251e-10 -1.924642e-09 3.487419e-10 1.323794e-10
8.494369e-09 -2.036029e-08 1.672435e-09 -2.167829e-09 5.110535e-10 2.253506e-10
5.828067e-09 -1.808753e-08 1.279919e-09 -4.058093e-09 2.710001e-10 1.199696e-10
6.687614e-09 -1.947888e-08 3.675042e-09 9.976597e-11 1.123648e-10 -1.065362e-10
-6.690994e-09 2.099372e-09 -1.337994e-09 -3.467866e-09 -1.061184e-09 -3.002123e-10
-7.033606e-09 2.480149e-10 -2.686688e-09 -4.969619e-09 -3.552947e-09 -1.519142e-09
1.292425e-10 -9.547873e-09 -2.751908e-09 -8.074766e-09 -4.648532e-09 -1.998265e-09
6.630892e-09 -1.970126e-08 3.653115e-09 4.513565e-10 1.052143e-10 -7.546813e-11
6.734266e-09 -1.889925e-08 3.560810e-09 -5.774736e-11 -7.601841e-11 -1.783058e-10
-7.648293e-09 -5.134915e-10 7.617018e-10 -1.252900e-10 2.782620e-20 -1.110472e-10
-8.738077e-09 2.050497e-09 2.665881e-10 -1.319175e-09 -5.966357e-10 -1.735128e-10
3.033503e-08 -1.828575e-08 2.396796e-08 3.316041e-09 1.491429e-09 1.684874e-08
-8.605117e-09 2.502888e-09 9.008307e-10 -1.892849e-09 -1.547296e-09 -2.188056e-10
-6.104443e-09 -2.623103e-09 3.080922e-10 -6.738414e-10 3.609719e-10 -6.490009e-11
6.634717e-09 -1.936365e-08 3.719211e-09 1.794287e-10 1.583595e-10 -1.463585e-11
1.139527e-08 5.316139e-10 -5.224138e-09 3.108217e-09 -1.872867e-10 -3.740743e-10
5.755617e-09 -1.852647e-08 3.809845e-09 2.904386e-10 1.435698e-10 8.924328e-11
-1.790269e-09 1.441340e-08 -1.077506e-08 5.017747e-09 -1.175314e-09 -2.437695e-09
2.201014e-08 -4.068368e-09 -3.306089e-11 8.411289e-09 -9.075825e-10 3.098737e-09
1.790180e-09 -1.143585e-08 2.691706e-09 -1.246692e-10 -1.499978e-11 -7.659123e-10
1.245363e-09 -9.965819e-09 2.688819e-09 -5.980626e-10 -2.805416e-10 -5.037246e-10
4.088341e-09 -1.592772e-08 3.165595e-09 -1.562845e-09 -1.547725e-11 -2.116408e-10
-8.024438e-10 -7.545931e-09 2.487243e-09 -3.799816e-09 -5.347653e-10 -1.312224e-10
-1.355452e-09 -7.659640e-09 1.882267e-09 -3.450461e-09 2.985037e-10 -5.114154e-10
-8.312976e-10 -6.309663e-09 1.782865e-09 -4.016948e-09 -3.348245e-10 -3.750886e-10
7.198420e-10 -1.005923e-08 2.331545e-09 -3.837141e-09 6.451215e-10 9.216484e-12
1.869134e-09 4.129910e-09 -2.608461e-09 1.041701e-09 2.600200e-09 -6.789813e-10
-2.847461e-09 -9.430329e-09 2.891233e-09 4.078145e-09 1.122626e-10 -3.698442e-11
5.363586e-09 -1.540151e-09 2.337965e-09 5.878722e-09 -1.038228e-10 -4.122971e-10
2.488857e-09 1.849148e-09 1.701149e-09 7.786939e-09 -3.145359e-10 -3.293096e-10
-3.861022e-09 2.617376e-09 5.313244e-09 6.289554e-09 -3.964064e-10 -1.909825e-09
-1.343164e-09 2.609463e-09 3.417919e-09 6.672845e-09 -5.993855e-11 -2.031080e-09
5.721666e-09 -1.101763e-08 -9.281943e-09 1.462198e-08 4.364258e-09 -1.637403e-09
-2.043736e-09 -9.459406e-09 3.206714e-09 3.181583e-09 2.694174e-10 7.572265e-11
-9.479473e-09 6.508770e-09 -6.949809e-09 1.138061e-08 3.629662e-09 -2.815511e-09
1.290450e-08 -1.421139e-08 -1.934338e-08 1.055209e-08 4.592444e-09 -1.177125e-09
1.482875e-08 -1.465878e-08 -1.595449e-08 7.719144e-09 2.945300e-09 -4.835216e-10
-6.450965e-09 1.708443e-08 -6.779265e-09 -1.332313e-09 9.005036e-10 -1.932528e-09
-3.848172e-09 2.034785e-09 2.993970e-10 -1.324226e-09 -1.060143e-10 7.985113e-11
-3.941345e-09 2.409731e-09 2.810991e-10 -1.344368e-09 -2.028164e-10 1.404075e-10
1.734103e-08 -1.101958e-08 -3.023475e-08 1.676461e-09 5.661672e-09 5.375342e-10
-3.216559e-09 2.167281e-09 2.076677e-10 -2.000424e-09 -1.841596e-10 -3.673106e-10
-3.326033e-09 2.203212e-09 2.557496e-10 -1.729606e-09 -3.381240e-11 -4.926026e-11
1.087704e-08 -1.383208e-08 -1.841152e-08 1.156253e-08 2.236914e-09 5.875254e-10
2.111769e-09 -3.429879e-09 -1.092115e-08 1.316106e-08 4.388873e-09 -1.651710e-09
-4.367301e-09 1.912265e-09 4.597753e-10 -9.151735e-10 -6.894929e-11 9.060042e-11
-3.558189e-09 2.232444e-09 3.455605e-10 -1.472197e-09 -1.091907e-10 -8.357515e-11
-4.254298e-09 2.360583e-09 3.373803e-10 -1.543068e-09 -1.030835e-10 -1.008358e-10
2.592937e-08 -7.529489e-09 9.520371e-10 -9.540559e-09 -2.087677e-09 8.549774e-09
1.130395e-08 -1.998128e-08 -7.846644e-09 7.196640e-09 -1.921607e-10 -4.355893e-11
-1.776649e-09 1.971269e-09 -1.053317e-10 -2.695322e-09 -7.269963e-12 1.671481e-10
5.244151e-09 -5.511905e-09 -1.445720e-08 7.066480e-09 -8.718450e-09 4.256914e-09
5.038418e-09 -4.078390e-09 -1.492513e-08 6.022037e-09 -1.146190e-09 3.927927e-10
6.091308e-09 -5.015702e-09 -2.285034e-08 7.867798e-09 -1.107139e-08 5.985896e-09
7.858122e-09 -1.868767e-08 -4.155623e-09 8.517840e-09 2.688408e-09 -3.741730e-10
1.250546e-08 -1.665854e-08 -1.240568e-08 3.626429e-09 -4.822863e-09 1.219592e-09
4.294205e-09 -1.102631e-08 -7.533756e-09 1.417870e-08 3.957424e-09 -1.163746e-09
5.244526e-09 -2.316788e-09 -4.078680e-10 1.913092e-09 6.358664e-11 -1.093858e-11
-3.981973e-09 -1.034151e-09 1.403492e-09 -1.582299e-09 6.291123e-11 7.814682e-11
5.324016e-09 -2.873551e-09 -5.405560e-10 1.715640e-09 1.035361e-10 -4.017775e-11
5.085844e-09 -1.823364e-09 -1.325912e-10 3.420256e-09 -6.219291e-11 -5.163316e-10
5.898604e-09 -2.797077e-09 -2.979794e-10 1.881275e-09 3.307369e-12 3.816520e-10
-3.732191e-09 2.093099e-10 1.145938e-09 -2.228739e-10 1.669187e-11 -2.949025e-10
7.401283e-09 6.670156e-10 6.321206e-09 -1.632777e-08 7.226825e-10 1.372363e-09
6.990635e-09 -1.906725e-08 1.730149e-09 -3.628236e-09 4.791473e-10 6.911816e-11
6.491199e-09 -1.640397e-08 -1.400196e-09 -7.377946e-09 -4.902634e-10 1.272960e-11
1.973448e-08 1.735399e-08 -7.943678e-08 9.616469e-09 3.964102e-08 -6.054725e-09
1.943875e-08 -1.619875e-08 -2.877196e-08 2.703317e-09 1.605811e-08 -7.832052e-10
-8.343299e-10 1.042704e-08 1.372914e-09 -1.234057e-08 -1.392552e-09 8.433172e-10
-3.261032e-09 -1.884242e-09 1.673318e-08 8.203979e-09 -1.345897e-10 -4.337744e-10
-1.170403e-09 -3.606828e-09 3.481312e-08 2.461827e-09 -3.338991e-09 -4.975854e-09
-7.803964e-10 -5.930961e-09 3.519856e-08 7.392885e-09 -2.174183e-09 -1.069035e-08
1.726088e-08 5.338093e-09 -4.643271e-09 -9.811581e-09 7.921755e-10 1.687194e-09
9.138241e-10 4.232166e-10 8.584822e-11 3.329418e-09 1.917385e-10 2.187222e-10
1.186663e-08 -8.832327e-09 3.624352e-08 -4.575071e-09 1.149567e-09 -8.932871e-09
3.146624e-09 -1.239884e-09 -1.083982e-10 3.305039e-09 2.071610e-10 8.225731e-11
2.088341e-09 4.612685e-10 5.809708e-10 4.917339e-09 -2.035492e-10 -3.629852e-10
4.184841e-09 -1.346127e-09 4.935607e-12 3.976391e-09 1.788734e-10 1.092083e-10
-2.910367e-09 8.743424e-09 1.544639e-08 1.240185e-08 -4.127928e-09 -4.139187e-09
-4.980102e-08 4.911366e-08 -4.929899e-09 1.314344e-08 -6.021134e-08 2.832581e-08
9.913550e-09 -3.286791e-08 1.263309e-07 -6.201822e-09 -3.410868e-09 6.146993e-08
-3.908833e-08 -2.240074e-08 1.303805e-07 -2.127716e-08 -1.218347e-10 1.092127e-08
-2.020709e-09 6.833439e-09 1.218954e-07 3.642373e-08 5.278827e-08 4.782881e-08
-1.618414e-08 6.833439e-09 1.267591e-07 4.373440e-08 4.586480e-08 5.196762e-08
-1.037533e-10 6.639013e-08 -5.115454e-08 1.516193e-08 -5.373579e-09 -2.269681e-09
-3.761320e-10 -8.831453e-10 4.144440e-08 2.192961e-08 1.311661e-09 3.172598e-09
2.569554e-09 3.616955e-10 4.344836e-10 5.037107e-09 1.786613e-10 -9.109269e-11
2.295500e-09 -4.721349e-10 9.627730e-10 4.329364e-09 -2.395353e-10 -1.173154e-09
-7.760139e-10 1.725404e-09 7.494556e-10 3.868041e-09 1.352500e-10 -1.130531e-10
-3.471219e-09 5.549538e-09 1.408623e-09 4.595281e-09 -3.878764e-10 -7.011575e-10
-4.886310e-09 4.442314e-09 1.255222e-09 3.210795e-09 2.995912e-10 2.176883e-10
1.883159e-09 -3.060844e-10 2.410437e-09 5.148375e-09 2.969942e-10 8.175471e-11
-5.997158e-10 1.060628e-09 2.615217e-09 5.462181e-09 -4.344349e-10 -1.051337e-09
-1.714684e-09 4.324996e-09 1.614426e-09 5.774017e-09 -8.029537e-10 -8.222774e-10
-3.213300e-09 5.370277e-09 3.242613e-09 7.706936e-09 -1.481944e-09 -1.132212e-09
-7.866330e-10 2.914284e-09 1.001076e-09 4.843253e-09 -2.091269e-10 -2.641383e-10
-9.330483e-09 6.418348e-09 1.209618e-09 1.664657e-09 -1.847590e-10 -1.435927e-10
-6.368228e-09 4.875219e-09 2.612570e-09 3.671120e-09 -2.350433e-09 -1.733431e-09
-8.701129e-09 5.905860e-09 -2.474614e-10 -1.243234e-09 -2.965422e-09 -4.101626e-10
1.582823e-09 3.616952e-10 7.297660e-10 4.902916e-09 6.195855e-11 -3.503997e-10
1.948889e-09 5.960121e-11 -4.322485e-10 -4.561739e-09 -2.998084e-10 2.693412e-10
-3.891394e-10 1.194950e-09 -4.678563e-10 -4.125157e-09 -1.448620e-10 -1.566051e-11
1.014291e-10 1.682442e-09 -7.357431e-10 -6.246675e-09 -2.222697e-10 -5.856343e-11
4.253469e-09 -2.407070e-09 -5.635865e-10 4.818037e-10 1.764006e-10 6.049872e-11
-1.533406e-09 -5.496469e-09 2.273740e-09 6.474399e-11 1.082223e-11 -2.451640e-10
1.884048e-11 9.423218e-10 -1.798783e-10 -3.176096e-09 -1.200267e-10 2.847820e-10
3.385887e-10 4.587237e-10 -3.935430e-10 -2.959215e-09 -2.984022e-10 1.867212e-10
2.248833e-09 -1.116264e-08 2.991232e-09 -1.414789e-09 -1.573190e-10 -3.180824e-10
-2.168009e-09 -3.206235e-09 1.901980e-09 1.291705e-10 3.753442e-11 -1.623037e-10
1.776186e-09 -2.825047e-10 -4.663443e-10 -3.196827e-09 -4.074518e-11 -3.581553e-10
-3.622600e-09 -1.715262e-09 1.612824e-09 -8.091456e-10 -2.272523e-10 -2.288205e-10
-3.387650e-09 -3.314123e-09 1.878239e-09 -2.233286e-09 5.801692e-11 -3.716765e-10
4.692956e-10 -1.348601e-08 5.167999e-11 7.464358e-09 -5.657628e-09 2.141239e-09
-3.763285e-09 -1.314628e-10 1.357381e-09 -2.789835e-10 -9.769785e-11 2.095213e-11
-3.316796e-09 -2.187375e-09 1.663955e-09 -1.450403e-09 4.934256e-10 -3.514965e-10
-4.627648e-08 1.913855e-08 5.948269e-08 -8.117882e-09 3.918359e-10 -9.653733e-10
-4.070664e-09 1.355186e-09 8.261973e-10 -1.171139e-10 -7.740697e-12 -2.578804e-11
-2.999893e-09 1.704481e-09 4.121068e-10 4.507885e-10 1.167424e-10 -6.347495e-11
6.554730e-10 2.941634e-08 -4.101996e-08 -9.943247e-09 -1.482511e-08 -4.354240e-09
-3.980789e-09 2.066823e-09 5.818706e-10 2.757528e-11 5.764278e-12 -2.710365e-11
-4.018780e-09 1.977298e-09 6.405863e-10 9.222134e-11 1.371081e-11 -1.283396e-11
-1.962885e-08 4.736402e-08 1.315190e-08 -1.593385e-08 2.098471e-08 -1.828807e-08
-3.975389e-09 2.142112e-09 5.571228e-10 2.531042e-11 1.200684e-11 -7.729151e-12
4.258096e-09 -1.196655e-08 -5.846635e-09 1.380168e-08 4.409502e-09 -1.450598e-09
1.040926e-09 -7.307315e-09 -7.794416e-09 1.407081e-08 4.315573e-09 -8.923373e-10
-2.650707e-09 -1.730082e-09 -8.319827e-09 1.462848e-08 4.674761e-09 -3.319127e-09
1.488423e-09 -5.887402e-10 -3.391865e-10 1.058435e-09 6.509815e-11 3.169003e-10
8.004867e-10 2.145673e-09 -1.983102e-08 1.564792e-08 2.857929e-09 -1.836129e-09
-3.602027e-09 -6.941274e-10 1.286960e-09 -5.890768e-10 -1.183221e-10 -4.666378e-10
2.847504e-09 -8.677624e-09 -1.110858e-08 1.464693e-08 2.400183e-09 -1.031819e-09
-3.882878e-09 1.882521e-09 5.742904e-10 1.988683e-10 3.851706e-11 -9.933476e-11
-3.663485e-09 -7.865921e-10 1.257087e-09 -5.093749e-10 1.744282e-11 -3.712698e-10
-3.475868e-09 -1.135633e-09 1.308881e-09 -1.006216e-09 7.743173e-11 -5.195144e-10
3.759624e-09 -1.400285e-08 1.797149e-09 -4.573148e-09 2.372215e-10 3.573423e-11
-2.979994e-09 -1.826770e-09 1.593055e-09 1.206528e-10 4.339817e-11 -2.041516e-10
9.555979e-09 -2.240424e-08 -2.175828e-09 -1.617445e-09 2.550582e-11 2.475367e-10
-3.401185e-09 -1.716265e-09 1.621465e-09 -1.085257e-09 -8.037626e-11 -3.858215e-10
-3.779568e-09 3.407221e-10 1.039307e-09 -2.359831e-10 2.556289e-10 -2.319716e-10
-3.510243e-09 -7.686332e-10 1.329129e-09 -1.280036e-10 1.464713e-10 -3.477481e-10
-1.030968e-09 -5.726958e-09 2.162714e-09 -1.998413e-09 4.256393e-10 -7.002905e-10
1.073570e-08 -2.236201e-08 -2.412360e-09 -1.121902e-09 3.225555e-09 1.473011e-10
-6.393822e-09 -3.275744e-09 1.394822e-09 -2.337456e-10 -4.069372e-10 8.794570e-11
-5.290735e-09 -2.285113e-09 -1.374210e-09 -3.259081e-09 -1.925150e-09 -7.750736e-10
-1.156842e-09 -7.710056e-09 2.245566e-09 -3.033588e-09 4.248409e-10 8.697169e-11
4.635380e-09 -2.549444e-09 -6.475593e-10 1.439650e-10 7.339129e-12 5.527423e-11
9.874776e-09 -2.398366e-08 7.045760e-10 4.394209e-10 -5.205498e-10 6.718666e-10
3.949376e-09 -2.082775e-09 -5.815179e-10 6.031864e-11 -5.592393e-11 -6.746511e-21
1.058839e-08 -2.610883e-08 -8.540574e-10 6.723619e-09 -1.006777e-08 2.874333e-09
9.530010e-09 -2.546967e-08 2.479146e-09 2.740950e-10 -1.188818e-09 3.923694e-11
-9.936230e-11 2.242748e-10 1.406453e-11 8.160863e-10 1.698568e-10 1.691314e-10
-4.353178e-09 -7.798513e-09 3.091170e-09 3.899909e-09 4.158692e-10 -1.851139e-11
6.013359e-10 7.354117e-12 -1.091958e-10 3.889578e-10 1.107847e-10 2.618692e-10
2.063413e-09 -1.108958e-09 -3.188543e-10 1.423127e-09 5.391421e-11 6.759437e-11
2.663795e-09 -1.308502e-09 -3.435030e-10 1.182524e-09 1.855348e-10 2.933410e-10
-5.950664e-09 -2.564579e-09 2.281014e-09 1.039278e-09 1.867548e-10 3.665157e-11
2.839814e-09 -1.422212e-09 -4.313123e-10 8.209300e-10 1.503790e-12 -2.718298e-10
4.102331e-09 -2.132484e-09 -5.566054e-10 5.796297e-11 2.650291e-11 1.814104e-13
4.269037e-09 -2.048683e-09 -5.616978e-10 7.083113e-10 1.218479e-10 -1.716580e-10
-4.286294e-09 -6.139624e-09 3.019519e-09 2.865792e-09 9.546051e-10 1.205999e-10
-5.433533e-09 -4.333034e-09 2.706029e-09 9.222472e-10 4.378306e-10 3.677214e-11
-8.452507e-09 4.304201e-10 2.030168e-09 -1.340323e-10 -2.935507e-10 -4.566714e-11
-1.906617e-09 -9.213007e-09 1.923235e-09 -4.948957e-10 -6.102500e-10 -1.154075e-10
-6.509612e-09 -2.671579e-09 2.449924e-09 1.391736e-09 1.098590e-09 -2.758479e-10
2.379352e-09 -1.369470e-09 -4.234932e-10 4.887113e-11 1.599425e-10 -1.608447e-11
5.388212e-09 3.579255e-09 -4.447479e-09 4.480237e-09 -2.201840e-09 -2.874462e-09
7.919492e-10 -5.292327e-10 -1.451725e-10 4.443664e-10 7.489528e-11 1.987338e-11
6.662889e-09 1.083139e-08 -6.977301e-09 1.158130e-08 -2.834693e-10 -4.014655e-10
2.990346e-08 -1.290773e-08 4.157039e-09 -1.493796e-09 5.983983e-10 3.482638e-09
-5.298860e-09 1.087083e-08 -3.133543e-09 8.310795e-10 -2.928586e-09 -5.339842e-09
1.553979e-09 6.639020e-09 -6.264869e-09 2.909777e-09 -1.225530e-09 -1.579153e-09
-1.905530e-09 -7.533186e-09 9.567811e-10 6.045399e-09 -3.182779e-09 1.627773e-09
-2.650841e-09 -5.447395e-09 1.519401e-09 3.308008e-09 -1.880362e-09 2.211475e-10
8.502740e-09 -1.545368e-08 -6.800430e-09 6.176821e-09 -4.345438e-09 1.879184e-09
9.593766e-10 -1.619931e-10 -1.438816e-10 1.133012e-09 1.379781e-10 -7.689094e-11
-3.887330e-09 -5.078684e-09 -7.531877e-10 4.045938e-09 -2.729221e-09 1.340996e-09
1.588496e-10 -8.608371e-09 1.352470e-09 8.484591e-11 -3.090563e-10 2.399444e-10
1.417369e-09 -6.015051e-10 -2.380696e-10 8.201826e-10 1.557801e-10 -2.997459e-10
5.748637e-10 -1.220952e-10 -1.201199e-10 2.998466e-10 1.993072e-11 -1.535689e-10
-9.971206e-10 6.951533e-10 4.500622e-11 -5.312639e-12 1.942430e-10 -1.710365e-11
2.547766e-10 1.026530e-10 -9.760193e-12 4.938161e-10 -1.963968e-11 -3.942358e-11
-1.455068e-09 9.850565e-10 1.643983e-10 4.017866e-10 -6.230483e-11 3.028910e-11
1.848687e-09 -3.008123e-10 -2.593271e-10 1.899062e-09 1.047052e-10 3.914213e-11
-2.530877e-09 1.573310e-09 3.599583e-10 1.134364e-10 1.084730e-10 -2.578138e-11
1.217496e-08 -2.371008e-08 -3.195279e-09 5.293328e-10 -1.276610e-09 9.706679e-12
1.396451e-08 -2.420703e-08 -8.859094e-09 2.919607e-09 -1.125970e-08 1.828347e-09
-2.057203e-09 2.005287e-09 1.418154e-11 -3.914145e-10 5.475842e-11 6.874923e-11
-2.050725e-09 1.917442e-09 8.329870e-11 -7.785855e-11 -1.919798e-11 -1.948841e-11
-2.024592e-09 2.111003e-09 6.246781e-11 -4.929301e-11 -8.464518e-11 -1.273648e-11
-1.634767e-09 1.712199e-09 2.940603e-11 -3.676597e-10 -1.236426e-10 -2.711703e-11
3.353455e-09 -1.740348e-09 -5.127037e-10 5.123749e-10 -8.126411e-11 1.822276e-11
-3.486024e-09 1.996749e-09 4.608784e-10 -2.211947e-11 2.093824e-11 -1.538591e-11
1.250494e-08 -3.240099e-08 -1.042662e-09 6.621697e-09 -1.163292e-08 2.634737e-09
1.490775e-08 -2.651622e-08 -9.533850e-09 -1.486383e-09 -1.226120e-08 5.603658e-10
1.274616e-08 -3.025785e-08 2.297554e-09 1.993636e-09 -6.359278e-09 6.828248e-10
1.120755e-08 -2.710335e-08 -2.851198e-09 3.150887e-09 -6.422505e-09 1.689166e-09
1.167415e-08 -2.758389e-08 6.780037e-10 1.491429e-11 -1.013577e-09 2.819460e-10
6.493039e-09 -2.126309e-09 1.081498e-09 -7.211572e-09 5.973613e-11 3.078329e-10
-3.496456e-09 1.956703e-09 4.696128e-10 9.277334e-11 8.706369e-12 6.887646e-11
-3.486024e-09 1.936394e-09 4.288743e-10 -2.069100e-11 6.947842e-11 -1.702172e-11
-3.752149e-09 2.085317e-09 4.912575e-10 3.069145e-11 3.276734e-11 6.202150e-12
-1.337537e-09 1.014020e-09 2.201688e-10 8.008847e-10 1.697951e-10 -3.499068e-11
-1.887640e-09 -8.742207e-09 3.350869e-09 1.355654e-09 1.814098e-10 2.505957e-10
-2.374438e-09 1.430292e-09 2.736531e-10 1.051603e-11 8.622680e-11 -1.413447e-11
-2.911815e-09 1.676598e-09 3.561742e-10 1.411089e-10 3.640688e-11 7.531797e-11
-2.122083e-09 1.320556e-09 2.658362e-10 9.724177e-11 4.915490e-11 5.402589e-11
3.797591e-09 -1.864127e-09 -6.238596e-10 -1.358884e-10 -8.408407e-11 1.026890e-11
3.865259e-09 -1.948310e-09 -6.425767e-10 -5.520755e-10 1.126841e-10 -4.379186e-11
1.923439e-11 -1.207749e-08 3.838480e-09 4.862595e-10 2.079303e-10 5.188605e-11
-2.623569e-09 -8.028602e-09 3.242218e-09 6.713091e-10 -1.453592e-10 5.850498e-11
1.676741e-09 -1.007507e-08 2.741470e-09 -1.321510e-09 2.066420e-10 -6.513459e-10
-4.266578e-10 -7.202078e-09 2.402369e-09 -4.514155e-10 -2.533650e-10 -5.240131e-10
-4.676022e-09 1.319314e-09 9.024796e-10 -1.772060e-10 -2.447655e-10 -3.226742e-10
-5.547067e-10 -7.690124e-09 2.540279e-09 -1.350189e-09 -9.429990e-11 -3.747416e-10
-4.947861e-09 1.148154e-09 9.007728e-10 -3.944161e-10 1.691743e-20 -2.144618e-11
-6.764447e-09 -2.880216e-09 1.009021e-09 4.292552e-09 -1.027215e-09 3.942446e-10
-4.767704e-09 1.088396e-09 8.335217e-10 1.877241e-10 -6.510392e-11 -1.111002e-10
-4.820277e-09 1.789454e-09 7.907417e-10 -1.951401e-10 -1.063414e-10 -5.112244e-11
-9.011822e-09 5.178354e-09 -3.690248e-11 -7.164598e-10 -3.109863e-09 -2.207029e-10
-1.266495e-09 -4.485121e-09 -4.122743e-09 -6.755135e-09 -1.816159e-09 -7.564347e-11
-5.387844e-09 -4.459505e-09 1.623297e-09 6.208622e-09 7.053849e-10 -1.140772e-10
-8.351400e-09 5.952381e-09 -9.141408e-10 1.397714e-09 1.526544e-09 -3.382301e-10
1.130292e-09 -1.476501e-08 1.417802e-09 -2.121799e-09 -5.088219e-10 -1.064393e-09
-7.063040e-09 -1.674614e-09 1.934550e-09 1.141596e-09 6.519618e-10 -7.131851e-11
-7.082921e-09 -3.745840e-09 2.464041e-09 2.262257e-09 3.716264e-10 5.467504e-11
-3.424633e-09 1.277303e-08 -1.097172e-08 -5.540438e-09 -2.064111e-09 1.785119e-09
1.918776e-08 -2.204636e-09 -4.693231e-08 1.408829e-08 1.643168e-08 -3.892055e-09
-3.195633e-09 9.068805e-09 -4.823240e-09 -8.469879e-09 -3.956258e-11 3.538601e-10
3.469068e-08 -1.557492e-08 2.236358e-08 -1.585342e-09 1.567701e-09 1.402017e-08
7.548675e-09 -1.822583e-08 -2.832627e-09 -1.472667e-09 -9.011520e-10 -4.614145e-10
9.995096e-09 -2.465947e-08 1.924403e-09 1.293507e-09 -1.411803e-09 8.831318e-10
1.408782e-08 -1.829374e-08 -1.431744e-08 -9.001548e-10 -4.647797e-09 1.132487e-09
-2.975415e-09 1.760234e-09 3.760654e-10 1.920526e-11 1.223387e-10 -7.645884e-12
-3.833509e-09 -4.512580e-09 6.583305e-08 -2.753536e-08 -1.261948e-08 2.274767e-08
1.218069e-08 -2.207365e-08 -8.486523e-09 3.668179e-10 -1.818196e-09 2.454911e-10
1.257275e-08 -2.158770e-08 -4.619809e-09 9.023480e-10 -7.952396e-10 -1.780007e-10
1.167808e-08 -3.161940e-08 1.772293e-09 -2.100266e-11 -5.725031e-09 2.941452e-10
-3.570437e-09 9.929719e-09 2.127468e-08 -2.289585e-08 1.291961e-09 -3.255887e-10
2.267706e-08 -1.070890e-08 1.556294e-08 -1.207619e-08 -5.176706e-11 2.439247e-09
-3.097496e-09 -2.413983e-09 1.604846e-09 -2.523829e-09 -1.936642e-10 -3.266967e-10
-4.175525e-09 -4.363727e-10 1.304249e-09 -1.412001e-09 1.459108e-10 4.580924e-11
-4.208864e-09 1.261045e-10 1.134788e-09 -9.797170e-10 4.623390e-11 -2.894309e-10
-1.863909e-08 2.168844e-08 -1.130618e-08 -2.995236e-10 4.094223e-09 -1.010285e-08
-1.277361e-08 1.789029e-08 -1.011795e-08 2.673402e-09 1.242198e-09 -2.497193e-09
-4.440827e-09 -8.705729e-10 1.281544e-09 -2.253940e-09 4.456635e-11 1.082210e-10
-2.229843e-09 -3.464441e-09 1.801816e-09 -2.601609e-09 2.380595e-10 -3.792002e-10
-3.544947e-09 -3.666512e-09 1.534375e-09 -4.496053e-09 3.196523e-10 9.542011e-11
-3.981975e-09 -6.077379e-10 1.348081e-09 -1.328494e-09 -6.076073e-11 -1.128931e-10
-8.803279e-09 2.011571e-08 -1.662488e-10 -1.098957e-08 -1.814680e-09 -4.599318e-10
-7.919823e-09 5.780655e-09 -9.207257e-10 2.743785e-09 1.836664e-09 -9.496814e-10
-3.614479e-09 -2.639846e-09 1.709704e-09 -3.037276e-09 -3.319567e-10 -3.004721e-10
1.458998e-09 -2.325944e-10 -4.430945e-10 -2.319847e-09 -1.709619e-10 1.365121e-10
9.469487e-10 6.936665e-10 -3.396279e-10 -3.804973e-09 -5.230483e-12 4.176215e-12
3.562501e-10 2.283072e-10 -3.342269e-10 -8.347278e-11 -2.062650e-10 -6.710854e-12
-5.142109e-11 6.982315e-10 -3.396288e-10 -2.919361e-09 -6.233898e-12 -3.858016e-10
3.622979e-09 -1.088460e-09 -5.332188e-10 -3.627341e-09 -1.300122e-10 -2.846092e-10
-4.121964e-09 -1.605064e-09 1.476133e-09 -2.790253e-09 8.429391e-11 -1.337677e-11
-4.136946e-09 2.566762e-09 2.186162e-11 -2.307104e-09 -2.171188e-10 -8.457057e-11
1.328692e-08 -1.843984e-08 -1.942696e-08 -4.283298e-09 -1.117781e-08 -9.639551e-10
6.049501e-09 5.524036e-09 -2.471368e-08 3.925675e-09 -2.316752e-09 5.731358e-10
1.046599e-09 -2.453939e-10 -8.641665e-11 2.410629e-09 1.895459e-10 -1.939648e-11
5.544631e-09 -2.355691e-09 -5.323111e-10 -2.984649e-09 6.326673e-11 -3.883568e-10
1.980578e-09 1.332736e-08 -3.051708e-08 1.531211e-08 5.785600e-09 -2.858387e-09
3.396096e-09 2.089903e-08 -4.798163e-08 1.329891e-08 6.750562e-09 -4.213253e-09
2.010489e-09 -7.770815e-10 -2.849054e-10 1.756750e-09 -6.269385e-11 -1.131033e-10
5.245180e-09 -2.320963e-09 -4.744196e-10 1.911788e-09 -3.046452e-12 -6.426926e-11
-4.503726e-09 2.212980e-09 5.370495e-10 -7.910124e-10 -6.517276e-11 -2.288960e-10
5.187988e-09 -1.687481e-09 1.888731e-09 5.824456e-09 -2.448510e-10 -9.341161e-10
8.529817e-09 -4.271434e-09 2.230650e-09 3.808527e-09 -1.605483e-10 -1.145990e-09
-4.632555e-09 2.311142e-09 6.501653e-10 -7.343215e-10 2.716760e-11 1.159188e-10
-4.387400e-09 2.547374e-09 5.688441e-10 -1.887201e-10 -3.340617e-11 -2.734502e-10
6.038229e-09 -2.166079e-09 8.820948e-10 4.049013e-09 -5.645984e-11 -1.175551e-09
-4.200951e-09 2.451525e-09 4.754508e-10 -1.263621e-09 5.713652e-12 3.709568e-11
5.909543e-09 -1.540151e-09 1.556622e-09 5.977611e-09 -1.132072e-11 -5.746019e-10
3.406508e-09 -3.795982e-10 2.205531e-09 6.160832e-09 -7.677013e-10 -1.592267e-09
2.046780e-08 -7.784405e-09 9.043809e-09 -1.110919e-08 -4.105785e-10 7.204370e-10
-3.023814e-09 -1.588990e-09 1.574315e-09 -7.096446e-10 2.752442e-10 -4.979601e-10
1.189702e-08 -2.119092e-09 2.297011e-08 -1.973810e-08 -1.562722e-09 7.161880e-10
2.093534e-08 -6.059677e-09 2.876361e-08 -2.451838e-08 -5.026505e-09 7.645322e-09
-5.712628e-10 -8.925669e-09 2.487772e-09 -1.507433e-09 -5.905153e-10 -4.153702e-10
1.619198e-09 -6.855592e-10 -2.218917e-10 5.162056e-10 1.833073e-10 -6.663575e-11
-2.507036e-09 -3.023526e-09 1.590322e-09 -1.641887e-09 2.884371e-10 -4.325678e-10
6.726118e-09 9.738680e-09 1.254348e-08 -2.010430e-08 -2.221662e-09 3.692096e-09
-2.914020e-09 -3.568955e-09 1.759598e-09 -2.566481e-09 -8.743517e-11 -3.647637e-10
-1.781327e-09 1.106567e-09 2.096661e-10 7.502532e-11 1.012657e-11 -5.039524e-12
8.585133e-11 2.984057e-10 -2.110667e-11 1.330163e-09 4.969803e-12 1.760418e-11
-1.669420e-10 1.047109e-10 -5.091572e-11 -1.909317e-11 6.387957e-11 -1.072920e-11
4.527196e-09 -1.803229e-08 3.838766e-09 5.627907e-10 -1.312744e-19 -1.166280e-10
-3.554927e-09 1.996275e-09 4.781033e-10 -3.566525e-11 2.761524e-11 -8.603784e-12
-3.732655e-09 2.062110e-09 5.120722e-10 -1.979217e-11 -2.002398e-11 7.926360e-22
-3.682331e-09 2.043826e-09 5.227263e-10 7.559642e-11 2.915290e-11 -4.690137e-11
-3.593936e-09 2.027953e-09 4.691976e-10 -6.973866e-12 3.031042e-11 -2.589884e-11
-3.868296e-09 2.068219e-09 5.868088e-10 2.462031e-11 -8.869128e-12 2.403810e-11
7.231643e-09 -2.050050e-08 2.982048e-09 1.523433e-09 7.814927e-11 9.578033e-11
-3.362655e-09 1.835970e-09 4.587442e-10 2.471854e-10 4.604228e-11 6.142198e-12
2.540994e-09 -1.518922e-08 2.929864e-09 4.156087e-09 -3.416360e-10 1.480940e-10
3.791552e-09 -1.618913e-08 1.152379e-09 6.127667e-09 5.736753e-10 2.337376e-10
8.385817e-09 -2.124436e-08 -1.270602e-09 -5.140186e-10 -1.041050e-09 -2.673139e-10
7.447250e-09 -2.068370e-08 -7.983245e-10 -1.487180e-09 -2.815137e-10 -3.762080e-10
8.385818e-09 -1.976392e-08 -2.646834e-09 -5.419691e-10 -3.570437e-10 -6.285083e-11
1.064742e-08 -2.192201e-08 -3.632091e-09 -1.276752e-09 -9.171230e-10 -5.822554e-10
1.128540e-08 -2.076429e-08 -4.814359e-09 -1.955815e-09 -6.743139e-10 -7.553824e-11
1.193763e-08 2.231191e-08 -4.750374e-08 -6.004280e-09 -1.936960e-08 -1.507597e-09
6.990411e-09 3.134825e-08 -4.133267e-08 -6.437937e-09 -1.450973e-08 -3.877783e-09
-2.275011e-09 -8.646968e-09 1.943086e-09 6.875726e-09 4.706329e-10 1.173855e-10
-8.236754e-10 7.004424e-10 8.349765e-11 3.229554e-10 1.130269e-10 -6.606671e-11
-3.849572e-09 4.624932e-10 1.057263e-09 -3.948116e-10 -1.125614e-10 -1.853614e-10
-3.851577e-09 6.991030e-10 1.190703e-09 5.072120e-11 1.441052e-10 1.080354e-10
-3.540693e-09 1.315638e-09 7.926486e-10 6.190701e-10 7.585454e-11 -1.081648e-10
1.193230e-08 7.980999e-09 -4.007851e-08 -6.360078e-09 -1.768884e-08 -1.302615e-09
-3.763594e-09 3.482253e-08 -4.355878e-08 -2.997838e-09 -9.345990e-09 -3.009462e-09
-4.149135e-09 1.362972e-10 1.137471e-09 -8.022783e-10 -2.972267e-11 7.276757e-11
-2.135008e-09 1.177932e-09 4.676357e-10 1.540375e-09 1.301648e-10 7.127177e-11
-2.719602e-09 1.292595e-09 4.868603e-10 9.844119e-10 1.771732e-10 -1.689147e-10
8.060982e-09 3.801884e-08 -2.602036e-08 -7.855299e-09 2.057519e-10 4.009805e-09
7.437198e-10 -2.656044e-10 -1.786318e-10 -2.562789e-11 -2.982434e-11 2.049472e-13
-2.456372e-09 1.304246e-09 4.451555e-10 8.919455e-10 6.213696e-11 3.925304e-12
1.135690e-09 -8.671099e-09 -2.361362e-09 5.011254e-09 -2.093944e-09 1.396723e-09
8.265756e-09 2.634831e-08 -4.730101e-08 -5.345383e-09 -1.682024e-08 1.230035e-09
-2.900879e-09 -3.948404e-09 1.986500e-10 1.611980e-09 -6.773777e-10 2.140310e-10
4.290723e-09 -1.669827e-08 1.081697e-09 5.437503e-09 -4.109306e-09 1.321403e-09
-2.204995e-09 3.462484e-08 -3.554731e-08 -2.565251e-09 -3.631137e-09 -3.424958e-09
-4.372511e-09 -6.115425e-09 5.277685e-10 7.882467e-09 5.507712e-10 -7.396872e-10
-2.883931e-09 -8.758812e-09 2.197726e-10 8.566736e-09 4.037326e-11 -1.798746e-10
8.514025e-09 -1.321616e-08 -1.032829e-08 4.711420e-09 -2.794542e-09 5.990858e-10
5.038418e-09 -8.209350e-09 -1.317372e-08 6.125909e-09 -1.719968e-09 4.763760e-10
1.562017e-08 -1.702704e-08 -1.953471e-08 -2.316361e-09 -1.077664e-08 -1.057521e-10
7.837198e-09 1.225179e-08 -5.115535e-09 1.765823e-08 -3.714895e-10 -2.302540e-10
1.535315e-08 -1.680047e-09 3.234317e-08 2.451973e-08 9.320789e-09 1.393793e-08
1.958922e-10 1.396802e-08 2.836590e-09 1.953745e-08 2.588621e-09 -1.653426e-09
2.605509e-09 -9.913373e-09 -5.894648e-09 1.234039e-08 2.037755e-09 -3.718116e-10
-4.873129e-09 3.268372e-08 -2.008798e-08 8.119680e-09 -8.704860e-10 -3.569587e-09
1.148257e-10 -7.166879e-09 -5.971709e-09 1.346906e-08 1.913364e-09 -9.172174e-10
-3.280655e-09 1.678488e-09 -1.037711e-08 1.320909e-08 1.260031e-09 -1.150690e-09
9.711585e-09 -2.419177e-08 7.698671e-08 1.034826e-08 5.535288e-09 3.951288e-08
2.376535e-09 9.492266e-09 1.175170e-08 2.115976e-08 4.947386e-10 2.225210e-09
-2.011892e-10 -1.104060e-08 7.758241e-10 8.847208e-09 4.898746e-10 1.284788e-10
-3.441356e-09 -5.796728e-09 -1.310510e-09 1.037438e-08 2.421200e-09 -1.156920e-09
6.453057e-09 -2.207494e-09 5.381973e-10 -5.296214e-09 -1.538019e-10 1.087140e-10
4.164312e-09 -1.281015e-08 -3.814085e-09 -1.051759e-08 7.749372e-10 5.684647e-10
2.185775e-09 -7.588965e-10 -4.334160e-10 -2.145060e-09 -1.619691e-10 -1.860108e-10
3.454277e-09 3.367878e-08 -2.905927e-08 -9.715543e-09 -7.377176e-09 1.056676e-09
3.154114e-09 -1.303149e-09 -5.283489e-10 -2.025875e-09 -3.072024e-10 2.216655e-11
-3.946359e-08 5.182978e-08 5.709506e-08 -2.196819e-08 3.382660e-08 -1.298184e-08
-5.268750e-09 3.950593e-08 1.638602e-08 -1.770988e-08 1.842597e-08 -2.221020e-09
1.673587e-09 -4.347651e-10 -4.307901e-10 -1.569031e-09 -9.260903e-11 7.423084e-11
1.390361e-09 1.400369e-11 -4.048353e-10 -6.756279e-10 -9.584179e-11 2.881478e-11
5.017601e-09 -2.812962e-09 -7.021024e-10 -1.003209e-10 -7.436807e-11 -6.041556e-11
5.841625e-10 1.661009e-09 1.155356e-09 4.986722e-09 -2.622858e-10 -9.979042e-10
3.708391e-08 -7.975309e-09 -3.587932e-09 -1.103605e-09 5.787959e-10 8.335087e-09
-6.830061e-10 1.444575e-09 3.688818e-10 3.214880e-09 2.195917e-10 1.440297e-10
3.241619e-08 -1.143520e-08 -2.431753e-09 5.285026e-09 3.487510e-09 8.031194e-09
2.213128e-08 -6.225857e-09 -4.070608e-09 1.690794e-10 -2.253609e-10 7.543761e-10
2.733716e-08 -1.101420e-08 -1.299227e-09 -1.565677e-10 -1.022459e-10 3.201680e-20
2.324371e-08 -1.329964e-08 2.746757e-08 -1.251352e-08 -3.773209e-09 1.349259e-08
1.734639e-08 -5.465066e-10 -3.118023e-09 -4.094405e-09 1.138586e-09 -5.073184e-10
-2.218052e-09 -1.033035e-08 3.404017e-09 3.709488e-09 3.312089e-10 1.616680e-10
-6.605398e-09 -1.454684e-09 1.898503e-09 3.782237e-09 7.303920e-10 -1.798529e-10
3.135158e-08 -8.444550e-09 -7.047830e-09 2.661882e-09 1.458645e-09 2.537196e-09
-2.959265e-09 -9.599121e-09 3.251184e-09 5.191135e-09 6.094939e-10 1.054946e-10
-4.372241e-09 -5.402743e-09 2.818674e-09 4.252462e-09 6.596133e-10 2.024030e-10
-3.297572e-09 -8.705980e-09 2.931500e-09 5.542576e-09 9.036323e-10 -4.101409e-11
-5.390937e-09 -6.862900e-09 2.701704e-09 4.084579e-09 6.751750e-10 -2.363202e-10
-8.110774e-10 -6.821192e-09 2.459850e-09 -1.069796e-10 -4.441154e-16 1.224099e-10
1.040640e-08 -2.597159e-08 2.523225e-09 4.885706e-10 -9.343798e-10 3.398166e-10
1.047064e-08 -2.133051e-08 -3.732980e-09 1.540426e-09 -6.386585e-10 5.612865e-11
1.293705e-08 -2.218589e-08 -6.657815e-09 -5.420202e-10 -1.300610e-09 1.340175e-09
-3.708109e-09 -8.632313e-10 1.364372e-09 -4.114800e-10 -9.680035e-12 -8.677747e-11
1.229213e-08 -2.065056e-08 -5.977354e-09 1.905591e-09 -2.958984e-09 5.037028e-10
-2.979272e-09 -8.657650e-09 3.343291e-09 1.154448e-09 2.521439e-10 2.724707e-10
-3.528183e-09 -8.124781e-10 1.306859e-09 -2.177689e-10 -1.077508e-10 -2.141600e-10
-2.687627e-09 -3.340865e-09 1.882278e-09 -1.990051e-09 -2.329869e-10 -6.481902e-10
-2.345904e-09 -5.064959e-09 2.149559e-09 -2.198993e-09 -5.103695e-11 -2.152212e-10
-4.294980e-09 -6.733123e-09 3.291516e-09 4.117235e-10 2.719272e-10 1.365430e-11
-4.063317e-09 1.824935e-09 7.007670e-10 1.083569e-13 1.234424e-11 -1.475238e-10
-4.042354e-09 2.095464e-09 5.801390e-10 4.540057e-11 8.320900e-12 -5.162626e-11
-4.352472e-09 -6.878293e-09 3.380817e-09 5.033343e-10 2.358520e-10 4.199974e-11
-3.399464e-09 -7.684710e-09 3.385711e-09 2.089999e-10 1.365834e-10 -2.543632e-11
-3.712670e-09 9.577903e-10 8.427499e-10 1.057068e-10 1.599481e-10 -2.082710e-10
-3.616799e-09 -7.480736e-10 1.378225e-09 -1.478218e-10 2.020251e-11 -3.254679e-10
-2.951745e-09 -2.015137e-09 1.547025e-09 -1.095124e-11 7.773149e-11 -3.690281e-10
-2.427867e-09 -4.050571e-09 1.870325e-09 -1.789456e-09 -9.297885e-11 -3.774680e-10
-2.947122e-09 -7.081345e-09 3.143106e-09 1.412055e-09 -7.467947e-11 2.706867e-10
-2.905354e-09 -8.695824e-09 3.608356e-09 3.473506e-10 -1.145617e-10 1.494236e-10
-3.308445e-09 -7.857215e-09 3.489763e-09 2.124265e-10 6.609124e-11 8.597123e-11
-3.459409e-09 -7.085193e-09 3.289650e-09 2.954064e-10 9.842949e-11 5.350520e-11
9.718927e-09 -2.424042e-08 3.418108e-10 -1.103844e-09 -1.690323e-09 2.112168e-10
-2.821317e-09 -8.494945e-09 3.480939e-09 2.376224e-10 1.598213e-10 4.210088e-11
-3.308443e-09 -7.783061e-09 3.498449e-09 2.376810e-10 1.056759e-10 8.910694e-11
-2.599410e-09 -3.206239e-09 1.730749e-09 1.563594e-11 -1.519584e-11 -4.468228e-10
-2.569469e-09 -3.083050e-09 1.739517e-09 -6.483218e-10 2.232831e-11 -5.387546e-10
-1.444676e-09 -5.982130e-09 2.096033e-09 -5.276579e-11 1.472156e-11 -5.836962e-10
-3.540146e-11 -7.931010e-09 2.419795e-09 -1.035000e-09 9.105977e-11 -6.415486e-10
-5.791034e-11 -8.595206e-09 2.552368e-09 -2.385166e-09 -4.270582e-12 -4.598432e-10
-1.976723e-09 -4.066775e-09 1.963014e-09 -5.574132e-10 3.699463e-11 -2.462917e-10
-1.353096e-09 -5.301507e-09 2.163496e-09 -9.598405e-10 6.032441e-11 -6.209901e-10
-8.272030e-09 9.756720e-10 4.049565e-10 1.886231e-09 5.111462e-10 -5.207257e-11
-5.144570e-09 -4.970477e-09 2.934938e-09 9.813070e-10 4.383649e-10 -2.228896e-10
1.375018e-09 1.296514e-08 -7.062639e-09 7.137613e-09 -5.552273e-09 -7.656084e-09
-8.068840e-09 9.749028e-10 7.781367e-10 1.714459e-09 1.947671e-10 2.363039e-10
-5.376253e-09 -2.732278e-09 2.016000e-09 3.290734e-09 2.763856e-11 2.456729e-10
-7.165051e-09 -1.220770e-09 1.687580e-09 1.304544e-09 2.155249e-10 5.623235e-19
-9.021775e-09 3.237548e-09 4.657279e-10 1.242385e-09 1.217090e-09 -3.044196e-10
8.805193e-10 -1.389221e-08 5.203475e-10 7.863107e-09 -5.614263e-09 2.715029e-09
9.535891e-09 -1.910671e-08 -3.227226e-09 3.417999e-09 -2.529307e-09 8.584731e-10
-8.792076e-09 3.237550e-09 -9.071055e-11 1.816584e-09 4.190227e-10 -2.638705e-10
1.093326e-08 -2.659975e-08 2.274816e-09 2.143443e-10 -1.351034e-09 2.923625e-10
1.256833e-08 -3.291083e-08 -1.451867e-09 6.134616e-09 -1.208972e-08 2.204804e-09
4.685726e-09 -2.599435e-09 -6.014236e-10 7.896389e-10 8.608769e-11 2.699893e-10
-8.515478e-09 1.156578e-09 5.854295e-10 3.982450e-09 1.439255e-09 -5.177827e-10
2.212464e-09 -7.307519e-10 -3.647599e-10 1.253280e-09 3.367839e-11 4.274980e-11
-8.719517e-09 4.561356e-09 -5.921814e-10 1.683904e-09 4.463214e-10 4.821010e-11
4.655040e-09 -2.677376e-09 -5.771028e-10 3.381340e-11 1.271222e-10 1.401140e-11
5.755790e-09 -3.072177e-09 -6.802838e-10 3.753390e-10 8.174013e-11 1.945684e-10
-3.515304e-10 3.882663e-10 1.062439e-11 4.681109e-10 -4.380318e-11 1.856781e-11
-6.503186e-09 7.029624e-09 -1.975230e-09 -1.108845e-09 -2.919942e-09 -6.700997e-10
-2.397186e-09 6.479132e-09 -3.564903e-09 -1.957281e-09 8.029455e-10 -6.415175e-10
7.456506e-09 2.111453e-09 -2.317941e-09 -1.003671e-09 1.684844e-09 -1.154436e-09
-4.455528e-09 7.235997e-09 -3.284057e-09 3.354101e-10 -3.109492e-09 8.047020e-10
6.951581e-09 1.755001e-09 -3.581664e-09 -5.253375e-11 -2.411403e-09 -2.027067e-11
8.244270e-09 7.616290e-09 -6.490708e-09 7.276653e-09 -2.329720e-09 -3.167404e-09
2.647361e-09 -1.094578e-09 -4.946492e-10 -1.218226e-10 -3.961853e-11 2.073652e-11
3.941578e-09 -2.212143e-09 -6.402665e-10 -8.798642e-11 -5.950189e-11 7.357670e-12
8.788234e-09 1.819376e-09 -2.122438e-09 -2.938957e-09 4.337901e-10 -1.823079e-09
-7.318161e-09 7.772361e-09 -2.216262e-09 1.398843e-10 8.234202e-10 -8.849033e-11
-3.256986e-10 6.840919e-09 -2.940205e-09 -2.047012e-09 6.449872e-10 -7.948093e-10
2.929466e-09 4.275844e-09 -2.560379e-09 2.326259e-10 1.263893e-10 5.880287e-20
6.127872e-09 3.139978e-09 -2.685232e-09 -3.565464e-09 -2.347216e-10 4.328626e-11
1.694359e-08 -4.081006e-09 -1.503501e-09 -6.077845e-10 4.244277e-10 1.351410e-09
1.798240e-09 -3.797576e-10 -3.754179e-10 -2.091986e-09 -3.194529e-10 -3.448131e-11
-3.879045e-09 -5.987928e-09 2.956689e-09 2.159763e-09 1.218126e-10 2.338840e-11
-4.352479e-09 -5.882711e-09 3.318133e-09 3.321263e-10 3.228082e-10 4.223288e-12
1.219746e-08 -1.289790e-09 -1.878410e-09 -6.668580e-10 -1.894342e-10 -8.879258e-16
9.070243e-09 7.660272e-11 -2.763358e-09 5.763656e-11 1.211138e-09 1.918417e-10
1.642317e-08 -4.081006e-09 -1.620975e-09 -6.298768e-10 3.348542e-10 2.818135e-10
-3.310488e-09 -7.949135e-09 3.308682e-09 2.344884e-10 -1.431866e-11 1.793055e-11
-1.529740e-09 9.112187e-10 2.069598e-10 8.378929e-10 5.177614e-11 -3.017364e-11
6.161658e-10 -1.315378e-08 3.792101e-09 3.926669e-09 2.219930e-10 6.215546e-10
1.709558e-09 -1.462693e-08 3.205815e-09 5.256156e-09 5.997578e-10 1.900744e-10
-3.529642e-08 -2.240074e-08 1.097023e-07 -1.750146e-08 -4.440151e-09 1.779280e-08
-1.309276e-08 9.680048e-09 3.515414e-08 -2.733250e-08 -8.762424e-09 9.447040e-09
-2.234939e-08 3.060226e-08 1.573400e-08 -1.966260e-08 -1.306678e-08 -1.202699e-08
-4.741425e-09 8.397816e-09 -5.078860e-09 -5.237050e-09 -2.026624e-09 2.960703e-09
-2.377041e-09 6.136484e-09 -2.160553e-09 -7.896795e-09 3.078893e-10 -6.631482e-10
6.827714e-10 6.371081e-09 -1.483570e-09 -1.013714e-08 1.862306e-10 4.085399e-12
1.672674e-09 -1.479596e-08 3.734497e-09 9.190484e-10 4.736924e-10 2.120748e-11
-6.997583e-09 -3.045932e-09 2.044496e-09 1.546925e-09 3.925704e-11 2.637952e-10
-1.972230e-09 1.210899e-09 2.244640e-10 -1.000355e-11 -1.868417e-11 8.881788e-16
-3.256042e-09 1.817802e-09 4.486815e-10 1.729950e-10 1.381828e-11 1.343148e-11
-1.600394e-09 9.850565e-10 1.643974e-10 3.702223e-10 -4.879297e-11 6.139622e-11
-1.669420e-10 3.792859e-10 -1.548139e-11 9.063861e-11 4.903944e-11 1.656186e-11
-1.735518e-09 1.172358e-09 1.953135e-10 1.961826e-10 1.856426e-11 -1.034843e-10
-2.100775e-09 5.826180e-09 8.177068e-10 -9.573711e-09 -3.161174e-10 6.227851e-10
6.049501e-09 -4.807705e-10 -2.389317e-08 4.937746e-09 -3.656787e-09 1.235991e-09
-1.351257e-10 3.753955e-10 -1.394174e-11 -1.204364e-11 -1.658471e-11 -4.657164e-12
1.052155e-08 -7.726466e-09 -2.038951e-08 4.282327e-09 -2.899114e-09 3.208772e-10
-1.522904e-09 7.244614e-10 8.038237e-11 7.806987e-10 4.877623e-11 -1.186445e-11
-2.374438e-09 1.428244e-09 2.856053e-10 -1.697148e-11 -5.054726e-11 -1.293454e-11
6.809585e-09 -1.441931e-08 4.655257e-08 1.820218e-08 3.459182e-09 6.833774e-09
-3.301568e-09 1.811422e-09 4.927800e-10 1.427478e-10 -1.709938e-12 -3.219536e-11
-2.729944e-09 1.616889e-09 3.231246e-10 -9.086065e-12 -1.003908e-11 1.824315e-22
-3.809623e-09 2.077218e-09 5.308918e-10 5.220180e-11 1.731626e-11 4.579659e-11
-2.786408e-09 1.704692e-09 3.881169e-10 2.696282e-10 8.240653e-11 -5.727496e-11
-2.975408e-09 1.624321e-09 3.688925e-10 -2.107203e-11 6.305534e-11 -1.027978e-11
-8.621122e-09 3.241589e-08 -2.066705e-08 5.940551e-09 -2.378775e-09 -5.321627e-09
1.635734e-08 -5.417377e-09 2.341731e-08 2.076165e-08 8.399656e-10 1.110768e-08
1.929219e-08 -1.428613e-08 3.863271e-08 2.507178e-08 1.977653e-08 2.118047e-08
-3.530571e-09 -6.565117e-09 1.773436e-09 -2.317865e-09 -6.328431e-10 -9.298751e-11
2.989954e-08 -1.142173e-08 1.965204e-08 1.293946e-08 3.575135e-09 1.159283e-08
2.211430e-08 -2.511837e-08 2.924148e-08 -7.773140e-09 -1.895620e-09 1.624827e-08
-5.027673e-09 -4.233607e-09 2.030428e-09 -4.065948e-10 -5.372680e-10 4.704481e-11
9.398631e-09 -7.453637e-09 -2.056264e-08 1.322248e-08 4.331397e-09 -1.230461e-09
8.023647e-09 3.827266e-09 -3.474806e-08 1.472174e-08 5.977919e-09 -2.389487e-09
-3.210062e-09 1.410478e-09 5.785949e-10 8.700982e-10 6.858136e-11 6.945999e-12
-3.664479e-09 8.886314e-10 9.395036e-10 3.082886e-10 -7.002266e-11 -1.761589e-10
-2.982786e-09 1.014443e-09 6.699850e-10 6.017866e-10 -3.719691e-11 3.361045e-11
-3.352462e-09 1.510872e-09 6.085714e-10 4.677074e-10 4.654260e-11 1.247651e-10
-3.616106e-09 -8.384369e-09 2.417297e-09 -3.384186e-09 -1.579802e-09 -2.072589e-10
-7.784749e-09 -2.652740e-10 1.843232e-09 -5.566352e-10 -6.939166e-10 -8.840307e-11
-3.377037e-09 -2.943416e-09 1.373862e-09 -2.222444e-11 3.825384e-12 -6.470713e-11
-4.338442e-09 -5.151204e-10 7.306413e-10 1.434046e-10 2.705214e-11 1.867555e-10
-3.641421e-09 1.312367e-09 8.061560e-10 3.073897e-10 6.694756e-11 1.003100e-10
-2.066763e-09 -5.076512e-09 4.861143e-10 -3.048894e-12 3.972581e-23 -6.514789e-12
-4.338442e-09 -1.306814e-09 7.306413e-10 6.290776e-10 2.457039e-10 -8.151124e-11
-4.122285e-09 -1.903246e-09 1.155133e-09 -1.310934e-10 5.578205e-11 -5.177392e-11
-1.042771e-08 1.088221e-08 -4.741670e-09 2.719731e-09 4.318988e-09 -3.528012e-09
7.563460e-09 3.139978e-09 -2.685232e-09 -3.699610e-09 -1.721292e-10 -2.916334e-10
5.380405e-09 -3.009625e-09 -7.437446e-10 -3.202272e-12 -3.484268e-11 1.234368e-11
4.319998e-09 -2.554235e-09 -6.667511e-10 3.020133e-10 4.888323e-11 -3.422193e-11
-2.933200e-10 -8.761827e-09 -3.761702e-11 -4.464762e-10 -3.293721e-10 -5.545493e-10
-3.786073e-09 -5.071218e-09 -2.237739e-10 -4.716494e-10 -2.007001e-10 1.167355e-11
1.116650e-09 -1.088481e-08 -1.944306e-09 -1.019238e-09 1.849736e-10 3.147669e-10
-2.013696e-09 -9.586568e-09 1.364828e-09 -3.000169e-10 -4.475247e-10 -5.248171e-10
-5.224321e-09 -2.746968e-09 6.936958e-10 -1.157714e-09 -3.290945e-10 -4.359042e-10
2.646502e-09 -1.212055e-08 -1.635146e-09 -2.272896e-09 -1.536200e-09 -3.549294e-10
-3.915908e-09 1.377580e-09 8.130732e-10 3.023753e-10 3.405548e-11 -1.952394e-11
-3.639390e-09 -4.232348e-11 1.059110e-09 -4.369569e-10 1.932381e-10 -4.255686e-10
-3.614479e-09 -1.000483e-09 1.365033e-09 -2.574328e-09 -5.965040e-11 -4.822676e-10
3.178503e-10 -8.127101e-09 1.178809e-09 -6.104329e-09 3.675399e-10 -1.086900e-10
-3.775337e-09 4.342775e-10 1.172029e-09 -3.121251e-10 2.828069e-10 -3.660489e-10
-3.020803e-09 -1.999810e-09 1.497054e-09 -1.060438e-09 9.642059e-11 -6.638986e-10
-3.870103e-09 -1.074003e-10 1.262414e-09 -1.185445e-10 1.807021e-11 -1.936878e-10
-2.284077e-09 -4.341505e-09 2.051777e-09 -3.215419e-09 1.029101e-10 -1.911011e-10
-3.649027e-09 -1.349834e-09 1.604262e-09 -8.476654e-10 2.634293e-11 -1.725995e-10
-3.591690e-09 -5.225482e-10 1.558669e-09 -2.092459e-10 6.020345e-11 -2.670756e-10
-3.902763e-09 3.689222e-10 1.079833e-09 9.945755e-11 1.892407e-10 -2.629642e-10
-3.981064e-09 7.628138e-10 9.440977e-10 2.419283e-10 1.261851e-10 -2.906872e-10
-3.855693e-09 1.326216e-09 8.021146e-10 2.728977e-10 2.844369e-11 -1.294946e-10
1.237267e-08 -6.124245e-09 7.726023e-09 -2.533305e-10 2.121401e-10 -2.052161e-09
1.008938e-08 -6.334888e-09 9.669657e-09 -1.797772e-09 4.647639e-10 -1.677790e-09
9.924417e-09 -7.051641e-09 1.273453e-08 3.007791e-09 6.310499e-10 -2.524146e-09
-3.341058e-09 2.608536e-09 -4.421106e-10 -3.363057e-09 -2.298668e-10 7.405447e-11
-2.672679e-09 2.347809e-09 -1.297265e-10 -2.946938e-09 1.383005e-11 1.449258e-10
1.178785e-08 -7.072345e-09 2.000541e-08 2.582577e-09 8.549487e-10 -8.059948e-09
-5.172081e-09 5.589663e-09 9.042731e-10 2.770236e-09 -2.692442e-10 -1.005104e-10
-5.930802e-09 5.728961e-09 9.276544e-10 2.223419e-09 2.110325e-10 -4.509402e-10
-5.634771e-09 3.290755e-09 8.297638e-10 6.045566e-10 -2.782330e-10 -3.760569e-11
3.505320e-09 -3.221511e-10 -3.453708e-10 -5.562622e-09 -9.688691e-12 -4.031639e-10
-3.031567e-09 2.791738e-09 1.213187e-09 4.218699e-09 3.242989e-10 -4.804799e-10
-4.541079e-11 1.721781e-09 5.206910e-10 4.254520e-09 -1.663727e-10 -2.487042e-10
-2.220454e-09 3.821450e-08 -3.228937e-08 -1.173102e-08 -5.644145e-09 1.283523e-09
4.093972e-09 -1.346127e-09 6.000853e-10 3.987650e-09 2.189617e-10 -3.698776e-10
2.233865e-09 2.504817e-08 -2.413487e-08 -9.271566e-09 -4.633274e-09 2.729219e-09
7.248159e-09 2.075301e-08 -4.025762e-08 -2.317527e-09 -1.588621e-08 5.246657e-09
1.171332e-09 1.645150e-08 -3.597726e-08 2.916968e-09 -1.330430e-08 1.194213e-08
-5.542154e-09 3.869451e-08 -2.326606e-08 -1.135657e-08 -3.284776e-09 7.433847e-11
5.595322e-09 -2.422631e-09 3.458656e-11 2.883873e-09 1.958660e-10 -2.667775e-10
8.374057e-10 8.624923e-11 5.809708e-10 3.662289e-09 -2.300769e-10 -5.261569e-10
3.325660e-09 -4.549209e-10 6.389738e-10 4.508776e-09 -1.069241e-10 -8.539340e-10
3.666567e-09 -1.321071e-09 6.404868e-10 3.885366e-09 -1.407637e-10 -4.286336e-10
1.124361e-08 -5.091022e-09 2.615263e-09 1.638019e-09 -1.208953e-10 -2.195756e-09
7.241036e-09 -3.488532e-09 9.383090e-10 3.616806e-09 1.549032e-10 -6.280609e-10
5.052343e-09 -1.584012e-09 4.967511e-10 4.861611e-09 1.894441e-11 -1.549897e-10
-1.685142e-09 3.455037e-08 -2.586981e-08 -9.234127e-09 -4.346182e-09 6.464991e-09
-1.747895e-09 1.595126e-09 1.536254e-09 4.438496e-09 3.325218e-10 1.878962e-10
-8.021268e-10 4.798666e-09 4.925393e-10 6.661233e-09 2.903768e-11 -8.623380e-11
3.547827e-09 3.388146e-08 -4.007234e-08 -8.725019e-09 -1.825480e-09 3.641967e-10
3.810043e-09 2.857673e-08 -4.750543e-08 -6.087971e-09 -9.220503e-09 1.913351e-09
-1.919040e-09 3.526173e-08 -5.396153e-08 -9.452110e-09 -1.876559e-08 2.722541e-09
9.070240e-09 2.072592e-09 -2.769456e-09 3.071240e-10 6.125963e-10 1.931015e-10
1.371967e-09 -2.923489e-11 4.909788e-10 3.768636e-09 3.219677e-10 -1.901692e-10
1.216370e-08 -6.441571e-09 1.194130e-08 1.215523e-09 3.334082e-10 -3.334899e-09
1.123670e-08 -5.840640e-09 1.007401e-08 3.774433e-09 -1.059786e-09 -6.711269e-09
4.648189e-09 -1.732681e-09 5.250463e-09 6.647565e-09 1.043523e-10 -1.441878e-09
8.774260e-09 -5.787557e-09 9.852734e-09 3.554906e-09 7.605216e-10 -5.557947e-10
2.028233e-08 -6.544981e-09 -5.342455e-10 -7.610577e-09 4.717117e-10 2.274744e-09
4.296116e-09 -1.527227e-09 1.036880e-08 8.972622e-09 -6.237123e-10 -2.321977e-09
-3.742380e-09 -3.206964e-10 1.217362e-09 1.225846e-10 9.645618e-12 -3.031078e-10
8.184674e-09 -1.336374e-10 -1.532563e-09 -3.183150e-09 1.054972e-09 -1.380719e-09
-2.331562e-09 7.626697e-09 -3.086996e-09 -6.796988e-09 4.505894e-10 -1.808764e-09
-5.706582e-10 -9.372778e-09 -1.217018e-09 -2.348520e-09 -5.610636e-10 -3.940324e-10
7.911641e-09 -5.227013e-09 3.446228e-08 1.023799e-08 -1.469256e-09 -5.829325e-09
-4.768228e-09 -6.395357e-09 7.626826e-10 -2.713332e-10 -2.317275e-10 -1.889204e-10
-5.024074e-09 -4.157405e-09 1.661532e-09 -1.505622e-09 -3.652341e-10 -3.371827e-10
3.345392e-09 -3.519091e-09 2.948477e-08 1.012361e-08 -2.306439e-09 -8.566859e-09
5.935326e-09 -2.098408e-08 2.250259e-09 -6.192114e-10 -1.246286e-09 3.149137e-11
8.508488e-09 -7.908440e-09 1.979653e-08 -1.635638e-09 2.029201e-09 -7.227668e-09
-8.177423e-10 4.760166e-09 1.617963e-08 1.166729e-08 -4.796300e-09 -5.907135e-09
1.173754e-08 -2.323505e-08 -3.860404e-09 -2.925217e-09 -3.444969e-09 -5.816578e-10
-3.708423e-09 -4.648779e-10 1.177763e-09 -8.672454e-10 -2.543321e-11 -3.240395e-10
1.167415e-08 -2.758389e-08 2.251477e-09 -2.370149e-11 -8.443322e-10 1.024483e-10
-1.505012e-09 8.915055e-10 1.498921e-10 9.460928e-10 3.905284e-11 1.020533e-10
-3.044113e-09 -1.562679e-09 1.356697e-09 -7.284642e-10 2.317720e-10 -3.680178e-10
-8.137349e-10 6.652217e-10 2.785194e-11 2.418648e-10 1.008174e-10 -2.657510e-10
-3.784313e-09 9.393890e-10 9.236019e-10 1.298321e-10 9.392753e-11 -1.412994e-10
-3.523116e-09 -6.569261e-10 1.270545e-09 -6.275043e-10 9.184109e-11 -3.993756e-10
-1.140797e-08 7.415498e-09 -3.111165e-09 -6.938923e-09 -7.877741e-09 -7.707215e-09
-9.618134e-09 7.973247e-09 -2.865620e-09 -5.472309e-09 -6.743369e-09 -6.788476e-09
-1.075791e-08 7.483069e-09 -4.210152e-09 -6.355926e-09 -7.907843e-09 -8.085004e-09
-1.020849e-08 7.838386e-09 -3.170898e-09 -5.877427e-09 -6.738719e-09 -5.994206e-09
-9.498663e-09 9.657946e-09 -3.198492e-09 -3.705304e-09 -6.682066e-09 -7.133405e-09
-8.025500e-09 7.039351e-09 -3.030545e-09 -3.582431e-09 -6.073091e-09 -6.485348e-09
-7.524614e-09 1.171007e-08 -4.534498e-09 -4.803289e-10 -6.114530e-09 -8.044483e-09
-7.516318e-09 1.271776e-08 -5.874446e-09 -3.236275e-10 -6.511699e-09 -7.951142e-09
-1.081132e-08 6.797702e-09 -3.242132e-09 -7.230831e-09 -8.239680e-09 -8.122269e-09
-8.786159e-09 6.814946e-09 -3.053611e-09 -5.787636e-09 -7.391610e-09 -7.365488e-09
-9.656904e-09 7.215727e-09 -2.698992e-09 -6.131374e-09 -6.785031e-09 -6.571150e-09
-8.702375e-09 6.810636e-09 -3.159107e-09 -6.146564e-09 -7.323837e-09 -7.086360e-09
-9.825603e-09 4.220203e-09 -1.695933e-09 -7.232104e-09 -8.035556e-09 -6.208409e-09
-9.800668e-09 6.159041e-09 -2.558324e-09 -6.721428e-09 -8.835274e-09 -6.780488e-09
-9.284493e-09 3.432206e-09 -2.765974e-09 -7.708869e-09 -7.824164e-09 -5.326240e-09
-9.473053e-09 6.946996e-09 -3.150264e-09 -6.197116e-09 -6.479994e-09 -5.616149e-09
-8.560684e-09 9.657946e-09 -3.726144e-09 -4.216156e-09 -6.191966e-09 -7.308346e-09
-7.435808e-09 7.039349e-09 -3.505427e-09 -4.340432e-09 -5.345880e-09 -6.520725e-09
-7.389268e-09 7.693814e-09 -3.553175e-09 -4.578101e-09 -5.577305e-09 -6.364890e-09
-7.756356e-09 1.171007e-08 -4.911259e-09 -1.764912e-09 -4.882130e-09 -7.736965e-09
-9.321800e-09 1.011639e-08 -4.287544e-09 -4.540733e-09 -7.760426e-09 -7.377011e-09
-8.038375e-09 9.965649e-09 -3.993282e-09 -3.683083e-09 -6.446563e-09 -6.344022e-09
-6.929816e-09 1.035054e-08 -8.306478e-09 -2.881977e-09 -9.699759e-09 -8.898880e-09
-5.716387e-09 1.290507e-08 -7.149606e-09 -1.120892e-09 -7.204753e-09 -7.207754e-09
3.172100e-09 -1.691721e-09 -4.811951e-10 1.710040e-09 2.762246e-10 4.473755e-12
3.255169e-09 -1.605276e-09 -4.476228e-10 1.511164e-09 2.223493e-10 1.270957e-10
2.986564e-09 -1.672832e-09 -4.686911e-10 1.694079e-09 2.602563e-10 1.768608e-11
2.930896e-09 -1.503562e-09 -4.531335e-10 1.702393e-09 2.000066e-10 3.289746e-11
3.328593e-09 -1.691721e-09 -4.160206e-10 1.645379e-09 1.936291e-10 1.299324e-10
3.133882e-09 -1.605274e-09 -4.335097e-10 1.478203e-09 1.802429e-10 5.515055e-11
3.345860e-09 -1.503562e-09 -5.003247e-10 1.710539e-09 2.104106e-10 2.794565e-10
3.090790e-09 -1.566593e-09 -4.153717e-10 1.578466e-09 1.869276e-10 1.851894e-10
3.679478e-09 -1.835765e-09 -5.166878e-10 1.315254e-09 7.204406e-11 -1.021374e-10
3.304137e-09 -1.835023e-09 -4.948668e-10 1.356458e-09 5.450629e-11 -5.332135e-11
3.396267e-09 -1.822649e-09 -4.917966e-10 1.322478e-09 4.126366e-11 -2.055778e-11
3.698196e-09 -1.803223e-09 -5.343384e-10 1.222832e-09 3.721223e-11 -9.505752e-11
4.293634e-09 -2.244460e-09 -5.558478e-10 1.519383e-09 2.344172e-10 5.467005e-11
4.504399e-09 -2.444748e-09 -5.691030e-10 1.363321e-09 1.806919e-10 -6.801448e-12
4.286256e-09 -2.348739e-09 -5.849794e-10 1.357108e-09 2.059765e-10 6.173923e-11
4.504884e-09 -2.395819e-09 -5.928693e-10 1.324672e-09 2.257564e-10 8.542822e-11
3.867260e-09 -2.084773e-09 -5.527641e-10 1.179920e-09 2.036862e-10 6.300449e-11
3.976467e-09 -2.108412e-09 -5.900680e-10 1.054624e-09 1.964746e-10 1.207048e-10
3.918394e-09 -2.085047e-09 -5.686873e-10 1.190523e-09 1.992638e-10 7.415624e-11
3.962075e-09 -2.072317e-09 -5.828831e-10 1.142060e-09 1.801107e-10 6.923995e-11
4.177600e-09 -2.121293e-09 -5.908103e-10 1.106300e-09 2.002566e-10 9.326695e-11
4.305630e-09 -2.086128e-09 -5.594325e-10 1.231317e-09 2.343363e-10 2.372935e-10
3.736123e-09 -2.107953e-09 -5.466081e-10 1.037793e-09 2.255282e-10 2.962135e-10
3.728804e-09 -2.046377e-09 -5.096545e-10 1.030591e-09 1.514149e-10 2.842349e-10
3.953492e-09 -2.046045e-09 -5.813137e-10 1.015830e-09 1.721689e-10 1.300082e-10
4.326808e-09 -2.145330e-09 -5.322711e-10 1.558182e-09 1.212081e-10 7.591261e-12
4.381669e-09 -2.145286e-09 -6.084941e-10 1.560197e-09 1.175268e-10 -4.056966e-11
4.335805e-09 -2.145054e-09 -6.226961e-10 1.552030e-09 9.662648e-11 -1.000700e-10
4.295574e-09 -2.163341e-09 -5.307523e-10 1.464541e-09 8.030199e-11 2.257883e-11
3.807351e-09 -1.893928e-09 -5.193330e-10 1.413283e-09 1.793831e-10 -4.370637e-11
3.616504e-09 -1.882472e-09 -4.726615e-10 1.409966e-09 1.387624e-10 1.047229e-10
3.695134e-09 -1.864512e-09 -6.066392e-10 1.343663e-09 1.597701e-10 -1.351096e-10
3.736652e-09 -1.862692e-09 -5.174183e-10 1.323293e-09 1.460122e-10 -3.364453e-11
4.345152e-09 -2.244460e-09 -6.188718e-10 1.503229e-09 2.213830e-10 3.639966e-11
4.572554e-09 -2.444748e-09 -6.308779e-10 1.351189e-09 1.709046e-10 -1.758738e-11
4.403796e-09 -2.370981e-09 -6.668437e-10 1.337959e-09 2.026248e-10 3.925188e-11
4.440707e-09 -2.348739e-09 -6.574162e-10 1.374858e-09 2.202975e-10 7.916055e-11
-1.721085e-09 1.504591e-09 -6.282441e-11 -2.881018e-09 -3.492100e-10 -8.695333e-11
-7.324381e-10 9.142243e-10 -3.122935e-10 -3.114825e-09 -2.019308e-10 -2.224154e-10
-1.120516e-09 1.262065e-09 -1.605112e-10 -2.835976e-09 -4.366992e-10 -6.431130e-11
-1.446879e-09 1.469981e-09 -1.568408e-10 -3.075667e-09 -3.526764e-10 -2.801772e-10
-9.594974e-10 1.715933e-09 -3.134129e-10 -3.733230e-09 -3.452718e-10 1.463803e-10
-7.428085e-10 9.143610e-10 -2.921516e-10 -3.112287e-09 -1.964331e-10 -1.254907e-11
1.759494e-08 -5.196757e-09 2.230770e-09 -5.565173e-09 1.540358e-09 -6.540442e-09
1.995572e-08 -4.740710e-09 1.972940e-09 -7.049246e-09 3.438961e-09 -1.185725e-08
1.706632e-08 -4.814154e-09 8.683236e-09 -5.829037e-09 3.327328e-09 -1.482835e-08
1.300264e-08 -1.505301e-09 1.537932e-08 -1.220751e-08 9.095187e-09 -2.039196e-08
1.938705e-08 -4.957575e-09 3.427995e-09 -7.402885e-09 3.793149e-09 -1.115211e-08
4.314074e-09 6.742094e-09 -6.911007e-10 -1.385554e-08 2.439175e-09 -2.899294e-09
2.407649e-09 8.920514e-09 -4.482298e-10 -1.426634e-08 7.093607e-09 -1.546788e-09
3.980227e-09 8.768115e-09 8.977663e-11 -1.522069e-08 6.375377e-09 -5.315290e-09
1.470677e-08 3.877586e-10 3.263056e-09 -1.285259e-08 4.726525e-09 -8.553585e-09
-1.725393e-08 2.437523e-08 -1.194956e-08 4.088471e-09 -2.287765e-08 2.275616e-08
-2.956578e-08 9.264523e-08 -3.570817e-08 2.172645e-08 -1.099117e-08 4.670025e-08
1.155460e-08 -2.501462e-08 2.734870e-10 1.641876e-09 4.527222e-09 -1.973373e-10
1.050464e-08 -2.325654e-08 -6.665397e-10 -2.046883e-09 3.641233e-09 5.242613e-10
6.234579e-09 -2.606728e-08 7.420544e-10 1.556918e-08 9.965597e-09 -3.013271e-09
1.148648e-08 -2.617741e-08 -2.736663e-09 -2.242193e-09 5.974841e-09 9.435007e-10
9.813761e-09 -2.501578e-08 1.762490e-09 -5.012358e-10 2.885473e-09 2.496407e-10
1.097144e-08 -2.339566e-08 1.782875e-09 -2.112140e-09 3.379748e-09 -1.176561e-12
1.762736e-08 -1.503451e-09 1.636619e-08 -1.191278e-08 8.667183e-09 -2.416045e-08
2.467568e-08 -7.653749e-09 2.362282e-08 -1.397273e-08 1.482766e-08 -3.229043e-08
9.209714e-09 -3.880797e-09 -4.503096e-10 -2.917025e-09 3.143324e-11 -3.736118e-10
1.146374e-08 -3.043811e-09 1.042199e-08 -9.089080e-09 5.911185e-09 -1.114464e-08
2.144421e-08 -4.954157e-09 1.277422e-08 -4.732933e-09 3.195676e-09 -2.118824e-08
1.775092e-08 1.076462e-09 3.407425e-09 -1.663585e-08 8.971781e-09 -1.434030e-08
-1.784597e-09 -6.926741e-09 1.567357e-09 -6.891173e-09 1.458221e-09 5.197497e-10
-1.855990e-09 -6.741506e-09 1.787932e-09 -5.233960e-09 5.457078e-10 -1.191266e-10
-2.618351e-09 -3.500085e-09 1.427795e-09 -4.744428e-09 3.223188e-10 -6.741283e-10
-2.580518e-09 -3.499226e-09 1.698829e-09 -4.734625e-09 5.137447e-10 -2.609860e-10
-1.052529e-09 -7.941242e-09 2.406453e-09 -6.131250e-09 1.480852e-10 -7.085846e-10
6.886123e-09 -8.090273e-09 -1.479313e-08 -1.074058e-08 -1.563823e-08 -5.037664e-09
-2.489226e-09 -4.965110e-09 2.239715e-09 -4.881291e-09 1.781575e-11 -4.983571e-10
-2.119038e-09 2.010129e-08 -4.512170e-08 -2.362325e-08 -5.444369e-08 -3.082441e-08
1.691640e-08 3.532025e-09 -3.964475e-08 -2.578005e-08 -6.478556e-08 -1.075750e-08
2.346962e-08 -3.508282e-08 -2.986356e-08 -3.858769e-08 -5.735308e-08 -1.929690e-08
6.810297e-09 -1.860484e-08 -3.124592e-08 -2.241233e-08 -5.226197e-08 -2.068025e-08
7.735320e-09 -1.825915e-08 -2.483113e-08 -2.844763e-08 -4.688306e-08 -2.474774e-08
-1.284259e-08 7.838851e-09 -1.040408e-08 1.767822e-08 1.351275e-08 -1.251580e-08
-1.412268e-08 6.612791e-09 -5.622416e-09 1.915381e-08 6.008529e-09 -8.602332e-09
-1.414260e-08 1.706644e-08 -7.081584e-09 4.888173e-09 6.928889e-09 -9.839712e-09
-1.036258e-08 1.737498e-08 -1.120118e-08 1.269523e-08 7.862543e-09 -8.888506e-09
8.785348e-09 4.274229e-09 1.567531e-10 -1.491679e-08 -2.903004e-09 5.997784e-09
7.128413e-09 1.513729e-09 4.386175e-09 -1.277477e-08 -2.171106e-09 5.278617e-09
5.922173e-09 -2.385885e-08 -1.563368e-09 1.532204e-08 9.157023e-09 -2.989338e-09
-1.196585e-08 2.242222e-08 -2.291041e-09 -1.413465e-08 -1.864134e-09 -3.980941e-09
-1.196468e-08 1.756031e-08 2.912912e-09 -1.415008e-08 -4.417948e-09 -4.078352e-09
7.655521e-09 -3.793955e-09 -2.293241e-10 -4.246214e-09 1.368103e-10 -7.306229e-10
-4.120520e-08 5.842671e-08 1.422685e-08 -2.458635e-10 -1.327237e-08 1.723034e-08
-5.114154e-08 6.521079e-08 1.827780e-08 1.693409e-08 -1.860407e-08 6.456816e-09
-6.670788e-09 -1.702506e-08 -3.650409e-09 -2.194233e-08 -1.613010e-08 -9.400121e-09
-1.153759e-08 1.108240e-08 4.120113e-08 2.310573e-08 -1.970303e-08 -2.318362e-08
-1.539471e-09 3.257314e-09 -1.232235e-08 -7.521781e-09 -1.111397e-08 -5.464121e-09
-2.150692e-08 6.813594e-08 -2.309634e-08 2.826146e-08 -3.073513e-08 2.148511e-09
-2.560138e-08 3.294237e-08 1.974397e-08 7.793443e-09 -2.583241e-08 -4.906843e-09
-9.774722e-08 1.014916e-07 1.237880e-08 -7.320333e-09 -5.682522e-08 1.590710e-08
1.435903e-08 -5.197132e-09 3.745507e-09 3.580877e-09 -2.289448e-10 -7.773848e-09
1.301802e-08 -5.608724e-09 8.156279e-09 2.577945e-09 4.764247e-10 -9.644782e-09
9.884479e-09 -1.511999e-09 9.357297e-09 8.184789e-09 -2.119186e-09 -1.100786e-08
1.247843e-08 4.712941e-11 7.545165e-09 1.144965e-08 -3.186200e-09 -9.957909e-09
8.712228e-09 -4.580326e-09 -6.705334e-10 -7.634977e-10 8.246580e-11 -5.494529e-10
9.618500e-09 -4.024827e-09 7.783330e-11 -2.170783e-09 5.069267e-11 -8.068128e-10
-2.326191e-09 -5.337620e-09 -1.857424e-08 -1.715371e-08 -2.017839e-08 -1.008511e-08
9.694714e-09 -4.249892e-09 8.514633e-11 1.180943e-10 1.121061e-10 -1.037978e-09
9.155194e-09 -4.016755e-09 -6.570122e-10 -1.401182e-09 -5.476564e-11 -3.197294e-10
7.718560e-09 -3.808815e-09 -5.614444e-10 -1.802545e-09 3.826479e-11 -2.339269e-10
7.955426e-09 -3.645664e-09 -7.682921e-10 -1.340413e-09 -1.947166e-11 -3.314004e-10
8.054151e-09 -4.159493e-09 -5.036092e-10 -4.965017e-11 -9.252754e-11 -5.930101e-10
-2.697321e-09 1.282632e-09 5.071890e-10 1.298471e-09 2.414979e-10 -3.163609e-10
-3.504697e-09 8.831513e-10 9.278014e-10 2.403284e-10 2.015678e-10 -2.341485e-10
6.286380e-10 -3.009291e-10 -1.088929e-10 1.679551e-09 7.042971e-12 -9.492744e-10
3.061130e-08 -4.866299e-08 -1.737736e-07 1.285795e-08 2.130759e-07 -9.774846e-09
-6.445127e-10 -1.565140e-08 -1.879474e-10 1.214715e-08 5.592245e-09 -9.838484e-10
-3.348579e-09 1.050147e-09 7.417260e-10 7.669846e-10 2.392081e-10 -1.931210e-10
-3.078061e-09 1.133651e-09 6.375702e-10 6.122065e-10 2.326342e-10 -2.223282e-10
-3.948244e-09 1.042704e-08 -6.059517e-10 -8.702623e-09 1.408407e-10 -2.821947e-10
-1.048119e-08 1.479441e-08 -3.263161e-09 -2.715595e-09 2.719908e-09 -3.952618e-09
-9.783509e-09 1.462603e-08 -5.497529e-09 3.226260e-10 3.259312e-09 -4.910939e-09
-1.237036e-08 2.038068e-08 -8.506628e-09 8.766615e-10 4.402030e-09 -5.855799e-09
-1.663646e-08 2.180538e-08 -5.000244e-09 -2.709504e-09 2.296534e-09 -9.667142e-09
-1.079522e-08 3.259170e-08 -1.965564e-09 -1.064824e-08 -4.418736e-09 -4.768496e-09
-2.178972e-08 1.809513e-08 -7.530189e-09 5.850503e-09 1.087432e-08 -1.269441e-08
-1.702215e-08 1.906496e-08 -2.356755e-09 5.262649e-10 2.992436e-09 -7.376387e-09
-3.427682e-08 1.862377e-08 -6.281741e-10 3.281717e-08 3.348018e-08 -3.045455e-08
-5.082241e-08 5.430326e-08 -2.667970e-08 1.485242e-08 8.683181e-09 -3.306575e-08
-3.442083e-08 1.818155e-08 -1.111856e-08 3.205616e-08 3.441799e-08 -3.560417e-08
-2.234220e-08 2.867657e-08 -1.100562e-08 1.594972e-08 1.071047e-08 -2.397143e-08
-2.141275e-08 5.411803e-08 -1.264773e-08 -1.278301e-08 -7.262792e-09 -1.242453e-08
-2.177473e-08 2.524775e-08 -8.590483e-09 1.588654e-08 7.087832e-09 -1.804697e-08
-3.634011e-08 2.915983e-08 -9.165139e-09 8.296712e-09 3.893776e-09 -2.150502e-08
-4.618240e-09 -8.232188e-10 1.086470e-09 -2.877856e-09 4.668701e-10 -3.911299e-10
2.407589e-08 4.075729e-10 2.513499e-09 -1.087694e-08 3.424365e-09 -1.289393e-08
-4.875186e-09 1.785525e-09 9.039489e-10 -7.877833e-10 2.009854e-10 -1.046951e-10
-4.543850e-09 7.375172e-10 8.164576e-10 -2.001053e-09 5.423275e-10 -1.718337e-11
-4.483724e-09 8.208025e-10 1.036612e-09 -9.679784e-10 3.165174e-10 -8.956591e-11
-6.551381e-09 1.127449e-08 -7.968126e-09 1.127188e-08 7.482498e-09 -7.071731e-09
-1.216784e-08 1.801512e-08 -6.705139e-09 3.393634e-09 5.718922e-09 -7.267923e-09
-6.831904e-09 -1.025676e-08 -1.381692e-08 2.642129e-08 2.272652e-08 -1.309790e-08
-1.275536e-08 1.794523e-09 -1.152839e-08 2.659257e-08 1.734207e-08 -1.400782e-08
-8.732915e-09 2.334261e-09 -1.501298e-08 1.642676e-08 1.349639e-08 -8.974893e-09
-5.402790e-09 1.014257e-08 -1.721564e-08 1.778889e-08 1.463554e-08 -1.281444e-08
-1.740661e-08 2.408389e-08 -5.225711e-09 1.100241e-08 5.177323e-09 -1.475918e-08
-1.495817e-08 1.277722e-08 -4.513697e-09 7.309138e-09 7.707242e-09 -8.119776e-09
-1.135743e-08 1.085314e-08 -7.752413e-09 9.807583e-09 7.603951e-09 -6.383367e-09
1.276079e-09 8.907497e-11 5.933609e-11 3.198051e-09 3.570627e-10 -8.059977e-10
2.319001e-08 -2.933293e-09 -3.129029e-09 -6.376607e-09 1.411548e-09 -6.067197e-09
1.327445e-08 -6.099570e-09 7.097075e-09 -1.977138e-09 6.652625e-10 -8.290838e-09
1.806803e-09 5.549117e-11 -4.580603e-11 4.343509e-09 -2.337908e-11 -7.445957e-10
-4.013234e-12 1.778772e-09 1.721610e-10 3.683194e-09 -1.833064e-10 -8.852765e-10
1.206121e-08 -4.921678e-09 1.402979e-09 -3.738829e-09 3.806149e-10 -2.755363e-09
-4.215384e-11 1.626842e-09 5.499332e-10 3.857628e-09 1.773048e-10 -8.520665e-10
1.457002e-09 8.063528e-10 4.656986e-11 3.830626e-09 1.421849e-10 -3.249643e-10
-3.783662e-10 1.141404e-09 2.997007e-10 3.613114e-09 -1.921443e-10 -9.479828e-10
9.151631e-10 1.420278e-09 -5.537126e-11 4.572031e-09 3.863830e-10 -3.248462e-10
-1.759977e-09 2.069160e-09 -2.272067e-10 -3.983087e-09 -4.575105e-10 4.921366e-10
-1.541223e-09 1.754814e-09 -8.927659e-11 -3.097342e-09 -5.300760e-10 7.828979e-11
-1.257295e-09 1.487992e-09 -4.180456e-11 -2.748481e-09 -2.708496e-10 2.270539e-11
-1.540275e-09 1.482112e-09 1.160405e-11 -2.676340e-09 -2.589844e-10 9.295276e-11
-1.879044e-09 1.869459e-09 -1.150821e-10 -2.901068e-09 -4.527282e-10 -3.078882e-11
-2.433873e-09 1.860402e-09 1.670997e-11 -2.982258e-09 -3.036165e-10 1.425435e-10
1.932912e-08 1.387470e-07 -2.385999e-07 -3.749010e-08 2.888833e-08 1.598152e-08
-6.916714e-09 1.039663e-07 -1.829198e-07 2.110289e-08 2.085472e-08 -2.020903e-08
3.953164e-08 3.643279e-08 -1.684621e-07 -8.875619e-08 2.230509e-07 3.773796e-08
5.264226e-08 4.936303e-08 -1.027448e-07 -6.518299e-08 1.198049e-07 3.149080e-08
1.091810e-08 -2.435529e-09 -1.360879e-09 -6.818793e-09 8.641315e-11 -1.661556e-09
9.329737e-09 -2.650539e-09 -8.093035e-10 -6.049331e-09 1.965811e-10 -1.214064e-09
9.000631e-09 -2.562572e-09 -9.408978e-10 -6.285475e-09 3.001392e-10 -9.979640e-10
1.186731e-08 -3.613353e-09 1.072030e-09 -5.419673e-09 9.870816e-10 -2.815432e-09
7.325027e-09 -2.496936e-09 -2.513767e-11 -6.339222e-09 2.227232e-10 -6.794139e-10
6.740263e-09 -2.105945e-09 1.624212e-11 -6.826672e-09 3.848748e-10 -1.057202e-09
1.444529e-08 -2.259729e-09 1.476712e-10 -6.325747e-09 5.842657e-10 -5.044928e-09
8.796879e-09 -2.557312e-09 -4.508718e-10 -6.286888e-09 3.931340e-10 -5.376116e-10
-3.907941e-09 2.671886e-08 -2.638561e-08 -7.936191e-09 -1.560605e-08 -1.919225e-08
-3.028327e-08 1.618436e-08 -1.141945e-08 3.550856e-08 -2.664455e-08 3.660640e-08
-6.540862e-09 2.355798e-08 -2.895783e-08 -1.675980e-08 -3.440908e-08 -2.194782e-08
3.448621e-09 2.453882e-09 -2.727264e-08 -1.920243e-08 -3.615578e-08 -1.345904e-08
-1.322237e-08 1.196911e-08 4.341867e-09 1.113413e-08 -6.311585e-09 -2.995533e-09
-6.470370e-09 7.693879e-09 5.310518e-09 8.360547e-09 -3.356271e-09 -4.190201e-09
-7.426307e-09 1.019626e-08 8.395615e-09 1.108401e-08 -4.411414e-09 -4.007794e-09
-8.158422e-09 1.400743e-08 2.408011e-09 7.292540e-09 -3.767996e-09 -3.964192e-09
-1.273265e-08 1.376411e-08 3.602864e-09 5.352010e-09 -3.793235e-09 -1.619366e-09
-1.573525e-08 2.643775e-08 -1.332351e-08 1.532729e-10 -5.893557e-09 -1.911736e-08
1.189684e-08 -5.310564e-09 2.412187e-09 -3.478719e-09 8.603560e-10 -2.952236e-09
-1.161869e-08 2.182706e-08 -1.499640e-08 -2.734294e-09 -9.559718e-09 -1.870041e-08
1.954854e-08 -5.305313e-09 2.956452e-09 -2.976926e-09 1.191576e-09 -7.633962e-09
8.050554e-09 -3.995015e-09 -8.892640e-10 -1.305771e-09 -2.103573e-11 -3.085858e-10
-3.255141e-09 3.404211e-09 -7.991590e-10 -3.769721e-09 -7.669514e-10 7.698808e-10
8.722863e-09 -3.426543e-09 1.607908e-09 -7.530125e-09 1.326852e-09 -2.895993e-09
-3.571589e-09 2.425816e-09 -1.775848e-10 -3.097640e-09 -7.832402e-10 2.684353e-10
-3.662590e-09 2.710534e-09 3.091838e-11 -2.432564e-09 -7.929894e-10 -5.035028e-11
-3.497117e-09 2.118369e-09 6.212408e-11 -2.486506e-09 -4.756222e-10 3.128990e-10
7.570960e-09 1.180340e-09 -1.799280e-09 -8.621536e-09 6.830094e-10 -1.045096e-09
1.281594e-08 -2.573253e-09 -6.989334e-10 -7.297257e-09 9.540295e-10 -3.225050e-09
1.003976e-08 -2.276793e-09 -5.838849e-10 -6.048456e-09 3.650116e-10 -1.939650e-09
1.048820e-08 1.597424e-10 9.921708e-11 -9.814648e-09 1.833825e-09 -4.726621e-09
1.102728e-08 8.874624e-10 8.552425e-11 -1.089604e-08 1.631783e-09 -4.153391e-09
7.526777e-09 -8.200043e-10 6.069274e-10 -8.155362e-09 1.402919e-09 -3.781696e-09
1.944634e-08 -3.940142e-09 -4.502372e-10 -2.900955e-09 9.283993e-10 -5.879758e-09
1.897067e-08 -4.893334e-09 -1.718674e-10 -3.576873e-09 4.824155e-10 -6.153970e-09
1.667533e-08 -5.277024e-09 1.118538e-09 -2.547295e-09 9.584443e-10 -5.230756e-09
1.623257e-08 -4.621278e-09 3.409730e-09 -5.867811e-09 1.651766e-09 -9.472519e-09
1.245792e-08 -3.262918e-08 1.442462e-09 -1.249265e-08 1.086396e-08 3.193730e-09
1.504510e-08 -2.478404e-09 -1.604501e-09 -7.759752e-09 1.367025e-09 -4.973697e-09
1.224604e-08 -2.548250e-09 -3.892631e-10 -6.805885e-09 1.238431e-09 -3.105393e-09
-3.398590e-09 7.674199e-10 -6.573764e-09 5.227429e-09 -6.594916e-09 5.207780e-09
1.991329e-08 -4.453612e-09 3.696794e-10 -2.358339e-09 -2.765539e-10 -7.887084e-09
-3.973076e-09 -6.824870e-10 1.494362e-09 -2.093764e-09 -7.633905e-11 -7.222909e-10
8.730439e-09 -2.095351e-08 6.274474e-10 4.198552e-09 2.084260e-09 -3.751284e-10
-4.010166e-09 -2.150180e-09 1.413993e-09 -3.238115e-09 6.382346e-10 -4.094324e-10
1.035800e-08 -4.458272e-09 1.452261e-11 -3.338658e-10 4.231868e-11 -1.035799e-09
-3.117657e-09 -2.194198e-09 1.512257e-09 -2.193615e-09 3.567289e-10 -3.438700e-10
1.320375e-08 1.219105e-09 -2.768911e-09 -9.479276e-09 9.974804e-10 -2.892508e-09
-3.224621e-09 -1.696411e-09 1.504137e-09 -3.076622e-09 3.780487e-11 -3.549216e-10
-3.445201e-09 -3.664862e-09 1.530525e-09 -3.788848e-09 3.535530e-10 -1.872034e-10
-4.245832e-09 -6.778320e-10 1.390484e-09 -2.075363e-09 4.204048e-10 -1.499259e-10
-3.417093e-09 -1.437570e-09 1.178662e-09 -2.946100e-09 6.110030e-10 1.514899e-11
-2.536778e-09 1.281324e-09 3.911556e-10 1.099752e-09 1.188213e-10 -3.784240e-11
-2.636753e-09 1.172447e-09 4.221885e-10 9.176042e-10 -3.460388e-11 -9.512169e-11
-2.368133e-09 1.171295e-09 4.659400e-10 1.430111e-09 1.035406e-10 -1.496969e-10
-2.044145e-09 1.089425e-09 3.420975e-10 1.262699e-09 2.134610e-10 -5.068956e-11
-2.046960e-09 1.083943e-09 2.746585e-10 1.257888e-09 5.169659e-11 -2.740784e-10
-2.542645e-09 1.382498e-09 3.428209e-10 1.099479e-09 1.068368e-10 -5.489501e-11
2.821140e-10 2.368728e-08 2.580413e-09 -2.335185e-08 -1.481916e-08 7.812782e-09
-9.902425e-09 1.713181e-08 -2.744694e-09 -1.231769e-08 -1.706651e-09 -5.004589e-09
1.076536e-09 1.536061e-08 4.861280e-09 -1.934750e-08 -5.164305e-09 1.624639e-09
8.193790e-10 3.139940e-08 -4.094005e-08 -2.078398e-09 -2.821169e-08 -1.156549e-08
1.772483e-08 4.509946e-09 -8.579923e-10 -1.946401e-08 -6.253382e-09 1.469521e-08
-9.159699e-09 2.119329e-08 -3.357759e-09 -9.711978e-09 -5.985027e-10 -4.805441e-09
6.091308e-09 -3.930297e-09 -1.880906e-08 8.459934e-09 -1.889048e-08 8.131114e-09
1.006588e-09 -2.978995e-09 -1.574081e-08 1.239534e-08 -1.665713e-08 1.055350e-08
-1.177028e-08 3.329137e-09 -4.176053e-09 -1.594073e-08 -1.424884e-08 -9.698419e-09
3.075148e-09 -9.403369e-09 -7.306669e-09 1.628747e-08 -1.574924e-08 1.048645e-08
7.804298e-09 -1.093339e-08 -1.612288e-08 1.069315e-08 -2.313915e-08 9.482796e-09
1.761935e-09 -9.410363e-09 -6.599325e-09 1.067599e-08 -1.280356e-08 6.021952e-09
-5.168880e-09 -9.772085e-09 -3.695104e-09 1.227316e-08 -9.154479e-09 6.675010e-09
-3.131977e-09 -8.119711e-09 -2.577294e-11 8.580068e-09 -6.599419e-09 3.095296e-09
-3.725202e-10 -7.217717e-09 -6.661211e-09 7.742095e-09 -9.349940e-09 4.125670e-09
-2.176315e-11 -1.089783e-08 -2.471233e-09 6.837164e-09 -6.748794e-09 1.905231e-09
-3.048588e-09 -7.827493e-09 -9.306489e-10 8.241335e-09 -4.573911e-09 2.897214e-09
-2.480241e-09 -4.080849e-09 -4.737821e-09 8.594534e-09 -6.881885e-09 5.004111e-09
-1.074597e-09 -1.050073e-08 3.325882e-10 8.176510e-09 -5.660231e-09 2.040373e-09
1.562697e-08 -6.141460e-09 6.556717e-09 -1.882478e-09 8.250311e-10 -8.231053e-09
4.720069e-10 -1.539672e-08 2.020746e-09 1.954573e-08 1.058847e-08 -3.799501e-09
6.252852e-10 -1.724431e-08 4.820682e-10 1.870793e-08 8.842958e-09 -4.348403e-09
3.839959e-09 -1.646338e-08 -8.345891e-10 2.047261e-08 1.279157e-08 -5.212879e-09
4.408861e-08 -2.534316e-08 3.276294e-08 5.058030e-09 1.680515e-08 9.060862e-08
4.356233e-09 -1.871030e-08 -5.051626e-09 1.458852e-08 1.007078e-08 -2.442944e-09
2.034583e-09 -7.091064e-09 -7.580830e-09 1.694098e-08 8.475858e-09 -3.578166e-09
3.223886e-09 -1.145037e-08 -1.034663e-08 1.757286e-08 1.217907e-08 -4.577372e-09
3.822170e-09 -2.140401e-08 -2.170722e-09 2.253084e-08 1.330532e-08 -5.715704e-09
5.847900e-09 -2.039875e-08 -3.984945e-09 1.419871e-08 1.147603e-08 -2.421135e-09
6.221561e-09 -2.292590e-08 -1.878165e-09 1.597785e-08 1.005463e-08 -2.794767e-09
5.834489e-09 -1.916304e-08 -7.293261e-09 1.432481e-08 9.062094e-09 -3.126660e-09
9.475754e-09 -2.194710e-08 -6.324561e-09 1.385516e-08 1.284664e-08 -3.444049e-09
3.825823e-09 -1.613835e-08 -4.463961e-09 2.005714e-08 1.281993e-08 -3.841958e-09
1.295180e-08 -2.862288e-08 -7.230487e-09 7.274800e-09 1.047362e-08 -2.671453e-09
1.035574e-08 -2.641842e-08 -1.668194e-09 8.189117e-09 7.203093e-09 -9.479239e-10
9.781898e-09 -2.283937e-08 -1.760887e-09 7.330520e-09 5.707558e-09 1.589174e-10
1.413673e-08 -2.854531e-08 -2.201341e-09 7.666738e-09 9.874066e-09 -1.586756e-09
1.129326e-08 -2.472756e-08 -3.822857e-09 4.992854e-09 6.771623e-09 7.289814e-11
1.086034e-08 -2.421295e-08 -5.605764e-09 9.486634e-09 9.635855e-09 -1.204998e-09
2.660575e-09 -1.354728e-08 -8.032452e-10 1.075762e-08 3.691896e-09 -4.121269e-10
2.373250e-09 -1.492652e-08 -4.312666e-10 1.001424e-08 3.115757e-09 -4.591495e-10
-1.134857e-09 -1.223944e-08 -5.027356e-11 1.226245e-08 3.813682e-09 -1.750891e-09
1.593381e-10 -1.114739e-08 -3.472147e-09 1.394743e-08 5.501850e-09 -2.212946e-09
1.272342e-09 -1.200796e-08 -3.075343e-09 1.420902e-08 5.360638e-09 -2.877714e-09
-3.260081e-09 1.959751e-09 3.874616e-10 -2.021399e-09 -5.555916e-10 1.281051e-10
-5.194281e-10 7.185301e-10 -2.478717e-10 -2.165029e-09 -1.073943e-10 2.559353e-11
-3.464312e-09 2.070723e-09 6.219625e-11 -2.055669e-09 -7.247334e-10 -1.516793e-10
-3.508231e-09 2.197364e-09 1.955878e-10 -2.222346e-09 -4.018070e-10 -1.922875e-10
-4.444473e-09 2.449939e-09 3.128013e-10 -1.881969e-09 -4.010908e-10 -1.225775e-11
-4.444473e-09 2.143151e-09 4.256067e-10 -1.699942e-09 -3.646652e-10 -1.463454e-10
-3.372469e-09 1.930198e-09 4.945777e-11 -2.120096e-09 -6.007861e-10 -1.351421e-10
-3.629665e-09 5.272991e-10 9.307375e-10 8.277778e-11 1.761036e-10 -3.002361e-10
-3.731935e-09 8.901413e-10 9.668790e-10 2.423799e-10 9.821399e-11 -1.637381e-10
-3.397488e-09 1.455210e-09 6.894632e-10 6.065144e-10 7.068868e-11 -1.917184e-10
-3.091476e-09 1.126727e-09 6.746590e-10 6.024159e-10 1.798756e-10 -3.106730e-10
-3.491690e-09 5.801271e-10 8.666694e-10 -2.990281e-12 1.916135e-10 -3.347363e-10
-3.574644e-09 9.138361e-10 7.149903e-10 1.840634e-10 2.211664e-10 -1.766773e-10
2.102555e-09 -7.650383e-10 -2.784892e-10 1.882444e-09 8.538437e-11 -2.516903e-10
2.742830e-09 -1.076222e-09 -2.798748e-10 2.418875e-09 6.006107e-11 -1.755226e-10
2.994248e-09 -1.282678e-09 -4.048302e-10 2.315965e-09 1.191279e-10 -2.032999e-10
2.241851e-09 -4.454546e-10 -2.268676e-10 3.013372e-09 1.168189e-10 -4.103065e-10
1.989552e-09 -5.501950e-10 -3.213390e-10 2.622681e-09 1.361238e-10 -2.060041e-10
-3.029458e-09 2.097850e-09 2.310614e-10 -2.019216e-09 -2.082980e-10 -1.125008e-10
-2.252039e-09 1.777937e-09 2.592295e-10 -2.203873e-09 -3.811758e-10 1.078467e-10
-3.309449e-09 2.090115e-09 2.629368e-10 -1.956058e-09 -2.238270e-10 -1.076130e-10
-2.425060e-09 1.971268e-09 2.973932e-11 -2.412789e-09 -4.352666e-10 -2.018892e-10
-2.522128e-09 1.937079e-09 1.334601e-10 -1.698579e-09 -1.631103e-10 -1.639493e-10
-3.255799e-09 2.062879e-09 2.633083e-10 -1.801462e-09 -3.345549e-10 -1.604925e-10
-3.516156e-09 2.230282e-09 3.803873e-10 -1.922286e-09 -1.903460e-10 -2.147322e-10
-1.992385e-08 1.054326e-08 -6.927816e-09 1.728922e-08 1.042488e-08 -1.266576e-08
-8.904592e-09 1.795975e-08 -1.268477e-08 3.589284e-09 8.260758e-09 -6.597526e-09
-2.228821e-08 1.877550e-08 -4.401383e-09 8.797247e-09 3.222341e-09 -1.267317e-08
4.884967e-09 -2.200511e-09 -6.778946e-10 -1.878123e-09 -2.502965e-10 1.163212e-10
-1.330157e-08 1.279415e-08 -4.392477e-09 5.508770e-09 3.292752e-09 -6.059762e-09
-1.412135e-08 1.736013e-08 -7.379178e-09 9.771039e-09 1.164356e-08 -1.157019e-08
1.412087e-08 -3.191287e-09 1.506046e-08 1.287617e-08 -4.607265e-09 -2.703586e-08
4.368541e-08 -2.778841e-09 2.345489e-08 1.823299e-08 -1.361778e-08 -5.008208e-08
-7.352445e-09 -1.783142e-09 -2.977780e-09 1.348918e-08 5.868346e-09 -3.078388e-09
-9.311881e-09 2.371273e-09 -2.361134e-09 1.328824e-08 4.220682e-09 -3.267988e-09
-1.192798e-08 2.548810e-09 -1.374826e-09 1.931788e-08 7.403342e-09 -7.925333e-09
6.462382e-09 -2.898530e-09 -9.012400e-10 -2.400142e-09 -7.361545e-11 -3.595146e-11
-5.599362e-09 -6.778752e-09 -2.130229e-11 1.760323e-08 6.882089e-09 -4.317221e-09
-3.639512e-09 7.360408e-09 -1.825302e-09 -7.920561e-09 -6.975540e-10 2.907894e-09
-9.591618e-10 9.361614e-08 -4.136671e-08 -3.292901e-08 5.268986e-09 -1.680926e-08
-2.443867e-09 6.296842e-08 -4.937082e-08 -3.886312e-09 -2.063378e-08 2.130974e-08
-2.277799e-08 7.522181e-08 -5.562553e-08 -1.367299e-08 -1.662155e-08 3.270170e-08
-1.616131e-08 3.598137e-08 2.831972e-08 -3.573886e-08 2.936131e-08 -1.461551e-08
-3.506355e-08 3.689305e-08 3.778881e-08 -9.971050e-09 1.166520e-08 -1.519830e-08
-1.685142e-09 2.517855e-08 -2.569130e-08 -1.779137e-08 -5.224869e-09 1.198769e-08
5.092356e-09 2.788350e-08 -2.746954e-09 -2.241467e-08 6.719500e-09 -1.421678e-08
-5.960792e-09 1.384692e-09 -5.687939e-11 7.304851e-10 -1.488717e-09 6.626585e-10
-5.600551e-09 -9.145564e-10 6.273804e-10 2.433891e-09 -1.578123e-09 1.032805e-09
-5.146767e-09 1.564079e-09 -3.529017e-10 2.673931e-10 -1.709332e-09 9.525256e-10
-5.301731e-09 1.583641e-09 -8.239951e-10 2.128979e-10 -2.002804e-09 5.473026e-10
-4.842336e-09 2.072298e-11 1.390839e-10 -6.008837e-11 -1.572523e-09 2.149336e-10
-4.842335e-09 1.963016e-09 -8.583041e-10 -3.183931e-10 -1.716019e-09 4.200991e-10
1.126226e-08 -5.693082e-08 -1.626049e-08 -2.837207e-08 -5.393181e-08 -1.473346e-08
2.334730e-08 -3.878624e-08 -2.762350e-08 -5.958862e-09 -5.008900e-08 2.908266e-09
2.035490e-08 -1.916067e-08 -3.349782e-08 -4.290405e-09 -3.377417e-08 -1.289920e-09
1.438869e-08 -1.985601e-08 -3.439121e-08 -1.017468e-08 -3.706747e-08 -3.772585e-09
1.437905e-08 -4.182558e-09 -2.479148e-08 -1.431126e-08 -3.689436e-08 -1.271098e-08
1.223261e-08 -1.767262e-08 -1.400319e-08 -1.959965e-08 -2.793908e-08 -1.146368e-08
1.629425e-08 -2.244386e-08 -3.316392e-08 -1.111022e-08 -3.728726e-08 -5.524064e-09
2.405292e-09 3.083728e-09 1.919436e-10 -9.344031e-09 4.411956e-10 -4.457411e-10
9.529222e-10 3.389128e-09 -9.372518e-10 -8.041255e-09 -8.519880e-10 8.421839e-10
6.096261e-09 -2.876440e-09 -7.495389e-10 -1.274095e-09 -1.488017e-10 1.006755e-10
-2.385199e-09 6.415849e-09 -6.985141e-10 -8.750033e-09 1.774585e-10 1.225892e-09
-9.041481e-10 4.225737e-09 -1.038424e-09 -7.895162e-09 -4.911836e-10 1.016824e-09
-5.043047e-09 6.720075e-09 -1.549381e-09 -5.503535e-09 -1.120426e-09 2.504918e-09
7.131682e-10 2.888396e-09 -1.895720e-10 -7.929702e-09 1.748349e-10 -3.481326e-10
-4.680640e-09 6.910214e-09 -1.598821e-09 -6.655519e-09 -1.510853e-09 2.497193e-09
6.965475e-09 4.607043e-09 -2.752164e-09 -1.214539e-08 3.386749e-10 -1.364777e-09
3.152793e-09 4.692239e-09 -1.633698e-09 -1.102142e-08 2.086346e-09 -4.745393e-10
-1.140006e-08 6.328396e-08 2.042242e-08 1.814793e-08 3.747561e-08 5.517233e-10
-1.743604e-08 3.739452e-08 -1.944860e-08 3.193396e-09 -1.135121e-08 -1.686502e-08
-1.556725e-08 6.653255e-08 1.799279e-08 3.153380e-08 3.165453e-08 4.186925e-09
-4.370003e-09 1.695517e-08 -4.442309e-08 -1.798724e-08 -3.532324e-08 -1.987311e-08
-4.237362e-09 3.704719e-08 -2.665875e-08 -7.287097e-09 -1.331012e-08 -1.766719e-08
8.842151e-10 1.732401e-08 -3.749910e-08 -1.522128e-08 -3.902703e-08 -2.599643e-08
-3.354865e-08 1.045333e-07 3.272746e-08 2.463454e-08 -9.983672e-08 4.914847e-09
-4.255194e-08 3.728566e-08 -9.268347e-10 -6.654027e-09 -3.614619e-09 1.992197e-08
-1.751429e-08 1.924002e-08 7.101574e-09 5.621554e-09 -6.825890e-09 7.157735e-09
-1.643748e-08 2.338897e-08 1.446800e-08 8.344930e-09 -1.239146e-08 3.238591e-09
-3.316367e-08 3.105890e-08 7.330580e-09 2.666118e-09 -2.036944e-08 1.464991e-08
-1.673102e-08 1.754433e-08 9.854105e-09 1.237872e-08 -6.478864e-09 1.003320e-09
-3.474347e-09 1.535094e-09 6.828067e-10 6.914071e-10 1.536122e-10 -1.051540e-10
-4.294400e-09 2.453595e-08 9.522446e-09 2.844830e-08 -1.914804e-08 -6.452126e-09
-1.276489e-08 2.396621e-08 1.860906e-08 2.575235e-08 -1.994623e-08 -3.615246e-09
-3.960037e-10 1.195449e-09 -1.800604e-10 -3.478204e-09 -1.725695e-10 -1.002718e-10
-1.295207e-09 1.552836e-09 -3.581579e-11 -2.195204e-09 -2.883328e-10 -1.998532e-10
1.520497e-08 -2.341916e-09 4.494148e-09 9.863637e-09 -2.154301e-09 -2.009110e-08
1.827038e-08 -3.342679e-09 3.113021e-11 7.151909e-09 -1.011719e-09 -1.116936e-08
1.174994e-08 3.176437e-11 5.161650e-09 1.036925e-08 -3.886030e-09 -1.194401e-08
-1.210585e-08 3.845176e-08 2.111962e-09 2.875062e-08 1.898177e-08 1.445498e-08
6.337722e-09 -1.701310e-09 6.936629e-09 8.461689e-09 -1.908485e-09 -7.453644e-09
1.630016e-08 -5.634486e-09 7.637792e-09 3.854354e-09 -1.059625e-09 -1.297689e-08
1.425123e-08 -5.655685e-09 4.712836e-09 2.361818e-09 1.337137e-11 -1.019452e-08
1.483424e-08 -1.489932e-09 1.372435e-08 1.021471e-08 -5.040821e-09 -2.074843e-08
-6.546588e-09 1.092975e-08 2.577478e-08 -1.530152e-08 1.935381e-09 -1.387909e-08
3.480912e-09 -1.697592e-09 3.506004e-08 -2.332230e-08 1.197786e-08 -2.366160e-08
-5.476184e-09 1.287976e-08 -4.473409e-09 -1.657596e-08 2.344573e-09 7.850454e-10
-8.738558e-10 1.491148e-08 8.746342e-09 -1.689562e-08 1.593774e-08 -3.337985e-09
6.950393e-09 9.995294e-09 2.474453e-08 -2.067702e-08 1.272990e-08 -1.938460e-08
8.761905e-09 -5.939089e-10 1.307379e-08 -1.173148e-08 5.771097e-09 -1.112511e-08
5.754999e-08 -9.756668e-08 -2.007600e-08 -3.032030e-08 1.006935e-07 1.799293e-08
4.267252e-08 -6.194625e-08 -8.236416e-08 -1.985232e-08 1.449299e-07 4.123497e-09
3.013210e-08 -4.305575e-08 -4.910570e-08 -3.732652e-08 7.238677e-08 1.853950e-08
4.597339e-09 -2.214067e-09 -7.045713e-10 -2.307109e-09 -2.647513e-10 1.550790e-10
3.077850e-08 -1.124760e-07 -3.564204e-08 -4.782952e-08 9.731421e-08 2.930814e-08
-1.431150e-09 1.810927e-09 9.725554e-13 -2.516506e-09 -1.883884e-10 1.588829e-10
2.699270e-08 -5.865600e-08 -9.417980e-09 -2.169324e-08 6.150090e-08 1.577729e-08
-2.528606e-08 3.137318e-08 -4.364254e-08 -7.839410e-09 2.579380e-08 4.348285e-08
-4.862715e-08 5.002253e-08 -1.343081e-10 -1.285834e-08 -2.282080e-09 3.408025e-08
-1.821171e-08 7.116103e-08 3.135065e-08 3.245671e-08 -5.166824e-08 -4.198422e-08
-9.429061e-08 1.725802e-07 -1.949481e-07 -5.043961e-08 -4.259355e-08 1.188595e-07
4.306167e-10 1.206965e-07 -8.697682e-08 5.121147e-08 -3.965576e-08 -4.592042e-08
-7.173250e-08 2.633574e-07 -1.834409e-07 -2.826152e-09 -9.848056e-08 8.210873e-08
-7.953039e-08 1.212050e-07 -5.639795e-09 1.265115e-08 -5.878112e-08 1.998520e-08
2.383317e-09 -7.588801e-10 -4.783858e-10 -2.330799e-09 -1.218656e-10 -2.241252e-11
-6.651764e-10 1.487135e-09 -1.079419e-10 -2.799605e-09 -2.187000e-10 -2.302868e-10
-7.293876e-09 -3.440956e-09 -2.048540e-09 7.894767e-09 -5.478866e-09 4.161084e-09
-3.121923e-09 -3.615112e-09 -8.557810e-11 7.881100e-09 -6.696530e-09 3.188409e-09
-1.905530e-09 -4.678618e-09 9.567809e-10 5.624767e-09 -3.727352e-09 1.627772e-09
-3.763622e-09 -4.664423e-09 1.152606e-09 5.174588e-09 -3.622605e-09 1.357363e-09
-3.932651e-09 1.141828e-09 9.709922e-10 1.000749e-10 2.657595e-10 -2.386631e-10
-3.327829e-09 1.496345e-09 7.365284e-10 6.578240e-10 7.027848e-11 -2.815699e-10
-2.584354e-09 1.691925e-09 5.852712e-10 1.514458e-09 1.137048e-10 -2.875036e-10
-3.509869e-09 1.546699e-09 6.173240e-10 8.671554e-10 5.313672e-10 1.953470e-11
-3.689293e-09 1.403700e-09 9.458521e-10 7.145123e-10 2.740003e-11 -2.593143e-10
-2.866566e-09 1.107536e-09 6.333820e-10 9.848711e-10 1.220115e-10 -2.516548e-10
-3.924700e-09 1.210240e-09 7.675411e-10 1.387534e-10 1.238676e-11 -5.079846e-10
-2.840972e-09 1.637876e-09 4.592831e-10 1.277025e-09 2.552440e-10 -2.781058e-10
-3.335171e-09 1.444747e-09 7.561449e-10 1.054745e-09 3.031163e-10 -2.178024e-10
7.659871e-09 -2.237744e-08 7.750525e-10 6.372469e-09 2.965280e-09 -3.326703e-10
6.330607e-09 -2.135085e-08 8.820722e-10 7.396524e-09 3.606841e-09 -5.239236e-10
4.616117e-09 -1.936551e-08 2.660669e-09 5.923586e-09 1.864795e-09 -2.232665e-10
-8.315524e-09 1.335030e-08 2.432863e-08 -1.020240e-08 1.062848e-08 -1.578206e-08
6.239381e-09 6.610417e-09 1.396927e-08 -1.631562e-08 1.154343e-08 -2.133380e-08
1.345123e-09 -5.441692e-11 -3.578782e-10 -2.482109e-09 -2.208889e-10 -1.453777e-10
6.657879e-09 2.045676e-08 2.106398e-08 -2.425282e-08 2.539698e-08 -2.398806e-08
-1.225573e-08 2.561113e-08 -8.358877e-10 -1.089749e-08 4.243275e-09 -2.521320e-09
-1.093330e-09 2.190473e-08 1.660648e-08 -2.114556e-08 1.895402e-08 -1.607669e-08
-2.021828e-09 -4.910252e-09 7.562075e-10 -7.588022e-09 1.805970e-09 5.247433e-11
-1.042047e-09 -1.269719e-08 1.094259e-09 -1.261750e-08 -9.501751e-09 -4.321415e-09
5.009987e-09 -9.526955e-09 -1.413130e-08 -1.266876e-08 -1.532292e-08 -5.335784e-09
5.049550e-09 -1.659838e-08 -8.593423e-09 -1.333654e-08 -1.438998e-08 -4.923145e-09
1.387786e-09 -1.493543e-10 -1.163672e-08 -9.952247e-09 -1.065329e-08 -4.581158e-09
5.216536e-09 -1.205300e-08 -6.260311e-09 -9.698184e-09 -1.113319e-08 -2.348706e-09
-1.157850e-09 -4.599540e-09 -9.758624e-09 -1.378473e-08 -1.038060e-08 -5.542291e-09
-4.260870e-09 -3.058554e-09 1.363599e-09 -5.194974e-09 9.084121e-10 -3.073100e-10
-3.504692e-09 9.989610e-09 2.011795e-08 1.706349e-08 -1.383934e-08 -2.059368e-08
1.399206e-08 -1.469578e-09 1.637729e-08 1.002530e-08 -4.440426e-09 -2.007287e-08
-3.802586e-09 -4.567231e-09 -6.276348e-10 -8.398556e-09 1.090837e-09 7.889090e-10
-5.021260e-09 8.996236e-09 1.848254e-08 1.330479e-08 -1.239517e-08 -1.077094e-08
3.932961e-09 7.660310e-10 3.180086e-08 1.190987e-08 -9.489800e-09 -2.125938e-08
-3.044077e-09 -3.063692e-09 -6.165878e-09 5.187936e-09 -4.472138e-09 2.442304e-09
-3.887330e-09 -8.863914e-10 -7.531882e-10 3.234950e-09 -2.642134e-09 1.340996e-09
2.938573e-09 -9.658643e-10 3.184928e-08 1.325350e-08 -9.325011e-09 -2.133175e-08
-1.698661e-08 1.420789e-08 1.590773e-08 1.691015e-08 -1.275218e-08 -7.375014e-10
1.155313e-08 -5.094609e-09 1.743688e-09 1.330006e-09 2.543473e-10 -2.880315e-09
-1.126185e-08 1.567918e-08 8.017569e-10 3.230238e-09 -2.741031e-09 -2.473402e-10
1.100460e-08 -4.271434e-09 2.865385e-09 3.972814e-09 -3.450639e-10 -4.451826e-09
1.105780e-08 -3.943501e-09 -6.126410e-11 3.236962e-09 -3.433284e-11 -2.897165e-09
1.462547e-08 -5.208304e-09 8.866490e-10 2.210680e-09 -2.679310e-10 -4.636798e-09
1.456389e-08 -5.641007e-09 1.475156e-09 2.021069e-09 -4.276693e-10 -4.588780e-09
-4.439745e-08 1.777050e-07 -1.029029e-07 -3.304593e-11 -8.961145e-08 2.050946e-08
-1.321308e-07 2.008818e-07 1.689689e-08 -3.564808e-09 -2.196437e-07 -2.434423e-08
-2.368407e-08 1.323713e-07 -7.400152e-08 1.302989e-08 -5.334550e-08 1.687936e-08
-7.475510e-08 2.603326e-07 -4.724329e-08 -7.824594e-09 -1.817112e-07 -1.681593e-07
-3.757306e-08 5.581423e-08 -1.722812e-08 4.853581e-10 1.126795e-08 3.430316e-08
-2.643362e-08 7.081786e-08 -1.354563e-07 1.410837e-08 1.247803e-08 -5.036919e-09
-3.250151e-08 8.799886e-08 -2.009318e-08 2.112909e-08 -6.117098e-08 2.131697e-08
-1.538767e-09 9.526864e-10 2.441436e-10 1.318105e-09 3.014241e-10 -9.800660e-11
-1.543023e-09 9.067973e-10 2.614207e-10 1.333280e-09 1.385259e-10 -6.543613e-11
-4.890417e-10 6.998473e-10 6.816681e-11 2.090075e-09 2.002172e-10 -9.540657e-11
-1.470397e-10 4.393339e-10 1.125726e-10 1.930460e-09 2.835131e-10 3.985023e-11
-9.031176e-10 8.449577e-10 9.195977e-12 2.020329e-09 1.990607e-10 -1.836400e-10
-3.212083e-09 1.228148e-09 7.963927e-10 7.090217e-10 7.342715e-11 -4.722007e-10
-3.359425e-09 9.152066e-10 7.409009e-10 1.991478e-10 3.158910e-10 -3.779193e-10
-5.973386e-09 -2.081153e-09 -5.900684e-10 -8.448209e-09 3.171064e-09 1.856974e-09
-5.511257e-09 1.593874e-09 1.368729e-09 -3.357604e-09 7.641886e-11 -8.674249e-10
-5.848814e-09 -4.071148e-10 1.033662e-09 -5.070303e-09 1.131517e-09 3.168332e-10
-5.236988e-09 6.209753e-10 1.047535e-09 -6.697362e-09 9.841139e-10 6.695008e-10
3.898896e-09 -1.592046e-09 -6.754717e-10 -2.846265e-09 -9.824630e-11 4.764922e-11
4.410650e-09 -1.698099e-09 -7.779811e-10 -3.178844e-09 -2.009835e-10 2.763418e-10
4.230829e-09 -1.738620e-09 -6.263365e-10 -3.264228e-09 -3.180528e-10 2.274853e-11
4.479832e-09 -1.843509e-09 -6.851140e-10 -2.351542e-09 -1.496991e-10 1.859790e-10
1.858204e-09 -4.005871e-10 -4.533904e-10 -2.661056e-09 -1.818459e-10 -8.176138e-11
1.538778e-09 -7.277201e-11 -4.472941e-10 -2.884824e-09 -3.560897e-10 -2.261214e-10
2.591092e-09 -5.558582e-10 -5.947987e-10 -3.390594e-09 -3.146814e-10 2.727545e-10
2.288083e-09 -6.124128e-10 -5.638352e-10 -3.392437e-09 -2.099857e-10 -6.905765e-11
1.513269e-09 -4.521903e-10 -4.938059e-10 -3.105083e-09 -1.034937e-10 9.081669e-11
2.385349e-09 -7.589405e-10 -4.728049e-10 -2.332360e-09 -2.776313e-10 7.770562e-11
-5.226100e-09 2.421179e-09 6.217287e-10 2.519682e-10 -2.411166e-11 -6.553211e-10
-2.758044e-09 2.303004e-09 4.380294e-10 2.257813e-09 2.009670e-10 -3.419490e-10
-2.685309e-09 2.381044e-09 5.014251e-10 2.152813e-09 2.848555e-10 -4.119760e-10
-3.103571e-09 3.553374e-09 5.230283e-10 2.396783e-09 2.755823e-10 -6.889234e-10
-2.424934e-09 2.141544e-09 5.362986e-10 3.195082e-09 -2.417930e-10 -1.028747e-09
-1.699954e-09 1.250120e-09 3.132630e-10 2.086127e-09 3.952032e-10 -1.693321e-10
1.256471e-08 -2.736712e-08 -2.199960e-09 -7.731190e-09 -1.607027e-08 -2.538038e-09
1.264225e-08 -1.659210e-08 -1.733109e-08 -9.370674e-09 -2.116442e-08 -2.605635e-09
1.711639e-08 -2.657878e-08 -1.816748e-08 -4.954639e-09 -2.459169e-08 -6.187471e-10
1.303209e-08 -2.014165e-08 -1.690250e-08 -1.222072e-08 -1.963443e-08 -3.084237e-09
1.854978e-08 -2.615829e-08 -1.747968e-08 -1.015728e-08 -2.887212e-08 -4.315928e-09
-6.390404e-09 -2.183835e-10 -8.728992e-10 3.254871e-09 -3.207904e-09 2.475761e-09
-6.402367e-09 -2.788711e-10 -5.247625e-11 3.352932e-09 -3.316437e-09 2.265397e-09
-4.392175e-09 -3.848132e-09 2.292520e-10 5.283047e-09 -3.517229e-09 1.951672e-09
-5.850882e-09 1.198018e-09 -9.862355e-10 2.388064e-09 -2.397028e-09 1.974551e-09
-4.817629e-09 1.588759e-09 -2.773053e-09 4.043610e-09 -3.977523e-09 2.334739e-09
-3.885717e-09 -7.152874e-10 9.917720e-10 3.191114e-09 -1.943489e-09 1.058793e-09
-4.877239e-09 5.418521e-10 5.612395e-10 4.372251e-09 -3.709532e-09 2.305281e-09
5.848454e-09 -2.936217e-09 -6.548690e-10 1.934532e-09 6.953660e-11 -2.719893e-10
5.119261e-09 -2.375754e-09 -6.069292e-10 1.989706e-09 1.787508e-10 -7.137857e-11
6.505662e-09 -3.421981e-09 -6.090264e-10 7.456936e-10 1.404151e-10 -2.247661e-10
5.590709e-09 -2.677791e-09 -7.342928e-10 1.259013e-09 4.663585e-11 -7.322731e-11
6.067583e-09 -2.935514e-09 -5.972292e-10 1.913216e-09 3.600158e-11 -2.899166e-10
1.364980e-09 6.449272e-10 8.805845e-12 4.222207e-09 2.275383e-10 -6.115053e-10
-6.086651e-09 9.786256e-09 1.345175e-08 1.761818e-08 -1.316082e-08 -1.251907e-08
1.355426e-08 3.945527e-10 1.894535e-08 1.040929e-08 -8.703268e-09 -2.287745e-08
6.451454e-09 -1.673375e-08 -1.578460e-09 -8.527458e-09 4.209324e-09 1.111592e-09
-3.263455e-09 1.296550e-08 4.042497e-09 1.377302e-08 -7.385361e-09 -5.273253e-09
-1.356066e-08 1.297497e-08 2.583805e-08 1.392904e-08 -1.382186e-08 -1.406957e-08
8.213341e-09 -3.344522e-09 -9.230035e-10 -2.499643e-09 -1.181351e-10 -2.422796e-10
8.459135e-09 -3.444194e-09 -1.145554e-09 -2.693092e-09 -2.836532e-10 -3.832463e-10
8.815853e-09 -4.144048e-09 -3.366090e-10 -2.788967e-09 1.090492e-11 -8.542708e-10
8.329859e-09 -3.625315e-09 -3.880489e-10 -2.783761e-09 -8.051926e-11 -5.191029e-10
7.181701e-09 -3.805257e-09 -6.489602e-10 -1.899796e-09 5.660417e-12 -4.537013e-10
3.555847e-08 1.392277e-08 3.680247e-08 3.018203e-08 1.535667e-08 3.882757e-08
2.202884e-08 2.703045e-08 -2.974243e-08 3.496943e-08 6.943529e-09 2.600823e-09
2.208523e-08 1.849729e-08 -2.959616e-09 3.063717e-08 2.435916e-08 1.449519e-08
2.324158e-08 2.892411e-08 -2.152551e-09 3.967858e-08 1.529881e-08 1.351085e-08
-5.181110e-09 3.130390e-08 2.101822e-09 3.669518e-08 1.834108e-08 1.390456e-08
3.718577e-08 -7.054812e-09 1.788667e-08 2.757183e-08 1.124958e-08 3.626430e-08
3.881709e-08 4.909734e-08 -1.188931e-08 6.961181e-08 6.386452e-08 5.117128e-08
2.905643e-08 6.865236e-09 8.352088e-08 4.317969e-08 5.780262e-08 7.293176e-08
8.096361e-09 -1.255854e-09 -4.314360e-08 3.191541e-08 6.670055e-08 -3.768926e-08
1.004830e-08 3.257022e-10 -4.316683e-08 3.006612e-08 5.822696e-08 -3.087264e-08
1.193186e-08 -2.283225e-08 -1.294032e-08 5.263436e-08 5.389404e-08 -3.588377e-08
-1.999577e-08 1.412932e-08 -3.879053e-08 5.268444e-08 5.028885e-08 -4.032124e-08
-1.651204e-08 2.710668e-08 -1.526052e-08 7.163971e-10 -3.947694e-09 1.953399e-08
-1.856102e-08 1.083257e-08 -9.564555e-09 6.539356e-09 -1.058742e-08 2.137118e-08
-2.636766e-08 3.689869e-08 -8.081669e-09 2.113289e-09 -3.568860e-09 1.831324e-08
-4.470363e-09 1.836125e-08 -2.315836e-09 -1.234463e-08 2.680025e-09 5.345055e-09
-1.138358e-08 1.570777e-08 -1.323238e-09 -8.061576e-09 1.275913e-09 7.628826e-09
-1.005217e-08 1.079792e-08 2.247927e-10 -2.976639e-09 -2.521373e-09 6.601534e-09
-2.201125e-08 1.966363e-08 -4.783269e-09 6.893505e-09 -7.042063e-09 1.452318e-08
1.380700e-09 5.844107e-10 -4.300462e-10 -3.999699e-09 -3.358602e-11 4.808154e-11
8.606084e-09 -3.497116e-09 -8.416663e-10 1.507945e-09 5.505576e-11 -8.998555e-10
8.699176e-09 -3.484767e-09 -6.177445e-10 1.604269e-09 9.032432e-11 -5.363643e-10
1.406030e-08 -2.939759e-08 -1.044474e-08 2.220943e-09 1.317458e-08 4.100433e-10
1.478787e-08 -3.001488e-08 -1.003846e-08 2.366014e-09 1.299106e-08 -1.392868e-10
1.327209e-08 -2.514505e-08 -7.035793e-09 -3.203757e-10 8.565525e-09 -6.848433e-10
1.566555e-08 -2.686654e-08 -1.807725e-09 -4.672061e-10 9.900627e-09 1.137221e-09
1.157900e-08 -3.994347e-09 1.209326e-10 2.854415e-09 -1.099521e-10 -2.604513e-09
1.142742e-08 -4.005050e-09 6.543133e-10 3.007373e-09 6.686903e-11 -3.897339e-09
1.154154e-08 -4.589898e-09 9.425865e-10 -7.953825e-10 1.078024e-10 -1.886423e-09
1.008755e-08 -4.813745e-09 9.912666e-10 1.160121e-09 -4.911541e-11 -2.090412e-09
9.868835e-09 -5.854685e-09 9.428178e-10 9.371865e-11 1.546834e-10 -2.210230e-09
1.484912e-08 -5.854685e-09 2.781311e-09 1.769739e-10 1.095952e-10 -5.256192e-09
8.529818e-09 -4.271433e-09 1.639114e-09 3.808528e-09 -2.563854e-10 -2.648008e-09
9.628505e-09 -4.223163e-09 7.939582e-10 2.717465e-09 1.633508e-10 -1.843905e-09
-1.818573e-09 1.411399e-09 1.260121e-10 2.551811e-09 5.119623e-10 4.325806e-10
-1.687621e-09 1.103197e-09 2.909655e-10 2.186453e-09 2.815002e-10 -2.767961e-10
-1.389067e-09 1.426732e-09 2.897815e-10 2.582386e-09 3.380489e-10 -5.432028e-10
-1.497886e-09 1.227241e-09 1.792464e-10 2.257146e-09 2.783203e-10 -3.482007e-10
-1.155328e-08 4.111494e-09 -1.516556e-09 -1.404334e-08 5.332782e-09 5.945172e-09
-1.269873e-08 -2.976205e-09 -8.128902e-09 -1.690200e-08 1.355221e-08 9.112018e-09
-1.446561e-08 -7.128864e-10 3.730248e-09 -1.833291e-08 3.932051e-09 6.387395e-09
-1.145260e-08 7.881688e-10 3.226955e-09 -1.198116e-08 1.779630e-09 2.719726e-09
-9.546716e-09 7.271757e-09 1.793232e-11 -8.214795e-09 7.726048e-10 2.316893e-09
-1.398539e-08 1.324935e-08 -4.189254e-09 -1.344259e-08 4.977047e-09 8.378701e-09
3.025550e-09 -1.451801e-10 -7.258492e-10 -4.607142e-09 -2.980159e-10 -7.947287e-11
1.474531e-09 -5.338924e-11 -5.256304e-10 -3.912620e-09 -3.520224e-10 5.281353e-11
3.787327e-09 -1.171755e-09 -6.295240e-10 -4.166365e-09 -3.410414e-10 -1.225614e-10
3.712961e-09 -8.548948e-10 -5.916294e-10 -4.020082e-09 -1.862839e-10 2.201517e-11
2.949793e-09 -4.640042e-10 -6.115675e-10 -3.639876e-09 -3.308415e-10 7.728107e-11
1.433850e-09 -1.905400e-10 -4.504521e-10 -3.810392e-09 -2.529148e-10 -9.326623e-11
4.337654e-09 -2.360221e-09 -5.899845e-10 2.193392e-09 2.239483e-10 -1.076320e-10
3.939472e-09 -1.487141e-09 -4.035587e-10 2.790960e-09 1.361765e-10 -3.171865e-10
5.837311e-09 -2.386589e-09 -5.908154e-10 2.730773e-09 2.068838e-10 -4.831976e-10
-2.597733e-09 -4.307750e-09 1.777412e-09 -4.889747e-09 4.145966e-10 -7.873053e-10
-3.617079e-09 -9.422030e-10 9.975958e-10 -4.523666e-09 7.531634e-10 -1.687897e-10
-4.260758e-09 -2.200170e-09 1.760056e-09 -4.431730e-09 1.727777e-10 -5.629561e-10
-3.327063e-09 -4.466775e-09 1.862047e-09 -6.411472e-09 5.610191e-10 -5.329461e-10
-4.437357e-09 -1.056621e-09 9.017160e-10 -6.707935e-09 4.785740e-10 9.486446e-11
-3.287633e-09 1.266418e-09 7.951830e-10 5.887397e-10 2.541042e-10 -3.044372e-10
-3.395037e-09 1.276020e-09 6.688285e-10 5.692418e-10 1.576417e-10 -3.590486e-10
1.926757e-10 2.209399e-09 -9.421051e-10 -5.552354e-09 -6.933175e-10 5.209949e-10
-2.920861e-09 1.280269e-09 5.927923e-10 1.057242e-09 8.509016e-11 -3.234174e-10
-3.216318e-09 1.395098e-09 5.046457e-10 9.282735e-10 8.711254e-11 -1.412070e-10
-2.592348e-09 1.192318e-09 4.476490e-10 1.225376e-09 1.734894e-10 -2.665776e-10
-2.872842e-09 1.210440e-09 6.337266e-10 9.428289e-10 1.820573e-10 -8.321965e-11
-2.233401e-09 1.261975e-09 4.293463e-10 1.382408e-09 2.382068e-10 -1.544375e-10
-2.463281e-09 1.264949e-09 3.712799e-10 9.015300e-10 1.120157e-10 -1.549807e-10
-1.251703e-08 1.142973e-08 -1.237602e-08 -1.227926e-08 1.204330e-08 1.120991e-08
-3.143181e-09 1.222320e-09 5.615961e-10 6.181722e-10 1.194047e-10 -2.318172e-10
-5.322176e-09 5.484853e-09 8.591980e-10 1.415644e-09 -8.522110e-10 -8.155111e-10
-9.300412e-09 1.135740e-08 -4.317058e-10 -4.971873e-10 1.775485e-10 2.706083e-10
1.163579e-08 -6.889964e-09 3.191852e-08 3.670751e-09 -3.454718e-09 -2.414950e-08
1.175073e-08 -3.144298e-09 2.937390e-08 5.734175e-09 -4.348483e-09 -2.296319e-08
4.213151e-08 -3.683891e-09 1.348578e-08 1.029170e-08 -6.462149e-09 -3.840144e-08
2.223180e-08 -5.865262e-09 1.419561e-08 -5.418878e-09 4.730576e-09 -2.231859e-08
1.315507e-08 5.240044e-09 5.921086e-09 -1.469111e-08 4.248311e-09 -1.368340e-08
1.776042e-08 -4.293364e-09 1.994481e-08 -9.791754e-09 5.160754e-09 -1.776116e-08
1.762663e-08 -7.954692e-09 1.133811e-08 -5.624393e-09 3.839090e-09 -1.360839e-08
1.327750e-08 -4.922314e-09 1.179432e-08 4.857149e-09 -5.418918e-09 -1.517152e-08
1.552195e-08 1.156114e-08 -1.123515e-10 2.555411e-08 1.387286e-08 4.871507e-09
1.103612e-08 1.033079e-09 1.207315e-09 -1.343131e-08 4.826183e-09 -7.509516e-09
1.268511e-08 -2.856831e-08 -4.768558e-08 5.096630e-08 7.429292e-08 -3.679328e-08
-9.321553e-09 -1.833145e-08 -1.645196e-08 4.704313e-08 4.100559e-08 -2.510556e-08
-1.453021e-08 2.717658e-08 -3.635657e-08 4.090857e-08 3.414821e-08 -3.526772e-08
1.067997e-08 2.097283e-08 -5.213672e-08 2.246370e-08 4.379963e-08 -2.241176e-08
2.021601e-09 9.108208e-09 -3.736492e-08 2.220893e-08 3.277638e-08 -1.985234e-08
-1.483737e-09 -8.343237e-09 -8.725213e-10 -1.048613e-08 2.766127e-09 1.283055e-09
-1.164201e-08 7.997723e-09 -1.952761e-09 -7.670871e-09 1.968312e-09 3.184271e-09
-1.626641e-08 2.888530e-08 -1.820831e-08 2.051356e-08 1.381352e-08 -2.682030e-08
-1.445161e-08 4.294901e-08 -3.411807e-08 6.029793e-09 2.470256e-08 -2.523037e-08
-1.342051e-08 4.167698e-08 -8.046139e-08 2.745555e-08 4.740082e-08 -4.725362e-08
9.869797e-09 -3.912922e-09 -5.651382e-10 2.170637e-09 2.394900e-10 -1.503339e-09
1.188617e-08 -4.862299e-09 1.288312e-10 1.028793e-09 7.038198e-11 -2.658955e-09
1.189817e-08 -4.676003e-09 -1.242765e-09 6.214788e-10 3.647902e-10 -2.032299e-09
1.300742e-08 -4.914363e-09 9.239352e-10 3.272133e-09 -1.565912e-10 -4.397956e-09
1.287722e-08 -4.732249e-09 -6.978805e-10 1.027804e-09 8.421182e-11 -2.764294e-09
4.737950e-08 -1.022447e-07 -9.247423e-08 5.887458e-08 2.070066e-07 -4.926353e-08
4.096383e-08 -1.758850e-07 -6.379576e-08 9.286900e-08 1.970774e-07 -6.136746e-08
-1.417817e-08 2.100846e-08 -1.166410e-08 -1.666719e-08 1.079138e-08 1.627721e-08
4.084131e-08 -1.185161e-07 7.052478e-09 4.198862e-08 7.805805e-08 -1.712690e-08
5.865219e-09 -2.886047e-09 -8.625750e-10 -2.444392e-09 -9.940381e-11 9.090293e-11
1.950313e-08 -4.900216e-08 -7.756174e-08 4.115828e-08 1.206533e-07 -4.408221e-08
2.473111e-08 -3.409334e-08 -4.017972e-09 1.397026e-08 3.076104e-08 -3.913339e-09
2.346208e-08 -7.628033e-08 -1.384133e-08 2.688842e-08 5.160698e-08 -9.164215e-09
2.633081e-08 -2.565160e-08 -2.254199e-08 2.245543e-08 5.288937e-08 -1.402991e-08
2.600695e-08 -2.335461e-08 -1.691028e-08 2.278784e-08 5.666133e-08 -1.394139e-08
1.990851e-08 -4.486098e-08 -1.623046e-08 4.656098e-09 2.703971e-08 -2.187175e-09
1.935313e-08 -4.489712e-08 -1.289970e-08 4.460316e-09 2.734331e-08 -2.266205e-09
1.466926e-08 -1.930818e-08 -8.972412e-09 8.173882e-09 1.169170e-08 -1.873973e-09
1.722085e-08 -2.499884e-08 -1.422797e-08 3.600044e-09 1.618085e-08 -1.321378e-09
1.563310e-08 -3.543416e-08 -5.599311e-09 3.366579e-10 1.560026e-08 6.046017e-10
-1.036974e-08 1.480995e-08 -4.305040e-09 -4.895083e-09 -3.444962e-10 -4.244536e-09
-2.669250e-10 2.220769e-08 -5.948143e-09 -1.312357e-08 -1.278839e-09 -2.448240e-09
-9.977984e-09 3.209997e-08 -6.571722e-09 -1.084006e-08 -2.277873e-09 -5.984153e-09
-1.327747e-08 1.834898e-08 -2.633302e-09 -1.083860e-08 3.529181e-09 -5.309370e-09
-4.939787e-08 1.114364e-07 2.867869e-08 -2.155724e-08 -8.573239e-08 -3.426728e-08
-5.096048e-08 1.200572e-07 6.890740e-08 6.570853e-09 -1.282196e-07 -5.665144e-08
-3.112357e-08 1.255796e-07 7.662832e-08 -1.124642e-08 -1.353773e-07 -4.121274e-08
-5.459699e-08 8.738947e-08 -4.812316e-08 -4.404191e-08 -1.587173e-08 -3.263464e-08
2.354819e-10 2.430020e-09 -1.141343e-10 4.757309e-09 2.351859e-10 -8.801658e-10
2.232150e-09 1.565663e-09 2.717604e-10 5.097368e-09 1.542189e-10 -1.322961e-09
4.598677e-11 6.218905e-10 5.337686e-11 3.457415e-09 3.279066e-10 -6.851298e-10
-8.073907e-10 2.326077e-09 -1.386569e-10 3.825389e-09 2.860132e-10 -4.736591e-10
4.339300e-09 -1.944134e-09 -6.606615e-10 -3.190185e-09 -1.559471e-10 -1.480878e-10
5.047912e-09 -1.975947e-09 -7.265339e-10 -3.366970e-09 -1.077761e-10 1.025746e-11
4.780803e-09 -1.754966e-09 -6.186180e-10 -3.320661e-09 -2.918991e-10 -7.909262e-11
4.851656e-09 -1.741248e-09 -8.515981e-10 -3.280001e-09 -2.555031e-10 1.567003e-10
7.049558e-09 -2.886051e-09 -8.382821e-10 -2.637806e-09 -6.857581e-11 -7.968825e-11
4.984686e-09 -2.075463e-09 -8.377026e-10 -3.305275e-09 -3.243438e-10 8.994428e-11
5.930849e-09 -2.899413e-09 -8.354737e-10 -2.452561e-09 -7.831369e-11 1.690916e-10
-1.031085e-08 6.849559e-09 -1.070910e-08 -1.519512e-08 9.427266e-09 9.053669e-09
-9.605704e-09 1.533730e-09 -5.829914e-11 -1.065620e-08 2.109763e-09 2.935346e-09
-1.822267e-10 1.057728e-09 -2.329972e-10 -3.188941e-09 -4.678968e-10 -5.713952e-11
-8.929515e-09 5.596806e-09 1.066711e-09 -3.615379e-09 -8.619963e-11 2.095599e-10
-9.169727e-09 4.851395e-09 1.452614e-09 -2.654988e-09 4.014014e-10 4.196994e-10
-1.152730e-08 7.855531e-09 -3.559281e-10 -3.296770e-09 1.034219e-09 8.988171e-10
-1.031085e-08 1.976255e-08 -8.419752e-09 -1.104211e-08 3.868788e-09 7.637492e-09
-8.982362e-09 6.339034e-09 -5.889054e-10 -5.292066e-09 1.128193e-09 1.206453e-09
-8.725507e-09 2.280700e-09 1.906652e-09 -5.032931e-09 5.859906e-10 5.004125e-10
-8.963499e-09 6.066678e-09 -4.838419e-10 -5.191302e-09 1.919703e-09 1.281094e-09
2.890164e-08 -4.169427e-09 1.517649e-08 1.283108e-08 -6.932079e-09 -3.627531e-08
5.628008e-09 1.469135e-08 2.992239e-08 2.424297e-08 -2.007231e-08 -3.882115e-08
1.312283e-08 1.260998e-08 2.715037e-08 3.172284e-08 -2.315481e-08 -3.559462e-08
1.593019e-08 1.708739e-09 4.552558e-09 1.484162e-08 -5.779260e-09 -2.040130e-08
1.537558e-08 -5.462717e-08 -7.758396e-10 -3.108469e-08 3.657780e-08 1.139059e-08
-3.952388e-08 2.368087e-08 1.718166e-08 -3.355645e-08 -3.425581e-08 4.628964e-09
1.294940e-08 -2.815025e-08 -9.078932e-09 -1.954950e-08 2.231259e-08 5.039575e-09
1.647058e-10 -3.386323e-09 -5.023279e-09 -2.128511e-08 1.357490e-08 8.396502e-09
3.746645e-09 -2.835294e-08 -1.004062e-08 -2.408555e-08 2.316433e-08 8.556696e-09
1.020971e-08 -1.608278e-08 -1.819691e-08 -3.416862e-08 3.106483e-08 1.914753e-08
5.173811e-08 2.118041e-07 -8.649910e-08 7.331520e-08 -1.913766e-07 -2.333743e-07
2.505527e-09 1.631524e-09 8.815089e-09 -2.877425e-09 -8.376057e-09 -4.241065e-08
-3.835262e-08 2.904918e-08 1.158693e-07 -2.987943e-08 3.322948e-08 -6.330615e-08
-5.734897e-09 -1.441893e-09 6.172233e-08 -3.149265e-08 2.054674e-08 -4.310896e-08
-6.331429e-09 -4.552706e-09 4.013745e-08 5.379145e-09 -1.706949e-08 -2.104687e-08
-4.327942e-09 4.773689e-09 -1.142767e-09 -4.838270e-09 -1.312679e-09 2.024892e-09
-4.075455e-09 3.142413e-09 -7.110617e-10 -3.627819e-09 -1.130595e-09 1.041014e-09
2.436644e-09 -6.682527e-10 -4.716290e-10 -2.883072e-09 -2.654737e-10 -4.500862e-10
-4.094131e-09 4.569048e-09 -2.285357e-09 -3.417860e-09 -1.647911e-09 1.307855e-09
-1.361279e-09 4.208038e-09 -1.622061e-09 -6.421417e-09 -1.123944e-09 1.100218e-09
-1.085191e-09 1.385704e-09 -1.339340e-10 -2.238719e-09 -1.470986e-10 -2.316345e-10
-5.701330e-09 4.008736e-09 -6.895116e-10 -3.393650e-09 -1.303710e-09 1.646331e-09
-2.298343e-09 3.855053e-09 -2.457923e-10 -5.168390e-09 -9.839571e-10 1.907929e-10
-4.381523e-09 4.806450e-09 -8.420141e-10 -4.081663e-09 -9.543538e-10 1.032485e-09
-1.068719e-08 7.598858e-09 6.757617e-10 -1.972447e-09 4.418741e-11 7.266290e-10
-3.249364e-10 -1.012356e-08 2.692681e-09 1.104321e-08 1.887732e-09 -4.455504e-10
-2.776612e-09 -8.315377e-09 2.559438e-09 9.324367e-09 1.521641e-09 5.033629e-12
-6.342480e-10 -1.270891e-08 1.660855e-09 1.193344e-08 3.244189e-09 -8.247568e-10
-5.941814e-10 -9.709475e-09 -6.247394e-10 1.346439e-08 5.451753e-09 -1.341132e-09
-1.061270e-09 -9.730535e-09 -3.007674e-10 1.269304e-08 3.834883e-09 -1.756135e-09
-2.966766e-09 -1.167133e-08 1.676754e-09 1.045359e-08 3.245503e-09 -5.518890e-10
-2.192790e-09 -8.822682e-09 1.784991e-09 1.513621e-08 3.576851e-09 -2.524448e-09
7.990489e-09 -9.891739e-09 -1.231796e-08 9.255729e-09 -1.128214e-08 4.199479e-09
1.049796e-08 -1.929906e-08 -1.652574e-08 7.612917e-09 -2.021076e-08 4.722364e-09
8.502740e-09 -1.314799e-08 -1.351389e-08 6.249994e-09 -1.373708e-08 3.400537e-09
-5.683304e-09 3.053195e-09 -1.183549e-08 1.525156e-08 -1.658507e-08 1.253902e-08
-5.463437e-09 1.043324e-08 -1.427661e-08 7.911545e-09 -1.206364e-08 1.115932e-08
1.736690e-09 -2.814927e-09 -8.825101e-09 1.183341e-08 -1.339574e-08 9.333794e-09
1.747363e-09 -2.124194e-09 -1.626983e-08 1.159644e-08 -1.477191e-08 8.957717e-09
8.367591e-09 -1.319823e-08 -1.532211e-08 1.032993e-08 -1.483653e-08 6.408057e-09
-5.456201e-09 -3.326620e-09 -9.894588e-09 1.156044e-08 -1.138047e-08 8.903317e-09
-5.297407e-09 1.170881e-08 -2.006393e-09 -7.886239e-09 2.874646e-10 4.652641e-09
5.213407e-10 8.310968e-09 7.597312e-09 -1.353385e-08 6.827842e-09 -3.719109e-09
9.641779e-09 7.193427e-09 8.955790e-09 -2.055166e-08 1.118505e-08 -1.314913e-08
3.019700e-10 7.762971e-09 6.611810e-10 -1.650440e-08 5.350061e-09 -2.037105e-09
-1.884921e-09 1.971338e-08 3.591631e-08 2.291633e-08 -2.236786e-08 -2.595397e-08
6.369584e-09 -3.331748e-09 -5.687895e-10 1.820112e-09 3.429401e-11 -1.341273e-10
5.921320e-10 3.574368e-09 3.996811e-08 8.473981e-09 -1.320897e-08 -2.378615e-08
7.398459e-09 1.205613e-07 -1.352044e-07 -6.853355e-09 3.161950e-08 -4.375518e-08
-7.499352e-08 2.219213e-09 -2.412643e-07 -1.076274e-07 2.752707e-07 1.142319e-08
1.332245e-08 1.643794e-07 -1.809748e-07 4.443776e-08 6.772423e-09 -1.104196e-07
-7.362853e-09 9.079901e-09 6.016507e-10 1.259051e-09 -3.078640e-10 -1.532422e-09
-3.177788e-09 7.390520e-09 1.234152e-09 5.658508e-09 -8.480602e-10 -3.261313e-09
-3.619063e-09 7.687455e-09 1.591868e-09 5.548145e-09 -1.465607e-09 -2.363273e-09
-5.419342e-09 5.435929e-09 6.676719e-10 2.134458e-09 6.524123e-13 -5.402995e-10
-6.709600e-09 5.278018e-09 1.315929e-09 2.774302e-09 -1.269650e-09 -1.202753e-09
-6.548050e-09 5.578896e-09 1.452242e-09 3.015108e-09 -5.968090e-10 -8.707969e-10
-5.286848e-09 6.303612e-09 4.564100e-10 1.650350e-09 8.877420e-11 -7.635420e-10
-3.722918e-10 -1.060759e-08 -9.143273e-09 2.094346e-08 -3.491683e-08 2.620894e-08
3.814745e-09 5.207605e-09 -2.709460e-08 1.204192e-08 -4.922903e-08 3.214468e-08
1.445849e-08 7.318478e-09 -5.076174e-08 2.014314e-08 -5.491644e-08 1.457734e-08
9.870858e-09 -1.038493e-09 -4.184523e-08 1.279994e-08 -3.803919e-08 2.045254e-08
-7.335746e-09 4.293357e-09 1.537415e-10 -3.986397e-09 1.228587e-09 8.547589e-10
-6.432813e-09 3.551022e-09 4.957674e-10 -2.074258e-09 -1.603877e-10 -5.947052e-10
-6.275396e-09 1.632706e-09 1.044202e-09 -2.550600e-09 2.990318e-10 -6.867220e-11
-4.870873e-09 1.433923e-09 9.383017e-10 -3.213372e-09 5.904592e-10 -1.747163e-10
-4.440902e-09 -6.775016e-10 8.674483e-10 -4.312544e-09 7.902234e-10 1.652923e-10
-4.712414e-09 -3.852559e-09 1.614234e-09 -7.466818e-09 8.042048e-10 2.311101e-10
-4.258899e-09 -2.006629e-09 1.349261e-09 -5.679562e-09 2.381230e-10 -2.199441e-10
-4.904621e-09 -1.473339e-09 1.562256e-09 -7.162340e-09 5.881196e-10 7.480007e-11
-5.826099e-09 -3.334568e-10 7.172765e-10 -5.132876e-09 7.032661e-10 3.883606e-10
1.562017e-08 -2.462307e-08 -1.937648e-08 -2.984177e-09 -2.544949e-08 8.662599e-10
1.456417e-08 -1.927102e-08 -1.633628e-08 1.204423e-10 -1.735629e-08 9.849341e-10
1.658750e-08 -3.754288e-08 -4.613029e-09 -6.506708e-09 -2.102018e-08 -1.867833e-09
1.711577e-08 -2.804307e-08 -1.688290e-08 -5.205034e-09 -2.183336e-08 -6.699912e-10
1.713471e-08 -3.292901e-08 -1.891584e-08 -5.163201e-09 -3.214664e-08 -1.322215e-09
1.467816e-08 -3.327423e-08 -3.456172e-09 9.787555e-10 -1.847261e-08 5.130745e-10
1.267660e-08 -1.940230e-08 -1.698927e-08 7.694610e-09 -1.999199e-08 4.561604e-09
1.250546e-08 -1.730874e-08 -1.626156e-08 3.839885e-09 -1.622615e-08 2.500484e-09
1.263007e-08 -2.576439e-08 -6.553248e-09 7.569238e-09 -1.401052e-08 3.952069e-09
1.461709e-08 -2.274687e-08 -1.903772e-08 2.230094e-09 -2.417450e-08 3.291560e-09
1.663828e-08 -3.070685e-08 -7.492140e-09 1.903351e-09 -2.271804e-08 1.872964e-09
1.665655e-08 -2.376050e-08 -1.848036e-08 1.393642e-09 -2.365341e-08 2.220674e-09
1.548434e-08 -1.352747e-08 -3.953259e-08 9.119297e-09 -4.162442e-08 1.316235e-08
1.666655e-08 -1.839196e-08 -1.511545e-08 1.037975e-08 -2.801676e-08 8.155650e-09
2.039248e-08 -1.956165e-08 -1.903725e-08 1.055594e-09 -3.303117e-08 5.264522e-09
1.681268e-08 -3.564277e-08 -2.014146e-08 1.316721e-08 -3.916474e-08 1.109688e-08
2.334794e-08 -1.315402e-08 -2.669527e-08 1.151335e-08 -4.043988e-08 1.232616e-08
5.879481e-09 2.091609e-10 1.665390e-09 -9.472249e-09 1.379675e-09 -2.570928e-09
1.088514e-08 1.269821e-10 1.932984e-09 -1.273582e-08 4.843877e-09 -4.695680e-09
-3.478828e-09 7.980075e-09 -1.014946e-09 -1.129401e-08 2.891052e-09 2.273715e-09
1.414682e-08 -3.724888e-09 4.937342e-09 -1.062112e-08 4.657397e-09 -8.243943e-09
-2.028847e-09 8.754764e-09 -5.113633e-10 -9.885250e-09 2.319999e-09 1.009539e-10
-3.013777e-09 7.732200e-09 2.679776e-09 -1.135012e-08 1.532627e-09 1.488662e-09
4.931268e-09 4.606415e-09 -7.791472e-10 -1.136362e-08 1.605171e-09 -8.370160e-10
5.945450e-09 1.577247e-09 1.959479e-09 -9.940096e-09 9.563881e-10 -2.732904e-09
6.851525e-09 -3.435510e-09 -8.711019e-10 -1.072314e-09 -2.625924e-11 3.670028e-11
6.715862e-09 -3.648724e-09 -8.650444e-10 -1.245355e-09 -4.480761e-11 1.559730e-11
6.662539e-09 -3.149941e-09 -7.882668e-10 -1.030877e-09 -1.067451e-10 1.349543e-10
6.680097e-09 -3.563608e-09 -9.047245e-10 -1.252470e-09 1.310346e-11 1.392464e-10
7.113598e-09 -3.576961e-09 -8.748477e-10 -2.447951e-11 -5.070062e-11 1.558627e-10
3.328711e-09 -4.343059e-10 -7.725885e-10 -5.215769e-09 -1.207088e-10 -1.652263e-10
3.511255e-09 -1.149885e-09 -6.160972e-10 -4.046136e-09 -2.351934e-10 -2.243705e-10
3.704255e-09 -8.641901e-10 -5.627683e-10 -4.009793e-09 -1.922798e-10 1.927836e-11
3.997770e-09 -1.325166e-09 -5.384413e-10 -4.396484e-09 -1.765073e-10 -9.144707e-11
2.305065e-09 -1.204085e-10 -5.359480e-10 -4.680097e-09 -3.544587e-10 2.088231e-10
3.442564e-09 -4.410947e-10 -5.491625e-10 -5.237279e-09 -2.201088e-10 7.260681e-11
-4.647197e-09 2.729750e-09 7.547509e-10 -3.441743e-10 6.986223e-10 -3.671219e-11
-4.758752e-09 1.788004e-09 9.287249e-10 -7.323678e-10 -3.080294e-10 -6.539248e-10
8.336065e-09 -3.989819e-09 -5.307532e-11 1.572647e-09 7.364025e-12 -1.035191e-09
-3.070271e-08 2.771403e-08 -8.408247e-09 2.935482e-09 1.284344e-08 -2.239493e-08
-2.116546e-08 2.747471e-08 -3.065044e-08 1.530185e-08 2.625733e-08 -2.523526e-08
-3.921599e-08 7.198168e-08 -4.533876e-08 -1.780980e-09 -4.306706e-09 -3.846535e-08
-1.509135e-08 5.087769e-08 -5.889586e-09 -2.681284e-08 -1.531411e-08 -2.206742e-09
-1.809960e-08 3.723677e-08 -4.278115e-08 2.006690e-08 2.726266e-08 -3.137457e-08
-1.458959e-08 5.380908e-08 -7.627963e-09 -2.057364e-08 -1.136141e-08 -1.106694e-08
-2.419623e-08 5.281585e-08 -4.166211e-08 1.192743e-08 1.117532e-08 -3.276780e-08
-1.124004e-08 1.388942e-08 -6.313728e-09 8.776471e-09 4.743920e-09 -4.871547e-09
-1.037697e-08 3.217924e-09 -6.115117e-09 1.732892e-08 1.090725e-08 -8.334032e-09
-8.724509e-09 2.689331e-09 -2.098553e-09 1.278921e-08 7.995296e-09 -4.353641e-09
-1.112236e-08 4.244893e-10 -1.094284e-09 1.854310e-08 7.644987e-09 -7.258240e-09
-1.225204e-08 1.407278e-09 2.529673e-10 1.882716e-08 9.036933e-09 -7.725627e-09
3.617539e-08 -1.349982e-08 1.552196e-08 1.844955e-08 1.394172e-08 2.160459e-08
-6.108447e-10 1.011804e-09 -1.603686e-10 -1.987281e-09 -2.683567e-10 -5.902412e-11
4.959275e-08 -1.398156e-08 1.283291e-08 2.608814e-08 2.733765e-08 5.998761e-08
-2.019151e-09 -1.311773e-08 2.208710e-10 1.334415e-08 -1.114215e-08 4.846120e-09
3.839279e-08 -1.563885e-08 1.868918e-08 -4.346862e-09 -3.717512e-09 2.828367e-08
5.979140e-08 -2.126428e-08 5.612263e-08 -1.148594e-08 -2.556882e-09 6.384854e-08
4.179631e-08 -1.894924e-08 1.303901e-08 1.168923e-08 4.766508e-09 5.362055e-08
4.816569e-08 -3.286791e-08 5.739875e-08 1.444357e-10 -3.843959e-10 6.190115e-08
1.228880e-09 1.189940e-09 -1.753260e-10 -5.490195e-09 -1.533424e-10 -6.100563e-10
2.019025e-09 9.568472e-10 -9.380640e-10 -5.098204e-09 -7.183225e-10 5.305514e-10
5.734391e-10 3.298428e-10 -4.417531e-10 -4.310071e-09 -4.803502e-10 1.667018e-10
-2.212575e-09 1.892980e-09 -2.172899e-10 -3.971560e-09 -5.860352e-10 2.459574e-10
-2.480507e-09 2.025977e-09 -2.499341e-10 -3.581351e-09 -6.051462e-10 3.562863e-10
-6.287202e-10 2.112177e-09 -4.455321e-10 -4.432643e-09 -6.186115e-10 2.743317e-11
1.361842e-09 5.880239e-10 -3.136945e-10 -2.841934e-09 -2.286313e-10 -1.573724e-10
1.250861e-09 -7.564882e-11 -4.141443e-10 -2.931842e-09 -2.782036e-10 3.233969e-11
-3.955030e-09 -5.883538e-09 1.601880e-09 1.107119e-08 2.693945e-09 -5.749599e-10
5.426948e-11 6.784733e-10 -9.495560e-11 -2.745613e-09 -4.010887e-10 -1.569322e-11
1.084568e-09 6.378356e-10 -3.946339e-10 -3.526826e-09 -3.763699e-10 3.252143e-10
6.619718e-10 6.391712e-10 -4.473386e-10 -3.531110e-09 -4.144301e-10 -2.572064e-10
7.814549e-11 7.822525e-10 -2.202801e-10 -2.675000e-09 -1.807399e-10 1.450240e-11
1.840617e-10 3.378560e-10 -2.895586e-10 -2.781204e-09 -3.575717e-10 -3.969336e-11
-1.790341e-10 6.879929e-10 -7.689762e-09 -1.343876e-08 -1.445705e-08 -7.304689e-09
4.020204e-09 -1.060188e-09 -2.605867e-08 -1.720139e-08 -2.531115e-08 -1.190691e-08
5.054749e-10 -8.089616e-09 -1.460103e-08 -1.368664e-08 -1.550749e-08 -6.810804e-09
7.093971e-09 -1.245957e-08 -1.454968e-08 -1.445093e-08 -2.511123e-08 -8.922640e-09
7.182768e-09 -1.567241e-08 -1.332603e-08 -1.416369e-08 -2.255724e-08 -8.540649e-09
-5.807139e-10 3.162628e-08 -2.073972e-08 -1.672383e-08 -1.338954e-08 1.486506e-08
-3.677467e-09 4.246675e-08 -3.810370e-08 -4.131167e-09 -1.532815e-08 2.849851e-08
-2.403072e-08 2.741873e-08 -5.179430e-08 4.102653e-08 -6.119730e-08 4.562829e-08
-2.066040e-08 9.856192e-08 -5.789838e-08 2.961145e-08 -1.545257e-08 4.715445e-08
-2.916901e-08 -1.912962e-08 -3.243109e-08 5.835008e-08 -5.081910e-08 4.709254e-08
1.438516e-08 -3.317742e-08 -5.384757e-09 -5.545196e-09 -2.075863e-08 4.832770e-10
4.902954e-09 -2.298953e-08 8.083665e-10 -1.225838e-08 -1.462624e-08 -5.142303e-09
9.343575e-09 -1.349161e-08 -8.695886e-09 -7.548537e-09 -1.215103e-08 -1.989744e-09
1.093947e-08 -1.492725e-08 -1.073474e-08 -6.578703e-09 -1.390778e-08 -3.034330e-10
5.323177e-09 -2.001834e-08 -1.008221e-08 -1.315542e-08 -1.971286e-08 -6.028590e-09
5.350028e-09 -1.299938e-08 -1.393715e-08 -1.231453e-08 -2.227153e-08 -6.929904e-09
1.075102e-08 -2.051874e-08 -1.658927e-08 -1.036859e-08 -1.964680e-08 -4.485602e-09
7.905300e-09 -1.946905e-08 -7.394515e-09 -1.144676e-08 -1.386945e-08 -2.963151e-09
-3.828940e-09 -1.629887e-09 -9.881233e-09 -1.096525e-08 -1.129229e-08 -6.168323e-09
-1.927462e-09 -5.591759e-09 -9.759577e-09 -1.043325e-08 -1.044697e-08 -5.509913e-09
-5.642873e-09 -6.998099e-09 -5.270199e-10 -1.473786e-08 -9.979816e-09 -3.657160e-09
-4.068591e-09 1.470806e-09 -7.680515e-09 -1.357607e-08 -1.310837e-08 -6.699966e-09
-1.087988e-09 -7.623464e-09 -7.962702e-09 -1.395574e-08 -1.497759e-08 -6.638115e-09
-3.291767e-09 -8.836436e-09 6.807355e-10 -1.512625e-08 -9.680320e-09 -5.342423e-09
-3.848000e-09 -2.119140e-10 -7.985613e-09 -1.113813e-08 -9.237194e-09 -6.627369e-09
-3.104078e-09 -1.011539e-08 -1.339773e-09 -1.368707e-08 -9.165457e-09 -4.075617e-09
-2.716578e-09 2.004902e-09 1.963167e-10 -1.686111e-09 -2.286205e-10 -1.669096e-10
-1.880908e-09 1.640174e-09 1.647837e-11 -2.089997e-09 -3.689624e-10 -2.704313e-10
-2.404121e-09 1.863738e-09 1.465408e-10 -2.414452e-09 -2.446701e-10 -1.013161e-10
-1.961732e-09 1.576517e-09 -1.107130e-10 -2.173079e-09 -2.574281e-10 -1.682652e-10
-1.312661e-09 1.574215e-09 -1.346990e-10 -2.189465e-09 -2.661933e-10 -1.458116e-10
-1.857662e-09 2.013715e-09 7.500356e-11 -1.947331e-09 -2.993460e-10 -2.261662e-10
-1.260540e-09 1.540694e-09 6.655121e-12 -2.222598e-09 -2.225649e-10 2.699196e-11
1.047176e-08 -4.453435e-09 4.973990e-10 -3.523685e-09 -1.041109e-10 -2.340860e-09
1.131336e-08 -2.407670e-09 1.079621e-09 -6.939555e-09 5.632872e-10 -2.872108e-09
9.985959e-09 -4.716674e-09 1.036221e-09 -1.857190e-09 2.371012e-10 -2.089822e-09
1.183287e-08 -4.678572e-09 8.870678e-10 -2.134178e-09 1.867821e-10 -1.913596e-09
9.323085e-09 -3.385372e-09 4.339900e-10 -4.558656e-09 8.723023e-10 -2.042799e-09
1.063760e-08 -4.136806e-09 -6.003277e-10 -2.916009e-09 4.789302e-11 -1.074008e-09
-9.343382e-08 5.581549e-08 1.737929e-07 -1.448799e-08 -3.183568e-08 -1.287757e-07
-3.387684e-08 6.382791e-08 -2.225008e-08 -1.169700e-08 1.330865e-08 -2.407459e-08
-3.814960e-08 7.994010e-08 1.666759e-08 -5.528257e-08 6.970302e-08 -3.748388e-08
-4.596215e-08 1.273505e-08 1.592533e-07 -2.773661e-08 2.232566e-08 6.675194e-09
-4.326152e-08 1.259061e-08 1.422884e-07 -2.547533e-08 2.547180e-08 -8.690284e-08
-4.009936e-08 7.715791e-08 1.874857e-07 -1.961205e-08 6.661572e-08 -4.959659e-08
-9.856026e-08 -1.337800e-08 1.717347e-07 -7.502414e-08 -4.443438e-08 -1.431566e-07
-8.048885e-08 4.413844e-08 1.654887e-07 -4.607796e-08 2.352773e-08 -1.371566e-07
-3.252251e-09 2.382534e-09 -6.229328e-11 -2.861584e-09 -5.652346e-10 2.290930e-10
-2.194974e-09 1.822906e-09 -1.360121e-10 -3.018207e-09 -5.186949e-10 -9.893287e-11
-2.206167e-09 1.852751e-09 6.347811e-12 -2.874307e-09 -4.244054e-10 2.455572e-11
-1.542127e-09 1.748704e-09 2.116840e-11 -3.101869e-09 -5.073086e-10 1.170531e-10
-2.085153e-07 1.115902e-07 2.223534e-07 -3.435199e-09 -2.253764e-07 -1.111992e-08
-2.233451e-09 1.754476e-09 9.655432e-11 -2.444077e-09 -4.861713e-10 -9.464784e-11
-2.196263e-09 1.787662e-09 -2.446154e-11 -3.050129e-09 -3.654442e-10 1.864573e-10
2.561389e-08 -1.898810e-08 -6.027934e-08 1.887464e-08 6.902766e-08 -1.227312e-08
2.574980e-08 -4.518160e-08 -2.574495e-08 -2.974361e-09 3.974904e-08 2.094802e-09
2.875443e-08 -8.232471e-09 -4.809942e-08 -3.488239e-09 4.985706e-08 -1.524306e-09
5.639161e-09 -2.879555e-09 -6.527999e-10 1.612784e-09 6.832920e-11 1.793715e-10
3.415849e-08 -6.498773e-08 -3.739136e-09 -7.406066e-10 4.497111e-08 -1.923890e-09
1.785457e-08 -2.101202e-08 -4.137317e-08 1.955524e-08 4.720067e-08 -1.400487e-08
2.571676e-08 -2.303936e-08 -4.041330e-08 2.348112e-08 5.061437e-08 -1.043032e-08
2.647833e-08 -3.396171e-09 -4.572415e-08 1.485616e-08 5.096273e-08 -6.572470e-09
2.824178e-08 -4.694905e-08 -2.614162e-08 2.158469e-09 5.463790e-08 5.495520e-09
1.050115e-08 2.013758e-08 -6.330396e-08 -1.376724e-08 -6.330391e-08 9.524630e-09
6.201306e-09 2.209835e-09 -7.100443e-08 5.675541e-09 -7.968667e-08 2.142547e-08
7.263898e-09 4.559965e-08 -3.245904e-08 -2.072175e-09 -1.021304e-08 1.384961e-08
6.485374e-09 4.154977e-08 -4.914151e-08 -2.812493e-10 -2.365296e-08 1.918008e-08
2.394178e-08 1.281469e-08 -5.001741e-08 7.794154e-09 -5.719928e-08 1.777706e-08
1.231204e-09 8.344441e-09 -3.575685e-08 1.302039e-08 -3.014522e-08 2.282427e-08
1.509023e-08 -3.571812e-08 -4.321340e-08 2.077457e-08 -6.532606e-08 1.727025e-08
1.473594e-08 -2.808693e-08 -1.053863e-08 -1.833989e-08 -4.108257e-08 -1.025857e-08
2.766053e-09 -1.912943e-08 -2.139848e-08 -2.306617e-08 -3.769147e-08 -1.350062e-08
4.583265e-09 -3.363577e-08 -9.703931e-09 -2.777846e-08 -3.675881e-08 -1.771694e-08
5.515796e-08 -1.580685e-08 7.544897e-08 -4.246424e-08 -4.836421e-08 1.147394e-07
2.919770e-08 -2.062546e-08 2.369562e-08 -9.070610e-09 7.842306e-10 3.195710e-08
3.972677e-08 -1.958098e-08 6.240312e-08 7.906187e-09 -8.581985e-09 5.628109e-08
6.797601e-08 -1.414608e-08 1.482219e-08 -2.815099e-09 4.624377e-09 5.697880e-08
3.791796e-08 -1.885384e-08 6.629189e-09 -3.254489e-08 -6.758675e-09 4.643299e-08
3.650464e-08 -1.017026e-08 3.392342e-08 -3.061834e-08 -2.617682e-08 4.757357e-08
5.169808e-08 -2.138987e-08 6.877972e-08 1.374687e-08 5.043037e-09 7.886275e-08
-1.581104e-09 2.647608e-09 1.698360e-09 5.037173e-09 -6.221373e-10 -2.097713e-09
4.660534e-09 5.119197e-10 1.184277e-10 6.284162e-09 -3.729889e-10 -3.085397e-09
8.845897e-10 5.961008e-10 1.857666e-09 5.976540e-09 -6.100737e-10 -2.716860e-09
-1.172693e-10 4.793005e-09 1.336720e-09 6.839603e-09 -7.535113e-10 -2.071512e-09
1.854907e-09 4.553908e-09 -3.054517e-10 8.147874e-09 -1.163150e-09 -1.993840e-09
-2.220595e-08 2.278390e-08 -2.969857e-09 -8.398942e-09 6.434018e-09 9.928741e-09
-1.538473e-08 1.346103e-08 2.462511e-09 1.883319e-09 -3.574073e-09 3.457420e-10
-2.656878e-08 2.148264e-08 -4.194682e-09 -4.985151e-09 4.650402e-09 1.224083e-08
-1.442962e-08 1.164377e-08 -6.031670e-10 2.002985e-09 -4.174552e-10 1.663644e-09
-1.828617e-08 2.709012e-08 -9.397894e-09 -1.290152e-08 4.998042e-09 1.254285e-08
-1.370431e-08 1.649496e-08 -4.712572e-09 -5.104896e-09 1.324115e-09 7.404522e-09
-2.257808e-08 1.791245e-08 -2.249705e-09 -1.173630e-08 4.903113e-10 1.259118e-08
-5.478517e-09 1.479199e-09 -5.047060e-09 2.509261e-09 -4.827147e-09 3.119461e-09
-6.828742e-09 7.942622e-09 -6.960287e-09 4.747623e-09 -8.432863e-09 8.659866e-09
-8.227205e-09 5.600207e-09 -4.563789e-09 -5.493383e-10 -4.149012e-09 4.481815e-09
-6.867321e-09 6.877989e-09 -4.426230e-09 8.998504e-10 -3.644066e-09 4.921890e-09
-6.740153e-09 7.920658e-09 -4.643545e-09 4.189757e-10 -3.322026e-09 4.600246e-09
-6.699783e-09 7.855998e-09 -9.397390e-09 4.727058e-09 -7.085556e-09 7.405398e-09
-5.884650e-09 4.412830e-09 -7.541263e-09 1.403876e-09 -6.291338e-09 5.307815e-09
3.226649e-08 -2.753773e-08 -4.077947e-08 -3.067320e-09 -7.982635e-08 -2.113720e-09
2.620348e-08 -2.027635e-08 -4.716671e-08 -9.462751e-09 -6.641025e-08 5.164937e-09
2.573120e-08 -3.742234e-11 -7.322413e-08 4.693794e-09 -7.745239e-08 2.221863e-08
7.172642e-09 4.186080e-08 -4.520843e-08 -1.393479e-08 -1.800661e-08 -6.770234e-09
1.587797e-08 1.124457e-08 -5.571259e-08 7.438036e-09 -4.656407e-08 1.552037e-08
1.236087e-08 4.128398e-08 -5.268033e-08 -1.201704e-08 -2.176724e-08 -8.307292e-09
2.186019e-08 -2.188506e-08 -3.987694e-08 -3.566822e-09 -4.316123e-08 4.161168e-09
2.439318e-08 3.586403e-08 -5.675367e-08 -1.259788e-08 -1.672544e-08 -5.035911e-09
1.819462e-08 4.461780e-08 -9.245744e-08 -9.644370e-10 5.886007e-08 -4.659027e-09
5.225652e-08 -6.000072e-08 -1.014784e-07 -3.887177e-08 1.140398e-07 2.982255e-08
5.512763e-08 4.685658e-09 -8.536072e-08 -5.411962e-08 1.666750e-07 1.302047e-08
3.725175e-08 -4.086518e-08 -7.870415e-08 -7.649564e-10 1.016685e-07 8.518884e-09
-2.255747e-08 1.041082e-07 -1.832866e-08 6.120995e-09 6.891194e-08 -3.179552e-09
-1.616919e-08 9.721932e-09 6.988661e-10 -4.037583e-09 -5.468902e-10 3.992645e-09
-2.052727e-08 5.715789e-08 -4.614015e-09 -1.496945e-08 -1.889731e-08 -9.064030e-09
8.592734e-09 8.994975e-08 -1.008111e-07 -6.753235e-09 -7.561301e-08 3.361518e-09
-8.732565e-09 3.061468e-08 -3.590905e-08 -1.990949e-09 -2.097877e-08 -1.558193e-08
-1.678476e-08 3.194720e-08 -2.918935e-08 -1.614167e-10 -1.696306e-08 -2.528137e-09
4.470823e-08 6.343315e-08 -8.401164e-08 -1.645245e-08 -6.945191e-08 -2.127538e-08
5.198453e-08 -1.309793e-08 7.740598e-08 3.032629e-08 4.187251e-08 7.375493e-08
7.747666e-09 4.462799e-08 -5.580694e-08 -1.780090e-08 -4.240299e-08 1.372277e-10
-5.441995e-08 9.438407e-08 -7.155615e-09 7.520428e-09 4.437624e-08 -3.338473e-08
-6.914087e-10 1.735729e-09 -2.087150e-10 -4.324262e-09 -5.901565e-10 9.501866e-11
-2.020708e-09 6.833439e-09 2.653248e-08 3.642373e-08 3.213836e-08 2.519326e-08
-2.412888e-10 9.700809e-10 -4.424149e-10 -3.946963e-09 -4.626341e-10 2.110380e-10
-4.903795e-10 1.439977e-09 -3.027978e-10 -3.502851e-09 -3.666454e-10 2.543121e-10
-3.381537e-09 2.022608e-09 1.337521e-10 -2.099036e-09 -4.909302e-10 -8.477008e-11
-2.322221e-09 1.875362e-09 1.430978e-10 -2.367690e-09 -3.590142e-10 -2.154914e-10
-1.824853e-09 1.729757e-09 -3.373613e-11 -3.014798e-09 -4.665484e-10 -8.220286e-12
-1.960404e-09 1.671723e-09 -1.840308e-10 -3.284787e-09 -6.499622e-10 -2.091376e-10
8.011559e-09 -3.122145e-10 -1.677627e-09 -9.487768e-09 1.632063e-09 -1.321355e-09
6.290342e-09 6.051178e-10 -7.704901e-10 -7.983549e-09 1.393984e-10 -1.244597e-09
6.447406e-09 -1.080115e-09 7.245355e-10 -7.716876e-09 3.892500e-10 -1.349497e-09
-4.682245e-09 6.308573e-09 -5.243943e-10 -7.247330e-09 2.432907e-10 2.309416e-09
3.201976e-09 4.585800e-09 -7.052834e-10 -1.108265e-08 1.413875e-09 -2.003489e-10
6.305305e-09 1.225408e-09 -1.748216e-09 -9.109040e-09 4.894250e-10 -1.210152e-09
4.750377e-08 -8.033823e-09 3.351034e-09 -1.429773e-08 -3.377496e-09 2.666630e-08
2.500897e-08 -1.789751e-08 2.656669e-08 -1.151965e-08 -1.247578e-09 2.185959e-08
3.961389e-08 -1.391872e-08 3.995098e-09 -5.796536e-09 -1.966740e-09 2.670509e-08
5.767078e-09 -2.431939e-09 -6.481526e-10 -3.654850e-09 -5.296841e-11 -2.130232e-10
5.160624e-09 -2.131127e-09 -6.377121e-10 -3.904031e-09 -2.196731e-10 -3.424072e-11
7.446924e-09 -2.245355e-09 -8.571076e-10 -4.914421e-09 5.915935e-11 -5.950060e-10
8.506144e-09 -3.407571e-09 -4.584331e-10 -2.778976e-09 -1.195667e-10 -8.542121e-10
9.877702e-09 -3.733240e-09 -1.288653e-09 -1.957482e-09 -4.644857e-11 -2.062217e-10
8.528840e-09 -4.014052e-09 -5.695497e-10 -1.394780e-09 -3.541073e-11 -9.293699e-11
5.490245e-09 1.804608e-10 1.851112e-09 -9.845440e-09 1.548414e-09 -2.835978e-09
-3.659730e-09 4.776859e-09 -1.360472e-09 -4.791322e-09 -1.304435e-09 2.227781e-09
-4.258916e-09 3.823935e-09 2.363221e-12 -3.844159e-09 -1.193407e-09 7.936154e-10
1.637239e-09 2.963692e-09 -3.456421e-10 -8.554846e-09 2.245742e-10 -3.839585e-11
-2.923452e-09 4.608050e-09 -1.073756e-09 -6.114001e-09 -1.047001e-09 1.498921e-09
-8.534093e-10 2.073820e-09 -1.069015e-09 -5.578005e-09 -1.282825e-09 1.307419e-09
3.042930e-10 2.849357e-09 -1.136102e-09 -7.332450e-09 -2.958615e-10 1.231894e-09
-1.279944e-07 4.088601e-08 1.666754e-07 5.917706e-08 8.099398e-08 1.260264e-08
-9.560518e-08 1.126908e-07 5.788008e-09 1.091084e-08 6.073710e-08 -2.197785e-08
-9.929078e-08 7.718224e-08 2.085742e-07 -7.832291e-09 1.507360e-07 -1.106897e-08
-9.893213e-08 2.567071e-08 9.009577e-08 -7.933189e-09 4.578132e-08 -1.712456e-08
-3.719022e-08 1.009701e-07 -3.676761e-08 -1.292052e-08 -7.463847e-09 -1.402825e-08
-1.748662e-08 1.222095e-08 4.887847e-08 -1.998397e-08 1.939484e-08 -2.302883e-08
-3.191196e-08 7.513077e-08 -3.660788e-08 -1.713344e-08 -7.385418e-09 -3.688059e-08
-2.525800e-08 7.849186e-08 -6.561228e-08 1.705082e-08 -3.282332e-08 -2.074402e-08
-1.253389e-08 6.368228e-08 -6.326613e-08 -5.579004e-10 -4.998557e-09 -2.132539e-08
-1.722517e-08 4.151035e-08 -2.601693e-08 4.140527e-09 -1.079357e-08 -1.695366e-08
2.712830e-12 1.737455e-11 -1.750401e-08 -1.346861e-08 -1.710098e-08 -8.132663e-09
-4.298510e-09 8.599924e-09 2.183098e-11 -8.023917e-09 1.498812e-10 1.244051e-09
-6.297813e-09 8.122800e-09 -3.177166e-09 -4.391389e-09 -3.009841e-09 4.491775e-09
-2.085136e-09 9.074857e-09 -3.499173e-10 -1.103377e-08 2.065788e-09 1.384102e-09
-2.789495e-09 1.398625e-09 4.477640e-10 7.949348e-10 1.095490e-10 -3.214395e-11
-3.175916e-09 1.257932e-09 7.152972e-10 4.559206e-10 7.242251e-11 -1.993350e-11
-2.601108e-09 1.325795e-09 3.896568e-10 1.025647e-09 1.640328e-10 -1.498792e-10
-2.469232e-09 1.222638e-09 4.501350e-10 9.177359e-10 1.428437e-10 -1.718881e-10
1.456741e-08 -4.136188e-08 -5.866826e-09 2.106408e-08 2.679962e-08 -5.809183e-09
2.238200e-08 -4.693195e-08 -2.014018e-09 4.504293e-09 2.964023e-08 -1.620141e-09
1.356933e-08 -3.779360e-08 -7.098704e-09 1.007379e-08 1.667452e-08 -3.434776e-09
1.943376e-08 -3.018089e-08 -5.622570e-09 2.372264e-09 1.648871e-08 -3.295518e-10
5.483711e-09 -2.484757e-09 -4.904630e-10 1.970408e-09 1.392503e-10 -5.229284e-11
1.944386e-08 -2.986072e-08 -2.005177e-08 1.461004e-08 2.874608e-08 -6.382961e-09
1.271660e-08 -2.604856e-08 -5.052777e-09 1.800601e-08 1.758330e-08 -2.485797e-09
2.509664e-08 -3.457484e-08 -2.619258e-08 1.422444e-08 3.417231e-08 -6.712110e-09
8.801363e-09 -2.244058e-08 2.128505e-09 -3.047415e-10 2.041356e-09 -8.870915e-11
1.251103e-08 -2.642858e-08 -3.467866e-09 1.421018e-09 6.290842e-09 -6.582513e-10
-3.310081e-09 6.824283e-10 8.654213e-10 4.293918e-10 1.851821e-10 -2.184745e-10
9.488256e-09 -2.283949e-08 1.818697e-09 -3.181088e-10 2.417285e-09 9.870349e-11
1.215122e-08 -2.623427e-08 -4.541932e-09 -6.307523e-10 7.535120e-09 3.150529e-10
1.189337e-08 -2.564568e-08 -2.010041e-10 1.692486e-09 5.281212e-09 1.245211e-10
8.887271e-09 -2.406660e-08 1.733650e-09 -3.444116e-09 3.562293e-09 3.454985e-10
9.961107e-09 -2.331347e-08 -1.455626e-09 -2.393351e-09 3.754096e-09 -3.882006e-10
5.435097e-09 -4.808788e-10 -7.899223e-10 -7.038604e-09 2.214774e-10 -7.109064e-10
5.433481e-09 -5.608246e-10 1.612399e-10 -6.966868e-09 5.763181e-10 -1.427467e-09
7.108228e-09 -5.205004e-10 4.505685e-11 -7.608446e-09 1.571583e-10 -9.366575e-10
-1.392934e-09 2.195662e-09 -5.734341e-10 -5.382970e-09 -6.822205e-10 8.198479e-10
3.838378e-09 -3.518704e-10 6.792005e-10 -7.677302e-09 3.357703e-10 -1.262149e-09
2.668963e-09 1.418205e-09 -5.358445e-10 -5.940054e-09 -2.566153e-10 -2.934150e-10
2.696657e-09 5.402031e-10 -4.225609e-10 -6.057405e-09 -1.661768e-10 -3.542533e-10
1.669599e-09 2.784297e-09 2.366891e-10 -8.526512e-09 4.719076e-10 -2.618822e-10
1.428925e-09 2.301115e-09 -1.675730e-09 -6.449591e-09 -1.178754e-09 2.034923e-09
-5.650157e-09 2.789069e-09 8.734697e-10 -5.100842e-09 8.936091e-10 -8.503146e-11
-7.268036e-09 1.235984e-09 4.991694e-10 -7.305551e-09 1.237233e-09 9.370348e-10
-7.396650e-09 4.223621e-09 -2.008218e-10 -4.052189e-09 6.569851e-10 3.866162e-10
-5.970463e-09 1.713341e-09 -5.039604e-10 -5.161336e-09 1.533840e-09 8.517599e-10
-5.724470e-09 4.326939e-10 -9.008350e-11 -7.045325e-09 1.064922e-09 1.555855e-10
-9.296869e-09 3.298947e-09 -1.614978e-08 1.524538e-08 -1.600638e-08 1.709941e-08
-4.390812e-09 1.826640e-08 -1.866932e-08 5.235343e-09 -1.694729e-08 2.344456e-08
-1.384183e-08 1.134094e-08 -1.229094e-08 1.731364e-08 -2.502226e-08 2.685627e-08
-8.668297e-10 -9.295986e-10 -1.509693e-08 1.153173e-08 -2.455734e-08 1.337777e-08
-9.152278e-09 1.274062e-08 -2.186880e-08 1.318959e-08 -2.147870e-08 2.810880e-08
-7.642751e-09 3.206010e-09 -1.352940e-08 1.427787e-08 -1.866434e-08 1.979541e-08
7.999251e-09 -3.837165e-09 -4.711598e-10 1.026583e-10 8.938265e-11 -7.415976e-10
8.758133e-09 -3.641979e-09 -1.814146e-10 1.989358e-09 -2.622958e-11 -9.746799e-10
8.611468e-09 -3.983850e-09 -6.163243e-10 1.388355e-09 8.814853e-11 -5.344505e-10
7.552644e-09 -3.638442e-09 -1.112453e-09 -1.212858e-10 9.884593e-11 -3.772671e-10
7.855273e-09 -2.977884e-09 -1.403042e-10 2.833427e-09 2.050013e-10 -9.597905e-10
7.086523e-09 -3.453699e-09 -4.952208e-10 1.711053e-09 2.788478e-11 -5.346046e-10
-2.693078e-09 4.846085e-09 3.473986e-10 6.107995e-09 -1.463367e-09 -2.685286e-09
-3.272464e-09 4.804779e-09 1.305734e-09 6.367814e-09 -9.385217e-10 -3.150087e-09
9.070167e-11 1.027500e-09 4.315307e-09 7.927836e-09 -2.181100e-09 -4.860413e-09
6.013165e-09 2.989630e-10 4.780900e-10 7.675330e-09 -7.138134e-10 -3.088671e-09
5.354127e-09 4.870080e-10 4.029685e-09 8.563267e-09 -1.747100e-09 -4.755944e-09
4.784789e-09 -1.522828e-09 -3.555670e-10 3.656004e-09 1.427281e-10 -6.202568e-10
3.690356e-09 -5.943933e-10 -2.093578e-10 4.001118e-09 4.389570e-10 -6.949650e-10
5.007927e-09 -2.399020e-10 -1.042019e-09 5.334939e-09 1.067736e-10 -8.460101e-10
6.928678e-09 -1.898567e-09 7.283174e-11 4.318605e-09 -7.496671e-11 -1.837333e-09
-5.865256e-09 4.474630e-09 -6.036311e-10 -1.053914e-09 -1.376013e-09 1.809080e-09
-5.603653e-09 4.181965e-09 -1.505205e-09 -1.223326e-09 -1.672913e-09 1.191122e-09
-4.804172e-09 3.317731e-09 -5.030691e-10 -2.056778e-09 -9.772176e-10 8.202248e-10
-5.264527e-09 2.008530e-09 -1.000038e-10 -1.125446e-09 -1.164970e-09 3.969691e-10
-4.688610e-09 2.883803e-09 -2.352293e-10 -2.011363e-09 -1.276095e-09 1.058802e-09
-4.835997e-09 2.775560e-09 -9.242860e-10 -2.117879e-09 -1.316110e-09 4.707172e-10
-3.855036e-08 1.079858e-07 3.099188e-08 -4.065957e-08 -5.799067e-08 -2.455322e-08
-1.705226e-08 3.298835e-08 -2.054660e-08 3.348852e-08 3.618213e-08 -5.385215e-08
-1.387304e-08 6.243887e-08 -4.124937e-08 2.337274e-08 2.499208e-08 -4.729359e-08
-2.125817e-08 1.777599e-08 -7.253852e-08 7.556803e-08 7.002746e-08 -7.344119e-08
7.600893e-09 1.161562e-09 -3.130101e-08 -1.836284e-08 -3.081833e-08 -1.530538e-08
1.929219e-08 -1.428613e-08 3.120412e-08 2.507178e-08 2.230266e-08 3.006250e-08
8.046954e-09 -5.916472e-09 -2.598127e-08 -1.776791e-08 -4.444651e-08 -1.882310e-08
-2.249630e-08 4.158466e-08 -1.993071e-08 -9.915698e-09 -3.487977e-09 -2.450843e-08
-6.691387e-09 3.173052e-08 -5.253736e-08 -2.189762e-08 -4.023238e-08 -2.712564e-08
-1.468283e-08 2.466784e-08 -4.472060e-08 -1.074280e-08 -2.656446e-08 -3.288483e-08
6.667233e-09 -2.121496e-09 -2.454860e-10 -4.963721e-09 -2.204721e-10 -3.886080e-10
4.891297e-09 -1.257725e-09 -4.161880e-10 -4.687267e-09 -1.008764e-10 -5.307413e-10
-3.434729e-09 2.421995e-09 -1.889737e-10 -3.132543e-09 -7.201226e-10 3.611376e-10
-3.434759e-09 2.426257e-09 -1.250549e-10 -3.128161e-09 -8.110417e-10 3.598979e-10
-2.829620e-09 3.075128e-09 -5.765521e-11 -4.625376e-09 -4.783978e-10 1.344544e-10
-2.511756e-09 2.188958e-09 -3.928946e-11 -4.110294e-09 -1.395367e-10 -4.987992e-10
5.909543e-09 -1.540151e-09 2.171222e-09 5.977611e-09 -4.867128e-10 -2.525879e-09
1.304435e-08 -3.071018e-08 -2.310355e-09 7.983890e-10 9.687681e-09 -6.508018e-11
1.385362e-08 -2.827888e-08 1.154588e-09 -1.542570e-09 9.077766e-09 8.212144e-10
1.158131e-08 -3.266731e-08 1.935876e-09 2.890656e-09 7.881241e-09 -2.418676e-10
1.013667e-08 -2.693670e-08 3.025299e-09 -1.643369e-09 3.357001e-09 4.273826e-10
1.213914e-08 -3.099974e-08 1.439657e-09 -4.122197e-09 7.784860e-09 4.064149e-10
5.186392e-09 -1.270404e-09 -6.586119e-10 -4.642769e-09 -1.595917e-10 -2.093541e-10
5.303363e-09 -1.104754e-09 -5.396441e-10 -5.082745e-09 -1.317639e-10 -1.695304e-10
3.066996e-09 -5.133848e-10 -3.594380e-10 -5.102569e-09 -3.702268e-10 1.868072e-10
5.019473e-09 -1.007020e-09 -8.179009e-10 -4.694048e-09 -2.824532e-10 1.031309e-11
3.740299e-09 -5.602567e-10 -4.010677e-10 4.313470e-09 3.237481e-10 -4.723421e-10
7.095868e-10 1.541025e-09 -3.135967e-10 -6.427453e-09 -1.192135e-11 -2.481975e-10
1.921232e-09 9.836062e-10 -8.206398e-10 -5.260771e-09 -6.061391e-10 4.679095e-10
1.832222e-09 3.536719e-10 -4.648786e-10 -5.312300e-09 -2.034788e-10 -3.379460e-10
-2.532775e-09 2.502596e-10 -1.192592e-08 1.789281e-08 1.161203e-08 -5.913849e-09
1.216975e-08 -3.278682e-08 -4.680166e-10 -8.100848e-09 -1.914498e-08 -4.318701e-09
1.007968e-09 -1.244410e-08 -1.519531e-08 2.187657e-08 1.910322e-08 -9.831955e-09
-4.972766e-09 -1.362176e-08 5.707768e-12 2.820962e-08 1.686627e-08 -8.520478e-09
-5.387771e-10 4.539948e-09 -1.410313e-08 2.155762e-08 1.467871e-08 -8.698079e-09
2.569749e-08 -2.758676e-09 1.450654e-08 -1.380005e-09 1.509621e-09 -2.883141e-08
2.179196e-08 -6.240609e-09 7.621858e-09 5.088002e-09 4.605628e-11 -1.501207e-08
1.196536e-08 -3.342204e-09 2.388254e-09 6.549975e-09 -8.958745e-10 -5.463095e-09
2.475343e-08 8.635249e-09 -4.205273e-08 -1.205827e-08 -6.821404e-08 -1.103352e-08
2.206212e-08 -9.351789e-08 -5.265088e-08 2.477648e-08 -1.092119e-07 2.240380e-08
-3.903170e-09 7.252093e-08 -3.468866e-08 -2.614808e-08 -6.424357e-09 -4.407863e-09
5.757093e-09 5.161694e-08 -5.436821e-08 -3.018460e-08 1.494954e-08 4.484296e-09
8.051775e-09 5.491379e-08 -8.690821e-08 -2.926262e-08 -8.926245e-08 -1.132270e-08
5.071542e-09 -2.458893e-09 -4.839293e-10 1.579838e-09 1.247555e-10 2.667475e-10
-2.113407e-09 2.642594e-09 1.400157e-09 4.927774e-09 -4.856709e-10 -1.637232e-09
-4.756525e-09 -1.197205e-09 7.474039e-10 2.527998e-09 -2.291340e-09 5.968689e-10
-4.853654e-09 8.052638e-09 -1.062430e-09 -6.447328e-09 -1.403237e-09 2.580768e-09
-7.206801e-09 6.603260e-09 3.687937e-10 -1.443607e-09 -1.096873e-09 2.726204e-09
5.239892e-09 -4.050470e-10 1.033627e-10 -6.697268e-09 -8.532641e-11 -8.290858e-10
-9.527313e-09 1.034267e-08 -3.148942e-09 -1.556643e-09 -4.259033e-09 7.780196e-09
-7.486999e-09 3.790310e-09 6.577983e-10 -2.343169e-09 -1.574024e-09 2.626204e-09
-1.052263e-08 2.625609e-09 -1.445631e-10 3.443368e-09 -5.723822e-09 6.015100e-09
-2.183175e-09 2.544845e-08 -1.723289e-08 3.740674e-09 -8.315756e-09 -1.408776e-08
-1.335964e-08 1.624595e-08 -1.569829e-08 -6.514153e-09 -1.093852e-08 -1.695464e-08
-2.995941e-09 2.632412e-08 -3.313980e-08 -2.704370e-09 -2.045886e-08 -1.583908e-08
-7.604332e-09 7.728629e-09 -1.961978e-08 -6.363282e-09 -1.706748e-08 -1.516836e-08
-5.314798e-09 5.478562e-09 -1.371904e-08 -1.288604e-08 -1.563780e-08 -1.465615e-08
-5.093160e-09 6.164272e-09 -2.249921e-08 -1.094995e-08 -2.184308e-08 -1.372203e-08
1.025048e-09 8.037762e-10 -5.182430e-10 -4.009033e-09 -5.750302e-10 1.559154e-10
-1.433091e-09 1.418218e-09 -4.553535e-11 -2.528273e-09 -3.124152e-10 -2.173476e-10
-1.860561e-09 1.629294e-09 1.154490e-10 -2.180890e-09 -3.313186e-10 1.191602e-11
-1.421492e-09 1.751017e-09 -3.231897e-10 -3.333014e-09 -3.778751e-10 2.233216e-10
-2.304754e-09 1.855534e-09 8.141710e-11 -2.263092e-09 -3.989491e-10 -1.081475e-10
-2.252879e-09 1.854565e-09 4.551470e-11 -2.151169e-09 -5.206491e-10 -1.197710e-10
-6.573888e-10 1.057998e-09 -1.495135e-10 -2.789010e-09 -3.534657e-10 -2.294178e-10
-9.470842e-10 1.686488e-09 -1.180740e-10 -3.738062e-09 -4.300156e-10 2.086371e-10
-6.733853e-10 1.339895e-09 -1.622480e-10 -3.030880e-09 -4.597793e-10 1.223527e-11
-5.890151e-10 1.315635e-09 -2.693756e-10 -2.427796e-09 -6.458332e-11 7.753331e-11
-5.703666e-10 7.330758e-10 -3.124279e-10 -3.381648e-09 -2.667211e-10 -2.879563e-11
9.335377e-11 6.475371e-10 -1.121359e-10 -2.659542e-09 -3.768475e-10 -6.066314e-11
-3.055783e-08 3.033552e-08 -2.653047e-09 -2.180440e-08 1.219149e-08 2.867838e-08
-1.292783e-08 2.875181e-08 -1.041664e-07 -6.240273e-08 9.668420e-08 6.840631e-08
-6.502185e-09 -3.250005e-08 -2.170465e-08 -6.816428e-08 9.867784e-08 5.666567e-08
-4.606091e-09 1.323421e-08 -1.466050e-08 -4.358769e-08 2.132660e-08 3.550176e-08
-8.450679e-10 1.209654e-08 -5.219090e-08 -4.416224e-08 5.128157e-08 4.401259e-08
-1.578692e-08 2.543571e-08 -1.381663e-08 -2.562787e-09 -1.035981e-08 2.060792e-08
-2.060044e-08 -1.131900e-09 6.514153e-10 1.276134e-08 -1.213515e-08 1.864614e-08
-4.294980e-09 1.580997e-08 -3.044052e-09 -9.060264e-09 1.500175e-09 4.480976e-09
-2.747069e-09 1.558175e-08 -4.646281e-09 -9.542427e-09 -3.008744e-10 6.365127e-09
-1.343124e-08 2.666545e-08 4.626837e-09 -1.673187e-08 1.073442e-08 1.452674e-09
-2.658341e-08 2.894241e-08 -1.732108e-08 1.118003e-08 -1.191615e-08 3.296086e-08
1.632307e-08 9.315146e-09 1.356108e-08 1.152906e-08 -7.805843e-09 -3.158204e-08
5.914650e-09 4.421311e-09 7.650028e-08 2.572388e-09 -2.682344e-08 -6.552329e-08
-2.870737e-09 1.813497e-08 3.000981e-08 2.738325e-08 -1.897871e-08 -3.954225e-08
3.698157e-09 -1.397718e-09 2.952492e-08 5.767100e-09 -6.721466e-09 -1.803322e-08
1.622413e-09 7.844383e-10 3.173168e-08 1.253278e-08 -9.629744e-09 -2.084694e-08
4.522395e-09 -6.066109e-09 2.333914e-08 9.149307e-10 8.160727e-10 -1.593787e-08
8.069470e-09 -2.052346e-09 1.692512e-08 9.132404e-09 -3.775217e-09 -1.669635e-08
-2.887002e-09 1.029154e-08 1.881359e-08 1.790535e-08 -9.272228e-09 -9.791297e-09
4.045042e-09 1.035624e-08 1.341516e-08 1.373764e-08 -1.272232e-08 -1.797234e-08
-1.299634e-08 1.648455e-08 2.314736e-08 8.930060e-09 -6.636596e-09 -1.362306e-08
-5.732289e-09 1.528773e-08 1.259982e-08 1.574329e-08 -1.231800e-08 -1.227790e-08
-8.008974e-09 1.421331e-08 1.264885e-08 1.557866e-08 -1.092418e-08 -1.569454e-08
-2.202751e-08 5.430481e-08 1.254984e-07 4.653816e-08 6.632140e-08 6.089556e-08
-2.603062e-08 7.105887e-08 -1.902919e-08 1.448048e-08 6.013855e-09 -1.929449e-09
8.189794e-08 5.105262e-08 3.111033e-08 5.006680e-08 4.865218e-08 9.323552e-08
-1.373339e-08 6.544452e-08 -2.382695e-08 3.944238e-08 1.176869e-08 -7.836827e-10
-1.836803e-07 1.561304e-07 1.669848e-07 -4.678094e-09 7.358356e-08 -1.058860e-07
-2.040246e-07 9.088548e-08 1.955484e-07 7.159741e-08 6.364477e-08 -2.187933e-09
1.515036e-08 -2.286038e-08 -1.355586e-08 -5.058031e-10 -1.766542e-08 2.715971e-09
-9.756808e-08 1.344859e-07 1.567185e-07 2.250432e-09 1.166189e-07 -1.899757e-08
-4.678270e-09 -6.886197e-09 2.489307e-10 -1.146180e-08 4.053287e-09 1.130584e-09
-2.301059e-07 -9.852825e-09 5.650060e-07 4.484780e-08 9.211683e-08 3.570703e-08
-3.970654e-07 7.218777e-08 3.698892e-07 -6.161080e-08 1.318851e-07 -8.177560e-08
-2.295302e-09 4.428396e-08 -6.569997e-08 -7.778969e-09 -3.856190e-08 1.849004e-08
-1.393224e-09 9.699482e-08 -2.867517e-08 -2.117058e-08 1.496708e-08 -8.085241e-09
2.900785e-08 -4.344581e-08 -4.796997e-08 7.111189e-09 -7.941498e-08 3.137853e-08
-1.987862e-09 3.165472e-08 3.100322e-08 -2.118022e-08 2.827347e-08 -2.235283e-08
-8.970980e-09 8.780944e-09 -1.291388e-08 9.232436e-09 -9.002022e-09 2.644835e-08
-1.459757e-09 4.456551e-08 -3.185208e-08 -1.160916e-08 -8.760548e-09 1.276302e-08
-8.098609e-09 4.991971e-08 -1.950790e-08 -1.580861e-09 4.238090e-09 2.202242e-08
1.955168e-08 -4.036745e-09 3.078189e-09 -4.806810e-09 2.316916e-09 -1.316076e-08
-2.337088e-09 9.042209e-09 -1.708598e-09 -1.064126e-08 2.739857e-09 1.035814e-09
-1.948100e-09 8.779106e-09 -1.557060e-11 -9.956456e-09 2.169549e-09 7.763561e-10
1.105348e-08 6.089412e-09 2.479279e-08 -2.043823e-08 1.443102e-08 -1.949309e-08
1.433953e-08 8.596826e-09 5.363658e-09 -1.661508e-08 8.240646e-09 -1.409213e-08
2.293654e-08 1.722515e-09 1.424065e-08 -1.947420e-08 1.195146e-08 -2.346248e-08
1.866302e-08 8.907073e-10 4.387754e-09 -1.420189e-08 5.674624e-09 -1.277496e-08
2.059699e-08 -5.298796e-09 2.269844e-09 -1.502483e-11 1.014604e-09 -9.813390e-09
8.910486e-09 -4.114576e-09 -1.045865e-09 -2.852676e-09 -6.244241e-12 -6.411771e-10
1.204595e-08 -4.178485e-09 2.243770e-10 -2.985432e-09 1.662391e-10 -2.206909e-09
7.835146e-09 -3.734085e-09 -8.695051e-10 -2.002964e-09 -3.814582e-11 -2.107182e-10
1.145594e-08 -4.769299e-09 9.918577e-11 -1.956987e-09 4.462398e-10 -2.599380e-09
9.343301e-09 -4.237825e-09 -1.293289e-09 -1.105988e-10 4.163632e-11 -6.602424e-10
1.134067e-08 -4.247306e-09 -8.294254e-10 -2.770120e-11 3.849056e-11 -1.757710e-09
1.276194e-08 -4.247752e-09 -1.211007e-09 -2.546817e-11 5.169161e-11 -1.708928e-09
-1.172687e-08 1.253406e-08 7.244004e-09 9.431408e-09 -4.616598e-09 -3.067062e-09
-1.520044e-08 2.295062e-08 -1.929924e-09 3.178272e-09 -1.120718e-09 1.858015e-09
-1.948786e-08 3.042509e-08 3.764654e-09 8.077884e-09 -7.760379e-09 -3.729757e-09
-2.838152e-08 4.414612e-08 1.357021e-08 9.262073e-09 -2.014820e-08 -7.837023e-10
-4.284613e-09 8.466170e-10 9.438530e-10 -2.101789e-09 4.871324e-10 -4.494831e-10
-4.678693e-09 2.767883e-09 7.252017e-10 -2.617564e-10 1.716293e-10 -9.065694e-10
-4.555611e-09 2.417898e-09 8.484187e-10 -4.777667e-10 -2.431558e-10 -7.655398e-10
-3.809104e-09 1.588243e-09 7.474641e-10 1.231505e-10 6.617762e-10 -3.024267e-11
-6.266798e-09 1.781992e-09 5.912504e-10 -2.514048e-09 8.500597e-10 9.580353e-11
-4.250364e-09 7.645125e-10 1.271389e-09 -1.029451e-09 -1.063483e-11 -6.844225e-10
-4.377039e-09 -2.381073e-10 1.196176e-09 -2.036146e-09 -8.106405e-11 -5.539272e-10
-6.047868e-09 1.650009e-09 7.519421e-10 -2.384199e-09 3.798361e-10 -2.503397e-10
-5.689616e-09 2.402382e-09 8.906011e-10 -9.807530e-10 2.906721e-10 -4.751594e-10
-5.057444e-09 1.691967e-10 1.176988e-09 -3.228023e-09 7.654510e-11 -4.153515e-10
6.580223e-09 1.082386e-08 9.288847e-09 -1.388700e-08 9.915835e-09 -9.333716e-09
6.573148e-08 -2.731673e-07 -5.293435e-08 -4.423614e-08 1.774417e-07 2.262184e-08
4.697176e-08 -7.728737e-08 -7.166089e-08 5.722380e-08 1.363579e-07 -3.496644e-08
-1.399067e-08 2.817941e-08 -2.714065e-08 4.459656e-08 3.054331e-08 -4.154346e-08
2.243512e-08 -7.667959e-08 -4.377461e-08 3.659725e-08 8.624940e-08 -2.339183e-08
1.711940e-08 -5.212995e-08 -6.908688e-09 7.369451e-08 1.059901e-07 -4.801700e-08
-1.952828e-08 3.077048e-08 -3.154749e-08 2.095686e-08 2.195199e-08 -2.536998e-08
-1.648193e-08 2.527087e-08 1.035147e-09 -1.609932e-08 -1.291120e-08 2.690060e-09
-1.185509e-09 2.378347e-08 1.058801e-08 -2.452984e-08 -1.856933e-08 6.871912e-09
-3.117963e-08 3.074839e-08 -1.868879e-08 5.399952e-10 2.715876e-09 -2.461680e-08
-7.099828e-10 2.240778e-08 -3.304315e-09 -1.403130e-08 -2.023725e-09 1.633167e-10
1.750212e-08 -3.265991e-09 2.079908e-08 -2.844911e-08 -9.915741e-09 2.066504e-08
7.174151e-09 -2.912427e-08 -5.346784e-10 -1.768235e-08 -1.905343e-08 -5.439002e-09
-1.172127e-08 3.229126e-08 -5.224658e-09 -9.731382e-09 -3.160199e-09 -6.381860e-09
1.262360e-08 -2.401756e-09 3.386743e-08 7.577042e-09 -6.177860e-09 -2.772659e-08
-3.110674e-09 1.915325e-08 3.691525e-08 2.812863e-08 -2.425476e-08 -3.939807e-08
1.590381e-08 -7.111608e-09 1.129011e-08 1.782982e-09 3.498621e-10 -1.264651e-08
1.536140e-08 -6.334866e-09 2.525169e-08 8.497793e-09 -2.169095e-09 -3.305638e-08
9.055198e-09 -4.299089e-09 1.372164e-08 -1.115916e-08 5.860483e-09 -9.406460e-09
1.748260e-08 -4.894582e-09 1.040506e-08 -7.194517e-09 3.057293e-09 -1.153708e-08
-5.603356e-09 -1.129261e-09 6.063341e-10 2.409035e-09 -2.248426e-09 9.429730e-10
1.334336e-08 -2.798279e-10 9.945209e-09 -1.169860e-08 4.881814e-09 -1.088159e-08
-4.991189e-09 4.148135e-09 -7.394161e-09 -9.522772e-09 5.184830e-09 3.150554e-09
3.699806e-09 8.567990e-09 7.191884e-10 -1.553599e-08 6.859197e-09 -5.176900e-09
-3.289827e-09 9.348302e-09 -4.431176e-10 -1.200274e-08 1.944070e-09 2.642218e-09
-2.072890e-09 9.181994e-09 -4.265503e-10 -1.083780e-08 2.145917e-09 1.748109e-09
3.818452e-09 1.580089e-10 1.141267e-09 -9.054676e-09 2.171218e-09 -5.057423e-09
1.182629e-08 -4.262893e-09 -9.627026e-10 -1.666715e-10 9.864218e-11 -8.835905e-10
1.179837e-08 -4.552065e-09 -7.462791e-10 -8.959773e-10 1.021197e-11 -1.770706e-09
1.019772e-08 -4.583139e-09 -8.173298e-10 -2.212018e-09 4.532800e-10 -1.395014e-09
1.385145e-08 -5.250032e-09 1.617633e-09 -1.948780e-09 9.153823e-10 -3.735432e-09
1.235445e-08 -4.737846e-09 5.977627e-10 -2.126412e-09 3.183511e-10 -1.893059e-09
5.010109e-09 -1.857214e-08 4.803411e-10 -9.294003e-09 3.763080e-09 7.061239e-10
7.073205e-09 -2.181473e-08 1.451281e-09 -9.579671e-09 3.749258e-09 1.177822e-09
9.040127e-09 -2.341422e-08 -3.150182e-10 -6.998987e-09 6.639967e-09 1.118170e-09
5.062392e-09 -1.464793e-08 -1.826995e-09 -9.420782e-09 2.695999e-09 1.143000e-09
7.725620e-09 -1.943007e-08 -3.815243e-09 -1.081771e-08 6.665478e-09 3.154021e-09
-3.311148e-09 2.289148e-09 6.606937e-10 1.564221e-09 -2.934137e-10 -7.057777e-10
-7.294574e-09 4.044328e-09 9.666157e-11 -6.876277e-09 1.816001e-09 8.062202e-10
-7.200664e-09 5.667298e-10 -2.069295e-10 -1.151616e-08 3.076352e-09 2.213833e-09
-7.224908e-09 2.332595e-09 1.360412e-09 -6.955194e-09 4.769447e-10 6.639831e-10
-9.659819e-09 -1.134286e-09 1.514864e-09 -1.376190e-08 2.962008e-09 2.998119e-09
7.070179e-09 -3.441910e-09 -7.136584e-10 8.604328e-10 9.468212e-11 1.883727e-11
7.961583e-09 -3.575077e-09 -5.424768e-10 1.064339e-09 4.215216e-11 -3.813306e-10
7.012686e-09 -3.824094e-09 -7.124101e-10 2.369371e-10 6.595199e-11 -1.636575e-10
6.581699e-09 -3.181518e-09 -7.667129e-10 5.898172e-10 2.246115e-10 -2.109322e-10
6.404678e-09 -2.847974e-09 -6.570067e-10 1.863306e-09 1.359939e-10 -1.700602e-10
6.430863e-09 -3.331748e-09 -6.820504e-10 1.834764e-09 6.798099e-12 -1.614471e-10
6.388068e-09 -3.084567e-09 -8.519481e-10 1.242255e-09 5.186698e-11 1.934770e-10
6.202510e-09 -3.415311e-09 -5.997807e-10 7.458121e-10 6.354600e-11 -8.933121e-11
6.265454e-09 -3.180440e-09 -6.813732e-10 6.912215e-10 5.610638e-11 2.355849e-11
6.528285e-09 -2.891604e-09 -6.626300e-10 1.753252e-09 1.339162e-11 -1.105800e-10
-3.177839e-09 -4.202068e-09 1.748428e-09 -4.878011e-09 2.347662e-10 -3.659553e-10
-3.863215e-09 -1.693600e-09 1.489510e-09 -2.833783e-09 4.648548e-11 -5.514114e-10
-3.734043e-09 -2.537352e-09 1.692452e-09 -3.237533e-09 2.440137e-11 -7.069594e-10
-2.365538e-09 -3.377778e-09 1.484987e-09 -3.868485e-09 6.810532e-10 -3.424767e-10
-2.925233e-09 -2.811626e-09 1.703961e-09 -3.376522e-09 2.329433e-10 -6.146421e-10
5.956433e-09 -1.728260e-08 -5.643732e-09 9.044423e-09 -1.353982e-08 3.819178e-09
3.561866e-09 -3.195797e-09 -9.852589e-09 7.324832e-09 -9.892187e-09 5.404059e-09
7.551410e-09 -1.673594e-08 -1.614838e-08 1.201274e-08 -2.729660e-08 1.080165e-08
8.728401e-09 -4.983156e-09 -1.869968e-08 8.580851e-09 -1.751419e-08 7.200082e-09
1.993768e-09 -1.199747e-08 -6.434012e-09 1.150475e-08 -1.558906e-08 8.168757e-09
-5.902607e-09 4.628163e-09 -8.639430e-09 -1.410143e-08 8.701581e-09 6.032975e-09
-3.302426e-09 -6.693946e-09 -2.009514e-09 -1.500673e-08 6.488509e-09 3.902742e-09
-4.970002e-09 -4.416552e-09 -3.664882e-09 -1.649574e-08 8.067658e-09 5.565445e-09
-5.023783e-09 3.249325e-09 -3.481069e-09 -1.507499e-08 6.872940e-09 5.316530e-09
2.731153e-08 -4.163058e-08 -8.731893e-09 -9.011194e-09 -4.378585e-08 -2.075257e-09
2.210463e-08 -4.746606e-08 -3.031914e-08 -3.447362e-08 -5.981370e-08 -1.848721e-08
1.079200e-08 -7.757290e-09 -3.889663e-08 -1.412569e-08 -4.860375e-08 -1.557034e-08
1.450220e-08 1.868837e-09 -3.432861e-08 -1.050669e-08 -3.366652e-08 -8.008234e-09
6.625756e-09 1.728279e-08 -3.221984e-08 -1.809804e-08 -2.749675e-08 -1.399769e-08
-1.281159e-09 -1.160936e-08 4.279599e-11 -1.499798e-08 6.695525e-09 1.970174e-09
1.444297e-08 7.725935e-10 -4.142252e-08 -2.224295e-08 -6.745248e-08 -8.622678e-09
-6.783084e-09 2.382688e-08 -3.767136e-08 -1.816387e-08 -3.618576e-08 -2.371539e-08
-5.996868e-09 1.206612e-08 -2.498527e-08 -1.348430e-08 -1.805069e-08 -2.026400e-08
1.054399e-08 -2.545099e-08 -1.988374e-08 -1.656585e-08 -3.688203e-08 -9.495048e-09
6.077795e-09 -1.288675e-08 -4.005519e-08 -2.233459e-08 -5.162352e-08 -1.811924e-08
9.588892e-09 -4.057717e-09 -3.707870e-10 1.489577e-10 1.287143e-10 -6.398399e-10
-1.281159e-09 -1.436821e-08 2.125735e-10 -1.499695e-08 6.063010e-09 1.970063e-09
9.337267e-09 -4.262966e-09 -3.622951e-10 -9.166109e-11 1.278873e-10 -6.247218e-10
9.777811e-09 -3.942556e-09 -1.306280e-09 2.563859e-10 1.351350e-10 -5.136949e-10
2.616407e-08 2.241908e-08 -1.180966e-08 2.589462e-08 7.869890e-09 4.408751e-09
1.961116e-08 -1.680047e-09 1.134118e-08 2.032941e-08 7.700826e-09 9.678037e-09
2.421803e-08 1.083756e-08 -8.916468e-09 1.398323e-08 1.026019e-08 1.877031e-08
1.839997e-08 2.178239e-08 -1.465205e-08 1.925085e-08 2.284045e-09 -5.687186e-10
7.680891e-09 1.447264e-08 -3.202157e-10 2.776623e-08 1.347234e-08 6.149557e-09
2.658475e-08 -1.998506e-09 6.194256e-09 1.369038e-08 1.807939e-10 1.123337e-08
1.221384e-08 -2.491304e-08 -6.993082e-10 -7.105090e-09 7.787625e-09 1.862018e-09
1.232957e-08 -3.316267e-08 -4.183638e-09 -7.188961e-09 1.320979e-08 1.820906e-09
1.025085e-08 -2.228081e-08 -1.008274e-08 -1.392416e-08 1.257662e-08 6.037558e-09
2.894215e-09 -1.371294e-10 -7.506552e-10 -4.643009e-09 -3.047267e-10 -1.436535e-10
4.990106e-09 -1.333077e-09 -8.744988e-10 -4.590834e-09 -4.411719e-10 6.882106e-11
7.462202e-09 -2.296775e-09 -4.866927e-10 -4.918390e-09 1.292626e-10 -6.748126e-10
5.606170e-09 -2.108321e-09 -6.537151e-10 -3.773236e-09 -2.280157e-10 -5.906385e-12
7.747874e-09 -2.298115e-09 -3.495849e-10 -5.088415e-09 -7.022016e-11 -4.490324e-10
5.343143e-09 -2.134591e-09 -8.887757e-10 -3.891622e-09 -2.750646e-10 -2.153754e-10
-6.542722e-10 1.325148e-09 -3.116929e-11 -3.014666e-09 -2.946371e-10 1.011446e-10
4.101471e-09 -1.263165e-09 -6.311633e-10 -3.198275e-09 -1.892666e-10 1.147784e-10
2.450549e-09 -6.682530e-10 -4.994927e-10 -2.839858e-09 -3.506726e-10 5.576817e-12
6.385523e-10 5.868115e-10 -3.302977e-10 -3.718287e-09 -3.178522e-10 -1.495120e-10
-2.402163e-08 3.940984e-08 -1.095793e-08 1.189879e-08 9.794177e-09 -2.393858e-08
1.213877e-09 7.081473e-10 -4.469642e-10 -4.164687e-09 -3.089691e-10 -7.293055e-11
3.023453e-09 -6.375165e-10 -6.676513e-10 -3.716296e-09 -1.226252e-10 7.920531e-11
-7.362697e-10 1.131772e-09 -1.393410e-10 -2.764069e-09 -3.750442e-10 2.145778e-10
3.086292e-09 -5.129266e-10 -6.057757e-10 -3.537156e-09 -2.737719e-10 1.170951e-10
-2.081701e-09 1.735450e-09 -1.426224e-10 -3.457695e-09 -3.840350e-10 1.273226e-10
-3.725200e-10 -6.033690e-09 -5.786184e-09 7.931442e-09 -6.849157e-09 4.160295e-09
6.516121e-12 9.483188e-10 -3.057465e-10 -3.315358e-09 -1.788159e-10 -1.507805e-11
-1.440892e-09 2.068220e-09 -2.255165e-10 -3.984100e-09 -4.505045e-10 3.683234e-10
5.154095e-10 6.698468e-10 -3.685905e-10 -4.242821e-09 -3.023911e-10 -2.526562e-10
-2.940070e-10 9.739713e-10 -3.835465e-10 -3.983129e-09 -4.524919e-10 1.158386e-10
1.193981e-09 6.661942e-10 -5.590830e-10 -4.135651e-09 -2.173280e-10 -1.321583e-10
-4.969815e-10 7.713377e-10 -3.435051e-10 -3.436227e-09 -5.452767e-10 2.726177e-10
3.799901e-09 -1.355911e-09 -3.753367e-10 -5.466293e-09 -9.802960e-11 5.111645e-11
7.781852e-09 -2.632866e-09 -1.265048e-09 -3.841649e-09 -3.507643e-10 2.484254e-10
1.082255e-08 -4.159242e-09 3.482441e-10 -3.154553e-09 3.513479e-10 -1.555709e-09
8.880013e-09 -2.878694e-09 -8.275169e-10 -4.963064e-09 5.961363e-10 -7.824650e-10
8.028509e-09 -3.546134e-09 -8.013363e-10 -1.480632e-09 -6.947143e-11 -1.758796e-10
8.090282e-09 -4.039528e-09 -6.707663e-10 -1.288928e-09 5.916104e-11 -4.682914e-10
-1.015416e-08 -5.723892e-10 -1.071444e-09 9.277770e-09 -7.542223e-09 7.078898e-09
8.516500e-09 -3.936445e-09 -6.982157e-10 1.947309e-10 -6.063958e-11 -3.248848e-10
5.034628e-09 -1.087251e-08 -1.335360e-08 -1.270879e-08 -1.408103e-08 -5.521760e-09
1.123485e-08 -4.178645e-09 -1.355774e-09 -7.950460e-10 1.108917e-10 -9.632648e-10
1.013880e-08 -3.965500e-09 -2.840204e-10 -1.148395e-09 -2.008939e-10 -1.147566e-09
8.674496e-09 -3.982552e-09 -8.699218e-10 2.325514e-10 2.334427e-11 -5.957633e-10
-9.430278e-09 7.058471e-09 -2.616520e-09 -1.140899e-08 3.652826e-09 3.752664e-09
7.276207e-09 -3.329353e-09 -7.983028e-10 -2.636925e-09 -4.772044e-12 -1.853740e-10
6.314841e-09 -2.095602e-09 -9.880596e-10 -3.696002e-09 -2.009727e-10 1.079225e-10
6.234888e-09 -2.436404e-09 -4.942677e-10 -4.186243e-09 -4.327782e-11 -4.297496e-10
7.368011e-09 -2.958556e-09 -7.879701e-10 -2.895052e-09 -1.126754e-11 -2.266114e-10
7.218436e-09 -3.239450e-09 -5.661670e-10 -2.643681e-09 1.118933e-11 -3.765303e-10
7.301816e-09 -3.407085e-09 -8.336019e-10 -2.714884e-09 -1.626514e-10 -1.716119e-10
-1.775918e-08 3.279405e-08 -1.025885e-08 4.792862e-08 3.055498e-08 -4.010620e-08
-1.027925e-08 -2.643924e-08 -3.829074e-09 4.997309e-08 3.715127e-08 -2.603876e-08
6.621681e-09 -2.048386e-08 1.954841e-09 -3.419107e-09 1.336031e-09 -6.812495e-11
-5.751142e-09 -7.943946e-10 -1.921569e-08 3.911384e-08 3.538330e-08 -2.230374e-08
3.017889e-08 -3.380519e-08 -4.798878e-08 1.437263e-08 9.278633e-08 -2.234415e-08
-1.529188e-09 -2.034150e-08 -2.284413e-08 4.010499e-08 4.500163e-08 -2.061935e-08
-4.465140e-08 2.831266e-08 -3.252362e-08 -6.877090e-08 4.386990e-08 5.578789e-08
1.232316e-08 -2.002148e-08 -3.966224e-08 2.604671e-08 4.504941e-08 -1.617188e-08
2.267149e-08 -6.717495e-08 -1.746298e-10 4.030569e-08 5.770589e-08 -2.120416e-08
8.201235e-09 -2.222590e-09 1.320201e-09 5.773538e-09 -5.170439e-10 -3.822740e-09
6.242390e-09 -1.299316e-11 9.252805e-10 6.897991e-09 -3.943026e-10 -2.751897e-09
6.026571e-09 -2.395250e-10 -7.794023e-10 5.372299e-09 9.043654e-11 -1.371761e-09
6.716037e-10 5.291625e-09 1.205224e-09 8.755458e-09 -2.480729e-09 -4.473756e-09
-1.235026e-09 4.982641e-09 -3.227136e-10 5.115844e-09 -1.493187e-10 -1.791226e-09
-5.976403e-09 1.046857e-08 2.180022e-09 7.930087e-09 -2.789707e-09 -4.378421e-09
4.941099e-09 1.587571e-09 5.867654e-09 9.616342e-09 -3.297741e-09 -7.824587e-09
2.917659e-09 4.819970e-09 -8.129666e-10 7.701044e-09 -5.914323e-10 -2.898263e-09
1.846493e-09 7.884467e-09 2.508110e-09 1.089423e-08 -3.543811e-09 -5.739792e-09
9.915113e-09 4.576453e-10 2.563227e-09 8.718576e-09 -1.310842e-09 -6.323555e-09
-5.423413e-09 8.277598e-09 1.965608e-09 7.958566e-09 -3.480787e-09 -4.413870e-09
2.485473e-09 7.242296e-09 -4.865245e-10 9.399256e-09 -1.769349e-09 -4.862163e-09
-1.101780e-08 6.833439e-09 1.348161e-08 3.101255e-08 2.667045e-08 1.418982e-08
-4.851881e-09 3.038155e-08 -1.341837e-09 3.682123e-08 1.655384e-08 1.406664e-08
6.219770e-09 3.900104e-08 2.332156e-09 2.413837e-08 1.977360e-08 1.214163e-08
-1.741210e-08 3.508405e-08 -1.785221e-08 4.171304e-09 -7.186644e-09 -2.175599e-08
2.600273e-08 -2.765676e-08 -2.600395e-08 -2.045591e-08 4.692177e-08 1.136552e-08
3.056538e-09 -2.511606e-10 5.020726e-08 6.945206e-09 -1.177010e-08 -2.896903e-08
-5.192834e-09 6.892456e-09 6.950754e-08 1.528392e-08 -2.562523e-08 -3.528992e-08
6.840915e-09 -1.318175e-09 4.714118e-08 -1.402849e-09 -5.149382e-09 -5.023571e-08
-2.433426e-09 1.201245e-09 3.054159e-10 1.178941e-09 1.336789e-10 -2.287811e-10
-2.686433e-09 1.264826e-09 4.841607e-10 1.123134e-09 2.360978e-10 -2.338995e-10
-3.387976e-09 1.400956e-09 4.965715e-10 5.569508e-10 1.526608e-10 -2.665645e-10
-6.384579e-09 2.207251e-09 1.386416e-09 -2.884970e-09 4.595955e-10 -6.996228e-10
4.685016e-09 -2.799597e-08 5.126770e-10 -1.724139e-08 1.253128e-08 2.633437e-09
-5.385151e-09 2.443450e-10 1.172938e-09 -4.552662e-09 1.770228e-10 -8.222366e-11
-5.805468e-09 1.917965e-09 4.184182e-10 -2.792235e-09 7.766200e-10 3.974112e-10
-4.437405e-09 -1.088130e-09 1.489368e-09 -6.709336e-09 7.049927e-10 1.105315e-10
-4.632139e-09 1.266562e-09 1.181405e-09 -2.170746e-09 4.383630e-10 -7.076912e-10
-5.649980e-09 1.232043e-09 9.463934e-10 -1.916519e-09 3.229130e-10 -2.167645e-10
-5.311428e-09 3.407735e-09 6.008665e-10 -1.243983e-09 4.487206e-10 -1.834591e-10
1.333681e-08 -2.735380e-08 3.309966e-10 6.861570e-09 8.401883e-09 -2.059520e-09
1.567543e-08 -2.669615e-08 -8.791580e-09 -5.103502e-10 1.060362e-08 1.060714e-09
1.268511e-08 -2.755989e-08 -2.359383e-09 6.491885e-09 9.166316e-09 -7.290188e-10
3.435748e-08 6.723484e-08 -1.924866e-07 -3.975779e-08 9.854378e-08 5.967322e-08
5.411707e-08 -5.622791e-08 -1.600177e-07 -4.264041e-08 2.469092e-07 2.464092e-09
3.709352e-08 1.229029e-07 -1.454032e-07 5.062355e-08 -7.297674e-09 -6.114388e-08
6.129734e-09 7.650709e-08 -1.735342e-07 -4.635132e-08 5.756295e-08 3.525140e-08
-2.004502e-08 8.245023e-08 -7.376171e-08 -6.994857e-09 -1.368802e-08 -2.768804e-08
1.191410e-08 1.565557e-07 -6.241735e-08 -3.166227e-08 -3.861391e-08 -3.336229e-08
5.240985e-09 6.518416e-08 -1.419659e-07 -5.060041e-08 8.663778e-08 5.482081e-08
1.000283e-08 -2.543175e-08 6.561849e-10 3.086881e-09 4.203046e-09 -4.648452e-10
9.112526e-09 -2.624405e-08 2.806327e-09 3.849834e-09 3.942847e-09 -2.384864e-10
-2.176315e-11 -3.579354e-09 -6.687991e-09 5.474808e-09 -7.090353e-09 3.004884e-09
1.178057e-08 -3.176004e-08 1.019576e-09 1.104262e-08 1.137788e-08 -1.327718e-09
8.845673e-09 -2.343154e-08 -1.142197e-09 6.274666e-09 4.319360e-09 -4.017664e-10
1.362846e-08 -1.820881e-08 -1.447321e-08 -9.086203e-09 1.381772e-08 4.150021e-09
-2.720775e-09 -9.952430e-10 -1.277422e-09 3.110367e-09 -2.651768e-09 1.027146e-09
1.180094e-08 -2.827003e-08 -1.375949e-09 -2.169246e-09 8.438085e-09 4.375704e-10
1.405520e-08 -2.942386e-08 -1.895273e-09 1.981060e-09 1.049495e-08 7.608452e-10
1.991551e-08 -2.710905e-08 -1.598991e-08 4.040370e-09 1.811080e-08 -1.630425e-09
2.449907e-08 -3.059226e-08 -1.194681e-08 -5.728636e-09 2.808976e-08 2.707482e-09
2.526676e-08 -2.872170e-08 -2.580523e-08 -3.864890e-09 3.071305e-08 9.505275e-10
2.049436e-08 -2.361130e-08 -2.174065e-08 1.006629e-09 2.575075e-08 -1.115424e-09
1.604978e-08 -2.733241e-08 -1.252666e-08 -8.145827e-09 1.577733e-08 4.773916e-09
-9.958545e-09 1.496199e-08 -6.723440e-09 -6.274360e-09 -9.943057e-10 9.533905e-09
-2.009112e-09 2.884757e-09 -7.730980e-10 -5.140349e-09 -1.584451e-09 9.427311e-10
-5.879012e-09 1.560858e-08 3.345742e-09 -1.133367e-08 6.633286e-09 4.394857e-09
-1.355955e-08 1.378899e-08 6.556162e-09 -1.217111e-08 1.149267e-08 -3.718740e-09
-1.034353e-08 1.161742e-08 -1.344239e-09 -6.763197e-09 1.101193e-09 2.973338e-09
-7.734929e-10 2.698888e-08 -9.666330e-09 -1.933001e-08 9.079653e-09 1.073419e-09
-1.178554e-08 1.562810e-08 -6.417674e-10 -7.787017e-09 2.650230e-09 6.535856e-09
-1.279384e-08 1.106699e-08 -1.223473e-09 -1.273948e-08 3.285723e-09 6.460996e-09
-1.139694e-08 5.790288e-09 -2.127646e-10 -5.744152e-09 2.258861e-09 2.304675e-09
-9.719555e-09 4.860225e-09 -3.310623e-10 -6.343615e-09 1.696879e-09 1.681707e-09
1.801064e-09 4.238242e-09 -2.167154e-09 -8.090795e-09 -5.377024e-10 1.064396e-09
-1.532039e-08 1.787498e-08 1.417891e-09 8.295437e-10 -8.088597e-10 4.066561e-10
-1.436610e-08 1.501519e-08 -1.211946e-09 -2.512119e-09 6.616924e-10 3.572764e-09
-1.320009e-08 1.443500e-08 1.879572e-09 5.694563e-11 -2.906018e-09 1.933571e-09
1.283361e-08 -2.279099e-11 1.758375e-09 1.109862e-08 -2.200127e-09 -9.600854e-09
4.809095e-09 -1.420253e-09 5.837631e-09 7.957839e-09 -1.266264e-09 -6.106677e-09
1.193306e-08 2.819621e-09 -2.541062e-10 1.121555e-08 -3.437890e-09 -1.117164e-08
5.195980e-09 -1.281034e-09 2.519192e-09 7.599593e-09 -1.815309e-09 -6.406635e-09
2.083353e-08 3.115405e-10 5.753534e-09 1.532629e-08 -5.602904e-09 -1.797178e-08
2.174344e-09 7.454754e-09 -2.079532e-10 1.072557e-08 -2.437284e-09 -5.076289e-09
1.153559e-08 -2.813526e-09 -1.841031e-09 5.001791e-09 8.667868e-10 -4.816138e-09
1.002159e-08 1.360198e-09 -1.555593e-09 7.740078e-09 -9.686153e-10 -4.706132e-09
1.233002e-08 -5.655992e-09 3.978025e-09 2.319120e-09 2.858423e-11 -7.802694e-09
5.536296e-09 2.765624e-09 6.110752e-09 1.045504e-08 -2.760903e-09 -7.444102e-09
9.126669e-09 -1.958216e-09 4.427080e-09 7.111976e-09 -7.220629e-10 -5.554659e-09
7.560446e-09 -1.945800e-09 1.048299e-09 6.355595e-09 -6.736062e-10 -4.216713e-09
1.672724e-08 -3.305956e-08 -5.889901e-09 1.068835e-08 -2.523865e-08 5.968432e-09
1.254435e-08 -1.395951e-08 -1.392441e-08 7.078193e-09 -1.339334e-08 4.812863e-09
1.471021e-08 -1.645202e-08 -1.666689e-08 1.054525e-08 -2.708013e-08 1.022255e-08
1.463100e-08 -1.483159e-08 -3.388391e-08 9.706211e-09 -3.334599e-08 8.852987e-09
8.961058e-09 -2.158908e-08 -1.477835e-08 9.779994e-09 -2.405112e-08 8.079158e-09
1.049796e-08 -1.397648e-08 -1.309917e-08 6.531053e-09 -1.385077e-08 4.387575e-09
1.097808e-08 -3.444871e-08 -3.528917e-09 1.296013e-08 -1.794020e-08 5.674623e-09
9.099755e-08 1.354715e-09 1.794199e-07 -7.147663e-08 -9.379087e-08 1.768748e-07
-5.642623e-09 3.374396e-07 1.550056e-07 7.922516e-08 -1.046284e-07 2.894054e-07
1.772917e-07 1.480243e-07 -1.271497e-07 -8.093989e-08 -1.606497e-07 1.866755e-07
1.426069e-07 -2.201755e-08 1.262375e-07 -5.151833e-08 -4.413389e-08 1.944033e-07
-5.577125e-08 -4.832319e-08 2.264810e-07 -3.495189e-08 -1.225393e-07 1.789654e-07
9.222799e-08 1.597200e-07 -7.112635e-08 -1.008548e-07 -1.344259e-07 1.238548e-07
-4.209889e-08 -1.561148e-08 2.497331e-07 -5.633889e-08 -7.535777e-08 1.443882e-07
-4.322688e-09 3.236467e-09 -2.803322e-10 -2.720477e-09 -1.113375e-09 5.836426e-10
-5.107475e-09 -4.603855e-10 -1.417532e-09 3.006859e-09 -2.402307e-09 1.653416e-09
-3.807744e-09 2.742130e-09 -5.935199e-10 -2.645020e-09 -1.633266e-09 8.584051e-10
-3.835000e-09 1.703259e-09 1.665397e-10 -3.050034e-09 -1.560826e-09 2.647794e-10
-4.073104e-09 2.951030e-09 -3.301868e-10 -3.747150e-09 -1.319966e-09 7.140900e-10
8.965932e-09 7.433469e-08 -5.300609e-08 -1.840416e-08 -3.396860e-08 -3.518159e-09
-4.478418e-09 1.941763e-08 -7.216182e-08 9.444319e-10 -7.661715e-08 2.510105e-08
2.474787e-08 -1.127316e-07 -5.939811e-08 -1.939893e-08 -1.264492e-07 -1.240027e-08
2.314068e-08 -3.182653e-08 -4.817411e-08 1.565262e-08 -9.251793e-08 1.982984e-08
-3.398590e-09 -1.202628e-09 -8.733472e-09 5.342700e-09 -8.709566e-09 5.304254e-09
-2.495568e-08 1.133995e-07 1.254705e-07 8.813272e-09 1.334319e-07 4.661185e-08
5.970576e-09 -2.861173e-09 -6.434902e-10 1.724971e-09 3.753087e-11 -1.308245e-10
5.216025e-09 -2.663796e-09 -6.374523e-10 1.278215e-09 1.268189e-10 6.679679e-11
5.324018e-09 -2.873551e-09 -6.023662e-10 1.715640e-09 6.491335e-11 5.331524e-11
4.563823e-09 -2.130984e-09 -4.583689e-10 2.440169e-09 1.206786e-10 -1.635579e-10
4.394121e-09 -2.005526e-09 -4.982694e-10 2.020411e-09 7.331340e-11 -1.951110e-10
6.244104e-09 -2.873552e-09 -5.688499e-10 1.817161e-09 4.912198e-11 -1.259811e-10
3.639984e-09 -1.325247e-09 -4.947718e-10 -4.390902e-09 -1.740745e-10 -2.033258e-10
4.224351e-09 -1.105772e-09 -4.255725e-10 -5.022553e-09 -1.111422e-10 -2.404685e-10
5.229676e-09 -2.122145e-09 -5.484548e-10 -3.729878e-09 -7.987499e-11 -2.274774e-10
6.954796e-09 -2.970959e-09 -6.537717e-10 -2.731677e-09 -1.166350e-10 -1.765186e-10
5.224942e-09 -1.729707e-09 -7.203136e-10 -3.566903e-09 -2.643974e-10 1.602871e-10
2.977506e-09 -1.746212e-10 -5.182896e-10 -4.635226e-09 -3.910996e-10 6.565193e-11
2.776187e-09 -3.012150e-10 -5.898375e-10 -4.356670e-09 -3.101099e-10 -2.046728e-10
5.880946e-09 -1.940513e-09 -8.733758e-10 -4.683149e-09 -1.439592e-10 -2.352812e-10
-1.360147e-09 6.809094e-08 -3.799387e-08 2.735643e-08 2.017069e-08 -5.704860e-09
-7.448928e-09 1.296514e-08 -7.062639e-09 1.388207e-09 -5.552273e-09 -1.272594e-08
1.075682e-10 1.937093e-08 -1.481768e-08 1.018798e-08 -6.470055e-09 -8.745723e-09
-4.365186e-09 1.298120e-08 -7.714187e-09 4.216324e-09 -7.969050e-09 -9.848215e-09
-2.346622e-08 4.106070e-08 -2.550497e-08 -5.615080e-09 -1.005247e-08 -2.684687e-08
3.837218e-09 -1.860655e-08 9.423793e-10 -9.502922e-09 3.781060e-09 6.029496e-10
3.598979e-09 -1.417282e-08 -1.050384e-10 -1.178397e-08 3.933042e-09 1.743808e-09
4.503811e-09 -1.650763e-09 -7.038636e-10 3.249660e-09 3.364255e-10 8.864221e-11
5.957965e-10 -1.175546e-08 1.388180e-09 -1.048004e-08 1.700425e-09 5.408253e-10
1.919902e-09 -1.178032e-08 -3.406009e-11 -9.046609e-09 1.730332e-09 5.971124e-10
2.392205e-09 -1.268938e-08 4.385199e-10 -8.480658e-09 2.485412e-09 1.079344e-09
3.832312e-09 -1.345236e-08 -1.492030e-09 -1.103959e-08 3.738203e-09 1.234463e-09
1.848237e-09 -1.075580e-08 -2.163048e-11 -9.257270e-09 1.891290e-09 6.024660e-10
1.666007e-08 -2.841493e-08 -2.554812e-08 -1.572650e-08 4.029088e-08 1.018156e-08
5.393993e-09 -1.127584e-08 -1.468701e-08 -2.957306e-08 2.629926e-08 1.793608e-08
-3.189155e-09 -1.517205e-08 -2.159524e-08 -3.232988e-08 3.079003e-08 1.679674e-08
1.109097e-08 -4.716992e-08 -7.857763e-09 -2.617601e-08 3.299978e-08 1.192230e-08
7.978981e-09 -2.489019e-08 -2.035376e-08 -3.873537e-08 3.985923e-08 2.466083e-08
1.070500e-08 -1.621070e-08 -4.525137e-09 -3.425169e-08 3.258024e-08 1.596397e-08
6.541191e-09 -2.017325e-10 -1.869100e-08 -1.611260e-08 1.780540e-08 1.095125e-08
7.062194e-09 -3.501946e-09 -9.972789e-10 1.408208e-09 8.247661e-11 -3.283933e-10
1.675629e-08 -2.703924e-08 -2.492512e-08 -1.535789e-08 2.886679e-08 6.630843e-09
-4.181671e-09 -1.980210e-08 -7.031299e-10 2.037147e-08 -1.391520e-08 8.849129e-09
7.042115e-09 -2.714130e-08 -1.426394e-08 -3.594458e-08 3.795570e-08 2.261326e-08
2.068117e-08 1.755315e-09 -4.845222e-08 -1.874051e-08 3.805963e-08 1.358224e-08
3.013642e-08 -1.589041e-08 -4.705016e-08 -5.995198e-09 5.324634e-08 1.111376e-08
2.157209e-08 -7.748493e-09 -5.438071e-08 -2.260589e-08 6.173669e-08 2.000409e-08
2.889641e-09 4.574610e-09 -5.691440e-10 7.892410e-09 -6.802606e-10 -3.011900e-09
5.995678e-09 -2.669460e-08 -2.078549e-08 2.031092e-08 -3.536880e-08 1.681479e-08
5.139504e-09 -1.813809e-08 -2.731409e-09 1.637036e-08 -1.895623e-08 9.762713e-09
4.913843e-09 -3.206608e-08 -6.516668e-09 2.317478e-08 -2.699504e-08 1.206283e-08
1.285234e-08 -2.298759e-08 -1.386666e-08 8.116993e-09 -2.344565e-08 6.174459e-09
5.054789e-09 -1.799210e-08 -1.127108e-08 1.642167e-08 -2.178350e-08 1.131915e-08
7.224374e-09 -1.979408e-08 -3.610134e-09 1.160119e-08 -1.504146e-08 5.369691e-09
-9.963530e-10 -1.262854e-08 1.302179e-09 1.520828e-08 6.941575e-09 -2.598877e-09
-4.902840e-09 -3.208443e-09 1.939839e-10 8.825684e-09 -6.017809e-09 2.923311e-09
8.109020e-10 -1.504321e-08 -2.841441e-09 1.808427e-08 9.741403e-09 -4.029604e-09
-1.905231e-09 -4.603480e-09 -2.163977e-09 5.616612e-09 -4.598721e-09 1.810403e-09
2.045750e-09 -1.381588e-08 -2.654828e-09 1.709343e-08 6.615071e-09 -3.818043e-09
3.234336e-09 -1.734489e-08 -1.937645e-09 1.814173e-08 8.814229e-09 -4.408128e-09
8.644818e-11 6.414695e-10 -1.107383e-10 3.547557e-09 1.479995e-10 -6.884066e-10
-7.775607e-10 2.836708e-09 -4.763705e-10 4.104972e-09 6.432193e-10 -5.847066e-10
-9.286740e-10 1.411681e-09 -1.116818e-11 3.020172e-09 1.770257e-10 -5.255956e-10
-8.833436e-10 1.648543e-09 -7.811329e-11 3.356633e-09 1.982745e-10 -6.679970e-10
-1.415787e-09 1.374325e-09 1.629972e-10 2.914356e-09 2.779221e-10 -7.581663e-10
-7.122631e-10 2.153965e-09 -6.667380e-10 -4.519158e-09 -8.183372e-10 -1.147955e-10
-4.205427e-09 3.279880e-09 -2.052312e-10 -2.801034e-09 -1.173510e-09 6.789778e-10
-4.380050e-09 4.812290e-09 -1.243312e-09 -4.076458e-09 -1.064332e-09 8.459594e-10
-3.775981e-09 2.693512e-09 2.737233e-11 -2.654807e-09 -1.213024e-09 5.642141e-10
-4.624805e-09 2.984455e-09 -4.856027e-10 -2.396236e-09 -1.323619e-09 6.207801e-10
-4.250983e-09 1.854922e-09 -3.934342e-10 -1.276441e-09 -1.535149e-09 8.671306e-10
-2.782495e-09 3.286853e-09 -6.575513e-10 -4.568937e-09 -6.792448e-10 3.087124e-10
-1.196047e-08 2.861733e-08 -4.104838e-09 -6.918565e-09 1.507437e-09 1.239458e-08
-7.938036e-09 3.738928e-08 -3.666716e-08 3.920228e-09 -1.680785e-08 2.441733e-08
-1.283153e-08 2.614037e-08 -1.549131e-08 -8.756456e-10 -4.734345e-09 1.699146e-08
-4.336614e-09 1.430791e-08 -3.214209e-09 -9.596631e-09 2.208758e-09 4.577160e-09
9.601114e-09 -4.184252e-09 -2.125078e-10 2.649241e-09 2.777956e-10 -2.024851e-09
-5.205493e-09 9.119376e-09 -1.391730e-08 -2.297404e-09 -1.172064e-08 1.203471e-08
-5.330261e-10 -8.572666e-09 2.291238e-09 -5.396894e-09 6.957506e-10 -6.486233e-10
-1.966268e-09 -7.829002e-09 -5.132827e-11 -1.018158e-08 3.486815e-09 1.356068e-09
-3.021266e-09 -7.520715e-09 1.678421e-09 -9.737350e-09 1.510105e-09 8.551382e-10
-2.847381e-09 1.431942e-09 4.877894e-10 7.645391e-10 1.530546e-10 -1.774930e-10
4.070061e-10 -1.049685e-08 6.510277e-10 -8.894466e-09 3.017314e-09 4.946941e-11
-1.419127e-09 -9.397847e-09 2.385781e-09 -8.790179e-09 1.153279e-09 -2.346341e-10
4.155337e-10 -1.116992e-08 8.788004e-10 -8.506726e-09 2.279160e-09 -1.575214e-11
6.452873e-10 -1.010070e-08 1.794884e-09 -7.529840e-09 1.751419e-09 2.252599e-10
7.583097e-09 -2.988957e-09 -4.994896e-10 2.546506e-09 1.149036e-10 -2.343974e-10
-5.231624e-09 3.328089e-08 -5.174860e-08 -1.975710e-08 -4.641760e-08 -2.968827e-08
2.948162e-08 -1.013006e-08 -6.182605e-08 -5.887730e-08 -8.207752e-08 -3.810825e-08
-1.321993e-08 8.601311e-08 -9.634648e-10 -5.939163e-10 3.269600e-08 -2.043239e-08
-1.319594e-08 9.781318e-08 -8.846275e-08 7.769014e-10 -9.760740e-09 -3.106536e-08
-4.041678e-08 4.911366e-08 -2.599581e-08 -2.822246e-08 -3.014128e-08 1.416645e-08
6.089204e-08 -2.135187e-07 -1.769426e-07 -1.907476e-07 3.109817e-07 9.193266e-08
7.329066e-08 2.473644e-07 -4.544566e-07 -9.529399e-08 1.336273e-07 -1.058071e-07
-9.682830e-08 1.315266e-07 -8.339222e-08 -6.446484e-08 2.313948e-08 1.187152e-07
-2.643411e-08 5.666484e-08 -1.672341e-07 -6.864611e-08 1.018235e-07 9.047958e-08
-3.462597e-08 3.901668e-08 -1.097559e-07 -1.922557e-07 1.809271e-07 9.710298e-08
2.114917e-10 3.095141e-08 -1.532875e-08 1.036376e-08 2.681973e-09 -1.115706e-08
1.930306e-10 2.495332e-08 -1.256321e-08 2.138901e-08 6.129485e-09 -5.719125e-09
3.884055e-09 -1.824993e-09 -4.958003e-10 1.933392e-09 4.997147e-11 -2.087167e-10
-9.632006e-09 3.107141e-08 -1.586541e-08 3.545452e-08 1.443260e-08 3.224969e-09
6.134880e-09 -2.890078e-09 -1.647309e-10 3.287473e-09 1.327416e-11 -6.663159e-10
6.012543e-08 -1.662426e-08 7.041638e-08 2.795558e-08 2.714354e-08 8.625264e-08
-1.241244e-08 2.926609e-08 -1.125103e-08 1.504161e-08 3.935878e-09 -1.598081e-08
2.940907e-09 -1.390883e-08 -2.116205e-09 2.463492e-08 1.872450e-08 -8.170902e-09
-8.657071e-09 -1.471365e-08 -1.751664e-09 2.397200e-08 1.405827e-08 -6.516529e-09
1.131150e-09 1.680129e-08 -5.224334e-09 2.033170e-08 3.745983e-09 -3.088798e-09
-8.559814e-10 6.815171e-08 -1.653216e-08 2.777964e-08 1.886742e-08 -1.079939e-08
-4.741425e-09 8.397816e-09 -2.619182e-09 -5.237050e-09 -2.351940e-09 3.586636e-09
-1.620663e-08 1.057535e-08 -2.026206e-08 -2.846397e-08 2.635931e-08 2.396547e-08
-3.454225e-08 2.119329e-09 -1.255561e-08 -5.891398e-08 3.967621e-08 3.790507e-08
-2.931548e-08 2.204646e-08 -1.964675e-09 -2.241372e-08 1.163411e-08 2.767083e-08
-1.533788e-08 2.179079e-09 -2.202058e-08 -3.004616e-08 2.249810e-08 2.309640e-08
-1.429665e-08 7.744785e-09 -1.315243e-09 -2.646824e-08 9.759863e-09 1.811192e-08
7.540271e-09 -1.578532e-08 -1.981221e-08 -3.355744e-08 3.048684e-08 2.123848e-08
8.443881e-09 -5.659822e-08 -1.751353e-08 -4.974251e-08 5.590844e-08 2.357392e-08
6.301589e-09 -1.178894e-08 -8.715789e-09 -4.855735e-08 4.449023e-08 2.571745e-08
-2.849358e-08 2.139801e-08 7.328296e-09 -2.155911e-08 2.607627e-09 2.335304e-08
-1.687462e-08 1.050997e-08 -2.762972e-08 -2.807244e-08 2.491163e-08 2.620115e-08
-7.986970e-09 8.837508e-09 1.002281e-09 2.840946e-09 -9.484844e-10 -1.497653e-09
-5.541334e-09 7.786932e-09 4.371467e-09 7.636973e-09 -2.942100e-09 -3.795446e-09
5.136052e-09 -4.589007e-11 -6.538787e-10 6.456183e-09 -2.941020e-10 -3.492775e-09
2.689366e-09 -1.402774e-08 1.844621e-09 -7.070964e-09 1.801041e-09 -2.934296e-10
1.401020e-09 -1.307733e-08 2.744512e-09 -7.381156e-09 7.015303e-10 -3.105112e-10
2.123329e-09 -1.186400e-08 2.671144e-09 -4.736340e-09 6.096037e-10 -2.121751e-10
-2.436662e-11 -1.003144e-08 1.795925e-09 -6.420675e-09 8.052112e-10 -2.844526e-10
-3.888961e-10 -9.077688e-09 1.811790e-09 -6.965992e-09 7.153519e-10 -4.910899e-10
4.986921e-10 -1.003242e-08 1.796573e-09 -6.406564e-09 8.321264e-10 6.133669e-11
-9.482462e-09 4.522477e-09 7.427110e-10 -5.899245e-09 1.728931e-09 6.988641e-10
-4.974586e-09 3.389889e-09 -9.138885e-09 -1.497933e-08 7.911034e-09 5.562730e-09
-1.345864e-08 -4.802811e-10 3.077629e-09 -1.887620e-08 3.970046e-09 5.883232e-09
-4.912306e-09 -4.423883e-09 -9.441428e-09 -1.641446e-08 9.454781e-09 5.874528e-09
-7.969018e-09 -4.041574e-09 2.525312e-09 -1.317038e-08 2.643941e-09 1.686934e-09
-3.786409e-09 -5.258786e-09 9.788357e-10 -1.388484e-08 4.019142e-09 2.676424e-09
-3.789954e-09 -5.074607e-09 -2.784325e-09 -1.356628e-08 6.162815e-09 2.393850e-09
-2.804328e-08 6.165024e-08 -1.317586e-08 6.331108e-09 -1.238221e-08 2.219199e-08
-3.692265e-08 6.380377e-08 -9.142090e-09 8.226969e-09 -8.341870e-09 3.186529e-08
-6.920228e-08 -1.668593e-08 1.453325e-07 -2.846658e-08 -3.268142e-08 5.609186e-08
-5.427123e-08 -5.406410e-08 2.147548e-07 -2.685024e-08 -9.871820e-08 1.117825e-07
7.511402e-09 -1.550541e-08 8.961626e-08 -4.673355e-08 -6.059805e-08 6.542616e-08
3.143576e-08 -1.623121e-08 3.531760e-08 -4.563893e-08 -5.266453e-08 8.225635e-08
-3.305883e-09 2.405099e-09 6.928582e-10 2.080281e-09 -3.127130e-10 -6.654737e-10
2.048066e-09 2.714759e-09 -6.540262e-10 -6.997012e-09 1.401715e-10 -2.896206e-10
8.106430e-09 -1.473315e-08 -1.420475e-08 9.696501e-09 -1.685163e-08 5.546466e-09
-1.169458e-08 -2.433209e-08 1.138117e-07 1.258344e-08 3.550743e-08 5.772233e-08
5.109423e-09 -1.636608e-09 -4.734093e-10 3.368872e-09 2.592755e-10 -2.859557e-10
-6.087395e-09 -2.888365e-10 -7.730881e-09 -9.465960e-09 -9.042085e-09 -5.812046e-09
-1.002911e-09 -6.876043e-09 -8.180698e-09 -1.306982e-08 -1.034326e-08 -6.327945e-09
-3.660572e-09 8.724736e-10 -5.698357e-09 -9.777826e-09 -7.554990e-09 -3.651490e-09
-8.652189e-10 -2.298069e-09 -4.618256e-09 -7.889503e-09 -6.270694e-09 -1.911737e-09
-4.243990e-09 8.535134e-10 -7.427689e-09 -1.390511e-08 -1.473496e-08 -7.570573e-09
-8.549000e-10 3.469123e-09 -1.307709e-08 -8.258007e-09 -1.149981e-08 -5.775921e-09
9.614832e-09 -5.212058e-09 3.465572e-09 3.154671e-09 -1.747622e-10 -4.198080e-09
1.715272e-08 -5.171958e-09 1.299940e-09 -3.380696e-09 1.102445e-09 -6.060121e-09
1.785858e-08 -5.189221e-09 1.637408e-09 3.302335e-09 -4.751107e-10 -6.955996e-09
1.527309e-08 -5.298493e-09 2.745570e-09 4.678297e-10 4.113071e-10 -6.684241e-09
1.107911e-08 -5.253171e-09 1.617135e-09 -3.353185e-09 9.094782e-10 -3.801016e-09
1.384200e-08 -5.186112e-09 1.142709e-09 -2.262634e-09 6.395374e-10 -4.210230e-09
1.405940e-08 -5.639831e-09 2.023948e-09 2.001762e-09 -4.537239e-10 -4.007945e-09
-3.937923e-09 1.792840e-09 -7.301967e-09 -1.080374e-08 -1.111718e-08 -7.337507e-09
-4.103563e-09 3.422143e-10 -2.364625e-09 -1.416926e-08 -1.119295e-08 -7.233141e-09
-7.285742e-09 1.515144e-10 -1.354109e-09 -1.004151e-08 -6.813540e-09 -5.518290e-09
-6.720062e-09 -1.094800e-09 -1.941359e-09 -1.019285e-08 -7.898818e-09 -5.192937e-09
-5.798038e-09 3.748813e-09 -3.249046e-09 1.143493e-09 -3.105974e-09 2.470085e-09
-5.816416e-09 4.268474e-09 -2.872035e-09 1.492738e-09 -2.652674e-09 2.706482e-09
-3.771499e-09 -7.369296e-10 -1.091942e-09 3.086822e-09 -2.432775e-09 9.935920e-10
3.326783e-12 1.021294e-08 7.322982e-10 8.769839e-09 -1.974373e-09 -3.882944e-09
-7.296763e-09 -3.506113e-09 -3.258589e-10 7.932809e-09 -5.610726e-09 4.041995e-09
-3.359288e-09 6.444276e-10 8.080594e-10 4.362754e-11 2.377228e-10 -3.923053e-10
-4.759071e-09 1.165382e-09 -1.841773e-09 4.092774e-09 -4.037437e-09 2.587452e-09
-5.865312e-09 -7.095302e-11 -1.677540e-09 2.640742e-09 -3.862897e-09 2.456055e-09
1.124113e-08 -4.784028e-08 -3.243176e-10 -2.630204e-08 3.079557e-08 1.311090e-08
3.097710e-09 -2.904746e-08 -2.853565e-09 2.514193e-08 1.817115e-08 -6.681694e-09
-5.528615e-09 -1.515712e-08 1.357733e-09 2.588073e-08 1.532423e-08 -7.921006e-09
1.770514e-09 -6.682532e-10 -4.958955e-10 -2.815045e-09 -3.463001e-10 -4.413891e-11
-5.607472e-09 1.042704e-08 2.129284e-09 -9.080554e-09 6.034120e-10 -3.841587e-10
-3.838587e-09 -4.386484e-09 -6.024366e-09 2.076839e-08 1.111183e-08 -7.939187e-09
3.571812e-09 -2.661164e-08 -1.806582e-09 2.371230e-08 1.977414e-08 -7.568718e-09
7.534141e-09 -3.000358e-08 -1.970766e-10 1.075988e-08 -1.253921e-08 2.881591e-09
2.540516e-09 -1.478847e-08 -1.603385e-08 2.380718e-08 1.696151e-08 -9.936653e-09
-3.374501e-09 -4.349982e-09 -9.972523e-09 2.036198e-08 1.161233e-08 -6.885950e-09
3.183401e-09 -1.766426e-08 -3.310653e-10 1.827719e-08 1.135395e-08 -5.108346e-09
-5.998460e-09 -3.223714e-09 -6.329397e-09 1.815301e-08 1.086134e-08 -5.676579e-09
-3.516845e-09 6.778728e-09 2.174021e-09 7.620437e-09 -1.205746e-09 -2.154258e-09
-2.751840e-07 3.136815e-07 7.205539e-07 -3.772671e-08 2.356434e-07 -5.628006e-07
9.948727e-09 2.591001e-10 8.191178e-09 1.086816e-08 -2.379647e-09 -1.312521e-08
-2.413470e-09 2.956638e-09 6.099063e-10 2.310333e-09 -8.647689e-11 -8.965086e-10
3.339205e-09 2.484493e-09 -8.735341e-10 6.135868e-09 1.766800e-10 -1.448308e-09
-1.080352e-09 2.649027e-09 3.504368e-10 5.088449e-09 -4.948110e-10 -1.652541e-09
-3.687758e-09 1.561649e-09 6.763967e-10 6.911623e-10 -3.660184e-12 -2.777086e-10
-2.579167e-09 2.010708e-09 3.253082e-10 2.225459e-09 1.853319e-10 -6.891847e-10
9.797833e-09 8.266225e-10 -2.147060e-10 8.718890e-09 -1.226557e-09 -5.750723e-09
1.038786e-08 -2.423153e-09 3.706448e-10 4.988416e-09 -3.441132e-11 -2.989044e-09
-6.910392e-10 2.669607e-09 4.243614e-10 4.202170e-09 -2.611719e-10 -9.206588e-10
9.735182e-09 -2.205501e-09 9.477823e-10 6.285473e-09 -8.491187e-10 -4.064843e-09
-3.060593e-08 2.058444e-08 -3.760180e-09 1.480130e-08 1.016521e-08 -1.640165e-08
9.446489e-09 -5.907003e-11 3.415130e-10 8.161049e-09 -9.791062e-10 -5.596647e-09
6.819902e-09 -2.472411e-11 -1.388386e-09 6.931441e-09 -5.600941e-10 -2.138288e-09
-3.684665e-08 -3.874101e-08 1.924634e-07 2.277681e-08 1.304165e-08 1.091653e-07
-1.784610e-09 -5.491226e-09 -1.589808e-10 -8.020829e-09 9.857355e-10 -1.899228e-10
4.150912e-10 -1.117781e-08 2.235947e-09 -8.504573e-09 1.215238e-09 4.193944e-10
1.494010e-09 -1.140267e-08 1.150747e-09 -8.678913e-09 2.387783e-09 6.883540e-10
-3.152386e-09 -4.722988e-09 1.772056e-09 -7.258053e-09 9.289117e-10 -3.306607e-10
-1.985916e-09 -5.569983e-09 1.985058e-09 -4.430428e-09 -1.283272e-10 -5.623221e-10
-9.626052e-10 -7.901856e-09 8.680718e-10 -7.612429e-09 1.663470e-09 7.047670e-10
6.308191e-09 -3.085419e-09 -6.659286e-10 8.510647e-10 1.489148e-11 -6.922596e-11
7.836657e-09 -3.632688e-09 -8.176897e-10 -1.617120e-10 5.707562e-11 -8.417411e-11
6.990411e-09 3.134825e-08 -4.888806e-08 -6.437937e-09 -3.835478e-08 -1.132248e-08
7.638818e-09 -3.701852e-09 -7.295912e-10 -9.078749e-11 4.429516e-11 -1.428424e-10
8.050949e-09 -3.228870e-09 -4.194436e-10 2.899889e-09 -9.419818e-11 -1.009155e-09
6.930161e-09 -3.521113e-09 -8.256026e-10 -8.582173e-11 6.081759e-11 -1.751971e-10
6.670395e-09 -3.339933e-09 -8.156764e-10 -1.531692e-10 -7.376570e-11 -1.182765e-11
6.953394e-09 -3.331748e-09 -5.466563e-10 1.665396e-09 6.327882e-11 -4.515759e-10
6.580070e-09 -3.395919e-09 -6.982113e-10 6.762568e-10 8.333562e-11 -8.070833e-11
9.959731e-10 1.137225e-09 -2.633018e-10 -4.653075e-09 -8.596510e-10 1.644286e-10
3.434787e-08 -3.258207e-09 2.049641e-08 2.126259e-08 1.493530e-08 2.654757e-08
3.865851e-09 -1.859330e-08 2.220855e-09 -9.523760e-09 3.624624e-09 8.974600e-10
3.722931e-09 -1.513008e-08 1.110562e-09 -6.949637e-09 2.232077e-09 -2.664275e-11
2.731090e-09 -1.405797e-08 1.714491e-09 -6.664104e-09 9.436539e-10 -3.062742e-10
3.798931e-09 -1.526247e-08 1.979875e-09 -8.052577e-09 2.489175e-09 3.296283e-10
1.431824e-09 -1.311554e-08 -6.083408e-10 -1.134292e-08 3.787108e-09 5.735641e-10
-4.408227e-09 4.291398e-09 -1.494600e-09 -3.268950e-09 -1.408812e-09 1.467402e-09
4.849297e-09 -1.631291e-08 1.239888e-09 -7.968109e-09 2.751698e-09 6.067954e-10
-7.948053e-08 2.042134e-07 1.532174e-07 -1.200622e-07 -2.470441e-07 -2.019746e-08
6.940990e-09 -3.886092e-09 -5.986873e-10 -1.071299e-09 -2.908740e-11 -6.595102e-11
-1.501422e-07 5.378723e-07 3.257052e-07 1.088833e-07 -4.829753e-07 -2.078786e-07
-1.179566e-07 2.559089e-07 1.636802e-08 2.605820e-08 -1.861926e-07 -1.241832e-08
-6.573222e-08 3.604917e-07 -1.897061e-07 -3.677763e-08 -5.741116e-09 -7.246720e-08
-2.880777e-08 9.483876e-08 -5.959076e-08 3.175111e-09 -2.762360e-08 -4.420248e-08
-8.344264e-08 7.184420e-08 7.262841e-08 4.872781e-08 -1.503817e-07 -2.613173e-08
3.156260e-09 8.590290e-10 -3.782747e-10 -7.823673e-09 6.107572e-10 -4.101022e-10
-3.890258e-09 -5.130358e-10 1.085421e-09 -1.385832e-09 4.953109e-10 -3.396650e-10
-4.661799e-09 2.036042e-09 9.252974e-10 -5.260112e-10 -1.578302e-10 -6.129463e-10
-4.413798e-09 2.029353e-09 3.046385e-10 -1.598115e-09 -6.493936e-10 -2.038014e-11
-3.926294e-09 9.886989e-10 1.009659e-09 1.591445e-10 -5.607415e-11 -5.103137e-10
-3.807410e-09 2.859881e-10 9.711019e-10 -5.687984e-10 3.025493e-10 -1.768115e-10
1.149570e-08 -2.471654e-08 -1.248650e-09 -7.340127e-09 7.757905e-09 1.153634e-09
9.038449e-09 -2.358379e-08 -1.902581e-09 -7.074289e-09 6.003073e-09 6.754912e-10
-3.951441e-09 -7.302017e-10 1.198569e-09 -1.399610e-09 3.467533e-10 -2.680161e-10
6.860294e-09 -3.305219e-09 -8.077254e-10 -6.731440e-10 -4.463802e-11 -3.797695e-11
1.388449e-08 -2.829086e-08 -2.065868e-09 -1.546891e-09 8.825897e-09 4.710493e-10
9.277290e-10 1.442917e-10 -2.995242e-10 -2.233290e-09 -1.128140e-10 -2.767786e-11
9.015697e-09 -2.134489e-08 -6.797873e-10 -6.003846e-09 3.827944e-09 1.244028e-09
1.221036e-08 -2.470934e-08 -4.794072e-09 -7.447861e-09 8.106862e-09 3.524063e-09
1.151809e-09 8.023868e-09 -3.574296e-08 1.424388e-08 -3.012038e-08 2.246003e-08
-8.332671e-09 -9.940293e-09 -1.193750e-08 2.245209e-08 -3.459123e-08 2.115024e-08
-4.908857e-09 7.493809e-09 -1.073527e-08 7.424864e-09 -1.515676e-08 1.340326e-08
-8.375907e-09 -7.142336e-10 -8.023986e-09 2.394699e-08 -2.772057e-08 2.167747e-08
-1.246014e-08 1.634415e-08 -8.129346e-09 4.753561e-09 -6.477773e-09 1.280643e-08
-7.755637e-09 7.065955e-09 -1.073081e-08 6.305956e-09 -1.512977e-08 1.349597e-08
-2.361393e-08 1.692229e-08 -1.134710e-08 2.096139e-08 -2.138808e-08 2.507307e-08
-1.475708e-08 5.243496e-09 -1.018170e-08 1.125899e-08 -1.257686e-08 1.634365e-08
1.133846e-09 -1.326763e-08 1.874758e-09 9.154574e-09 2.043625e-09 -2.339766e-10
8.922295e-10 -1.424962e-08 3.001096e-09 7.738808e-09 1.005827e-09 -2.954106e-10
2.117473e-09 -1.434389e-08 2.896122e-09 7.859925e-09 9.025619e-10 -2.687939e-10
1.021030e-09 -1.509071e-08 2.928691e-09 8.751938e-09 2.049888e-09 -2.681759e-10
-5.327562e-09 -6.440012e-09 -8.697060e-09 -1.671932e-08 -1.935194e-08 -9.290533e-09
1.090977e-08 -5.913137e-08 -1.567618e-08 -3.086028e-08 -5.216530e-08 -1.495592e-08
-1.657864e-10 -1.008903e-08 1.250495e-09 1.072359e-08 2.495153e-09 -2.414574e-10
-2.859784e-09 1.907117e-09 5.180341e-10 1.446370e-09 2.810142e-10 -7.719714e-10
-9.670240e-10 -1.151333e-08 2.857601e-09 8.354274e-09 1.769218e-09 3.626960e-10
-7.163504e-10 -1.016049e-08 9.393260e-10 1.037776e-08 2.049402e-09 -7.333649e-10
4.890603e-09 -2.122145e-09 -5.460885e-10 -3.556921e-09 -1.443237e-10 -1.674790e-10
9.137500e-10 -1.318694e-08 2.966954e-09 6.955733e-09 1.429637e-09 -2.717631e-10
-9.299110e-09 8.426314e-09 7.994423e-10 2.103274e-09 -6.004944e-10 -9.054427e-10
-8.774900e-10 -9.304014e-09 1.155620e-09 -1.038075e-08 3.206184e-09 2.278635e-10
-8.977022e-09 9.679114e-09 7.209232e-09 9.244309e-09 -3.561850e-09 -2.007851e-09
-1.508668e-08 1.393279e-08 -2.844934e-09 -1.628890e-09 -1.168155e-09 5.079403e-09
-1.561744e-08 1.670631e-08 -2.217200e-09 -2.883968e-09 1.864774e-10 4.273435e-09
-1.443773e-08 9.190802e-09 9.801677e-09 7.510522e-09 -5.636857e-09 -6.558852e-09
-9.432291e-09 2.429668e-08 -1.921047e-09 9.983268e-09 -4.631617e-09 -6.817346e-10
-2.459959e-08 9.735057e-09 -3.954539e-09 2.327527e-08 1.219001e-08 -1.534551e-08
-7.341848e-09 1.353589e-08 2.700454e-09 6.741553e-09 -3.144878e-09 -1.959533e-09
-2.094478e-08 7.163822e-08 -8.265702e-08 -1.165295e-08 4.519133e-09 -4.012990e-08
-1.548506e-08 2.759549e-08 -1.982821e-08 -8.391867e-08 3.951791e-08 8.070799e-08
-3.879422e-09 4.547607e-10 -9.877622e-09 1.504385e-08 9.240047e-09 -5.194790e-09
1.924186e-08 -7.444581e-08 -1.837054e-08 3.096479e-08 -6.949711e-08 2.859479e-08
-1.180034e-08 -2.395218e-09 1.156824e-10 1.070357e-08 -7.012066e-09 6.694576e-09
8.034845e-10 3.684293e-08 -5.432878e-08 -1.263807e-08 -3.840978e-08 -2.858317e-08
-2.319304e-08 7.891944e-08 -2.926776e-08 7.844752e-09 1.170137e-08 -1.293214e-08
-2.190573e-08 1.428383e-08 -2.770587e-09 1.881120e-08 -1.563192e-08 2.121211e-08
1.100935e-08 -4.559732e-08 -4.680295e-08 -4.712914e-08 -8.813779e-08 -2.454988e-08
-7.627436e-10 1.552657e-09 -1.209557e-10 -3.278755e-09 -7.641275e-10 -3.288689e-10
2.700758e-08 3.592603e-08 -5.764824e-08 -3.661371e-09 -2.081100e-08 1.605555e-08
1.274443e-08 3.679314e-09 4.478448e-09 -1.138043e-08 6.570586e-09 -1.496140e-08
-9.758925e-09 5.920901e-08 -4.560716e-08 -4.826815e-09 -9.271661e-09 -1.238996e-08
-3.492140e-09 -3.091714e-10 1.321810e-09 -1.652786e-09 2.725854e-10 -4.513057e-10
-1.194600e-08 4.367856e-08 -3.079845e-08 -6.986789e-10 -1.736798e-08 -1.198261e-08
1.938985e-10 -3.573390e-09 -5.230696e-08 -5.218233e-09 -5.031219e-08 -1.238955e-08
4.853254e-08 2.491616e-09 -9.249995e-08 -7.180757e-09 -1.020939e-07 -9.446889e-09
-9.968003e-09 1.908144e-08 -4.157720e-09 -9.868680e-10 3.304388e-09 -4.140217e-09
2.329359e-08 -1.433106e-08 -3.522233e-08 -7.594558e-09 -4.807632e-08 1.648265e-09
-1.424834e-08 2.215056e-08 -1.020106e-08 8.970916e-09 8.307573e-09 -1.217099e-08
-2.586782e-08 1.581142e-08 -8.888555e-09 2.215048e-08 1.320682e-08 -2.162047e-08
6.761858e-08 -1.612463e-08 1.187503e-08 -3.657687e-09 9.179586e-10 5.532569e-08
-1.242177e-08 3.019742e-08 -7.151309e-09 -5.977062e-09 2.320983e-09 -7.858790e-09
-1.253056e-08 3.094775e-08 -6.918343e-09 -4.418147e-09 -1.957546e-09 -7.753981e-09
-2.651035e-08 2.801462e-08 -1.287426e-08 9.146623e-09 9.444990e-09 -1.723522e-08
-2.224713e-08 2.441583e-08 -1.302940e-09 1.690493e-08 1.220685e-08 -1.883339e-08
6.330608e-09 -1.856062e-08 1.520401e-09 6.811339e-09 1.485940e-09 -4.248220e-10
2.994733e-09 -4.661849e-10 -4.701790e-10 -3.654719e-09 -3.267509e-10 -4.237832e-11
2.022419e-09 -3.673195e-10 -4.596286e-10 -2.518136e-09 -2.411436e-10 1.236431e-10
3.610404e-09 -1.118592e-09 -7.308072e-10 -4.123601e-09 -3.853863e-10 1.270672e-11
3.578194e-09 -1.692441e-09 -6.365837e-10 -2.734172e-09 -3.053504e-10 6.285683e-11
3.213394e-09 -6.089642e-10 -6.408012e-10 -3.546562e-09 -1.796791e-10 7.222223e-12
4.622385e-09 -2.199493e-09 -7.361387e-10 -2.326865e-09 -8.036727e-11 -3.080758e-11
-1.307198e-08 4.040877e-09 5.897371e-11 4.579841e-09 -4.208295e-09 5.015391e-09
2.289918e-09 -5.558958e-10 -4.511281e-10 -3.381386e-09 -2.920406e-10 -8.365908e-11
3.166067e-09 -1.182732e-09 -5.640670e-10 -2.737826e-09 -3.354845e-10 1.251044e-10
3.159537e-09 5.686277e-10 3.048984e-09 6.212325e-09 -9.780012e-10 -4.687661e-09
-3.750217e-08 1.468210e-07 3.261499e-08 -1.362075e-10 -4.264160e-08 1.545352e-08
4.729457e-09 -2.097293e-10 -8.371293e-10 5.238354e-09 1.712371e-11 -1.714674e-09
1.153484e-08 -2.473586e-09 1.311082e-09 5.017804e-09 -1.727463e-10 -4.858762e-09
7.659777e-09 -1.944646e-09 4.622701e-09 6.342563e-09 -5.692146e-10 -5.925819e-09
3.443949e-08 -1.345081e-08 1.361877e-08 -1.276517e-09 6.584699e-09 2.043826e-08
3.410222e-09 -7.265244e-12 6.608272e-10 5.475214e-09 1.143273e-10 -1.419455e-09
9.701707e-09 -2.202226e-09 2.525339e-09 6.280484e-09 -5.546897e-10 -3.502177e-09
5.114807e-09 1.880534e-09 2.730213e-09 8.198460e-09 -1.037289e-09 -4.196010e-09
-1.992018e-09 1.959434e-08 -1.120439e-08 8.306870e-09 -3.787076e-09 -8.242965e-09
5.470149e-08 2.341722e-08 -8.670176e-08 -6.511015e-08 1.646481e-07 1.748492e-08
-1.275547e-08 7.994404e-09 -1.623212e-09 1.183842e-08 5.453613e-09 -5.510325e-09
1.300876e-08 6.357559e-11 4.972385e-10 -1.122425e-08 2.448503e-09 -3.623416e-09
1.110832e-08 -2.581471e-08 -1.649472e-10 -2.696702e-09 5.650504e-09 3.214906e-10
1.911009e-08 -3.138152e-09 3.216867e-10 -9.102073e-09 2.809450e-09 -7.914545e-09
2.920251e-08 -3.947250e-09 -1.181888e-09 -7.529002e-09 1.037358e-09 -1.485893e-08
1.560979e-08 -4.874812e-09 3.416132e-09 -6.351873e-09 2.121016e-09 -8.063072e-09
-5.823570e-08 5.320673e-08 1.708804e-07 -1.998387e-08 -1.749992e-08 -1.581457e-07
2.578216e-08 2.745485e-08 -1.097124e-07 3.482664e-09 -1.121237e-07 2.418411e-08
-9.576526e-08 1.194655e-07 1.619001e-07 9.663321e-09 1.091855e-07 -2.228522e-08
-3.726486e-10 -1.163564e-08 3.280009e-09 6.206861e-09 7.071606e-10 -1.194421e-10
1.925136e-09 -1.563243e-08 3.462012e-09 7.240831e-09 7.227047e-10 -1.059632e-10
-1.993147e-08 9.395164e-08 -5.072096e-08 -2.311710e-08 2.440976e-09 1.252960e-09
1.154287e-08 -2.533533e-08 2.477101e-09 2.438846e-09 4.486786e-09 -2.940117e-10
-7.759097e-08 1.252560e-07 1.993142e-07 -3.733288e-08 7.503593e-08 -3.685172e-08
-1.684706e-07 -5.524989e-09 2.810472e-07 -1.242793e-09 4.666503e-08 -5.187546e-08
-3.224386e-09 -2.100702e-09 1.220212e-09 -5.854548e-09 3.506260e-10 7.575574e-11
-3.807591e-09 1.087827e-09 9.450773e-10 4.135465e-10 2.258571e-11 -1.226494e-10
-2.135687e-08 3.612370e-08 -2.648460e-08 -4.167496e-09 9.173295e-09 -2.395574e-08
-9.806783e-08 7.950829e-08 1.615225e-07 -4.752565e-08 1.193181e-07 -1.117121e-07
-3.747098e-09 1.402225e-09 8.999768e-10 3.227316e-10 2.899049e-10 -1.992018e-10
-1.547020e-08 7.989566e-08 -1.521627e-08 -3.945615e-08 -8.223990e-10 -1.257758e-08
-9.738040e-08 1.699000e-08 1.358095e-07 -6.624652e-08 1.346902e-08 -1.123274e-07
-6.802156e-08 -3.342288e-09 2.797378e-07 -2.599816e-08 2.891797e-08 -1.263013e-08
-3.016258e-09 -3.078509e-09 1.527061e-09 -2.692377e-09 4.686174e-10 -5.980875e-10
-2.415574e-08 9.470598e-08 -6.735613e-08 1.071041e-08 4.733564e-08 6.793755e-09
7.810728e-09 5.951048e-08 -7.441181e-08 -2.904075e-08 -6.644907e-08 -5.185823e-09
-3.549923e-09 4.568554e-09 1.206427e-08 8.994035e-09 -5.708229e-09 -8.828224e-09
1.262218e-08 -3.618094e-08 -2.994808e-09 2.045657e-08 3.084108e-08 -7.035267e-09
1.289967e-09 -1.329257e-08 -9.107041e-09 1.949018e-08 1.253197e-08 -4.660941e-09
1.405495e-08 -3.651872e-08 -8.941668e-09 1.151715e-08 1.860129e-08 -3.590244e-09
9.291188e-09 -1.941018e-08 -7.235671e-09 1.389249e-08 8.771141e-09 -2.337271e-09
-4.133134e-09 2.918510e-09 6.776326e-10 3.285438e-10 3.796415e-10 -8.268851e-10
1.103031e-08 -2.547917e-08 -5.159873e-09 9.270175e-09 1.160806e-08 -1.721121e-09
-4.187272e-09 -2.526300e-09 1.198094e-09 -4.198268e-09 -5.369083e-11 -2.155718e-10
1.387597e-08 -2.375909e-08 -3.546199e-09 3.346011e-09 6.629236e-09 -3.612098e-10
2.430756e-09 -1.667426e-08 2.966915e-09 9.789086e-09 1.807102e-09 -7.424694e-10
-3.272616e-09 1.685049e-09 6.969740e-10 5.377831e-10 1.706831e-10 -5.632558e-10
3.879090e-09 -1.867112e-08 2.532947e-09 8.564225e-09 2.837540e-09 -5.741441e-10
-5.694412e-09 1.453317e-09 3.987202e-10 -5.690105e-09 1.856216e-09 5.569376e-10
1.463646e-08 -8.535660e-08 -3.798059e-09 -3.741172e-08 5.047046e-08 1.289583e-08
-1.113503e-09 -6.992824e-09 -4.743257e-09 -1.366824e-08 4.604313e-09 3.376091e-09
4.240788e-09 -1.759961e-08 2.585607e-09 7.284336e-09 1.594291e-09 -3.627294e-10
1.655244e-09 -4.283289e-10 -1.979649e-10 2.883531e-09 1.924857e-10 -2.912984e-10
2.587104e-09 -1.111925e-08 -9.226202e-10 -9.094565e-09 2.510643e-09 6.792885e-10
-2.898668e-09 -1.707759e-09 1.546407e-09 -1.440544e-09 2.837315e-10 -5.743359e-10
2.007399e-09 -1.365933e-08 1.348218e-09 9.435513e-09 1.588457e-09 4.181433e-11
-3.662035e-09 5.122587e-10 1.062709e-09 -5.872383e-10 2.442706e-10 -4.006921e-10
6.632969e-09 -3.289364e-09 -8.546288e-10 2.923412e-10 7.208154e-11 1.479006e-10
6.659796e-09 -3.566448e-09 -8.637979e-10 -1.305934e-09 -1.051478e-10 1.258204e-10
-3.021485e-09 -9.084888e-09 -2.050822e-09 -1.710365e-08 8.095205e-09 3.970388e-09
-3.662036e-09 3.800675e-10 1.062316e-09 -1.016824e-11 2.524496e-10 -4.195630e-10
6.111984e-09 -2.303613e-09 -6.609122e-10 2.579956e-09 1.948463e-10 -3.372813e-11
-3.784555e-10 4.987957e-10 -7.698842e-11 2.226771e-09 5.072029e-10 -9.578971e-11
8.100108e-09 -3.733902e-09 -1.145114e-09 -8.310461e-10 -2.108845e-11 1.475451e-10
6.875948e-09 -3.420423e-09 -7.249550e-10 -1.101505e-09 2.117273e-11 -4.530426e-11
6.667408e-09 -3.339843e-09 -8.641294e-10 -1.497127e-10 5.005618e-11 -6.570322e-11
-5.319480e-09 6.638131e-09 -1.424376e-10 3.159934e-10 4.252218e-10 -6.604049e-10
6.825704e-09 -3.034404e-09 -8.536053e-10 -1.798111e-09 -2.881528e-11 -7.953338e-11
1.162656e-08 -5.194462e-09 4.432257e-09 -5.633129e-09 1.653687e-09 -4.691346e-09
8.675376e-09 -2.045755e-09 1.541813e-09 -7.905619e-09 1.108295e-09 -2.959290e-09
1.064418e-08 -4.920613e-09 1.728033e-09 -3.836936e-09 3.236889e-10 -2.841731e-09
3.818493e-09 -1.354335e-09 -4.941317e-10 2.875540e-09 2.203150e-10 -2.506614e-10
2.188739e-09 -2.778394e-11 3.452882e-11 4.011745e-09 -1.963385e-11 -5.842578e-10
1.832187e-09 -7.375043e-10 -3.430141e-10 1.841520e-09 3.050985e-10 -1.226585e-11
1.022378e-08 -1.555596e-09 -1.508904e-09 -6.584416e-09 -1.157092e-10 -2.098996e-09
-3.100323e-09 3.933110e-09 8.033139e-10 3.765073e-09 -7.670198e-10 -1.368071e-09
1.485540e-08 -2.173417e-09 -6.487717e-10 -7.142680e-09 6.725267e-10 -2.619990e-09
-4.566326e-09 3.722894e-09 5.140346e-10 1.207767e-09 5.591061e-10 -6.419510e-11
1.148011e-08 -3.418725e-09 3.791528e-09 -7.375517e-09 1.175303e-09 -5.417135e-09
6.791644e-09 -8.310315e-10 1.102854e-09 -8.063040e-09 1.376774e-09 -3.417586e-09
-1.459836e-08 2.168844e-08 -1.142607e-08 9.808302e-12 5.878816e-09 -1.116083e-08
-3.711998e-08 1.005436e-08 -1.172168e-08 4.476879e-08 2.773230e-08 -3.239203e-08
-1.514198e-08 6.625584e-09 -7.098641e-10 1.335500e-08 4.838261e-09 -5.957114e-09
7.039037e-09 -3.012800e-09 -7.417033e-10 -1.835137e-09 -1.006451e-10 -1.860179e-11
-6.443856e-09 2.168844e-08 -7.115928e-09 -6.965833e-09 2.224529e-09 -4.911104e-09
-1.042353e-08 3.723677e-08 -2.027180e-08 6.736008e-09 1.537429e-08 -1.533154e-08
6.139497e-09 -3.362037e-09 -7.882410e-10 -1.382636e-09 -2.153999e-11 -1.346696e-13
7.462547e-09 -3.618448e-09 -6.739687e-10 1.671604e-10 -2.380424e-11 -4.874577e-10
6.619308e-09 -3.303369e-09 -8.694325e-10 -1.312085e-09 -1.066644e-10 1.282634e-10
5.754396e-08 -2.792893e-09 -4.236880e-09 -4.287285e-09 -7.628886e-10 2.267453e-08
-4.180545e-08 5.939538e-08 -2.633861e-08 6.297619e-08 4.025435e-08 -5.374060e-08
6.854615e-09 -3.148683e-09 -9.795182e-10 -2.405132e-09 -2.129790e-10 3.251866e-11
8.396101e-09 -3.644366e-09 -8.304193e-10 -1.316059e-09 1.977438e-13 1.134257e-10
6.629941e-09 -3.149889e-09 -7.978909e-10 -1.024878e-09 -3.109524e-11 -6.858847e-11
6.148454e-09 -3.277586e-09 -7.812659e-10 -6.155634e-10 -4.530043e-11 9.990542e-11
-3.926063e-09 -4.170314e-09 -2.686688e-09 -8.306429e-09 -6.882879e-09 -2.043136e-09
-1.782401e-10 1.376464e-09 -1.703351e-08 -1.335021e-08 -1.621662e-08 -7.913938e-09
-3.104056e-08 3.612370e-08 -1.815452e-08 -4.250992e-10 6.078681e-09 -2.498889e-08
-7.032345e-09 2.331753e-09 -7.336825e-09 -9.513431e-09 -1.117541e-08 -7.981335e-09
-4.940301e-09 1.498954e-08 -2.288884e-08 -1.361070e-08 -1.907568e-08 -1.365278e-08
-6.168461e-09 1.629500e-08 -2.076553e-08 -1.097197e-08 -1.765208e-08 -1.374149e-08
-7.905137e-09 1.180186e-08 -1.213048e-08 -7.813344e-09 -1.240109e-08 -1.138557e-08
-2.072391e-09 -6.482245e-09 -6.242273e-09 -1.649372e-08 -1.993859e-08 -1.303398e-08
-5.285946e-09 2.471467e-09 -5.754447e-09 -1.521380e-08 -1.760736e-08 -1.206459e-08
1.216524e-08 2.964424e-08 -1.122288e-07 6.232573e-09 -1.093185e-07 1.749410e-08
1.602338e-08 -2.321640e-08 -3.162583e-08 5.710328e-09 -3.356786e-08 6.015312e-09
2.185544e-08 -1.400350e-08 -4.319820e-08 -3.425338e-09 -5.591222e-08 3.514499e-09
2.396414e-08 7.001915e-09 -5.239336e-08 6.958052e-09 -4.707459e-08 2.070859e-08
2.170853e-08 -7.134583e-09 -4.124567e-08 -3.122620e-09 -4.005146e-08 3.676820e-09
2.037296e-08 4.167717e-09 -3.568517e-08 1.131926e-09 -3.129408e-08 5.903104e-09
-9.066712e-08 1.203997e-07 -2.225447e-08 7.049170e-09 -1.258603e-07 1.250009e-08
-3.031448e-09 9.977166e-10 6.286003e-10 5.864420e-10 3.056596e-10 -3.098990e-10
-2.230245e-09 -5.414248e-09 1.902710e-09 -4.050787e-09 4.447461e-10 -6.654614e-10
-3.248093e-08 3.311227e-08 1.285242e-07 -4.284407e-08 -8.477679e-08 3.607722e-08
-2.599434e-08 9.924503e-08 -7.442026e-08 -4.500381e-09 -6.075648e-08 -3.997747e-08
-8.091159e-08 1.387637e-07 2.143130e-07 -1.473370e-07 -3.351160e-07 5.574321e-08
6.000906e-10 -9.542811e-11 -9.504353e-11 1.672785e-09 1.120337e-10 -9.262502e-11
-8.515811e-08 -5.418217e-08 6.168685e-07 -4.730236e-08 -1.535097e-07 1.555871e-07
-2.800840e-09 2.095549e-09 1.070171e-10 -1.893203e-09 -2.438245e-10 -1.150429e-10
-3.462732e-09 -2.669517e-09 1.777329e-09 -3.048036e-09 -2.592693e-10 -5.598013e-10
-3.044099e-09 2.182462e-09 4.334910e-11 -2.392868e-09 -5.248576e-10 -1.630530e-10
5.163657e-09 -1.540151e-09 1.898980e-09 5.986629e-09 -4.846919e-10 -3.216785e-09
-2.368443e-09 1.945840e-09 -2.638245e-11 -2.617247e-09 -2.568546e-10 -3.381673e-11
9.967991e-10 1.974092e-10 -3.802123e-10 -3.507647e-09 -5.364712e-10 1.541833e-10
3.462247e-09 -1.637759e-07 -7.238776e-08 -1.450372e-07 1.830954e-07 8.648931e-08
2.620997e-09 -6.801608e-10 -5.287968e-10 -3.953772e-09 -2.913286e-10 9.821034e-13
2.488857e-09 1.849148e-09 1.519768e-09 7.786939e-09 -5.815785e-10 -2.090538e-09
7.106732e-09 -1.059922e-09 -3.501068e-08 -1.558684e-08 -3.380552e-08 -1.252842e-08
1.925802e-10 1.340696e-09 -7.857316e-10 -5.094290e-09 -4.103937e-10 7.394425e-10
1.304680e-08 -2.091596e-09 4.443556e-08 -3.424645e-08 -2.004503e-08 4.178995e-08
5.044054e-08 -3.286791e-08 5.968689e-08 -5.842478e-09 -5.473267e-10 1.039711e-07
-4.013361e-08 -5.730292e-08 2.172801e-07 -2.472814e-08 -9.514013e-08 9.940853e-08
-3.725201e-10 8.531558e-10 -1.169810e-08 6.092463e-09 -1.042601e-08 5.667231e-09
1.264225e-08 -1.462900e-08 -1.555704e-08 -7.789248e-09 -1.690957e-08 -2.258355e-09
-1.613785e-08 2.368087e-08 2.114649e-08 -3.291778e-08 -3.415369e-08 1.889765e-08
-2.182171e-08 3.053285e-08 4.735726e-08 -3.667311e-08 -4.996623e-08 1.864260e-08
8.136265e-08 3.678381e-07 -3.239419e-07 1.622390e-07 1.410229e-07 1.356274e-07
3.900864e-10 3.128490e-08 4.687748e-08 -3.511971e-08 -3.457934e-08 2.891569e-08
-2.115449e-08 5.153285e-08 -2.223402e-08 4.267471e-08 4.015988e-08 -4.796046e-10
-8.841923e-08 7.623726e-08 1.244894e-07 6.119678e-08 1.399227e-07 3.872086e-08
-1.508560e-07 9.876949e-08 4.958899e-07 1.172861e-07 2.407094e-07 1.629311e-07
-3.727991e-07 3.946656e-07 -5.412750e-08 6.461624e-08 2.261597e-07 -1.914029e-07
6.957537e-09 -1.584012e-09 6.292813e-10 5.030092e-09 -1.043124e-10 -1.519182e-09
1.290507e-09 3.874908e-08 -5.631902e-08 -9.268463e-09 -2.611927e-08 8.742024e-09
-3.173204e-09 8.110876e-10 6.432868e-10 2.516640e-10 4.213271e-10 -3.869601e-10
3.672376e-09 -3.815836e-10 -5.004659e-10 -5.407048e-09 -3.123644e-10 1.808557e-10
4.796200e-09 -1.584012e-09 2.410220e-09 4.873280e-09 -2.747307e-10 -2.995934e-09
1.057464e-08 -4.038046e-09 6.794441e-10 1.831233e-09 -4.312112e-11 -1.935353e-09
5.195799e-09 -6.695162e-10 -4.791723e-10 4.717947e-09 2.559332e-10 -9.212165e-10
6.326331e-10 7.793952e-10 -7.623635e-11 3.201457e-09 4.309606e-10 -1.428938e-10
-9.478589e-09 2.000784e-09 -3.896091e-09 -1.143806e-08 -9.610384e-09 -8.414182e-09
3.071793e-09 -1.840259e-08 -8.910093e-09 -2.486663e-08 -3.308906e-08 -1.658350e-08
1.125360e-09 -6.020448e-09 -5.587743e-09 -1.770961e-08 -2.098751e-08 -1.019313e-08
4.376118e-09 -5.502725e-09 -1.262340e-08 -1.664149e-08 -2.141248e-08 -9.717038e-09
-7.201483e-09 3.539212e-09 -7.084243e-09 -1.562155e-08 -1.522686e-08 -9.265961e-09
2.024706e-09 2.028109e-10 -2.231300e-10 3.616494e-09 4.051978e-10 -3.161800e-10
-3.913320e-08 -6.717090e-09 1.676389e-07 1.063765e-08 3.626976e-08 1.393998e-07
8.467725e-08 3.546771e-08 2.388015e-07 -6.402695e-08 -8.319244e-08 2.382064e-07
-7.694731e-09 -2.804506e-08 4.385774e-07 3.502626e-08 3.615440e-09 2.909339e-07
-2.303425e-07 1.624028e-07 1.232656e-07 1.941219e-07 -1.537023e-07 -1.036753e-07
-2.735721e-08 1.415516e-07 2.077564e-07 1.043691e-08 -8.699064e-08 3.071166e-07
-8.235210e-08 1.447642e-07 9.295473e-09 -2.256930e-07 -4.330892e-07 -2.472544e-08
-9.958805e-08 -5.624571e-08 2.062222e-07 -3.679248e-08 -1.236333e-07 3.269236e-08
8.341048e-09 -4.353340e-11 -1.051909e-09 6.608350e-09 -3.163421e-10 -2.922730e-09
-8.177427e-10 4.760166e-09 1.257810e-08 1.166729e-08 -6.868715e-09 -1.001308e-08
-8.435103e-09 2.218865e-09 -5.808829e-09 -1.081319e-08 -1.071628e-08 -9.212744e-09
2.261306e-09 -1.609439e-08 2.611804e-09 -1.011807e-08 2.227755e-09 4.046270e-10
2.068917e-08 3.547769e-09 2.477228e-09 1.439118e-08 -4.554604e-09 -1.660006e-08
2.124620e-07 -4.700174e-08 2.309761e-07 5.502783e-09 -3.635294e-10 2.933884e-07
-1.187236e-07 1.973311e-07 1.844940e-07 -6.668569e-08 -2.375203e-07 3.500811e-08
-2.594635e-09 1.247435e-09 5.570815e-10 1.746835e-09 -1.890777e-11 -2.537397e-10
-7.072491e-09 1.286826e-07 -6.254685e-08 2.434394e-08 -4.145999e-08 -2.376140e-08
4.397296e-09 -1.964135e-08 2.512654e-09 1.034507e-08 3.425127e-09 -3.514475e-10
-1.705406e-09 9.369634e-10 2.477218e-10 1.668607e-09 2.123806e-10 -2.588214e-10
6.991813e-09 -1.945116e-08 7.636094e-10 9.038269e-09 3.533286e-09 -3.434153e-10
2.481761e-10 7.677281e-11 -1.618750e-11 2.096276e-09 2.780602e-10 -1.575448e-10
1.971695e-09 -1.614716e-08 2.271877e-09 9.451661e-09 3.082068e-09 -6.210534e-10
1.662325e-09 -2.014922e-11 -2.011307e-10 2.955107e-09 3.634656e-10 -2.157341e-11
-1.355474e-09 -4.977093e-09 2.086977e-09 -3.060806e-09 3.640732e-11 -3.790065e-10
3.806134e-09 -1.710101e-08 3.010549e-09 7.006060e-09 1.858635e-09 -2.104514e-10
-1.958613e-09 1.181864e-09 3.783676e-10 1.870346e-09 5.007021e-10 -3.584295e-10
-3.906494e-09 2.047580e-10 1.407738e-09 -1.133945e-09 -5.235989e-11 -2.581078e-10
9.742829e-10 -8.541523e-11 -2.352691e-10 2.587122e-09 4.691704e-10 -1.417211e-11
-3.614479e-09 -1.000483e-09 1.443501e-09 -2.574328e-09 1.861407e-10 -7.038858e-11
2.360426e-09 -1.706691e-08 2.504975e-09 1.007933e-08 2.718922e-09 -9.278571e-10
1.814150e-08 1.933753e-10 -7.307142e-08 2.037861e-08 6.525635e-08 -2.270410e-08
5.321312e-08 -1.725973e-07 -1.687387e-09 3.323260e-08 1.212725e-07 -2.898892e-08
7.571452e-09 -2.084225e-08 2.876979e-09 -3.611882e-09 1.788433e-09 -1.701309e-10
1.723929e-09 -1.450016e-08 9.665637e-10 -9.980675e-09 3.257418e-09 1.007690e-09
2.520008e-08 1.033484e-09 -5.176888e-08 2.378731e-08 8.310293e-08 -3.193848e-08
1.083831e-08 -3.050507e-08 1.850323e-09 -4.100927e-09 7.299926e-09 6.758403e-10
2.149457e-08 -4.642568e-08 -2.687156e-08 1.533568e-09 -5.019588e-08 5.047925e-09
1.917622e-08 -7.117835e-08 -1.058262e-09 -1.733714e-08 3.038063e-08 3.300001e-09
1.955358e-08 -4.255037e-08 -5.791944e-09 -2.556429e-09 -2.347564e-08 4.602695e-10
1.711950e-08 -2.166445e-08 -1.984889e-08 -1.709688e-09 -3.425755e-08 3.564329e-10
1.942988e-08 -4.642618e-08 -6.403755e-11 -1.351246e-08 2.183503e-08 2.791845e-09
1.671248e-08 -3.109513e-08 -1.814808e-08 1.769353e-09 -3.117017e-08 3.382948e-09
1.900006e-08 -5.469034e-08 -7.351474e-09 -1.020602e-08 -3.653218e-08 -4.391942e-09
1.130375e-08 -1.229616e-08 -8.861468e-09 1.421226e-08 1.166145e-08 -2.001021e-09
1.712940e-08 -2.869744e-08 -8.124810e-09 -5.272560e-09 -2.273995e-08 -1.217743e-09
-4.642397e-09 2.707569e-09 8.490160e-10 1.883753e-10 -1.697109e-11 -1.831411e-10
-7.454037e-12 2.734200e-09 6.175620e-10 5.294366e-09 -1.090172e-10 -8.304414e-10
-4.991189e-09 -2.356968e-09 -1.420312e-09 -1.071013e-08 2.669309e-09 2.162566e-09
-4.931241e-09 5.332801e-11 6.211516e-10 -3.303677e-09 1.558515e-09 -2.613975e-10
-6.540919e-10 4.244978e-10 2.345679e-12 1.404408e-09 7.089906e-11 2.811507e-11
-1.345825e-08 -4.459892e-09 -1.022883e-09 2.901781e-08 1.499125e-08 -1.345284e-08
3.722196e-10 1.581260e-09 3.368328e-11 3.676716e-09 4.966745e-10 -5.588819e-10
-5.966339e-12 -3.646969e-08 6.029038e-10 3.985702e-08 3.015619e-08 -1.331959e-08
2.565961e-09 4.909717e-10 -3.881264e-10 4.307736e-09 5.064724e-10 -5.955658e-10
-8.745940e-09 1.114639e-08 -3.079777e-08 2.539030e-08 2.399538e-08 -2.031173e-08
-5.157104e-09 4.222280e-09 7.596626e-10 9.078100e-10 -1.180212e-11 -2.814680e-10
-3.614479e-09 -2.639847e-09 1.458418e-09 -3.037277e-09 -2.778960e-10 -3.397127e-10
-5.778160e-09 -1.650610e-09 -3.100361e-09 3.932346e-08 2.562753e-08 -2.167392e-08
-2.211312e-08 8.807407e-08 3.263924e-09 3.238355e-09 2.901292e-08 -2.113946e-08
-8.035101e-09 6.745719e-09 -5.793794e-10 -3.341001e-09 -1.651994e-09 3.699773e-09
-2.248272e-09 6.293401e-09 -5.908922e-10 -8.304604e-09 4.720645e-10 8.676060e-10
1.245792e-08 -4.468791e-08 1.585013e-09 -1.392727e-08 1.626525e-08 3.175070e-09
-4.448921e-10 6.810147e-09 -1.714635e-10 -1.284586e-08 3.651878e-09 6.571850e-10
1.364549e-09 1.013666e-08 9.809316e-09 1.173875e-08 -6.560050e-09 -1.234969e-08
-1.474521e-08 5.562452e-08 -1.138748e-07 2.226989e-08 -3.012041e-09 1.655827e-08
6.302008e-09 1.465260e-10 -3.314171e-11 -7.895354e-09 4.689719e-10 -9.995322e-10
1.398386e-08 -5.040444e-09 9.988894e-10 -2.115949e-09 9.709813e-10 -3.803991e-09
-2.959601e-08 3.973625e-08 -9.302601e-09 8.142502e-09 -8.367689e-08 -4.140712e-08
-5.733351e-08 1.433103e-08 2.041877e-07 -2.660613e-08 -5.866945e-08 -7.789574e-09
4.586151e-08 3.388424e-08 -1.442693e-07 6.692176e-08 1.667104e-07 -4.489845e-08
3.832312e-09 -1.046949e-08 -2.733014e-09 -1.154410e-08 4.549324e-09 2.184797e-09
5.543313e-09 4.553938e-09 1.380210e-09 -1.150198e-08 1.702870e-09 -2.091706e-09
5.911270e-09 1.502927e-10 2.727960e-09 -9.695458e-09 1.997895e-09 -2.802535e-09
-6.150928e-09 1.017684e-09 6.181300e-10 -3.506092e-09 1.617340e-09 -5.423561e-10
3.900954e-09 -1.692440e-09 -6.345615e-10 -2.666462e-09 -2.910795e-10 1.016687e-10
6.835136e-09 -2.362623e-09 -7.886674e-10 -3.954274e-09 -2.121073e-11 -1.632590e-10
5.602187e-09 -2.243819e-09 -7.651189e-10 -2.486746e-09 -1.235095e-10 -4.411849e-11
5.892939e-09 -2.384977e-09 -7.296557e-10 -2.655305e-09 -1.444571e-10 5.537260e-11
4.789047e-09 -1.699363e-09 -8.172617e-10 -3.179754e-09 -1.914219e-10 1.712442e-10
4.026297e-09 -1.336220e-09 -7.157472e-10 -4.365790e-09 -2.210525e-10 4.809825e-11
3.635058e-09 -1.419492e-09 -6.061723e-10 -2.489570e-09 -2.019420e-10 1.759930e-10
-2.990855e-09 3.892402e-09 8.982259e-10 3.967665e-09 -1.831451e-10 -8.153996e-10
1.243220e-08 -4.887428e-09 1.020811e-09 3.089403e-09 -3.472959e-10 -4.612399e-09
5.038649e-09 -6.298939e-10 -3.633360e-10 4.545641e-09 2.215225e-10 -1.686518e-09
-3.728011e-09 3.041881e-09 6.361809e-10 2.982525e-09 -5.823920e-11 -8.992407e-10
6.986992e-09 -3.017377e-09 -8.652538e-10 -1.850619e-09 -7.391428e-11 6.858836e-11
-2.638715e-09 3.240225e-09 5.150662e-10 3.822994e-09 -2.632422e-10 -1.214587e-09
-1.845048e-09 4.763633e-09 6.887380e-11 4.696010e-09 1.212250e-10 -8.965951e-10
-6.980123e-10 2.349149e-09 5.007368e-10 4.755817e-09 -1.167017e-10 -1.536815e-09
-3.861552e-09 3.100448e-09 2.624034e-10 3.118686e-09 -7.453205e-11 -1.935980e-10
-9.836554e-09 2.946247e-08 -7.833678e-09 -9.222164e-09 7.186518e-09 1.010812e-08
-6.526298e-09 3.870556e-09 9.666983e-10 -1.366370e-10 -4.039064e-10 -6.431520e-10
-3.471999e-09 -2.819108e-09 -1.645103e-10 -9.221611e-09 -6.176695e-09 -2.636310e-09
8.682770e-09 -1.915409e-09 1.561545e-08 1.229216e-08 -5.118607e-09 -1.532959e-08
-1.079288e-08 1.282207e-08 5.740620e-10 -3.676349e-09 -1.191622e-09 5.424114e-09
1.560320e-08 8.777376e-09 3.978637e-09 -1.572580e-08 6.995084e-09 -1.465075e-08
-3.311719e-08 1.772096e-08 6.962623e-09 1.396237e-08 2.828946e-09 1.122701e-08
2.217641e-09 -4.002061e-10 5.818184e-09 -1.046655e-08 3.833896e-09 -2.879133e-09
-1.404179e-08 2.271338e-08 -1.114150e-08 -3.794791e-09 -2.130943e-09 1.636726e-08
-4.158772e-09 4.474814e-09 -1.244623e-08 4.017308e-09 -1.106664e-08 8.967143e-09
-3.918895e-09 2.803325e-08 -1.020460e-08 -1.771109e-08 2.644752e-09 9.200104e-09
-8.027498e-09 1.425052e-08 -1.152727e-08 2.515259e-09 -6.898360e-09 1.259366e-08
-1.193357e-08 3.089796e-08 -3.990720e-09 -7.166972e-09 -2.357688e-10 1.257059e-08
2.713942e-08 -4.373651e-09 2.245115e-09 1.348305e-08 4.216851e-09 1.287656e-08
-7.768570e-10 7.277056e-09 -1.832799e-09 -9.623517e-09 -7.226054e-10 2.431172e-09
-1.072138e-08 9.856321e-09 2.483785e-09 -4.157778e-09 -7.168098e-10 4.526116e-09
8.060982e-09 3.801884e-08 -6.412409e-08 -7.855299e-09 -2.999339e-08 5.231323e-09
-9.221304e-09 1.515152e-10 -2.019020e-09 -1.386884e-08 -1.039373e-08 -6.778983e-09
-1.231721e-08 1.042954e-08 -3.193155e-09 -1.007900e-09 -4.988287e-09 9.384632e-09
-2.692770e-10 8.298731e-10 2.859712e-11 2.657363e-09 9.440515e-11 -2.956173e-10
1.463229e-09 1.893312e-10 6.947198e-11 3.125054e-09 2.594154e-10 -1.692498e-10
1.399458e-11 5.203493e-10 1.713221e-10 3.133173e-09 8.079903e-11 -6.632325e-10
9.139487e-09 -2.382785e-08 8.983592e-10 -3.766403e-09 3.464653e-09 7.727596e-11
1.259363e-09 -1.317463e-08 -1.374010e-09 -1.071323e-08 -1.086751e-08 -2.647333e-09
1.213485e-09 2.934395e-10 -2.048590e-10 3.116273e-09 2.603951e-10 -3.522559e-10
-1.406111e-10 4.967673e-10 -9.087864e-11 2.445638e-09 3.675230e-10 -1.605542e-10
8.107630e-10 2.471614e-10 -1.209159e-10 2.890841e-09 2.524205e-10 -3.210358e-10
5.367668e-08 -2.610525e-08 9.125318e-09 1.541492e-08 -1.179308e-08 8.373331e-08
7.069045e-08 2.289588e-08 -1.968668e-08 5.236664e-08 2.899392e-08 6.721988e-08
-1.449389e-08 8.010309e-09 9.877836e-08 3.945314e-08 6.257925e-08 4.126498e-08
6.645641e-09 -1.921198e-08 9.095058e-10 -5.388198e-09 1.392555e-09 1.650535e-11
2.699962e-08 -1.361321e-08 1.676313e-08 1.744258e-08 1.125196e-08 3.110816e-08
3.618595e-08 -8.900328e-09 1.450549e-08 2.483554e-08 8.209118e-09 2.952537e-08
4.692729e-08 -2.755685e-08 6.235021e-08 6.706105e-09 1.757324e-08 1.010538e-07
5.893479e-09 -2.761229e-08 -4.702120e-09 2.064042e-08 -2.993852e-08 1.398372e-08
-1.093592e-08 7.687470e-09 3.597892e-08 4.185814e-08 3.707627e-08 2.652157e-08
-3.011915e-09 2.591183e-08 -2.291525e-08 2.778246e-09 -1.281369e-08 -1.290817e-08
-5.747305e-09 2.271813e-08 2.533305e-08 3.545504e-08 2.050612e-08 1.653618e-08
2.323444e-08 3.056840e-08 1.101448e-07 6.982042e-08 1.046973e-07 1.096242e-07
1.890458e-08 -3.048443e-08 5.615077e-08 1.580273e-08 1.194292e-08 1.174892e-07
1.248672e-08 -1.470343e-08 -4.334257e-08 2.788389e-09 -4.564274e-08 9.090456e-09
-2.905541e-09 -6.660932e-09 7.065037e-11 -1.216054e-08 3.943937e-09 1.771936e-09
-2.827326e-09 -5.841732e-09 2.161183e-09 -6.924504e-09 5.414171e-10 -4.375765e-11
6.051545e-09 -2.435944e-08 -2.043534e-10 1.572020e-08 -1.630256e-08 8.146432e-09
1.520037e-09 -1.306314e-08 1.492150e-09 -1.141287e-08 3.297647e-09 1.339738e-09
4.437382e-08 -1.077717e-07 -5.574292e-08 -5.386507e-08 -1.132172e-07 -2.093395e-08
-1.016423e-08 1.510386e-08 -7.702039e-09 -6.224791e-09 -5.583928e-10 8.967235e-09
3.832312e-09 -1.409113e-08 -2.724790e-09 -1.166602e-08 4.629815e-09 2.193917e-09
-1.142438e-08 1.908444e-08 4.411841e-09 1.116479e-08 -5.880418e-09 -1.585510e-09
4.601426e-09 -1.529268e-08 1.052104e-09 -6.387592e-09 1.287454e-09 3.226547e-10
-2.394286e-09 -6.376920e-09 1.028719e-09 -8.599887e-09 2.057731e-09 7.216735e-10
-3.077365e-09 -2.954430e-09 1.693123e-09 -9.618218e-09 1.150755e-09 8.174094e-10
-1.318270e-08 1.374065e-07 -1.374834e-08 9.503232e-08 6.536249e-08 8.286679e-09
7.699031e-08 2.870156e-08 -5.192257e-08 6.275899e-08 1.579318e-08 7.126437e-08
6.625606e-09 -1.873484e-08 -2.037547e-09 1.342638e-08 6.390280e-09 -2.028673e-09
5.894822e-10 6.660406e-10 -3.066625e-10 -2.961234e-09 -3.363809e-10 3.753335e-10
-3.013501e-09 2.123073e-09 2.666170e-10 -1.697495e-09 -1.362541e-10 -1.995774e-10
2.953570e-09 -1.622115e-08 2.454511e-09 6.397658e-09 1.925480e-09 4.979892e-11
3.459015e-09 -1.556074e-08 -1.193357e-10 9.765786e-09 3.240611e-09 -1.041210e-09
5.658261e-09 -2.555113e-09 -7.592729e-10 -1.650449e-09 -7.984569e-11 -4.095857e-11
-3.941344e-09 2.359947e-09 4.022818e-10 -2.001415e-09 -1.590257e-10 -1.315281e-10
6.604109e-09 -2.534621e-08 5.931209e-10 1.030400e-08 6.644219e-09 -1.004653e-09
-2.137135e-11 5.682725e-10 -1.935960e-10 -2.045361e-09 -3.248753e-10 -7.773571e-11
6.675670e-09 -1.859399e-08 -6.628254e-12 1.328207e-08 5.842760e-09 -1.565316e-09
4.838274e-09 -2.083551e-09 -6.935903e-10 -2.068310e-09 -7.584888e-11 -4.867216e-13
-2.744528e-09 1.954696e-09 1.937004e-10 -1.339004e-09 -2.455590e-10 9.005607e-11
-7.900617e-09 1.147482e-08 -1.038430e-08 -1.621726e-08 -2.447789e-08 -1.747098e-08
-8.716947e-09 5.219658e-08 2.582514e-07 2.430398e-08 -1.426379e-07 -1.188558e-07
-3.160041e-08 3.431506e-08 2.003265e-08 2.618703e-08 -7.919330e-08 -1.253121e-08
6.188420e-09 2.227515e-07 -8.757247e-08 -4.122524e-08 -8.499084e-08 2.772254e-08
1.687739e-08 -4.055108e-08 -4.899033e-09 7.277462e-09 -2.171457e-08 3.425929e-09
1.211502e-08 6.153398e-09 -2.369936e-07 -1.179317e-07 2.766492e-07 8.510235e-08
-8.339000e-09 7.844985e-09 -4.261210e-09 4.411020e-09 -8.657593e-09 8.681836e-09
-1.036057e-08 4.924458e-09 -8.000675e-10 2.828730e-09 -5.076054e-09 5.798166e-09
3.802048e-08 2.451241e-07 -3.259954e-07 -8.549866e-08 1.201845e-07 -7.275115e-09
-1.358480e-09 1.307143e-09 -1.737410e-10 -2.571662e-09 -1.996158e-10 -2.760427e-10
-7.305729e-10 1.630729e-09 2.637055e-10 4.431778e-09 1.530483e-10 -1.030076e-09
-8.057196e-09 2.076875e-09 -2.846292e-10 5.604468e-09 -5.865053e-09 4.187485e-09
-5.615808e-09 2.140907e-09 -7.920195e-10 1.337470e-09 -2.378470e-09 1.395309e-09
-4.122647e-09 2.978945e-09 5.810610e-10 1.629124e-09 2.179045e-10 -7.868574e-10
3.514469e-10 1.730405e-09 6.371419e-10 4.917343e-09 -9.126900e-11 -1.058979e-09
-1.331079e-09 1.563287e-09 1.946696e-10 2.900445e-09 1.884457e-10 -6.160110e-10
-1.237850e-09 1.231507e-09 2.594789e-10 2.749929e-09 3.298303e-10 -4.925874e-10
-1.474245e-08 2.805139e-10 4.845706e-09 1.151047e-08 -9.275356e-09 9.718758e-09
-1.069243e-08 1.279286e-08 -2.143213e-11 -2.556445e-09 -6.926056e-10 4.765376e-09
2.216100e-09 6.332606e-10 -2.030863e-10 4.089692e-09 3.289933e-10 -4.812392e-10
-9.197474e-10 1.459980e-09 3.673706e-11 3.142404e-09 4.025002e-11 -5.001194e-10
-3.229471e-09 1.182132e-09 7.804957e-10 6.807341e-10 3.197546e-10 -3.220063e-10
7.196772e-09 -3.633640e-09 -5.883496e-10 -2.520999e-09 -9.759204e-11 -3.540531e-10
-3.432430e-09 1.412336e-09 6.204592e-10 7.984244e-10 3.176739e-10 -4.207502e-10
6.214481e-09 -2.827787e-09 -5.710279e-10 1.833985e-09 9.290688e-11 -7.016035e-11
1.975009e-09 -9.039851e-10 -3.544829e-10 2.314290e-09 2.609782e-10 -5.191780e-11
-3.483460e-09 7.465912e-10 8.981551e-10 2.753486e-10 4.182460e-11 -2.371958e-10
-3.803543e-09 3.646523e-10 1.069328e-09 -5.503258e-10 -7.319334e-11 -2.933671e-10
-4.664591e-09 8.370753e-10 8.909513e-10 -1.442985e-09 3.291776e-10 -6.972067e-11
4.240731e-09 -3.048378e-10 -9.782797e-10 -6.143087e-09 -3.090538e-10 -2.040614e-10
7.490695e-09 -3.303364e-09 -8.021344e-10 -1.274552e-09 -1.423487e-10 -3.216519e-10
-3.483299e-09 1.029312e-09 6.663201e-10 5.233542e-10 -1.468492e-11 -5.166665e-10
5.772070e-09 -1.677628e-09 -5.365357e-10 4.387268e-09 8.391096e-11 -7.459484e-10
7.565476e-09 -3.241613e-09 -1.373763e-10 3.211175e-09 2.790198e-10 -9.886390e-10
7.782693e-09 -3.020897e-09 -2.085696e-10 2.513522e-09 1.160044e-10 -1.439165e-09
6.102924e-09 -2.837196e-09 -7.840888e-10 -1.483515e-09 -4.647116e-11 2.603318e-11
5.376642e-09 -3.359411e-10 -6.042027e-10 5.921751e-09 -1.042240e-10 -2.290457e-09
7.451813e-09 -2.395923e-09 -1.877374e-10 4.787691e-09 -3.382461e-11 -1.560510e-09
5.011958e-09 -2.383237e-10 -2.078882e-10 5.338323e-09 4.221268e-11 -9.080902e-10
9.517292e-09 -3.960275e-09 -2.545737e-10 1.680464e-09 -8.064579e-12 -1.437000e-09
5.787626e-09 -1.667747e-09 2.906830e-11 4.399680e-09 -1.925854e-11 -8.711991e-10
9.711414e-09 -3.515656e-09 7.389804e-10 3.305580e-09 4.330436e-11 -2.109343e-09
3.265887e-09 -1.174807e-09 -5.859604e-10 -2.344346e-09 -6.064305e-11 3.946132e-11
9.703362e-09 -3.862556e-09 -1.105512e-09 2.244842e-09 -3.616128e-10 -9.202505e-10
2.261944e-09 -4.521912e-10 -4.400240e-10 -3.292613e-09 -2.655720e-10 4.454609e-10
7.315054e-09 -2.890078e-09 1.022755e-10 3.429889e-09 -2.927956e-11 -1.289433e-09
2.861593e-09 -8.272423e-10 -5.288130e-10 -2.643884e-09 -2.069582e-10 2.198403e-10
1.689772e-08 4.841294e-09 1.677292e-09 1.222351e-08 -4.294025e-09 -1.955237e-08
1.665440e-08 1.602279e-09 9.643844e-09 1.450483e-08 -5.893933e-09 -1.770913e-08
1.396451e-08 -2.965915e-08 -8.859093e-09 4.087794e-09 -1.598561e-08 1.828348e-09
1.250494e-08 -4.010714e-08 -1.042663e-09 8.013846e-09 -1.688548e-08 2.634737e-09
-5.035633e-09 1.003241e-08 3.318159e-09 1.090362e-08 -5.351202e-09 -4.142390e-09
-5.304469e-09 -1.000496e-08 -8.301588e-10 -1.327701e-08 -8.888728e-09 -3.875408e-09
5.595111e-09 2.753742e-09 5.898350e-09 1.072826e-08 -2.690090e-09 -1.022541e-08
-1.519286e-08 3.047242e-08 3.622322e-09 1.446389e-08 -8.283794e-09 -7.590129e-09
4.543675e-09 1.829382e-08 1.066343e-08 2.174942e-08 -1.208408e-08 -1.683868e-08
1.712857e-08 -3.997772e-08 -5.571395e-09 -5.371797e-09 -2.933670e-08 -1.260772e-09
-2.019151e-09 -1.501122e-08 -1.005443e-09 1.269089e-08 -8.942867e-09 4.509745e-09
1.573545e-09 1.170890e-08 -1.823876e-09 1.137762e-08 -4.945206e-09 -7.402895e-09
1.179397e-08 5.096238e-09 -9.023817e-10 1.023779e-08 -3.135055e-09 -1.068128e-08
-4.852206e-09 8.133716e-09 1.976058e-09 7.516579e-09 -3.257535e-09 -2.898398e-09
1.058839e-08 -2.484444e-08 -8.540574e-10 7.862403e-09 -1.286808e-08 2.874333e-09
-1.685142e-09 3.455037e-08 -4.576355e-08 -9.234127e-09 -2.378849e-08 1.567629e-08
-1.896744e-09 -3.218071e-08 -2.333003e-08 5.997262e-08 -5.664834e-08 4.104532e-08
-1.085710e-08 1.333776e-08 -1.134152e-08 -5.265974e-09 -1.088072e-08 -1.113087e-08
-6.612771e-09 1.550465e-08 -9.256491e-09 7.534207e-10 -5.491809e-09 -9.961258e-09
-6.462290e-09 1.087313e-08 -9.348637e-09 -1.172397e-09 -6.322700e-09 -1.007407e-08
1.525012e-08 -5.899678e-08 -5.730683e-09 -1.535123e-08 -3.405966e-08 -4.137666e-09
-6.866707e-09 1.327811e-08 -1.381863e-08 -6.524752e-09 -9.620229e-09 -9.731611e-09
-1.176172e-08 -1.509252e-08 -5.511843e-09 -2.696479e-08 -1.978823e-08 -1.465045e-08
-8.223451e-09 1.545026e-08 -2.744613e-08 -3.087515e-08 -3.733232e-08 -3.470085e-08
-6.580129e-09 1.136640e-08 -1.331120e-08 -1.371518e-08 -1.403261e-08 -1.508507e-08
-5.224706e-09 -2.745843e-09 7.737060e-10 -9.347075e-09 -5.449707e-09 -2.241554e-09
-7.561766e-09 3.036204e-08 -2.062743e-08 6.666852e-09 -8.060458e-09 -1.346295e-08
7.462875e-09 7.903164e-09 1.157970e-08 -1.922822e-08 7.759222e-09 -1.149697e-08
-8.836838e-09 3.450165e-10 -2.514385e-09 -1.424892e-08 -1.117914e-08 -6.391122e-09
-5.224706e-09 -1.197684e-09 4.788832e-10 -9.203367e-09 -5.051067e-09 -2.131734e-09
1.395125e-08 -1.909798e-08 4.921013e-08 3.573704e-09 4.534861e-09 -4.402603e-08
1.261796e-09 9.147313e-09 -2.385140e-10 -1.436100e-08 5.042285e-09 -1.002470e-09
1.424954e-08 7.753195e-09 4.081260e-08 -2.178769e-08 1.569085e-08 -3.700463e-08
1.350009e-09 1.999022e-08 6.630741e-09 -2.346394e-08 9.693015e-09 -3.098629e-09
-4.997051e-09 3.485177e-09 -5.342827e-09 -7.290622e-09 -6.029964e-09 -4.024736e-09
1.326408e-08 -1.188833e-09 2.176116e-08 1.201554e-08 -7.309831e-09 -2.196433e-08
3.309796e-09 1.085203e-09 7.365222e-09 -1.206056e-08 2.793003e-09 -2.754888e-09
-4.552341e-09 1.568227e-08 -4.751882e-09 -1.175532e-08 5.766639e-09 4.897128e-09
-3.360064e-09 -6.737265e-09 7.155656e-10 1.020990e-08 1.876170e-09 -6.038940e-10
-3.899875e-10 -1.364797e-08 3.221548e-09 9.542213e-09 1.204588e-09 -1.202846e-10
-6.396591e-09 1.684593e-08 -1.224619e-08 -5.229559e-09 -6.474409e-09 -8.580753e-09
1.372580e-08 -2.296012e-08 -9.097127e-09 -4.476084e-09 1.190323e-08 1.391928e-09
6.572430e-09 -1.971642e-08 2.499522e-09 9.377102e-09 3.449915e-09 -3.906831e-10
9.151045e-09 -3.005920e-08 1.987671e-09 -5.719050e-09 5.803616e-09 -7.346190e-11
-1.651351e-09 -8.706061e-09 1.972879e-09 7.194312e-09 8.936697e-10 -1.153051e-10
-9.279155e-10 -1.130149e-08 2.901067e-09 6.132884e-09 1.130524e-09 8.311018e-11
-6.805753e-10 -6.458174e-09 2.150599e-09 -3.558334e-09 3.193150e-10 -6.037706e-10
-3.105010e-09 -9.000076e-09 7.364900e-10 9.871709e-09 2.155642e-09 -6.922886e-10
7.016083e-09 -1.968381e-08 3.033028e-09 -4.485726e-09 8.052483e-10 -3.361940e-10
-2.579689e-09 -5.338936e-09 1.673394e-09 -4.499119e-09 -1.323053e-11 -1.204750e-10
2.057439e-09 -1.740481e-08 -2.802614e-10 1.269220e-08 4.394199e-09 -1.253119e-09
-7.846795e-09 -6.778752e-09 -2.402889e-10 1.536688e-08 7.085971e-09 -3.013759e-09
8.208955e-09 -2.260344e-08 8.577201e-10 2.472984e-09 1.308999e-09 -3.124769e-10
2.066425e-09 -1.507643e-08 2.745113e-09 8.624719e-09 2.045588e-09 -3.575291e-10
-9.279172e-10 -9.032602e-09 1.926368e-09 5.690608e-09 1.522742e-09 -2.931408e-10
-1.152697e-09 -9.839316e-09 2.293250e-09 8.559530e-09 7.134917e-10 -6.288978e-10
1.278852e-08 -3.196354e-08 2.254557e-09 1.930169e-09 7.317575e-09 4.101044e-10
1.591725e-08 -3.995689e-08 -3.419148e-09 2.162091e-08 3.587846e-08 -7.836532e-09
6.463682e-09 -1.927686e-08 1.101532e-09 8.673960e-09 2.727816e-09 -7.489770e-10
1.424561e-08 -2.063033e-09 -4.846610e-08 4.360194e-08 7.878770e-08 -3.717655e-08
2.668925e-08 -4.816821e-08 -3.688102e-08 1.554150e-08 4.988441e-08 -7.143868e-09
9.324759e-10 -1.737650e-08 5.069489e-10 1.787717e-08 8.892222e-09 -3.549895e-09
-4.752804e-09 7.835337e-10 -4.521338e-09 1.505343e-08 6.042097e-09 -4.117069e-09
-7.416951e-09 1.546476e-08 -1.480582e-08 2.292576e-08 2.320527e-08 -2.135841e-08
-1.632596e-09 -8.705979e-09 2.931500e-09 7.198816e-09 9.036328e-10 1.886029e-10
-1.231633e-08 9.735057e-09 -6.816329e-10 1.005244e-08 5.894073e-09 -4.925397e-09
-3.479394e-08 7.418449e-08 6.132122e-08 -3.276942e-08 5.214992e-08 -2.395924e-08
6.683167e-09 -1.093276e-08 -2.372946e-08 2.206261e-08 2.753718e-08 -1.172073e-08
-6.968358e-09 -2.765921e-09 7.216641e-10 1.343581e-08 3.946800e-09 -2.143072e-09
1.088412e-08 -3.084085e-08 1.929453e-09 1.038839e-08 1.046334e-08 -6.834931e-10
-2.107461e-09 6.716122e-09 -1.999352e-09 -7.913559e-09 -4.240344e-10 1.818087e-09
-2.794520e-09 3.122904e-08 -3.900370e-08 -1.024324e-08 -2.098560e-08 -2.199249e-08
4.193393e-10 -8.935223e-09 4.692566e-10 1.066688e-08 1.871580e-09 -9.583931e-10
-9.726193e-09 9.284922e-09 -4.121367e-09 1.858445e-10 -2.678911e-09 6.886727e-09
-7.976650e-09 1.238719e-08 -6.716801e-09 -2.174369e-09 -3.978589e-09 7.495022e-09
-2.996658e-09 5.614761e-09 -1.717248e-09 -5.930091e-09 -9.112970e-10 1.540097e-09
-2.861920e-09 8.925487e-09 -1.174492e-09 -8.944170e-09 6.556197e-10 1.918265e-09
-2.851597e-09 1.211921e-09 4.697300e-10 9.245120e-10 1.276573e-10 -1.977521e-10
1.863909e-08 1.659591e-10 2.882218e-09 -1.816235e-08 -4.814440e-09 1.191882e-08
-2.486678e-09 1.472594e-09 3.013241e-10 1.569827e-09 2.592120e-10 -8.688550e-11
-3.922236e-09 2.172989e-09 6.539413e-10 7.464013e-10 4.808288e-10 -5.640410e-10
9.356706e-09 -1.799699e-08 -5.909292e-09 -9.974290e-09 8.347982e-09 2.195380e-09
-3.330123e-09 1.602211e-09 5.907155e-10 1.211266e-09 3.065936e-11 -7.296409e-10
-3.730871e-09 1.054882e-09 8.018324e-10 1.552967e-10 7.352563e-11 -3.893996e-10
-3.359187e-09 1.488445e-09 8.025733e-10 6.754373e-10 2.842890e-10 -5.433263e-10
-4.513406e-09 2.185202e-09 7.657319e-10 -2.352641e-10 3.283350e-10 -1.648438e-10
3.022564e-10 4.959393e-10 3.693490e-12 2.534176e-09 4.373886e-10 7.324830e-11
-3.852464e-09 6.834231e-10 8.051160e-10 -3.435310e-10 3.443035e-11 -4.750513e-10
-2.680443e-09 2.348254e-09 5.034440e-10 1.942657e-09 5.334933e-10 -7.334783e-10
-3.515337e-09 1.469562e-09 7.545555e-10 8.369500e-10 4.329004e-11 -3.148413e-10
-1.873848e-09 -6.743337e-09 1.762078e-09 -5.224546e-09 5.323095e-10 -9.719537e-11
-3.458898e-09 1.431738e-09 6.066379e-10 8.154439e-10 6.946535e-11 -2.751290e-10
-5.241528e-09 8.892993e-10 8.107226e-10 -1.630250e-09 4.904865e-10 -3.377155e-10
-2.988721e-09 2.197414e-09 5.321783e-10 1.992144e-09 1.102959e-10 -4.077603e-10
-4.771217e-09 8.416023e-10 -7.903900e-11 7.092662e-10 -1.782064e-09 4.387013e-10
-4.675252e-09 8.175634e-10 1.004286e-09 -1.026473e-09 3.043774e-10 -2.020752e-10
-1.113503e-09 -9.951320e-10 -4.966263e-09 -1.331329e-08 4.907427e-09 3.323275e-09
-2.567438e-09 1.372779e-09 4.477310e-10 1.342020e-09 4.349185e-12 -5.301239e-10
-1.709055e-08 3.832143e-08 -1.072795e-08 2.943187e-08 1.889774e-08 -6.898058e-10
-3.927512e-09 2.113541e-09 8.175214e-10 7.018141e-10 -1.012965e-10 -5.942486e-10
-9.133192e-10 1.372506e-09 2.724230e-10 2.359252e-09 3.983311e-10 -5.582399e-10
-3.275062e-09 1.671927e-09 6.430727e-10 5.218531e-10 5.546300e-10 -5.317430e-10
-3.657881e-09 1.763807e-09 7.041900e-10 4.868670e-10 2.095297e-10 -6.590455e-10
-2.329269e-09 2.693611e-09 -8.561507e-11 2.128943e-09 6.133702e-10 -2.689723e-10
-4.122973e-09 2.979889e-09 6.262328e-10 1.644672e-09 -1.245842e-10 -7.842854e-10
1.599633e-08 -3.317894e-08 -6.704640e-09 -8.368633e-10 1.301834e-08 1.786131e-10
1.415161e-08 -3.271785e-08 -1.373294e-08 1.087490e-08 1.973488e-08 -3.535099e-09
8.105273e-09 -2.371890e-08 -3.806734e-09 -9.222671e-09 -1.677476e-08 -1.409789e-09
1.194117e-08 -2.827023e-08 -2.475214e-09 1.968654e-08 1.993369e-08 -5.848183e-09
2.152139e-08 -3.638204e-08 -5.794351e-09 2.885179e-10 -2.833187e-08 2.050850e-09
1.866661e-08 -4.567280e-08 1.279790e-10 3.727690e-09 2.792904e-08 -1.442082e-09
1.457077e-08 6.266849e-09 -4.684679e-08 -7.072089e-09 -3.909875e-08 -3.820016e-09
1.125435e-08 -2.554399e-08 -8.343116e-09 1.517492e-08 1.573341e-08 -5.324825e-09
-3.778130e-08 5.286449e-08 3.361347e-08 -5.145827e-08 2.665793e-08 -4.021100e-08
2.018340e-08 -4.977535e-08 -3.091439e-09 -1.086107e-08 2.543855e-08 1.496026e-09
1.398598e-08 -2.977953e-08 -1.701774e-09 4.066690e-09 -1.594871e-08 2.259587e-09
-1.431874e-08 -3.350959e-08 -8.404775e-09 4.354458e-08 -3.339277e-08 2.692777e-08
1.231164e-08 -4.565751e-08 -7.725126e-09 -2.627056e-08 -3.301811e-08 -9.955503e-09
-1.593969e-08 9.520055e-09 -4.268176e-09 1.807565e-08 -1.469584e-08 1.414557e-08
1.233920e-09 1.071392e-10 -3.639624e-10 -2.448676e-09 -2.245930e-10 1.321543e-10
-9.886656e-10 1.070507e-09 -2.912368e-10 -3.666731e-09 -9.099775e-10 5.530398e-10
-1.434045e-09 6.958932e-09 -1.661264e-09 -1.179213e-08 1.819665e-09 2.796580e-09
-1.389673e-08 2.787105e-08 -1.659360e-08 1.082791e-08 -6.310447e-09 -1.405629e-08
-1.221107e-08 5.952669e-09 -1.880143e-09 7.024325e-09 -6.654234e-09 8.339628e-09
2.953557e-08 -4.687533e-08 -8.906929e-09 2.040468e-08 -5.786987e-08 1.503326e-08
3.361591e-08 -5.039752e-08 -1.655757e-08 7.235259e-09 -6.330859e-08 5.161906e-09
2.329054e-08 -5.342564e-08 -4.255675e-08 1.306150e-08 -6.722272e-08 1.329145e-08
1.695844e-09 -6.784617e-11 -4.459508e-10 -2.808234e-09 -1.638354e-10 -2.177869e-11
-1.186778e-09 -3.289577e-09 -1.997961e-08 1.980349e-08 -2.828251e-08 2.108682e-08
2.869355e-08 -2.078050e-08 -3.852699e-08 7.262188e-09 -6.940607e-08 -2.541107e-09
3.753626e-08 -8.353998e-08 -4.970811e-08 -1.838494e-09 -1.098131e-07 4.688746e-09
1.946745e-09 -5.571548e-10 -3.988319e-10 2.640049e-09 9.672840e-11 -2.621471e-10
3.871525e-10 1.415930e-10 -1.540357e-10 2.312859e-09 2.632778e-10 8.041257e-11
-4.661775e-09 1.968557e-09 2.827609e-10 -2.337597e-10 -1.067576e-09 3.476186e-10
5.833516e-09 -1.507960e-09 6.837083e-09 8.003548e-09 -1.947426e-09 -7.774557e-09
-4.741426e-09 9.199542e-09 -2.704210e-09 -8.734707e-09 3.408034e-10 3.641729e-09
1.215009e-09 2.663603e-10 -2.238010e-10 3.124542e-09 1.164866e-10 -3.632665e-10
6.898526e-10 1.252829e-10 -1.376002e-10 2.234972e-09 1.990290e-10 -2.060089e-10
-2.014681e-08 2.407858e-08 -3.770324e-08 7.286398e-08 7.300972e-08 -8.880194e-08
6.837304e-10 4.125917e-09 -2.323599e-10 -6.886097e-09 -1.165664e-09 -1.164954e-10
7.526086e-10 6.030856e-10 -4.048308e-10 -3.761763e-09 -1.813715e-10 2.115397e-10
-5.873048e-09 7.826390e-09 -2.960920e-09 -4.389604e-09 -1.405899e-09 3.033205e-09
2.302292e-10 1.021433e-09 -2.476468e-10 -3.960948e-09 -6.189879e-10 2.803809e-10
-2.742039e-09 2.333452e-09 -1.514353e-10 -2.967315e-09 -5.400386e-10 2.777141e-10
2.247996e-09 2.848735e-10 -5.063543e-10 -4.727795e-09 -5.629989e-10 9.533574e-11
-3.365668e-09 6.825261e-09 -1.456193e-09 -8.126757e-09 -1.129506e-10 1.968897e-09
-2.563345e-09 1.984938e-10 -1.384283e-08 1.801798e-08 1.391623e-08 -6.252300e-09
-5.478517e-09 7.398259e-09 -6.697680e-09 2.365022e-10 -4.359281e-09 4.153375e-09
1.134040e-09 -4.030720e-08 2.094146e-09 4.024281e-08 3.211077e-08 -1.522821e-08
2.517164e-09 -3.333787e-10 -1.384330e-10 3.680536e-09 1.106624e-10 -6.824132e-10
-3.592709e-09 2.413120e-09 9.202208e-10 1.816319e-09 -1.765295e-10 -8.245141e-10
-2.840641e-09 1.185059e-09 4.459513e-10 8.497707e-10 7.993723e-10 -4.303472e-10
-5.330258e-10 -7.097321e-09 1.991875e-09 -5.234827e-09 6.585137e-10 -7.258325e-10
-1.338076e-08 3.418410e-08 -3.296406e-08 2.907807e-08 3.996266e-08 -5.027585e-08
5.135327e-09 8.602749e-09 -4.926972e-08 2.892686e-09 -4.482469e-08 1.393531e-08
-2.962607e-09 1.681097e-09 6.168324e-10 1.126751e-09 3.504388e-10 -4.258325e-10
1.601990e-08 2.940147e-10 -3.886557e-08 5.209737e-11 -3.438109e-08 2.395324e-09
8.459162e-10 -1.747615e-10 -2.010418e-10 2.151867e-09 3.552656e-10 -1.060994e-10
-1.628179e-09 1.226498e-09 3.413168e-10 2.069560e-09 2.057954e-10 -1.681650e-10
2.265071e-09 -9.060392e-10 -4.320659e-10 2.283213e-09 3.517449e-10 2.619939e-10
1.157463e-08 -5.657205e-09 -4.075588e-08 -1.658742e-08 -4.721894e-08 -1.477899e-08
-5.404674e-09 9.202177e-09 -1.626489e-08 1.803283e-08 1.428382e-08 -1.246544e-08
-3.122436e-09 2.486967e-09 -1.014678e-10 -3.053017e-09 -3.582008e-10 -8.716722e-11
-5.649881e-09 1.346948e-09 3.196465e-10 -1.921087e-09 1.014514e-09 -2.243893e-10
-4.377039e-09 -9.776722e-10 1.440096e-09 -2.399304e-09 1.835768e-10 -1.782450e-10
-2.634001e-09 1.259208e-09 4.798215e-10 1.346029e-09 1.747663e-10 -3.115399e-10
-3.867246e-09 2.789927e-09 -3.583138e-10 -2.636280e-09 -6.593686e-10 2.751428e-10
-4.629798e-09 -1.229047e-09 6.466516e-10 -4.290462e-09 1.117223e-09 -4.256919e-10
-8.032725e-09 5.081502e-09 2.381646e-10 -7.343065e-09 2.239897e-09 1.018625e-09
6.809211e-09 -2.098157e-08 -3.682715e-08 -3.594787e-08 4.340533e-08 2.008487e-08
-4.638859e-09 2.195926e-09 2.851119e-10 -1.495935e-09 -7.113081e-10 5.227663e-11
-4.932907e-10 2.698198e-09 9.729564e-10 4.116012e-09 -5.591464e-11 -1.299936e-09
1.724629e-08 1.001139e-08 -4.221045e-08 -1.376816e-08 4.060142e-08 1.040315e-08
-3.286718e-09 2.030689e-09 3.946938e-10 -1.995499e-09 -5.325698e-10 1.394500e-10
-4.392486e-09 2.360617e-09 1.162614e-10 -1.466845e-09 -5.456474e-10 -1.345685e-10
-4.324288e-09 2.161835e-09 3.035883e-11 -1.485687e-09 -8.106515e-10 -2.289424e-11
-3.056592e-09 1.403576e-09 4.304361e-10 6.918654e-10 9.153850e-11 -2.879033e-10
-4.668375e-09 2.225267e-08 1.760574e-08 -2.433898e-08 -1.437045e-08 9.500815e-09
-2.689725e-09 1.307629e-09 4.289871e-10 1.284358e-09 7.964407e-11 -2.044548e-10
6.314768e-09 1.174290e-08 -3.922135e-08 -1.065684e-08 -3.459018e-08 -8.959065e-09
-2.900569e-09 4.958774e-08 -5.258398e-08 -1.050007e-08 -2.597140e-08 -1.936847e-08
-3.091635e-09 1.124405e-09 6.980438e-10 6.412932e-10 1.230583e-10 -1.444411e-10
-3.571784e-09 8.658283e-10 9.338652e-10 1.895009e-10 1.115099e-10 -2.599247e-10
-3.248058e-09 1.113890e-09 7.088903e-10 9.460123e-10 9.522627e-11 -1.957534e-10
-3.748090e-09 7.588357e-10 1.017575e-09 -3.952626e-12 3.582712e-11 -2.424652e-10
-2.749154e-09 1.667359e-09 4.546759e-10 1.590525e-09 9.158674e-11 -3.754390e-10
-2.972957e-09 1.545665e-09 4.650744e-10 1.219174e-09 1.319427e-10 -1.515775e-10
-3.625598e-09 8.662493e-10 9.059946e-10 2.697046e-10 6.006573e-11 -2.520964e-10
-5.268750e-09 3.950593e-08 -5.056550e-08 -1.770988e-08 -1.585512e-08 1.735001e-09
-3.603432e-09 8.637242e-10 8.234409e-10 -8.270452e-11 1.147826e-10 -4.517442e-10
-1.604266e-07 1.139623e-07 -2.101861e-07 1.583800e-07 1.658324e-07 -2.427202e-07
-3.367326e-09 1.236657e-09 8.527647e-10 6.919006e-10 2.568175e-10 -1.214612e-10
-2.758709e-09 1.273769e-09 5.068843e-10 8.872902e-10 1.521838e-10 -1.414688e-10
7.560034e-09 -1.333859e-08 -1.136182e-08 1.294798e-08 -2.318388e-08 1.215249e-08
2.978095e-08 -6.389018e-08 -4.007426e-08 -4.383614e-08 -8.644620e-08 -3.640107e-08
-3.815534e-09 1.125150e-09 9.676853e-10 2.560173e-11 2.081473e-10 -2.934056e-10
-3.480029e-09 1.057368e-09 7.530583e-10 3.158811e-10 1.733301e-10 -2.393450e-10
1.064283e-08 2.563331e-08 -4.630438e-08 -8.540873e-09 -3.364883e-08 -4.362447e-09
-3.530705e-09 6.904184e-10 8.811591e-10 4.121569e-11 3.850835e-10 -2.781375e-10
-3.829432e-09 1.075771e-09 9.744550e-10 7.094679e-11 6.370260e-11 -2.698927e-10
-1.655954e-08 4.809341e-08 -4.539969e-08 -1.034052e-08 -2.903110e-08 -6.390743e-09
-1.827673e-08 1.995494e-08 -3.938290e-09 5.742011e-09 -8.339082e-09 1.764301e-08
7.428640e-09 2.348791e-08 -8.545803e-09 1.284931e-08 -1.782023e-09 -9.498910e-10
6.554732e-10 2.941634e-08 -5.015518e-08 -9.943246e-09 -3.999234e-08 -1.434891e-08
6.629320e-10 2.345425e-08 -1.159564e-08 1.537287e-08 -1.283186e-09 -1.020118e-08
-3.218298e-10 4.811722e-08 -5.621665e-08 -2.704551e-09 -2.906223e-08 -1.419650e-08
-8.323071e-09 2.822882e-08 -1.819375e-08 1.915218e-09 -6.094061e-09 -1.554124e-08
-1.454122e-08 1.332347e-08 -1.166007e-08 -8.814553e-09 -1.097144e-08 -1.538653e-08
-1.782912e-08 3.459142e-08 -2.217509e-08 3.677354e-09 -1.421759e-08 -3.154713e-08
-8.520123e-09 2.326191e-08 -1.763114e-08 1.190838e-08 -4.820925e-09 -1.203065e-08
-6.687937e-09 2.771533e-08 -1.883558e-08 8.776654e-09 -5.403708e-09 -1.230930e-08
1.285853e-10 -4.742178e-09 -1.508955e-08 1.380384e-08 -2.506129e-08 1.409504e-08
-4.811537e-09 2.327699e-09 -7.748553e-09 1.514288e-08 -1.902568e-08 1.547804e-08
-8.048728e-09 5.648627e-09 -3.306499e-09 -3.141133e-10 -3.772269e-09 5.041526e-09
-5.660814e-09 6.406148e-09 -1.726103e-09 -2.870663e-09 -2.618238e-09 2.835978e-09
-2.099911e-08 1.255559e-08 -8.427751e-09 6.612968e-09 -1.259169e-08 1.514343e-08
6.288453e-09 -1.524169e-08 -6.793343e-09 2.124521e-08 -3.779694e-08 2.113755e-08
-5.134984e-09 -1.272647e-08 -7.177411e-10 1.291784e-08 -1.082537e-08 6.569495e-09
-3.398590e-09 7.336975e-09 -1.183230e-08 2.970045e-09 -8.822695e-09 6.765301e-09
1.456417e-08 -2.979573e-08 -9.796966e-09 1.946416e-10 -1.751371e-08 9.275464e-10
-3.159504e-09 -3.059647e-09 -2.535361e-09 5.213973e-09 -5.014874e-09 3.373929e-09
6.496813e-09 -1.195219e-08 -3.052715e-08 1.612629e-08 -3.352749e-08 1.754568e-08
-5.374135e-09 -1.863025e-09 -6.464896e-09 1.021407e-08 -1.035834e-08 1.040295e-08
5.135327e-09 3.327289e-08 -5.349980e-08 -8.751859e-09 -3.079466e-08 1.550476e-08
-1.309794e-08 1.013889e-09 -2.685270e-09 1.074031e-08 -1.056174e-08 1.197212e-08
-1.358376e-09 -3.493021e-08 -9.529666e-09 2.652138e-08 -3.969509e-08 2.770710e-08
-3.655136e-09 2.542153e-09 6.628968e-10 4.552700e-10 4.834416e-10 -7.767869e-10
-6.959678e-09 2.548968e-08 -2.604099e-08 7.876647e-09 -1.725718e-08 1.856010e-08
2.020257e-09 -1.418918e-08 -6.283411e-09 1.087256e-08 -1.336725e-08 5.725960e-09
6.294351e-09 -4.665891e-09 -1.577011e-08 1.501670e-08 -2.530575e-08 1.459051e-08
3.688701e-09 1.333212e-09 -4.727694e-10 5.624642e-09 1.821577e-10 -1.245376e-09
-7.959064e-09 4.605197e-09 -1.081389e-08 1.222041e-08 -1.062961e-08 2.002675e-08
-3.535524e-09 1.651952e-09 8.292567e-10 9.636354e-10 1.732917e-10 -1.667892e-10
7.008310e-09 -3.502209e-08 -2.325238e-09 2.421341e-08 -3.134743e-08 1.740264e-08
1.090738e-08 -3.151760e-09 -1.610622e-09 -3.774462e-09 -1.641751e-10 -5.722300e-10
-3.807203e-09 4.828511e-10 1.155152e-09 -7.212551e-10 -3.198120e-11 -3.269442e-10
-1.222210e-08 7.190506e-09 -2.724870e-09 -1.181427e-08 3.848144e-09 5.037049e-09
1.024960e-08 -2.203992e-08 -4.083074e-09 -5.658440e-09 5.901070e-09 1.449896e-10
5.867182e-10 9.252762e-10 1.400310e-09 5.793885e-09 -5.244783e-10 -2.326779e-09
-5.092674e-09 2.385895e-08 -1.149633e-07 -1.772000e-07 1.712655e-07 1.132041e-07
1.548268e-08 1.297178e-08 -4.121427e-08 3.163069e-09 -3.376396e-08 1.668421e-08
1.584573e-09 -1.918310e-10 -8.993273e-11 2.518287e-09 2.836545e-10 -1.544809e-11
-4.210416e-09 3.117902e-09 4.983600e-10 1.225688e-09 3.237737e-10 -4.149228e-10
-3.988063e-10 5.783796e-10 2.914295e-10 2.456622e-09 1.983024e-10 -1.563707e-10
-7.444549e-09 9.202177e-09 -1.661598e-08 1.340549e-08 1.453403e-08 -9.163669e-09
-4.884237e-09 1.408740e-09 7.897807e-10 -3.164205e-09 8.490108e-10 -2.244605e-10
4.685016e-09 -2.386354e-08 2.012921e-09 -1.587489e-08 9.139586e-09 2.273439e-09
1.255787e-10 9.754286e-11 6.525047e-11 2.427231e-09 2.946528e-10 -9.351114e-11
-4.531150e-09 -1.731554e-09 1.502984e-09 -4.476935e-09 2.370533e-10 -2.795962e-10
7.986702e-09 3.553888e-08 2.332382e-08 3.238650e-08 -2.056472e-08 -3.091145e-08
-2.175757e-10 8.263079e-10 6.551315e-11 2.493689e-09 6.247547e-11 -2.885525e-10
2.034049e-09 -4.217404e-10 -2.341292e-10 3.028227e-09 2.056177e-10 -7.061318e-11
6.772876e-10 -1.446931e-11 -3.512213e-11 2.516396e-09 1.612699e-10 -1.781276e-10
5.697355e-08 2.766320e-08 1.338891e-08 4.286155e-08 3.329332e-08 4.584999e-08
9.445019e-09 2.159716e-08 -2.934122e-09 -1.954162e-08 -6.801732e-09 4.583289e-09
1.655015e-08 -2.836858e-09 1.848793e-08 -2.816274e-08 -1.353739e-08 2.437844e-08
1.697014e-09 -4.062835e-10 -1.772742e-10 2.871842e-09 2.779845e-10 -6.715717e-11
4.849722e-09 2.237205e-08 2.428549e-08 1.299623e-08 -2.181149e-08 -2.063334e-08
-5.331564e-08 1.124838e-07 -2.364284e-08 -2.209162e-08 -8.779088e-08 4.228214e-09
-5.686982e-08 6.838671e-08 -4.746070e-08 2.455902e-09 1.633444e-08 -6.367444e-08
-9.429070e-08 3.031338e-08 2.228463e-07 2.574131e-08 1.246774e-07 7.337571e-08
-6.083226e-08 7.456699e-08 4.224788e-09 1.656312e-09 -1.818651e-08 -3.525311e-08
3.648062e-08 -2.102016e-07 -1.625387e-07 1.534744e-07 2.779869e-07 -1.438457e-07
-4.015114e-08 1.299870e-07 -1.302260e-07 -3.920798e-08 8.830708e-09 -5.468945e-08
2.472208e-08 1.690195e-09 -5.892660e-08 -1.278123e-08 -5.381034e-08 -8.778722e-09
-5.281747e-08 1.292729e-07 -2.997986e-08 -1.946471e-08 -5.139494e-08 -2.518744e-08
1.002901e-07 -4.761269e-08 2.662590e-07 3.536178e-08 2.666288e-08 2.601983e-07
2.657027e-10 -1.034780e-07 -2.539243e-08 -8.242822e-08 8.479282e-08 4.319924e-08
-1.737654e-11 -6.646196e-08 -6.860576e-09 4.995118e-08 5.098781e-08 -1.885122e-08
-3.302159e-09 1.025243e-07 -9.823942e-08 1.353395e-08 4.012277e-09 -3.382294e-08
8.611443e-09 -2.424572e-08 9.022538e-10 6.847998e-09 4.347979e-09 -6.093486e-10
1.904665e-08 2.823936e-09 -1.095750e-09 -2.576115e-08 -9.350556e-09 1.476477e-08
7.565544e-09 -2.060223e-08 1.032171e-09 5.201470e-09 1.968442e-09 -1.872846e-10
5.454265e-09 -2.003047e-08 2.643942e-09 5.538460e-09 1.573054e-09 -4.860668e-11
2.219209e-08 3.424591e-08 -9.786046e-08 -2.216592e-09 6.660347e-08 -4.976505e-09
7.563855e-09 -2.315460e-08 3.095286e-09 6.578643e-09 3.352631e-09 -2.828620e-10
6.498646e-09 -2.016477e-08 2.120777e-09 5.308737e-09 1.155734e-09 2.920317e-10
2.584822e-08 -7.317889e-09 -7.402748e-08 -6.199772e-09 6.996991e-08 5.211966e-09
-5.774792e-09 -5.926727e-09 5.049567e-10 1.774890e-08 6.102657e-09 -4.257047e-09
-3.401809e-07 8.208158e-07 2.051679e-07 -2.154328e-07 -5.252181e-07 3.824377e-07
1.619987e-08 3.408067e-08 -9.546282e-08 1.357208e-08 6.463594e-08 -1.396986e-08
-4.158772e-09 1.502096e-08 -1.844378e-08 3.994739e-11 -1.180524e-08 1.225801e-08
-2.880270e-08 -1.041157e-08 1.645123e-09 3.333033e-08 -1.473557e-08 1.962010e-08
3.937604e-08 -5.338271e-08 -7.331158e-08 4.634558e-08 1.336500e-07 -2.839251e-08
3.406115e-08 -1.440380e-08 -6.065266e-08 -2.385978e-09 7.477385e-08 1.569291e-08
-5.184481e-08 3.060848e-08 2.064414e-09 2.708143e-08 2.018684e-09 2.140262e-08
-8.319936e-09 1.009222e-08 -3.999045e-09 -1.024106e-09 -4.803636e-09 7.765454e-09
4.506234e-08 -5.005191e-08 -1.242496e-08 5.315267e-08 1.110473e-07 -4.214043e-08
3.586818e-08 -1.126325e-07 -1.745476e-08 1.429071e-08 7.512973e-08 -7.609595e-09
-5.542154e-09 3.869451e-08 -3.890975e-08 -1.135657e-08 -3.289874e-08 -4.688328e-11
4.927161e-08 -1.060936e-07 -9.120717e-08 7.241576e-09 1.945117e-07 -8.082251e-09
-5.884650e-09 1.179724e-08 -9.677889e-09 -2.213770e-09 -5.333775e-09 6.840400e-09
-9.599364e-09 1.518607e-08 -1.180142e-08 2.646489e-09 -7.341260e-09 1.340870e-08
-2.093233e-08 3.512102e-08 3.365034e-10 -3.594954e-09 1.299043e-09 8.203112e-09
-1.036153e-07 2.492581e-07 -6.275207e-08 1.119247e-08 -3.626560e-08 5.809416e-08
1.493696e-09 7.987311e-11 -4.860737e-08 1.294955e-08 -7.692460e-08 3.056474e-08
5.606260e-09 -1.711133e-08 2.153173e-09 -4.156734e-09 1.323680e-09 -2.458161e-11
-1.244516e-07 3.039256e-07 3.621619e-07 -1.435809e-09 2.107380e-07 -1.078750e-07
5.776574e-09 -2.514406e-08 -2.077432e-08 1.940577e-08 -3.556113e-08 1.702448e-08
3.737074e-09 -1.478060e-08 1.888213e-09 -6.554796e-09 1.870622e-09 2.445057e-10
6.405014e-09 1.423142e-08 4.128745e-08 -1.802510e-08 1.900432e-08 -3.158221e-08
5.487944e-09 -1.737729e-08 -1.347176e-10 -8.439252e-09 3.276865e-09 1.414539e-09
3.717480e-09 -1.513201e-08 1.769095e-09 -6.944973e-09 1.933740e-09 1.727002e-10
9.011722e-09 -2.102112e-08 -3.812954e-10 -6.248825e-09 4.403871e-09 1.170977e-09
-1.640753e-08 5.725693e-08 -2.442415e-08 -8.836543e-09 -5.498196e-10 -4.247177e-09
5.429158e-09 -2.658272e-09 -7.615666e-10 -2.199706e-09 -2.119908e-10 4.120893e-11
-2.966336e-09 -3.660968e-09 1.763186e-09 -3.634891e-09 1.560305e-10 -5.882224e-10
-3.687160e-09 -3.520945e-09 1.485728e-09 -5.054657e-09 5.834553e-10 3.851539e-11
-2.554011e-07 4.248775e-07 4.659030e-07 1.603872e-08 5.481487e-07 -2.681119e-07
2.447318e-08 1.139882e-08 -5.271828e-08 -4.073147e-09 4.911187e-08 4.610792e-09
4.366435e-08 -1.133224e-07 -2.108823e-08 -4.519231e-08 9.648328e-08 1.388777e-08
3.473301e-08 -4.509490e-08 -4.252063e-08 -2.913101e-08 1.112855e-07 2.971149e-08
2.511134e-08 3.457387e-08 -9.830968e-08 1.628970e-08 1.113821e-07 -3.507731e-08
1.276149e-08 7.196158e-08 -1.397374e-07 5.332360e-10 5.058632e-08 -2.013406e-08
-2.503944e-09 -4.625185e-09 1.615046e-09 -5.698068e-09 1.315085e-09 -2.373806e-10
-1.977425e-09 -4.975437e-09 1.795114e-09 -5.343021e-09 7.873717e-10 -7.644929e-11
-3.074632e-09 4.863831e-09 1.384121e-08 1.304535e-08 -2.645252e-09 -7.461212e-09
-1.355460e-09 -4.540717e-09 1.708497e-09 -3.094197e-09 4.636757e-10 -4.567048e-10
-1.851091e-09 -7.170877e-09 2.334263e-09 -5.253679e-09 1.400756e-10 -2.112050e-10
-6.802689e-09 4.768880e-09 1.013389e-11 2.488778e-09 -2.762794e-10 -8.515565e-10
1.350009e-09 -1.137881e-09 2.062851e-08 -1.451719e-08 4.972287e-09 -8.651240e-09
-1.586079e-10 1.004001e-08 2.441302e-09 9.573864e-09 -3.686464e-09 -7.107098e-09
1.170705e-08 9.873358e-09 5.348110e-08 9.854918e-09 -1.660886e-08 -6.766516e-08
6.978324e-09 -2.428254e-08 1.106478e-09 -1.032655e-08 5.703940e-09 1.372108e-09
9.750776e-09 -2.499264e-08 2.462542e-09 -4.389675e-09 3.953659e-09 -9.618151e-11
8.223566e-09 -2.426205e-08 2.726412e-09 -4.370909e-09 3.430106e-09 3.027567e-10
1.087632e-08 -2.941968e-08 2.348641e-09 -4.665329e-09 6.426829e-09 9.015501e-10
8.710919e-09 -3.924176e-09 -4.738645e-10 4.144441e-10 1.310440e-10 -4.389256e-10
-9.525288e-08 1.490932e-07 -1.606087e-07 -5.536500e-08 3.074669e-08 1.385518e-07
-9.655775e-09 1.170586e-08 3.994642e-09 1.060606e-08 -4.385225e-09 -7.106376e-09
1.190492e-08 1.837969e-08 4.972550e-09 2.095427e-08 -1.217605e-08 -1.589710e-08
6.903981e-09 -2.168805e-08 2.469138e-09 -7.946160e-09 4.170582e-09 7.305832e-10
-1.465682e-08 7.573295e-09 -7.428554e-09 -1.553664e-08 6.163675e-09 9.165331e-09
4.563153e-09 -3.744001e-08 1.924538e-09 -5.807235e-08 3.454065e-08 2.712278e-08
-2.243549e-08 1.873335e-08 3.980647e-09 -1.036867e-08 -1.791956e-09 9.284045e-09
1.083701e-08 -1.744043e-09 5.819444e-09 8.074827e-09 -1.643769e-09 -7.102152e-09
-1.895308e-08 5.281585e-08 -1.471534e-08 -1.079912e-08 -9.092018e-09 -1.532168e-08
6.772621e-09 -2.117707e-08 2.695986e-09 -7.758658e-09 2.982871e-09 1.006924e-09
9.440353e-08 -3.760475e-08 1.407075e-07 2.435810e-08 3.201955e-08 1.638803e-07
2.858616e-09 7.100434e-09 2.456837e-08 -1.483843e-08 9.373740e-09 -1.939319e-08
-3.055843e-09 1.336561e-08 2.093201e-08 -7.272278e-09 -1.380299e-09 -1.014684e-08
-1.370293e-09 8.711102e-09 2.324293e-08 -9.316403e-09 3.257319e-08 -6.254232e-08
-3.018787e-09 4.115701e-08 -1.153138e-08 -2.598390e-08 7.026634e-09 1.495595e-08
1.078782e-08 -5.434978e-09 4.349855e-08 -1.153731e-08 7.751775e-09 -3.338269e-08
-1.179847e-08 1.359406e-08 -1.765012e-08 -1.762954e-08 1.245190e-08 1.292447e-08
-1.335835e-08 -7.919113e-09 4.027121e-09 -2.994911e-08 1.122454e-08 1.517892e-08
1.715602e-08 -4.201886e-08 -1.823479e-08 -1.687349e-08 3.766515e-08 7.807350e-09
-4.748446e-09 1.567247e-08 -2.779999e-08 -4.338843e-08 2.361122e-08 3.413154e-08
1.352724e-08 -2.091596e-09 2.872808e-08 -3.089413e-08 -1.845030e-08 2.539463e-08
1.291175e-08 -2.695453e-08 -5.919892e-09 -9.122680e-09 1.535615e-08 1.375708e-09
2.445805e-08 -7.784405e-09 4.438150e-09 -1.361168e-08 -1.237530e-09 1.212573e-08
4.589619e-08 9.785063e-08 2.877693e-08 -7.732000e-08 -7.023093e-08 6.462958e-08
1.296223e-08 -3.566798e-08 -1.265802e-10 -9.932573e-09 1.311108e-08 1.797160e-09
1.202774e-08 -3.511538e-08 1.099653e-09 -1.482415e-08 1.295883e-08 3.577755e-09
1.181369e-08 -2.847616e-08 1.083262e-09 -1.427006e-08 8.613972e-09 4.077928e-09
9.576761e-09 -2.536675e-08 3.730762e-10 -1.431421e-10 3.619634e-09 -3.623749e-10
7.294831e-09 -2.518568e-08 9.531107e-10 -1.087262e-08 8.397642e-09 7.432948e-10
8.261403e-09 -2.490249e-08 6.481971e-10 -1.049396e-08 6.240681e-09 1.424674e-09
6.148999e-09 -1.900897e-09 -3.481335e-10 4.201679e-09 1.067146e-10 -6.893293e-10
1.015719e-07 -3.911822e-09 8.666115e-09 6.768937e-09 2.324649e-09 5.737892e-08
7.095442e-09 -3.503952e-09 -6.250915e-10 1.414591e-09 1.148989e-10 -2.124688e-10
5.944765e-09 -2.862202e-09 -4.891934e-10 2.027736e-09 2.123129e-10 -1.402684e-10
1.312863e-09 1.149672e-08 -9.056790e-09 1.106858e-08 -2.506918e-09 -5.887851e-09
3.320455e-09 -8.417191e-10 -5.135437e-10 3.649433e-09 2.899354e-10 -6.860987e-10
5.474961e-09 -1.856629e-09 -3.796239e-10 4.127204e-09 -6.072285e-12 -1.004426e-09
5.610589e-09 -2.422631e-09 -3.970770e-10 2.727108e-09 1.004372e-10 -4.323126e-10
6.614582e-09 -2.346628e-09 4.710301e-10 5.194397e-09 -1.905031e-10 -2.189901e-09
-6.045892e-08 5.187349e-08 -4.348737e-08 1.495882e-08 1.581414e-08 -6.008770e-08
4.959574e-09 -1.592284e-08 -1.238431e-09 -8.930810e-09 3.378737e-09 5.950065e-10
-3.298236e-09 1.108319e-09 -6.093918e-09 1.885922e-08 1.116438e-08 -7.864626e-09
-4.304823e-10 1.416679e-09 -1.684747e-10 3.359124e-09 3.139280e-10 -5.447431e-11
-7.972925e-10 -8.276734e-09 1.538247e-09 -5.904128e-09 1.001890e-10 3.933210e-11
-5.784552e-09 -2.473806e-09 1.051109e-09 -6.914044e-09 1.533207e-09 1.153079e-11
-2.067205e-09 2.468455e-09 5.806804e-10 3.507671e-09 2.497444e-10 -4.675321e-10
-1.732010e-10 1.454145e-09 5.441638e-10 4.287618e-09 -2.729665e-12 -1.688377e-09
1.708178e-09 -3.313372e-10 4.064171e-11 3.571493e-09 -1.176541e-11 -1.036164e-09
-1.279659e-08 1.795975e-08 -1.189737e-08 1.049198e-08 7.667724e-09 -1.101290e-08
-1.453148e-10 -7.759406e-09 2.370642e-09 -4.139073e-09 3.192973e-10 -2.417034e-10
1.871570e-09 6.352652e-11 6.737779e-10 4.298193e-09 5.581468e-11 -1.299018e-09
-7.025793e-10 1.916992e-09 9.022869e-10 4.521865e-09 -2.933226e-10 -1.175079e-09
-9.491865e-10 2.630561e-09 6.630798e-10 5.529874e-09 -6.210625e-10 -2.178777e-09
3.378565e-09 -1.684162e-10 8.849699e-11 5.292146e-09 -1.992010e-10 -1.694143e-09
6.230082e-09 -3.069473e-09 -8.253481e-10 -1.348295e-09 -2.582523e-11 1.276566e-10
-3.729816e-11 2.733677e-09 8.584848e-10 5.304872e-09 -1.173991e-10 -9.228636e-10
5.201935e-08 3.296160e-08 -1.704602e-07 -4.094732e-08 1.965017e-07 2.006597e-09
-8.312976e-10 -6.309662e-09 2.089794e-09 -4.016947e-09 1.676606e-10 -1.716590e-10
-2.982090e-09 -7.548541e-09 4.411280e-10 -9.928978e-09 3.098581e-09 7.699434e-10
-2.031313e-10 -8.765205e-09 2.027067e-09 -5.587414e-09 -4.794875e-11 -5.178680e-10
4.300246e-08 -1.071635e-07 -2.273551e-08 -1.815053e-08 1.057553e-07 1.166955e-08
8.575548e-09 4.734276e-08 -1.015077e-07 9.976876e-09 5.870803e-08 -3.499647e-08
-3.708424e-09 -3.534897e-10 1.177764e-09 -3.434975e-10 5.496048e-11 -3.240392e-10
4.666573e-08 8.771572e-08 -3.006213e-07 9.567448e-08 1.515088e-07 -1.052606e-07
2.490569e-08 3.538756e-08 -9.063557e-08 1.655091e-08 6.139533e-08 -2.134495e-08
-1.613705e-09 1.491814e-09 3.091150e-10 2.710770e-09 1.755569e-10 -5.982740e-10
-2.126022e-08 1.942980e-08 -9.553518e-09 7.509885e-08 9.111234e-08 -7.414850e-08
-4.051095e-08 1.065674e-07 1.995672e-08 -2.988468e-08 -6.405152e-08 -1.297097e-08
3.609641e-10 1.505889e-09 -3.212020e-10 4.590330e-09 -9.957880e-11 -1.117234e-09
-1.538397e-09 3.967685e-09 1.628242e-09 4.757152e-09 -5.064780e-10 -2.085647e-09
1.912426e-10 2.314712e-09 -2.941318e-10 4.658232e-09 4.890882e-11 -1.110540e-09
-8.442093e-09 8.968337e-09 1.706153e-10 3.023137e-09 -9.552344e-10 -7.390915e-10
2.211417e-09 6.518680e-10 1.404743e-09 5.640255e-09 -5.931589e-10 -2.226553e-09
1.410044e-09 -3.714988e-10 -3.178613e-10 2.147559e-09 1.748512e-10 -2.410606e-10
-3.280401e-09 1.235288e-09 5.913288e-10 4.069300e-10 6.462941e-12 -1.727508e-10
-2.671991e-09 1.236999e-09 4.134870e-10 9.269124e-10 2.382507e-10 -2.197935e-10
-3.291008e-09 -1.875595e-09 1.391690e-09 -2.216739e-09 3.420090e-10 -2.376441e-10
-3.662036e-09 7.518839e-10 8.644401e-10 3.321067e-11 8.558720e-11 -4.761832e-10
-3.700091e-09 1.317278e-09 6.944498e-10 5.596791e-10 8.725898e-11 -1.256247e-10
6.780203e-10 2.691538e-09 1.335389e-09 6.118221e-09 -3.638949e-10 -1.777208e-09
-2.512122e-09 1.489042e-09 6.095511e-10 1.581506e-09 1.758389e-11 -5.891207e-10
2.273228e-09 2.703249e-09 3.179514e-10 6.405785e-09 -3.971723e-10 -1.723384e-09
1.886572e-09 2.911904e-09 7.797762e-12 6.298104e-09 -7.928112e-10 -3.065796e-09
-3.474655e-09 1.530860e-09 6.201066e-10 6.950724e-10 3.800849e-11 -9.921963e-11
-2.107654e-09 1.265945e-09 3.194289e-10 1.252895e-09 3.414713e-11 -7.264089e-11
-1.832615e-09 3.524024e-09 4.186380e-10 4.122046e-09 -4.383777e-10 -1.736173e-09
1.082781e-09 1.470893e-09 -2.992420e-10 5.138699e-09 -9.952029e-11 -1.570408e-09
-2.666131e-09 1.035611e-09 6.443850e-10 8.695831e-10 2.662914e-10 -4.717485e-10
-3.480843e-09 -1.349666e-09 1.312892e-09 -1.595240e-09 3.258741e-10 -5.126132e-10
-1.156092e-09 3.965073e-09 2.858438e-10 4.919801e-09 -6.644662e-10 -1.539054e-09
4.406573e-09 -1.719395e-10 6.814624e-10 5.359058e-09 -2.230737e-10 -2.557929e-09
5.778081e-09 -8.892238e-09 -2.036828e-08 2.041684e-08 -3.250848e-08 1.711303e-08
-4.141919e-09 1.819831e-09 1.114385e-09 -9.912311e-12 -1.484144e-10 -2.526482e-10
-3.343639e-09 1.497771e-09 6.383962e-10 1.042893e-09 7.469603e-11 -2.774198e-10
6.153567e-09 -2.658272e-09 -7.977263e-10 -2.172445e-09 -2.313569e-10 -1.906526e-10
-1.015473e-08 -5.784350e-10 -3.034778e-09 9.305896e-09 -7.283212e-09 6.964749e-09
-5.805607e-09 2.723077e-09 -6.123256e-09 1.551508e-08 -1.982407e-08 1.694164e-08
-5.122499e-09 -2.681276e-09 -8.943588e-09 1.109638e-08 -1.336442e-08 1.033345e-08
-5.386186e-09 2.875684e-09 -5.145393e-09 9.335404e-09 -8.097386e-09 7.606024e-09
-2.832760e-09 1.110325e-09 -8.731890e-09 7.649514e-09 -1.122607e-08 7.473617e-09
-5.202936e-09 8.940821e-10 9.724421e-10 -1.614547e-09 4.082649e-10 -4.802716e-10
-5.111757e-09 -7.243530e-10 8.157084e-10 -4.010321e-09 8.396338e-10 -1.751956e-10
-4.453727e-09 -2.474021e-12 1.285998e-09 -2.162378e-09 2.092535e-10 -6.402134e-10
-5.086939e-09 -3.851843e-09 1.693792e-09 -8.155438e-09 1.537441e-09 -1.196019e-11
-4.698584e-09 1.959998e-09 1.890215e-10 -7.250016e-10 -1.199265e-09 3.025860e-10
1.129142e-09 -1.021089e-08 2.471733e-09 -4.407672e-09 5.237565e-10 -6.605242e-10
4.073549e-09 -1.521926e-08 -2.791514e-10 -6.960721e-09 1.819354e-09 -5.059283e-10
-5.361369e-09 1.029000e-09 2.692724e-10 5.570236e-10 -1.803716e-09 1.029540e-09
-4.934004e-09 4.340138e-09 -1.306104e-09 -2.773862e-09 -1.579380e-09 1.706470e-09
-4.338297e-09 5.565279e-09 -2.618852e-09 -4.866250e-09 -1.588334e-09 2.111222e-09
-2.872728e-09 3.347321e-09 -1.241532e-09 -4.172372e-09 -9.528404e-10 7.286147e-10
5.530764e-09 -1.826075e-08 2.875267e-09 -5.919244e-09 1.202302e-09 3.024578e-10
3.200163e-09 -1.416806e-08 2.751937e-09 -4.654450e-09 8.069905e-10 -5.619115e-10
4.043604e-10 -9.734515e-09 1.842192e-09 -6.931521e-09 1.223811e-09 6.283904e-11
-2.413751e-09 2.838874e-09 6.287237e-11 -3.858499e-09 -2.741773e-10 -3.622090e-10
-5.974970e-09 6.890719e-09 -1.819755e-09 -2.728289e-09 -2.213607e-09 3.120447e-09
-6.352288e-09 2.526107e-09 -1.196121e-09 2.329557e-10 -2.496856e-09 2.688224e-09
-7.507210e-09 1.232003e-08 2.123739e-09 -8.664025e-09 -1.788296e-09 6.385243e-09
-8.384199e-08 3.934312e-07 -7.970549e-08 -2.183107e-08 -1.867349e-07 -1.800274e-07
-5.635015e-09 1.352580e-08 -2.446424e-09 -4.446977e-09 1.036420e-09 -1.665417e-09
1.681530e-08 2.097283e-08 -5.623033e-08 1.633698e-08 4.583168e-08 -1.725799e-08
-3.430618e-08 1.688592e-08 -6.497591e-09 4.037117e-08 2.297325e-08 -2.915868e-08
7.136782e-09 -3.924176e-09 -5.017400e-10 3.311071e-10 7.580570e-11 3.924372e-11
-1.003671e-08 -2.003581e-08 3.537877e-09 4.818490e-08 4.444256e-08 -2.856500e-08
-4.337631e-09 1.247139e-08 1.459810e-09 -1.345854e-08 5.547466e-09 4.162269e-09
5.478073e-09 3.599516e-09 3.387308e-08 -1.605151e-08 1.424781e-08 -2.469800e-08
2.020928e-09 8.807186e-09 2.138470e-08 -1.673359e-08 7.478783e-09 -2.123321e-08
-1.030441e-09 7.969403e-10 1.129332e-10 1.912015e-09 1.673376e-10 -2.339613e-10
-3.348813e-09 1.387468e-09 6.375926e-10 7.641664e-10 8.985790e-11 -1.984893e-10
-1.065931e-09 9.344685e-10 1.881411e-10 1.669095e-09 4.014633e-11 9.407863e-11
-1.532217e-09 1.423254e-09 5.884093e-10 3.472205e-09 -8.027517e-13 -6.666840e-10
-9.508181e-10 9.971550e-10 2.036185e-10 3.031392e-09 -7.017972e-11 -3.443776e-10
1.177589e-08 -3.331475e-09 -4.378289e-10 -5.109294e-09 6.726019e-10 -2.263922e-09
5.634886e-09 -1.307827e-09 -5.122418e-10 -6.141511e-09 -5.298978e-10 5.741871e-10
7.775091e-09 -1.779560e-09 -8.200689e-10 -5.722992e-09 -1.575507e-10 -8.378050e-10
1.585011e-08 -3.941229e-08 -5.447984e-10 -2.798824e-09 1.502575e-08 4.462918e-10
9.422524e-09 -3.703947e-09 2.217115e-11 -4.541957e-09 1.281855e-10 -1.049705e-09
7.246904e-09 -2.202292e-08 3.150253e-09 -2.470870e-09 1.417559e-09 -3.624393e-10
8.252060e-09 -2.702463e-09 -6.489995e-10 -4.798794e-09 4.153466e-10 -8.773086e-10
4.192881e-09 -1.564240e-08 1.131634e-09 -8.345854e-09 2.268087e-09 2.489363e-10
1.589504e-10 -6.540668e-09 -5.697448e-09 -2.013611e-08 1.159854e-08 9.598970e-09
8.121880e-09 -2.409489e-08 3.356752e-09 -1.422786e-10 1.685478e-09 -1.482436e-10
-2.963214e-10 -2.644326e-09 -4.466493e-08 -3.528143e-08 4.129527e-08 2.759848e-08
4.877729e-09 6.386535e-09 -9.939510e-11 -1.015150e-08 3.743074e-10 -3.583972e-09
-1.396824e-08 2.865409e-08 -9.384681e-09 -9.832659e-09 5.603633e-09 1.434518e-08
6.491824e-09 -1.810364e-08 -1.900489e-10 9.139823e-09 2.279493e-09 -4.479900e-10
9.325855e-09 -4.020425e-09 -9.433077e-11 1.719303e-09 7.404158e-11 -9.351255e-10
3.774252e-09 -1.854406e-08 1.039829e-09 8.550083e-09 2.968073e-09 -1.725541e-10
1.804761e-09 1.550853e-09 -1.033333e-10 4.734082e-09 2.467346e-10 -2.008098e-09
8.861933e-10 3.212456e-09 -1.649441e-10 5.395752e-09 3.006752e-10 -1.712945e-09
2.532605e-09 -1.812044e-08 2.788595e-09 1.117401e-08 4.163478e-09 -7.067995e-10
6.692121e-09 -2.107147e-08 2.364926e-09 9.748978e-09 4.170407e-09 -8.231535e-10
4.055295e-09 -1.880779e-08 1.511944e-09 1.416891e-08 6.136493e-09 -1.308270e-09
-1.250584e-08 3.610752e-08 1.091886e-08 1.698804e-08 -1.338906e-08 -9.342283e-11
5.421317e-09 -1.997146e-09 -7.257834e-10 -3.529726e-09 -5.973722e-11 -4.270045e-11
2.940659e-09 -1.602438e-08 2.681989e-09 6.405719e-09 1.499430e-09 1.282763e-10
8.444798e-09 -2.423745e-08 2.538857e-09 6.851986e-09 4.221555e-09 -8.936558e-10
6.464769e-09 -2.636634e-08 2.962171e-09 1.097125e-08 6.087997e-09 -1.531869e-09
1.064784e-08 -1.248176e-09 1.072592e-08 1.231394e-08 -5.415026e-09 -1.504278e-08
7.890206e-09 -2.439122e-08 2.626193e-09 7.217751e-09 4.148941e-09 -5.250433e-10
-1.458733e-08 2.079011e-08 5.705230e-09 1.139925e-08 -9.269000e-09 -6.047332e-09
-4.081664e-09 6.578887e-10 -1.569384e-08 -5.065334e-08 4.243171e-08 3.492823e-08
-1.498706e-08 1.378327e-08 1.185526e-08 1.198200e-08 -9.988032e-09 -2.286664e-09
6.130371e-09 -1.903044e-08 5.452310e-10 1.291466e-08 5.514451e-09 -2.094699e-09
5.725222e-09 -2.853189e-09 -7.529184e-10 -1.616186e-09 -1.465373e-10 -7.213097e-11
5.962490e-09 -2.283964e-08 3.120591e-09 7.182048e-09 2.974781e-09 7.958989e-11
3.309796e-09 7.954251e-09 1.522939e-09 -1.397495e-08 3.972818e-09 -1.672974e-09
-3.394584e-08 8.884157e-08 -2.167051e-08 -5.982961e-09 9.722834e-09 2.168171e-08
-3.031566e-09 2.791738e-09 9.610757e-10 4.218699e-09 -3.002865e-10 -8.239805e-10
3.309796e-09 6.820328e-09 7.438710e-09 -1.481159e-08 5.420789e-09 -2.793960e-09
-4.455194e-09 1.377494e-08 -1.852466e-09 -1.191559e-08 7.932276e-10 5.840121e-09
-9.652137e-10 8.770060e-10 2.014957e-10 2.447415e-09 4.303686e-10 -4.730857e-10
-2.665886e-08 2.872003e-08 -1.488816e-08 1.121534e-08 -5.984485e-09 2.844371e-08
-1.018233e-08 4.836207e-08 -1.156850e-08 -8.397999e-09 1.982783e-08 1.242171e-08
-1.435075e-08 2.686499e-08 -3.528419e-08 1.107716e-09 -2.173032e-08 3.220343e-08
-3.063718e-08 -9.395231e-09 -7.546388e-09 2.542048e-08 -2.471906e-08 3.354952e-08
-5.715408e-08 3.134476e-08 1.585180e-07 7.713426e-09 -7.374841e-08 -9.383758e-08
3.853726e-08 4.231587e-08 -1.043787e-07 9.640290e-09 7.476851e-08 4.410202e-09
-2.581940e-08 1.570075e-07 -2.416902e-07 1.120058e-08 -1.492886e-08 3.676231e-08
1.595749e-08 4.619188e-08 -1.049368e-07 -8.794520e-09 6.973607e-08 1.902294e-08
4.779769e-08 7.650709e-08 -1.855343e-07 4.086945e-08 6.786794e-08 -1.307119e-08
-6.337802e-09 4.118185e-08 3.658577e-08 2.137270e-08 -3.784544e-08 -2.325705e-08
1.450515e-09 9.948881e-09 2.548878e-08 1.910082e-08 -1.143341e-08 -1.539551e-08
-2.570567e-08 6.272004e-08 -2.863428e-08 -8.916956e-10 -1.578515e-08 -3.140073e-08
-2.495325e-08 7.446942e-08 1.994859e-08 2.085973e-08 -3.266005e-08 -2.194142e-08
2.854147e-09 9.032301e-08 -5.794586e-08 4.876275e-09 -3.643609e-08 -1.621153e-08
4.012021e-08 2.784573e-08 -1.577733e-07 5.452516e-08 1.608716e-07 -7.231110e-08
-2.595353e-09 1.235321e-09 2.780234e-10 9.726196e-10 1.888646e-10 -1.944183e-10
-3.318065e-09 1.052185e-09 7.295080e-10 3.426859e-10 1.883767e-10 -2.421566e-10
-1.050713e-09 1.444246e-09 2.023803e-10 2.681236e-09 3.931122e-10 -4.715881e-10
-8.990911e-09 1.295705e-08 -8.031533e-09 6.762738e-10 -3.751387e-09 -1.057425e-08
-2.718814e-09 2.146779e-09 5.589007e-10 3.038491e-09 1.080356e-10 -7.106884e-10
-3.049403e-09 1.288012e-09 5.958469e-10 8.953622e-10 1.165179e-10 -2.425904e-11
-1.369189e-08 -7.404606e-09 -6.589421e-10 -2.628153e-08 1.201008e-08 8.295331e-09
-8.905082e-10 -5.820032e-09 2.683551e-10 -7.931724e-09 1.235461e-09 4.951033e-10
-9.053649e-09 1.577318e-08 7.716379e-09 5.716994e-09 -1.948682e-09 -4.472266e-09
-2.122482e-08 6.125666e-09 -2.686862e-08 -2.348340e-08 2.546079e-08 2.623958e-08
-6.800619e-09 1.015474e-08 -4.924663e-09 -1.103102e-08 2.586046e-09 4.531920e-09
-3.458222e-09 1.259533e-09 6.938436e-10 4.932907e-10 8.751844e-11 -1.700082e-10
-4.187272e-09 1.552944e-10 1.200764e-09 -3.438550e-09 7.296252e-11 -1.529947e-10
-1.123045e-08 1.827262e-08 -7.521514e-09 -9.312048e-09 4.566854e-09 7.982213e-09
-3.050085e-09 1.530999e-09 4.381211e-10 4.958074e-10 6.577627e-11 -3.648792e-11
-2.270080e-08 2.488718e-08 -2.995054e-08 -3.991679e-09 -1.857245e-08 -2.579272e-08
-2.467297e-09 6.185730e-09 -5.675385e-10 -8.478441e-09 8.027890e-10 1.148477e-09
-7.484229e-09 6.907819e-09 -2.648378e-09 -2.793777e-09 -2.062042e-09 4.322296e-09
-3.318702e-09 5.264352e-09 -7.578687e-10 -5.591189e-09 -8.451908e-10 1.401562e-09
-4.448925e-10 1.012512e-08 -5.038356e-10 -1.127810e-08 1.787683e-09 7.873386e-10
-8.753097e-09 3.595101e-09 -6.195914e-10 1.042830e-09 -3.276697e-09 3.979459e-09
1.272847e-08 2.454706e-08 -5.442713e-08 -1.820618e-08 4.792681e-08 2.570818e-08
9.353747e-09 -4.920819e-09 6.530296e-10 -3.813815e-09 3.017233e-10 -1.662112e-09
-2.915615e-09 1.438142e-09 6.459948e-10 1.213713e-09 4.087304e-10 -9.078337e-11
-4.014096e-09 4.188949e-09 -1.016865e-09 -2.335082e-09 -1.715730e-09 1.151339e-09
-5.713786e-09 7.161575e-09 -7.636343e-10 -1.977550e-09 -1.864514e-09 2.114143e-09
-3.346726e-09 -2.926110e-09 -3.981094e-09 7.760958e-09 -7.049528e-09 4.250850e-09
6.451041e-09 -3.339859e-09 -7.553513e-10 -2.696938e-10 2.911865e-11 5.079537e-11
7.852163e-09 -1.681772e-08 -2.504006e-08 1.203273e-08 -2.639136e-08 9.993283e-09
6.055897e-09 -2.839195e-08 -2.599757e-09 1.477400e-08 -1.972291e-08 7.005523e-09
-5.747274e-10 -3.968212e-09 -1.326493e-08 8.845142e-09 -1.366054e-08 8.056308e-09
-2.851063e-09 2.044168e-09 8.727419e-11 -1.395620e-09 -1.023610e-10 -3.221592e-10
7.788946e-09 -3.525908e-09 -8.158554e-10 -1.376068e-10 1.712452e-12 -1.344638e-10
-1.121268e-09 1.262091e-09 -7.867018e-11 -2.840735e-09 -2.399079e-10 -4.979084e-11
-1.593831e-09 1.499115e-09 -1.035756e-10 -2.699730e-09 -4.292333e-10 -6.783263e-11
2.032516e-08 -1.470512e-08 -3.519018e-08 2.627061e-09 -5.018817e-08 6.747567e-09
2.729998e-08 -5.830472e-08 -7.612352e-09 -1.157543e-08 -3.992225e-08 -6.028875e-10
-7.171943e-10 1.012464e-09 -1.113358e-10 -1.951115e-09 -3.490740e-10 4.681355e-11
1.115823e-09 6.476037e-10 -3.707150e-10 -3.506469e-09 -3.978888e-10 2.965661e-10
-6.482308e-10 1.061114e-09 -1.569285e-10 -3.221672e-09 -4.942936e-10 -1.205374e-10
-5.922258e-10 1.131876e-09 -7.538059e-11 -2.431192e-09 -4.125305e-10 -1.168616e-10
7.743307e-09 -3.543064e-09 -4.721672e-10 1.893703e-09 8.507409e-11 -4.036074e-10
3.228097e-08 1.916080e-08 2.188974e-08 2.615631e-08 -2.269017e-08 -4.464943e-08
-3.261032e-09 -1.884242e-09 2.469376e-08 8.203979e-09 -4.977206e-09 -1.374462e-08
4.326054e-09 -1.692442e-09 -6.210681e-10 -2.744770e-09 -2.986494e-10 -1.858342e-10
1.478880e-08 1.159831e-08 3.004157e-08 2.077538e-08 -1.860050e-08 -3.904079e-08
-9.257070e-09 2.710370e-08 4.674392e-09 -1.975596e-08 1.111275e-08 -3.316215e-09
4.548514e-09 -1.521899e-09 -1.753055e-10 3.668492e-09 1.433357e-10 -3.607274e-10
-2.378256e-09 2.135620e-09 -5.390639e-10 -4.084212e-09 -6.472334e-10 5.454911e-10
-6.929253e-10 1.741873e-09 -4.474416e-10 -4.330053e-09 -7.208589e-10 3.399037e-11
1.038655e-09 1.397714e-09 -6.467273e-10 -5.756208e-09 -3.044134e-10 1.388094e-10
-1.882579e-10 2.873548e-09 -8.798708e-10 -5.926093e-09 -7.387215e-10 4.325552e-10
1.013674e-08 8.947332e-09 -2.931190e-09 -1.662754e-08 5.520869e-09 -4.496083e-09
7.388769e-09 6.544858e-09 2.447056e-08 -1.984180e-08 1.481003e-08 -2.068044e-08
-3.636887e-10 2.443530e-09 -4.713769e-10 -6.350385e-09 -4.406012e-10 3.399028e-10
1.135598e-09 2.098360e-08 -3.281106e-08 -2.741641e-09 -9.270813e-09 -6.452961e-09
-8.772585e-10 1.776272e-09 -1.833940e-10 -4.251005e-09 -5.152646e-10 8.530454e-12
-1.364075e-09 1.836848e-09 -3.130254e-10 -4.012293e-09 -7.345555e-10 2.925360e-10
-6.450682e-09 1.937093e-08 -1.335346e-08 8.008028e-09 -5.885152e-09 -1.059450e-08
-9.126840e-09 4.513652e-08 -1.516530e-08 1.994407e-08 1.539681e-08 -1.534849e-09
-8.720247e-09 4.712601e-08 -3.397839e-08 3.020859e-09 -1.515589e-08 -1.149891e-08
7.099092e-09 -1.103724e-08 -2.592693e-08 -1.436356e-08 -2.816410e-08 -9.176530e-09
-8.387274e-09 7.329690e-09 -2.638387e-08 -2.371332e-08 -4.296675e-08 -2.278098e-08
-1.191103e-09 1.669534e-08 -1.209357e-08 8.242262e-09 -5.781968e-09 -7.664533e-09
-2.478572e-09 1.976427e-09 -2.784367e-10 -3.584577e-09 -9.879725e-10 4.106208e-10
-4.918551e-09 1.877503e-10 1.004900e-09 -4.004760e-10 -1.068312e-09 -5.995715e-11
-5.695337e-09 2.580883e-09 -6.756746e-10 5.590564e-11 -1.279936e-09 3.166697e-10
-1.597931e-08 4.150987e-08 -3.796285e-08 -1.421820e-08 -3.630639e-08 -2.202607e-08
1.192364e-08 2.357499e-08 -4.738272e-08 -6.758539e-09 -3.516360e-08 -3.371510e-09
2.006129e-08 -5.619661e-09 -3.468424e-08 -2.675580e-09 -3.369486e-08 -2.040103e-09
-4.413800e-09 1.617453e-09 -1.793898e-11 -1.759356e-09 -1.013928e-09 -1.615118e-10
-4.306667e-09 2.057458e-09 3.741922e-10 -9.799703e-10 -1.620100e-09 5.573737e-10
-1.178786e-08 1.274639e-08 -8.329251e-10 -3.790088e-09 -1.264390e-09 2.505070e-09
-1.592635e-08 -1.036101e-08 -1.666821e-10 2.320928e-08 -1.168075e-08 1.089643e-08
-1.594123e-08 3.312615e-09 -6.264673e-10 1.747637e-08 -1.292825e-08 1.383308e-08
-2.470724e-08 5.262886e-08 -9.990978e-09 -3.253157e-09 4.237727e-09 1.465732e-08
-4.455194e-09 1.531280e-08 -8.080421e-09 -9.374233e-09 -2.293779e-09 7.962280e-09
-2.822119e-09 3.389137e-09 -7.154974e-10 -4.683937e-09 -6.982078e-10 2.281406e-10
-7.641614e-09 1.879808e-08 -2.231429e-08 5.471558e-09 -1.509084e-08 1.843977e-08
-4.158772e-09 6.268548e-09 -1.209461e-08 4.203260e-09 -1.008654e-08 9.128287e-09
-4.716028e-09 1.807759e-09 5.802603e-11 -1.017810e-09 -8.874057e-10 1.701972e-10
-3.604236e-08 9.452824e-09 1.364665e-09 4.284668e-08 -1.417985e-08 3.594375e-08
-5.211108e-09 2.335264e-09 1.000242e-10 -1.266573e-09 -7.744412e-10 2.731310e-10
-6.705187e-09 1.003062e-08 -8.477194e-09 4.734456e-09 -5.602190e-09 7.388136e-09
-7.329590e-09 3.603661e-09 -1.013941e-09 5.111626e-09 -5.948992e-09 4.633360e-09
-5.877378e-09 -8.065296e-09 -2.656652e-09 1.686775e-08 -1.418452e-08 1.146401e-08
-5.747278e-10 7.359271e-09 -1.639635e-08 6.185131e-09 -1.461637e-08 9.697241e-09
-1.337149e-09 3.477402e-09 -1.840714e-08 1.015095e-08 -1.764365e-08 1.386297e-08
-5.058528e-09 3.220067e-08 -4.618160e-08 -1.869683e-08 -3.150519e-08 -2.570941e-08
-1.819575e-09 1.562130e-09 6.864731e-12 -2.157611e-09 -2.252841e-10 2.887690e-11
-6.572014e-10 1.306106e-09 -2.632952e-10 -2.576371e-09 -4.068790e-11 6.488599e-11
1.163780e-11 9.457803e-10 -3.344935e-10 -3.318501e-09 -3.430178e-10 9.059153e-11
-8.449988e-09 -9.895212e-09 3.309926e-10 1.480135e-08 -8.121164e-09 5.721238e-09
-6.817810e-09 -4.709836e-10 3.416245e-10 3.459293e-09 -3.022324e-09 1.710216e-09
8.714851e-10 3.378666e-10 -3.044374e-10 -2.822216e-09 -3.661318e-10 -3.410994e-12
-1.322653e-10 9.411680e-10 -2.954588e-10 -3.289224e-09 -3.492100e-10 8.535439e-11
-8.449988e-09 -1.437176e-09 -6.064130e-10 1.249817e-08 -1.003536e-08 6.921998e-09
-1.364301e-09 9.514620e-09 4.006255e-09 1.203873e-08 -5.644169e-09 -7.502253e-09
-2.438408e-08 2.442588e-08 -2.007294e-10 1.453274e-09 -4.603621e-09 9.173190e-09
-8.800973e-09 8.638814e-09 7.233623e-10 2.610045e-09 7.303968e-10 -1.760353e-10
5.228673e-09 -2.315273e-09 -5.059442e-10 -4.346871e-09 -1.179138e-10 -6.562528e-11
7.558435e-09 -2.113440e-09 2.588907e-10 -6.956194e-09 4.042489e-10 -1.668296e-09
1.090535e-08 -4.917021e-09 8.718479e-10 1.350188e-09 8.593599e-11 -2.080563e-09
-6.229111e-09 8.288577e-09 1.757586e-08 1.454050e-08 -1.093806e-08 -1.472555e-08
-6.346367e-09 8.770860e-09 2.012941e-09 7.832713e-09 -2.301118e-09 -3.943532e-09
3.674614e-09 5.074815e-10 -7.328014e-10 -5.555016e-09 -8.403898e-10 -2.705421e-10
-1.207533e-08 1.446133e-08 7.153584e-09 7.956550e-09 -4.414330e-09 -2.815751e-09
-1.287881e-08 2.309709e-08 5.001870e-09 7.022187e-09 -9.160543e-09 -2.228426e-09
1.302492e-08 -4.929669e-09 -6.446045e-10 -2.086243e-09 2.130577e-10 -2.515823e-09
1.283006e-08 -2.872822e-08 -7.093146e-10 6.532865e-09 9.063193e-09 -1.218236e-09
1.034354e-08 -2.149773e-08 -4.154435e-09 8.044501e-09 6.687930e-09 -1.137223e-09
9.304796e-09 -2.624505e-08 2.020830e-09 3.860982e-09 3.995404e-09 -3.281028e-11
3.682843e-09 -9.906972e-10 -6.281944e-10 -3.639230e-09 -4.729053e-10 -4.685918e-11
-5.335998e-11 1.809500e-09 -4.022591e-10 -4.608717e-09 -1.149783e-09 1.485478e-10
2.738541e-09 5.303856e-10 -5.068559e-10 -6.134415e-09 -1.347953e-10 -2.098047e-10
6.593234e-09 -3.180308e-09 -8.466736e-10 5.838233e-10 3.569073e-11 -7.917888e-12
-5.515280e-09 5.246918e-09 -2.294047e-09 -6.029699e-09 -1.268790e-09 3.578510e-09
1.810848e-09 6.136456e-10 -5.076966e-10 -5.002329e-09 -1.269302e-10 -5.498335e-11
-5.466148e-09 -2.809166e-10 6.236442e-10 3.992412e-09 -3.894321e-09 1.509548e-09
7.349352e-10 2.360448e-09 -8.268106e-10 -6.253075e-09 -5.176914e-11 -1.788407e-10
4.236453e-09 -1.748972e-09 -6.316452e-10 -2.193020e-09 -9.202994e-11 -2.151856e-11
1.011495e-08 -2.460847e-08 4.982270e-10 1.074720e-09 4.183228e-09 -1.025390e-10
5.624811e-09 -2.555170e-09 -7.133663e-10 -1.640317e-09 -1.888369e-10 1.377110e-10
8.765946e-09 -2.440847e-08 1.593521e-09 6.709751e-09 4.406342e-09 -9.998553e-10
3.593406e-09 -1.522139e-09 -6.213787e-10 -2.569944e-09 -1.732854e-10 -5.666534e-11
1.045409e-08 -2.314398e-08 -9.777941e-10 5.251729e-09 4.267135e-09 -8.908505e-10
-9.283160e-09 5.245713e-10 1.657992e-09 -1.199748e-08 2.424017e-09 2.642751e-09
-3.471534e-10 1.195193e-09 -2.265779e-10 -3.476609e-09 -1.762846e-10 -5.544920e-11
-1.053170e-08 8.939830e-09 -1.089446e-10 -3.342271e-09 3.831766e-10 1.420831e-09
-6.572695e-09 4.022798e-09 -1.387259e-09 -7.019287e-09 2.041427e-09 1.093161e-09
-9.767362e-09 5.961858e-09 -4.266190e-09 -1.008754e-08 2.801503e-09 4.030600e-09
-9.213937e-09 9.114490e-09 -5.935310e-10 -2.887794e-09 3.745397e-10 1.169905e-09
-1.790482e-09 3.858919e-09 -6.138415e-10 -5.261131e-09 -1.219178e-09 8.131712e-10
1.091305e-10 7.558159e-10 -2.297909e-10 -2.608876e-09 -1.648759e-10 -2.647071e-11
-2.893993e-09 3.314527e-09 -1.243781e-09 -5.170623e-09 -9.432746e-10 1.148176e-09
-4.208338e-09 2.922477e-09 -1.452802e-10 -2.669608e-09 -4.744456e-10 3.539904e-10
1.708862e-08 -5.329819e-09 5.228577e-09 -3.523109e-09 8.842840e-10 -6.778790e-09
-3.365668e-09 5.632377e-09 -1.283261e-09 -5.890426e-09 -1.049133e-09 1.773254e-09
-1.970502e-09 4.589525e-09 -4.573519e-10 -6.552163e-09 7.833268e-11 1.769769e-10
-5.344500e-10 2.296357e-09 -6.375115e-10 -5.849377e-09 -6.284885e-10 6.431210e-10
-1.269091e-09 1.139997e-09 -7.627898e-11 -2.335985e-09 -4.196409e-10 -8.719447e-11
2.307472e-09 -4.521912e-10 -5.044654e-10 -3.080706e-09 -1.075127e-10 5.767875e-11
1.668393e-09 -6.181544e-11 -4.127225e-10 -2.720406e-09 -3.153793e-10 -9.422352e-12
-6.058141e-10 2.767731e-09 -2.231333e-10 -6.760744e-09 -2.034262e-10 2.397848e-11
1.690814e-09 3.299198e-09 -1.088506e-09 -8.373356e-09 5.839732e-10 -6.826917e-11
-2.266192e-08 2.201620e-08 3.963520e-09 -9.900339e-09 -1.685385e-09 9.221552e-09
-1.033855e-07 -2.082988e-08 3.636387e-07 -1.315694e-08 4.417251e-08 2.294680e-08
-1.689163e-08 1.527475e-08 -1.670905e-09 -1.572385e-09 3.070591e-09 2.668220e-09
1.058864e-08 -2.491152e-08 -7.456944e-09 7.814793e-09 -1.356832e-08 2.532456e-09
1.562017e-08 -8.317176e-09 -2.721488e-08 -2.447142e-09 -2.675753e-08 4.483519e-10
1.490756e-08 -3.131123e-08 -2.125217e-09 -1.447764e-09 -1.684637e-08 1.861107e-10
1.328692e-08 -1.843984e-08 -1.020516e-08 -4.283298e-09 -1.381673e-08 -5.476241e-10
-1.975928e-08 2.698686e-08 -3.267576e-08 -1.759536e-08 2.107242e-08 2.615053e-08
-2.595450e-08 2.429595e-08 -8.597751e-09 -2.954521e-09 2.464385e-09 1.294226e-08
1.884354e-08 -3.208533e-08 -1.718732e-08 -1.081450e-08 -3.496740e-08 -3.440867e-09
9.652454e-09 -2.858876e-08 -4.992020e-09 -1.883445e-08 -1.927490e-08 -4.924459e-09
-9.392946e-10 -1.211754e-08 -6.321805e-10 -1.210882e-08 -8.785074e-09 -2.744989e-09
-2.271551e-08 2.534016e-08 -6.721313e-09 -7.756266e-10 3.897476e-09 1.558887e-08
-3.930464e-09 6.863223e-09 1.874764e-09 6.107614e-09 -1.844677e-09 -2.282756e-09
-3.071022e-09 2.102956e-08 -3.747094e-08 -1.228544e-08 -2.739546e-08 -2.413397e-08
-3.364005e-09 2.883793e-09 5.476539e-10 1.867468e-09 -1.578018e-10 -1.445044e-09
-3.373745e-09 2.952669e-09 2.357372e-10 1.895336e-09 9.361063e-10 -3.927988e-10
2.753884e-09 2.401645e-09 -1.013891e-09 6.563396e-09 -1.923154e-10 -1.105035e-09
-4.393802e-09 3.936932e-09 2.433764e-10 1.378165e-09 8.190266e-10 -6.653852e-10
1.955358e-08 -3.981464e-08 -4.257010e-09 -3.295338e-09 -2.814591e-08 5.881795e-10
-4.536462e-09 4.238985e-09 4.886880e-10 1.139866e-09 9.551339e-11 -5.890994e-10
2.236586e-09 -1.268760e-08 -7.634189e-10 -1.150950e-08 -1.006716e-08 -3.477589e-09
2.324975e-09 2.642524e-09 -1.812024e-08 -1.031469e-08 -1.798745e-08 -8.038776e-09
-2.012123e-10 2.823968e-08 -1.301959e-08 1.623297e-08 2.335620e-09 -6.139639e-09
9.894585e-11 -1.163998e-08 2.385525e-09 1.088169e-08 2.679335e-09 -1.869676e-10
1.709560e-09 -1.414612e-08 3.205815e-09 6.154490e-09 1.191568e-09 1.900744e-10
-6.523944e-09 4.000686e-09 1.541092e-10 -1.103441e-10 9.747292e-10 -1.510083e-10
-8.121071e-09 8.318394e-09 1.789606e-10 -8.885461e-11 5.015105e-11 7.512253e-10
-2.863969e-09 -4.331160e-09 1.383989e-09 -6.858218e-09 1.266424e-09 -2.711682e-10
2.250679e-08 -5.067021e-08 -4.744918e-09 3.889647e-09 2.607254e-08 -1.816586e-09
-4.056869e-10 -1.159462e-08 1.688508e-09 1.139410e-08 3.210245e-09 -7.843317e-10
-4.693794e-09 -6.766165e-10 1.067889e-09 -4.243206e-09 5.896245e-10 -5.458119e-10
-1.515212e-10 -7.657161e-09 -1.570357e-09 -1.147770e-08 2.397356e-09 2.116689e-09
9.112409e-09 -2.593783e-08 2.839347e-09 4.200597e-09 3.628901e-09 -2.573817e-10
4.056339e-10 -1.029712e-08 2.017845e-09 -8.933726e-09 1.870082e-09 4.928538e-10
-1.100879e-08 1.983706e-08 -8.439186e-09 1.324639e-09 3.297192e-09 -6.946084e-09
-5.385151e-09 2.450952e-09 2.729044e-10 -4.291773e-09 6.736494e-10 1.531542e-10
-6.472260e-09 1.920109e-10 1.069728e-09 -4.526553e-09 9.042520e-10 -1.260805e-10
-1.446125e-08 4.244882e-10 -4.603718e-09 2.357888e-08 1.197429e-08 -1.073453e-08
-5.447928e-09 1.655144e-09 1.045310e-09 -3.289684e-09 8.950314e-10 -3.269974e-10
-8.754356e-09 9.253241e-09 -6.726448e-09 9.969851e-09 6.764156e-09 -4.248780e-09
5.454286e-09 -2.001852e-08 3.293933e-09 5.549145e-09 1.480055e-09 -1.583294e-10
-1.772270e-09 -1.187353e-08 -1.079970e-08 2.732652e-08 2.691020e-08 -1.611208e-08
-4.808533e-09 -3.590918e-09 1.640960e-09 -8.568513e-09 1.640603e-09 1.222654e-11
-1.277331e-08 7.997605e-09 -3.767907e-09 1.187019e-08 4.439280e-09 -5.194908e-09
-7.945760e-09 3.972388e-09 -1.618019e-09 -6.614770e-09 1.925666e-09 1.765785e-09
-1.249754e-08 6.192621e-08 -2.978475e-08 -1.747427e-08 -2.581458e-08 -1.633560e-08
-2.310765e-08 4.510035e-08 -3.095778e-08 1.874845e-08 -2.721436e-09 -1.558771e-08
5.419664e-08 -4.327318e-08 1.360780e-07 4.032745e-08 2.689660e-08 1.783631e-07
-1.994947e-07 -4.079239e-08 6.419713e-07 -2.966466e-08 -1.120370e-07 9.097713e-08
1.321151e-08 1.544352e-09 8.185556e-09 -2.203226e-08 -5.608335e-09 9.386173e-09
3.257933e-08 -1.071099e-08 2.159612e-08 -2.068046e-08 -8.865034e-09 2.425012e-08
-5.288367e-08 1.271565e-07 1.915569e-08 -4.252446e-09 -9.818885e-08 1.884933e-08
-1.541996e-07 -3.973947e-08 2.969757e-07 -3.724188e-08 -1.066618e-07 -6.348791e-09
5.697739e-08 9.193421e-09 2.364083e-09 -1.785769e-08 -9.475982e-09 3.777830e-08
-1.114323e-07 -1.183455e-08 2.294999e-07 2.871204e-10 -6.094593e-08 2.201355e-08
-1.730562e-08 8.438867e-09 -3.529757e-09 -1.753560e-08 8.523956e-09 1.066755e-08
4.473072e-08 -7.529489e-09 9.520371e-10 -1.176772e-08 -2.087677e-09 2.374981e-08
-1.178069e-08 8.635145e-09 -6.096991e-09 8.779998e-09 7.753698e-09 -6.017391e-09
-1.730869e-08 9.566361e-09 -1.828194e-09 -1.719654e-08 5.244270e-09 1.058861e-08
-1.649250e-08 5.684375e-09 -9.953773e-10 -1.724822e-08 7.060739e-09 9.149256e-09
1.601428e-08 -6.390651e-09 -2.302959e-08 5.363785e-09 -2.150784e-08 5.739036e-09
1.562017e-08 -1.702704e-08 -1.638831e-08 -2.316360e-09 -1.784522e-08 1.013739e-09
1.290619e-08 -2.654498e-08 -5.143504e-09 9.316126e-09 -2.224016e-08 3.722930e-09
1.461709e-08 -1.665168e-08 -1.593546e-08 2.658870e-09 -1.671060e-08 3.389871e-09
1.554694e-08 -6.244210e-09 -2.694057e-08 -4.609193e-10 -2.526898e-08 2.838267e-09
-3.953970e-09 -7.016876e-11 1.130295e-09 -7.540941e-10 -1.447626e-10 -1.958971e-10
-9.526747e-09 1.060517e-08 9.962733e-10 -1.949242e-10 -6.947987e-10 -3.848816e-11
-1.619070e-08 1.492475e-08 3.154063e-09 -4.607471e-09 -3.526848e-09 2.797031e-09
1.247470e-08 -5.666174e-09 6.096044e-09 2.367423e-09 3.258412e-12 -6.779610e-09
-1.827761e-08 1.384636e-08 6.906859e-09 -2.672639e-08 1.684469e-08 1.767936e-08
1.466648e-08 1.101585e-08 -4.284055e-08 -1.192548e-08 -3.472979e-08 -8.537389e-09
-2.273360e-08 1.862512e-08 1.101088e-08 1.553911e-09 -1.021037e-08 -3.410575e-09
1.726236e-08 -2.161724e-08 -1.861789e-08 -6.021406e-10 -2.390850e-08 1.999614e-09
-1.625091e-08 1.144550e-08 2.204990e-09 -4.046452e-09 -1.375079e-09 2.342612e-09
-9.249801e-10 2.314209e-09 -4.445192e-10 -4.871932e-09 -9.596162e-10 3.883779e-10
-2.626193e-10 9.662517e-10 -3.108233e-10 -3.974023e-09 -4.377597e-10 1.636400e-10
-9.220482e-10 2.453766e-09 -5.772562e-10 -4.712627e-09 -1.062656e-09 4.640453e-10
-5.301730e-09 8.208669e-10 -5.798655e-10 9.016412e-10 -1.468383e-09 6.849754e-10
-5.784026e-09 4.004413e-09 -6.699845e-10 -3.412629e-09 -1.219985e-09 2.045036e-09
-4.661775e-09 2.305926e-09 3.010849e-10 -1.215303e-09 -1.333031e-09 -1.624699e-10
-3.492650e-09 2.793623e-09 1.090670e-10 -2.297127e-09 -6.606307e-10 2.475120e-10
-1.942992e-09 2.344736e-09 -1.870546e-10 -3.596574e-09 -7.102185e-10 1.556305e-10
-3.196416e-09 3.396409e-09 -6.500966e-10 -3.122260e-09 -1.049669e-09 1.087616e-09
-5.159073e-09 1.015473e-09 2.875060e-10 1.619765e-10 -1.692635e-09 5.116068e-10
-1.124477e-09 3.085627e-09 -1.059694e-09 -7.645205e-09 -9.394330e-11 5.436798e-10
2.365768e-08 -3.733467e-08 -9.181661e-09 1.195249e-08 -4.071878e-08 8.969314e-09
1.299405e-09 3.263754e-10 -3.962595e-10 -4.327653e-09 -4.505113e-10 -1.783682e-10
2.369170e-08 -7.609717e-08 -1.616446e-08 1.242507e-08 -6.141060e-08 8.819555e-09
3.100912e-09 5.121065e-10 -8.581398e-10 -5.818958e-09 -4.127133e-10 2.181604e-10
-5.949334e-09 3.893454e-09 2.937817e-10 -1.343445e-09 -1.481794e-09 1.040098e-09
-5.873048e-09 5.611987e-09 -3.560857e-09 -1.599650e-09 -2.902795e-09 3.220342e-09
2.372265e-08 -5.402425e-08 -1.612473e-08 1.335182e-08 -6.589839e-08 8.547763e-09
-1.496141e-08 5.228343e-08 -1.790082e-08 -9.452667e-09 4.578191e-09 1.535598e-08
-6.377748e-08 1.173878e-07 -4.094492e-10 -3.185062e-08 5.734975e-08 -7.095965e-08
-8.057195e-09 -3.781782e-09 2.425988e-10 8.049662e-09 -5.162319e-09 3.385412e-09
-6.475800e-10 -1.611265e-09 -2.866795e-08 1.885177e-08 -2.839839e-08 2.121802e-08
-3.817629e-09 2.612921e-09 -3.033573e-10 -2.483551e-09 -6.158661e-10 3.467313e-10
-2.557560e-09 1.823121e-09 2.179457e-11 -2.419588e-09 -4.565767e-10 -2.547657e-10
5.380008e-09 -5.512006e-09 -3.514874e-08 4.589276e-08 -6.167238e-08 4.511241e-08
-9.172396e-09 -2.295058e-08 -7.195407e-09 2.925711e-08 -2.643062e-08 2.206042e-08
1.342561e-08 -7.272797e-09 -2.554672e-08 1.118183e-08 -3.878788e-08 1.421551e-08
-3.196215e-09 3.278631e-09 -3.204741e-10 -4.051855e-09 -7.396619e-10 6.351899e-10
-3.239799e-09 -1.381044e-09 -2.855947e-09 7.352059e-09 -5.589420e-09 3.846336e-09
-7.258496e-10 1.223992e-09 -6.906146e-10 -4.721524e-09 -3.631477e-10 1.732617e-10
-2.373900e-09 -8.728083e-09 -8.083315e-09 9.515128e-09 -1.206162e-08 6.867392e-09
1.178224e-08 -3.966916e-08 -4.849804e-11 1.085604e-08 1.495540e-08 -1.185557e-09
-5.478517e-09 2.403391e-09 -3.784815e-09 2.517661e-09 -3.602115e-09 3.125341e-09
-4.902840e-09 -4.244566e-09 7.102670e-10 8.416702e-09 -6.201930e-09 2.552929e-09
-5.102095e-09 -9.071943e-10 3.230567e-10 2.072021e-09 -2.204986e-09 8.224941e-10
-2.384672e-09 5.115426e-09 -6.093660e-10 -5.415480e-09 -1.174975e-09 9.227523e-10
1.432074e-08 -3.493000e-08 -5.233861e-09 -1.466627e-08 -2.132336e-08 -5.121301e-09
1.304486e-09 4.114882e-09 -1.228356e-08 -9.141723e-09 -1.131296e-08 -5.128157e-09
2.163875e-09 -1.272958e-08 -5.222002e-09 -1.133253e-08 -1.091839e-08 -2.825104e-09
-2.762591e-09 9.202745e-10 -1.032521e-08 7.677985e-09 -9.600872e-09 6.273143e-09
-7.500758e-09 5.129383e-09 -6.136269e-09 -9.164068e-09 -8.983407e-09 -8.222077e-09
1.264225e-08 -3.030213e-09 -2.201071e-08 -7.723601e-09 -2.241725e-08 -3.737195e-09
-5.416741e-09 -1.982481e-10 -6.243491e-09 1.041264e-08 -1.021429e-08 8.701163e-09
7.310124e-09 -1.317594e-08 -1.810278e-08 -1.349151e-08 -1.974624e-08 -7.131151e-09
2.695885e-08 -8.266842e-08 -1.659143e-08 -2.891312e-09 -6.450400e-08 -7.645035e-10
-4.345114e-09 1.103458e-09 -5.858286e-09 -7.388240e-09 -7.152545e-09 -4.165371e-09
-3.887256e-09 -3.647738e-09 -2.752415e-09 5.969577e-09 -4.657401e-09 2.907040e-09
-5.650962e-09 -3.522816e-09 -3.791594e-09 6.573949e-09 -6.984690e-09 4.273954e-09
-6.084336e-09 4.985106e-10 -5.723486e-09 6.850197e-09 -6.165002e-09 5.769772e-09
-1.479766e-09 2.381354e-08 -1.349506e-08 1.056568e-08 -3.613324e-09 -9.415514e-09
-5.308660e-09 3.511344e-09 -5.898546e-09 4.133247e-09 -5.125001e-09 3.886257e-09
7.302783e-09 -3.707669e-08 -3.310783e-09 -2.027740e-08 -2.385274e-08 -6.662572e-09
9.567914e-09 -3.384682e-08 -1.620526e-08 -3.838481e-08 -4.434369e-08 -2.053311e-08
-5.718322e-09 -3.390426e-08 -5.871449e-09 -4.135418e-08 -3.021178e-08 -1.914366e-08
7.476847e-09 -1.600939e-09 -2.129121e-08 -1.205069e-08 -2.154982e-08 -7.564937e-09
1.163718e-08 -4.695446e-08 -3.679888e-09 -2.561807e-08 2.821264e-08 9.108249e-09
8.770949e-09 -4.129511e-08 -1.973347e-08 -4.518952e-08 6.256464e-08 2.326169e-08
7.483312e-09 -2.007120e-08 5.154908e-10 -5.167883e-09 2.591149e-09 3.234226e-10
9.434048e-09 -1.320018e-08 -1.377925e-08 -2.836645e-08 2.607022e-08 1.596192e-08
4.941068e-09 -1.711501e-08 1.247166e-09 -8.799656e-09 2.186179e-09 6.428153e-10
2.635626e-08 -5.985994e-08 -3.847783e-08 -2.077628e-08 6.744971e-08 1.110263e-08
1.720156e-09 -1.189305e-08 2.254473e-09 -6.238449e-09 1.299029e-09 -5.214516e-10
5.452020e-09 -1.859093e-08 3.005492e-09 -3.953790e-09 1.127216e-09 -4.800154e-10
-2.060924e-09 -7.460185e-09 1.450831e-09 -7.379813e-09 8.817408e-10 2.862086e-10
9.577064e-09 -4.024827e-09 -4.345235e-11 -2.430851e-09 -1.116545e-10 -9.168919e-10
-8.637515e-09 8.656103e-09 -6.087100e-09 5.069586e-09 -7.474999e-09 8.194016e-09
-1.019538e-08 -3.841999e-09 -4.589117e-10 9.674962e-09 -8.707320e-09 7.305449e-09
4.943219e-09 -1.704903e-08 -1.182460e-09 -8.747499e-09 3.111738e-09 5.983659e-10
-7.332039e-09 3.649288e-09 -2.701494e-09 5.113422e-09 -5.549065e-09 4.534697e-09
-1.409512e-08 3.082418e-08 -2.836383e-08 -1.141177e-08 2.038609e-08 2.843158e-08
-6.432813e-09 5.257200e-09 3.693668e-11 -1.438354e-09 3.640583e-10 -1.589662e-11
7.029531e-09 -1.861734e-08 1.460159e-10 -8.627664e-09 5.627866e-09 6.855136e-10
1.160099e-08 -3.407182e-08 -2.760792e-10 -8.474336e-09 1.181265e-08 2.413041e-09
-2.034567e-08 7.870419e-08 -2.134525e-08 1.185508e-08 -3.506841e-08 8.085641e-09
-4.223808e-08 5.093109e-08 -3.936510e-08 -8.377632e-08 8.111782e-08 6.135417e-08
-3.802585e-09 5.076632e-10 -6.536949e-10 -7.610981e-09 1.133167e-09 8.522961e-10
-2.196427e-09 -1.250947e-08 -1.277704e-09 -2.224715e-08 1.236738e-08 4.760533e-09
-8.776597e-09 2.944855e-08 -5.319894e-08 -4.273086e-08 3.563607e-08 5.375233e-08
2.915353e-08 -2.050956e-08 -1.035251e-07 -3.240011e-08 1.193061e-07 3.883573e-08
-4.848684e-09 6.896648e-09 2.205556e-10 -6.586019e-09 -1.633557e-09 2.383676e-09
2.810654e-08 4.623679e-08 -1.010967e-07 -9.623152e-09 7.019232e-08 1.218464e-08
-1.210327e-08 2.635341e-09 -3.393954e-08 -7.991248e-08 6.257046e-08 8.238345e-08
3.112821e-08 4.840917e-08 -1.028189e-07 -5.473863e-08 1.113928e-07 4.064714e-08
3.799134e-10 -1.580379e-08 -3.407825e-09 1.975430e-08 1.208379e-08 -4.534845e-09
-2.747203e-09 2.088212e-09 2.146141e-10 -1.755153e-09 -1.950167e-10 -5.190537e-11
-3.136256e-10 1.021520e-09 -1.671856e-10 -3.980066e-09 -6.138007e-10 1.825173e-10
1.915474e-08 -3.293988e-08 -6.431922e-09 3.503758e-09 1.462620e-08 1.463928e-10
8.554160e-09 -2.661311e-08 -6.994175e-10 2.012604e-08 1.805103e-08 -5.219615e-09
1.514579e-08 -2.434463e-08 -1.369111e-08 1.595207e-08 1.811296e-08 -3.765114e-09
-2.404836e-09 1.987417e-09 1.635394e-10 -1.793016e-09 -3.600231e-10 4.160251e-10
9.088590e-09 -3.716311e-09 -2.760405e-10 -4.098524e-09 3.863927e-10 -1.404414e-09
6.435387e-09 -2.633303e-08 3.627353e-09 1.410436e-08 8.047037e-09 -1.820213e-09
1.297448e-09 6.044234e-10 -5.169993e-10 -4.931661e-09 -1.406151e-10 3.229372e-11
-4.215637e-09 4.579225e-09 -1.236684e-09 -3.394058e-09 -2.097474e-09 2.081978e-09
-3.310396e-09 3.625442e-09 -9.183982e-10 -4.246403e-09 -1.417070e-09 1.306731e-09
-1.316571e-09 2.379718e-09 -6.310010e-10 -4.349433e-09 -6.356224e-10 1.966551e-10
-5.874607e-08 6.022607e-08 -6.318988e-09 5.985124e-08 8.718560e-08 -1.455903e-09
-1.165449e-08 3.897341e-08 7.429757e-08 1.611859e-08 4.620259e-08 4.986285e-08
1.248672e-08 2.063954e-08 -4.816163e-08 -8.579981e-10 -3.794596e-08 9.859544e-09
-1.705171e-08 3.447406e-08 9.779419e-09 -2.546834e-08 -2.367316e-09 -1.023318e-08
1.020596e-08 -2.853514e-08 -2.278889e-09 1.520957e-08 -1.974244e-08 5.734015e-09
-1.086104e-09 -2.896330e-09 -1.962588e-08 1.068470e-08 -2.067623e-08 1.437439e-08
6.215559e-09 -2.317909e-08 6.659580e-10 1.601722e-08 1.150406e-08 -3.056181e-09
2.891889e-08 -1.129011e-07 -1.798558e-08 2.696950e-08 -8.706799e-08 1.756462e-08
-3.918895e-09 1.858873e-08 -3.626472e-09 -1.592102e-08 3.304767e-09 7.575850e-09
5.843019e-09 -1.114729e-08 -4.277895e-08 9.991057e-09 -6.201089e-08 2.302728e-08
4.381716e-09 -6.378921e-10 -5.987248e-10 4.618134e-09 1.756742e-10 -1.272035e-09
2.717122e-09 3.616948e-10 4.820473e-10 4.932999e-09 6.071016e-11 -9.770691e-10
1.171332e-09 2.771978e-08 -4.366922e-08 -3.254639e-09 -2.572213e-08 2.199219e-08
2.547604e-09 4.844972e-10 2.058132e-09 6.554449e-09 -5.337742e-10 -2.027462e-09
-4.041743e-09 4.788082e-09 2.302847e-09 6.596769e-09 -1.497449e-09 -2.320371e-09
-3.700846e-08 5.470040e-08 9.889048e-08 -2.660130e-08 -2.000316e-08 -1.222293e-07
-2.484073e-09 4.664313e-09 -5.629595e-10 4.270593e-09 2.805420e-10 -1.231750e-09
3.533663e-09 -8.140679e-10 -3.658931e-10 3.511510e-09 4.077186e-10 -8.636094e-10
-3.571074e-09 4.509007e-09 7.068177e-10 2.319296e-09 -4.513041e-10 -1.048166e-09
2.518271e-09 1.405700e-09 -7.596461e-10 4.837834e-09 3.402368e-10 -4.846552e-10
-9.160988e-10 1.042944e-09 1.968496e-10 2.433302e-09 2.710103e-10 -2.805578e-10
3.312794e-10 1.006089e-09 2.009095e-10 3.504282e-09 3.919687e-11 -1.998595e-10
-8.556562e-08 6.671854e-08 2.323747e-07 -1.903111e-08 1.346744e-07 -6.355497e-08
-9.738843e-08 1.572497e-07 1.526861e-08 -5.530664e-08 8.933223e-08 -1.047504e-07
1.451504e-09 5.670828e-10 -4.019820e-10 3.795066e-09 2.950687e-10 -8.285118e-10
-1.174305e-10 -8.457365e-09 2.380026e-09 -6.357887e-09 5.638766e-10 3.898799e-11
-3.319266e-07 1.514553e-07 8.908566e-07 5.312327e-08 -4.916765e-07 8.660381e-08
-5.239434e-09 2.955153e-09 1.015956e-09 -1.635366e-09 -2.500047e-10 -1.970165e-10
-2.579690e-09 -3.005924e-09 1.665613e-09 -4.149825e-09 7.520828e-11 -8.310419e-11
-6.432813e-09 1.635895e-09 3.446070e-10 -3.228173e-09 5.603492e-10 1.285005e-10
-4.532674e-09 2.642419e-09 9.857302e-10 -3.486683e-10 2.557559e-10 -5.926370e-10
-1.183837e-07 -4.644007e-08 2.764783e-07 -4.210998e-08 -9.489776e-08 -2.834595e-10
-5.099442e-09 -6.681948e-10 9.648433e-10 -4.059168e-09 5.736182e-10 -1.268965e-10
-1.682054e-07 -2.068181e-08 2.995858e-07 -8.968670e-09 4.889494e-08 -4.183359e-08
2.030422e-08 -2.948471e-08 -2.526918e-08 -1.485541e-08 4.277484e-08 1.328957e-08
-2.946910e-07 1.228657e-07 8.232857e-07 -1.199601e-07 3.056645e-07 -4.873907e-07
-9.318673e-09 2.370211e-09 -3.917733e-11 1.329755e-08 4.647009e-09 -3.402587e-09
9.519035e-09 9.196814e-09 -5.045109e-08 2.893382e-08 3.933243e-08 -2.280201e-08
-1.592420e-08 -3.622664e-08 -8.463740e-10 -5.337608e-08 3.655090e-08 1.954416e-08
8.760388e-09 -4.574683e-08 -5.383265e-09 -2.517000e-08 2.951513e-08 8.167717e-09
-1.481443e-07 7.502599e-08 4.422481e-07 1.292866e-07 1.949245e-07 1.155244e-07
-1.941126e-07 1.834366e-07 4.725573e-07 -5.083995e-08 -3.572224e-07 -7.797978e-08
-5.255413e-09 1.359587e-08 -8.954628e-09 4.802231e-09 1.597346e-09 -8.860252e-09
-4.885245e-08 -3.872017e-08 -1.624831e-08 9.803974e-08 7.654988e-08 -5.535551e-08
-1.975560e-07 3.132480e-07 3.561045e-07 -3.999763e-08 1.861925e-07 -1.345708e-07
1.046082e-09 -1.615695e-08 2.763861e-09 1.232386e-08 3.427372e-09 -3.319738e-10
6.428458e-09 -1.853596e-08 1.171260e-09 1.333152e-08 6.116320e-09 -1.511919e-09
-4.751355e-08 2.548171e-08 8.724143e-08 -5.337477e-09 4.395037e-08 -2.797631e-08
-2.710444e-10 -1.498091e-08 1.239518e-09 1.283455e-08 3.873640e-09 -1.752619e-09
-7.638386e-08 9.800977e-09 1.299375e-07 2.100770e-08 5.916505e-08 2.043571e-08
-3.955195e-08 7.373553e-08 1.991876e-08 -2.789692e-08 3.433235e-08 -1.011083e-07
8.366219e-10 -1.735459e-08 -1.820955e-09 1.790792e-08 8.781575e-09 -4.338615e-09
-6.954284e-08 1.274021e-08 7.247406e-08 -2.744932e-08 2.349892e-08 -4.628786e-08
-8.096989e-10 -8.968799e-09 7.394529e-10 1.026871e-08 2.178415e-09 -5.965253e-10
4.787625e-10 -1.024015e-08 -1.510061e-08 2.508848e-08 2.359203e-08 -1.456632e-08
-2.719082e-08 4.508769e-08 1.129824e-08 1.044369e-08 -1.839439e-08 2.689375e-09
2.697845e-08 -8.750944e-12 -7.960741e-08 -3.944053e-08 7.620100e-08 3.613416e-08
-8.968514e-08 7.021141e-08 -8.109167e-09 8.952619e-09 -1.099660e-08 2.523283e-08
8.555943e-09 -1.750204e-09 -5.351377e-10 -5.355262e-09 -3.776936e-10 -1.309515e-09
-1.594009e-09 -4.724034e-08 -3.072713e-08 6.303528e-08 -5.143019e-08 4.021629e-08
8.159545e-09 -2.558591e-08 -3.839183e-09 1.681066e-08 1.617338e-08 -3.698080e-09
5.135327e-09 2.119133e-08 -4.756805e-08 -2.203661e-09 -3.737328e-08 8.554550e-09
-2.307159e-09 -1.119096e-08 -2.201990e-08 2.701504e-08 2.599777e-08 -1.279362e-08
-1.542252e-08 5.511044e-09 -4.130653e-09 1.140650e-08 -1.129153e-08 1.735630e-08
-7.947704e-09 2.481272e-08 -8.090120e-10 -1.636786e-08 4.255063e-09 -3.503736e-09
1.350009e-09 1.539693e-08 -5.262035e-09 -1.776082e-08 -6.448119e-10 7.626223e-10
-9.009829e-09 1.233327e-08 -7.709034e-09 2.552657e-08 1.647683e-08 -1.855588e-08
9.770602e-09 -1.449407e-08 -8.151448e-09 1.235387e-08 1.033566e-08 -2.881910e-09
1.274915e-09 -1.591732e-08 -4.228324e-09 1.970894e-08 1.239158e-08 -4.524573e-09
-3.895076e-09 -7.389780e-09 9.830541e-10 2.147171e-08 9.678263e-09 -6.366254e-09
-9.714490e-09 3.472141e-09 -4.620756e-09 1.239475e-08 6.679952e-09 -4.559988e-09
-8.726991e-09 2.558102e-09 -4.844982e-09 1.280744e-08 6.171516e-09 -4.068168e-09
6.684464e-09 6.393267e-09 6.168606e-08 -1.822745e-08 2.082747e-08 -4.331563e-08
-1.667412e-07 5.802283e-07 4.456728e-07 -8.359836e-08 -6.081873e-07 -1.110853e-07
-4.543502e-09 -2.098641e-09 -8.014437e-09 1.634734e-08 9.047000e-09 -5.146310e-09
-5.435612e-08 2.716441e-08 -1.702045e-07 -2.102252e-07 2.207368e-07 1.339966e-07
1.595994e-09 7.196158e-08 -1.401021e-07 1.056161e-08 4.922505e-08 -1.803295e-08
-6.634137e-08 -1.183455e-08 2.725558e-07 -1.975390e-08 -4.893466e-08 -2.741846e-08
-7.486828e-08 2.865715e-09 -2.892974e-08 -7.752767e-08 6.144289e-08 7.738392e-08
-2.750310e-08 1.080224e-08 -2.924938e-08 -5.100356e-08 3.774905e-08 3.784281e-08
2.715274e-08 -1.926184e-09 3.637427e-08 1.112919e-09 -2.439999e-09 -5.511090e-08
1.238476e-08 -5.854685e-09 4.204905e-09 3.270535e-10 2.345949e-10 -5.427855e-09
1.343577e-08 -4.061099e-09 -1.814015e-09 -1.880479e-09 2.363352e-10 -2.638419e-09
1.155244e-08 -4.914620e-09 -6.841083e-11 1.331876e-09 2.930632e-10 -2.915851e-09
1.179086e-08 -5.207266e-09 2.013749e-09 2.826127e-09 -4.331944e-10 -4.175946e-09
4.698537e-09 -5.155942e-11 8.480283e-10 6.544874e-09 -4.515977e-10 -3.391772e-09
1.148955e-08 -4.957503e-09 4.356675e-10 -1.726060e-09 -1.684710e-10 -1.410194e-09
1.123023e-08 -6.385823e-09 7.729484e-09 -3.698580e-09 -3.306617e-10 -7.382284e-09
9.683889e-09 -3.793954e-09 1.777940e-10 -3.959503e-09 1.160413e-10 -2.005631e-09
-6.897178e-09 7.835332e-10 -4.059130e-09 1.238464e-08 5.620659e-09 -2.822901e-09
-9.479473e-09 6.508770e-09 -3.733348e-09 1.138061e-08 4.563382e-09 -3.606245e-09
-3.347002e-09 7.835335e-10 -6.578080e-09 1.445706e-08 6.612199e-09 -3.713258e-09
7.903671e-09 -9.813571e-10 1.212392e-09 -8.106027e-09 6.088556e-10 -2.208822e-09
-1.897992e-09 1.179929e-09 3.076694e-10 1.404205e-09 2.073179e-10 -1.418908e-10
-1.770780e-09 9.418448e-10 2.726188e-10 1.349346e-09 3.003362e-10 -1.338963e-10
-9.093881e-10 8.098664e-10 1.175142e-10 1.951672e-09 1.823774e-10 -1.906451e-10
-1.636954e-09 1.166470e-09 2.744327e-10 2.045294e-09 4.948430e-11 -2.501061e-10
-1.016375e-08 9.439687e-09 -4.200895e-09 9.257849e-09 8.330734e-09 -6.143996e-09
-5.136569e-09 -5.456408e-09 -2.219367e-09 1.687823e-08 7.074177e-09 -3.909351e-09
8.695303e-09 -6.848794e-09 -3.553998e-08 8.583066e-09 -3.654857e-08 1.420866e-08
1.205358e-08 1.765392e-08 -5.863779e-08 2.564107e-09 -7.911953e-08 4.493962e-08
-1.192117e-08 1.444428e-08 -2.224288e-08 1.366794e-08 -1.624640e-08 2.266855e-08
-1.617230e-08 2.947437e-08 -2.932899e-08 1.488401e-08 -3.529356e-08 4.014034e-08
1.369781e-08 -6.254751e-09 -3.747127e-08 1.172536e-08 -3.756691e-08 1.535831e-08
-2.584364e-08 -1.220596e-08 -1.499391e-08 4.265689e-08 -3.300391e-08 3.564454e-08
1.171331e-09 -6.788273e-09 -3.076093e-08 5.431865e-09 -2.969570e-08 1.758634e-08
-5.944704e-09 3.922954e-09 -1.086584e-09 -1.361927e-09 -1.892201e-09 1.519153e-09
-5.141278e-09 1.258307e-09 -5.600813e-10 2.713134e-10 -2.073580e-09 9.926370e-10
-5.418784e-09 3.952060e-09 -1.439624e-09 -5.319018e-10 -1.713668e-09 1.719711e-09
-5.525679e-09 9.451089e-10 6.222947e-10 -8.239833e-13 -1.659659e-09 5.285260e-10
-8.449988e-09 2.385425e-09 -1.175067e-09 1.228631e-08 -8.765483e-09 6.743777e-09
-3.387650e-09 -1.639737e-09 1.730825e-09 -1.763456e-09 -4.409206e-11 -3.224494e-10
1.194890e-08 -3.969804e-09 -8.872192e-10 -2.420313e-09 -9.069312e-11 -1.774597e-09
-1.309949e-08 9.938584e-10 -5.829266e-09 1.074595e-08 -1.084066e-08 1.205644e-08
-6.574229e-09 -1.486617e-08 -1.753898e-09 2.057662e-08 -1.630602e-08 1.406119e-08
-5.230765e-09 6.026730e-10 3.243001e-10 -6.711748e-09 1.344723e-09 6.184649e-10
-3.571122e-09 -8.151639e-10 1.345372e-09 -1.145385e-09 -3.276290e-11 -5.020400e-10
-4.771239e-09 1.022761e-09 8.446024e-10 6.713348e-10 -1.173456e-09 2.167749e-10
-5.619802e-09 4.193359e-09 -1.091780e-09 -1.256314e-09 -1.769192e-09 1.681197e-09
-3.713141e-09 1.263173e-09 8.461494e-10 5.915370e-10 1.665745e-10 -2.114431e-10
-6.921240e-09 4.158116e-09 -4.400027e-10 6.708900e-10 -2.695139e-09 2.164202e-09
-4.541544e-09 1.921419e-09 2.341061e-11 -8.010511e-10 -1.280806e-09 9.638334e-11
-6.536527e-09 2.391399e-09 -1.180276e-09 3.991980e-10 -2.136144e-09 2.099768e-09
-8.545677e-09 4.364104e-09 -7.456695e-10 3.700271e-10 -2.610471e-09 2.878799e-09
-3.709489e-09 1.277636e-09 7.460652e-10 5.267378e-10 5.529754e-11 -1.894813e-10
-5.159073e-09 3.810138e-09 -2.354443e-10 -1.354711e-09 -1.698080e-09 1.170656e-09
1.702092e-09 -4.403864e-10 -2.844120e-10 2.838142e-09 1.455084e-10 -3.231339e-10
2.752540e-09 -3.451914e-10 -2.444170e-10 3.778383e-09 5.838052e-11 -6.115127e-10
1.924200e-09 -5.367209e-10 -3.533591e-10 2.644024e-09 3.225856e-10 2.084533e-11
-3.572787e-09 1.414031e-09 7.053684e-10 6.027299e-10 1.694242e-10 -1.902641e-10
4.220269e-09 -2.171300e-09 -4.450025e-10 2.247216e-09 3.601591e-11 -2.358058e-10
3.823022e-09 -1.396851e-09 -4.512153e-10 2.966994e-09 1.947221e-10 -9.168644e-11
9.024338e-09 -2.331058e-08 3.205598e-09 -1.093381e-09 1.951586e-09 -2.248148e-10
-1.367603e-09 9.330661e-10 1.796803e-10 1.377960e-09 3.535394e-11 -2.109390e-10
-8.057196e-09 4.045836e-09 -9.804490e-10 5.751355e-09 -5.279152e-09 4.328843e-09
-5.126762e-09 -9.505207e-09 -1.667496e-09 1.247465e-08 -9.899670e-09 6.188876e-09
-6.178027e-09 7.417515e-10 -4.472225e-09 6.876855e-09 -7.918817e-09 6.626754e-09
-5.454502e-09 2.858185e-10 -2.345873e-09 5.371631e-09 -4.041565e-09 2.955369e-09
-1.268262e-09 9.418448e-10 7.730661e-11 1.592275e-09 2.192055e-10 -2.169225e-10
8.574949e-10 -9.597240e-09 -3.666577e-09 8.358580e-09 -6.677775e-09 3.027481e-09
-5.308199e-09 4.002751e-09 -4.701036e-09 4.108716e-09 -4.171134e-09 3.816292e-09
-3.648944e-09 2.378098e-12 1.134275e-09 -9.595791e-10 2.048877e-10 -3.722800e-10
-3.152198e-09 1.235237e-09 6.607035e-10 6.413550e-10 1.191717e-10 -4.063536e-10
-3.539420e-09 3.486544e-10 9.854662e-10 -2.570500e-11 1.811360e-10 -3.495665e-10
6.752046e-09 -2.231087e-09 1.541520e-09 5.326300e-09 1.837368e-10 -1.719543e-09
-3.156065e-09 1.279610e-09 6.414109e-10 5.948406e-10 3.044867e-10 -3.265053e-10
-3.495852e-09 1.619187e-09 5.501219e-10 5.197291e-10 1.669013e-10 -1.456597e-10
-3.881294e-09 -3.036060e-10 1.248068e-09 -1.537400e-09 2.210991e-10 -2.818591e-10
-3.940941e-09 8.364966e-10 9.836105e-10 -4.268180e-10 1.997896e-10 -5.607760e-10
7.058444e-09 -3.346075e-09 -1.051389e-09 -2.566461e-09 -8.036583e-11 2.169402e-10
8.599008e-09 -3.652044e-09 -5.164049e-10 -1.315827e-09 -9.646368e-11 -4.409895e-10
-2.841888e-09 1.465006e-09 4.320899e-10 7.508771e-10 8.673195e-11 -1.447512e-10
2.015885e-08 3.330576e-09 2.413718e-09 1.541189e-08 -4.933994e-09 -1.641601e-08
7.984848e-09 -4.178471e-09 -3.398513e-10 -8.772238e-11 4.978529e-11 -4.008054e-10
1.447236e-08 4.414190e-10 -4.611849e-10 -1.073083e-08 3.090928e-09 -5.961759e-09
7.385087e-09 -3.419665e-09 -7.175838e-10 7.016822e-10 1.064086e-10 -1.557762e-10
2.158520e-09 -1.517218e-09 9.490703e-09 8.483889e-09 -2.104756e-09 -1.055738e-08
6.452421e-09 -1.958216e-09 3.239847e-09 7.160145e-09 -7.524382e-10 -3.770116e-09
6.998887e-09 -3.470551e-09 -8.315055e-10 -1.121741e-09 5.319567e-11 3.671957e-10
4.537582e-09 -1.507809e-09 9.992350e-09 8.002498e-09 -2.599853e-09 -9.069989e-09
2.056702e-08 -3.251730e-09 4.520204e-08 -6.714180e-09 3.867627e-09 -4.409885e-08
7.103760e-09 -3.652489e-09 -6.922192e-10 -1.289117e-09 -1.054305e-10 7.436274e-11
9.094270e-09 -4.458272e-09 1.131797e-10 -2.863265e-10 6.402375e-11 -1.216248e-09
2.967721e-08 7.040212e-09 7.519786e-09 2.189077e-08 -9.448048e-09 -2.859516e-08
1.768291e-08 -4.856600e-09 3.115203e-09 -6.569201e-09 2.195860e-09 -9.518881e-09
7.585793e-09 -3.564637e-09 -8.564247e-10 -1.302150e-09 1.345823e-11 -2.436662e-10
-3.745938e-09 3.256445e-09 -7.508061e-11 -2.503811e-09 -8.972183e-10 5.571032e-10
1.458206e-08 1.342019e-09 1.133614e-09 1.090092e-08 -2.528410e-09 -8.551491e-09
-6.732454e-09 2.041791e-09 -2.114213e-09 2.655429e-09 -4.231759e-09 3.785486e-09
9.737025e-09 -4.054818e-09 -6.129182e-10 1.229258e-10 1.085087e-10 -6.394658e-10
-5.107476e-09 1.082201e-10 -1.811284e-09 2.190188e-09 -3.405470e-09 1.501183e-09
-4.687792e-09 2.868437e-09 -5.898606e-10 -1.991126e-09 -1.138749e-09 7.230696e-10
-2.503944e-09 -5.916059e-09 1.887596e-09 -5.730944e-09 8.119034e-10 -2.700056e-10
6.567527e-09 -2.023902e-08 1.953878e-09 -7.267569e-09 3.313572e-09 5.500707e-10
-5.591375e-09 1.997591e-09 -2.488586e-09 -9.217268e-11 -2.905844e-09 1.692133e-09
-4.918551e-09 1.857686e-09 7.184564e-11 -5.845320e-10 -1.365891e-09 1.142759e-10
1.680184e-08 6.163024e-09 1.922123e-09 -1.939086e-08 -3.687016e-09 1.586485e-08
-7.172820e-09 2.159716e-08 -7.061501e-10 -1.459744e-08 -7.548115e-09 -1.541640e-09
3.183658e-09 -1.796343e-08 1.287952e-09 -1.152054e-08 4.059693e-09 8.141037e-10
6.653326e-09 -2.003431e-08 7.354370e-10 -5.890594e-09 2.758565e-09 3.917732e-11
3.965667e-08 6.377499e-09 2.476341e-08 -3.785331e-08 -2.240015e-08 4.625766e-08
3.411522e-08 9.193421e-09 -2.767906e-09 -2.045713e-08 -9.831171e-09 1.743716e-08
6.820837e-09 -2.112581e-08 3.620688e-10 -7.808658e-09 3.534012e-09 5.371692e-10
-2.338272e-09 -9.041041e-09 9.413390e-10 1.494998e-08 4.634195e-09 -1.861516e-09
1.364019e-08 -6.775404e-08 -1.840417e-08 8.123119e-08 9.059258e-08 -3.983132e-08
8.247105e-08 -2.670188e-07 -1.185728e-07 6.425492e-08 2.788013e-07 -6.476210e-08
1.721610e-08 1.613534e-09 4.186975e-09 -2.727918e-08 -7.331664e-09 1.809297e-08
1.566115e-08 1.544352e-09 1.275835e-08 -2.308812e-08 -5.877187e-09 1.867735e-08
1.070117e-09 3.283112e-08 -1.952062e-09 -2.771987e-08 -9.983739e-09 2.468673e-09
-2.008763e-08 9.184578e-09 -2.648691e-09 1.799556e-08 7.474882e-09 -1.260641e-08
-4.905629e-09 -2.283170e-08 -1.313504e-08 5.518099e-08 5.362360e-08 -3.407292e-08
4.636276e-09 3.316907e-08 -1.123092e-08 -2.632068e-08 -1.117374e-08 3.018399e-09
-1.520366e-08 3.245773e-08 -2.483210e-09 -1.978312e-08 -9.166067e-09 -1.056177e-09
6.545450e-09 4.500068e-08 2.673733e-08 -4.564157e-08 -4.933102e-08 2.754696e-08
-5.825515e-09 7.569399e-09 -2.919899e-09 -4.151082e-09 -1.665778e-09 2.988573e-09
-4.316607e-08 1.688592e-08 -1.203385e-08 7.674256e-08 3.296117e-08 -5.832029e-08
-1.001989e-08 5.005708e-08 -4.556117e-08 1.217468e-08 2.413559e-08 -2.890097e-08
-1.067797e-08 5.673076e-09 -5.869936e-09 2.497914e-09 -6.567324e-09 8.387826e-09
-5.512391e-09 9.185358e-09 -7.067093e-09 -2.802363e-09 -5.922222e-09 7.929284e-09
-1.119646e-07 6.975260e-08 -2.511057e-08 7.354533e-08 4.497215e-08 -8.342926e-08
-9.662624e-09 1.931185e-08 -1.394265e-08 2.815388e-09 -7.073200e-09 1.303047e-08
-6.044948e-09 9.465172e-09 -4.174268e-09 -3.658820e-09 -2.628369e-09 3.516642e-09
-8.407679e-09 3.374338e-09 -4.334666e-10 1.813488e-09 -3.398636e-09 3.527934e-09
-5.322669e-09 3.809176e-09 -4.362695e-09 4.061439e-09 -6.720523e-09 4.739568e-09
-2.566117e-09 1.446536e-09 2.818756e-10 1.364791e-09 4.591703e-10 -2.594700e-10
8.271808e-09 -2.326630e-08 1.290873e-09 -1.431532e-09 2.292092e-09 1.230111e-10
-3.761826e-09 2.644724e-10 8.601138e-10 -8.758069e-10 7.023489e-10 -5.774610e-10
-3.700302e-09 2.036005e-09 8.860321e-10 2.294228e-10 4.768360e-10 -7.600026e-10
-2.988255e-09 2.404157e-09 5.971932e-10 2.015801e-09 3.796703e-10 -4.022439e-10
-2.710197e-09 1.846695e-09 5.167602e-10 1.849064e-09 3.022362e-10 -3.831164e-10
6.444903e-09 -1.898653e-08 -1.014441e-09 -1.138719e-08 6.332959e-09 2.460379e-09
-3.611209e-09 1.201949e-09 8.645906e-10 -1.298385e-11 5.207039e-10 -4.333223e-10
1.287250e-07 3.295635e-08 1.454456e-07 -1.140911e-09 -1.744264e-07 2.393292e-07
-2.557121e-08 7.163822e-08 -8.038024e-08 -7.655125e-09 4.821228e-09 -2.523966e-08
3.793948e-08 -1.879869e-08 2.504809e-08 -3.146372e-09 -8.027971e-10 2.733493e-08
4.311788e-10 -9.729519e-09 1.522724e-09 -6.919661e-09 1.116094e-09 -2.521788e-10
3.121331e-09 -1.439043e-08 1.696445e-09 -7.341350e-09 1.391981e-09 -1.529512e-10
5.537831e-09 -1.868453e-08 2.656003e-09 -6.482821e-09 2.198687e-09 3.600575e-10
1.472541e-07 4.336670e-08 2.277549e-07 1.328835e-07 8.443513e-08 3.932035e-07
-3.317373e-07 -8.216926e-09 1.151793e-06 6.437906e-08 1.387090e-07 9.414770e-08
5.537125e-09 -1.865249e-08 1.817084e-09 -6.523023e-09 2.374592e-09 -1.644044e-10
-2.041267e-08 4.069562e-07 5.017507e-08 -7.272818e-08 -2.315188e-07 3.706282e-08
1.442153e-08 2.996529e-08 1.924238e-07 -7.528618e-09 -3.043234e-08 -1.436456e-07
7.477095e-08 -1.800216e-07 -1.168876e-07 -7.476596e-08 2.153945e-07 3.279501e-08
1.104345e-08 -2.664520e-09 -1.221796e-09 -5.491107e-09 1.412403e-10 -8.882128e-10
9.277856e-09 -2.272093e-09 1.181064e-10 -6.071947e-09 9.960738e-10 -2.807943e-09
1.095890e-08 -1.854294e-08 -1.184890e-08 -1.199839e-08 -1.620707e-08 -4.804640e-09
-8.144445e-08 5.555468e-08 2.496462e-07 9.074554e-09 -1.436725e-07 -1.497359e-07
-6.001443e-09 6.684880e-09 3.345457e-11 1.059504e-09 2.708242e-10 -1.072030e-09
9.773129e-09 -2.760993e-08 -2.522267e-09 -1.618398e-08 -2.085369e-08 -7.921260e-09
1.024456e-08 -2.608947e-08 -2.781343e-09 -1.710512e-08 -2.178315e-08 -7.090457e-09
8.723894e-09 -2.627297e-09 -9.963514e-10 -3.634066e-09 -4.965551e-10 -2.756581e-10
-5.815914e-09 3.531803e-09 6.429053e-10 1.337205e-10 2.734419e-10 5.335532e-11
-8.248591e-09 3.896785e-09 2.411991e-10 -3.229488e-09 4.858819e-10 4.861371e-10
6.886124e-09 8.858195e-10 -1.709168e-08 -9.798022e-09 -1.802098e-08 -5.826485e-09
-4.593521e-09 4.902383e-09 5.145508e-10 6.126942e-10 1.353679e-10 -5.377830e-10
-5.856944e-09 4.168562e-09 8.482202e-10 8.820334e-10 -1.896818e-10 -8.388387e-10
1.620479e-08 -2.605333e-08 -1.685027e-08 -1.020827e-08 -2.922811e-08 -5.313313e-09
1.734356e-08 -1.329617e-07 -1.222119e-08 6.472658e-08 1.007845e-07 -2.942342e-08
1.603792e-08 -5.659090e-09 -2.564988e-08 -9.288474e-09 -2.583325e-08 -3.910446e-09
8.208726e-09 -8.427056e-09 -2.772947e-08 -1.166345e-08 -2.843244e-08 -7.698834e-09
1.631450e-08 -4.168828e-08 -9.097425e-09 -7.075199e-09 2.245135e-08 2.320974e-09
-5.387676e-09 -3.058596e-08 -5.176082e-09 -3.839835e-08 2.565904e-08 1.599029e-08
-1.197339e-08 2.225267e-08 1.823951e-08 -2.337737e-08 -1.391301e-08 8.429429e-09
-3.244674e-08 -4.382993e-08 4.947602e-07 -2.373451e-08 -8.467479e-08 2.889126e-07
-5.047691e-08 1.117638e-07 3.707427e-08 -2.262160e-08 -8.926044e-08 -1.119666e-08
-2.946184e-08 -1.651669e-08 9.172698e-08 -5.286614e-08 -6.175758e-08 5.753310e-08
-2.631086e-08 -2.482182e-08 1.503510e-07 3.037064e-08 1.040741e-08 1.935649e-07
1.362846e-08 -1.603810e-08 -1.439235e-08 -1.066758e-08 1.651723e-08 4.126194e-09
-6.358116e-08 6.039300e-08 -5.256234e-08 1.625687e-08 9.811855e-09 -5.435627e-08
-5.947641e-09 -8.818570e-09 1.143942e-08 -3.612204e-08 1.815313e-08 7.724713e-09
2.049568e-08 -1.473730e-08 -2.977122e-08 -7.641850e-09 2.838294e-08 4.936484e-09
-8.416949e-08 9.849419e-08 -6.866689e-08 3.045509e-08 6.039416e-09 -1.019358e-07
-2.909147e-08 3.904819e-08 -4.485330e-08 4.130851e-09 2.356612e-08 -3.788072e-08
3.181805e-09 3.039579e-09 -3.044804e-08 -1.746784e-08 -2.953793e-08 -1.438396e-08
1.257110e-08 -1.187132e-08 -3.225923e-08 -1.637937e-08 -3.367993e-08 -8.760874e-09
1.088017e-09 -5.479911e-09 -1.297407e-08 -1.727087e-08 -2.114673e-08 -8.612204e-09
6.825539e-09 -3.289365e-09 -8.384486e-10 3.192951e-10 4.322753e-11 3.727341e-11
1.023543e-08 -1.322094e-08 -1.550174e-08 -1.554961e-08 -2.697842e-08 -7.476447e-09
3.514194e-09 -1.239884e-09 -2.721854e-10 3.225150e-09 2.679257e-11 -3.464076e-10
7.308230e-09 -3.362037e-09 -6.968879e-10 -1.561969e-09 -5.041545e-11 -5.287769e-12
1.549125e-09 -1.959131e-10 -3.032685e-12 3.042436e-09 8.643397e-11 -2.294860e-10
8.680767e-09 1.855611e-09 -5.197550e-08 -1.548708e-08 -5.175382e-08 -8.913343e-09
1.715198e-08 -3.345660e-09 3.344349e-09 7.078902e-09 -9.770489e-10 -8.742696e-09
1.248672e-08 5.104378e-09 -3.523077e-08 1.116845e-11 -3.195109e-08 6.445142e-09
8.265755e-09 2.634831e-08 -6.655703e-08 -5.345383e-09 -5.159933e-08 4.589240e-09
1.104216e-08 -4.092375e-09 1.856596e-09 3.177569e-09 -2.136735e-10 -3.099807e-09
-4.181671e-09 -1.547508e-08 8.917389e-10 2.048457e-08 -1.585061e-08 1.144931e-08
3.652727e-08 -9.587122e-08 -5.134534e-08 4.113931e-08 -9.863825e-08 2.800289e-08
-3.946359e-08 5.182978e-08 -4.364690e-08 -2.196819e-08 -6.612693e-09 -7.806443e-10
1.101324e-08 -4.108144e-09 1.639284e-10 3.113923e-09 -9.719635e-12 -2.774629e-09
-6.812301e-09 7.236808e-08 -7.438631e-08 -2.213339e-08 -2.398382e-08 7.782376e-09
3.764091e-08 -3.055017e-08 -4.835520e-08 2.841083e-08 -8.412870e-08 2.461148e-08
1.517906e-08 -5.302358e-09 -1.446821e-09 4.989649e-10 2.759434e-10 -5.301251e-09
-1.609137e-09 1.087717e-09 5.700853e-10 1.549976e-09 1.578491e-10 -7.538328e-10
-1.776456e-09 9.436798e-10 3.052565e-10 1.733086e-09 1.205827e-10 -2.312027e-10
-1.050680e-09 7.962260e-10 1.243650e-11 1.896821e-09 1.873523e-10 -1.816645e-10
-2.392830e-09 1.265821e-09 3.760245e-10 1.412883e-09 2.016299e-10 -4.322054e-11
-2.057891e-09 1.098532e-09 4.540492e-10 1.577937e-09 2.015355e-10 -2.535769e-10
-4.413795e-09 1.677700e-09 6.213061e-10 -1.743025e-09 -4.849636e-10 1.149736e-10
-2.760024e-09 2.546312e-09 -9.975420e-11 -3.199795e-09 -4.018204e-10 2.501742e-11
-4.159121e-09 3.331259e-09 -6.762073e-10 -2.753011e-09 -1.098100e-09 4.007408e-10
-2.664720e-09 1.269152e-09 4.763749e-10 8.778476e-10 1.472564e-10 -1.010644e-10
-4.413802e-09 1.748367e-09 7.356331e-10 -1.350576e-09 -5.787976e-10 -2.565284e-10
-2.533337e-09 1.198530e-09 5.634235e-10 1.022218e-09 1.765036e-10 -1.829187e-10
-3.027704e-09 1.485840e-09 6.723120e-10 1.420062e-09 5.157563e-11 -1.634685e-10
-2.706630e-09 1.505374e-09 5.068175e-10 1.245122e-09 1.098537e-10 -3.521783e-11
2.217588e-08 -1.366921e-08 -4.737805e-08 1.565581e-08 -7.810618e-08 2.548376e-08
9.773518e-09 -3.398255e-09 -1.206576e-10 3.213027e-09 2.048215e-11 -2.054668e-09
1.554694e-08 2.377300e-09 -3.865494e-08 -1.849136e-09 -3.360674e-08 2.101510e-09
-2.528859e-08 6.807742e-08 -3.476999e-08 2.580974e-08 2.056697e-08 -8.020871e-09
-1.938235e-09 1.134525e-09 2.975258e-10 1.361579e-09 1.243476e-10 -8.965351e-11
-3.667718e-08 1.194012e-08 -3.779172e-09 6.688184e-08 -1.910937e-08 4.975380e-08
2.232195e-09 3.024351e-09 -1.533852e-09 -8.413686e-09 9.392105e-10 -3.560011e-10
1.100382e-08 -8.403859e-10 1.150212e-08 -1.284813e-08 4.975043e-09 -1.052315e-08
-3.420952e-08 4.175586e-08 -2.700026e-08 -9.174595e-09 4.908238e-09 3.299983e-08
-4.455194e-09 1.149066e-08 -2.107334e-09 -1.242207e-08 1.767868e-09 5.921765e-09
1.601919e-08 -2.711513e-08 -1.982643e-08 5.477035e-09 -3.126866e-08 5.931404e-09
-5.424608e-09 1.415461e-08 1.804895e-08 1.514845e-08 -1.163381e-08 -1.193984e-08
5.772049e-09 -9.680524e-09 -2.133117e-08 1.639396e-08 -3.811749e-08 1.676147e-08
3.569055e-08 1.209690e-09 5.704558e-08 1.333175e-08 -1.793693e-08 -7.691120e-08
6.055266e-09 -2.850385e-08 -5.189599e-09 1.474468e-08 -1.891965e-08 7.365623e-09
1.744180e-08 -3.958820e-09 3.559959e-08 -2.021248e-09 1.154407e-09 -3.085143e-08
-3.940515e-08 6.047978e-08 7.368240e-09 1.914587e-09 -1.918620e-08 1.437038e-08
-2.402674e-09 1.932378e-09 -1.886047e-12 -3.142941e-09 -8.495824e-10 2.283418e-10
-3.720627e-09 3.429320e-09 -9.918626e-10 -3.857295e-09 -7.835197e-10 4.314524e-10
1.458998e-09 -2.325953e-10 -4.092711e-10 -2.319847e-09 -9.302736e-11 4.295053e-11
2.055987e-08 -1.318760e-08 -5.258519e-08 -6.376239e-09 4.634239e-08 4.576785e-09
-8.891394e-08 9.844018e-08 9.276339e-08 3.135440e-08 -1.276703e-08 -5.078749e-08
-1.571030e-07 2.452958e-07 -3.635213e-07 1.274644e-07 1.035055e-07 -2.011556e-07
-1.252796e-07 1.595723e-07 -4.237653e-08 -3.059716e-10 -2.371777e-09 -1.411629e-07
-1.352309e-08 1.637144e-08 -1.122637e-07 1.248122e-07 1.407991e-07 -1.236750e-07
-2.153655e-09 -5.513232e-09 -1.439568e-08 -1.694118e-08 -2.091553e-08 -1.096090e-08
1.955358e-08 -6.628005e-08 -6.821635e-09 -1.646530e-09 -4.038419e-08 1.914446e-09
5.915695e-09 -2.075463e-09 -7.441634e-10 -3.289223e-09 -3.328577e-10 -2.451773e-10
-3.509569e-09 2.159277e-09 2.653935e-10 -1.919642e-09 -2.651670e-10 -1.178606e-10
-9.329893e-08 1.433103e-08 1.514724e-07 -1.263673e-08 -7.231281e-08 3.676097e-08
-1.886491e-12 1.200847e-09 -2.435518e-10 -3.545425e-09 -2.246490e-10 7.273226e-11
-1.468413e-09 2.703969e-08 -8.677087e-08 2.194389e-08 9.278122e-08 -6.240088e-08
5.168950e-10 5.864873e-10 -3.202063e-10 -2.781230e-09 -2.391423e-10 -6.079715e-11
-4.669569e-09 2.431191e-09 3.823173e-10 -1.572152e-09 -7.149325e-10 3.645835e-10
-2.081737e-09 1.904053e-09 9.696377e-11 -1.637709e-09 -3.296513e-10 -8.343815e-11
1.647642e-10 5.335608e-10 -2.934195e-10 -2.644622e-09 -2.004801e-10 -1.657425e-10
-3.991983e-09 2.262679e-09 3.330800e-10 -1.582388e-09 -8.953778e-10 4.112708e-11
-2.005474e-09 1.719476e-09 1.014295e-10 -2.178948e-09 -3.548331e-10 -4.263667e-11
-2.398768e-09 1.963131e-09 -3.481042e-10 -3.160692e-09 -1.118016e-09 5.138787e-10
-3.252687e-09 2.348555e-09 1.566369e-11 -3.131811e-09 -4.770691e-10 2.252503e-10
-3.581849e-09 2.357699e-09 1.567169e-11 -2.016804e-09 -5.805200e-10 -4.000844e-11
-3.270318e-09 2.376043e-09 -2.102718e-10 -3.119633e-09 -6.458090e-10 -1.995071e-11
-4.088024e-09 2.026235e-09 5.514162e-10 -1.699439e-09 -6.134720e-10 -3.584529e-10
-2.851060e-09 2.003892e-09 1.650871e-10 -1.682606e-09 -1.330738e-10 -8.601164e-11
-3.065226e-09 2.253222e-09 1.510356e-10 -2.384467e-09 -4.344960e-10 -1.392659e-10
2.922662e-09 -1.556008e-08 1.381316e-09 7.632079e-09 1.487081e-09 -2.912512e-10
4.189637e-09 -1.594232e-08 2.755337e-09 -5.953779e-09 8.188906e-10 -3.579991e-10
3.667434e-09 -1.450774e-09 -6.053635e-10 2.694908e-09 1.910418e-10 -2.301045e-10
3.478879e-09 -1.302405e-09 -4.207490e-10 2.299837e-09 9.926138e-11 -1.525646e-11
-1.723478e-09 -7.282407e-09 -6.445469e-09 1.434681e-08 7.414727e-09 -3.114707e-09
-1.017295e-09 -1.192264e-08 2.290783e-09 7.180315e-09 8.040286e-10 -5.297399e-10
4.257688e-09 -2.005526e-09 -5.015144e-10 2.246697e-09 1.655231e-11 -1.715307e-10
8.163493e-09 -2.675439e-08 3.111572e-09 5.193432e-09 3.128668e-09 -3.573808e-11
-9.979361e-09 9.253241e-09 -7.655890e-09 1.400787e-08 7.407224e-09 -7.264445e-09
5.851530e-09 -2.989553e-09 -5.319283e-10 2.630607e-09 1.209918e-10 -5.443140e-10
2.438043e-09 -1.494209e-08 1.486894e-09 1.025336e-08 2.633639e-09 -9.895384e-10
7.331271e-09 -2.125103e-08 3.010291e-09 5.797647e-09 1.796611e-09 -5.107081e-10
4.616117e-09 -1.748328e-08 1.433752e-09 6.217605e-09 1.796207e-09 3.641981e-12
1.020596e-08 -4.261759e-08 -4.030949e-09 1.620553e-08 -2.660012e-08 6.553397e-09
5.208126e-09 -2.430835e-08 -2.368316e-09 1.552965e-08 -1.378330e-08 5.769232e-09
1.280921e-08 -6.357186e-09 -2.269396e-08 4.567787e-09 -2.164761e-08 6.719697e-09
4.570506e-09 -1.514124e-09 -3.243548e-10 3.632239e-09 1.184790e-10 -4.281421e-10
2.519126e-09 -1.260051e-08 -8.286779e-09 1.023271e-08 -1.033261e-08 5.836236e-09
5.088718e-08 9.888553e-09 1.229908e-09 -1.293572e-08 -1.281264e-08 4.065070e-08
-1.588917e-08 3.052968e-08 -5.884915e-09 -1.803503e-08 -4.573292e-10 -3.266996e-09
3.709066e-08 -4.366248e-09 4.875561e-08 -2.867293e-08 -1.634037e-08 5.052214e-08
1.276574e-09 -1.576005e-08 -4.027229e-10 1.252231e-08 -9.788493e-09 5.692843e-09
-1.194024e-08 2.458172e-08 4.379570e-09 -1.771401e-08 -1.069312e-08 -1.455012e-09
8.728511e-09 -8.501105e-09 4.810753e-08 -4.003690e-08 -1.801802e-08 4.560546e-08
2.827289e-09 -8.209763e-09 -4.802041e-09 6.663930e-09 -6.413304e-09 2.360040e-09
3.123619e-09 -9.906973e-10 -6.255070e-10 -3.681001e-09 -4.637957e-10 7.959855e-12
3.697348e-09 -1.943447e-08 1.127156e-09 1.056066e-08 -9.059637e-09 3.672170e-09
1.197060e-09 -9.845140e-09 2.206808e-09 -4.909665e-09 3.182883e-10 -2.825321e-12
1.021926e-09 -6.941153e-09 -1.110668e-08 -1.680332e-08 -1.795967e-08 -8.773803e-09
1.048374e-08 -2.622927e-08 -3.316964e-09 -1.694242e-08 -3.037503e-08 -9.288655e-09
1.040187e-08 -3.585202e-08 -3.158298e-09 -1.832203e-08 -2.463414e-08 -7.821050e-09
1.641371e-09 -2.010333e-08 -9.702306e-10 -1.973637e-08 -1.729666e-08 -7.538089e-09
-3.335467e-09 -1.396843e-09 -1.954712e-08 -2.272227e-08 1.781407e-08 1.275490e-08
2.332844e-09 -1.446300e-08 2.096082e-09 -8.351183e-09 1.856253e-09 -2.131805e-10
-6.281352e-10 -2.125441e-08 -1.021931e-08 -2.953733e-08 -3.088376e-08 -1.422251e-08
-6.558054e-10 -9.664474e-09 1.836757e-09 -7.551870e-09 1.365541e-09 -3.797254e-10
2.185463e-09 -2.012900e-08 -7.251456e-10 -1.716843e-08 -1.525095e-08 -8.384203e-09
-3.457869e-09 -2.774660e-09 -3.780127e-09 -9.250551e-09 -6.997085e-09 -2.399467e-09
4.127029e-09 -1.812565e-08 -1.914780e-09 -1.828640e-08 1.197954e-08 5.670058e-09
5.986269e-09 -1.973102e-09 3.000791e-09 6.693831e-09 -8.868981e-10 -4.268059e-09
1.014135e-08 -2.561207e-09 5.472254e-10 5.427628e-09 -4.357884e-10 -3.512252e-09
1.136639e-08 -4.101967e-09 1.817124e-09 3.111589e-09 3.131950e-11 -3.614148e-09
-1.494888e-08 1.413673e-08 -3.267126e-09 1.171897e-08 3.437739e-09 -9.567877e-09
7.743497e-09 3.207417e-09 -2.645877e-08 -1.736088e-08 -3.748488e-08 -1.614618e-08
-2.537482e-08 2.519544e-08 8.028289e-09 1.635714e-08 7.184806e-09 -2.218239e-08
7.980069e-09 1.448216e-08 -4.343590e-09 1.842650e-08 2.882088e-09 -2.023808e-09
4.251316e-09 2.493947e-08 -2.667864e-09 1.608085e-08 1.140637e-08 -1.043384e-09
-6.591774e-09 1.588600e-08 -1.035213e-08 -1.761275e-09 -9.068039e-09 -9.045835e-09
-8.030154e-09 1.898150e-08 -6.117406e-09 -1.180511e-09 4.430379e-09 -6.939571e-09
1.958913e-10 1.396802e-08 -3.690030e-09 1.953745e-08 2.863366e-09 -1.502853e-09
2.220134e-09 -9.280984e-10 -2.083256e-08 -1.156300e-08 -2.123110e-08 -8.894049e-09
-2.047633e-09 -1.911388e-09 -2.800065e-08 -1.133359e-08 -2.851816e-08 -1.313737e-08
-1.147094e-08 3.021719e-08 -2.719520e-09 -4.829877e-09 3.791984e-09 -5.513546e-09
-1.923876e-09 1.951960e-09 8.589174e-11 -1.813110e-09 -6.903056e-11 2.107203e-12
-1.165561e-08 2.549788e-08 -2.538342e-08 7.440059e-09 1.438450e-08 -1.339231e-08
-1.449825e-08 1.022588e-08 -1.716166e-08 1.413683e-08 1.436685e-08 -1.426320e-08
5.244151e-09 -1.073645e-08 -1.215837e-08 7.729212e-09 -1.084340e-08 4.923349e-09
-1.795891e-09 1.744469e-09 -8.698109e-11 -3.583292e-09 -3.039760e-10 -8.562331e-12
1.327424e-09 -9.828510e-09 -3.936724e-10 1.337445e-08 -1.008864e-08 5.628766e-09
-3.161163e-09 2.043249e-09 2.150886e-10 -2.141321e-09 -5.362579e-10 -1.353673e-11
-4.240255e-09 -2.028511e-09 -2.285105e-11 1.893571e-09 -2.429197e-09 6.208481e-10
-1.151319e-10 7.185301e-10 -2.683151e-10 -2.206288e-09 -1.557743e-10 2.539162e-10
-2.789275e-10 1.077185e-09 -4.532932e-10 -3.943273e-09 -5.850255e-10 7.327404e-11
-2.019151e-09 -9.887535e-09 -7.408953e-10 1.292944e-08 -1.023921e-08 4.475934e-09
6.944374e-09 -1.653898e-08 -3.911213e-09 1.269300e-08 -8.647826e-09 5.466203e-09
2.408838e-09 -7.699646e-09 -7.986354e-09 1.174062e-08 -1.243120e-08 6.102105e-09
-9.426498e-10 -2.181071e-08 -3.526172e-09 1.926445e-08 -1.638439e-08 8.392319e-09
3.585595e-09 -2.425663e-08 -1.678662e-09 1.514954e-08 -1.351658e-08 5.549309e-09
5.955537e-09 -2.036896e-08 2.920508e-11 9.334344e-09 -1.013619e-08 3.001184e-09
-3.905553e-09 -5.350831e-10 1.269771e-09 -1.298735e-09 -4.051071e-11 -4.021305e-10
-3.868298e-09 -5.128773e-10 1.124068e-09 -1.343405e-09 -1.187875e-10 -5.000103e-10
6.017498e-10 2.022109e-09 7.915446e-12 4.433588e-09 -9.113723e-12 -1.482989e-09
-3.692006e-09 1.448822e-09 7.187513e-10 5.864758e-10 1.770428e-11 -1.057028e-10
-3.449867e-09 -2.254363e-09 1.466703e-09 -2.180505e-09 -2.956745e-12 -3.910148e-10
-3.277855e-09 -1.426970e-09 1.426780e-09 -1.583582e-09 3.423987e-10 -3.600520e-10
-3.770821e-09 -4.629039e-10 1.313800e-09 -1.414193e-09 -6.261992e-12 -6.727276e-10
-3.491993e-09 -2.927063e-10 1.481083e-09 -1.634557e-09 -1.788226e-10 -4.563617e-10
-5.315746e-09 3.451200e-09 5.908556e-10 -1.231325e-09 7.491596e-10 3.327210e-11
7.308258e-09 -3.293915e-09 -7.778755e-10 1.053533e-09 1.350477e-10 -9.416157e-11
4.370952e-09 -1.443596e-08 -1.866741e-08 -2.140270e-08 1.864296e-08 1.096815e-08
-7.580849e-09 4.486054e-09 -1.006728e-10 -3.978095e-09 8.202077e-10 4.494589e-10
-5.930802e-09 5.728961e-09 5.365384e-10 2.223419e-09 -1.945153e-10 -2.245759e-10
-6.338346e-09 4.315734e-09 9.606220e-10 -4.453982e-10 -1.393892e-10 -8.920055e-10
-8.226901e-09 6.275667e-09 7.547880e-10 -1.124816e-09 -6.196405e-10 -5.098009e-10
7.869635e-09 -3.239450e-09 -5.221938e-10 -2.713489e-09 -9.332246e-11 1.256210e-10
8.730441e-09 -3.886092e-09 -3.059961e-10 -1.130808e-09 6.434409e-12 -5.454011e-10
-6.252701e-09 6.490473e-09 1.206966e-09 3.623276e-09 -7.730099e-10 -1.163958e-09
4.769212e-08 -1.153614e-07 -5.007027e-08 -2.350342e-09 -1.152027e-07 2.236217e-09
6.681233e-09 1.009088e-08 -3.921842e-08 -9.021867e-09 -3.524115e-08 -9.032357e-09
8.686607e-09 -2.922567e-08 -4.444994e-09 -1.791961e-08 -1.904943e-08 -5.715515e-09
8.083230e-09 2.066415e-10 -2.267919e-08 -1.014556e-08 -2.180933e-08 -6.425097e-09
-5.575110e-09 4.307272e-09 8.500887e-10 -5.863031e-10 -1.829169e-10 -5.674650e-10
-1.255350e-08 1.713181e-08 -1.142177e-09 -1.538831e-08 5.383412e-10 -5.131389e-09
-9.082459e-09 4.787897e-09 4.439236e-10 -2.659658e-09 6.628562e-10 5.160292e-10
2.065921e-08 -6.038286e-08 -1.164143e-08 3.833237e-08 5.008446e-08 -1.393396e-08
-2.077106e-08 1.005436e-08 -2.797927e-09 1.995661e-08 1.067368e-08 -1.315835e-08
1.453254e-08 6.979166e-09 4.170577e-09 -1.934933e-08 -6.453768e-09 9.087904e-09
-7.603161e-09 1.041166e-08 2.569156e-10 2.940880e-10 1.733636e-10 -1.000528e-09
-1.648123e-08 3.233458e-08 -3.386542e-08 2.001202e-08 1.810523e-08 -2.498635e-08
-1.149339e-08 8.273792e-09 -2.382606e-09 -6.006839e-09 3.266959e-09 3.267456e-09
-5.456317e-09 6.312393e-09 -7.053835e-11 1.031465e-10 8.079135e-10 -3.761287e-10
-8.655618e-09 8.811575e-09 7.687349e-10 2.469579e-09 -8.681439e-10 -8.003642e-11
-6.399923e-09 -3.274548e-08 -4.774996e-09 3.529730e-08 2.877925e-08 -1.115590e-08
-9.404851e-09 9.837249e-09 1.030184e-09 3.251543e-09 -2.164268e-10 -3.636253e-11
-6.030759e-09 1.249832e-08 3.400651e-09 7.424608e-09 -4.473527e-09 -4.137307e-09
6.283655e-09 -2.799137e-09 -4.135332e-10 -4.140214e-09 1.362706e-10 -3.562951e-10
-1.071095e-08 1.148573e-08 -1.892983e-09 3.545087e-09 9.338771e-10 2.634628e-11
4.231307e-09 -1.592046e-09 -5.957501e-10 -3.056205e-09 -1.636258e-10 5.309264e-11
-5.305357e-09 8.945737e-09 -4.922198e-10 3.462034e-09 -6.977520e-10 -5.939189e-10
6.994846e-09 -3.362037e-09 -7.525121e-10 -1.508308e-09 -1.105560e-12 -1.795428e-10
1.022615e-08 -4.271434e-09 3.363709e-09 3.998261e-09 -3.241962e-10 -4.467167e-09
-4.224016e-07 4.202971e-07 1.301570e-06 4.609619e-08 7.276164e-07 1.743198e-07
5.725561e-09 -2.097181e-09 -1.037754e-09 -3.727642e-09 -1.910785e-10 3.297720e-10
1.819053e-09 -2.390066e-10 -2.124287e-10 2.486612e-09 4.379164e-12 -7.014386e-13
2.569554e-09 3.616948e-10 1.788356e-10 5.037106e-09 3.409048e-12 -6.610149e-10
-9.866295e-09 1.825434e-08 3.815527e-07 1.337602e-08 -4.861502e-08 3.545503e-07
-4.811813e-08 5.969504e-08 6.003961e-08 -1.061503e-07 -1.112480e-07 7.835981e-08
1.200121e-09 -1.686420e-10 -2.559521e-10 2.294270e-09 2.882154e-10 -1.377299e-10
-2.706176e-08 3.356607e-08 9.131507e-08 -4.034203e-08 -6.582771e-08 5.725250e-08
6.009710e-09 5.749922e-08 -2.708377e-08 -8.799195e-08 -1.292836e-07 6.522047e-08
6.770026e-09 -1.924941e-09 -9.620564e-10 4.251682e-09 2.271653e-10 -1.235235e-09
-4.477882e-08 -1.863330e-08 2.417007e-07 2.019172e-08 6.873331e-08 1.314648e-07
1.371967e-09 -2.923434e-11 1.785798e-10 3.768637e-09 2.977440e-11 -5.260897e-10
-3.731993e-07 7.237439e-07 9.835001e-07 2.295902e-07 -8.991283e-07 -1.362103e-08
-1.260884e-09 2.350185e-09 -1.446609e-11 2.894492e-09 2.420092e-10 -5.864673e-10
-4.214993e-08 8.315714e-08 1.490580e-07 -2.134855e-08 -1.505408e-07 -3.811967e-08
-8.622381e-10 1.807861e-09 -8.241763e-11 3.335112e-09 5.286083e-10 1.939160e-11
-1.296270e-09 1.248268e-09 3.300966e-10 2.095035e-09 3.591912e-10 -5.619263e-10
-5.258142e-09 1.952045e-09 9.077814e-10 -6.520080e-10 9.155443e-11 -5.956064e-10
4.382825e-08 2.309614e-07 -3.459039e-07 -8.968458e-08 1.780514e-07 -2.922872e-08
-5.114633e-10 7.755747e-10 2.854619e-10 2.706944e-09 4.478095e-11 -5.832816e-10
-1.513853e-09 2.154878e-09 -5.996448e-11 3.348166e-09 5.626883e-10 -8.842888e-10
1.271080e-09 3.616952e-10 6.831620e-10 4.643079e-09 -8.315194e-11 -1.133194e-09
-1.261801e-09 2.072036e-09 1.927836e-10 3.117037e-09 9.802270e-11 -2.223103e-10
-1.948886e-09 1.206793e-09 6.026675e-10 2.133344e-09 1.062314e-10 -6.425627e-10
-4.284308e-09 1.752471e-09 1.058318e-09 -1.650892e-09 5.117794e-10 -7.963447e-10
-2.051006e-09 1.276174e-09 4.317404e-10 2.214700e-09 6.916933e-11 -4.919298e-10
-1.695746e-10 5.565777e-10 1.082456e-10 3.111486e-09 5.277556e-11 -5.173897e-10
-8.942114e-09 -1.409262e-08 -1.828689e-09 3.102799e-08 -1.919727e-08 2.324801e-08
1.203005e-08 -3.947336e-08 -1.450885e-08 3.329400e-08 -5.314362e-08 2.391945e-08
6.145742e-09 -2.925014e-09 -8.570460e-10 1.839757e-09 3.935261e-11 2.382644e-11
4.249138e-09 -2.164389e-09 -5.336163e-10 1.634639e-09 1.748457e-10 -2.734679e-11
2.003345e-10 -1.740308e-08 -1.536577e-10 1.987594e-08 1.024164e-08 -4.286578e-09
-5.813948e-09 -7.121304e-09 -2.846401e-09 1.800251e-08 8.966808e-09 -4.834220e-09
-1.284296e-08 3.656438e-09 -1.087294e-09 8.678659e-09 -8.428169e-09 1.071831e-08
-1.305018e-08 2.759902e-08 -3.691493e-08 7.891099e-09 -2.065641e-08 2.810797e-08
-7.864478e-09 -7.379505e-09 5.790706e-10 2.112715e-08 9.822274e-09 -5.063215e-09
5.819233e-09 -5.963022e-09 3.446264e-08 3.084964e-09 -1.838669e-09 -2.387037e-08
6.892045e-09 -1.874988e-09 2.621478e-08 8.487004e-09 -4.513860e-09 -3.456194e-08
-1.724627e-08 2.491390e-08 1.021480e-08 -5.137808e-09 -6.207570e-09 -7.002233e-10
9.444220e-09 -5.590613e-09 2.086087e-08 -5.030420e-09 3.102881e-09 -1.639610e-08
-5.963569e-08 8.297791e-08 7.234496e-10 -1.181066e-09 -5.827945e-08 3.276067e-08
8.659598e-09 -2.390278e-09 -2.207476e-08 -1.469208e-08 2.054924e-08 8.756764e-09
-1.064034e-08 8.416415e-09 -3.518711e-09 -1.880013e-08 7.845668e-09 1.242595e-08
-2.563716e-10 -1.005087e-08 -3.444290e-09 1.536575e-08 7.273412e-09 -2.446943e-09
-6.045148e-09 -2.242825e-09 -6.048007e-09 1.707034e-08 8.630981e-09 -5.653594e-09
-4.345876e-08 3.647913e-08 5.492781e-09 -1.001685e-08 -4.275071e-09 1.455831e-08
-7.571273e-09 -1.114543e-08 -1.549934e-08 -9.776015e-08 4.406660e-08 5.706075e-08
1.861934e-10 -1.242791e-08 -1.447251e-09 1.179819e-08 4.502853e-09 -1.717028e-09
-1.683695e-08 3.920970e-08 -3.135933e-08 2.226276e-09 1.151009e-08 3.298499e-08
-2.581851e-08 3.678427e-08 1.060948e-08 -3.548505e-09 -3.800643e-09 -1.076084e-08
7.613238e-09 -3.834857e-09 -6.280354e-10 -1.589961e-11 1.040624e-10 -2.226431e-10
-4.604186e-09 5.243331e-08 -7.221435e-09 -2.333527e-08 -1.978730e-08 2.121543e-08
4.688615e-09 4.933652e-08 -2.034778e-08 -4.570401e-08 -3.535838e-08 1.426441e-08
-1.192462e-08 4.924467e-08 -3.184086e-08 -5.084003e-09 2.044108e-08 2.834496e-08
4.308937e-08 -1.142661e-08 6.640184e-09 7.775934e-09 3.068399e-09 2.131616e-08
3.912312e-09 4.981262e-08 -1.062546e-07 2.599453e-09 6.364207e-08 2.339216e-08
-5.461358e-09 5.005708e-08 -8.728969e-08 3.563747e-08 4.695480e-08 -4.813694e-08
-3.904060e-08 5.579267e-08 -1.939298e-08 -1.436149e-09 -7.140563e-09 -3.620686e-08
4.085672e-09 1.390983e-07 -8.549130e-08 5.941741e-08 -2.501167e-07 -1.365868e-07
-2.056100e-08 -3.843423e-08 -1.629485e-09 9.015587e-08 8.024009e-08 -7.810316e-08
-1.393633e-08 3.458245e-08 -1.192604e-08 -8.756873e-09 5.850193e-09 1.503544e-08
-7.863507e-09 4.667543e-08 -5.695948e-08 -3.838440e-08 3.676434e-08 5.487593e-08
-1.109356e-08 2.751670e-08 -1.837270e-08 9.889085e-09 9.369941e-09 -1.479039e-08
2.652528e-08 -2.005664e-08 3.906248e-08 7.447465e-09 6.890054e-09 2.633224e-08
-2.236275e-08 1.793262e-08 -1.399784e-08 1.875384e-08 2.026250e-08 -2.409210e-08
-3.962763e-08 1.067424e-07 -2.096483e-08 -3.142717e-08 -5.470377e-08 -1.249192e-08
-5.155691e-08 1.271703e-07 3.568028e-08 -4.538300e-09 -9.770396e-08 7.299173e-09
1.413189e-08 -3.832765e-09 -7.290812e-10 -6.032113e-09 1.900893e-09 -3.570109e-09
1.178080e-08 -4.875404e-09 9.812826e-10 -5.411000e-09 1.622257e-09 -4.750569e-09
1.024701e-08 -5.621588e-09 6.211362e-09 2.798255e-09 2.839685e-10 -7.316381e-09
1.727419e-08 -5.726113e-09 8.547370e-09 3.900004e-09 -7.456039e-10 -1.172645e-08
7.618498e-09 1.513729e-09 4.935286e-09 -1.663339e-08 6.968487e-10 4.727092e-09
3.321852e-09 1.544352e-09 2.577402e-08 -2.196234e-08 -6.982054e-09 1.810147e-08
1.470782e-08 -5.377237e-09 1.085982e-09 -9.209512e-11 1.076873e-09 -5.632424e-09
5.154362e-09 -2.422631e-09 -5.698819e-10 2.754706e-09 7.086842e-11 -1.072677e-10
1.173676e-08 8.832691e-10 -1.610921e-09 -7.757055e-09 5.196763e-10 -4.121237e-09
1.410344e-09 -2.453939e-10 -2.589609e-10 2.414864e-09 2.108622e-10 -7.669643e-12
2.362389e-08 -6.795551e-09 2.240135e-08 4.835414e-09 -6.213197e-10 -3.012351e-08
-1.725524e-08 2.228550e-08 -4.731914e-09 1.096727e-08 1.058986e-09 -1.361118e-08
-1.745840e-08 1.954656e-08 -4.945157e-08 4.896336e-08 5.334319e-08 -4.193905e-08
-1.863910e-08 2.168844e-08 -8.714879e-09 -2.995229e-10 6.075514e-09 -1.200795e-08
8.499917e-08 -1.184982e-08 1.713162e-08 -9.483627e-09 1.585774e-09 6.780560e-08
-1.284277e-08 1.704093e-09 -2.253076e-09 1.382993e-08 7.624466e-09 -5.943029e-09
-3.504036e-09 1.580684e-09 5.655134e-10 4.498482e-10 1.503842e-11 -2.872769e-11
-3.525025e-09 8.162013e-10 7.804597e-10 2.238618e-10 1.412159e-11 -2.745397e-10
1.437598e-08 1.834758e-08 -4.023268e-09 2.536168e-08 5.172286e-09 9.532694e-10
9.330198e-09 8.337136e-09 2.099753e-08 3.724857e-08 4.504168e-08 3.743816e-08
2.356071e-09 -7.650383e-10 -2.744764e-10 1.787916e-09 -7.172041e-12 -1.255271e-10
1.070051e-07 -8.558441e-09 1.467473e-10 -6.275088e-08 -5.100322e-08 1.505318e-07
5.988790e-09 5.724923e-08 3.601240e-08 -8.810256e-08 -1.303974e-07 6.610859e-08
-3.826494e-09 3.288925e-11 1.197284e-09 -5.230750e-11 -3.644929e-11 -1.869140e-10
1.147515e-08 -8.605281e-09 3.909228e-08 -3.515930e-08 -2.005311e-08 5.660041e-08
-3.483476e-09 1.246457e-09 5.756959e-10 5.137988e-10 1.747342e-10 -5.117653e-10
-3.475868e-09 -1.852172e-10 1.308881e-09 -5.585013e-10 2.038643e-10 -5.195140e-10
1.863507e-08 2.518352e-08 7.815222e-08 6.334173e-08 1.241443e-07 1.219677e-07
2.846239e-08 2.235410e-08 -1.231716e-08 2.107141e-08 8.051501e-09 1.808345e-08
1.535315e-08 -1.680047e-09 1.198164e-08 2.451973e-08 7.912473e-09 1.591058e-08
-3.028461e-09 -3.320929e-09 4.196850e-10 -9.716029e-09 2.473934e-09 6.578937e-10
-6.392549e-09 -2.010333e-09 -1.508778e-09 -8.628570e-09 2.987936e-09 1.217423e-09
-4.826970e-09 -6.183765e-11 -3.677856e-09 -1.254304e-08 4.775932e-09 3.554099e-09
-3.687128e-09 1.098732e-09 8.630237e-10 4.021778e-10 1.869005e-10 -3.135727e-10
-3.678567e-09 -2.207194e-10 1.472968e-09 -6.804140e-10 -3.898126e-11 -1.664078e-10
-3.630059e-09 9.386376e-10 8.687842e-10 1.714342e-10 1.333519e-10 -2.305445e-10
-4.752346e-09 -2.984892e-10 -3.141736e-09 -1.205971e-08 2.373477e-09 3.316385e-09
-8.045471e-08 -2.065128e-08 2.569825e-07 -7.308740e-09 4.887055e-08 -3.279736e-08
1.419612e-07 9.826035e-08 2.321633e-07 1.299203e-07 2.285804e-07 3.402566e-07
-1.612878e-08 6.122560e-08 -8.223196e-08 4.992464e-08 8.900310e-08 4.707854e-08
-1.911781e-07 7.069388e-08 5.466005e-07 7.850856e-08 2.014552e-07 1.461002e-07
-1.370566e-07 3.242249e-08 2.175508e-07 3.369332e-08 1.258046e-07 7.894406e-09
-1.003370e-07 9.799485e-09 1.453994e-07 1.191956e-08 6.471630e-08 1.510061e-08
7.530209e-09 -2.302137e-08 1.880250e-09 3.634986e-09 2.152286e-09 -1.274749e-10
-9.522604e-10 -1.123826e-08 3.251184e-09 6.144563e-09 5.192165e-10 1.734216e-10
8.208956e-09 -2.226590e-08 2.182384e-09 2.669826e-09 2.030517e-09 -4.977752e-11
7.401474e-09 -2.098113e-08 1.772016e-09 5.470916e-09 2.497353e-09 -3.616430e-10
1.057426e-08 -2.650308e-08 2.703074e-09 3.502734e-09 4.107585e-09 3.635859e-11
4.044723e-09 -1.864068e-08 2.946847e-09 8.476024e-09 2.685898e-09 -3.100125e-10
6.776659e-09 -2.090957e-08 2.473966e-09 4.662954e-09 1.278881e-09 -1.606717e-10
9.309453e-09 -2.284585e-08 1.835870e-09 2.719014e-09 2.483792e-09 -1.807663e-10
8.673076e-09 -1.990430e-08 -4.082672e-10 7.754071e-09 3.467670e-09 -7.460219e-10
4.792538e-09 -1.888246e-08 3.121215e-09 6.230334e-09 1.136091e-09 1.797566e-10
1.518650e-09 -2.546949e-08 2.019745e-09 1.867188e-08 7.801938e-09 -2.562387e-09
9.494892e-09 -2.529329e-08 3.996603e-10 3.102617e-09 3.957895e-09 1.006003e-10
-3.408606e-10 -1.232627e-08 1.311215e-09 9.653767e-09 2.295408e-09 -1.148019e-09
1.153764e-09 -1.356990e-08 1.249254e-09 9.217887e-09 2.577507e-09 -2.431729e-10
4.107899e-09 -8.622005e-10 -4.420428e-10 3.699835e-09 3.405949e-10 -3.872297e-10
-3.894178e-09 1.317151e-10 1.365920e-09 -2.442437e-09 9.770866e-11 -3.895356e-10
-3.436316e-09 -1.195537e-09 1.229003e-09 -2.316285e-09 4.930412e-10 -3.250904e-10
-4.292697e-09 6.901946e-11 1.259440e-09 -2.279637e-09 1.531131e-10 -4.035570e-10
-4.563721e-09 -8.343628e-10 1.352610e-09 -2.856417e-09 4.228984e-10 -1.013355e-10
-3.037532e-09 1.233698e-09 6.633962e-10 7.843273e-10 1.858964e-10 -3.870437e-10
-3.486768e-09 9.843344e-10 8.563057e-10 3.066940e-10 2.037451e-10 -2.755165e-10
-3.751403e-09 5.768817e-10 1.005385e-09 -1.156509e-09 4.225510e-10 -4.856382e-10
-3.143751e-09 -2.096319e-09 1.770014e-09 -2.165294e-09 1.441478e-10 -4.890053e-10
-3.662036e-09 -1.159481e-10 1.106960e-09 -5.677463e-10 -1.068157e-11 -3.833277e-10
6.651594e-09 -2.001824e-08 1.713854e-09 -5.875087e-09 2.922825e-09 3.057778e-10
4.559745e-09 -1.788446e-08 2.844017e-09 -6.874772e-09 1.527485e-09 2.640101e-11
8.184833e-09 -2.128816e-08 1.607385e-09 -3.849948e-09 1.871172e-09 9.430689e-11
6.643586e-09 -1.831131e-08 1.582517e-09 -5.378836e-09 1.969642e-09 3.465554e-10
-3.942185e-09 1.120781e-09 1.039869e-09 -6.363435e-10 3.210174e-10 -5.789462e-10
-3.639390e-09 5.694538e-10 1.059110e-09 4.802935e-11 2.667864e-10 -4.255691e-10
-3.954212e-09 1.088770e-09 1.125313e-09 -6.069534e-10 -3.565093e-11 -4.978829e-10
-3.673394e-09 8.875700e-10 8.681271e-10 2.186540e-10 9.503942e-11 -3.050522e-10
-3.779790e-09 8.824372e-10 9.344998e-10 2.549774e-10 5.761658e-11 -2.662743e-10
8.257893e-09 -2.425615e-08 1.905420e-09 -4.390166e-09 3.482799e-09 -6.075540e-11
9.532278e-09 -5.365039e-09 3.913791e-09 3.034211e-09 -7.992686e-11 -4.202371e-09
6.622008e-09 -2.048489e-08 3.068455e-09 -3.435867e-09 1.505134e-09 -1.244539e-10
5.991696e-09 -1.971062e-08 3.209654e-09 -4.797595e-09 7.439799e-10 -1.409643e-10
5.001565e-09 -1.958215e-09 4.853423e-09 7.056072e-09 -7.405405e-10 -5.591411e-09
-6.661197e-09 1.942581e-09 -3.047920e-09 2.664658e-09 -3.861480e-09 3.571246e-09
4.721670e-09 -1.902844e-09 1.544561e-08 8.088497e-09 -3.621455e-09 -1.359633e-08
-5.873048e-09 7.159994e-09 -2.527841e-09 -2.933769e-09 -1.629604e-09 2.250606e-09
-6.082071e-09 6.340002e-09 -2.603992e-09 -1.710560e-09 -1.911067e-09 2.962617e-09
1.133664e-08 -2.477299e-08 -3.105844e-09 4.957309e-09 6.649193e-09 -2.958919e-10
4.601426e-09 -1.548609e-08 9.811254e-10 -6.839051e-09 1.815256e-09 3.533939e-10
-5.797095e-09 3.788136e-09 -1.919241e-09 1.091338e-09 -3.357311e-09 2.666047e-09
-6.659950e-09 2.440158e-09 -1.629863e-09 2.436178e-09 -3.791686e-09 3.533971e-09
8.996985e-09 -2.171657e-08 6.756886e-10 -3.001590e-09 1.484167e-09 -1.642472e-10
4.637033e-09 -1.509465e-09 -4.568077e-10 3.610658e-09 1.474991e-10 -4.602321e-10
5.102135e-09 -1.608796e-09 -7.581802e-10 3.403008e-09 1.550128e-10 -5.962192e-10
3.745581e-09 -5.713311e-10 -3.438233e-10 4.261385e-09 2.741036e-10 -4.412218e-10
3.528910e-09 -1.239884e-09 -1.612854e-10 3.178981e-09 4.603995e-11 -4.824836e-10
8.631474e-09 -3.924176e-09 -3.930642e-10 3.277737e-10 7.716398e-11 -3.986322e-10
2.933727e-09 -6.118823e-10 -3.783491e-10 3.325456e-09 3.762810e-10 -2.357796e-10
2.476674e-09 -6.277946e-10 -2.971239e-10 3.271619e-09 1.517652e-10 -4.659455e-10
3.112505e-09 -6.294329e-10 -4.792824e-10 3.413503e-09 3.272980e-10 -1.390345e-10
3.027051e-09 -6.511378e-10 -3.605550e-10 3.350454e-09 7.163059e-11 -6.110629e-10
-3.624599e-09 1.141577e-09 9.120904e-10 4.641872e-10 1.219309e-10 -1.757724e-10
1.153281e-08 -4.137490e-08 -7.599432e-10 -1.661284e-08 1.823550e-08 4.880821e-09
-3.632961e-09 7.499916e-10 9.607142e-10 -2.101875e-11 -6.778023e-12 -1.764613e-10
-3.883655e-09 -3.623768e-11 1.308837e-09 -8.050369e-10 -3.963363e-11 -3.838632e-10
-3.624456e-09 1.278033e-09 7.023280e-10 4.920522e-10 1.479116e-10 -1.359557e-10
-3.746470e-09 -5.306466e-10 1.157746e-09 -1.271216e-09 -2.973433e-11 -2.951754e-10
-3.417314e-09 1.411904e-09 6.422889e-10 7.280265e-10 2.361105e-10 -5.206748e-10
-2.857929e-09 1.279111e-09 6.498171e-10 1.189480e-09 3.317311e-10 -2.995283e-10
-8.711023e-10 1.253107e-09 2.829532e-10 2.624378e-09 2.357599e-10 -5.112457e-10
-3.826494e-09 6.097460e-10 1.079639e-09 -6.568213e-11 2.191979e-10 -2.013039e-10
-3.209565e-09 1.189882e-09 6.320036e-10 8.904657e-10 1.471804e-10 -2.491251e-10
-3.699054e-09 1.405942e-10 1.109247e-09 -1.747302e-10 -6.429634e-12 -2.546459e-10
9.811488e-09 -2.272712e-08 1.275559e-09 -5.092333e-10 2.329870e-09 2.137457e-10
8.373790e-09 -2.417945e-08 2.164547e-09 1.192922e-09 2.088467e-09 -3.193090e-11
8.373790e-09 -2.418033e-08 3.407685e-09 1.192912e-09 2.011496e-09 -3.436951e-11
-4.279219e-08 4.576848e-08 1.545745e-08 7.627046e-09 -1.578136e-08 4.527223e-09
-2.168101e-08 -1.534737e-09 1.452381e-07 2.399945e-08 -3.495536e-08 -5.234589e-08
-5.511118e-09 9.407803e-09 3.917354e-08 1.560284e-08 -2.461587e-08 -2.303689e-08
9.261711e-09 -2.269248e-08 1.814985e-09 2.858349e-09 2.188367e-09 -1.284662e-10
-2.913154e-08 8.134721e-08 3.427683e-08 3.802910e-08 -3.485879e-08 -1.334820e-08
9.551090e-09 -2.317878e-08 8.062044e-10 -2.833068e-10 1.675849e-09 -2.612677e-11
-5.013190e-11 -1.026680e-08 2.538442e-09 -6.327158e-09 5.286516e-10 -6.429070e-11
-2.846401e-09 3.768689e-09 5.068075e-10 3.783391e-09 1.061486e-10 -7.300707e-10
9.782495e-10 2.691865e-09 -7.456236e-11 6.153201e-09 -1.205967e-10 -8.083575e-10
2.848299e-11 4.757110e-10 4.924949e-13 2.075604e-09 5.987233e-11 -3.016103e-10
-2.198798e-09 -5.721191e-09 1.555779e-09 -5.985576e-09 1.009370e-10 -4.437950e-10
4.184840e-09 -1.346127e-09 -5.262280e-11 3.976391e-09 -9.694027e-12 -7.263785e-10
-1.247157e-09 1.379193e-09 3.105067e-10 2.451503e-09 1.343348e-11 -3.132838e-10
-3.167075e-10 4.757110e-10 6.061818e-13 2.061241e-09 7.342726e-11 -1.387837e-10
-1.892464e-09 -4.611834e-09 1.565656e-09 -5.032374e-09 7.947534e-10 -3.139131e-10
-8.680784e-10 -7.396314e-09 1.773200e-09 -5.073877e-09 8.493641e-10 1.595912e-10
1.073482e-07 1.330116e-07 -3.628614e-07 -7.742717e-09 1.245491e-07 -1.314651e-07
5.639212e-08 -1.377364e-07 -2.418371e-07 -1.344818e-07 3.154553e-07 4.034304e-08
-1.682105e-10 -8.055832e-09 2.139617e-09 -4.322712e-09 5.554877e-10 -3.852464e-10
-5.614026e-08 3.777172e-08 -2.987454e-07 -2.606223e-07 2.021592e-07 -3.852785e-08
-3.971628e-09 4.371703e-10 1.090286e-09 -6.248087e-10 1.580805e-10 -1.823668e-10
-4.484399e-09 -1.412168e-10 1.197293e-09 -2.021475e-09 8.855505e-11 -5.604406e-10
-4.285468e-09 7.834076e-10 1.046551e-09 -2.133589e-09 6.484346e-10 -2.800804e-10
2.971784e-08 -3.900182e-08 -4.161918e-08 -2.738254e-08 1.139741e-07 2.922918e-08
1.507548e-07 -2.156149e-08 -3.198180e-07 -1.923860e-08 1.556664e-07 -8.243431e-08
-3.891857e-09 2.559197e-10 1.145468e-09 -1.385883e-09 4.068628e-10 -3.560503e-10
-1.294746e-08 -4.022735e-08 -1.044044e-07 1.378598e-07 1.279477e-07 -1.269269e-07
1.366739e-08 -5.202866e-09 2.323803e-09 -3.715769e-09 1.166578e-09 -5.777670e-09
-1.169428e-09 7.650709e-08 -1.124683e-07 3.378498e-09 2.415050e-09 1.176538e-08
-1.376753e-07 2.825695e-07 -4.597688e-07 -1.705551e-07 -6.637631e-08 1.135318e-07
-6.727962e-09 7.124821e-09 1.166064e-09 9.799255e-10 -8.523295e-10 -9.150711e-10
-5.211200e-09 -4.051687e-09 4.883498e-10 -8.332839e-09 2.252181e-09 8.343337e-10
-3.743971e-09 -8.377536e-09 1.176304e-09 -1.383046e-08 3.816661e-09 2.584364e-09
-1.074385e-08 8.808106e-09 -2.229074e-09 -6.640444e-09 2.938158e-09 3.647963e-09
1.556964e-09 -2.453948e-10 -2.215947e-10 2.460768e-09 1.994702e-10 -1.011435e-10
-4.284003e-09 1.297818e-08 9.674376e-09 1.414226e-08 -1.366868e-08 -1.459649e-08
1.083330e-08 -1.743997e-09 2.483825e-09 8.074882e-09 -1.644924e-09 -6.990789e-09
5.729336e-09 -1.916976e-08 1.604273e-09 -6.764116e-09 1.969434e-09 -1.748089e-10
1.435145e-08 -5.182359e-09 5.846048e-09 3.575761e-09 -4.610431e-10 -7.573210e-09
6.604801e-09 -3.328967e-09 -8.016374e-10 -9.255668e-10 -4.287082e-11 1.036787e-10
1.713663e-08 -2.762782e-08 -6.265413e-09 -7.991335e-09 1.628308e-08 2.205794e-09
9.008048e-09 -2.109200e-08 -1.768449e-09 -6.281251e-09 3.800589e-09 6.904893e-10
1.385773e-08 -3.682510e-08 8.558763e-10 -1.107780e-09 1.263701e-08 4.639262e-10
9.962837e-09 -7.481409e-08 -1.737736e-08 4.475982e-08 -6.337561e-08 2.763300e-08
1.614499e-08 -3.253751e-08 -7.878670e-10 -5.562076e-09 1.479300e-08 2.008023e-09
1.151733e-08 -2.532858e-08 3.974905e-10 2.531910e-09 4.215378e-09 8.745027e-11
6.546225e-09 -1.757786e-08 -1.821833e-09 -1.257494e-08 7.054841e-09 2.881161e-09
9.798799e-09 -2.622802e-08 -1.217662e-09 6.591308e-09 -1.360155e-08 2.298163e-09
1.167739e-08 -2.458667e-08 4.706213e-10 -7.495789e-09 7.219668e-09 1.748750e-09
-4.847685e-09 9.456214e-10 7.870269e-10 3.348226e-10 -1.311420e-09 1.401771e-10
-7.315027e-09 -4.566958e-09 2.052229e-10 7.481554e-09 -5.780896e-09 3.658187e-09
1.521192e-08 -2.245438e-08 -1.057551e-08 -5.350303e-09 1.204114e-08 9.587162e-10
-4.845481e-09 -3.969123e-09 6.408953e-10 5.524755e-09 -3.677245e-09 2.135600e-09
-5.334835e-09 -3.883027e-11 -2.109958e-09 1.054473e-08 -1.123557e-08 7.597396e-09
2.325148e-09 -1.148924e-08 -1.776551e-08 1.094225e-08 -1.854983e-08 8.560875e-09
5.244151e-09 -3.936655e-09 -1.216990e-08 7.043005e-09 -1.120247e-08 4.913632e-09
-3.076962e-09 -1.188882e-09 -6.264649e-09 6.986476e-09 -5.605448e-09 2.529069e-09
8.805191e-10 -9.497635e-09 5.203473e-10 8.306217e-09 -5.999369e-09 2.715029e-09
-4.902840e-09 -8.475479e-09 1.867546e-10 9.079139e-09 -5.637004e-09 2.889250e-09
-2.914019e-09 -2.491465e-09 1.759598e-09 -2.137577e-09 -4.851475e-11 -3.647638e-10
-5.911211e-09 8.766370e-10 1.013453e-09 -3.890244e-09 7.375429e-10 -4.484845e-10
-3.142015e-09 -2.437456e-09 1.593125e-09 -2.157760e-09 -1.403777e-11 -5.883465e-10
-3.397792e-09 -2.071388e-09 1.432925e-09 -3.526271e-09 5.958311e-10 -2.129245e-10
-4.006880e-08 3.902057e-08 1.314410e-07 1.505223e-08 4.180529e-08 1.314801e-08
7.242196e-09 -1.983669e-08 -5.977080e-09 1.153575e-08 -1.472382e-08 5.868989e-09
8.917139e-09 -2.407667e-08 2.671636e-10 -3.467515e-09 3.440003e-09 1.005788e-10
1.586351e-08 -9.443724e-10 -3.511061e-08 5.015518e-09 -3.340712e-08 9.530703e-09
1.245751e-08 -2.723968e-08 -9.070854e-09 -7.660856e-09 -1.622265e-08 -1.607321e-09
8.270145e-09 -2.280041e-08 2.173815e-09 -1.262634e-09 1.638506e-09 -1.601469e-10
1.076023e-08 -2.758062e-08 2.833831e-09 5.394356e-10 3.776843e-09 -2.024820e-10
7.334991e-09 -2.339559e-08 3.217038e-09 -5.282462e-09 2.353172e-09 1.841123e-10
-4.181671e-09 -8.907506e-09 -1.030974e-09 1.776674e-08 -1.537795e-08 9.770222e-09
9.286598e-09 -2.209028e-08 -1.158549e-08 -1.385497e-08 1.301387e-08 4.621675e-09
8.270818e-09 -2.349447e-08 3.213765e-09 -1.474537e-09 2.064783e-09 -4.349809e-11
7.982379e-09 -2.260147e-08 3.430476e-09 -2.778480e-09 1.319125e-09 1.019309e-10
1.144343e-08 -3.937295e-09 -7.640355e-10 1.568576e-10 2.173778e-10 -1.667613e-09
7.699122e-09 -3.793955e-09 -3.522267e-10 -4.285928e-09 2.008351e-10 -7.276502e-10
6.388136e-09 -3.143647e-09 -8.293779e-10 -2.265145e-09 -1.150051e-10 -1.026507e-11
-1.688480e-09 1.342205e-09 -5.133360e-11 -1.716651e-09 -7.720513e-11 -1.994183e-11
1.095368e-08 -5.056066e-09 -1.478802e-09 -1.343260e-09 -2.267909e-10 -1.194874e-09
1.205914e-08 -4.063822e-09 3.992033e-10 3.057936e-09 2.338108e-10 -3.656339e-09
-1.635717e-09 1.534764e-09 -9.723111e-12 -1.924354e-09 -2.088143e-10 -1.883815e-10
2.783358e-09 -1.076223e-09 -2.630656e-10 2.516802e-09 3.575850e-11 -2.144189e-10
1.018280e-08 -4.131025e-09 -7.460268e-10 -2.916729e-09 5.958456e-11 -1.310673e-09
8.754542e-09 -3.759045e-09 -6.592153e-10 -2.836656e-09 1.680845e-10 -7.125003e-10
-3.161162e-09 2.077488e-09 7.736567e-11 -2.420628e-09 -6.041619e-10 -2.474074e-10
1.205194e-08 -4.108764e-09 -1.456022e-09 -3.132561e-09 1.088536e-10 -1.360507e-09
3.074875e-09 -1.336165e-09 -4.060655e-10 1.744272e-09 1.102468e-10 -2.583045e-11
9.805850e-09 -4.957503e-09 6.094429e-10 -1.573264e-09 -8.369257e-11 -1.720690e-09
-2.302219e-09 1.838967e-09 1.637801e-11 -1.501227e-09 -2.615504e-10 -1.372398e-10
-1.842616e-09 1.648860e-09 1.259415e-11 -1.802174e-09 -2.180827e-10 7.477019e-12
-2.004368e-09 1.548957e-09 -4.405254e-11 -2.138786e-09 -2.940245e-10 -1.206611e-10
7.255075e-08 1.862770e-08 -2.249698e-07 -1.781966e-07 3.039983e-07 5.814050e-08
5.067730e-08 -9.623165e-08 -8.047756e-08 -2.234640e-08 1.511801e-07 -3.362013e-09
4.091672e-08 8.114022e-08 -1.770021e-07 -2.653903e-08 1.897857e-07 7.922960e-10
-6.916990e-09 8.756207e-09 9.541677e-10 -9.014203e-08 6.259872e-08 6.550260e-08
-4.091842e-09 -6.668720e-09 -1.053212e-07 -5.978490e-08 1.170149e-07 5.715998e-08
6.741267e-08 -1.292276e-07 -5.829126e-08 -7.711517e-08 1.605101e-07 3.303429e-08
1.542683e-08 -3.047942e-09 -6.987628e-08 -2.483509e-08 6.867854e-08 3.151229e-08
-4.201132e-09 2.332641e-09 4.229168e-10 -1.932048e-09 -4.354612e-10 -9.417933e-11
-3.991982e-09 1.732429e-09 3.437530e-10 -1.246231e-09 -9.886802e-10 2.429583e-11
-3.145986e-09 2.033302e-09 2.073202e-10 -1.807889e-09 -2.911676e-10 -1.802527e-10
-2.861181e-09 2.060810e-09 2.943210e-10 -1.807565e-09 -3.113142e-10 -1.185261e-10
8.261403e-09 -2.469517e-08 9.047905e-10 -1.023820e-08 6.471359e-09 1.704206e-09
6.409427e-09 -1.763905e-08 -4.882067e-09 -1.248124e-08 7.628022e-09 2.127656e-09
-2.744530e-09 2.064459e-09 1.389731e-10 -1.601042e-09 -2.291523e-10 -1.382422e-10
-4.201169e-09 2.400325e-09 5.037353e-10 -1.963317e-09 -2.250906e-10 -2.824698e-10
-3.019687e-09 2.134534e-09 2.582383e-10 -1.702860e-09 -2.440641e-10 -5.479517e-11
3.307232e-09 -1.766597e-08 6.009901e-10 -1.580110e-08 7.303747e-09 3.893676e-09
3.264999e-09 -1.758725e-08 -4.072024e-09 -1.576312e-08 9.040923e-09 3.117948e-09
-3.500687e-09 2.275456e-09 3.306198e-10 -1.949116e-09 -3.358327e-10 -1.127858e-10
1.328664e-09 -1.227887e-08 1.020052e-09 -1.052749e-08 3.586054e-09 8.355545e-10
7.928896e-09 -2.178240e-08 7.975571e-10 -7.202850e-09 4.194349e-09 1.281801e-09
2.362722e-09 -1.608285e-08 -6.987604e-10 -1.449699e-08 7.421758e-09 2.365570e-09
-5.256705e-09 -8.892405e-09 1.094132e-09 1.305824e-08 4.350253e-09 -1.490848e-09
-2.889515e-09 -7.827189e-09 8.431487e-10 9.363272e-09 2.566125e-09 -8.567554e-10
-5.664680e-09 -1.029457e-09 -1.621993e-09 1.177126e-08 3.121976e-09 -1.337664e-09
-4.696137e-09 -4.848546e-09 -1.835866e-09 1.171425e-08 4.159969e-09 -1.579373e-09
3.006023e-09 -1.288680e-08 2.210728e-09 -4.843742e-09 8.315531e-10 5.654274e-11
3.006023e-09 -1.349958e-08 1.494080e-09 -5.073077e-09 1.489576e-10 -2.601637e-10
-1.881941e-09 -4.669199e-09 1.752880e-09 -5.036252e-09 3.368641e-10 -1.413108e-10
1.771162e-09 -1.348280e-08 2.828557e-09 6.224278e-09 7.836833e-10 -7.513346e-11
-3.498153e-10 -1.163177e-08 2.852712e-09 6.216467e-09 9.362426e-10 3.310474e-10
-1.163872e-08 1.174608e-08 -5.022522e-09 7.836273e-09 4.889809e-09 -4.673820e-09
3.740890e-09 -1.411466e-08 1.685595e-09 -6.502667e-09 1.165920e-09 1.735029e-10
-9.730493e-09 1.479745e-08 -3.771386e-09 -2.545553e-09 2.121149e-09 -5.232299e-09
2.698346e-09 -1.402612e-08 2.571479e-09 -7.075169e-09 1.459250e-09 2.217873e-10
2.750692e-09 -1.425194e-08 2.762271e-09 -6.549727e-09 7.759311e-10 1.148509e-10
2.123121e-09 -1.291479e-08 2.176989e-09 -5.025391e-09 7.656822e-10 -1.815217e-10
-4.310088e-09 2.690055e-08 3.221625e-08 -3.177282e-08 3.120495e-08 -7.804134e-09
-2.706830e-08 2.899107e-08 -1.290424e-08 1.142622e-08 -6.939730e-09 2.859101e-08
-1.497949e-08 1.695079e-08 -9.222058e-09 5.214433e-09 5.968532e-09 -7.828530e-09
-1.526883e-08 3.272509e-08 -1.113945e-08 5.812967e-09 3.893919e-09 -1.300890e-08
-9.620157e-09 -2.439816e-09 -1.287818e-09 1.516178e-08 7.099546e-09 -4.381105e-09
5.052631e-09 -1.650442e-08 -3.924301e-10 1.031229e-08 2.701312e-09 -9.878487e-10
-8.264143e-10 -1.270706e-09 1.723220e-08 -2.520111e-08 1.018770e-08 -4.439531e-09
-2.637574e-08 5.124096e-08 -2.222315e-08 2.270580e-08 -1.689490e-08 3.626770e-08
-5.817438e-09 3.344627e-09 -3.800408e-09 -1.638917e-08 -1.416591e-08 -1.140615e-08
-4.361128e-09 1.848502e-08 -1.163677e-08 5.650962e-09 -7.209753e-09 -7.770400e-09
-3.210673e-09 -1.596528e-09 1.600915e-09 -3.004261e-09 6.326721e-10 -2.880829e-10
1.047182e-09 -3.255185e-08 -5.107941e-09 -2.976692e-08 -2.611971e-08 -1.066707e-08
-4.314604e-09 -6.538405e-10 1.175017e-09 -2.017697e-09 4.592715e-10 -2.967999e-10
-3.843134e-09 -9.273498e-10 1.449006e-09 -1.404196e-09 3.077214e-10 -1.016246e-10
-3.825954e-09 5.112479e-10 1.205253e-09 -7.343311e-10 2.521066e-10 -3.298211e-10
-9.125154e-09 1.274941e-08 -7.726333e-09 -2.953443e-09 -5.822942e-09 -8.435641e-09
-3.971294e-10 -1.587989e-08 -7.509892e-09 -3.083517e-08 -2.647698e-08 -1.555957e-08
-6.168456e-09 1.918041e-08 -1.639737e-08 -2.015813e-09 -1.065483e-08 -1.301509e-08
4.832225e-09 1.087804e-08 -2.834519e-08 -1.384521e-08 -2.463713e-08 -1.227030e-08
-4.009570e-09 -2.210460e-09 1.365368e-09 -3.276991e-09 5.956724e-11 -4.066735e-10
-2.320697e-09 1.541418e-08 -2.408586e-08 -9.082071e-09 -2.023137e-08 -1.189439e-08
6.136634e-09 -3.145144e-09 -7.739328e-10 -1.436134e-09 -8.525569e-11 7.167822e-12
5.069224e-09 -2.369807e-09 -7.481958e-10 -2.005989e-09 -1.386907e-10 1.703000e-10
6.285220e-09 -3.239450e-09 -6.960765e-10 -2.519828e-09 -3.517942e-11 -2.834055e-11
-3.359303e-09 -1.062174e-09 1.355054e-09 -1.090154e-09 -1.452644e-10 -6.189718e-10
-3.831346e-09 5.228733e-10 1.261845e-09 -6.970798e-10 1.419115e-11 -3.173390e-10
-1.497113e-08 4.557613e-08 -2.779066e-08 7.620107e-09 -1.044118e-08 -1.779490e-08
2.433973e-09 1.033078e-08 -2.346425e-08 -8.927668e-09 -2.118552e-08 -9.913265e-09
5.327501e-09 -6.215345e-08 -3.456586e-08 -5.162856e-08 -7.998493e-08 -3.221062e-08
-1.142744e-08 6.486626e-08 -3.443895e-08 1.863926e-08 2.215819e-08 -1.025074e-08
1.288468e-08 -3.310746e-08 -8.445737e-09 -2.358055e-08 -3.831520e-08 -1.098861e-08
1.094623e-09 1.361511e-10 -1.649241e-10 3.332354e-09 2.693395e-10 -5.883813e-10
2.816440e-09 6.710776e-11 2.622040e-10 4.788855e-09 -1.298757e-10 -1.550857e-09
4.180511e-09 -2.286798e-08 2.518668e-09 1.186704e-08 5.273577e-09 -4.928247e-10
6.330607e-09 -1.938657e-08 -5.517435e-10 7.858733e-09 3.440272e-09 -1.662816e-10
9.358292e-11 -1.187998e-08 2.295064e-10 1.368898e-08 4.710806e-09 -2.151713e-09
3.692327e-09 -6.073277e-10 -7.005930e-10 3.997411e-09 2.475834e-10 -8.340690e-10
1.481107e-09 8.061249e-10 1.480303e-10 3.828553e-09 1.742553e-10 -4.784662e-10
-1.061437e-09 1.346506e-09 4.625811e-10 3.323053e-09 3.347153e-10 -5.522260e-10
1.215122e-08 -2.466641e-08 -5.313926e-09 -4.966019e-10 7.548713e-09 4.103564e-10
1.175134e-09 -1.335650e-08 -1.313547e-09 -1.209540e-08 4.968604e-09 9.997325e-10
-4.437278e-11 -1.003588e-08 -3.318855e-09 -1.345616e-08 7.073501e-09 2.573324e-09
9.661714e-09 -2.331148e-08 2.817178e-10 -2.317888e-09 3.355076e-09 2.101543e-10
-4.864239e-09 -2.040334e-09 -4.627868e-09 -1.421276e-08 7.794519e-09 3.862219e-09
1.264514e-09 -1.340153e-08 1.300789e-09 -1.210738e-08 4.585058e-09 1.635483e-09
1.034320e-09 2.261253e-10 -1.188013e-08 1.816838e-08 1.152407e-08 -6.477819e-09
1.810396e-08 -4.654855e-08 -7.130885e-09 2.014116e-08 3.068715e-08 -7.588320e-09
8.759441e-09 -1.815404e-08 -4.425526e-09 8.939534e-09 6.827940e-09 -7.763222e-10
1.395821e-08 -2.800481e-08 -1.740643e-09 -1.865174e-09 9.267110e-09 2.957820e-10
-4.204118e-09 -1.061692e-08 -6.806279e-09 -1.871085e-08 1.191107e-08 6.376095e-09
5.522091e-09 -3.269218e-08 -4.652820e-09 3.442470e-08 2.901490e-08 -1.353935e-08
3.515643e-09 -1.555811e-08 -4.450497e-09 -1.731206e-08 1.035659e-08 3.184833e-09
-3.503414e-09 -4.819651e-09 1.577417e-09 -1.119625e-08 1.175934e-09 8.766537e-10
6.985029e-10 -8.757155e-09 -2.688602e-09 -1.241144e-08 3.661870e-09 1.415813e-09
-2.410029e-09 1.882999e-09 -1.086793e-10 -2.869654e-09 -3.298586e-10 -2.775958e-10
-5.889463e-09 3.973312e-09 -4.998686e-10 -1.759325e-09 -2.030678e-09 1.949729e-09
-1.713173e-09 1.847440e-09 -1.099623e-10 -4.216619e-09 -4.915643e-10 5.679801e-11
2.679558e-10 -1.792882e-08 -2.588629e-09 1.687145e-08 -1.913449e-08 9.570513e-09
-1.872660e-09 -4.602523e-09 -1.015404e-08 -1.704860e-08 9.868116e-09 6.206174e-09
1.280921e-08 2.419190e-09 -3.050430e-08 2.535625e-09 -2.897740e-08 8.712937e-09
1.085075e-08 -4.891624e-08 -1.376590e-08 3.925523e-08 -5.082913e-08 2.061830e-08
-8.488448e-09 -2.802545e-08 -5.200017e-09 3.323434e-08 -2.522358e-08 1.816902e-08
-3.327341e-09 -1.479846e-09 1.633242e-09 -1.146228e-09 2.210443e-10 -4.159357e-10
1.171332e-09 1.645150e-08 -2.979548e-08 2.916968e-09 -2.327957e-08 1.642369e-08
1.688441e-08 -3.562979e-08 -9.574372e-09 1.352164e-08 -3.970468e-08 7.041915e-09
-4.254067e-09 -5.961653e-10 -4.100229e-09 -1.290539e-08 4.298663e-09 3.173738e-09
-3.745483e-09 -8.329257e-09 -2.638876e-09 -1.352575e-08 5.976450e-09 2.312376e-09
3.020113e-10 1.578841e-09 1.839338e-10 4.374517e-09 -1.003642e-10 -4.931388e-10
-5.799901e-09 2.332524e-09 7.955183e-10 -3.265052e-09 7.581563e-10 -3.543268e-10
5.052343e-09 -1.584012e-09 2.986305e-10 4.861611e-09 -1.171807e-11 -6.948315e-10
1.703940e-09 6.412586e-10 -5.413002e-10 4.153345e-09 2.708355e-10 -6.353562e-11
2.567671e-09 2.402081e-09 5.551253e-10 6.551423e-09 -3.408565e-10 -2.051249e-09
4.825262e-09 2.671409e-09 -3.031015e-10 7.235262e-09 -2.119161e-10 -2.646463e-09
-4.991189e-09 -7.119203e-10 -1.732405e-09 -1.076623e-08 4.305564e-09 1.564764e-09
-1.924271e-09 1.133687e-09 2.478415e-10 1.110445e-09 1.318714e-10 1.814660e-11
-3.221903e-09 1.177157e-09 6.964798e-10 6.781090e-10 3.448419e-11 -1.346898e-10
-2.028443e-09 1.186105e-09 2.625289e-10 1.454434e-09 1.562125e-10 -5.528408e-11
1.445509e-08 -4.181855e-09 -7.734964e-10 -8.667012e-10 1.491156e-10 -2.346125e-09
3.100951e-09 -1.274665e-09 -3.947203e-10 2.125165e-09 2.128319e-10 9.740409e-11
-2.180993e-09 1.176278e-09 3.236957e-10 1.397958e-09 1.701334e-10 -1.309872e-10
1.708153e-09 6.483236e-10 -1.497653e-10 4.175368e-09 1.892512e-10 -5.062201e-10
-3.242697e-09 1.342400e-09 6.240126e-10 8.894823e-10 1.713483e-10 -1.027006e-10
6.918959e-09 -2.705929e-10 -1.296532e-10 5.538933e-09 1.952495e-10 -3.251871e-09
-2.249177e-09 1.163811e-09 2.641052e-10 8.596670e-10 1.561435e-10 -9.478285e-11
-2.606462e-09 1.352952e-09 4.435323e-10 1.022643e-09 1.247773e-10 -1.415008e-10
-5.222186e-09 6.687136e-09 -1.234556e-09 3.871430e-09 8.611510e-10 -6.473452e-10
-2.322964e-09 1.248592e-09 3.411915e-10 1.000352e-09 1.792692e-10 1.051847e-11
1.003341e-08 3.949848e-10 -1.095963e-09 7.400852e-09 -1.046997e-09 -4.486569e-09
-2.147330e-09 1.163931e-09 3.894733e-10 8.693225e-10 1.412797e-10 -2.145515e-10
-2.666240e-09 1.243104e-09 4.638609e-10 8.609181e-10 9.522827e-11 -1.054377e-10
-3.154132e-09 1.351604e-09 6.426728e-10 8.758865e-10 1.124917e-10 -2.490148e-10
-2.526383e-09 1.154192e-09 4.045329e-10 1.251946e-09 1.409867e-10 -1.949876e-10
9.913550e-09 -3.286791e-08 1.446796e-07 -6.201822e-09 -1.646340e-10 8.564768e-08
-1.052611e-08 3.729646e-08 -2.007944e-09 -2.848510e-08 -9.018510e-09 4.264369e-09
1.370516e-08 -1.761677e-07 -5.731003e-08 1.127454e-07 1.905784e-07 -6.660531e-08
-1.074663e-08 9.202280e-09 -2.044610e-09 9.720971e-09 7.957548e-09 -4.478325e-09
-2.015185e-08 7.538761e-08 3.913407e-09 -1.723384e-08 -2.942840e-08 -1.437911e-09
-4.581638e-08 8.203279e-08 1.182969e-07 2.426198e-08 -1.266442e-07 -6.886596e-08
-3.664223e-08 6.272004e-08 -1.917505e-08 6.030693e-09 -1.426558e-08 -1.105530e-08
-1.280003e-08 1.826414e-09 -1.512103e-09 2.669312e-08 1.234670e-08 -1.304293e-08
4.158603e-08 2.537076e-08 -1.032211e-07 5.455713e-08 1.294939e-07 -4.615202e-08
-4.114237e-08 2.519186e-08 1.408367e-07 -1.861966e-08 2.139941e-08 -8.700706e-08
-1.567297e-08 -2.105566e-09 4.809534e-08 -1.300320e-08 -2.580447e-08 -3.909189e-08
-1.051055e-08 1.343289e-09 -5.177041e-09 1.791852e-08 1.133983e-08 -8.702080e-09
-1.523291e-08 1.665136e-09 -2.904086e-09 2.386033e-08 1.352255e-08 -1.082405e-08
-1.665165e-08 1.010922e-08 6.121857e-08 -2.069559e-08 4.630098e-09 -3.914943e-08
-1.190785e-07 2.560477e-07 -5.559283e-07 2.236473e-08 4.139966e-08 2.671585e-08
-5.902062e-08 2.186582e-07 1.896871e-07 4.808496e-08 -2.349013e-07 -6.673054e-08
-1.050798e-08 1.085499e-08 -1.188239e-08 2.202584e-08 1.932602e-08 -1.480073e-08
-1.284886e-08 8.155037e-09 -1.318819e-08 1.760804e-08 1.386913e-08 -1.285868e-08
8.659598e-09 -9.682197e-09 -2.172515e-08 -1.564314e-08 1.930390e-08 8.858439e-09
-7.264934e-09 -7.335078e-08 -3.195774e-08 -8.247113e-08 7.728817e-08 5.117983e-08
-2.446303e-08 1.538335e-08 -5.547886e-10 -2.223962e-08 5.542060e-09 1.352841e-08
-6.213399e-08 4.614044e-08 -1.314565e-08 -5.310635e-08 2.252184e-08 5.093251e-08
-9.881723e-09 6.924576e-10 -3.027219e-09 -1.390442e-08 5.660596e-09 4.197325e-09
-1.628967e-08 8.961514e-08 -4.641339e-08 -3.713532e-08 1.546153e-08 5.382044e-08
1.229325e-08 1.581737e-08 -5.481042e-08 -1.454320e-08 4.976863e-08 2.485895e-08
-1.400639e-08 3.224086e-08 -3.134514e-08 -1.103474e-08 2.373350e-08 2.967817e-08
-4.210393e-08 3.294318e-08 2.338859e-09 -1.075119e-08 -8.388068e-09 1.527173e-08
-1.767562e-08 2.962947e-08 3.919907e-09 7.371654e-09 -7.497328e-09 8.257496e-09
-1.022096e-08 9.451356e-09 -2.759563e-09 -8.149964e-09 2.863056e-09 5.100254e-09
-2.125585e-08 2.852619e-08 2.635577e-09 5.034849e-09 -8.691671e-09 5.619392e-09
-1.959992e-08 1.645946e-08 1.300484e-09 -3.271615e-09 -3.788022e-10 7.108080e-09
1.436384e-08 -2.746007e-08 -6.274035e-09 9.836468e-09 1.313377e-08 -2.618900e-09
9.206290e-09 -2.326959e-08 1.049057e-09 7.993294e-09 5.189955e-09 -2.802219e-10
1.957003e-09 1.009188e-07 -1.003745e-08 5.035305e-08 -8.330506e-08 -2.799727e-08
1.817944e-08 -3.047415e-09 8.723252e-09 1.204745e-08 -5.748794e-09 -2.377812e-08
1.095286e-08 -2.327301e-08 -2.107984e-09 -2.173263e-09 3.997683e-09 2.769642e-10
1.078005e-08 -2.612424e-08 2.766410e-09 3.897431e-09 3.745896e-09 -9.978829e-11
1.143407e-08 -2.440146e-08 -2.657956e-09 1.642495e-09 4.078873e-09 4.289805e-10
8.721171e-09 -2.281773e-08 -3.018365e-09 8.341404e-09 6.512992e-09 -1.051045e-09
1.135572e-08 -2.611963e-08 -1.704654e-09 5.418408e-09 7.725604e-09 -9.493074e-10
1.920017e-09 1.713181e-08 8.538317e-10 -1.807509e-08 -4.446785e-09 1.589254e-09
-6.690195e-09 2.085311e-08 -6.811567e-09 -7.516157e-09 3.635131e-09 -4.461532e-09
1.247217e-08 -2.643565e-08 6.986285e-10 1.396003e-09 6.092798e-09 -6.645821e-10
-8.594150e-09 5.058578e-09 -3.631082e-09 1.185780e-08 4.158383e-09 -2.999168e-09
-3.206402e-09 -6.031772e-09 2.307175e-09 9.862425e-09 2.015287e-09 -3.256364e-10
1.280921e-08 -1.411050e-08 -2.732609e-08 5.272798e-09 -2.764090e-08 7.271168e-09
2.031520e-08 -1.485622e-08 -4.449841e-08 2.550970e-09 -4.507409e-08 7.168028e-09
1.554694e-08 -1.985974e-08 -3.497729e-08 -1.550866e-09 -3.572974e-08 2.005390e-09
1.663302e-08 -2.916106e-08 -1.526431e-08 9.677236e-09 -2.674450e-08 8.242845e-09
1.717025e-08 -2.077386e-08 -3.402863e-08 -1.922754e-09 -3.562156e-08 7.431793e-10
1.666549e-08 -1.792370e-08 -1.546373e-08 1.964105e-09 -1.626144e-08 2.398122e-09
1.711975e-08 -2.928124e-08 -2.006190e-08 -1.716551e-09 -3.242900e-08 3.657089e-10
2.173872e-08 -2.973369e-08 -1.829996e-08 -1.059852e-09 -3.146898e-08 3.573190e-09
1.179246e-08 -3.557012e-10 3.243378e-10 9.968349e-09 -2.516982e-09 -1.052704e-08
8.801363e-09 -2.284041e-08 1.016071e-09 -1.516167e-10 1.358204e-09 1.162288e-10
1.088977e-08 -2.449764e-08 4.798428e-11 -3.646703e-09 4.244392e-09 2.566890e-10
1.552920e-08 -6.424900e-09 1.771096e-08 3.152310e-09 -1.065696e-09 -1.903922e-08
4.039700e-09 -1.610437e-08 1.421176e-09 7.397184e-09 1.091565e-09 1.695228e-10
1.342480e-08 1.533906e-09 1.127072e-09 1.008816e-08 -2.966578e-09 -8.847879e-09
6.998778e-09 -3.724606e-10 -5.808392e-10 5.999675e-09 -3.219292e-11 -1.900215e-09
6.208783e-09 8.305070e-10 3.637113e-11 8.680854e-09 -1.266766e-09 -6.165815e-09
-8.267960e-09 8.550058e-09 1.279249e-08 8.871457e-09 -1.156991e-08 -1.516718e-08
1.254971e-08 -3.314608e-09 1.636639e-09 6.088003e-09 -1.351557e-09 -5.526836e-09
-6.819603e-09 1.339428e-08 2.150941e-09 8.004073e-09 -4.275278e-09 -2.782212e-09
-1.258448e-08 1.683307e-08 -5.890989e-10 -1.096272e-09 -6.881779e-10 1.824761e-09
4.189637e-09 -1.723906e-08 2.545898e-09 -6.404999e-09 1.862556e-09 -3.094840e-10
-2.051495e-09 -4.879062e-09 1.380702e-09 -7.551863e-09 1.178471e-09 2.518504e-10
5.196254e-09 1.409783e-11 7.627697e-09 1.194722e-08 -3.208191e-09 -9.482806e-09
-3.315350e-09 -9.405152e-10 1.428820e-09 -9.798087e-10 3.420353e-11 -3.526524e-10
-3.387651e-09 -1.358167e-09 1.485787e-09 -1.743073e-09 2.560563e-11 -2.977287e-10
-2.900508e-09 -2.828549e-09 1.786389e-09 -3.361955e-09 1.177157e-10 -3.357172e-10
8.684683e-09 -2.711090e-08 2.831441e-09 -2.206517e-09 3.173181e-09 -1.733971e-10
8.730439e-09 -2.243532e-08 3.731495e-10 5.044899e-09 3.285113e-09 -4.715139e-10
9.013033e-09 -2.363164e-08 3.268985e-09 5.201793e-10 1.841274e-09 -1.418709e-11
3.900986e-10 -6.848921e-11 -1.842755e-10 1.565498e-09 2.574371e-10 -3.027761e-11
-3.086805e-09 1.340067e-09 5.848071e-10 8.804639e-10 7.762924e-11 -1.779004e-10
-3.021740e-09 1.533147e-09 5.309979e-10 9.534897e-10 -6.602718e-12 -8.450046e-11
-3.239556e-09 -4.548081e-09 7.770735e-10 4.926017e-09 -3.479671e-09 1.114158e-09
-3.846344e-09 -2.635685e-09 1.521513e-09 -4.180576e-09 -4.065648e-11 -5.519285e-10
-1.847012e-09 1.209799e-09 4.512297e-10 1.727582e-09 3.253052e-10 -2.069089e-10
-3.625373e-09 -9.423688e-10 1.015120e-09 -4.524845e-09 7.379794e-10 -2.711923e-10
-3.710353e-09 -6.674270e-10 1.081450e-09 -3.052273e-09 7.984564e-10 -3.176405e-10
-1.197836e-09 -2.899441e-08 -1.641189e-09 2.631646e-08 1.755802e-08 -6.915566e-09
4.432315e-09 -1.514748e-09 -4.164860e-10 3.639669e-09 1.165145e-10 -8.044706e-10
2.032045e-09 1.917622e-11 3.414935e-10 4.424970e-09 -8.429547e-11 -1.138712e-09
2.528647e-09 -1.353918e-08 1.639457e-09 1.087751e-08 3.421607e-09 -8.719002e-10
4.397760e-09 -5.783613e-10 -5.887922e-10 4.196495e-09 3.341319e-10 -5.511667e-10
4.162116e-09 -1.346127e-09 1.499851e-10 3.955201e-09 3.654719e-13 -9.343903e-10
1.087286e-08 -2.449930e-08 2.633064e-09 -3.632548e-09 4.295200e-09 4.792546e-10
-1.132366e-08 1.937445e-09 -2.852041e-10 1.502689e-08 5.004020e-09 -4.285125e-09
6.622829e-09 -2.069454e-08 2.157778e-09 -3.330667e-09 1.515578e-09 -2.602182e-10
7.485595e-09 -1.979250e-08 -5.882501e-10 -5.438063e-09 2.560947e-09 -1.834082e-10
1.380090e-08 -2.759211e-08 6.685039e-10 8.076312e-09 1.170514e-08 -1.375686e-09
-1.143119e-08 2.721470e-09 -6.481004e-09 1.833982e-08 9.449369e-09 -7.348305e-09
6.643252e-09 -1.854099e-08 1.776814e-09 -5.289045e-09 2.169800e-09 1.550787e-10
1.000131e-08 -2.059992e-08 -2.383862e-09 -5.028510e-09 4.082185e-09 8.545944e-10
1.443272e-08 -2.578868e-08 -7.289052e-09 9.412444e-09 1.132894e-08 -1.822385e-09
-1.598669e-08 -4.459892e-09 -2.333061e-09 2.631353e-08 1.599168e-08 -1.121437e-08
-3.424068e-10 8.015641e-10 3.415424e-08 1.311366e-08 -9.208625e-09 -1.967355e-08
-1.241172e-08 9.151907e-09 3.367422e-08 1.403787e-08 -1.533791e-08 -1.256718e-08
-1.170403e-09 -3.606828e-09 3.443917e-08 2.461827e-09 -4.451625e-09 -1.860774e-08
5.531388e-09 -1.810770e-08 1.666567e-09 -6.050523e-09 1.267821e-09 -1.258797e-10
1.792557e-09 1.146927e-08 1.481359e-08 -1.368468e-08 7.980202e-09 -1.110670e-08
-3.139301e-09 1.064954e-09 6.725758e-10 5.717005e-10 5.220335e-11 -1.827363e-10
-2.541970e-09 1.139379e-09 4.517400e-10 1.072039e-09 3.001354e-10 -2.144872e-10
-1.456117e-08 2.387532e-08 1.713379e-07 -3.336409e-08 3.583423e-08 -1.000763e-07
-1.235679e-08 2.537478e-08 1.030065e-07 -2.432591e-08 2.442094e-08 -6.684045e-08
-3.951406e-08 8.192641e-09 7.777473e-08 -1.765284e-08 -4.048117e-09 -2.836227e-08
-1.454408e-08 4.579418e-08 8.778851e-08 -3.181717e-08 -8.872078e-09 -1.072427e-07
-9.297683e-08 6.755387e-08 -4.595418e-10 -2.988947e-08 -6.371803e-08 2.648009e-08
-1.399133e-08 -1.165413e-09 -5.191990e-09 3.748976e-08 2.624606e-08 -1.740739e-08
1.180035e-08 -2.736497e-08 1.813341e-10 8.623366e-09 7.848961e-09 -1.579981e-09
3.085881e-08 -6.559544e-08 6.305529e-09 -8.973416e-09 3.774463e-08 3.048425e-09
5.447579e-09 -2.667569e-09 -6.199210e-10 1.245142e-09 1.072197e-10 -3.544938e-10
-2.398337e-08 1.229243e-08 -1.488576e-08 2.222923e-08 1.801561e-08 -2.276872e-08
-2.070351e-08 2.600706e-08 -7.804639e-08 7.283352e-08 8.041674e-08 -8.272782e-08
1.897638e-08 -7.603623e-08 -1.105644e-08 3.172320e-08 5.002886e-08 -1.315232e-08
8.281137e-09 -3.431410e-09 -2.745309e-08 1.852616e-08 2.865658e-08 -1.172935e-08
-1.282469e-08 9.824191e-09 -8.796711e-09 1.699988e-08 1.573399e-08 -1.370803e-08
3.469537e-08 -2.505021e-08 -4.415595e-08 4.690062e-09 7.660449e-08 5.003753e-09
2.519779e-08 -4.199271e-09 -5.276833e-08 1.210812e-11 5.028813e-08 4.566079e-09
-7.474014e-09 -1.399119e-09 9.553902e-10 1.345581e-08 4.533578e-09 -2.038573e-09
1.194167e-08 -2.044983e-08 -2.837171e-08 2.488061e-08 5.256436e-08 -1.836402e-08
-1.088019e-08 4.244876e-10 -1.611032e-09 1.510265e-08 7.998710e-09 -4.757641e-09
7.648258e-09 -2.260336e-08 1.894816e-09 6.509162e-09 3.270704e-09 -1.873684e-10
1.600286e-08 -3.321519e-08 -5.253650e-09 -8.802755e-10 1.657773e-08 -9.044468e-11
9.258753e-10 -1.952523e-09 -1.246167e-08 2.270082e-08 1.374783e-08 -1.025375e-08
1.112523e-08 -2.646989e-08 -1.739309e-09 1.560270e-08 1.761809e-08 -5.349772e-09
-1.285709e-08 1.008993e-08 -1.695941e-08 1.695817e-08 1.453671e-08 -1.279349e-08
-2.208612e-09 1.954696e-09 1.389731e-10 -1.395123e-09 -1.977444e-10 -1.061244e-10
4.634412e-09 -1.664828e-09 3.410241e-10 4.433193e-09 -4.943896e-11 -1.228253e-09
6.877644e-09 -2.890077e-09 4.098881e-10 3.415673e-09 -4.330533e-11 -1.349316e-09
1.071787e-08 -2.306873e-09 -1.470772e-09 5.185898e-09 1.920198e-10 -2.493603e-09
1.560716e-08 -4.732792e-09 -1.786422e-09 1.102039e-09 1.893886e-11 -3.169609e-09
8.937142e-09 -3.488533e-09 1.152533e-09 3.827329e-09 -1.536641e-10 -2.582753e-09
1.205862e-08 -4.275417e-09 6.309580e-10 3.009029e-09 2.552897e-10 -3.601155e-09
-3.991982e-09 2.279125e-09 1.262102e-10 -1.965268e-09 -1.005256e-09 -2.969614e-10
7.822832e-09 -3.531592e-09 -7.725820e-11 3.060279e-09 1.961721e-10 -8.639921e-10
6.534822e-09 -2.965367e-09 -4.564491e-10 2.918488e-09 1.836747e-10 -2.866822e-10
1.032455e-08 -4.742139e-09 -4.621090e-10 1.323282e-09 -6.748965e-11 -1.688975e-09
-2.977545e-10 8.082015e-10 1.170739e-10 2.683610e-09 1.036116e-10 -2.892893e-10
-2.300576e-09 1.829938e-09 4.085465e-11 -1.503334e-09 -8.662071e-11 -1.101674e-11
3.899516e-08 -1.156016e-07 -3.141604e-08 5.635194e-09 -1.022190e-07 1.093798e-08
-1.708951e-09 1.339508e-09 4.331371e-10 2.236360e-09 1.793780e-10 -1.721361e-10
6.400628e-09 -3.525909e-09 -9.801844e-10 -1.426102e-10 5.452861e-12 4.983105e-10
-2.711781e-09 1.818084e-09 3.591500e-10 1.868997e-09 1.083923e-10 -1.288170e-10
1.666223e-08 -2.827142e-08 -8.919239e-09 2.150928e-09 -1.635396e-08 2.372162e-09
5.235790e-08 -9.152743e-08 -4.859103e-08 9.453274e-09 -1.058394e-07 8.484180e-09
1.875018e-08 8.622664e-09 -5.950427e-08 -1.802848e-08 -5.106716e-08 -6.788409e-09
3.544140e-08 -4.705452e-08 -9.380724e-08 5.968811e-08 -1.199173e-07 5.957520e-08
-1.647836e-09 1.180925e-09 1.880227e-10 1.787692e-09 3.517157e-10 -1.996324e-10
2.426653e-08 2.520916e-09 -8.780768e-08 -1.637065e-08 -9.706883e-08 -7.140955e-09
-1.117799e-09 7.330665e-10 2.640117e-10 1.795553e-09 1.763252e-10 -4.395706e-11
-1.690458e-09 2.972425e-09 -9.223431e-10 -4.191891e-09 -2.135696e-09 9.744504e-10
2.138658e-08 -6.259361e-08 -8.586499e-09 2.415469e-09 -4.102334e-08 3.436628e-09
1.443959e-08 -2.740914e-08 -4.070846e-08 -1.905557e-08 -7.010118e-08 -8.909535e-09
1.725329e-08 -6.817466e-09 -2.622368e-08 -5.744050e-10 -2.517891e-08 1.731896e-09
-4.650013e-09 -4.056287e-09 -2.935476e-09 5.371369e-09 -4.940638e-09 2.531111e-09
1.060678e-08 -2.454440e-08 -1.660026e-08 -1.166630e-08 -2.781742e-08 -4.988210e-09
-4.210066e-09 1.671038e-09 3.138387e-10 -1.713007e-09 -1.058117e-09 -2.800563e-10
-4.863499e-09 3.357000e-09 -7.371206e-10 -2.034127e-09 -1.011610e-09 6.620993e-10
-2.797902e-09 3.314804e-09 -9.094139e-10 -4.025027e-09 -8.417155e-10 7.079970e-10
-5.387207e-09 -7.841541e-10 3.750602e-10 2.112969e-09 -2.124650e-09 8.376461e-10
1.977893e-08 -2.167624e-08 -2.009683e-08 -2.960693e-09 -3.474136e-08 5.433634e-10
-5.601148e-09 1.991393e-09 -1.156096e-09 1.952215e-09 -1.609511e-09 1.416802e-09
-4.298056e-09 3.210278e-09 -8.199175e-11 -2.694953e-09 -9.553116e-10 1.907293e-10
5.268102e-09 -3.003476e-10 -1.284744e-09 -6.758795e-09 -5.493068e-10 -3.910048e-10
6.250473e-09 -3.085419e-09 -5.997496e-10 8.776081e-10 5.628326e-11 -9.300882e-11
8.281614e-09 -3.452587e-09 -5.603216e-10 -3.058674e-09 -1.834756e-10 -1.834099e-11
1.463073e-08 -4.449916e-08 -1.022768e-09 -5.700655e-09 -1.900386e-08 -8.465449e-10
3.189280e-09 -1.293783e-09 -4.371199e-10 2.333581e-09 9.646550e-11 -1.115510e-10
1.461709e-08 -9.017398e-09 -2.681856e-08 2.461865e-09 -2.497601e-08 3.103027e-09
3.320367e-08 -7.994338e-08 -1.270067e-08 1.955177e-09 -6.045495e-08 4.190053e-09
3.385922e-09 1.674418e-08 -3.419542e-08 1.892112e-08 2.764111e-08 -1.752053e-08
9.533907e-09 -3.860362e-09 -5.164063e-10 -2.144591e-09 9.353279e-11 -1.031807e-09
2.314407e-08 -5.774923e-08 -6.800046e-09 7.586265e-09 -3.621122e-08 5.217226e-09
1.554135e-08 -1.353976e-08 -2.559462e-08 9.357833e-09 -3.936515e-08 1.416567e-08
-4.949499e-10 4.950246e-08 -5.947003e-08 -1.703809e-08 2.334428e-08 1.185633e-08
1.193230e-08 7.980999e-09 -4.654024e-08 -6.360078e-09 -4.002047e-08 -3.458059e-09
2.311106e-08 -8.160065e-08 -1.263102e-08 6.663738e-09 -6.100289e-08 4.839098e-09
2.728934e-08 -9.087503e-08 -1.326876e-08 -1.395858e-08 -5.873388e-08 -3.593473e-09
9.884301e-09 -4.588947e-09 -5.226486e-11 -8.294646e-10 1.385199e-10 -5.956240e-10
8.591787e-09 -3.886092e-09 -3.917531e-10 -1.139168e-09 -1.432076e-12 -6.562022e-10
-5.205493e-09 1.614577e-08 -1.837662e-08 -7.891025e-10 -1.229843e-08 1.311866e-08
8.015288e-11 1.764721e-08 -2.955851e-08 2.030151e-09 -2.253398e-08 1.523930e-08
8.015244e-11 2.183910e-09 -2.380981e-08 6.276532e-09 -2.345284e-08 1.289024e-08
-5.205493e-09 1.807386e-08 -2.048598e-08 -6.854252e-09 -1.213092e-08 1.615195e-08
9.483420e-09 -4.188384e-09 7.518055e-10 2.689512e-09 1.421551e-10 -1.922928e-09
8.806925e-09 -3.160214e-09 -9.948269e-10 -3.628679e-09 -1.424718e-10 -4.195003e-10
2.548419e-08 8.012984e-08 5.589383e-08 8.394684e-08 1.426193e-07 1.270353e-07
-8.229524e-10 1.040949e-09 -1.996110e-10 -2.967471e-09 -6.924461e-10 -2.471723e-11
5.688645e-09 4.549566e-10 -8.529484e-10 -6.534590e-09 -5.803006e-10 -1.011830e-09
-1.331212e-08 6.575109e-09 3.845822e-08 4.745490e-08 4.184075e-08 2.684133e-08
-4.396060e-09 6.114249e-09 -1.598290e-09 -5.386985e-09 -8.069725e-10 1.594816e-09
-1.617475e-08 3.081421e-08 1.494997e-07 6.983789e-08 1.085260e-07 8.162424e-08
-3.365668e-09 5.994439e-09 -2.824772e-09 -5.534166e-09 -1.670848e-09 2.117860e-09
-7.624141e-10 1.010720e-09 -1.149196e-10 -1.884637e-09 -1.358424e-10 -2.659029e-11
-3.161164e-09 1.821688e-09 2.521665e-10 -1.647763e-09 -6.072983e-10 -1.118203e-10
1.885726e-08 -3.748937e-08 -8.746975e-09 -1.120835e-08 -4.243895e-08 -4.877757e-09
1.468404e-08 1.055263e-08 -4.254051e-08 -9.266701e-09 -3.672787e-08 -8.742019e-09
1.332527e-08 -2.490227e-08 -1.732691e-08 -1.060423e-08 -2.833199e-08 -3.739731e-09
1.610594e-08 -2.116865e-08 -1.917430e-08 -9.437476e-09 -2.414052e-08 -3.214061e-09
1.861706e-08 -3.403645e-08 -5.065379e-09 -9.576676e-09 -2.729296e-08 -3.248554e-09
1.459118e-08 -3.162690e-09 -3.541421e-08 -6.936160e-09 -3.674750e-08 -4.372464e-09
6.886124e-09 -9.423689e-09 -1.414567e-08 -1.083209e-08 -1.425189e-08 -5.057056e-09
1.583256e-08 -2.232072e-08 -1.253322e-08 -7.363682e-09 -1.684429e-08 -2.539920e-09
2.630024e-08 7.940785e-09 8.891403e-09 1.796380e-08 -1.091775e-08 -2.677470e-08
-2.373587e-08 4.795739e-08 -1.073068e-07 -7.445728e-08 1.130859e-07 7.586196e-08
3.326074e-08 -5.307909e-08 -3.929133e-08 -2.834535e-09 6.719309e-08 4.644621e-09
5.216536e-09 -7.119107e-09 -1.049032e-08 -9.043816e-09 -1.073183e-08 -2.903704e-09
1.001994e-10 5.045732e-08 -3.280659e-08 -2.765023e-08 2.380859e-08 3.084778e-08
-4.323582e-08 3.772327e-08 1.445275e-08 -6.818038e-09 -7.015784e-10 2.055939e-08
-1.302349e-08 1.061865e-08 -2.897526e-09 -1.111955e-08 3.892291e-09 5.449987e-09
-2.287618e-08 2.467279e-08 -4.889079e-09 -9.524344e-09 6.180872e-09 1.169780e-08
-3.228730e-09 2.090333e-09 3.051750e-10 -1.720940e-09 -3.305511e-10 -2.073115e-10
-2.526886e-09 1.892790e-09 1.821672e-10 -1.769543e-09 -4.520838e-10 -1.312149e-10
9.409576e-09 -1.418682e-08 -3.355777e-08 -2.852350e-08 3.470713e-08 1.716507e-08
-3.926065e-09 2.561395e-09 -6.763637e-09 -6.449747e-09 -6.708636e-09 -3.440795e-09
-1.377118e-08 1.574664e-08 -7.209853e-09 -6.135518e-09 2.791145e-09 8.709259e-09
-1.696072e-08 4.664745e-09 -7.177011e-09 -2.642744e-08 1.506988e-08 1.314249e-08
4.120955e-10 -3.536478e-09 -1.792036e-08 -2.120480e-08 1.632840e-08 1.022761e-08
3.868570e-10 -1.366962e-08 -6.706042e-09 -2.129821e-08 1.428693e-08 9.990514e-09
-8.701749e-09 -7.015181e-10 -9.097641e-09 -1.992241e-08 1.289287e-08 9.861733e-09
-8.675419e-09 -1.774351e-09 -1.855511e-08 -2.108872e-08 1.759961e-08 1.229528e-08
-7.184700e-10 -1.808968e-08 3.744429e-09 -2.650085e-08 1.194386e-08 9.322219e-09
1.270914e-08 -2.827197e-08 -1.774224e-09 -1.937549e-08 2.100653e-08 6.481057e-09
-7.740531e-09 2.561396e-09 -2.686689e-09 -9.907239e-09 -4.174918e-09 -4.824824e-09
-4.275026e-09 -4.954003e-09 -6.778744e-09 -1.886211e-08 1.102754e-08 6.490621e-09
4.441609e-10 -1.370867e-08 -1.819603e-08 -2.109764e-08 1.801890e-08 1.019657e-08
-2.944559e-09 -9.844389e-09 -3.669969e-09 -2.422001e-08 1.391588e-08 6.310638e-09
-4.144951e-09 -1.503675e-08 -1.257064e-09 -3.337943e-08 1.923973e-08 1.266529e-08
-4.829409e-09 -1.823213e-08 -3.819529e-09 -4.214739e-08 3.028563e-08 1.411939e-08
-5.210329e-10 -1.402938e-08 -1.420118e-08 -2.777922e-08 2.351531e-08 1.313135e-08
8.579202e-10 -7.108989e-09 -2.732318e-09 -1.572402e-08 7.076790e-09 4.145130e-09
8.652707e-10 -7.116127e-09 -8.455775e-09 -1.564053e-08 8.486199e-09 4.036033e-09
-2.163742e-09 -5.082370e-09 -4.890213e-09 -1.207367e-08 5.303330e-09 2.980275e-09
2.058066e-09 -1.469717e-08 -3.739942e-09 1.739595e-08 9.450903e-09 -3.825085e-09
-1.575593e-08 1.278710e-08 -2.291149e-09 8.163932e-09 5.127704e-09 -7.289842e-09
-1.494608e-08 8.523994e-09 -1.229871e-09 7.478474e-09 5.028001e-09 -6.316636e-09
-8.700570e-09 5.994056e-09 -1.132123e-08 -1.563834e-08 8.685629e-09 8.431381e-09
-4.553137e-09 -4.714881e-09 -4.499559e-10 -1.910904e-08 7.864272e-09 5.405794e-09
2.922383e-09 2.462440e-08 9.959478e-08 2.349235e-08 -5.976369e-08 -5.000198e-08
-3.757916e-08 3.067117e-08 -1.906444e-08 -1.561829e-08 7.373315e-09 3.621929e-08
6.869146e-09 -4.848395e-08 -4.671915e-09 3.118337e-08 2.748964e-08 -9.363984e-09
6.017046e-08 -2.245434e-07 -2.443836e-08 3.766591e-08 1.562839e-07 -2.948509e-08
7.523660e-09 -3.028532e-08 -1.459192e-09 1.946621e-08 1.571946e-08 -4.044056e-09
-1.279824e-08 2.549788e-08 -2.282391e-08 1.206418e-08 1.301717e-08 -1.755132e-08
3.244859e-09 -1.391981e-08 -5.522843e-09 1.854182e-08 9.503475e-09 -4.694844e-09
-1.329941e-08 -4.459892e-09 -7.325818e-09 3.788521e-08 2.346446e-08 -1.667504e-08
1.425262e-09 -1.131409e-08 1.804270e-09 -6.266349e-09 1.193315e-09 3.860188e-10
-1.415422e-07 2.895562e-07 -2.198620e-07 -1.707258e-07 8.586783e-08 2.189596e-07
-1.505295e-08 7.659261e-08 3.818260e-08 2.553213e-08 -5.996652e-08 -3.716190e-08
5.448469e-10 -9.948281e-09 1.479880e-09 -6.279098e-09 7.832690e-10 -2.378763e-10
-1.564094e-08 -5.890261e-10 9.378856e-08 1.094058e-08 -4.196746e-08 -8.978829e-08
-9.213194e-08 1.368628e-07 -8.515163e-08 -8.796993e-08 1.481311e-08 1.172073e-07
7.016083e-09 -2.295413e-08 2.690451e-09 -4.979618e-09 2.467422e-09 -2.787182e-10
-1.637457e-09 -8.178987e-09 -1.183235e-09 -1.126027e-08 4.318292e-09 1.514255e-09
-7.580521e-09 2.274439e-09 2.250628e-09 -4.602316e-09 4.931698e-10 -3.896738e-10
9.271169e-09 -2.195721e-08 -4.623869e-09 -1.388534e-08 1.202464e-08 4.753791e-09
5.677823e-09 -1.931874e-08 2.238420e-09 -7.835652e-09 2.513572e-09 3.299939e-10
-1.870044e-09 1.979778e-09 -9.192647e-13 -2.778561e-09 -2.879266e-10 1.421725e-10
3.674126e-09 -1.154006e-09 -6.119819e-10 -2.962906e-09 -1.687048e-10 8.335666e-12
-1.610727e-09 -1.099643e-08 -1.380379e-08 -2.867872e-08 2.461707e-08 1.286666e-08
-7.103633e-10 1.488649e-09 -9.795986e-11 -2.829483e-09 -2.369145e-10 4.933631e-10
8.491039e-10 -1.244518e-08 -2.569415e-09 -1.545763e-08 7.243199e-09 4.109373e-09
-3.454842e-09 2.218066e-09 2.973692e-10 -1.852113e-09 -9.046186e-11 -9.657186e-11
-3.345921e-09 2.240862e-09 2.726472e-10 -1.962693e-09 -2.854176e-10 -1.428107e-10
7.049919e-09 -2.104338e-08 -5.797144e-09 -1.388268e-08 1.178165e-08 3.094875e-09
-3.210558e-09 2.032224e-09 1.548746e-10 -1.773016e-09 -4.443999e-10 -3.049205e-11
-2.845663e-09 2.015716e-09 8.189005e-13 -2.562152e-09 -1.860250e-10 1.744047e-10
9.045891e-09 -3.834094e-09 -3.562459e-10 -2.900147e-09 -4.525941e-11 -3.277325e-10
7.123644e-09 -3.732965e-09 -8.081522e-10 -8.035916e-10 8.070100e-12 -6.016408e-12
7.045872e-09 -2.833359e-09 -1.011573e-09 -2.650746e-09 -1.520052e-10 -1.342148e-11
5.809716e-09 -3.024256e-09 -7.739098e-10 -1.688705e-09 -1.223442e-10 1.831706e-10
3.385869e-10 4.587237e-10 -3.819212e-10 -2.959215e-09 -6.378275e-11 -3.494773e-10
-2.028036e-09 1.766820e-09 1.673262e-11 -2.153353e-09 -1.788168e-10 -1.265278e-10
-1.845955e-09 1.911923e-09 -7.560752e-11 -3.040186e-09 -3.612202e-10 -7.238567e-11
-3.728218e-11 5.954897e-10 -2.246558e-10 -3.878097e-09 -2.605941e-10 -2.704059e-12
-6.930166e-10 1.752025e-09 -3.936429e-10 -4.330177e-09 -5.504522e-10 4.807988e-11
3.433113e-09 -1.134209e-09 -8.656236e-10 -4.144465e-09 -2.567425e-10 3.512608e-10
1.667822e-09 -6.176748e-11 -4.510514e-10 -2.718707e-09 -1.470264e-10 -3.776568e-11
6.175728e-09 -3.119885e-09 -7.223802e-10 -2.444819e-09 -7.586309e-11 -1.331432e-10
8.584287e-10 -1.251805e-08 -8.373411e-09 -1.538785e-08 8.535374e-09 4.013431e-09
5.901154e-08 -1.251690e-07 -2.542997e-07 1.070067e-07 2.872098e-07 -1.325914e-07
7.235720e-09 -3.037864e-08 1.626864e-07 1.659351e-08 1.590442e-08 1.199906e-07
-5.426353e-08 9.802015e-09 1.945676e-07 2.732744e-08 7.172991e-08 7.961675e-08
5.009182e-09 -1.437370e-08 -1.353866e-09 -9.326219e-09 5.090089e-09 6.445128e-10
4.796688e-09 6.574999e-09 -2.183396e-10 -1.212004e-08 3.235586e-09 -2.282644e-09
5.677823e-09 -2.203629e-08 2.713140e-09 -8.600556e-09 3.917929e-09 2.168935e-10
4.029841e-09 -2.097385e-08 3.105850e-09 -1.348981e-08 5.374230e-09 2.328766e-09
6.400573e-09 -1.893106e-08 -4.694087e-09 -1.137988e-08 6.355826e-09 2.054626e-09
9.268933e-09 -3.921215e-09 2.104361e-11 1.749408e-09 1.833385e-10 -8.837223e-10
3.850830e-09 -1.397046e-08 -8.100523e-09 -1.495466e-08 9.165657e-09 5.131451e-09
-2.180927e-09 2.406532e-09 6.888841e-10 2.869048e-09 -3.544613e-11 -1.246958e-09
3.331283e-09 -5.036486e-10 -5.701311e-10 -5.238954e-09 -3.513177e-10 -7.162756e-10
1.114692e-08 -7.718703e-11 6.437967e-09 1.062592e-08 -4.209314e-09 -1.124373e-08
-3.862526e-09 6.633192e-10 1.016057e-09 -3.260989e-10 2.101861e-10 -5.334770e-10
-4.524246e-09 8.885341e-10 1.171717e-09 -7.783983e-10 5.023081e-11 -8.106578e-10
1.056821e-08 -1.901019e-09 2.738691e-09 7.861046e-09 -1.375242e-09 -6.760487e-09
-2.591682e-07 8.090134e-07 -3.032982e-07 -1.659807e-07 -4.438359e-07 -8.179366e-08
-6.151642e-08 4.957105e-08 1.407764e-07 -2.858505e-08 2.685471e-08 -9.483337e-08
3.368408e-09 2.830095e-10 7.246637e-10 5.207130e-09 -7.921031e-11 -1.378079e-09
-3.937833e-09 3.094335e-09 1.081503e-09 3.097037e-09 -2.681804e-10 -9.314139e-10
3.289065e-10 7.650709e-08 -1.247655e-07 1.172491e-08 3.246225e-08 -1.689321e-08
-1.270402e-08 5.568558e-08 -1.030129e-07 1.048998e-08 -8.234016e-09 2.933202e-08
-1.408674e-07 2.381669e-07 1.534735e-07 -3.650728e-08 -8.107477e-08 -3.133745e-07
-3.268345e-09 1.092341e-07 -8.871655e-08 8.761768e-09 3.109506e-08 1.851366e-08
-3.745938e-09 2.751272e-09 -2.512919e-10 -2.939537e-09 -1.208337e-09 2.126880e-10
-2.158613e-07 6.081113e-07 -1.243234e-07 -2.082184e-07 -2.526178e-07 9.566067e-08
-1.887509e-08 6.272004e-08 -5.629774e-08 -1.080475e-08 -6.373332e-09 -2.007499e-08
-5.150760e-10 1.945593e-09 7.262850e-10 4.597387e-09 -2.884633e-10 -1.116349e-09
3.273651e-09 5.258002e-10 2.806044e-08 -1.667109e-08 9.629185e-09 -1.688180e-08
-3.563575e-09 4.566735e-09 6.104504e-10 2.341538e-09 1.246291e-10 -9.053651e-10
6.215895e-09 -4.616937e-09 2.195382e-08 -5.196614e-09 4.151860e-09 -1.622727e-08
2.671395e-09 -4.238348e-09 4.925135e-08 2.743131e-09 -1.395175e-08 -3.028766e-08
-4.903069e-09 2.854622e-09 1.255966e-09 -2.983756e-10 -4.064375e-10 -1.069970e-09
-4.596342e-09 4.915727e-09 3.556733e-10 6.132954e-10 3.070997e-10 -4.479079e-10
-5.233473e-09 2.407192e-09 8.410086e-10 2.416669e-10 1.988734e-10 -4.627949e-10
-4.116528e-09 8.227126e-10 1.192384e-09 -8.257444e-10 9.434186e-11 -6.299651e-10
-6.615183e-09 4.736199e-09 1.378813e-10 -3.419769e-09 8.832488e-10 3.772597e-10
-2.415184e-08 3.563517e-08 -1.304691e-08 9.119765e-09 -1.500593e-08 2.375745e-08
-5.794458e-09 4.669568e-09 3.097991e-10 -1.009951e-09 6.335910e-10 4.015538e-10
-2.748312e-09 1.343140e-09 3.498664e-10 6.828476e-10 2.111407e-10 -1.520561e-10
-3.627292e-09 5.494734e-10 9.517831e-10 -5.925572e-11 -4.749312e-12 -1.777278e-10
2.102664e-09 1.576289e-09 -3.188509e-10 5.244859e-09 4.882761e-11 -8.987861e-10
-6.047398e-10 4.757101e-10 1.707523e-12 1.846762e-09 1.967537e-12 -1.851125e-10
-4.121691e-09 2.312233e-09 5.490808e-10 -4.697855e-10 6.986623e-10 -2.024099e-10
-3.659005e-09 2.373889e-09 3.568181e-10 9.168126e-10 6.207097e-10 -7.350704e-11
1.216339e-08 -2.804979e-08 -9.860427e-10 -2.537621e-09 8.771348e-09 5.050200e-11
1.121561e-08 -2.344686e-08 -8.623124e-10 5.160625e-09 4.537969e-09 -1.340585e-09
1.793758e-08 -2.040795e-08 -1.866600e-08 -9.069971e-10 1.830008e-08 1.079568e-09
8.200004e-09 1.396802e-08 -3.891360e-09 1.834787e-08 3.220182e-09 -2.367665e-09
1.105726e-08 -2.039353e-08 -4.807330e-09 9.343024e-09 7.758455e-09 -1.050965e-09
1.352330e-08 -3.193637e-08 2.594458e-09 2.160927e-09 7.184181e-09 -1.016092e-10
1.479258e-08 -2.266169e-08 -5.285348e-09 2.130116e-09 7.079172e-09 5.036727e-11
1.390933e-08 -3.672049e-08 -5.068876e-09 -1.203421e-09 1.467773e-08 -1.215107e-10
1.085815e-08 -3.052796e-08 -1.065772e-10 -4.098798e-09 6.912604e-09 4.083564e-10
8.616217e-09 -1.670487e-08 -5.962764e-09 -1.104504e-08 7.505554e-09 1.902980e-09
7.034744e-09 -1.832688e-08 1.908074e-10 -8.584899e-09 3.665743e-09 5.162385e-10
2.046873e-08 8.659276e-08 -5.308077e-08 -2.737716e-08 -3.294471e-08 3.567500e-08
1.181309e-08 -3.678841e-08 -9.385200e-09 -1.566215e-08 2.148702e-08 4.785592e-09
1.726361e-08 -3.186318e-08 -1.095617e-08 -8.763498e-09 2.840392e-08 3.568783e-09
1.716565e-08 -2.764192e-08 -1.493369e-08 -8.002174e-09 1.680054e-08 3.224920e-09
-2.667618e-09 2.402639e-08 -3.076206e-08 2.345336e-10 -2.162303e-08 -1.514699e-08
-2.878228e-08 6.283845e-08 -3.894630e-08 -4.806631e-09 -4.805707e-09 -3.154975e-08
-5.388834e-11 -1.481342e-08 2.382978e-09 1.018280e-08 2.413398e-09 -2.501533e-10
-9.522587e-10 -9.599122e-09 3.099414e-09 5.737973e-09 -7.940746e-11 5.151891e-10
8.508488e-09 -7.908440e-09 2.384026e-08 -1.635638e-09 4.379462e-10 -1.726919e-08
7.938977e-09 1.025407e-08 -3.071607e-08 -8.403082e-09 -2.659561e-08 -9.008154e-09
2.411696e-08 -3.783774e-08 -9.080143e-09 -7.047382e-09 -4.514394e-08 -9.037230e-10
-3.998377e-09 6.638524e-09 1.058789e-10 2.507891e-09 8.722492e-11 -1.482612e-09
1.467965e-08 -1.818511e-08 -2.311092e-08 -2.916489e-08 -4.729255e-08 -2.073369e-08
-1.024937e-08 1.379568e-08 -2.482748e-08 2.711477e-08 2.510492e-08 -2.843444e-08
5.828241e-09 -1.664952e-09 6.566190e-10 4.566095e-09 -1.225994e-10 -1.843486e-09
1.818618e-09 2.630241e-09 2.357918e-10 6.437120e-09 -6.816712e-10 -3.134022e-09
4.794284e-09 2.178863e-07 1.237374e-07 9.460283e-08 -3.545338e-08 2.909347e-07
5.945456e-09 4.470976e-10 4.095773e-10 6.602355e-09 -3.493758e-10 -2.277545e-09
1.138227e-08 -3.994674e-09 -1.964500e-09 3.143323e-09 -2.835448e-10 -8.007475e-10
1.702453e-09 1.446367e-08 1.331093e-08 1.728239e-08 -1.133201e-08 -1.853462e-08
-4.204865e-10 -1.278942e-08 -5.723855e-10 1.513271e-08 6.391504e-09 -2.795854e-09
-2.938100e-09 -2.240166e-09 1.507699e-09 -2.129624e-09 3.207210e-10 -2.140438e-10
1.869578e-08 -3.353363e-08 -1.733036e-09 2.664942e-09 1.781241e-08 6.694816e-10
-4.497729e-09 -1.358910e-10 1.203603e-09 -2.047016e-09 2.829624e-10 -5.114487e-10
-5.239435e-09 -6.207923e-11 1.027894e-09 -2.956588e-09 -1.637558e-10 -2.505305e-10
1.540116e-08 -4.285556e-08 -3.850139e-09 2.026906e-08 3.444918e-08 -8.680051e-09
-2.898976e-09 -2.087106e-09 1.747764e-09 -1.993978e-09 1.146783e-10 -4.516324e-10
-3.738007e-09 -1.293998e-09 1.091367e-09 -2.143914e-09 6.095154e-10 -5.288949e-10
2.587104e-09 -1.299610e-08 -7.686634e-10 -8.726967e-09 1.875228e-09 6.407290e-10
1.485940e-09 -1.062070e-08 1.352015e-09 -6.713887e-09 1.076504e-09 2.096042e-10
-4.480864e-09 -1.078073e-08 -4.747921e-10 -1.913620e-08 8.261482e-09 5.416792e-09
-1.058805e-08 8.522405e-09 6.779932e-11 -4.183404e-09 4.959830e-10 1.563826e-09
3.708700e-09 -5.703730e-10 -7.909119e-10 4.268141e-09 2.827258e-10 -1.698036e-10
-2.589316e-09 7.079362e-09 5.632135e-10 5.753624e-09 -1.508084e-09 -2.388548e-09
6.671845e-09 -3.630493e-09 -6.807794e-10 -1.505688e-10 1.432687e-12 2.582823e-12
-2.030587e-09 -7.460370e-09 7.773147e-10 -7.417554e-09 1.422832e-09 9.248538e-11
2.332844e-09 -1.458696e-08 1.826162e-09 -8.757660e-09 2.802244e-09 -1.546379e-10
-3.054134e-09 2.191303e-09 3.442462e-10 2.076747e-09 2.399501e-10 -5.192350e-10
-3.023713e-09 2.437202e-09 4.239287e-10 1.990240e-09 -5.399026e-11 -4.140677e-10
1.609281e-08 -3.977256e-08 4.010716e-10 9.400441e-09 1.510658e-08 -3.135579e-09
-2.057057e-09 -7.906729e-09 2.323830e-09 8.580563e-09 1.454534e-09 -2.683377e-10
2.984297e-10 1.530072e-09 4.951159e-10 4.118964e-09 1.043123e-10 -6.707456e-10
5.766181e-08 -1.259834e-07 -8.613160e-08 1.058421e-07 2.252285e-07 -1.819638e-07
-2.838711e-10 8.355725e-10 5.771716e-11 2.648801e-09 1.073852e-10 -3.116035e-10
-1.502027e-07 6.996871e-08 4.394365e-07 8.070636e-08 2.102715e-07 1.203591e-07
-1.350389e-09 2.853220e-09 -6.756773e-11 3.009053e-09 5.432471e-10 -8.779850e-10
-3.798031e-09 2.127435e-09 7.838952e-10 1.326152e-09 -3.111407e-11 -1.022390e-09
-1.829289e-09 2.295914e-08 1.088593e-08 -2.726777e-08 -1.631737e-08 6.969017e-09
-3.823199e-09 1.842285e-09 7.442953e-10 1.037143e-09 2.708653e-10 -3.356566e-10
8.133535e-09 5.005708e-08 -9.459520e-08 9.719770e-09 5.251745e-08 -3.257683e-08
-2.584919e-08 5.281585e-08 -4.067900e-08 -2.560342e-09 1.566263e-08 -3.409885e-08
-1.129198e-09 2.085128e-09 4.400902e-10 3.055117e-09 1.834168e-10 -4.034151e-10
5.781092e-08 -2.313438e-07 -2.403149e-07 -1.052499e-07 3.672153e-07 3.764175e-08
1.731330e-08 -2.328228e-08 -2.284038e-08 -1.684224e-08 2.467161e-08 8.519331e-09
-4.977748e-08 1.077029e-07 -1.065751e-07 -1.946822e-08 -1.102267e-07 1.498114e-08
3.862021e-08 -1.020391e-07 -1.038013e-07 3.877561e-10 1.191440e-07 -1.742604e-09
2.432134e-09 -1.516043e-08 -7.309344e-10 -1.354265e-08 5.201111e-09 2.403350e-09
3.746714e-09 -2.883836e-08 5.188096e-10 -2.408969e-08 1.786626e-08 8.427285e-09
2.046468e-08 -2.764920e-08 -2.054496e-08 -1.426265e-08 3.092865e-08 1.095422e-08
3.172200e-08 -4.032144e-08 -1.968223e-08 -3.943641e-08 6.335740e-08 2.538428e-08
3.109121e-08 -1.220751e-07 -3.919011e-09 -1.285861e-08 6.212091e-08 5.109908e-09
-5.244849e-11 -1.122673e-08 -7.651128e-09 -1.929022e-08 1.265094e-08 6.580647e-09
3.554098e-09 -1.580898e-08 1.127300e-10 -1.730754e-08 8.713709e-09 3.982820e-09
9.698718e-09 -2.181094e-08 -1.188461e-08 -1.611931e-08 1.604153e-08 4.454924e-09
8.760388e-09 -2.881616e-08 1.781743e-09 -2.296531e-08 1.733693e-08 5.905260e-09
1.173038e-08 -3.678881e-08 -7.041201e-10 -1.564625e-08 2.112188e-08 5.593272e-09
-4.144312e-09 4.103158e-09 -1.699654e-09 -2.195141e-09 -3.585763e-09 2.219290e-09
-4.240255e-09 1.012808e-09 -1.889739e-09 1.361963e-09 -2.463549e-09 1.043401e-09
-6.920488e-09 -1.733484e-08 -3.161542e-09 -2.146060e-08 -1.628517e-08 -9.690878e-09
-5.620045e-09 2.342800e-09 -1.439240e-09 1.290203e-09 -2.312024e-09 1.278564e-09
-3.044077e-09 2.613516e-09 -6.918710e-09 3.350104e-09 -6.077960e-09 3.809564e-09
-8.114817e-09 6.090333e-09 -2.929145e-09 -8.874820e-09 -7.549639e-09 -6.990817e-09
-5.932040e-09 3.176874e-09 -5.260357e-10 1.262992e-09 -2.996806e-09 2.441281e-09
7.466046e-09 -3.415311e-09 -5.591350e-10 7.811181e-10 5.805419e-11 -3.182585e-10
-5.621380e-09 1.761406e-09 5.276604e-10 1.473062e-09 -2.205586e-09 1.088679e-09
2.140700e-08 -2.734196e-08 -2.384730e-08 -4.796936e-09 2.906939e-08 2.035978e-09
-2.430613e-09 1.582656e-08 -1.695773e-08 -4.747428e-09 -1.140426e-08 -9.104684e-09
2.477435e-08 -6.289922e-08 -2.307810e-08 -5.346496e-09 4.709231e-08 2.595895e-09
1.816056e-08 -3.138649e-09 -3.147048e-08 1.395295e-08 3.310639e-08 -8.261692e-09
1.227012e-08 -3.628609e-09 -2.998488e-08 2.142991e-08 3.162189e-08 -1.105308e-08
2.831048e-08 -6.832929e-08 -4.456378e-09 -5.266882e-09 4.317368e-08 -4.092800e-09
-1.042769e-08 7.294854e-11 -1.245121e-08 2.979158e-08 2.493328e-08 -2.176554e-08
3.369263e-08 -4.695102e-08 -1.043572e-08 2.767023e-09 5.365638e-08 -3.768805e-09
1.533373e-08 -4.594523e-08 -1.096490e-09 1.769169e-09 -1.887971e-08 1.316980e-09
1.601424e-08 -1.788109e-08 -1.665175e-08 5.440836e-09 -2.075106e-08 5.678422e-09
1.555903e-08 -3.914182e-08 -3.971334e-09 8.261323e-09 -2.056889e-08 4.139728e-09
1.603945e-08 -3.060018e-08 -2.988261e-09 2.010937e-08 -3.077566e-08 9.368126e-09
2.984551e-08 -6.962559e-08 -8.131817e-09 2.053945e-08 -5.145707e-08 1.589113e-08
2.707681e-08 -4.877578e-08 -1.493088e-08 1.457821e-08 5.939332e-08 -1.015082e-08
1.663687e-08 -3.735469e-08 -5.513801e-09 2.780382e-09 -2.786603e-08 1.726433e-09
1.735418e-08 -3.823777e-08 -6.901800e-09 -1.234086e-08 -2.429592e-08 -8.673246e-10
2.170007e-09 -4.153697e-10 -2.102114e-10 3.060425e-09 2.290246e-10 6.923129e-12
2.049099e-10 -3.005699e-10 -7.880052e-11 1.618982e-09 3.059513e-10 8.251555e-11
1.699174e-08 -3.798598e-08 -4.085973e-09 1.081793e-09 -2.046540e-08 1.624582e-09
-1.766793e-09 9.941568e-10 2.718237e-10 2.074482e-09 1.566438e-10 -3.384197e-10
1.028333e-08 -1.425738e-08 -1.508075e-08 -1.631552e-08 -2.358781e-08 -7.629384e-09
1.576761e-09 2.473550e-08 -3.631166e-08 1.110219e-08 -2.611729e-08 2.120441e-08
3.585595e-09 -2.519156e-08 -2.119588e-09 1.716251e-08 -1.501398e-08 5.860720e-09
8.015244e-11 8.071636e-09 -2.307935e-08 5.324781e-09 -2.126512e-08 1.242399e-08
-7.512932e-10 8.355592e-10 1.536926e-11 2.781706e-09 1.866467e-10 -4.123550e-10
4.947154e-10 1.877165e-10 -1.865996e-10 2.356431e-09 1.083820e-10 -1.032140e-10
1.605519e-08 -4.723787e-08 -2.750761e-09 1.916563e-08 -2.684515e-08 9.875285e-09
8.695304e-09 6.768335e-09 -3.084601e-08 5.699783e-09 -2.781040e-08 1.161171e-08
-9.051710e-10 8.221808e-10 7.939338e-11 2.028235e-09 1.165485e-10 -1.709584e-10
-1.675354e-09 1.188408e-09 4.479705e-10 1.912471e-09 2.078712e-10 -3.050227e-10
-2.693625e-08 3.860491e-08 1.481918e-08 1.342568e-08 4.138731e-08 1.078262e-08
-5.747275e-10 -1.228687e-09 -1.080313e-08 8.158459e-09 -1.095342e-08 7.569352e-09
2.466242e-09 -9.813790e-09 -7.723634e-09 1.252654e-08 -1.531350e-08 8.384146e-09
-5.287778e-09 -1.005410e-09 -6.169976e-09 1.097686e-08 -1.120548e-08 1.021591e-08
-1.997999e-09 1.188750e-09 2.728244e-10 1.501943e-09 1.358629e-10 -2.289702e-10
-1.107606e-09 7.503289e-10 2.617742e-10 1.812441e-09 2.862117e-10 -3.102630e-12
3.037506e-09 2.925080e-09 -7.462022e-10 -7.633353e-09 1.496532e-10 -7.516048e-10
-1.114088e-08 1.903951e-08 -1.762499e-08 4.182548e-09 -1.907974e-08 2.005644e-08
-4.696932e-10 6.640712e-10 1.010640e-10 2.133099e-09 2.714937e-11 -1.359818e-10
4.232117e-10 7.707164e-10 4.222311e-11 3.472901e-09 2.546690e-10 -1.102465e-10
3.213490e-09 -8.699244e-09 -4.967261e-09 6.292304e-09 -6.732697e-09 2.287447e-09
-7.141732e-10 7.128387e-10 7.775514e-11 1.909338e-09 1.443168e-10 -1.131317e-10
6.451454e-09 -1.702411e-08 -1.497442e-09 -7.848602e-09 3.189315e-09 1.084782e-09
-1.251690e-09 -9.694329e-09 4.659637e-10 7.460888e-09 -6.110040e-09 2.130597e-09
6.385045e-09 -2.627002e-09 -9.153269e-10 -3.639595e-09 -2.038285e-10 3.377604e-11
8.997933e-09 -2.131428e-08 1.994796e-09 -2.980592e-09 2.245138e-09 -1.287528e-10
4.436651e-09 -1.613526e-08 2.892341e-09 -4.573491e-09 1.090812e-09 -1.127119e-10
5.091513e-09 -1.694525e-08 2.636438e-09 -5.315641e-09 1.653345e-09 -2.144468e-11
3.732790e-09 -1.546780e-08 1.191997e-09 -6.781682e-09 1.145797e-09 -6.425388e-11
4.435848e-09 -1.719214e-08 2.191783e-09 -4.673704e-09 1.115495e-09 -2.480141e-10
-1.622585e-09 9.562187e-10 1.966962e-10 1.452342e-09 2.202631e-10 -3.346130e-11
-2.661204e-09 1.212307e-09 4.186678e-10 9.213084e-10 2.285491e-10 -2.115810e-10
-2.222376e-09 1.154697e-09 4.339293e-10 1.165687e-09 -5.754952e-11 -1.325371e-10
5.721519e-09 -1.958144e-08 1.205074e-09 -1.079551e-08 4.776168e-09 1.312189e-09
-1.816977e-09 4.060615e-09 -5.169991e-10 -5.139994e-09 -1.031119e-09 8.378513e-10
-1.649428e-08 6.560285e-09 -5.083958e-09 1.073459e-08 -9.681785e-09 1.405798e-08
-9.853452e-09 1.151410e-08 -1.094806e-09 -2.664875e-09 -2.675802e-09 6.289707e-09
-1.139906e-08 1.151522e-08 -3.366335e-09 -5.618058e-10 -3.094488e-09 6.836538e-09
-9.001899e-09 1.081061e-08 -2.050001e-09 -2.052963e-09 -1.838155e-09 5.319422e-09
-3.356578e-09 1.259608e-09 7.075027e-10 5.243235e-10 1.151657e-10 -1.914218e-10
-2.287734e-09 1.184733e-09 3.072596e-10 1.741911e-09 4.794276e-11 -2.541073e-10
-3.103554e-09 1.174644e-09 6.663421e-10 8.473535e-10 1.792236e-10 -3.820688e-10
-2.704443e-09 1.271482e-09 5.090870e-10 9.441674e-10 7.590928e-11 -1.176805e-10
-3.081871e-09 1.241426e-09 6.265017e-10 4.460081e-10 1.698681e-10 -1.819649e-10
-1.175085e-08 1.462603e-08 -4.789207e-09 -1.880269e-11 3.602190e-09 -4.275757e-09
-9.879861e-10 6.796348e-10 1.104827e-10 1.165155e-09 5.085773e-11 -3.372960e-10
-4.574178e-09 -1.157333e-09 1.336487e-09 -4.366899e-09 5.541518e-10 -1.361095e-10
-3.430140e-09 -2.160888e-09 1.337551e-09 -2.242977e-09 1.393312e-10 -5.733716e-10
-2.264125e-09 2.044168e-09 1.650875e-10 -1.375029e-09 -8.578982e-11 -3.766143e-11
-2.928639e-09 -3.783494e-09 1.810743e-09 -3.552144e-09 5.422442e-12 -3.389471e-10
-2.249918e-09 -4.318378e-09 1.638437e-09 -3.429901e-09 5.954716e-10 -4.364098e-11
-2.519163e-09 -4.358836e-09 1.531796e-09 -4.872647e-09 1.259435e-10 -3.489665e-10
-2.695446e-09 1.957466e-09 8.486234e-11 -1.851379e-09 -6.469830e-11 3.985656e-11
-2.426749e-09 -4.570846e-09 2.038477e-09 -3.356153e-09 -1.781941e-10 -6.792304e-10
-1.869079e-09 3.275844e-08 1.841028e-08 -4.446738e-08 -5.496445e-08 1.897101e-08
1.609323e-08 8.787566e-09 2.147883e-08 -2.103625e-08 -1.383169e-08 1.637642e-08
-1.660275e-08 4.742667e-08 3.188006e-08 -3.442021e-08 -3.848414e-08 4.522019e-08
4.996601e-09 -2.468069e-09 -7.100621e-10 -2.121186e-09 -1.684474e-10 -4.428613e-11
4.225637e-09 -1.749032e-09 -6.290604e-10 -2.187530e-09 -2.265812e-10 1.117455e-10
3.439049e-08 -1.789751e-08 2.493288e-08 -1.479857e-08 -1.056874e-09 3.563244e-08
4.140266e-09 -1.592046e-09 -6.560013e-10 -2.971291e-09 -7.188739e-11 -2.397027e-11
3.731153e-09 -1.158636e-09 -5.690592e-10 -3.010854e-09 -2.881502e-10 8.649936e-11
3.096671e-09 -8.664678e-10 -5.954197e-10 -3.966191e-09 -2.062250e-10 1.768021e-10
8.059411e-09 -3.549135e-09 -1.016515e-09 -1.477764e-09 -9.757606e-11 -1.892257e-10
-7.466579e-09 3.723677e-08 -5.139983e-08 1.296931e-08 3.329901e-08 -3.082920e-08
2.399106e-08 -6.593031e-08 -7.336968e-09 3.884396e-08 5.223313e-08 -1.829828e-08
-2.753660e-08 4.554663e-08 6.707865e-09 -4.083486e-08 -3.683485e-08 6.481357e-08
-1.898898e-08 -2.643924e-08 -6.348103e-09 4.920164e-08 3.755154e-08 -2.135173e-08
-5.867573e-09 1.674419e-08 -1.846210e-08 1.654064e-08 1.621054e-08 -1.204601e-08
-3.698236e-08 2.951798e-08 -5.383751e-09 9.258516e-09 5.476724e-09 -2.047407e-08
9.812982e-10 9.806504e-08 4.409137e-08 -8.210366e-08 -6.713184e-08 6.234742e-08
-1.426361e-08 7.578571e-09 -8.344273e-09 -1.518763e-08 8.402711e-09 1.036132e-08
-1.718769e-08 4.282891e-09 -2.648259e-09 -3.072514e-08 1.404559e-08 2.033069e-08
3.997407e-09 -2.331177e-08 -3.708582e-09 -2.121290e-08 1.594315e-08 4.955415e-09
-7.940033e-10 -4.067822e-09 -9.899756e-09 -1.624894e-08 1.023915e-08 6.741752e-09
-2.078605e-08 1.367597e-08 6.270853e-09 -1.075702e-08 -2.068796e-09 7.295227e-09
2.816606e-09 1.362751e-08 -1.394267e-08 1.382539e-08 -6.669615e-09 -9.844611e-09
-4.056790e-09 1.917320e-10 1.233865e-09 -1.082501e-09 1.462718e-12 -4.200227e-10
2.808558e-09 2.367264e-09 -2.049933e-08 -1.743922e-08 1.953274e-08 1.368134e-08
6.102944e-10 -1.787154e-08 -1.057122e-08 1.657980e-08 -2.207471e-08 1.106622e-08
9.654127e-09 -2.185042e-08 -5.627072e-09 -1.607732e-08 1.582331e-08 4.708928e-09
1.258751e-08 -4.520445e-09 -3.335449e-08 -1.603081e-08 -3.220306e-08 -8.678541e-09
1.681971e-08 -5.461666e-08 -8.988622e-09 1.223618e-08 -3.613487e-08 7.451127e-09
4.913843e-09 -3.288104e-08 -6.339436e-09 2.426070e-08 -2.696771e-08 1.151870e-08
1.287725e-08 -2.089450e-08 -2.362779e-08 2.801011e-08 5.130310e-08 -2.341894e-08
-1.333425e-07 2.855891e-08 1.656950e-07 1.033653e-08 9.084344e-08 1.562239e-08
-4.410885e-08 4.911366e-08 -5.624014e-08 1.766273e-08 -7.067854e-09 -1.683468e-08
3.219796e-08 6.374785e-08 -9.641045e-08 -5.085132e-10 6.096130e-08 7.722572e-09
-7.658263e-09 9.285501e-08 -1.700792e-08 -6.277952e-08 -1.812127e-08 7.581912e-09
-1.430989e-08 1.130181e-08 -9.930684e-11 -1.436003e-08 1.949419e-09 7.925748e-09
-5.708773e-09 6.207778e-09 -2.279802e-09 -4.594408e-09 -1.412870e-09 3.494452e-09
1.178784e-08 -7.072346e-09 1.154906e-08 2.582577e-09 5.871987e-10 -1.271047e-08
1.104415e-08 -5.365039e-09 6.540773e-09 3.688637e-09 -9.538860e-12 -8.214106e-09
7.467208e-09 3.389789e-08 -5.031034e-08 -9.959264e-09 -2.468995e-08 3.521897e-09
1.282350e-08 -7.277302e-09 1.300410e-08 1.632869e-09 1.733519e-09 -1.393821e-08
9.692114e-09 -7.104483e-09 6.988946e-09 1.864785e-09 2.812460e-10 -7.477587e-09
-8.598480e-09 2.726317e-08 -1.649190e-08 -9.293588e-09 -5.667431e-09 1.469857e-08
6.536221e-09 1.540887e-10 1.718124e-08 -1.192863e-08 4.017806e-09 -1.059166e-08
9.783759e-09 -8.022076e-09 2.385634e-08 -1.458767e-09 3.719377e-10 -1.687597e-08
-4.873479e-09 3.061728e-09 3.910972e-08 1.180044e-08 -1.425556e-08 -2.153427e-08
2.499994e-08 4.721140e-09 -1.420731e-09 -1.145372e-08 -2.038287e-09 1.141419e-08
-5.868807e-09 -6.588518e-09 -1.192459e-08 1.667633e-08 -1.947346e-08 1.282643e-08
1.462309e-09 1.310633e-08 1.236542e-09 -1.731664e-08 -8.199031e-09 3.348418e-09
-1.989237e-08 2.058444e-08 2.085724e-10 4.319551e-09 -8.484098e-10 -8.884509e-09
-6.191536e-09 2.101529e-08 -7.399985e-09 -1.002061e-08 2.832588e-10 -4.344700e-09
-1.790781e-08 9.735057e-09 6.051827e-10 1.555129e-08 5.216134e-09 -9.799472e-09
-1.540603e-08 3.134665e-08 -2.941731e-08 1.985137e-08 -5.017437e-08 3.898970e-08
-1.828356e-09 -9.599122e-09 3.251184e-09 6.620952e-09 6.094948e-10 2.706855e-10
-3.543163e-10 -1.032831e-08 -1.986373e-09 1.554610e-08 7.658081e-09 -2.500988e-09
-6.331893e-09 1.248865e-09 -1.889084e-09 1.171909e-08 3.610049e-09 -1.847251e-09
-2.253244e-09 -9.219576e-09 1.993030e-09 7.801545e-09 8.002850e-10 6.079869e-11
-3.570961e-09 -1.160501e-08 2.153545e-09 1.673396e-08 5.490746e-09 -2.344151e-09
8.829570e-09 1.921408e-09 -2.779389e-08 1.037188e-08 -2.718175e-08 1.481799e-08
-2.745281e-09 -1.033142e-08 9.477050e-10 8.547368e-09 1.937848e-09 -7.335650e-10
-4.392273e-09 -6.554864e-09 -9.677202e-10 1.186310e-08 4.261554e-09 -2.114532e-09
-3.918895e-09 2.155696e-08 -2.199697e-08 -1.060181e-08 -1.100609e-08 1.267331e-08
-1.711777e-09 1.449828e-09 -3.198541e-10 -3.822146e-09 -8.071683e-10 2.436048e-10
-4.404690e-09 4.734609e-09 -1.164973e-09 -3.884491e-09 -1.026177e-09 9.606240e-10
-1.355451e-09 -4.535208e-09 1.882268e-09 -3.077323e-09 4.279461e-10 -5.114157e-10
-2.792101e-09 -2.950301e-09 1.738336e-09 -2.869398e-09 3.040145e-10 -3.697322e-10
-3.016258e-09 -1.528296e-09 1.508426e-09 -2.138532e-09 4.235012e-10 -6.770329e-10
-4.208864e-09 1.261040e-10 1.117809e-09 -9.797163e-10 -8.871493e-11 -2.704243e-10
-4.284308e-09 -7.714172e-10 1.011974e-09 -2.798429e-09 8.878575e-10 -5.542310e-10
-6.241215e-09 7.129216e-09 -2.566663e-09 -2.793188e-09 -1.589293e-09 2.128354e-09
-2.229843e-09 -3.464441e-09 1.810736e-09 -2.601610e-09 9.899392e-11 -2.233087e-10
-7.003871e-09 2.349366e-09 -6.372258e-10 2.237873e-09 -3.855897e-09 3.698030e-09
-5.595658e-09 1.969383e-09 2.396252e-10 -3.604712e-10 -1.879021e-09 1.397423e-09
-6.010916e-09 3.950518e-09 -1.352974e-09 1.439337e-09 -2.873850e-09 2.786788e-09
-7.014911e-09 7.379670e-09 -2.609258e-09 -1.916914e-09 -2.349982e-09 4.185289e-09
-4.835996e-09 2.796480e-09 -7.593890e-10 -1.499053e-09 -1.214063e-09 1.020815e-09
9.601085e-10 -1.441171e-08 1.874840e-09 7.867199e-09 1.769537e-09 -2.528822e-10
2.983822e-09 -1.679578e-08 3.238274e-09 6.356091e-09 1.447635e-09 -1.829623e-10
-6.784670e-10 -1.259143e-08 2.779698e-09 7.188097e-09 1.155654e-09 3.474614e-10
-2.076176e-08 3.875347e-08 -2.447849e-09 4.590943e-09 -4.498044e-09 1.179425e-08
-9.349762e-09 1.064070e-09 -1.929547e-10 4.293170e-09 -5.892049e-09 3.959045e-09
-6.074548e-09 -2.903544e-09 -5.773175e-09 7.841677e-09 -1.036979e-08 7.628338e-09
4.607968e-09 -8.482612e-09 2.383677e-08 3.161070e-10 2.740133e-10 -1.645282e-08
-8.342031e-09 1.006414e-08 -6.507188e-09 -9.989324e-10 -4.512833e-09 7.489188e-09
1.027108e-08 -4.979732e-10 5.394172e-08 -1.749375e-08 1.348120e-08 -4.007847e-08
7.818644e-09 -1.614539e-09 1.432890e-08 1.126471e-08 -5.052487e-09 -1.317015e-08
1.821431e-08 -4.579301e-09 2.060319e-09 -6.157958e-09 1.821274e-09 -1.042442e-08
-1.228836e-08 1.168038e-08 -1.532193e-09 6.441416e-09 -4.474446e-09 7.861284e-09
-4.340055e-09 4.768400e-09 -1.772921e-09 -4.822630e-09 -1.514354e-09 2.130351e-09
3.006270e-09 7.879186e-10 3.161956e-08 1.266366e-08 -1.042107e-08 -2.061737e-08
-5.389598e-09 8.742890e-09 -3.273346e-09 -3.554898e-09 -3.123085e-09 4.499427e-09
-1.742557e-09 1.116277e-09 3.440048e-10 1.665715e-09 2.169351e-10 -5.628797e-11
-4.189511e-09 1.656279e-08 6.411348e-09 -1.282033e-08 8.734515e-09 1.319208e-10
3.353375e-09 -1.111131e-09 3.055901e-08 7.126695e-09 -7.271522e-09 -2.102623e-08
-8.720352e-08 9.534100e-08 -1.076919e-07 4.866276e-08 -1.049454e-07 5.501687e-09
-2.241083e-08 4.911366e-08 1.515143e-08 1.291332e-08 -5.982154e-08 -2.084367e-08
-8.081251e-10 1.244462e-09 3.156098e-11 2.605439e-09 1.049477e-10 -3.729450e-10
-6.914211e-10 1.540251e-09 1.804210e-10 2.938039e-09 2.974911e-10 -3.064440e-10
-4.908099e-08 7.521794e-08 3.090050e-08 -1.408775e-08 -2.976214e-08 -2.376032e-08
-3.600632e-09 2.393551e-09 7.736389e-10 1.936525e-09 -2.606497e-10 -7.041036e-10
3.530232e-08 -6.900626e-08 -3.040902e-08 -1.390880e-08 9.297547e-08 3.654306e-10
2.238958e-08 -2.357887e-08 -2.835564e-08 1.230512e-08 3.524632e-08 -4.272928e-09
4.171870e-09 -2.906400e-08 -5.918439e-09 3.424385e-08 2.671604e-08 -1.150120e-08
-1.757725e-08 2.939996e-08 -2.793762e-08 2.153714e-08 2.719762e-08 -3.480451e-08
1.628192e-08 -4.160364e-08 -8.648548e-10 -7.128054e-09 1.998600e-08 1.818485e-09
-4.741759e-08 7.304656e-08 4.289318e-09 1.470219e-09 -2.080789e-08 -2.772550e-08
3.951136e-08 -9.392422e-08 -1.315875e-08 -4.105119e-08 7.029232e-08 1.209465e-08
2.678105e-08 -7.652379e-08 -7.005862e-09 -2.499576e-08 5.399371e-08 1.289990e-08
8.261403e-09 -2.518149e-08 -5.188072e-11 -1.152070e-08 8.701222e-09 1.571936e-09
-1.414290e-08 -1.754769e-10 9.245874e-10 2.835473e-08 1.790008e-08 -1.405000e-08
1.725068e-08 -3.064601e-09 -3.941502e-08 -1.372463e-08 3.734005e-08 1.028599e-08
1.693151e-08 -2.365889e-08 -2.475308e-08 -1.637027e-08 2.562925e-08 6.988246e-09
-1.371413e-08 5.172467e-10 -1.425201e-08 2.778342e-08 2.521977e-08 -1.810593e-08
-3.515839e-08 1.601450e-08 -1.397882e-08 4.134751e-08 2.877984e-08 -3.291801e-08
-2.583561e-08 1.460398e-08 -2.180402e-09 2.217535e-08 1.027267e-08 -2.088714e-08
6.576440e-09 -2.085563e-08 -6.978793e-09 1.430930e-08 1.275978e-08 -2.051276e-09
8.677409e-09 -6.775404e-08 -1.697108e-08 6.506419e-08 7.269992e-08 -4.193014e-08
-3.471214e-09 2.115915e-09 3.731229e-10 -1.843975e-09 -4.184070e-10 -2.260969e-10
-2.434724e-09 2.118560e-09 -1.059663e-11 -3.294985e-09 -7.881663e-10 1.109147e-10
-5.591375e-09 5.930717e-09 -3.538991e-09 -1.981672e-09 -2.530781e-09 2.504899e-09
-3.196556e-09 2.125931e-09 1.777734e-11 -2.475997e-09 -1.057696e-09 6.232115e-10
-5.159073e-09 3.346394e-09 4.106937e-12 -1.801406e-09 -1.783206e-09 7.573067e-10
-5.387207e-09 1.815383e-09 7.132317e-10 8.771359e-10 -2.056667e-09 3.875905e-10
-6.633051e-09 4.327262e-09 1.532801e-10 -1.145361e-09 -9.354111e-10 1.418099e-09
-5.301731e-09 3.790356e-09 -2.334406e-09 -6.580642e-10 -2.104827e-09 1.309260e-09
-9.233420e-09 1.674419e-08 -3.162185e-08 2.473254e-08 2.581456e-08 -1.963145e-08
-5.466148e-09 5.382859e-10 1.884002e-10 4.308618e-09 -3.782018e-09 1.787422e-09
-3.685553e-08 2.803346e-08 -2.152001e-09 9.285040e-09 8.987349e-09 -2.272320e-08
1.913926e-08 2.592915e-08 -6.353568e-08 7.810756e-08 -6.818167e-08 6.105073e-08
2.140706e-08 -4.654982e-08 -7.589499e-09 1.660398e-09 -4.644896e-08 3.579654e-09
1.687739e-08 -5.774762e-08 -6.808005e-09 9.226853e-09 -3.610080e-08 4.947317e-09
-8.577711e-09 1.603500e-08 -2.647524e-08 2.379986e-08 2.125932e-08 -1.757471e-08
1.600693e-08 -6.796488e-08 -9.653305e-09 2.233844e-08 -5.111768e-08 1.124727e-08
6.091308e-09 -5.015702e-09 -1.822361e-08 7.867798e-09 -1.763670e-08 8.004571e-09
-5.298745e-11 5.608215e-09 7.599702e-09 -1.540642e-08 6.642657e-09 -3.951829e-09
-4.448923e-10 7.386210e-09 -5.096368e-09 -9.421212e-09 -1.775499e-09 3.435670e-09
-9.426249e-09 1.573280e-08 -6.831589e-09 -7.219635e-09 -1.427043e-09 9.816698e-09
-2.765714e-09 1.396595e-08 8.153972e-10 -1.181547e-08 1.826229e-09 -1.377191e-09
-5.775675e-09 -2.643924e-08 -2.093335e-08 5.698467e-08 4.613231e-08 -2.983121e-08
-1.370465e-08 2.036225e-08 -4.514277e-10 -2.223731e-09 -3.465496e-09 7.513393e-09
1.089603e-09 6.645669e-08 -5.662526e-08 1.205850e-08 2.552826e-08 -4.851245e-08
5.525242e-09 -2.023425e-09 -6.230957e-08 3.400838e-08 5.911532e-08 -3.023343e-08
-1.034791e-09 9.369634e-10 2.730376e-10 2.034590e-09 3.236782e-10 -1.152309e-10
-1.978694e-09 1.172202e-09 4.197420e-10 1.481558e-09 2.405953e-10 -5.413126e-11
4.354743e-08 5.296221e-10 1.958126e-08 -3.173875e-08 -1.840987e-08 3.872389e-08
-2.857193e-09 1.195847e-09 4.983836e-10 9.147818e-10 4.806140e-10 6.382228e-11
-1.451292e-08 5.490023e-08 -1.081309e-08 -3.847413e-08 -1.249713e-08 2.731271e-08
-3.418750e-09 1.406523e-09 6.485121e-10 5.641825e-10 7.711232e-11 -1.357212e-10
-8.122183e-10 1.153044e-09 -5.496426e-11 2.559712e-09 3.179812e-10 -3.325322e-10
-3.303395e-08 1.688592e-08 -6.807452e-09 3.204785e-08 2.885815e-08 -2.938931e-08
-1.377261e-08 6.249839e-08 -5.758599e-08 2.323980e-08 2.328581e-08 -3.990246e-08
6.306558e-09 -4.472108e-09 -2.792677e-08 1.481513e-08 -2.512253e-08 1.283957e-08
-1.178900e-08 1.859940e-09 -6.974712e-09 1.184836e-08 -1.035611e-08 1.231080e-08
-9.815588e-09 1.599911e-08 -9.180416e-09 2.652525e-09 -9.195457e-09 1.398458e-08
7.452534e-09 -2.253308e-08 8.744427e-10 6.393673e-09 3.597595e-09 2.651606e-10
6.259107e-09 -2.366899e-08 -1.880510e-09 1.073772e-08 5.844100e-09 -1.837482e-09
-1.129603e-09 6.797611e-10 7.257506e-11 1.118701e-09 2.054079e-10 -9.649459e-11
7.746941e-09 -2.379756e-08 2.914937e-09 7.705307e-09 3.586289e-09 -6.225240e-10
8.502740e-09 -2.485818e-08 -7.063853e-09 7.277216e-09 -1.381605e-08 2.645067e-09
6.354235e-09 -2.788801e-08 2.154738e-09 1.361566e-08 9.642501e-09 -1.427909e-09
1.049796e-08 -7.672200e-09 -2.286264e-08 6.437134e-09 -2.104905e-08 5.679297e-09
1.075265e-08 -2.360395e-08 -7.966643e-09 1.097744e-08 1.128252e-08 -2.233505e-09
1.687739e-08 -3.665994e-08 -3.791811e-09 7.431470e-09 -2.526096e-08 3.399376e-09
8.684683e-09 -2.206575e-08 3.485836e-09 -2.104685e-09 9.499593e-10 -1.924129e-10
9.151044e-09 -2.388438e-08 3.041056e-09 -5.206426e-09 2.688785e-09 -1.835956e-10
1.044247e-08 -2.686220e-08 7.583181e-10 8.174917e-09 7.281746e-09 -1.406670e-09
1.612251e-08 -3.250120e-08 -4.491989e-09 -5.602179e-09 1.311716e-08 1.532700e-09
9.913173e-09 -2.785668e-08 -6.368905e-11 -8.131744e-10 5.217014e-09 3.976111e-10
2.125992e-09 -1.218243e-08 2.043237e-09 -4.842376e-09 -4.227728e-11 -5.930475e-10
9.195781e-09 -2.547068e-08 4.203644e-10 8.319771e-09 7.011282e-09 -7.328650e-10
-3.845483e-07 2.333760e-07 3.534520e-07 4.519746e-08 -9.511659e-08 4.884818e-07
1.087269e-08 -2.616532e-08 3.144953e-09 -7.505655e-10 2.765151e-09 5.770695e-11
9.844161e-09 -2.281189e-08 3.111061e-09 -4.456830e-10 2.119448e-09 -6.367240e-11
-8.973755e-08 -5.832829e-08 4.058264e-07 -1.700992e-08 -2.091731e-08 6.294069e-08
-2.178467e-07 3.697340e-07 1.340023e-07 1.699654e-07 2.763716e-07 1.306036e-08
5.703384e-08 -1.428613e-08 5.266549e-08 2.544264e-08 2.239075e-08 7.972283e-08
1.292416e-10 -2.275666e-09 -4.257670e-09 -8.199832e-09 -6.005784e-09 -2.554904e-09
-1.847089e-11 -1.887079e-08 -3.549906e-10 -1.739238e-08 -1.386166e-08 -4.920949e-09
-2.979242e-09 1.531085e-09 5.650538e-10 1.204254e-09 1.521938e-10 -1.647842e-10
-2.663617e-09 1.315948e-09 3.812795e-10 7.118617e-10 1.030442e-11 -2.687806e-11
2.350821e-07 4.806204e-09 1.483170e-07 -8.350134e-08 -1.233184e-07 2.837413e-07
-6.013088e-08 -5.832829e-08 3.849365e-07 -4.957365e-09 -2.527335e-08 8.649019e-08
7.439377e-09 1.329824e-08 -5.985758e-09 1.744100e-08 4.488707e-09 -1.029535e-09
7.537028e-09 1.358511e-08 -6.037922e-09 1.725358e-08 4.405769e-09 -1.018801e-09
-2.135008e-09 1.177932e-09 4.652998e-10 1.540374e-09 1.991784e-11 -2.407098e-10
2.825601e-08 1.087145e-08 -6.994130e-09 2.935921e-08 -4.682075e-09 1.581914e-08
-2.444220e-09 1.187592e-09 4.983036e-10 1.193708e-09 2.108494e-10 -3.693269e-10
1.896296e-10 1.531115e-10 -6.424683e-11 1.646439e-09 2.193235e-10 8.307599e-11
-5.544303e-10 4.393339e-10 2.790213e-12 1.719860e-09 4.046145e-10 4.474304e-11
-2.457664e-09 2.371587e-08 -1.213386e-08 1.958481e-08 3.116973e-09 -6.237189e-09
3.923834e-09 1.753315e-08 1.866379e-08 2.551704e-08 1.318699e-08 1.276349e-08
2.973195e-10 5.960836e-10 1.307576e-11 2.726132e-09 -4.250755e-11 -3.427700e-10
2.737904e-09 -1.076222e-09 -2.769895e-10 2.516556e-09 3.554779e-11 -2.419474e-10
-1.181839e-08 1.753315e-08 2.212524e-08 2.966423e-08 1.114387e-08 1.312814e-08
-7.972923e-10 -6.179908e-09 1.577296e-09 -5.904092e-09 3.882839e-10 3.933632e-11
-8.218870e-09 2.357680e-08 8.453335e-09 1.222830e-08 -5.383063e-10 -6.804930e-09
9.656245e-10 -8.663292e-11 -2.082304e-10 2.097504e-09 2.178473e-10 1.256732e-10
1.260184e-09 -3.008114e-10 -2.593272e-10 1.711384e-09 1.047047e-10 1.438572e-11
1.546802e-09 -3.419887e-11 -3.232998e-10 2.877483e-09 2.974183e-10 -1.435634e-10
-3.402953e-09 -8.423013e-10 1.380338e-09 -2.983221e-09 7.208815e-10 -6.209910e-10
-3.738009e-09 7.375691e-10 1.092751e-09 -1.303145e-09 5.559063e-10 -5.543546e-10
-3.402953e-09 -3.200698e-09 1.390296e-09 -3.734236e-09 6.577212e-10 -6.938892e-10
-1.458697e-09 1.163734e-09 1.015825e-10 2.306310e-09 1.832692e-10 -3.412755e-10
-5.385151e-09 -1.771475e-09 1.234059e-09 -5.617957e-09 2.811115e-10 1.662652e-10
-3.906495e-09 -1.240213e-09 1.436669e-09 -1.722190e-09 2.499112e-11 -1.376250e-10
-4.260870e-09 -1.234545e-09 1.177042e-09 -5.093522e-09 1.378102e-09 -2.395301e-10
6.493730e-10 2.215739e-10 -1.239659e-10 2.803037e-09 2.028259e-10 -3.771050e-10
3.415890e-10 1.200133e-10 -2.206942e-10 2.160639e-09 1.406159e-10 -4.013000e-10
5.349277e-11 2.506515e-10 -8.901568e-11 1.793966e-09 8.292500e-11 -1.643264e-10
5.891020e-09 -2.460020e-08 6.714727e-10 1.515210e-08 9.719915e-09 -2.716200e-09
1.730782e-09 -1.421936e-08 -2.995940e-09 -9.936408e-09 5.455972e-09 1.405885e-09
1.266609e-08 6.513381e-08 -2.644097e-08 3.536251e-08 1.365731e-08 -2.611757e-09
-3.266446e-09 -6.524182e-09 8.150791e-10 -8.223723e-09 2.241991e-09 2.122705e-10
-3.266446e-09 -2.743963e-09 8.314718e-10 -7.381868e-09 1.990810e-09 1.638000e-10
-5.512391e-09 1.238288e-08 -9.810652e-09 -2.880476e-09 -5.822730e-09 7.854456e-09
-2.167093e-09 -9.681861e-09 -3.631441e-09 1.539622e-08 7.623304e-09 -3.414441e-09
-5.516341e-09 7.857613e-09 -1.473464e-08 7.534824e-09 -1.326612e-08 1.099851e-08
-5.512391e-09 1.405523e-08 -8.718181e-09 -7.870275e-09 -3.206501e-09 9.189080e-09
9.080822e-09 -4.957503e-09 -6.338396e-11 -1.707734e-09 3.033462e-11 -1.016560e-09
5.268391e-09 -2.291090e-09 -6.678156e-10 2.122376e-09 5.344380e-11 -3.880585e-10
1.167692e-08 -1.042316e-11 1.701196e-09 -1.087149e-08 3.461083e-09 -6.155236e-09
9.148419e-09 -1.961957e-08 -1.788310e-08 1.820363e-08 1.995055e-08 -6.433729e-09
4.339463e-10 8.062352e-09 3.170627e-09 -1.222266e-08 3.065114e-09 -4.197122e-09
2.170114e-08 -6.928709e-09 -3.689770e-08 -2.953082e-09 -4.918666e-08 3.831947e-09
3.546499e-09 8.140014e-10 -1.767289e-10 -7.472697e-09 4.990388e-10 -7.626109e-10
1.034779e-08 -6.113949e-09 3.874885e-09 -1.759547e-09 7.388578e-10 -4.468311e-09
5.371829e-09 -1.332516e-09 -7.821885e-10 -4.290442e-09 -5.446039e-10 -1.309847e-10
1.490775e-08 -3.109207e-08 -9.533850e-09 -1.381386e-09 -1.687930e-08 5.603660e-10
1.456959e-08 -3.071694e-09 -2.789170e-08 -7.249485e-09 -2.650898e-08 -1.715935e-09
2.032465e-08 -4.494332e-08 -2.791537e-08 2.754069e-09 -4.999849e-08 6.735985e-09
-5.096170e-09 1.298030e-08 -3.464137e-09 -8.341769e-09 -5.291580e-10 3.267083e-09
2.037593e-08 -1.882603e-08 -3.164450e-08 9.462309e-10 -3.369960e-08 6.022283e-09
2.687235e-08 -4.633120e-08 -3.850186e-08 -3.296169e-09 -6.909994e-08 -2.144038e-09
2.160302e-08 -2.125780e-08 -1.797303e-08 -3.364876e-10 -3.322351e-08 3.508071e-09
5.511246e-08 -1.323181e-07 -1.918133e-08 2.188614e-08 1.120296e-07 -2.134155e-08
-1.337373e-08 1.294658e-08 -1.970439e-09 9.989380e-09 5.460558e-09 -6.111180e-09
1.048856e-08 -1.307844e-08 -2.695810e-08 2.648173e-08 3.147737e-08 -1.264434e-08
-2.118980e-09 -3.641944e-09 1.926508e-09 -2.443704e-09 1.358554e-10 -7.290484e-10
2.724149e-08 -6.280093e-08 1.012514e-09 -7.294124e-09 3.748761e-08 7.853537e-09
1.951645e-08 -3.495583e-09 -4.937594e-08 1.292655e-08 4.892921e-08 -1.202850e-08
1.301277e-08 -3.647829e-08 -2.415209e-08 2.060939e-08 3.336900e-08 -8.730216e-09
1.833686e-08 -1.856578e-08 -2.422430e-08 9.930310e-09 3.048930e-08 -3.427089e-09
4.304899e-08 -8.418971e-08 -1.822260e-08 2.921250e-08 7.550257e-08 -8.121353e-09
2.389821e-08 -4.831627e-08 -3.627881e-08 1.690973e-08 4.988886e-08 -9.621131e-09
3.315111e-08 -3.675047e-08 -2.887113e-08 -5.091785e-09 5.305049e-08 7.477879e-09
2.500792e-09 -1.616585e-08 3.153053e-09 7.470500e-09 1.277514e-09 8.041345e-11
1.011495e-08 -2.179361e-08 6.173768e-10 1.198061e-09 2.173725e-09 -1.062745e-10
1.602143e-08 -2.367367e-08 -1.912082e-08 5.751943e-09 -3.374363e-08 5.879269e-09
1.011495e-08 -2.406231e-08 -1.393564e-09 1.629616e-09 3.423733e-09 4.149900e-10
1.215122e-08 -2.225102e-08 -1.564236e-09 -6.486937e-10 3.882160e-09 3.260217e-10
1.155623e-08 -3.263332e-08 -1.092197e-09 2.877313e-09 8.343524e-09 1.080766e-10
1.240144e-08 -1.935991e-08 -2.812876e-08 -2.132013e-08 -5.183865e-08 -1.582737e-08
2.313340e-08 -4.147922e-08 -5.929265e-09 7.624915e-09 -4.080489e-08 5.274065e-09
7.337023e-09 -2.258650e-08 3.466807e-09 4.792726e-09 1.460061e-09 -1.217280e-10
9.266568e-09 -2.307846e-08 3.123320e-09 1.083313e-09 1.647734e-09 4.998635e-11
7.707951e-09 -2.396688e-08 3.495721e-09 2.311477e-09 1.815770e-09 4.466483e-11
2.338146e-08 -3.729156e-08 -2.117908e-08 1.183445e-08 -4.079479e-08 1.187405e-08
2.564775e-08 -6.762195e-08 -1.620619e-08 -3.678248e-08 -5.966235e-08 -1.113907e-08
-9.788693e-09 -2.091596e-09 6.389790e-08 -3.338749e-08 -2.072981e-08 3.868611e-08
-1.701340e-08 4.457761e-08 -9.135696e-08 6.439526e-08 6.873559e-08 -7.569445e-08
-3.524554e-09 1.094560e-09 7.832561e-10 3.611564e-10 1.404574e-10 -2.727896e-10
-3.323938e-09 1.380392e-09 6.302887e-10 5.542051e-10 9.953549e-11 -1.415552e-10
6.860930e-08 -9.843736e-08 -7.906664e-08 3.496710e-08 1.838852e-07 -3.202251e-08
1.693600e-08 3.525547e-08 -9.545589e-08 -4.572109e-09 6.426107e-08 -2.702044e-09
-7.995716e-09 3.217375e-08 7.129500e-08 3.001368e-08 -5.202723e-08 -6.780624e-08
-1.176540e-07 1.020290e-07 -9.635973e-08 -5.155372e-08 3.531447e-08 9.249346e-08
-9.532984e-10 -1.099234e-09 3.199262e-08 5.281265e-09 -5.635536e-09 -1.695977e-08
3.759190e-08 7.219407e-08 -2.278654e-07 2.489588e-08 -5.034516e-08 -1.861689e-07
4.293493e-08 -5.088719e-08 -7.294681e-08 5.051766e-08 1.310160e-07 -2.992358e-08
-2.240991e-08 -6.657059e-08 -2.276350e-08 6.944314e-08 6.634334e-08 -4.790931e-08
9.314654e-08 2.743779e-08 -9.881231e-09 3.907782e-08 -3.078613e-09 1.035648e-07
9.773105e-09 9.987257e-08 2.149834e-08 1.729550e-08 -1.575623e-08 3.374117e-08
1.233426e-08 -5.028809e-08 -7.597285e-08 5.359933e-08 1.173649e-07 -4.590896e-08
-1.303644e-09 -5.656658e-09 1.991905e-09 -4.095791e-09 5.520124e-10 -2.880971e-10
-1.001507e-08 4.062165e-08 -5.825822e-08 3.197043e-08 7.284385e-08 -4.515160e-08
5.612051e-09 -2.259029e-09 -6.766555e-10 -2.513036e-09 -2.271986e-10 -1.360845e-11
5.789269e-09 -2.732043e-09 -7.852150e-10 -1.758565e-09 -7.536927e-11 1.984073e-10
1.720157e-09 -1.218768e-08 2.478254e-09 -5.999113e-09 6.970498e-10 -5.640791e-10
-3.224386e-09 -5.089329e-09 1.249894e-09 -6.331695e-09 3.050145e-10 1.165788e-10
5.202857e-09 -2.658272e-09 -7.436376e-10 -2.054597e-09 -1.964435e-10 1.127526e-10
-3.928842e-09 1.064233e-10 1.406959e-09 -2.406092e-09 2.306344e-10 -6.945652e-10
-2.230245e-09 -3.664233e-09 1.900239e-09 -3.651831e-09 6.423784e-10 -6.678903e-10
8.816524e-09 -4.020015e-09 -8.563266e-10 -1.281213e-09 9.727220e-12 -5.753028e-10
-9.523711e-10 -8.145288e-09 -9.590746e-10 -1.015945e-08 2.452009e-09 8.319819e-10
4.533669e-09 -1.332681e-09 -7.636323e-10 -4.378905e-09 -2.509869e-10 -7.386286e-11
-2.785617e-09 -5.882965e-09 1.310764e-09 -6.932919e-09 8.534391e-10 -2.362206e-10
-1.264670e-09 -7.647723e-09 2.423220e-09 -4.780226e-09 -1.807435e-12 -4.426025e-10
-2.641254e-09 -3.968551e-09 1.173435e-09 -5.096873e-09 9.814514e-10 2.480146e-10
-8.905083e-10 -8.488954e-09 2.210543e-10 -8.161687e-09 8.485977e-10 4.749572e-10
5.214013e-09 -2.634186e-09 -7.828937e-10 -2.287655e-09 -5.748801e-11 4.469425e-11
5.860089e-09 -2.999041e-09 -6.820877e-10 -2.475951e-09 -1.866839e-10 3.630540e-11
4.908456e-09 -2.075460e-09 -8.093402e-10 -3.192755e-09 -2.791132e-10 1.099021e-10
-9.770025e-10 1.332831e-09 -2.435430e-11 -2.106002e-09 -3.076353e-10 1.111545e-10
6.727836e-10 4.587237e-10 -3.595044e-10 -2.898347e-09 -1.650660e-10 -2.389589e-11
-1.644824e-10 -8.054013e-09 -1.850478e-09 -1.197043e-08 4.456829e-09 2.177294e-09
1.108583e-09 4.646594e-10 -5.149354e-10 -3.684436e-09 -5.990621e-10 2.233618e-10
1.105491e-09 4.587237e-10 -3.788621e-10 -3.043670e-09 -1.367746e-10 -1.629941e-11
-2.265796e-10 4.393339e-10 1.952438e-11 1.893002e-09 2.688373e-10 -9.447554e-11
-2.384851e-09 1.313975e-09 3.291345e-10 9.889418e-10 5.637668e-11 -1.630631e-10
-1.089445e-09 1.147870e-09 1.138192e-10 2.211820e-09 -3.659651e-11 -3.903787e-10
9.294201e-10 1.442748e-10 -3.028537e-10 -2.235124e-09 -2.933753e-10 5.535017e-11
2.525287e-10 6.907221e-10 -4.146856e-10 -3.433000e-09 -3.724053e-10 -2.081535e-10
3.023094e-08 -7.729084e-08 -5.118102e-09 6.726803e-09 4.027655e-08 4.260858e-10
2.434786e-08 -8.373659e-08 -2.230673e-08 3.457034e-08 7.765693e-08 -1.693438e-08
-1.133433e-08 1.372489e-08 -1.128169e-08 -1.863007e-08 1.044163e-08 1.502260e-08
-8.642567e-10 1.778784e-09 -4.209568e-10 -4.258352e-09 -4.975365e-10 -9.881873e-11
5.915106e-08 -4.662298e-08 -3.849271e-08 -4.264803e-08 1.181903e-07 1.956917e-08
2.057713e-08 -3.265140e-08 -2.840720e-08 -6.292122e-09 3.823272e-08 5.308658e-09
2.025598e-08 9.294440e-09 -4.895974e-08 -1.852990e-08 4.619419e-08 1.180890e-08
-5.466149e-09 -3.730212e-09 1.941665e-10 5.110570e-09 -3.487044e-09 1.669233e-09
-4.503036e-09 1.644483e-09 7.127765e-11 -9.156760e-10 -9.296033e-10 2.783783e-10
-4.661775e-09 5.358753e-10 1.130380e-09 -3.434127e-12 -8.371683e-10 1.295846e-10
7.830693e-09 -1.977606e-08 -1.927619e-09 -1.160159e-08 -1.404519e-08 -3.190816e-09
1.557721e-08 -3.798496e-08 5.809653e-10 -1.211005e-08 -2.253864e-08 -2.329784e-09
2.592078e-08 -4.605723e-08 -2.157925e-08 -2.237325e-08 4.169285e-08 9.986099e-09
2.937039e-08 -4.286606e-09 -4.664838e-08 -1.543756e-09 5.236050e-08 -5.073791e-10
2.214595e-08 3.537127e-08 -8.615566e-08 1.973900e-08 5.744206e-08 -2.143230e-08
3.373987e-08 -2.464400e-08 -6.034087e-08 -2.912348e-08 7.378689e-08 1.843353e-08
-9.112003e-09 7.074477e-09 1.429368e-10 5.101953e-10 -3.426510e-09 3.546833e-09
-6.817810e-09 3.745702e-09 -2.820939e-10 1.043402e-09 -2.235035e-09 2.292001e-09
-7.329165e-09 5.463527e-09 -2.547652e-09 5.199027e-09 -4.593065e-09 4.600000e-09
-8.713904e-09 -1.847615e-09 -6.885026e-09 -2.097336e-08 1.407415e-08 1.275157e-08
-4.461479e-09 8.475968e-09 -1.219557e-09 -5.962640e-09 -6.902942e-10 2.926936e-09
-1.228622e-08 3.831556e-08 1.563556e-08 2.890970e-08 1.842971e-08 1.480669e-08
-7.900263e-09 7.508714e-09 -8.258679e-10 -3.405383e-09 -3.286331e-09 3.177095e-09
7.241046e-08 -2.045219e-07 -7.643825e-08 -6.675565e-08 2.038150e-07 1.885224e-08
-1.002719e-08 1.326418e-08 -3.362687e-09 -5.418438e-09 -1.381163e-09 8.610249e-09
2.241724e-08 -2.266519e-08 -2.779104e-08 -2.102969e-08 4.445536e-08 1.496315e-08
-1.544911e-09 9.386536e-10 1.576221e-10 1.449592e-09 1.703742e-10 4.825307e-11
-3.523633e-09 1.160404e-09 6.836682e-10 5.166094e-10 -5.143563e-11 -2.427141e-10
-2.099495e-09 1.227809e-09 2.793976e-10 1.176028e-09 2.206216e-10 -1.519595e-10
6.780184e-09 -3.277586e-09 -8.361503e-10 -5.650451e-10 -8.676970e-11 -1.259545e-10
6.497773e-09 -3.466478e-09 -8.433696e-10 6.741747e-10 1.239272e-10 -1.393463e-11
-6.780461e-10 5.045333e-10 3.874900e-11 1.342764e-09 1.985920e-10 -1.542995e-10
-3.212289e-09 1.680349e-09 6.445369e-10 1.030612e-09 3.691112e-10 -4.710429e-10
-1.955605e-09 1.027328e-09 1.927141e-10 1.016778e-09 2.330027e-10 -1.055602e-10
-3.616620e-09 2.137700e-09 4.133622e-10 -1.826123e-09 -4.498302e-10 -2.233075e-10
-1.608480e-09 1.159736e-09 2.967080e-10 2.063055e-09 1.502857e-10 -1.679754e-10
-2.279875e-09 1.074716e-09 3.733991e-10 1.675624e-09 4.389133e-11 -3.128377e-10
-1.721680e-09 1.166426e-09 2.716520e-10 1.847475e-09 2.760713e-10 -1.750975e-10
-4.471233e-09 1.441027e-09 7.228191e-10 -9.096306e-10 -1.050941e-09 -2.293561e-10
-4.204046e-09 1.356380e-09 3.066940e-10 -1.036914e-09 -1.201679e-09 3.201685e-10
-2.553214e-09 1.456760e-09 4.941230e-10 1.439783e-09 3.423026e-10 -1.980495e-10
3.433519e-09 -3.285566e-11 -7.565903e-11 4.617914e-09 -1.083744e-10 -8.393579e-10
5.595322e-09 -2.422631e-09 -1.719007e-10 2.883873e-09 4.503964e-11 -6.027248e-10
-3.183841e-09 -6.029773e-09 8.175385e-10 9.855607e-09 2.165778e-09 -7.444645e-10
4.422883e-09 -1.513380e-09 -4.210721e-11 3.641281e-09 1.804514e-10 -5.571287e-10
-1.880908e-09 -9.032602e-09 2.901067e-09 6.912825e-09 5.576524e-10 -5.340830e-10
-9.702945e-09 8.521551e-09 7.724088e-11 2.263138e-09 -6.240052e-10 -2.453714e-10
1.551589e-09 -3.079143e-10 -5.820677e-12 3.573611e-09 3.209451e-10 -1.410543e-10
5.144081e-10 -1.271770e-08 2.734893e-09 6.719675e-09 5.110470e-10 2.969838e-10
1.511859e-09 -2.884309e-11 1.463625e-10 3.834107e-09 7.894516e-11 -4.946732e-10
2.496741e-09 -3.363598e-10 -7.917889e-11 3.792099e-09 1.992573e-10 -2.895202e-10
-2.475249e-09 -6.115425e-09 1.738511e-09 8.521111e-09 1.217586e-09 -1.899859e-10
4.232303e-09 -1.840676e-08 3.278866e-09 5.964906e-09 1.438013e-09 1.664305e-10
2.320608e-09 -1.801075e-08 1.693403e-10 1.246743e-08 5.440695e-09 -1.749313e-09
-1.237730e-09 2.446873e-09 -5.709559e-10 -4.729994e-09 -5.594463e-10 -9.781625e-13
-3.757892e-09 -3.199460e-09 8.127401e-10 -6.598444e-09 1.405279e-09 5.096787e-10
7.105769e-10 2.789602e-09 -5.366654e-10 -7.646654e-09 -2.728796e-11 4.626913e-10
1.188042e-09 8.375700e-10 -3.015872e-10 -4.093494e-09 -4.867614e-10 -9.056866e-11
-3.251455e-09 1.532260e-09 6.706231e-10 9.691509e-10 2.069573e-10 -1.228855e-10
-2.400240e-09 2.898945e-09 -3.935328e-10 -3.900784e-09 -8.917547e-10 4.051063e-10
5.606260e-09 -1.776611e-08 1.280884e-09 -4.264153e-09 5.570997e-10 -1.714010e-10
-1.347470e-09 1.667939e-09 -1.348226e-10 -3.390347e-09 -6.317716e-10 -1.180542e-10
7.881982e-09 -2.154071e-08 1.752904e-09 4.984603e-09 1.966725e-09 -7.016732e-10
9.266569e-09 -2.826531e-08 2.974218e-09 1.568194e-09 3.551909e-09 2.986556e-11
8.159160e-09 -2.151378e-08 3.208362e-09 -3.765230e-09 1.677447e-09 2.711978e-10
7.483312e-09 -1.872512e-08 6.015988e-10 -4.701657e-09 1.796857e-09 2.968696e-10
7.711513e-09 -2.055174e-08 2.156234e-09 -2.598068e-09 1.823061e-09 -1.381084e-11
1.223592e-08 -3.013455e-08 1.831904e-09 -4.918661e-09 7.099998e-09 7.280337e-10
8.915121e-09 -2.156200e-08 1.111783e-09 -3.179842e-09 2.713465e-09 2.615474e-10
9.893528e-09 -2.826562e-08 2.715577e-09 -5.562389e-10 4.321142e-09 1.405249e-10
-2.756944e-09 1.960819e-09 -9.958478e-11 -3.024810e-09 -7.906833e-10 4.215848e-11
1.478480e-08 -2.308454e-08 -1.095214e-08 2.447907e-09 1.366849e-08 -6.833527e-11
-2.512275e-09 1.222777e-09 5.660319e-10 1.502764e-09 1.910505e-10 -1.357612e-10
-1.376174e-09 9.418457e-10 9.227374e-11 1.483224e-09 1.764784e-10 -2.189633e-10
-9.502479e-10 2.507625e-09 -3.253537e-10 -4.705981e-09 -9.376893e-10 5.126997e-10
-3.055259e-09 1.528345e-09 4.290002e-10 5.005454e-10 1.123337e-10 -1.710447e-10
-3.222419e-09 1.489004e-09 5.379599e-10 5.981882e-10 9.954759e-11 -1.977230e-11
-1.408469e-09 9.373053e-10 2.553446e-10 1.460271e-09 1.583540e-10 -6.934209e-11
-1.709695e-09 1.904655e-09 -1.843019e-10 -3.233347e-09 -1.064899e-09 -1.793472e-10
-3.206171e-09 2.237130e-09 -1.478750e-10 -2.754163e-09 -4.941230e-10 1.622502e-10
-3.758855e-09 1.217487e-09 7.685315e-10 1.646887e-10 3.027999e-10 -4.770143e-10
-3.849494e-09 5.482859e-10 1.115652e-09 -7.065175e-10 1.911593e-11 -3.756146e-10
7.690423e-09 -3.630493e-09 -6.018350e-10 -2.803241e-10 -5.639489e-12 -8.825940e-11
-4.269687e-09 -6.465060e-10 1.349042e-09 -1.944125e-09 -1.295876e-10 -4.899219e-10
-3.677060e-09 1.345990e-10 9.732832e-10 -1.734439e-10 2.546330e-11 -2.888976e-10
-3.092214e-09 2.017733e-09 2.384390e-10 -2.483803e-09 -3.758354e-10 -5.459322e-11
-1.978180e-09 1.843655e-09 -3.788390e-10 -3.751823e-09 -5.049505e-10 8.719692e-11
1.089764e-08 -2.027400e-08 -8.530470e-09 1.010598e-08 1.197216e-08 -2.656270e-09
1.919803e-09 -1.178255e-08 1.042467e-09 -9.047786e-09 1.949281e-09 8.210686e-10
-5.846578e-09 2.197623e-09 1.648626e-09 -3.372012e-09 -5.143719e-10 -6.631262e-10
1.697706e-08 -3.941622e-08 -1.090256e-10 -3.141206e-09 1.485164e-08 1.160670e-09
-2.903466e-09 -4.374810e-09 2.075219e-09 -6.798544e-09 4.208992e-10 3.719604e-11
2.430448e-08 -1.774709e-08 -2.527494e-08 3.226779e-09 3.091559e-08 9.727694e-10
1.548887e-08 -5.845457e-08 -3.280445e-09 1.277477e-08 2.510850e-08 -2.940502e-09
-2.081501e-10 -7.801937e-09 1.941202e-09 -4.284339e-09 1.815305e-10 -6.268807e-10
1.732422e-08 -4.051623e-08 -1.133808e-08 -9.500962e-09 2.460862e-08 2.847371e-09
-3.899173e-09 -3.950327e-09 1.714830e-10 -7.824369e-09 1.935488e-09 1.100206e-09
-1.685142e-09 4.563347e-08 -3.058931e-08 -1.745001e-08 -5.008082e-09 1.182423e-08
1.643045e-08 -3.283108e-08 -1.455858e-08 2.349760e-08 -5.587955e-08 2.451612e-08
-3.908076e-09 2.490506e-10 1.402117e-09 -1.352793e-09 1.241678e-10 -2.990651e-10
-1.890060e-09 -6.812440e-09 1.568351e-09 -5.154470e-09 6.801801e-10 -3.291860e-10
8.475354e-09 -3.488533e-09 1.592075e-09 3.954390e-09 -4.646749e-11 -2.517054e-09
3.785349e-09 -1.386847e-09 -3.713747e-10 2.913689e-09 2.234156e-10 -2.164806e-10
9.265331e-09 -3.630648e-09 -8.540302e-10 7.775878e-10 1.061650e-10 -4.372897e-10
5.786595e-09 -2.422631e-09 -3.247613e-10 2.888992e-09 5.037270e-11 -5.764437e-10
-6.773224e-09 -6.778751e-09 -9.789617e-10 2.002989e-08 9.230198e-09 -5.379999e-09
9.799607e-09 -4.220630e-09 -6.531469e-10 6.054463e-11 3.338441e-12 -7.267649e-10
8.002134e-09 -3.542299e-09 -1.203325e-09 1.015104e-09 5.063605e-11 2.750213e-10
-3.193304e-10 4.381018e-08 -4.870191e-08 -4.996889e-09 -2.505286e-08 -8.354478e-09
-9.885771e-08 1.612718e-07 1.789377e-07 -6.948611e-08 1.225679e-07 -1.463543e-07
1.421516e-08 -2.951659e-09 -1.599045e-09 -5.913281e-09 1.161746e-09 -3.422071e-09
-7.898871e-08 1.668267e-07 1.927582e-08 -3.201339e-08 1.016131e-07 -5.368729e-08
1.433284e-09 -4.753375e-09 -1.114738e-08 -1.034281e-08 -1.051617e-08 -4.766499e-09
-2.597932e-09 -8.155377e-09 -8.117208e-09 -1.253561e-08 -1.532579e-08 -6.117800e-09
-7.059011e-09 4.517561e-09 -8.241119e-09 -8.890069e-09 -8.926469e-09 -6.528847e-09
-1.410032e-08 9.921632e-08 4.384779e-09 -6.242321e-09 4.898040e-08 -6.694432e-09
-7.463274e-09 3.341706e-08 -4.670486e-08 -5.317559e-11 -3.209854e-08 -1.592428e-08
-2.948524e-07 3.755323e-07 6.496053e-07 2.435013e-07 4.966365e-07 4.588595e-07
6.111540e-09 -2.634186e-09 -7.658270e-10 -2.508264e-09 -3.102074e-11 -8.027401e-11
-3.403287e-09 -1.111574e-08 7.019059e-10 -1.440652e-08 -9.889619e-09 -5.344707e-09
1.186835e-08 -1.428613e-08 9.173587e-08 2.837385e-08 2.050399e-08 6.390970e-08
5.349355e-10 -8.433902e-09 -7.780441e-09 -1.365367e-08 -1.537239e-08 -7.297250e-09
-1.470023e-08 9.498811e-08 1.964568e-08 -6.703699e-09 -7.940138e-09 4.059133e-08
-5.744993e-08 4.246106e-08 2.038065e-08 4.363832e-09 -2.305483e-08 5.374127e-09
1.319645e-08 -5.887957e-09 1.755534e-08 3.141770e-09 -1.346427e-09 -1.819379e-08
9.658569e-09 -4.068757e-09 -1.381938e-09 1.225613e-10 2.344443e-10 -4.008712e-10
-2.881240e-08 7.978464e-09 -9.929890e-10 -2.792950e-08 9.073316e-09 1.607358e-08
-3.674362e-08 -1.674263e-08 -1.973413e-08 -6.762153e-08 5.205713e-08 4.493385e-08
1.017323e-08 -4.176200e-09 -9.677459e-10 -7.828132e-10 7.931489e-11 -9.722356e-10
1.055243e-08 -3.994263e-09 -6.748979e-10 1.751467e-09 1.116005e-10 -1.652888e-09
1.483358e-08 -5.062739e-09 -1.764229e-09 -1.860737e-09 5.990826e-10 -3.148853e-09
9.746023e-09 -3.317503e-09 -1.796227e-10 3.222333e-09 5.743139e-11 -2.096967e-09
6.464499e-09 -2.202760e-08 3.381740e-09 4.541122e-09 1.661640e-09 1.818971e-10
6.460465e-09 -3.630493e-09 -6.733289e-10 -2.033937e-10 4.807285e-11 9.168000e-11
8.326857e-09 -3.921215e-09 8.508660e-11 1.577216e-09 1.047213e-10 -1.028649e-09
3.238651e-08 -7.478860e-08 -1.960033e-08 4.365874e-08 -8.102263e-08 2.335576e-08
7.530208e-09 -2.267966e-08 2.370360e-09 3.623037e-09 1.683838e-09 -1.031160e-10
5.962491e-09 -1.961071e-08 2.839336e-09 6.548883e-09 1.590168e-09 2.149758e-11
-1.629858e-08 2.173150e-08 -6.814757e-09 -2.736345e-09 2.750107e-09 -1.008307e-08
-1.661774e-08 1.134842e-08 -7.492872e-10 6.909376e-09 3.850937e-09 -5.946136e-09
-1.085566e-08 4.635997e-08 2.436510e-08 -4.933533e-08 -4.486105e-08 3.704317e-08
1.394801e-08 -2.725958e-08 -1.884294e-08 -1.746745e-08 -3.812558e-08 -1.281784e-08
1.630904e-08 -3.178220e-08 -1.766450e-08 -1.096724e-08 -3.546759e-08 -5.033158e-09
-9.523708e-10 -3.710403e-09 -1.004212e-09 -1.042483e-08 2.350069e-09 8.106232e-10
4.241544e-09 -1.564207e-08 2.168956e-09 -8.335724e-09 2.288912e-09 6.192269e-10
-8.774899e-10 -1.155214e-08 1.311300e-09 -1.055332e-08 3.013105e-09 2.608136e-10
-7.376608e-09 9.577041e-09 7.106974e-08 9.554667e-09 -2.784968e-08 -3.255488e-08
1.740335e-10 2.361172e-08 -7.171202e-09 -1.233297e-08 -4.013457e-10 -1.867614e-09
-7.196826e-08 3.126909e-08 2.380618e-07 3.081860e-08 1.207708e-07 5.074977e-08
1.833833e-07 5.165007e-08 -6.949524e-08 1.090001e-07 9.510367e-08 1.609925e-07
-5.739372e-09 6.497710e-09 1.143672e-10 -1.122506e-09 9.758468e-10 -2.197944e-10
-4.637905e-09 2.433415e-09 6.237408e-10 -5.730173e-10 4.865361e-10 -4.450600e-10
-2.239927e-09 4.384662e-09 4.572023e-10 3.083983e-09 4.957627e-10 -1.605375e-09
1.405750e-09 2.805302e-09 4.339446e-09 9.585343e-09 -1.682184e-09 -4.231896e-09
6.585244e-09 4.888359e-09 1.164229e-10 1.027291e-08 -1.626393e-09 -4.793318e-09
-2.503944e-09 -3.486520e-09 1.331432e-09 -5.308464e-09 1.083549e-09 -5.265643e-10
-2.617251e-09 2.395047e-09 5.250804e-10 2.264895e-09 3.913292e-11 -4.932439e-10
-3.713577e-09 -3.497701e-09 1.014395e-09 -5.058986e-09 8.003383e-10 -2.624839e-10
-6.558056e-10 -8.175953e-09 1.675316e-09 -7.489138e-09 1.748329e-09 -3.898050e-10
-4.751819e-09 -3.939081e-09 2.570784e-10 -7.531313e-09 1.897276e-09 7.173328e-10
1.291024e-08 -2.705942e-08 -2.541414e-08 2.686465e-08 5.577838e-08 -2.198786e-08
-6.321995e-09 -9.207759e-10 3.744500e-10 3.152105e-09 -3.443075e-09 1.971386e-09
2.936131e-08 -3.119869e-08 -2.975450e-08 -1.085132e-08 4.038196e-08 3.564396e-09
-4.953731e-09 8.307905e-10 8.072047e-10 4.714349e-10 -1.267655e-09 1.337356e-10
3.820974e-08 -7.539747e-08 -1.698099e-08 -4.159604e-08 8.175308e-08 1.554945e-08
6.726983e-10 2.653209e-10 -2.181848e-10 2.836149e-09 4.003676e-10 -1.862264e-10
1.689165e-08 -2.376257e-08 -1.000181e-08 -1.629942e-08 2.537844e-08 7.522024e-09
2.381121e-08 -4.186144e-08 -3.880207e-09 -4.039375e-09 2.947597e-08 2.443235e-09
3.232068e-09 -9.715442e-10 -4.262302e-10 2.970584e-09 3.600461e-10 -6.247974e-11
2.625094e-08 -4.601183e-08 -3.596733e-09 -2.225038e-08 4.265643e-08 1.266998e-08
2.550397e-08 -9.933906e-09 -5.355717e-08 -8.928972e-10 4.680476e-08 3.244435e-09
1.196042e-08 -1.462058e-08 -3.573311e-08 -2.875894e-08 3.595540e-08 1.589442e-08
1.610084e-08 -5.201380e-08 -5.371290e-09 -3.362569e-08 3.684883e-08 8.286319e-09
-8.280455e-09 2.760518e-09 -1.774020e-09 -5.292441e-09 2.756768e-09 1.536237e-09
-2.570802e-09 1.294499e-09 4.600689e-10 1.045537e-09 1.035160e-10 -2.170308e-11
-1.851050e-09 1.145487e-09 3.426974e-10 1.139902e-09 9.740653e-11 -6.654910e-11
-7.117576e-09 1.190047e-09 1.808377e-09 -7.162294e-09 3.259814e-10 3.762598e-10
-1.996522e-09 1.164234e-09 2.883951e-10 8.547385e-10 1.043829e-10 -2.983702e-11
-3.180937e-09 1.503671e-09 5.374690e-10 5.728915e-10 6.611511e-11 -1.653792e-10
1.223849e-08 -3.263721e-08 2.305747e-09 3.141051e-09 7.733909e-09 -7.597739e-10
2.447868e-08 -6.570209e-08 -9.408689e-09 -3.384984e-09 4.300653e-08 8.576958e-10
-3.666710e-09 2.167168e-09 3.095122e-10 -1.886546e-09 -2.968553e-10 -9.390999e-11
1.915448e-08 -4.851207e-08 -4.186177e-09 4.409773e-09 2.442717e-08 -6.576894e-10
1.698055e-08 -5.762856e-08 -4.700684e-10 -3.194742e-09 2.109526e-08 1.098540e-09
-5.327596e-09 -2.615151e-09 -7.883216e-10 1.180210e-08 3.306279e-09 -1.878606e-09
-3.942038e-09 -3.203558e-09 3.303402e-11 1.056039e-08 2.263105e-09 -1.234151e-09
1.798383e-08 -2.075451e-08 -1.854369e-08 -1.133427e-09 2.269848e-08 6.572661e-10
-6.593195e-09 -3.748603e-09 6.092449e-10 1.340341e-08 5.484498e-09 -2.202175e-09
1.173949e-09 -1.726449e-08 -1.643285e-10 2.075516e-08 1.022380e-08 -4.644119e-09
-6.753121e-10 -9.069608e-09 -1.404218e-09 1.218482e-08 3.256129e-09 -1.222830e-09
4.282479e-09 -7.305270e-09 -1.218045e-08 1.415924e-08 1.230718e-08 -3.351985e-09
-1.064626e-08 2.548602e-09 -5.559560e-09 1.633592e-08 6.732943e-09 -6.476985e-09
7.556262e-09 -3.587913e-08 -2.376804e-11 1.928750e-08 1.434826e-08 -3.827344e-09
1.551946e-08 -2.879396e-08 -1.562720e-08 8.002136e-09 1.955991e-08 -2.224330e-09
-8.161494e-09 -7.921767e-09 -7.797731e-10 -1.699521e-08 6.876810e-09 3.692403e-09
1.250546e-08 -2.889392e-08 -8.562628e-09 4.621729e-09 -1.654156e-08 1.884056e-09
3.131269e-09 -1.283145e-08 -9.690037e-09 1.714147e-08 1.265762e-08 -4.614043e-09
8.726842e-09 -2.381300e-08 -1.401819e-08 1.576224e-08 1.781280e-08 -5.452634e-09
1.265054e-08 -2.701761e-08 -6.113905e-09 7.407115e-09 -1.969288e-08 4.259028e-09
2.323960e-09 -1.285681e-08 -8.852733e-09 1.000610e-08 -1.075241e-08 5.439881e-09
-2.736229e-09 -1.033209e-08 2.673253e-09 8.579486e-09 1.974668e-09 -8.844159e-11
-2.588607e-10 -9.604037e-09 1.302292e-10 1.366156e-08 5.013940e-09 -1.971443e-09
6.178598e-09 -2.429592e-08 3.252515e-09 1.290042e-08 4.884761e-09 -1.729931e-09
-3.382168e-09 1.050897e-09 6.947074e-10 3.394078e-10 -6.099521e-11 -2.104357e-10
2.284051e-09 -1.715305e-08 -1.762399e-10 1.181986e-08 6.062450e-09 -1.571879e-09
-3.378477e-09 7.541729e-10 6.793552e-10 3.221131e-10 -1.212572e-10 -3.451148e-10
-3.414587e-09 1.421374e-09 6.938823e-10 8.431639e-10 -9.219070e-12 -6.398240e-11
-3.058503e-09 1.335859e-09 5.306253e-10 5.502021e-10 -1.605605e-11 -1.117528e-10
-2.719603e-09 1.292594e-09 4.528200e-10 9.844119e-10 2.627631e-11 -6.637979e-11
-1.890469e-09 1.027329e-09 2.816269e-10 1.034772e-09 2.152809e-10 -1.827750e-10
-1.905687e-10 -1.169903e-08 -1.669408e-09 1.197174e-08 4.322131e-09 -1.425973e-09
6.871943e-10 -3.006653e-10 -1.579126e-10 1.703504e-09 2.260597e-10 -1.030462e-10
1.140329e-08 -2.201722e-08 -3.315304e-09 3.940770e-09 4.792084e-09 -2.820066e-10
8.983098e-09 -3.489678e-09 -9.495289e-10 1.615380e-09 1.359642e-10 -8.085418e-10
-2.079955e-09 1.175455e-09 4.517924e-10 1.478318e-09 2.128296e-10 -2.139581e-10
6.537084e-09 -3.409308e-09 -7.827636e-10 7.255449e-10 5.297515e-11 -6.398032e-11
8.350787e-09 -3.630418e-09 -9.968814e-10 7.742016e-10 1.061753e-10 -6.629408e-11
1.070515e-08 -2.593464e-09 5.338119e-10 5.300642e-09 -4.030258e-10 -3.237918e-09
-3.120927e-09 2.485968e-09 4.800871e-11 -3.072053e-09 -3.603721e-10 1.084312e-10
-2.788246e-09 2.113219e-09 -1.514628e-10 -3.579198e-09 -2.521598e-10 1.546483e-10
-3.450422e-09 -3.641125e-09 1.575046e-09 -3.717507e-09 3.086584e-10 -4.163069e-10
-3.705984e-09 2.576286e-10 1.121929e-09 -3.822241e-10 2.722957e-10 -3.363870e-10
-3.480843e-09 -4.704148e-11 1.314702e-09 -9.629057e-10 2.579672e-10 -5.686244e-10
-4.377040e-09 1.217709e-09 9.741195e-10 -1.491812e-09 2.109082e-10 -2.057745e-10
-3.611210e-09 -1.951683e-10 8.626331e-10 -7.945469e-10 4.594768e-10 -4.853922e-10
-3.953969e-09 9.382601e-10 1.127246e-09 -1.502828e-10 -1.264093e-10 -2.198856e-10
7.723585e-09 -3.345222e-09 -4.728254e-10 3.155791e-09 8.333090e-11 -1.173311e-09
3.351587e-09 -1.239884e-09 -8.582557e-11 3.194604e-09 5.983502e-11 -5.180397e-10
4.093972e-09 -1.346127e-09 2.142668e-10 3.987651e-09 2.760997e-11 -9.247148e-10
8.530029e-09 -3.940135e-09 -1.131477e-09 1.887875e-10 1.535723e-11 -3.641818e-10
7.038943e-09 -2.216925e-09 -6.097582e-10 -4.793426e-09 -1.193270e-10 9.100754e-11
7.387113e-11 1.531342e-10 7.892575e-11 1.640605e-09 2.483625e-10 3.510752e-10
2.513863e-09 -1.336022e-09 -4.168155e-10 1.727928e-09 9.644531e-11 -2.543366e-10
5.441514e-10 1.531006e-10 -6.324474e-11 1.662246e-09 2.043525e-10 -8.468115e-11
7.705089e-09 -3.371484e-09 -9.340562e-10 2.575906e-09 1.816420e-10 -2.966194e-10
1.303334e-08 -3.148162e-09 -9.023382e-10 -3.861923e-09 -1.099874e-10 -1.890745e-09
7.607616e-09 -4.024827e-09 -3.965726e-10 -2.256857e-09 1.190041e-10 2.900241e-10
8.071679e-09 -4.458272e-09 -2.857963e-10 -3.438013e-10 1.096376e-10 -5.591044e-10
8.594307e-09 -4.597712e-09 7.306600e-11 -7.142680e-10 1.467739e-10 -8.767538e-10
9.622259e-09 -3.793955e-09 8.015020e-10 -4.364582e-09 -1.087146e-10 -1.460672e-09
6.431981e-09 -1.742807e-09 -6.606724e-10 -5.311078e-09 6.481471e-11 -1.004194e-09
8.409764e-09 -4.240662e-09 -3.535310e-10 4.052664e-11 1.914926e-10 -2.313293e-10
6.969065e-09 -3.581703e-09 -8.197589e-10 7.301991e-10 8.456461e-11 -1.307170e-10
7.634948e-09 -3.331748e-09 -5.291669e-10 1.944524e-09 2.368021e-10 -2.256613e-10
6.665541e-09 -3.585402e-09 -8.263845e-10 9.025247e-11 1.541794e-11 3.165024e-11
7.007280e-09 -3.632744e-09 -7.656031e-10 7.026202e-10 8.079720e-11 -1.865233e-10
-3.745938e-09 1.749955e-09 3.720197e-10 -1.516738e-09 -9.453892e-10 5.000445e-11
-5.713786e-09 2.003372e-09 3.171938e-10 -3.580771e-10 -1.823024e-09 1.359688e-09
-3.266986e-08 2.155927e-08 -7.224413e-09 -2.677531e-08 9.382184e-09 2.106738e-08
-9.822460e-09 8.234103e-09 -2.565340e-09 -6.977896e-09 2.230755e-09 2.457699e-09
1.938725e-09 -5.624248e-10 -3.125111e-10 2.671625e-09 1.120426e-10 -1.999539e-10
4.085111e-09 -1.105908e-09 -8.466419e-10 -4.000893e-09 -2.855398e-10 1.771154e-10
-6.011753e-09 1.922493e-09 7.557870e-10 8.824466e-10 -4.810303e-10 6.296117e-10
-5.713786e-09 4.983754e-09 -5.597405e-10 -2.904488e-09 -2.068739e-09 1.730575e-09
-8.114702e-09 2.216849e-09 -2.573936e-10 -1.458116e-08 3.828987e-09 3.422718e-09
-6.710388e-10 1.159816e-09 -3.632978e-10 -4.728201e-09 -4.543917e-10 4.493405e-12
5.454437e-10 1.538214e-10 2.757616e-11 2.437179e-09 3.450021e-10 6.600269e-12
3.406106e-09 -9.667965e-10 -5.663916e-10 2.921750e-09 3.377145e-10 -1.164804e-10
2.424643e-09 2.944873e-10 1.849885e-10 -9.010441e-09 9.421537e-10 -5.757884e-10
8.155046e-10 5.669053e-10 1.045417e-10 -5.903337e-09 9.818323e-12 -6.628689e-10
5.220486e-10 2.762318e-09 -6.094465e-10 -6.816797e-09 -2.506554e-10 -2.553321e-10
3.684564e-08 -2.005664e-08 2.914634e-08 9.584032e-09 6.298279e-09 4.280379e-08
1.087269e-08 -3.438201e-08 2.494514e-09 -7.588374e-10 6.181779e-09 5.861345e-11
-8.105790e-08 -1.183455e-08 2.053169e-07 3.350408e-09 -5.975003e-08 -3.029631e-09
-7.707981e-08 1.591276e-07 -2.662470e-07 -9.850499e-08 1.692969e-07 -1.063306e-08
-3.472489e-08 1.219971e-07 -7.936327e-08 1.521290e-08 -7.940705e-08 2.306819e-08
-8.021259e-10 4.798667e-09 9.274297e-10 6.661232e-09 -5.080663e-10 -1.457824e-09
-3.432817e-09 3.692885e-09 3.950311e-10 3.342162e-09 4.737512e-10 -6.850585e-10
-9.356630e-09 3.463801e-08 -1.803129e-08 -2.395773e-09 -9.829949e-09 -2.039943e-08
-7.412189e-09 5.307410e-09 9.950989e-10 -4.509585e-10 -1.284421e-10 -5.895850e-11
-2.950244e-09 6.116060e-09 4.697158e-10 6.354473e-09 -1.067888e-09 -2.624510e-09
-7.216720e-09 3.005633e-09 1.775269e-11 -2.370579e-09 1.563926e-09 3.600267e-11
-1.237984e-08 -1.430042e-08 -1.222935e-08 -3.843007e-08 -3.199768e-08 -2.621307e-08
-2.683954e-09 3.614841e-09 1.861240e-10 3.754006e-09 2.505328e-11 -1.147429e-09
-7.873396e-09 6.091051e-09 -7.584990e-09 -8.754595e-09 -7.898901e-09 -6.551409e-09
-3.186726e-09 1.506020e-08 -1.412569e-08 -3.820013e-09 -9.756387e-09 -9.570901e-09
-5.495243e-09 8.547735e-09 -2.089974e-08 -1.688084e-08 -1.985065e-08 -1.701104e-08
1.533696e-08 -2.477749e-09 -1.354739e-09 -7.278581e-09 1.503776e-09 -4.492029e-09
-4.991189e-09 -2.041236e-09 -1.455426e-09 -1.023031e-08 2.472865e-09 1.525320e-09
-7.136778e-09 1.002709e-08 -1.035381e-08 -4.591213e-09 -9.381374e-09 -8.123199e-09
4.497954e-09 4.591296e-09 3.831145e-09 -1.264703e-08 3.699069e-09 -3.954630e-09
1.286881e-08 4.337345e-10 -5.200523e-10 -1.061927e-08 3.117250e-09 -6.366295e-09
8.950542e-09 -5.733712e-10 1.183290e-08 -1.249311e-08 4.532730e-09 -1.010379e-08
-2.943677e-09 -1.379705e-08 1.937841e-09 -1.743159e-08 6.763750e-09 3.453858e-09
7.061014e-09 -2.254109e-09 7.924066e-10 4.990992e-09 -4.115625e-10 -1.716418e-09
1.396260e-08 -5.365040e-09 6.318557e-09 3.288752e-09 -2.622631e-10 -7.467691e-09
4.628558e-09 4.529922e-10 -1.673173e-11 6.562495e-09 -2.522606e-10 -1.141318e-09
-4.311604e-09 3.322847e-09 9.490590e-09 -1.147965e-08 5.229215e-09 -4.146338e-09
7.096700e-09 6.323009e-11 2.331853e-09 -1.080652e-08 2.626568e-09 -2.758503e-09
1.197378e-09 5.490636e-10 -9.157985e-11 4.086261e-09 1.631708e-10 -1.080232e-09
3.357735e-09 2.219399e-10 1.088005e-10 5.162415e-09 -3.129596e-10 -1.627674e-09
-1.558935e-08 1.215440e-08 2.428943e-10 -7.377246e-09 1.152830e-09 3.291645e-09
7.241036e-09 -3.488533e-09 4.435652e-10 3.616806e-09 -3.796419e-11 -1.471673e-09
-6.669124e-09 6.857626e-10 -4.730248e-09 -9.463623e-09 -6.142163e-09 -4.207026e-09
1.112863e-09 1.272427e-08 4.576038e-09 1.481643e-08 -7.118368e-09 -8.437162e-09
-9.998670e-09 -4.809956e-09 -2.220203e-09 -1.595636e-08 -1.179409e-08 -7.508140e-09
3.952327e-08 3.576984e-09 8.432402e-09 -3.905715e-08 -1.469196e-08 4.820134e-08
9.791103e-08 -8.813785e-09 6.173653e-08 -6.115453e-08 -4.087185e-08 1.074587e-07
-1.188754e-08 2.203696e-08 -4.679997e-09 -7.132317e-09 -2.072894e-09 -5.974739e-09
-7.255742e-09 2.058444e-08 -1.640268e-09 -3.716091e-09 2.466642e-10 -2.962162e-09
-6.847516e-09 1.345361e-08 -7.094759e-10 -5.489412e-09 -7.661618e-10 -2.258725e-09
-1.064537e-08 2.158169e-08 -5.170346e-09 -1.157886e-09 2.774063e-09 -6.422488e-09
2.004528e-08 4.474880e-08 3.033866e-10 -3.840080e-08 -2.449168e-08 1.743838e-08
-2.119411e-08 1.556425e-08 -8.012854e-09 1.867702e-08 1.058019e-08 -1.507494e-08
1.467294e-10 -8.820380e-09 2.246660e-09 -5.367775e-09 1.012316e-09 -1.899274e-10
-5.165668e-11 -8.544754e-09 1.898745e-09 -6.418543e-09 1.310422e-09 -2.403749e-10
8.618405e-10 -9.998399e-09 6.644181e-10 -7.154529e-09 6.090106e-10 -4.454888e-10
2.648397e-09 -1.282792e-08 2.462556e-09 -5.690862e-09 1.238965e-09 -1.343746e-10
-1.585262e-08 4.153848e-08 -8.003677e-10 -1.635845e-08 -1.745567e-08 -7.623334e-09
-1.752949e-08 2.790579e-08 -1.416747e-08 9.669471e-09 7.921789e-09 -1.676058e-08
-6.325423e-08 5.412312e-08 -4.329578e-09 1.320952e-08 5.665417e-09 -4.694880e-08
-7.020521e-09 4.155551e-10 -2.951088e-10 -6.696467e-09 9.829928e-10 7.824086e-10
1.336057e-08 -2.745656e-08 -1.047132e-08 -2.009277e-08 2.226997e-08 5.214199e-09
-1.226256e-08 3.612370e-08 -2.578231e-09 -1.019832e-08 8.402887e-11 -6.532716e-09
8.760388e-09 -3.453799e-08 1.528162e-09 -2.191217e-08 1.415390e-08 7.033413e-09
-7.676631e-09 -1.565539e-09 -8.654237e-10 -9.369179e-09 5.019531e-09 1.626645e-09
-2.485095e-08 1.005436e-08 4.629035e-09 2.304063e-08 8.707806e-09 -1.768364e-08
1.067179e-08 -3.574081e-08 -1.863112e-09 -1.128799e-08 -1.705595e-08 -2.464306e-09
-5.813627e-08 3.678427e-08 -6.542178e-09 2.621236e-08 1.326719e-08 -3.498146e-08
2.835469e-09 -6.513354e-10 -4.782104e-10 -3.778176e-09 -3.873639e-10 -1.040735e-10
-1.655530e-09 9.776446e-10 3.247365e-10 1.554492e-09 1.559688e-10 -1.562998e-10
-3.492123e-09 1.234415e-09 7.986862e-10 6.394781e-10 1.025436e-10 -1.999958e-10
3.642481e-09 -1.464548e-09 -3.344649e-10 2.732134e-09 1.800915e-10 -3.459504e-10
2.703229e-09 -3.361044e-10 -1.538965e-10 3.782303e-09 1.927910e-10 -2.424109e-10
-1.653778e-09 1.254048e-09 2.140716e-10 2.137655e-09 4.354286e-10 -2.090124e-10
1.421738e-09 3.020126e-10 -2.644964e-10 3.158577e-09 2.728905e-10 -2.966570e-10
-4.863498e-09 1.545259e-09 -4.159348e-10 -7.265440e-10 -7.003976e-10 -1.571201e-10
2.964648e-09 -6.327902e-10 -4.697557e-10 3.321989e-09 1.917021e-10 -4.864817e-10
3.420892e-09 -9.072187e-13 1.282843e-10 4.619523e-09 1.052122e-10 -7.038881e-10
-3.428525e-09 2.242118e-09 3.139062e-10 -2.143846e-09 -4.255302e-10 -2.546958e-10
-3.991981e-09 1.235517e-09 6.039533e-10 -9.772167e-10 -8.909198e-10 -2.303608e-10
-6.005179e-10 1.417919e-09 2.083065e-10 3.393038e-09 2.917113e-10 -5.090302e-10
3.965738e-08 -1.900848e-09 -1.168507e-08 2.530056e-08 1.679656e-08 1.682619e-08
3.815941e-08 -2.087086e-08 2.124762e-08 -3.555131e-09 -5.836703e-09 2.475032e-08
7.384058e-09 -2.381856e-09 -2.379990e-10 4.828973e-09 1.053199e-11 -1.619855e-09
-9.066978e-10 5.685215e-10 3.391070e-10 2.304480e-09 1.605852e-10 -1.440990e-10
5.159675e-08 -2.640066e-09 -1.372540e-08 1.191063e-08 7.383249e-09 1.947976e-08
-1.449719e-09 1.564616e-09 2.843676e-10 2.876188e-09 2.387438e-10 -5.249552e-10
4.963745e-08 -9.480086e-10 -4.763136e-09 1.077427e-08 9.370150e-10 1.729288e-08
-9.474164e-10 7.293455e-10 5.927325e-11 1.608063e-09 2.032641e-10 1.318495e-10
1.828306e-09 -3.901537e-10 -3.295484e-10 2.647688e-09 1.392451e-10 -1.685581e-10
4.988363e-09 -1.739887e-08 -9.350196e-10 1.135385e-08 4.992227e-09 -1.182432e-09
-3.786670e-09 -1.005991e-08 1.892227e-09 1.145833e-08 3.770591e-09 -8.150073e-10
3.483096e-09 -1.242774e-09 -4.548624e-10 2.283250e-09 2.130564e-10 -5.687362e-11
-4.315165e-08 6.833439e-09 1.455343e-08 3.739529e-08 2.395474e-08 1.976636e-08
1.789020e-09 -2.798890e-10 -7.853584e-11 2.408280e-09 2.592633e-10 3.285923e-11
1.810833e-09 -1.959131e-10 -7.953549e-11 3.185777e-09 1.860800e-11 -2.105646e-10
-1.434045e-09 1.022958e-08 -1.124200e-09 -1.058818e-08 -6.300131e-10 2.653206e-09
-6.568584e-09 5.253296e-09 -4.717181e-09 2.125241e-09 -4.747120e-09 6.502209e-09
-8.578465e-09 7.660148e-09 -3.942095e-09 4.681049e-09 -6.843993e-09 7.708065e-09
2.720400e-08 -4.710031e-09 -4.206625e-09 1.322725e-08 1.964948e-09 9.669251e-09
-1.241662e-08 1.584265e-08 -5.937834e-09 4.476868e-09 -6.219271e-09 1.227373e-08
1.164291e-09 -1.959131e-10 1.953016e-11 2.984608e-09 3.660672e-11 -3.821867e-10
-1.123037e-08 5.849775e-09 -4.234672e-09 2.489889e-09 -5.986715e-09 8.749586e-09
-3.644668e-09 9.985604e-09 1.712842e-09 -1.113280e-08 3.175186e-09 1.580088e-09
7.061212e-09 -1.683626e-09 -2.207710e-10 4.589593e-09 2.358095e-11 -1.446918e-09
-4.678270e-09 -1.692629e-09 4.595524e-10 -1.003937e-08 2.968067e-09 7.540647e-10
2.468107e-09 -5.738140e-10 -3.819312e-10 2.754415e-09 2.608387e-10 -4.984768e-11
2.913251e-09 -9.561822e-10 -4.910543e-10 2.836286e-09 4.163119e-10 2.421263e-11
-3.027448e-09 5.230305e-09 -1.171550e-09 -5.326799e-09 -9.878472e-10 1.852468e-09
-4.753599e-09 8.308590e-09 8.639933e-11 -6.822291e-09 5.000943e-10 1.277935e-09
1.131203e-08 -5.409722e-09 7.656147e-09 -3.327586e-09 3.338211e-11 -7.355192e-09
-5.884650e-09 6.343506e-09 -6.688475e-09 1.365290e-09 -4.931286e-09 5.271623e-09
7.097966e-09 6.990064e-10 1.758787e-09 -1.076043e-08 1.523435e-09 -2.766642e-09
2.399826e-09 3.996130e-09 -7.401439e-10 -9.436631e-09 4.721081e-10 -5.666516e-10
7.573505e-09 -2.799138e-09 -3.912195e-10 -4.421147e-09 1.514189e-10 -5.979801e-10
-5.044475e-09 3.344466e-09 1.033529e-09 -1.643522e-09 3.935065e-10 -8.452403e-10
-4.059182e-09 -2.804424e-09 6.982037e-10 -7.105214e-09 1.896986e-09 5.167337e-10
5.555799e-09 -2.267076e-09 -8.560093e-10 -4.212773e-09 -4.512424e-11 2.823448e-10
2.454089e-09 5.176503e-10 -8.257431e-10 -6.135491e-09 -5.346483e-10 1.375962e-10
-9.227541e-09 3.294887e-09 -1.333126e-09 -7.606352e-09 1.842296e-09 1.867427e-09
5.485272e-09 -1.312435e-09 -4.603939e-10 -6.077290e-09 2.489615e-10 -3.869391e-10
5.519736e-09 5.141765e-11 3.014087e-10 -8.809103e-09 7.570609e-10 -1.338711e-09
1.950329e-08 -5.311694e-09 -8.931400e-10 -2.955104e-09 1.032847e-09 -7.037278e-09
-9.519905e-09 1.202612e-09 -7.571233e-11 -1.034422e-08 2.394518e-09 2.373142e-09
6.653978e-09 -2.026446e-09 -1.013287e-09 -5.009471e-09 -3.793625e-10 -1.212028e-10
8.071586e-09 1.195727e-09 -1.351994e-09 -9.132799e-09 9.103013e-10 -1.670504e-09
6.173515e-09 -7.764553e-09 -9.286639e-09 -1.439325e-08 1.015293e-08 4.861879e-09
-1.411910e-08 1.697964e-08 -1.599314e-08 -1.479199e-08 1.512248e-08 1.370929e-08
1.346410e-08 -1.599719e-08 -1.585966e-08 -1.066590e-08 1.702647e-08 3.014156e-09
-7.940033e-10 4.988365e-09 -9.753737e-09 -1.574592e-08 8.954567e-09 6.638600e-09
-1.273931e-08 -5.625489e-09 -6.786397e-10 -2.473481e-08 1.031771e-08 7.623373e-09
-2.214466e-09 -1.977002e-08 -1.276262e-09 -2.261532e-08 1.283930e-08 4.788963e-09
-1.131227e-08 7.483716e-09 -1.618325e-09 -5.840383e-09 2.301996e-09 2.822678e-09
-6.404166e-09 4.521674e-09 1.131318e-09 2.530256e-11 -4.374450e-10 -1.061418e-09
-9.681959e-10 -1.317533e-08 -1.095849e-09 -2.837526e-08 1.411329e-08 1.085973e-08
-1.008435e-08 8.100238e-09 -6.611898e-10 -2.234565e-09 9.679282e-10 1.622940e-09
-6.800618e-09 6.182383e-10 -5.514611e-09 -1.344940e-08 4.961184e-09 5.102932e-09
-7.189378e-09 2.877307e-09 4.932794e-10 -2.392659e-09 5.340608e-10 3.805225e-10
-4.529318e-08 3.523090e-08 1.367604e-08 -4.217183e-09 -2.138436e-09 2.187464e-08
-2.099852e-09 -1.141277e-08 2.380927e-09 -1.259939e-08 2.981112e-09 1.169675e-09
-9.227541e-09 1.017780e-08 -8.097336e-10 -4.899278e-09 -1.001914e-10 1.265983e-09
2.822281e-09 1.494972e-08 -2.055418e-08 -1.787331e-08 1.855637e-08 1.372782e-08
-8.721350e-10 3.900107e-08 -1.413181e-08 2.415503e-08 1.982485e-08 -6.915058e-10
-1.318035e-08 1.770105e-08 -1.280373e-09 -5.326772e-10 -2.960805e-11 3.322652e-09
-5.424260e-09 2.423620e-08 -3.171747e-08 -1.123588e-08 -2.260371e-08 2.258183e-08
-1.716775e-08 2.553134e-08 -9.855208e-09 1.274464e-09 1.440484e-09 1.415433e-08
-1.443109e-08 1.768146e-08 1.242906e-08 1.345537e-08 -7.654237e-09 -1.431860e-09
-8.219323e-09 8.576569e-09 -5.425962e-10 -3.857251e-10 -1.966206e-11 2.609688e-10
-1.162095e-08 6.547752e-09 -5.758810e-10 -5.063103e-09 4.000339e-09 1.959367e-09
-1.437518e-08 2.603669e-08 5.351799e-09 9.993032e-09 -8.091067e-09 -6.682105e-09
-4.644732e-08 3.149915e-08 5.352721e-09 -1.388506e-08 -3.360243e-09 1.524768e-08
-9.281274e-08 8.722527e-08 2.510001e-08 1.467764e-08 -3.486377e-08 2.456220e-08
-1.220440e-08 1.488081e-08 3.842205e-09 7.394043e-09 -3.888773e-09 -8.443739e-10
3.302960e-09 -1.303149e-09 -5.283489e-10 -2.208827e-09 -3.072024e-10 5.456857e-11
2.896753e-09 3.010453e-08 7.637509e-08 1.709343e-08 -5.317964e-08 -9.789154e-08
-5.122651e-09 1.550465e-08 -1.390203e-08 4.143933e-09 -9.843200e-09 -9.107619e-09
4.633729e-09 7.498699e-08 2.569241e-08 3.178524e-08 -5.482993e-08 -4.398982e-08
-4.743072e-09 1.044734e-08 -1.718915e-08 -5.178488e-09 -1.219151e-08 -8.012364e-09
-6.303635e-09 8.352623e-09 -6.225524e-09 -7.117735e-09 -6.047280e-09 -5.101837e-09
-3.636154e-09 1.059032e-08 -1.655549e-08 -7.266440e-09 -1.112563e-08 -8.919438e-09
-3.330522e-09 1.919964e-08 -1.512912e-08 1.458180e-09 -9.976130e-09 -9.455016e-09
-1.457541e-08 3.833856e-08 9.294428e-08 3.009688e-09 -4.676119e-08 -8.970013e-08
-7.361074e-08 2.532354e-07 -4.485214e-08 -8.610403e-09 -4.559913e-08 8.799513e-08
-7.762021e-09 3.046049e-08 7.773125e-10 -1.854266e-08 1.323279e-08 8.012599e-09
9.405888e-09 -2.309066e-08 6.846010e-10 2.632151e-09 1.691880e-09 -3.809397e-11
8.396860e-09 -2.310163e-08 3.235527e-09 3.274503e-09 2.054114e-09 -4.329936e-11
7.711513e-09 -2.096049e-08 8.265362e-10 -2.606242e-09 1.059789e-09 -2.512102e-11
8.488497e-09 4.124244e-09 -2.087704e-09 -1.466268e-08 -1.257641e-09 4.663698e-09
3.285696e-08 -3.213305e-08 -7.376262e-08 -3.312178e-08 9.401207e-08 2.205023e-08
-3.668251e-08 1.991946e-08 -2.685386e-08 3.057341e-08 3.102214e-08 -4.013813e-08
3.254790e-09 -9.906973e-10 -6.180927e-10 -3.569528e-09 -3.901528e-10 5.689926e-11
-4.465044e-09 -1.396361e-07 -1.182258e-07 1.530283e-07 2.039817e-07 -1.184310e-07
1.335757e-09 6.505923e-08 -1.035828e-07 1.160430e-08 8.134477e-08 -5.968643e-08
-2.969308e-07 1.975758e-07 2.820710e-07 -4.489148e-08 -2.622078e-07 8.827153e-08
2.864572e-08 -2.067871e-08 -6.151401e-08 2.101460e-09 7.085395e-08 -5.337896e-09
2.591031e-09 2.097283e-08 -4.004643e-08 1.861288e-08 4.005445e-08 -2.012964e-08
-1.399847e-08 -6.775404e-08 -1.693636e-08 7.617474e-08 7.152092e-08 -4.089063e-08
6.379993e-08 -1.754061e-07 -3.655856e-08 5.928008e-08 1.599043e-07 -3.642548e-08
-6.988993e-11 1.527733e-09 2.206252e-08 -1.675358e-08 -1.442465e-09 -6.737727e-09
-3.035519e-09 1.245296e-09 4.888412e-10 7.758445e-10 1.174387e-10 -2.877615e-10
-3.696739e-09 1.134598e-09 8.539440e-10 3.396448e-10 5.459266e-11 -1.990867e-10
1.385297e-08 2.078823e-08 1.567293e-08 -2.944192e-08 1.781501e-08 -2.035745e-08
-1.889367e-09 1.255523e-09 3.762151e-10 1.723484e-09 4.974281e-10 -3.745676e-10
-4.390709e-09 -6.550549e-09 2.006427e-09 1.163405e-08 2.879110e-09 -5.973512e-10
-5.282352e-09 -2.615170e-09 1.305695e-09 1.180271e-08 3.321743e-09 -1.399733e-09
-1.064754e-08 6.892182e-09 -9.429645e-10 1.298655e-08 5.768813e-09 -4.243267e-09
-3.391464e-09 1.197202e-09 7.563865e-10 4.205190e-10 2.592084e-10 -2.544387e-10
-2.001459e-09 1.181156e-09 3.253324e-10 1.431137e-09 1.612579e-10 -2.172660e-10
-7.691160e-09 9.253241e-09 -1.024826e-08 1.363084e-08 7.708099e-09 -6.553179e-09
2.593827e-10 1.342473e-10 4.803558e-11 1.812168e-09 2.730687e-10 7.667539e-11
-7.171647e-09 -7.058651e-09 1.042241e-09 1.862246e-08 7.640130e-09 -4.495556e-09
-4.946491e-09 -5.244514e-09 -2.721021e-09 1.621250e-08 5.613227e-09 -3.803480e-09
-6.615405e-09 -3.755860e-09 -2.720651e-09 1.339052e-08 5.304407e-09 -2.549457e-09
-4.237986e-09 -1.724763e-08 5.218825e-10 1.905662e-08 8.708614e-09 -3.426233e-09
4.258096e-09 -1.196655e-08 -4.242058e-09 1.380168e-08 5.449311e-09 -2.572897e-09
-2.517876e-09 1.166510e-09 5.064882e-10 9.877479e-10 8.331669e-11 -1.771021e-10
-2.664145e-09 1.501723e-09 5.219913e-10 1.322944e-09 1.045458e-10 -5.638601e-10
-1.749745e-11 -1.592069e-08 6.909016e-10 2.128972e-08 1.172691e-08 -5.123172e-09
-1.534050e-09 -1.550143e-08 2.991195e-09 1.365733e-08 3.507687e-09 -1.448762e-09
-9.708454e-10 -4.854204e-09 -1.861888e-09 1.299130e-08 4.047546e-09 -1.593634e-09
-3.808993e-09 -1.006225e-08 -2.880063e-10 1.150717e-08 3.867571e-09 -1.484868e-09
5.004360e-09 -1.789707e-08 -3.001589e-09 1.110587e-08 3.862872e-09 -1.482255e-09
2.674231e-10 -1.286553e-08 5.928156e-10 9.704903e-09 1.672588e-09 -1.112754e-09
4.447715e-09 -2.037096e-09 -6.600491e-10 -2.245033e-09 -1.918963e-10 -7.656786e-11
-1.231225e-08 -3.479573e-08 2.588398e-07 2.758300e-08 4.871772e-08 3.197718e-07
2.955400e-09 -1.242532e-09 -4.214447e-10 2.340735e-09 1.983908e-10 -5.759410e-11
-1.193978e-09 -1.140680e-08 -1.474210e-08 1.737771e-08 -2.318476e-08 1.380998e-08
1.294938e-07 1.160123e-08 7.330689e-09 -2.735986e-08 -8.658894e-09 1.101519e-07
1.171392e-08 -2.200913e-08 -3.974956e-09 -1.405790e-08 1.201877e-08 3.334568e-09
8.695303e-09 1.474102e-08 -4.055876e-08 3.176510e-09 -3.263250e-08 1.601307e-08
2.055506e-09 -6.408666e-09 -8.228465e-09 -1.467605e-08 8.912759e-09 4.556532e-09
6.173515e-09 -1.331806e-08 -8.915039e-09 -1.372299e-08 9.003710e-09 4.778549e-09
1.449154e-08 -3.394047e-08 -2.319645e-08 1.409925e-08 -3.957500e-08 1.386056e-08
6.091308e-09 7.161417e-09 -2.319743e-08 5.988476e-09 -2.227323e-08 1.061251e-08
-2.604496e-09 1.633243e-08 1.995159e-09 1.091986e-08 -3.515958e-09 -5.960535e-09
4.913843e-09 -3.720134e-08 -5.937926e-09 2.716254e-08 -2.811296e-08 1.452650e-08
-1.778039e-09 1.662382e-09 -2.459175e-10 -3.317888e-09 -5.994442e-10 -3.406352e-10
-6.061155e-09 5.965078e-09 5.956471e-10 2.380014e-09 1.632820e-10 -7.684915e-10
-1.164201e-08 1.710472e-08 -4.711660e-09 -4.236825e-09 4.729680e-10 4.592830e-09
-1.191939e-08 9.301477e-09 -3.263874e-09 -8.894703e-09 2.482446e-09 4.171027e-09
-1.925394e-09 1.858265e-09 3.667067e-11 -2.940496e-09 -4.449888e-10 1.170501e-10
-3.277513e-09 2.150854e-09 5.304912e-11 -1.916163e-09 -6.790721e-10 -1.165927e-10
-1.094248e-09 1.986444e-09 -7.988232e-10 -5.392121e-09 -2.232141e-10 3.434049e-10
-2.645587e-09 1.685516e-09 1.314149e-10 -2.191896e-09 -9.505766e-10 -3.972287e-10
5.007438e-09 -2.415883e-08 -1.177906e-09 -1.337609e-08 -1.304586e-08 -3.212561e-09
-6.693334e-09 6.920784e-10 -8.544498e-10 -9.455713e-09 -5.977207e-09 -3.878973e-09
4.392398e-10 5.070371e-10 -2.456522e-10 -2.461475e-09 -2.587801e-10 1.195836e-10
-7.934014e-09 3.383298e-08 -2.421499e-08 -1.140551e-08 -1.555546e-09 1.376221e-08
-5.591375e-09 2.926273e-09 -1.973529e-09 2.526107e-10 -2.209073e-09 1.919390e-09
-9.171263e-09 5.858786e-09 -9.292195e-10 1.448531e-09 -4.569138e-09 4.463375e-09
2.935286e-09 -1.031597e-08 -1.704899e-08 1.381035e-08 -1.710799e-08 9.486386e-09
3.062840e-09 -1.897124e-08 2.173517e-10 1.029046e-08 -8.739435e-09 2.538818e-09
2.128078e-09 -6.419958e-09 -8.655009e-09 9.519371e-09 -9.536455e-09 5.434194e-09
-4.321651e-10 2.212053e-08 6.010005e-09 -2.030408e-08 9.572227e-09 -1.905489e-09
-5.360555e-08 7.413269e-08 1.704822e-07 -2.984205e-08 4.357254e-08 -1.853351e-07
-4.835996e-09 4.505383e-09 -1.531576e-09 -3.362777e-09 -1.283782e-09 1.185435e-09
-3.127590e-08 3.032874e-08 -1.907480e-08 -2.215243e-08 1.498690e-08 3.259684e-08
-3.760096e-09 2.371944e-09 -4.348366e-10 -3.285394e-09 -8.493024e-10 7.790421e-11
-1.234777e-09 4.485433e-09 -8.801715e-10 -7.115869e-09 -6.075673e-10 4.021357e-10
-6.299174e-08 -3.330001e-08 2.489232e-07 -1.751001e-08 -1.409026e-09 -9.180592e-08
3.114636e-09 -1.758464e-08 3.144194e-09 8.957171e-09 2.086337e-09 -1.777094e-10
-4.512225e-09 4.532309e-09 -1.259207e-09 -3.254302e-09 -1.184218e-09 1.482395e-09
-2.492752e-07 1.934618e-07 6.659606e-07 -4.006018e-08 -4.224166e-07 -2.721394e-07
-2.753085e-09 3.740075e-09 -8.484884e-10 -5.610828e-09 -5.331327e-10 7.232517e-10
-7.589199e-08 -3.077622e-08 2.933483e-07 -5.504649e-09 9.659306e-09 -5.613060e-08
3.628736e-08 4.907133e-08 -6.165624e-09 6.993330e-08 6.413017e-08 5.137849e-08
-5.144436e-10 1.529843e-10 -2.138378e-11 1.503205e-09 5.137912e-11 -1.060390e-10
1.061715e-10 2.503082e-10 -2.032723e-10 1.800460e-09 6.317735e-11 -2.142460e-10
3.084160e-09 -8.995306e-10 -3.675827e-10 2.406996e-09 2.643237e-10 -9.543699e-11
-4.135958e-09 3.328427e-08 -3.239485e-08 -5.120140e-10 -1.652228e-08 -1.295227e-08
-3.739076e-09 2.683149e-08 -1.577948e-08 5.969191e-09 -6.373539e-09 -8.397495e-09
1.308424e-08 -1.878069e-08 -2.810321e-08 -2.196594e-08 -5.165710e-08 -1.599562e-08
-4.208337e-09 2.032985e-09 1.605027e-11 -1.541327e-09 -4.200886e-10 -2.003973e-10
3.469068e-08 -1.557492e-08 1.022465e-08 -1.585341e-09 1.448740e-09 1.805693e-08
-3.274976e-09 5.028449e-08 1.404061e-09 6.680362e-08 6.884912e-08 2.008967e-08
-1.530809e-08 4.475097e-08 -3.505915e-08 8.395816e-09 3.518065e-09 -1.444555e-08
1.754517e-08 -5.017469e-09 2.333680e-09 2.943904e-09 -1.038053e-10 -7.394748e-09
-1.005171e-08 1.236131e-08 1.362353e-09 1.467947e-09 -2.057861e-09 -1.239055e-10
2.989954e-08 -1.142173e-08 6.416428e-09 1.293946e-08 2.785152e-09 1.322382e-08
-7.892177e-09 6.682664e-09 -1.139135e-09 -1.056715e-09 1.812106e-09 9.938434e-10
9.638168e-09 -3.874101e-08 1.737859e-07 1.279084e-08 1.839447e-08 1.141285e-07
-2.891766e-09 -3.874101e-08 9.170756e-08 7.744952e-09 1.409830e-08 6.059357e-08
-1.778760e-09 1.011274e-09 1.721290e-10 1.001941e-09 2.311418e-11 -7.156720e-12
-6.060574e-10 6.796546e-10 1.220659e-10 1.181625e-09 7.433831e-11 -5.919132e-11
-1.897912e-09 9.344685e-10 1.603562e-10 1.374426e-09 -4.206524e-11 -7.177592e-11
-6.288839e-09 4.884398e-09 1.365585e-09 3.922477e-09 -8.113235e-10 -1.100900e-09
-1.341308e-09 1.777137e-09 2.921287e-09 6.891533e-09 -1.097244e-09 -3.446289e-09
6.105341e-09 4.835319e-10 2.602100e-09 8.871070e-09 -1.363567e-09 -6.066189e-09
1.931613e-09 7.781412e-09 5.069631e-09 1.083475e-08 -3.268534e-09 -6.208454e-09
-4.912189e-09 2.313037e-09 3.395468e-10 -1.453952e-09 -5.054008e-10 -9.493972e-11
-5.363228e-09 1.075110e-09 7.657919e-11 5.518508e-10 -1.814891e-09 1.052625e-09
-1.108921e-08 1.279498e-08 -4.103225e-09 -2.513875e-10 -2.469604e-09 -8.745153e-09
-4.671929e-08 -1.668593e-08 1.244390e-07 -2.871250e-08 -3.245293e-08 5.689039e-08
-5.387207e-09 1.755320e-09 3.536835e-10 1.387352e-09 -2.252805e-09 9.502447e-10
-4.661775e-09 2.427236e-09 3.026912e-10 -6.210370e-10 -1.278086e-09 3.670096e-10
1.037067e-07 -3.825629e-08 4.000188e-08 2.165161e-08 2.294558e-08 1.491511e-07
-4.199693e-09 3.332981e-09 -2.106479e-10 -2.762671e-09 -1.129627e-09 6.804124e-10
-4.104850e-08 1.615339e-07 -1.335098e-07 -1.317235e-08 -1.265258e-08 -6.889456e-08
4.971323e-09 5.330746e-10 -4.537999e-10 -7.261388e-09 3.576433e-10 -1.026312e-09
-3.930937e-09 -7.378807e-09 -3.762667e-09 2.143769e-08 9.685941e-09 -7.209532e-09
-2.847196e-10 -2.311923e-09 -1.745157e-08 2.004031e-08 1.967223e-08 -8.006489e-09
8.004412e-09 -2.920260e-08 -1.743872e-09 2.162390e-08 1.638816e-08 -4.343787e-09
-4.912405e-09 -1.471365e-08 -1.146856e-09 2.484735e-08 1.369168e-08 -8.022736e-09
9.807729e-09 -4.579032e-09 -3.304266e-10 -6.612146e-10 -2.572536e-11 -1.300843e-09
6.079269e-09 -2.935660e-09 -7.825038e-10 9.917938e-10 1.617639e-10 1.009017e-10
1.033421e-08 -4.021165e-09 -1.293295e-09 -1.231305e-09 4.213560e-11 -6.571002e-10
5.815036e-09 -3.052447e-09 -8.274688e-10 -1.653167e-09 -2.225997e-11 -6.598400e-11
2.393625e-09 -1.337403e-09 -3.664513e-10 1.686201e-09 2.290839e-10 -6.597811e-11
1.179846e-08 -2.964924e-08 1.749367e-09 8.858115e-09 7.239977e-09 -1.321237e-09
1.412280e-08 -5.182200e-09 -1.898804e-09 -2.337056e-09 -2.844547e-10 -2.480140e-09
2.995028e-09 -6.276770e-10 -3.400202e-10 3.370644e-09 2.837268e-10 -1.224320e-10
9.686556e-09 3.379689e-10 -3.075948e-10 7.680169e-09 -8.639215e-10 -4.197775e-09
-3.430074e-09 3.672164e-09 3.230693e-10 3.342280e-09 -4.359582e-10 -1.010564e-09
-1.025410e-09 2.662464e-09 -2.861538e-10 5.394475e-09 -3.344046e-10 -1.880693e-09
-2.910804e-08 2.731539e-08 1.737844e-08 4.789023e-09 -1.267619e-08 -6.127915e-10
6.624350e-09 -1.584012e-09 3.346416e-10 4.966464e-09 -1.211696e-10 -2.119371e-09
2.752445e-09 9.252760e-10 1.452229e-09 6.241091e-09 -4.789205e-10 -1.961644e-09
4.809776e-08 -6.499327e-08 -8.069189e-08 -2.234285e-08 1.530696e-07 -2.441093e-09
-9.859607e-09 7.673102e-09 1.568015e-09 5.101067e-09 -1.345861e-09 -1.976996e-10
8.637559e-09 -2.254597e-09 -1.845963e-08 1.787821e-08 2.037207e-08 -8.063790e-09
3.737901e-08 -1.104411e-07 -1.959512e-08 1.614916e-08 7.632079e-08 -6.173011e-09
2.267490e-08 -7.517568e-08 -5.589561e-09 3.853714e-09 3.972897e-08 -1.480903e-09
1.481976e-08 -1.576244e-08 -1.460934e-08 1.305475e-08 1.904944e-08 -2.927677e-09
-1.238849e-08 1.242824e-08 1.060897e-09 9.635703e-10 -3.266389e-10 8.412948e-12
1.372580e-08 -2.151828e-08 -1.009279e-08 -3.958999e-09 9.671019e-09 1.499960e-09
1.611641e-08 -2.946123e-08 -4.183584e-09 -5.479754e-09 1.444614e-08 1.641058e-09
-3.123896e-08 -2.859167e-08 1.560981e-07 7.671366e-09 -1.298931e-08 -4.200229e-08
1.346693e-08 -4.585215e-08 1.713068e-09 3.181999e-09 1.235862e-08 -3.422024e-10
1.502504e-08 -3.685085e-08 1.257207e-09 -1.409128e-09 1.248852e-08 1.155815e-09
8.015872e-09 -3.146544e-09 -8.492851e-10 -2.333794e-09 -2.527406e-10 -4.324193e-10
1.117980e-08 -3.739494e-09 -9.652714e-10 -2.036805e-09 2.493428e-11 -9.216600e-10
1.804934e-08 2.558195e-08 8.773965e-08 1.756558e-08 -5.678886e-08 -8.974034e-08
-7.450841e-09 -6.139106e-10 2.989770e-08 1.113175e-08 -4.430371e-08 -3.309213e-08
2.996851e-08 8.172981e-09 -6.657794e-09 -1.666239e-08 -7.167364e-09 1.305666e-08
4.784866e-08 -1.140700e-08 1.841417e-08 7.420755e-09 2.164108e-09 3.061769e-08
9.294090e-09 -3.733296e-09 -9.858074e-10 -8.007597e-10 -4.088505e-11 -4.471954e-10
8.544670e-09 -3.932818e-09 -9.809038e-10 1.572827e-10 6.263190e-11 -4.691710e-10
3.066922e-08 2.247501e-09 2.816539e-08 4.034981e-08 2.907267e-08 3.232763e-08
8.163493e-09 -2.208407e-08 3.300626e-09 4.113621e-09 1.238783e-09 2.209821e-11
5.038666e-08 -9.051000e-09 -3.698507e-09 3.597576e-09 1.743212e-10 2.286664e-08
2.502899e-09 -1.708199e-08 3.093514e-09 8.705004e-09 2.314715e-09 4.538200e-11
7.530208e-09 -2.325931e-08 3.395947e-09 3.644645e-09 2.070015e-09 -9.954504e-11
7.306762e-09 1.753315e-08 5.318760e-10 2.733711e-08 1.509234e-08 5.873960e-09
6.293424e-09 -3.363009e-09 -6.713052e-10 6.446171e-10 4.325135e-11 4.119094e-11
5.962490e-09 -2.319994e-08 3.298409e-09 7.677751e-09 3.103151e-09 -4.874827e-10
4.225601e-09 -5.923119e-10 -6.402714e-10 -5.115025e-09 -2.195600e-10 -5.341850e-10
8.494844e-09 -3.981701e-09 -6.367142e-10 2.479128e-10 6.797948e-12 -3.227951e-10
-8.354650e-10 5.045333e-10 9.515899e-11 1.305747e-09 2.379986e-10 -9.700424e-11
1.184222e-09 -1.940670e-10 -6.219607e-10 -3.778342e-09 -3.042080e-10 2.182615e-10
-9.328152e-09 4.474880e-08 1.487922e-08 -1.718574e-08 -8.605338e-09 1.501786e-08
-1.044718e-08 2.159716e-08 4.769489e-09 -5.850747e-09 -9.648219e-11 2.772255e-10
-1.379690e-08 3.678427e-08 -6.148171e-10 -4.162519e-09 -3.439696e-09 -4.747340e-09
-3.445287e-08 5.293128e-08 1.816879e-08 -2.582065e-08 -2.237926e-08 -3.400201e-09
-4.512383e-09 -1.752781e-09 1.320012e-09 -4.465456e-09 4.001464e-10 -2.043118e-10
-3.599215e-09 -2.596730e-09 1.305698e-09 -4.566165e-09 6.716938e-10 -9.396591e-11
7.597638e-10 4.563615e-09 2.213071e-09 8.147887e-09 -1.354441e-09 -3.164676e-09
-4.260870e-09 4.922018e-10 1.303416e-09 -3.912253e-09 5.890155e-10 -1.214402e-09
7.076859e-10 5.942333e-09 3.862777e-11 6.947398e-09 -7.319066e-10 -2.656538e-09
-9.214316e-09 9.074550e-09 -7.663897e-10 -2.909984e-09 1.416224e-10 9.214902e-10
8.261403e-09 -3.005031e-08 6.101404e-10 -1.137967e-08 1.238455e-08 1.346549e-09
1.078005e-08 -3.376228e-08 2.450228e-09 4.541716e-09 6.832938e-09 -1.351889e-10
1.223592e-08 -4.049672e-08 2.041835e-09 -5.434996e-09 1.048837e-08 7.127318e-10
-1.891253e-09 3.631653e-08 3.708091e-08 -4.394650e-08 -4.174710e-08 2.263651e-08
-2.469356e-08 2.225267e-08 3.682849e-08 -2.424198e-08 -1.270065e-08 1.071918e-08
-2.429670e-08 4.436097e-08 -1.018981e-08 -1.152666e-08 -4.131749e-10 2.385997e-08
9.356706e-09 -1.817634e-08 -5.672887e-09 -9.180342e-09 6.633189e-09 2.140848e-09
-4.506837e-09 3.092501e-08 -1.207023e-08 -1.362223e-08 -2.473010e-09 -7.962629e-10
2.718018e-08 5.683238e-08 4.904324e-08 1.124116e-07 1.212845e-07 1.315906e-07
-4.774535e-08 8.975337e-08 1.880483e-08 -1.935331e-08 6.507267e-08 -5.702789e-08
4.476739e-08 -7.530222e-09 6.445194e-09 -1.174761e-08 -2.413449e-09 2.328409e-08
3.067760e-09 -2.008406e-08 -2.806249e-09 -1.695530e-08 -1.422850e-08 -5.339623e-09
1.228705e-08 -5.208593e-09 1.463569e-09 2.853380e-09 -4.061431e-10 -4.768941e-09
1.329157e-09 -1.822022e-08 -8.908649e-10 -1.782448e-08 -1.677826e-08 -6.633980e-09
1.541636e-09 -1.875701e-08 -2.923606e-09 -1.789683e-08 -1.425271e-08 -4.814047e-09
3.484014e-10 -2.026230e-08 -2.493576e-09 -2.027089e-08 -1.658637e-08 -6.062078e-09
-4.929465e-09 -2.745843e-09 4.788827e-10 -8.551921e-09 -4.858167e-09 -2.329885e-09
1.712502e-09 -3.797576e-10 -3.754179e-10 -2.223916e-09 -3.194528e-10 1.681644e-11
-3.320411e-10 1.458921e-09 7.337198e-11 3.113162e-09 5.022878e-10 -2.581246e-10
8.874134e-09 -4.678629e-09 1.634604e-11 1.170167e-09 1.080908e-11 -1.056499e-09
1.609537e-09 -1.695215e-10 -2.371310e-10 2.565199e-09 3.864287e-11 -7.336332e-11
-1.329449e-09 1.562102e-09 1.714850e-11 -2.352104e-09 -4.168303e-10 -3.068944e-10
4.624020e-09 -2.005526e-09 -5.428697e-10 2.349517e-09 1.776959e-10 -2.289644e-10
9.355121e-10 -2.453944e-10 -6.187229e-11 2.326304e-09 6.433098e-11 -3.339670e-10
-3.908793e-10 8.377565e-10 -1.706892e-10 -2.320491e-09 -2.349583e-10 -2.374670e-10
-1.337739e-09 1.300393e-09 -3.547251e-11 -1.744708e-09 -2.886426e-10 -1.021414e-10
4.316922e-09 -1.763767e-08 2.847472e-09 7.251432e-09 1.526481e-09 -2.213030e-10
4.233619e-09 -1.739103e-08 2.862073e-09 7.367172e-09 1.022083e-09 -3.623417e-10
6.524164e-09 -2.381474e-08 1.001986e-09 1.047120e-08 5.353870e-09 -8.874358e-10
2.148817e-09 -1.516862e-08 2.013460e-09 7.532071e-09 2.016375e-09 -6.848688e-10
6.595152e-09 -1.767202e-08 -3.979056e-09 1.314099e-08 5.626565e-09 -1.307184e-09
-4.290030e-09 -9.898447e-10 4.871930e-10 2.208595e-09 -2.253130e-09 4.554691e-10
8.444948e-09 -2.179753e-08 1.781806e-10 5.664590e-09 2.687350e-09 -2.335783e-10
7.768969e-09 -2.867365e-08 4.296028e-09 9.075964e-09 4.892156e-09 -1.499628e-10
-3.330293e-09 -9.141073e-09 1.500275e-09 1.078780e-08 3.600079e-09 -8.087020e-10
-1.949652e-09 -1.019000e-08 2.405863e-09 7.964406e-09 1.839400e-09 -3.649905e-10
2.127511e-08 -4.162112e-09 6.176318e-09 2.128946e-08 1.314107e-08 1.128280e-08
2.387125e-08 -3.924596e-08 -9.885704e-09 -2.603456e-09 2.321617e-08 2.916152e-09
1.400783e-08 -3.794816e-08 2.809574e-10 9.586220e-09 1.617929e-08 -7.871314e-10
1.725082e-08 -3.248100e-08 -1.443285e-08 -8.860480e-09 2.191952e-08 2.947759e-09
2.672602e-08 -3.286791e-08 2.198076e-08 -3.515662e-09 -4.795225e-09 3.428764e-08
1.437500e-08 5.796666e-10 1.668740e-09 1.586854e-08 3.458777e-09 4.519873e-09
1.608597e-09 -3.981633e-10 -2.467446e-10 2.566329e-09 1.081848e-10 2.623622e-10
1.423792e-08 -4.019842e-08 1.117921e-09 -9.435060e-09 1.812712e-08 3.203824e-09
3.171265e-09 -1.167625e-09 -6.136660e-10 -2.747184e-09 -1.281717e-10 -4.493939e-11
-1.038682e-09 7.318199e-10 2.292275e-10 1.877781e-09 2.277542e-10 -4.742962e-11
3.667617e-09 -1.830894e-09 -4.583440e-10 1.723242e-09 1.568345e-11 -1.182614e-10
4.246548e-09 -1.106614e-09 -6.913368e-10 -4.977045e-09 -2.103755e-10 3.361097e-10
5.955409e-09 -1.456925e-08 -6.213843e-09 8.686571e-09 -1.011788e-08 2.882501e-09
1.020596e-08 -3.365532e-08 -3.098577e-09 1.350612e-08 -1.735479e-08 6.120374e-09
5.740865e-09 -2.122145e-09 -6.593437e-10 -3.787422e-09 -1.243992e-10 -1.013684e-10
1.283256e-08 -2.581773e-08 -6.668466e-09 -8.545045e-09 1.108749e-08 1.707306e-09
1.220264e-08 -2.810350e-08 -2.115625e-09 -2.390265e-09 7.421685e-09 -5.997459e-11
1.226882e-08 -2.482523e-08 -6.816693e-09 -7.296001e-09 8.696319e-09 2.250487e-09
1.099133e-08 -4.678629e-09 7.711396e-10 1.495309e-09 6.138617e-11 -2.111119e-09
1.000131e-08 -2.212751e-08 -2.420876e-09 -5.509466e-09 5.553498e-09 8.606842e-10
-4.845026e-08 1.433103e-08 1.483365e-07 -2.245239e-08 -7.519933e-08 3.802348e-08
1.656033e-07 5.692572e-08 1.393129e-07 -1.018674e-07 -1.542516e-07 2.490538e-07
-8.693808e-10 3.907238e-08 -1.329956e-08 2.418029e-08 2.044404e-08 -6.399312e-10
7.462842e-09 -3.921215e-09 -4.826273e-10 1.625641e-09 6.238896e-11 -3.262839e-10
4.014572e-09 -1.424687e-09 -4.224361e-10 2.975351e-09 1.849471e-10 -9.688027e-12
-3.977499e-08 6.241535e-08 -4.788356e-08 -5.189549e-09 -1.994497e-08 -2.703046e-08
6.774503e-09 -3.339409e-09 -7.077030e-10 1.747983e-10 -1.069383e-11 -7.522227e-11
1.561831e-08 -3.799259e-08 6.239317e-10 1.070669e-08 1.600032e-08 -1.910719e-09
2.439286e-09 -9.038060e-10 -3.529912e-10 2.324123e-09 2.635068e-10 1.376501e-10
1.009191e-08 -4.678629e-09 8.404157e-10 1.191176e-09 -7.338381e-12 -2.059455e-09
1.114799e-08 -4.927856e-08 -2.478696e-09 5.814768e-08 8.991913e-08 -4.880610e-08
1.582945e-08 -1.596282e-08 -1.556774e-08 1.005808e-08 2.043392e-08 -2.083099e-09
-9.523711e-10 -8.590987e-09 -2.817337e-10 -1.063842e-08 2.497900e-09 1.473810e-09
3.183658e-09 -1.909075e-08 1.592521e-09 -1.205342e-08 5.586234e-09 7.627704e-10
-7.433808e-09 1.661404e-09 1.901173e-09 -6.579934e-09 9.400518e-10 3.771556e-10
-9.478622e-09 5.854090e-09 -3.510913e-09 -1.169726e-08 5.073529e-09 3.965665e-09
-8.077136e-09 5.791542e-09 -3.908349e-10 -4.563581e-09 1.884896e-09 8.852738e-10
-1.077900e-08 7.433217e-09 -2.213309e-09 -5.732459e-09 2.125983e-09 3.317771e-09
4.161690e-09 -2.458893e-09 -5.990453e-10 1.444530e-09 3.579992e-11 -1.198859e-10
-1.467300e-08 1.301313e-08 4.532447e-10 -6.471341e-09 5.521101e-10 2.748764e-09
-7.020521e-09 5.379279e-09 -1.976321e-10 -4.997799e-09 2.862373e-10 5.577733e-10
7.801026e-09 -3.542207e-09 -6.406833e-10 1.009012e-09 1.673071e-11 -1.656259e-10
6.798648e-09 -3.649951e-09 -7.483583e-10 -1.241506e-09 -5.782047e-11 -9.901879e-11
-1.275337e-08 1.318996e-08 4.907962e-09 5.628934e-09 -3.194468e-09 -1.441531e-09
7.163236e-09 -3.402792e-09 -9.681034e-10 -8.912860e-10 5.192075e-11 7.194079e-11
6.124778e-09 -3.303351e-09 -8.341476e-10 -1.187161e-09 -8.256529e-11 1.720748e-10
-5.042453e-09 5.503447e-10 4.428151e-10 -3.836119e-09 1.598554e-09 1.174404e-10
-5.022258e-09 9.894456e-09 4.306350e-09 8.850894e-09 -1.746277e-09 -3.472656e-09
1.795997e-08 2.330451e-07 -5.546931e-07 -6.565824e-08 9.269818e-08 -1.107028e-08
3.818951e-08 3.506745e-08 -1.066756e-07 7.370863e-09 7.889035e-08 5.570107e-09
2.516448e-08 -6.074973e-10 -6.319261e-08 2.441093e-08 6.129774e-08 -3.113858e-08
4.481005e-08 1.382942e-07 -7.924663e-08 8.457706e-08 7.068536e-08 2.525859e-08
-5.157261e-08 3.956749e-08 8.667668e-08 6.364608e-08 1.147937e-07 2.544631e-08
8.644029e-09 -2.365607e-08 3.269217e-09 1.771921e-09 1.827210e-09 3.604539e-11
9.661714e-09 -2.100528e-08 7.444907e-10 -2.143588e-09 2.110568e-09 1.685438e-10
1.147605e-08 -2.616086e-08 4.404155e-10 -2.282590e-09 6.374137e-09 8.079072e-10
1.268969e-08 1.206472e-08 -9.266247e-09 1.158204e-08 9.053475e-10 -2.758505e-10
3.622955e-08 -2.645222e-10 -1.404779e-09 2.286768e-08 9.461937e-09 1.511417e-08
9.170414e-10 -1.139028e-08 2.711824e-09 -5.515938e-09 1.293691e-10 -4.757096e-10
3.239068e-08 -5.471658e-09 1.533367e-08 1.833753e-08 1.099190e-08 1.945105e-08
2.960451e-09 2.384517e-08 -1.244278e-08 1.701440e-08 3.783768e-09 -6.408775e-09
3.308974e-09 -1.541422e-08 3.014379e-09 -5.731850e-09 4.019326e-10 -2.718117e-10
4.435389e-09 -1.647847e-08 1.999752e-09 -4.640147e-09 3.962035e-10 -3.250517e-10
-1.338812e-08 2.312768e-08 -1.077336e-08 -1.809163e-10 -7.441252e-10 1.060114e-08
-2.763517e-08 2.035264e-08 4.976561e-09 -6.411180e-09 -2.718681e-09 9.418884e-09
1.485940e-09 -1.159147e-08 1.366298e-09 -6.517974e-09 8.076618e-10 2.046287e-10
-8.298740e-09 2.708199e-09 5.876273e-10 -5.324609e-09 1.098812e-09 8.031448e-10
-2.451605e-08 2.199703e-08 1.569388e-09 7.072650e-10 -4.473777e-09 8.797543e-09
-9.719937e-09 9.837776e-09 -3.814106e-09 -7.709623e-09 1.374908e-09 3.476357e-09
-5.058317e-09 1.292302e-08 -1.204011e-09 -8.500448e-09 -2.393193e-09 5.403399e-09
-3.828529e-08 2.287666e-08 1.682446e-07 -3.905753e-08 2.646988e-08 -1.262611e-07
-1.796722e-08 3.422505e-08 3.374834e-08 1.536687e-09 2.180226e-08 -1.095732e-08
-4.448920e-10 2.862333e-09 5.686679e-09 -9.714774e-09 3.153546e-09 -2.782146e-09
-5.580897e-08 2.540260e-08 1.271058e-07 -3.827385e-09 4.959494e-08 2.282537e-08
9.161841e-09 -2.752224e-08 2.634789e-09 7.645071e-09 5.861891e-09 -3.779079e-10
1.112566e-08 3.712142e-10 1.961781e-09 -1.248995e-08 4.201206e-09 -5.234729e-09
1.522233e-08 -1.858206e-08 -1.027184e-08 7.396868e-09 1.169221e-08 -1.273040e-09
1.203242e-08 -2.790381e-09 8.001233e-09 -1.012832e-08 2.754120e-09 -7.858742e-09
7.198316e-09 -3.417895e-09 4.998013e-09 -7.527558e-09 1.292350e-09 -4.685605e-09
4.330729e-09 -1.177859e-09 3.714994e-09 -1.064229e-08 2.552090e-09 -3.312689e-09
1.591632e-08 7.836707e-10 4.939809e-09 -1.478003e-08 5.546247e-09 -1.295316e-08
1.020345e-08 -1.555442e-08 -1.787172e-08 1.610640e-08 2.105190e-08 -6.913988e-09
-3.658634e-09 -1.471365e-08 -1.630398e-09 2.749077e-08 1.506557e-08 -8.162100e-09
1.447011e-08 -3.963405e-08 -2.275581e-10 9.076459e-09 1.499994e-08 -1.585422e-09
-7.253802e-09 3.720688e-09 -8.932477e-10 -6.950160e-09 2.433815e-09 1.051761e-09
-7.108279e-09 6.849083e-09 -9.654328e-09 5.800034e-09 -8.238582e-09 9.518079e-09
-2.779337e-09 3.107705e-09 -8.241923e-09 7.651198e-09 -7.395255e-09 6.295142e-09
4.407280e-10 -1.566127e-08 -1.243922e-09 1.272669e-08 -9.349005e-09 4.725976e-09
-2.936337e-09 -9.000325e-09 -2.000990e-10 9.102867e-09 -6.092453e-09 3.038194e-09
5.212218e-09 -2.877121e-09 -4.836569e-10 1.606954e-09 9.514431e-11 -1.208398e-10
-4.918551e-09 1.889582e-09 1.070273e-10 -5.816947e-10 -1.094793e-09 1.623106e-10
9.277683e-09 -2.052310e-08 -5.250470e-09 1.411136e-08 1.106711e-08 -3.234375e-09
5.674473e-09 -2.816006e-09 -7.936770e-10 1.383954e-09 1.384179e-10 -1.386539e-10
7.912188e-09 -3.630494e-09 -6.926215e-10 -2.833357e-10 -8.513967e-12 -2.998757e-11
2.932343e-09 -1.679604e-08 1.462048e-09 1.485234e-08 5.183039e-09 -8.075704e-10
-6.497690e-09 1.119364e-08 -9.176168e-09 -3.672266e-09 -7.798398e-09 -7.163095e-09
6.147443e-09 -3.300260e-09 -9.278862e-10 9.588088e-10 1.816512e-10 3.808817e-10
5.596290e-09 -2.135061e-09 -4.137577e-10 2.747880e-09 -2.358536e-11 -4.079738e-10
-3.706867e-09 2.989893e-10 1.310348e-09 -3.751035e-10 1.536222e-10 -3.389125e-10
-3.779948e-09 8.951773e-10 1.093617e-09 2.541904e-10 1.897646e-10 -2.902258e-10
-3.696381e-09 8.200773e-10 9.975545e-10 -3.021639e-10 1.251155e-10 -2.253622e-10
2.500679e-09 -1.190834e-10 -6.076535e-10 -4.522653e-09 -2.384324e-10 2.327789e-10
-5.107475e-09 3.721443e-09 -4.189390e-09 1.146833e-09 -3.518511e-09 2.380903e-09
-6.082438e-09 1.360950e-09 5.321013e-10 6.604357e-10 -1.372849e-09 6.912237e-10
-1.272415e-09 -1.642978e-08 4.116171e-09 1.359215e-08 2.929100e-09 -8.605136e-10
3.096247e-09 -8.602172e-10 -4.938281e-10 -4.057239e-09 -2.384581e-10 -1.705149e-10
-2.032932e-09 1.712196e-09 -2.479456e-10 -3.487374e-09 -4.763161e-10 -1.407912e-10
1.390382e-09 1.974314e-10 -4.212732e-10 -3.640801e-09 -5.802558e-10 1.564869e-10
1.107701e-07 2.400416e-08 -1.356071e-08 -2.239985e-08 -3.440072e-08 1.390866e-07
2.847947e-09 -1.038821e-09 -5.242251e-10 -2.565532e-09 -2.374980e-10 -1.550409e-10
4.328795e-10 3.378571e-10 -2.494356e-10 -2.788054e-09 -3.520853e-10 -1.645167e-10
-3.103065e-09 2.839773e-09 1.559261e-08 8.839742e-09 -4.869503e-09 -1.016292e-08
8.378654e-09 8.945184e-09 1.560561e-09 1.410521e-08 -4.235963e-09 -8.384600e-09
-3.483495e-09 2.217543e-09 -3.914780e-10 -2.523536e-09 -9.051416e-10 4.949516e-10
-3.166300e-09 7.888233e-09 1.534047e-09 6.995694e-09 -1.446877e-09 -1.989220e-09
1.551740e-09 5.425344e-09 1.501172e-09 8.096728e-09 -1.980587e-09 -5.007789e-09
1.096109e-09 1.275782e-08 2.709050e-10 1.495078e-08 -6.971991e-09 -9.507068e-09
-2.785553e-09 2.138828e-09 -1.447011e-10 -3.235264e-09 -7.619291e-10 -1.093293e-10
-3.505614e-09 2.380539e-09 -9.903189e-13 -2.815308e-09 -3.249203e-10 2.211473e-10
-3.277159e-09 1.971340e-09 2.153624e-10 -2.290352e-09 -6.500740e-10 -1.078211e-10
-4.104536e-09 1.997445e-09 3.354650e-10 -1.731024e-09 -4.855802e-10 -1.382032e-10
5.338220e-08 -1.143520e-08 -2.431752e-09 7.153955e-09 3.487510e-09 2.490529e-08
-1.913149e-09 1.650858e-09 7.640377e-11 -2.435268e-09 -5.831169e-10 -2.369062e-10
-2.785038e-09 2.126618e-09 -1.387868e-11 -1.928214e-09 -2.085593e-10 -2.164711e-10
1.602531e-08 2.495449e-08 -1.276027e-08 2.184806e-08 6.126938e-09 -9.493376e-10
-8.258421e-09 8.310138e-09 -4.602541e-09 -1.762744e-09 -4.059004e-09 -9.742963e-09
-2.547695e-09 1.825532e-09 1.614904e-10 -2.210749e-09 -3.787421e-10 -6.289062e-11
4.534870e-08 -3.883180e-09 -2.005481e-08 6.305582e-09 1.518461e-09 1.318494e-08
2.832032e-09 4.474880e-08 9.082566e-09 -4.169960e-08 -2.277056e-08 1.351546e-08
-9.751694e-09 -1.459644e-08 -6.431273e-09 -2.411424e-08 -2.374303e-08 -1.578228e-08
-1.154712e-07 9.852603e-08 -1.005376e-07 5.139050e-08 -2.501071e-08 -6.798285e-08
6.081947e-08 1.316999e-08 8.229593e-10 -2.227356e-08 -1.394401e-08 4.751196e-08
-1.414595e-08 -1.668593e-08 1.496182e-07 -2.539901e-08 -3.169140e-08 7.161593e-08
-6.161963e-09 -5.336105e-09 4.072065e-10 1.335178e-08 4.901824e-09 -2.292671e-09
9.132050e-09 -2.276429e-08 2.972089e-09 2.756589e-09 2.056518e-09 -1.726850e-10
6.507805e-09 -2.076770e-08 2.957225e-09 5.673506e-09 1.982369e-09 -2.321447e-10
2.998121e-09 -1.455273e-08 1.399651e-09 8.871975e-09 1.965754e-09 -2.528652e-10
-8.214670e-09 -5.001958e-09 -1.268696e-09 -2.095252e-08 -1.091261e-08 -1.023677e-08
-1.667005e-08 1.223538e-08 -5.806306e-09 -1.587541e-08 -1.390666e-08 -1.626687e-08
-1.397648e-08 9.932453e-09 -4.598104e-09 -1.084312e-08 -1.052050e-08 -1.184695e-08
-1.272029e-08 1.436899e-08 -5.360175e-09 -1.262304e-08 -1.107592e-08 -1.377828e-08
-1.159139e-08 1.013969e-08 -4.453925e-09 -1.014004e-08 -1.069604e-08 -1.244169e-08
-1.318611e-08 1.076482e-08 -1.074645e-08 -1.066193e-08 -1.454230e-08 -1.702979e-08
-1.466064e-08 1.216360e-08 -1.108180e-08 -1.084520e-08 -1.364931e-08 -1.598196e-08
-1.257240e-08 1.339991e-08 -1.229178e-08 -1.248558e-08 -1.515085e-08 -1.450713e-08
-1.229979e-08 1.011639e-08 -4.287544e-09 -8.418795e-09 -7.760427e-09 -1.074733e-08
-1.095851e-08 1.035054e-08 -8.306479e-09 -7.623776e-09 -9.699760e-09 -1.210977e-08
-1.207448e-08 1.125605e-08 -7.202881e-09 -7.758434e-09 -8.609504e-09 -1.178453e-08
-1.173493e-08 1.290507e-08 -7.149606e-09 -7.005078e-09 -7.204754e-09 -1.107008e-08
-1.043985e-08 9.657946e-09 -3.198493e-09 -7.004341e-09 -6.682066e-09 -9.621402e-09
-1.135912e-08 1.171006e-08 -4.534499e-09 -5.264849e-09 -6.114533e-09 -1.103078e-08
-1.031253e-08 1.549569e-08 -6.764954e-09 -3.167658e-09 -8.475681e-09 -1.299206e-08
-6.047813e-09 1.271776e-08 -5.874446e-09 -2.360578e-09 -6.511699e-09 -1.036050e-08
-1.728715e-08 1.016653e-08 -5.599607e-09 -1.472184e-08 -1.374415e-08 -1.628177e-08
-1.377868e-08 9.657944e-09 -4.661964e-09 -1.100414e-08 -1.067551e-08 -1.202107e-08
-1.158885e-08 1.016653e-08 -2.991902e-09 -9.927612e-09 -9.548787e-09 -1.229854e-08
-1.273007e-08 1.016653e-08 -3.947257e-09 -1.005060e-08 -9.489803e-09 -1.102886e-08
-1.379381e-08 1.171007e-08 -4.034975e-09 -9.199623e-09 -1.004306e-08 -1.199603e-08
-1.214176e-08 1.429732e-08 -6.076292e-09 -7.099644e-09 -1.098384e-08 -1.311310e-08
-1.315903e-08 1.586917e-08 -6.799719e-09 -7.980073e-09 -9.819262e-09 -1.531329e-08
-1.313099e-08 4.220203e-09 -3.114359e-09 -1.366995e-08 -1.287109e-08 -1.065512e-08
-1.360955e-08 5.841748e-09 -2.774190e-09 -1.353168e-08 -1.203989e-08 -1.037900e-08
-1.237105e-08 4.945045e-09 -2.616158e-09 -1.465613e-08 -1.216038e-08 -9.850807e-09
-1.248381e-08 3.432206e-09 -2.827137e-09 -1.519683e-08 -1.272544e-08 -1.005027e-08
-1.035201e-08 4.220203e-09 -1.695934e-09 -9.483751e-09 -8.035555e-09 -8.436125e-09
-1.112926e-08 5.710446e-09 -1.532420e-09 -9.574802e-09 -7.538641e-09 -8.425164e-09
-1.047113e-08 3.432207e-09 -2.765974e-09 -1.088863e-08 -7.824164e-09 -8.878519e-09
-1.125270e-08 6.159041e-09 -2.558324e-09 -1.001496e-08 -8.835274e-09 -8.781101e-09
-1.493482e-08 5.338842e-09 1.574415e-10 -1.628884e-08 -1.138334e-08 -1.263404e-08
-1.181637e-08 5.522143e-09 -1.660259e-09 -1.228715e-08 -1.137580e-08 -9.268353e-09
-1.533524e-08 5.837320e-09 -3.185711e-10 -1.638866e-08 -1.195723e-08 -1.321042e-08
-1.280147e-08 5.792687e-09 -1.349721e-09 -1.584631e-08 -1.105385e-08 -1.164095e-08
-1.277721e-08 2.379933e-09 -4.023025e-09 -1.583934e-08 -1.413157e-08 -1.158484e-08
-1.126541e-08 6.182077e-11 -3.358183e-09 -1.563967e-08 -1.416198e-08 -1.057368e-08
-1.321160e-08 -7.859100e-10 -9.687090e-10 -1.729912e-08 -1.438949e-08 -1.280544e-08
-1.108205e-08 1.072203e-08 -3.098167e-09 -7.073210e-09 -6.328283e-09 -9.538534e-09
-7.484118e-09 1.276175e-08 -7.314266e-09 -4.211311e-09 -1.001003e-08 -1.257472e-08
-6.405002e-09 1.585403e-08 -6.846502e-09 -2.626451e-09 -6.863909e-09 -9.970095e-09
-7.209903e-09 1.628279e-08 -6.572425e-09 -2.441581e-09 -6.450479e-09 -9.459881e-09
4.770904e-09 -2.283271e-09 -6.341411e-10 1.719907e-09 2.458746e-10 6.612466e-11
4.382148e-09 -2.244460e-09 -6.188721e-10 1.568658e-09 2.213831e-10 1.791978e-11
4.680471e-09 -2.283271e-09 -6.415252e-10 1.755758e-09 2.386290e-10 9.353163e-11
4.584196e-09 -2.283272e-09 -6.258789e-10 1.716088e-09 2.040967e-10 6.061318e-11
4.910761e-09 -2.444748e-09 -6.308778e-10 1.385295e-09 1.709043e-10 -5.017775e-11
4.960409e-09 -2.370981e-09 -6.668435e-10 1.447873e-09 2.026248e-10 -1.021783e-11
4.779907e-09 -2.353817e-09 -6.661915e-10 1.494061e-09 1.967283e-10 -4.654310e-11
4.533579e-09 -2.181749e-09 -6.114924e-10 1.963824e-09 1.977305e-10 -6.179546e-11
4.323839e-09 -2.254628e-09 -5.742418e-10 1.636405e-09 1.889428e-10 -7.234435e-12
4.332808e-09 -2.175867e-09 -5.957883e-10 1.871934e-09 1.857450e-10 5.998758e-12
4.605106e-09 -2.215432e-09 -5.907457e-10 1.854036e-09 1.731483e-10 5.068102e-11
4.530863e-09 -2.223175e-09 -6.332344e-10 1.820677e-09 1.295044e-10 -2.563319e-10
4.687422e-09 -2.245339e-09 -5.710219e-10 1.831389e-09 1.550089e-10 -1.469653e-10
4.301187e-09 -2.170776e-09 -4.961653e-10 1.875260e-09 2.312660e-10 -6.617401e-11
4.319776e-09 -2.145329e-09 -5.322707e-10 1.667591e-09 1.212081e-10 -2.631328e-11
4.306161e-09 -2.145054e-09 -6.226957e-10 1.666867e-09 9.662581e-11 -1.498766e-10
4.347203e-09 -2.215193e-09 -5.525713e-10 1.662458e-09 1.269043e-10 -8.934242e-11
4.251407e-09 -2.163341e-09 -5.307518e-10 1.628335e-09 8.030249e-11 -9.965362e-12
3.509136e-09 -1.691722e-09 -4.811949e-10 1.730302e-09 2.762244e-10 1.887834e-11
3.542816e-09 -1.672832e-09 -4.686904e-10 1.689821e-09 2.602560e-10 4.583378e-11
3.217593e-09 -1.467546e-09 -4.808929e-10 1.990242e-09 2.788771e-10 -2.999467e-11
3.159223e-09 -1.503562e-09 -4.531335e-10 1.692998e-09 2.000067e-10 1.197389e-11
4.302272e-09 -1.934004e-09 -5.914969e-10 2.168435e-09 2.874893e-10 8.313827e-11
3.937927e-09 -1.887328e-09 -5.610877e-10 1.988029e-09 2.596584e-10 4.221534e-11
4.046877e-09 -1.888878e-09 -6.128984e-10 1.991213e-09 3.009271e-10 1.858267e-10
4.314767e-09 -1.895398e-09 -5.721388e-10 2.013521e-09 2.697323e-10 3.680700e-11
4.267376e-09 -1.974763e-09 -4.968865e-10 2.117564e-09 2.476965e-10 -1.940614e-11
3.727820e-09 -1.708965e-09 -4.992909e-10 2.294041e-09 2.659830e-10 -5.630407e-11
3.716970e-09 -1.644483e-09 -6.270167e-10 2.307299e-09 2.490854e-10 -1.742773e-11
3.859389e-09 -1.828433e-09 -5.115668e-10 1.948488e-09 2.024714e-10 5.548517e-11
3.887024e-09 -1.958702e-09 -4.991472e-10 1.971044e-09 2.447467e-10 7.687606e-11
3.566972e-09 -1.473774e-09 -5.105590e-10 2.251118e-09 2.244719e-10 7.277512e-12
3.888368e-09 -1.680758e-09 -4.985216e-10 1.947252e-09 2.053189e-10 8.210988e-11
4.739970e-09 -2.256172e-09 -6.790102e-10 2.091333e-09 1.401050e-10 -2.325418e-11
4.533489e-09 -2.267437e-09 -5.924119e-10 2.141409e-09 1.652797e-10 -1.831165e-10
4.365445e-09 -2.260962e-09 -5.458624e-10 2.151428e-09 1.886029e-10 -6.411716e-11
4.371707e-09 -2.404522e-09 -5.640903e-10 2.180002e-09 9.316595e-11 -2.187578e-11
5.053467e-09 -2.373243e-09 -6.790439e-10 1.914798e-09 1.688738e-10 1.112765e-10
5.225419e-09 -2.480316e-09 -7.124135e-10 1.753923e-09 1.089836e-10 1.396339e-11
5.233742e-09 -2.554642e-09 -7.127918e-10 1.605837e-09 1.003132e-10 1.054834e-11
5.311066e-09 -2.538505e-09 -6.770662e-10 1.857911e-09 1.601136e-10 9.759194e-11
4.323671e-09 -1.874320e-09 -7.138405e-10 2.436496e-09 2.211400e-10 2.446500e-10
4.187889e-09 -1.861689e-09 -6.126464e-10 2.428140e-09 2.771682e-10 6.330636e-11
4.379404e-09 -1.534960e-09 -6.567240e-10 2.755664e-09 1.979911e-10 -1.090945e-10
4.164509e-09 -1.547038e-09 -5.437162e-10 2.701261e-09 2.524375e-10 3.220246e-11
4.290880e-09 -1.936817e-09 -5.146679e-10 2.184010e-09 1.959168e-10 -1.906796e-10
3.967806e-09 -1.658156e-09 -4.836840e-10 2.511705e-09 2.888392e-10 -8.016299e-11
3.915241e-09 -1.643922e-09 -4.812970e-10 2.295032e-09 2.811294e-10 -4.024525e-11
3.718414e-09 -1.594727e-09 -4.301868e-10 2.519903e-09 2.307948e-10 -2.921912e-10
5.284340e-09 -2.519916e-09 -7.245964e-10 1.962145e-09 2.525494e-10 5.485212e-11
5.928472e-09 -2.529759e-09 -7.160910e-10 2.078688e-09 2.269498e-10 -6.288459e-11
5.500834e-09 -2.531136e-09 -7.337260e-10 2.102953e-09 2.398016e-10 1.117911e-10
5.485196e-09 -2.529249e-09 -7.647829e-10 2.086486e-09 2.255338e-10 8.751067e-11
5.565669e-09 -2.577826e-09 -6.905725e-10 1.875968e-09 2.477911e-10 -1.055175e-10
5.949481e-09 -2.665688e-09 -6.797822e-10 1.784348e-09 2.297025e-10 -4.096745e-11
5.870953e-09 -2.690003e-09 -7.302599e-10 1.722674e-09 1.939831e-10 -1.440301e-10
5.097843e-09 -2.513030e-09 -7.356340e-10 1.905665e-09 2.612834e-10 1.030912e-10
5.349122e-09 -2.684232e-09 -7.456799e-10 1.685533e-09 2.002955e-10 -5.432854e-11
5.250601e-09 -2.631659e-09 -7.195697e-10 1.780395e-09 2.566607e-10 1.626865e-10
5.364485e-09 -2.672705e-09 -7.944878e-10 1.671839e-09 1.985289e-10 -4.556921e-11
5.301997e-09 -2.116536e-09 -5.845746e-10 2.690244e-09 2.671109e-10 -4.774392e-11
4.754188e-09 -2.070839e-09 -7.112027e-10 2.457549e-09 2.480680e-10 2.900613e-11
4.940016e-09 -2.072445e-09 -6.002756e-10 2.454709e-09 2.981883e-10 3.307554e-11
4.927680e-09 -2.079279e-09 -6.869167e-10 2.486586e-09 2.705214e-10 1.033196e-10
4.918958e-09 -2.068648e-09 -6.095409e-10 2.652471e-09 2.275582e-10 -6.708427e-11
4.339434e-09 -1.909603e-09 -5.856104e-10 2.679303e-09 2.917347e-10 -9.012524e-11
4.527578e-09 -1.786597e-09 -6.022125e-10 2.854252e-09 1.980929e-10 -2.963392e-10
3.859845e-09 -1.920041e-09 -5.914749e-10 2.114523e-09 2.785960e-10 5.688594e-11
3.979877e-09 -1.648395e-09 -6.257498e-10 2.315914e-09 2.510785e-10 3.546497e-12
3.299276e-09 -1.691065e-09 -4.964605e-10 2.277564e-09 2.520265e-10 -1.032261e-10
4.015329e-09 -1.609420e-09 -5.292906e-10 2.525352e-09 1.896496e-10 -3.463506e-10
5.015888e-09 -2.292184e-09 -7.202341e-10 2.212927e-09 1.791038e-10 -1.286176e-10
5.664166e-09 -2.453017e-09 -6.292549e-10 2.358427e-09 1.371853e-10 -2.373828e-10
5.184198e-09 -2.281638e-09 -6.908292e-10 2.261858e-09 2.132063e-10 -3.929834e-11
5.234462e-09 -2.454798e-09 -6.964296e-10 2.320438e-09 1.491612e-10 -5.323342e-11
5.234953e-09 -2.263833e-09 -5.983778e-10 2.390905e-09 1.716302e-10 -2.766478e-10
5.165235e-09 -2.405940e-09 -6.082947e-10 2.264992e-09 1.013919e-10 -3.710983e-10
5.159214e-09 -2.471288e-09 -5.709619e-10 2.244369e-09 1.276879e-10 -3.579593e-10
4.717997e-09 -1.898794e-09 -6.399801e-10 2.494346e-09 1.373712e-10 5.062618e-12
4.432691e-09 -1.888992e-09 -6.000640e-10 2.578601e-09 1.828981e-10 -1.974643e-11
4.094747e-09 -1.586471e-09 -5.866783e-10 2.625674e-09 2.577164e-10 -5.014311e-11
4.088835e-09 -1.528176e-09 -5.701333e-10 2.733280e-09 2.261059e-10 -9.744860e-11
4.865838e-09 -2.245296e-09 -6.795600e-10 2.054317e-09 1.313035e-10 7.671864e-12
4.866749e-09 -2.248708e-09 -5.335381e-10 2.057992e-09 1.758793e-10 1.921266e-11
5.020478e-09 -2.403536e-09 -6.517047e-10 1.918155e-09 4.036538e-11 -1.142968e-10
5.159412e-09 -2.417483e-09 -5.781096e-10 1.974503e-09 4.854417e-11 2.218303e-11
6.082303e-09 -2.670824e-09 -7.912087e-10 2.129059e-09 1.178193e-10 -6.390754e-11
6.180390e-09 -2.672383e-09 -7.798990e-10 2.119767e-09 1.185826e-10 -1.017022e-10
6.383669e-09 -2.818662e-09 -7.749428e-10 2.018038e-09 5.952150e-11 -5.393741e-11
6.477725e-09 -2.933753e-09 -7.126901e-10 1.813271e-09 7.000101e-11 -2.055037e-10
7.080326e-09 -2.700902e-09 -8.615588e-10 2.846803e-09 1.118913e-10 -5.617529e-10
6.461367e-09 -2.844480e-09 -7.655299e-10 2.547006e-09 1.715486e-10 -3.233325e-10
6.446372e-09 -2.701048e-09 -9.347598e-10 2.836584e-09 1.169021e-10 -3.001885e-10
7.162535e-09 -2.840675e-09 -9.500720e-10 2.495332e-09 1.633360e-10 -2.008398e-10
7.211119e-09 -2.873613e-09 -8.606134e-10 2.437012e-09 1.041609e-10 -4.780273e-10
7.023424e-09 -2.994766e-09 -6.931318e-10 2.591102e-09 1.278500e-10 -5.459158e-10
6.432906e-09 -2.709853e-09 -6.687078e-10 2.855958e-09 2.357933e-10 -3.281727e-10
6.810230e-09 -2.823165e-09 -7.573631e-10 2.457386e-09 1.891132e-10 -4.104533e-10
6.878276e-09 -2.848319e-09 -9.159904e-10 2.442190e-09 8.804840e-11 -3.332811e-10
6.969765e-09 -2.940139e-09 -6.994217e-10 2.448938e-09 2.055994e-10 -5.256715e-10
7.287110e-09 -3.002485e-09 -7.198907e-10 2.478015e-09 2.119228e-11 -8.564607e-10
6.052125e-09 -2.750489e-09 -8.329204e-10 2.202467e-09 2.028904e-10 -9.939530e-11
6.065692e-09 -2.744764e-09 -7.986669e-10 2.215543e-09 1.835851e-10 -1.658882e-10
5.882665e-09 -2.941222e-09 -7.849467e-10 1.974817e-09 9.589762e-11 -5.401712e-10
5.975185e-09 -2.713400e-09 -7.735442e-10 2.221639e-09 2.472825e-10 -2.512639e-10
7.524623e-09 -2.842650e-09 -9.383487e-10 2.379405e-09 2.190129e-10 -2.994527e-10
6.688595e-09 -2.809138e-09 -9.832894e-10 2.283955e-09 2.321499e-10 -2.826583e-11
7.144248e-09 -2.846122e-09 -1.015568e-09 2.416877e-09 2.006431e-10 -1.231220e-10
6.933636e-09 -2.846576e-09 -9.382140e-10 2.427765e-09 1.987978e-10 -1.443627e-10
7.372123e-09 -2.950243e-09 -9.022496e-10 1.958415e-09 2.031110e-10 -4.292209e-10
7.568040e-09 -2.970549e-09 -9.512975e-10 2.077119e-09 1.715344e-10 -2.517232e-10
7.166148e-09 -2.946361e-09 -9.561405e-10 2.217879e-09 1.925813e-10 -2.973943e-10
5.718579e-09 -2.119714e-09 -7.927135e-10 2.883719e-09 2.181071e-10 -2.209530e-10
5.982189e-09 -2.130129e-09 -7.367444e-10 3.049381e-09 3.229470e-10 -9.374856e-11
5.149805e-09 -1.783867e-09 -7.626919e-10 3.070549e-09 2.805397e-10 -2.574657e-10
4.907426e-09 -1.593182e-09 -5.476264e-10 3.308802e-09 7.772760e-11 -4.921994e-10
6.951910e-09 -2.804994e-09 -9.844402e-10 2.246315e-09 2.568911e-10 -1.448585e-10
6.878688e-09 -2.943585e-09 -9.858897e-10 1.932060e-09 2.394366e-10 -1.625672e-10
6.982070e-09 -2.978313e-09 -1.013043e-09 2.005666e-09 2.029202e-10 -3.116970e-11
7.280488e-09 -3.073696e-09 -9.734784e-10 1.843968e-09 1.835681e-10 -2.217746e-10
5.030499e-09 -2.109706e-09 -7.375270e-10 2.673927e-09 2.696730e-10 -2.724696e-10
5.189444e-09 -1.806644e-09 -7.613452e-10 2.909546e-09 2.601170e-10 -3.040792e-10
5.104439e-09 -1.910950e-09 -6.860512e-10 2.789913e-09 3.256704e-10 -1.509050e-10
4.179145e-09 -1.588859e-09 -5.517020e-10 3.163583e-09 1.171648e-10 -4.219857e-10
6.715569e-09 -2.350719e-09 -8.582544e-10 3.178475e-09 2.352548e-10 -2.798006e-10
5.963766e-09 -2.307728e-09 -7.619474e-10 2.986332e-09 2.447494e-10 -3.374914e-10
6.352494e-09 -2.303004e-09 -8.700733e-10 2.943481e-09 3.211796e-10 -1.997598e-10
6.455886e-09 -2.316118e-09 -8.664567e-10 2.997694e-09 2.798621e-10 -2.382841e-10
6.436610e-09 -2.458851e-09 -6.668150e-10 3.063841e-09 2.686329e-10 -2.808473e-10
5.614611e-09 -2.097710e-09 -6.777130e-10 3.280398e-09 2.089577e-10 -4.571956e-10
5.823497e-09 -1.983775e-09 -7.863505e-10 3.466489e-09 1.324392e-10 -7.055027e-10
5.481105e-09 -2.124553e-09 -7.720458e-10 2.717045e-09 2.260541e-10 -3.779866e-10
5.112364e-09 -1.765389e-09 -7.625587e-10 3.051195e-09 2.898206e-10 -2.833543e-10
5.067621e-09 -1.787322e-09 -7.659319e-10 2.827991e-09 3.123410e-10 -2.638872e-10
4.695820e-09 -1.587980e-09 -5.211211e-10 3.201157e-09 9.077234e-11 -6.390891e-10
6.272557e-09 -2.795796e-09 -8.684904e-10 2.209831e-09 2.196371e-10 -1.667999e-10
6.556151e-09 -2.940404e-09 -8.627415e-10 1.922702e-09 2.196314e-10 -9.675527e-11
6.560895e-09 -3.073316e-09 -7.919148e-10 1.845841e-09 1.752271e-10 -2.268673e-10
6.414211e-09 -2.959902e-09 -8.896330e-10 1.985775e-09 1.878979e-10 -3.330824e-11
6.064278e-09 -2.424490e-09 -8.127934e-10 2.479470e-09 1.208976e-10 -1.585525e-10
6.083184e-09 -2.436007e-09 -7.710375e-10 2.467731e-09 9.051210e-11 -2.508783e-10
6.100116e-09 -2.525259e-09 -7.832435e-10 2.506441e-09 2.163302e-10 -2.308226e-10
6.112827e-09 -2.320159e-09 -8.137533e-10 2.557712e-09 1.051736e-10 -2.555010e-10
5.196412e-09 -2.114056e-09 -7.641532e-10 2.823431e-09 2.549401e-10 -1.174568e-10
5.209033e-09 -2.111561e-09 -6.656293e-10 2.832554e-09 4.423450e-10 2.939352e-11
4.356700e-09 -1.598243e-09 -5.749359e-10 3.253362e-09 1.023305e-10 -2.949716e-10
5.248499e-09 -1.915173e-09 -7.105951e-10 2.920589e-09 3.109938e-10 -2.964362e-11
6.505578e-09 -2.358683e-09 -1.091687e-09 3.360629e-09 2.188360e-10 -2.921797e-10
6.530198e-09 -2.358810e-09 -9.291634e-10 3.359317e-09 2.182583e-10 -3.775757e-10
6.867102e-09 -2.344926e-09 -9.801984e-10 3.474833e-09 4.149016e-10 -7.202016e-11
6.143942e-09 -1.892631e-09 -7.071801e-10 4.203707e-09 5.904969e-11 -7.603609e-10
7.462949e-09 -2.358253e-09 -9.783290e-10 3.432935e-09 1.871406e-10 -6.319634e-10
7.790229e-09 -2.346609e-09 -9.086787e-10 3.617182e-09 3.039686e-10 -4.725722e-10
6.776023e-09 -1.850501e-09 -9.466095e-10 3.741975e-09 2.838914e-10 -6.788933e-10
6.484726e-09 -1.886262e-09 -5.567604e-10 4.144918e-09 9.903689e-11 -9.869289e-10
7.775215e-09 -3.093398e-09 -9.881562e-10 2.444250e-09 1.071975e-10 -2.743319e-10
7.887977e-09 -3.095541e-09 -9.542480e-10 2.314836e-09 1.222407e-10 -4.175568e-10
7.982084e-09 -3.244180e-09 -9.398113e-10 2.238699e-09 3.876721e-11 -3.699734e-10
7.967421e-09 -3.238072e-09 -8.963617e-10 2.187352e-09 1.039008e-10 -3.784460e-10
9.804868e-09 -3.164932e-09 -1.092033e-09 2.674131e-09 2.990027e-10 -1.464628e-09
8.518541e-09 -3.113677e-09 -9.297683e-10 2.543819e-09 2.674047e-10 -7.339869e-10
8.484330e-09 -3.173000e-09 -1.250834e-09 2.777351e-09 2.517615e-10 -8.574763e-10
8.825335e-09 -3.166623e-09 -9.975669e-10 2.723419e-09 2.069415e-10 -5.627261e-10
9.281639e-09 -3.252959e-09 -9.103389e-10 2.230201e-09 1.786420e-10 -1.286483e-09
9.183892e-09 -3.154839e-09 -6.781615e-10 2.204150e-09 3.484900e-10 -1.412017e-09
8.511286e-09 -3.116419e-09 -2.924807e-10 2.544944e-09 5.752607e-10 -1.276991e-09
7.690928e-09 -3.117532e-09 -1.089735e-09 2.600877e-09 2.421818e-10 -3.699131e-10
7.732738e-09 -3.155496e-09 -1.031768e-09 2.485929e-09 2.399034e-10 -5.273174e-10
7.439453e-09 -3.250413e-09 -1.080173e-09 2.286530e-09 1.697723e-10 -6.953440e-10
7.579223e-09 -3.163019e-09 -9.944643e-10 2.401026e-09 2.902018e-10 -5.662248e-10
7.157827e-09 -2.364823e-09 -9.187131e-10 3.218655e-09 2.178025e-10 -7.959136e-10
6.659947e-09 -1.847180e-09 -9.025067e-10 3.662553e-09 3.102046e-10 -7.325790e-10
6.612362e-09 -1.982947e-09 -9.024316e-10 3.419509e-09 3.213162e-10 -6.931573e-10
6.148867e-09 -1.937503e-09 -4.792380e-10 3.929906e-09 1.034992e-10 -1.178265e-09
7.692856e-09 -2.707947e-09 -1.086639e-09 2.923043e-09 1.916402e-10 -4.377714e-10
7.630478e-09 -2.714083e-09 -9.336696e-10 2.903319e-09 2.830346e-10 -1.834726e-10
7.740548e-09 -2.991612e-09 -9.586585e-10 2.543467e-09 1.279957e-10 -5.730070e-10
7.717740e-09 -2.981225e-09 -9.854006e-10 2.602120e-09 2.419325e-10 -6.018701e-10
6.473413e-09 -2.349912e-09 -1.041344e-09 3.188048e-09 2.455225e-10 -4.920602e-10
6.676705e-09 -2.008261e-09 -1.071855e-09 3.531567e-09 2.384739e-10 -5.651500e-10
6.527928e-09 -2.106795e-09 -9.109059e-10 3.384340e-09 2.894596e-10 -3.734804e-10
5.868520e-09 -1.942755e-09 -6.177405e-10 3.989107e-09 6.371037e-11 -9.808620e-10
8.792877e-09 -2.510635e-09 -1.264181e-09 3.664959e-09 3.304778e-10 -7.564217e-10
7.584982e-09 -2.518980e-09 -9.276016e-10 3.459835e-09 1.814100e-10 -7.112837e-10
8.371702e-09 -2.509373e-09 -1.327379e-09 3.372893e-09 4.346258e-10 -5.927181e-10
8.360866e-09 -2.547060e-09 -1.271909e-09 3.545564e-09 3.062799e-10 -6.246275e-10
8.308969e-09 -2.597679e-09 -6.173986e-10 3.817834e-09 3.029899e-11 -8.866189e-10
7.353432e-09 -2.037576e-09 -6.470628e-10 4.075664e-09 -1.983108e-11 -1.101229e-09
7.549491e-09 -2.072963e-09 -1.148414e-09 4.199097e-09 1.506555e-10 -1.248103e-09
1.077180e-08 -3.524780e-09 -1.387778e-09 2.847844e-09 3.377930e-10 -1.060876e-09
1.067223e-08 -3.697002e-09 -1.300248e-09 2.437426e-09 3.034115e-10 -1.430772e-09
9.870215e-09 -3.657160e-09 -1.320223e-09 2.189450e-09 2.711005e-10 -1.558774e-09
9.656646e-09 -3.641205e-09 -1.079086e-09 2.159305e-09 3.536853e-10 -1.490297e-09
1.093306e-08 -3.430245e-09 -1.336288e-09 2.990808e-09 2.628672e-10 -1.195011e-09
1.073200e-08 -3.631421e-09 -1.265889e-09 2.501904e-09 2.521680e-10 -1.485690e-09
1.046400e-08 -3.635673e-09 -1.032385e-09 2.538339e-09 3.008556e-10 -1.715913e-09
1.019770e-08 -3.633842e-09 -9.482425e-10 2.506408e-09 2.858448e-10 -1.275138e-09
1.002737e-08 -2.625194e-09 -1.170505e-09 4.037001e-09 3.455533e-11 -1.684128e-09
1.059208e-08 -2.573219e-09 -1.100850e-09 4.347959e-09 1.747276e-10 -1.477609e-09
9.024567e-09 -2.158098e-09 -1.141439e-09 4.251115e-09 8.406703e-11 -1.766340e-09
8.528034e-09 -2.363682e-09 -5.778067e-10 4.684429e-09 3.559233e-11 -2.153728e-09
8.193698e-09 -2.623287e-09 -1.514295e-09 3.835688e-09 1.634610e-10 -8.321172e-10
8.179163e-09 -2.575050e-09 -1.317480e-09 3.845853e-09 4.544395e-10 -6.095768e-10
8.810614e-09 -2.353092e-09 -6.266663e-10 4.606831e-09 5.805905e-11 -2.152202e-09
7.400179e-09 -2.398149e-09 -9.205341e-10 4.873408e-09 -9.965295e-11 -1.011636e-09
1.002354e-08 -3.418054e-09 -1.099802e-09 2.719514e-09 1.462864e-10 -1.070837e-09
1.031800e-08 -3.642062e-09 -1.040956e-09 2.271713e-09 1.646507e-10 -1.302073e-09
9.735301e-09 -3.639779e-09 -8.945090e-10 2.264828e-09 1.448240e-10 -1.366974e-09
9.534665e-09 -3.587008e-09 -8.376998e-10 2.266917e-09 -4.018562e-11 -1.029642e-09
1.015101e-08 -2.780160e-09 -1.047487e-09 4.067094e-09 5.898276e-11 -1.817041e-09
1.186455e-08 -2.738133e-09 -1.520369e-09 4.157203e-09 1.343826e-10 -2.089961e-09
1.137640e-08 -2.812353e-09 -1.711161e-09 4.146984e-09 2.191869e-10 -1.778532e-09
1.154007e-08 -2.765071e-09 -1.775037e-09 3.922142e-09 3.781166e-10 -1.798368e-09
1.037322e-08 -2.313235e-09 -1.005004e-09 5.131951e-09 -2.168128e-10 -3.149189e-09
9.915528e-09 -2.260554e-09 -4.996004e-10 4.833035e-09 -3.889540e-10 -2.523100e-09
1.135437e-08 -2.846684e-09 -6.152101e-10 4.424160e-09 -1.148803e-10 -2.184828e-09
9.551262e-09 -2.535836e-09 -1.048513e-09 3.738497e-09 1.557706e-10 -1.839005e-09
8.957050e-09 -1.956417e-09 -1.040578e-09 4.276819e-09 2.269310e-10 -1.743232e-09
8.942700e-09 -2.089622e-09 -1.029170e-09 4.198878e-09 2.224111e-10 -1.726867e-09
8.519615e-09 -2.264915e-09 -5.451661e-10 4.713033e-09 9.268735e-11 -2.139657e-09
1.082319e-08 -3.368270e-09 -1.434967e-09 3.175125e-09 3.661962e-10 -1.309961e-09
1.044159e-08 -3.383194e-09 -1.033807e-09 3.321906e-09 3.159024e-10 -1.593795e-09
1.006398e-08 -3.398961e-09 -1.016597e-09 3.090208e-09 3.346503e-10 -9.724770e-10
1.027270e-08 -3.472760e-09 -9.534868e-10 2.911715e-09 2.804391e-10 -1.360349e-09
9.896331e-09 -3.482189e-09 -1.115941e-09 2.612013e-09 1.882718e-10 -9.759489e-10
1.027605e-08 -3.680542e-09 -1.040428e-09 2.229543e-09 1.849715e-10 -1.272875e-09
9.971223e-09 -3.587325e-09 -7.013758e-10 2.551269e-09 -1.036876e-10 -1.383029e-09
9.805717e-09 -3.615108e-09 -8.475500e-10 1.925100e-09 9.613582e-11 -1.122760e-09
1.150012e-08 -3.508227e-09 -1.199342e-09 2.714096e-09 4.122216e-10 -1.435272e-09
1.333327e-08 -3.504091e-09 -1.276091e-09 2.678314e-09 3.585262e-10 -2.814735e-09
1.162628e-08 -3.511869e-09 -1.341090e-09 2.794919e-09 2.954217e-10 -1.473654e-09
1.140336e-08 -3.510257e-09 -1.708592e-09 2.793472e-09 3.063910e-10 -1.798372e-09
1.138436e-08 -3.536000e-09 -3.537419e-10 2.359761e-09 6.959089e-10 -2.504198e-09
1.229600e-08 -3.625860e-09 -6.740781e-10 1.957659e-09 4.401761e-10 -2.597545e-09
1.236382e-08 -3.642098e-09 -1.015227e-09 1.995632e-09 3.477647e-10 -2.551552e-09
8.060034e-09 -2.487688e-09 -1.384271e-09 3.600311e-09 2.962894e-10 -1.055685e-09
8.436869e-09 -2.086464e-09 -1.385537e-09 4.212155e-09 2.072386e-10 -1.299639e-09
6.855541e-09 -2.099500e-09 -7.866698e-10 4.279278e-09 1.010098e-10 -1.370075e-09
8.795199e-09 -2.224517e-09 -5.969449e-10 4.596314e-09 1.274203e-10 -2.169064e-09
1.035765e-08 -3.300977e-09 -1.102338e-09 2.982140e-09 2.110840e-10 -1.024442e-09
9.505991e-09 -3.299035e-09 -9.324153e-10 2.927814e-09 1.765355e-10 -1.084899e-09
1.007904e-08 -3.398201e-09 -8.055090e-10 2.694087e-09 1.606775e-10 -8.519735e-10
1.019942e-08 -3.396217e-09 -8.942782e-10 2.742513e-09 1.545620e-10 -1.339212e-09
1.706481e-08 -4.438774e-09 -1.492115e-09 4.061596e-09 -2.378918e-10 -5.196166e-09
1.496457e-08 -4.211495e-09 -9.790897e-10 3.606778e-09 2.162861e-11 -4.025418e-09
1.577439e-08 -4.411049e-09 -1.761086e-09 3.295368e-09 3.357037e-11 -4.589387e-09
1.477256e-08 -4.377397e-09 -1.173188e-09 3.374848e-09 -1.607023e-10 -4.251479e-09
1.428907e-08 -4.410943e-09 -8.474577e-10 3.510360e-09 -2.326773e-10 -3.785532e-09
1.349089e-08 -4.452798e-09 2.799792e-10 3.693510e-09 -6.066860e-11 -4.461086e-09
1.584689e-08 -4.397995e-09 1.327273e-09 3.230842e-09 2.513341e-10 -6.032143e-09
1.191920e-08 -2.791849e-09 -1.604185e-09 4.048009e-09 5.107275e-10 -2.573550e-09
1.147156e-08 -2.869104e-09 -8.185803e-10 4.941955e-09 2.254005e-10 -3.538514e-09
1.095006e-08 -2.994411e-09 -1.112835e-09 5.245248e-09 -6.541268e-11 -2.550144e-09
1.070998e-08 -2.860753e-09 -6.533224e-10 5.183949e-09 2.125169e-10 -2.855820e-09
1.319888e-08 -2.786562e-09 -1.391876e-09 3.964830e-09 5.471489e-10 -3.113135e-09
1.217897e-08 -2.867631e-09 -7.106189e-10 4.899591e-09 2.474935e-10 -3.836054e-09
1.275723e-08 -2.849163e-09 -5.969483e-10 5.007767e-09 3.004635e-10 -3.571813e-09
1.209744e-08 -2.645433e-09 -6.122478e-10 4.693515e-09 3.574126e-10 -3.848680e-09
1.214416e-08 -2.777954e-09 -2.026424e-09 4.323711e-09 2.918756e-10 -2.410857e-09
1.175935e-08 -2.861872e-09 -1.294069e-09 5.292762e-09 -2.528589e-11 -3.316301e-09
1.187941e-08 -2.428803e-09 -1.483220e-09 5.577148e-09 1.528810e-10 -3.067010e-09
1.079899e-08 -2.420508e-09 -1.166872e-09 5.280658e-09 6.000580e-11 -2.654124e-09
1.353319e-08 -2.768303e-09 -1.722106e-09 4.203588e-09 3.461108e-10 -3.079004e-09
1.263819e-08 -2.857170e-09 -1.088696e-09 5.228473e-09 7.108578e-12 -3.757146e-09
1.252552e-08 -2.101240e-09 -9.136114e-10 5.186719e-09 3.744012e-10 -3.757733e-09
1.251096e-08 -2.332484e-09 -8.524679e-10 5.102790e-09 4.904526e-10 -3.759182e-09
1.304516e-08 -3.942610e-09 -1.613714e-09 3.206800e-09 3.189736e-10 -2.911302e-09
1.308361e-08 -3.996453e-09 -9.573839e-10 3.213938e-09 3.309897e-10 -3.074036e-09
1.202062e-08 -4.124562e-09 -5.091420e-10 2.990032e-09 5.223080e-10 -3.379554e-09
1.312714e-08 -4.124389e-09 -1.282729e-09 2.902502e-09 5.489994e-10 -2.350976e-09
1.353002e-08 -3.641683e-09 -1.569926e-09 2.753760e-09 1.529289e-10 -2.758442e-09
1.352861e-08 -3.773834e-09 -9.617822e-10 2.836835e-09 1.157229e-10 -2.912346e-09
1.227613e-08 -3.807686e-09 -1.081686e-09 2.621718e-09 1.917260e-10 -2.505594e-09
1.323992e-08 -3.897559e-09 -1.305272e-09 2.468603e-09 -2.303377e-11 -2.275940e-09
1.639291e-08 -2.990044e-09 -1.761467e-09 4.493647e-09 -2.911287e-10 -4.745942e-09
1.402478e-08 -3.118665e-09 -1.034377e-09 4.418900e-09 7.394805e-11 -3.687890e-09
1.602356e-08 -3.094580e-09 -2.174102e-09 4.199491e-09 2.361251e-10 -4.277101e-09
1.481452e-08 -3.125632e-09 -1.817745e-09 4.407472e-09 1.648255e-10 -4.108867e-09
1.386328e-08 -3.266168e-09 6.389627e-10 5.811440e-09 -1.152895e-09 -4.860971e-09
1.353471e-08 -2.707702e-09 4.709362e-10 5.669328e-09 -9.508401e-10 -5.208948e-09
1.419189e-08 -2.631162e-09 -1.222046e-09 6.153317e-09 -5.408910e-10 -5.673729e-09
1.316525e-08 -3.915653e-09 -1.579052e-09 2.410937e-09 2.709310e-10 -2.559040e-09
1.322171e-08 -4.233400e-09 -1.051662e-09 2.418263e-09 3.198916e-10 -2.734221e-09
1.323807e-08 -4.132238e-09 -1.028073e-09 2.377375e-09 -2.381602e-10 -2.485848e-09
1.284558e-08 -4.012390e-09 -8.212000e-10 9.030826e-10 3.082230e-10 -2.701726e-09
1.863047e-08 -3.958921e-09 -2.688852e-09 2.196512e-09 2.503706e-10 -3.991461e-09
1.590995e-08 -3.944461e-09 -1.774369e-09 2.485654e-09 3.613216e-10 -3.302881e-09
1.570522e-08 -3.964112e-09 -2.026541e-09 2.344688e-09 1.882616e-10 -3.572464e-09
1.567254e-08 -4.072804e-09 -2.001354e-09 2.281695e-09 1.904521e-10 -3.581022e-09
1.702957e-08 -4.033600e-09 -1.724642e-09 8.728884e-10 4.660778e-10 -4.463636e-09
1.498930e-08 -4.034666e-09 -1.740011e-09 9.600233e-10 4.596357e-10 -3.591335e-09
1.497398e-08 -4.194965e-09 -1.803532e-09 2.677831e-09 2.254406e-10 -3.345484e-09
1.737254e-08 -4.128186e-09 -1.738101e-09 1.311768e-09 6.379478e-10 -4.453284e-09
1.760552e-08 -4.236286e-09 -2.115140e-09 1.170499e-09 1.700133e-10 -4.235091e-09
1.761135e-08 -4.446047e-09 -1.046856e-09 1.213776e-09 2.514690e-10 -4.379282e-09
1.529886e-08 -4.441216e-09 -1.558168e-09 1.203223e-09 2.840438e-10 -3.143868e-09
1.960057e-08 -3.699598e-09 -9.668590e-10 4.379827e-09 -7.282958e-10 -7.528126e-09
2.404620e-08 -3.793471e-09 -1.332957e-09 3.909918e-09 -9.767040e-10 -9.836380e-09
2.093670e-08 -3.742899e-09 -2.502115e-09 4.504372e-09 -4.665200e-10 -7.997898e-09
2.422121e-08 -3.687100e-09 -2.199098e-09 4.069759e-09 -2.632705e-10 -9.371214e-09
2.162848e-08 -3.596495e-09 4.285275e-10 6.961273e-09 -1.298611e-09 -1.286398e-08
1.963844e-08 -3.474632e-09 8.413190e-10 5.622996e-09 -1.530681e-09 -9.617873e-09
2.062483e-08 -3.859326e-09 8.555148e-10 5.469254e-09 -1.421590e-09 -9.356810e-09
2.002606e-08 -3.341503e-09 -9.390406e-10 4.804239e-09 -9.313608e-10 -7.851078e-09
1.917519e-08 -3.281009e-09 -6.309788e-10 5.191144e-09 -6.989436e-10 -7.759217e-09
1.845747e-08 -2.887388e-09 -8.357204e-10 5.014155e-09 -6.394863e-10 -8.198750e-09
1.680092e-08 -3.330016e-09 1.562836e-09 6.834212e-09 -1.215148e-09 -1.011422e-08
1.894997e-08 -4.482956e-09 -1.863949e-09 2.938371e-09 2.097805e-10 -6.400000e-09
1.895249e-08 -4.584146e-09 -9.930812e-10 2.915650e-09 -1.560321e-10 -6.611454e-09
1.795524e-08 -4.810838e-09 -3.768206e-10 3.402941e-09 1.659434e-10 -7.535755e-09
1.754391e-08 -4.920486e-09 -1.828858e-10 3.017400e-09 2.718602e-10 -6.634425e-09
1.509301e-08 -4.475134e-09 -1.847731e-10 2.719342e-09 4.206276e-10 -5.979211e-09
1.513160e-08 -4.582274e-09 -4.130598e-10 2.764560e-09 -2.674351e-11 -5.482876e-09
1.550471e-08 -4.869712e-09 1.271918e-09 2.824955e-09 -1.863939e-11 -6.290901e-09
1.318687e-08 -4.936024e-09 4.022600e-10 3.225040e-09 -2.756675e-10 -4.850409e-09
1.523633e-08 -3.452123e-09 -1.920129e-09 3.904997e-09 -4.207762e-10 -5.562452e-09
1.514772e-08 -3.446888e-09 -1.333304e-09 3.967999e-09 7.540031e-11 -5.862261e-09
1.574075e-08 -3.339498e-09 1.213467e-09 6.033840e-09 -7.579103e-10 -9.505608e-09
1.251569e-08 -3.327546e-09 -1.295188e-10 6.115636e-09 -1.053413e-09 -5.806433e-09
1.985926e-08 -3.093795e-09 -9.176608e-10 4.777559e-09 -8.333931e-10 -7.915913e-09
1.917139e-08 -2.897509e-09 -8.895876e-10 5.506353e-09 -6.836192e-10 -7.900721e-09
1.935971e-08 -2.757720e-09 -7.772114e-10 6.448201e-09 -8.573243e-10 -8.272874e-09
1.825754e-08 -3.290613e-09 1.367255e-09 7.804588e-09 -1.334375e-09 -9.517038e-09
2.228415e-08 -4.309643e-09 -1.761645e-09 1.501925e-09 4.245080e-10 -6.833024e-09
2.699755e-08 -4.354958e-09 -4.275943e-10 7.204937e-10 7.720340e-10 -1.147109e-08
2.157572e-08 -4.368149e-09 -1.755638e-09 1.017785e-09 4.137811e-10 -7.083953e-09
2.106714e-08 -4.382410e-09 -2.609061e-09 1.128326e-09 5.273115e-10 -7.831484e-09
2.074473e-08 -4.299117e-09 1.079697e-09 -3.795335e-11 1.726394e-09 -9.586845e-09
2.214685e-08 -4.190086e-09 4.945444e-10 -8.399255e-10 1.328355e-09 -9.686559e-09
2.285775e-08 -4.330286e-09 -7.369758e-10 -4.303957e-10 8.938674e-10 -8.885689e-09
1.552732e-08 -2.944326e-09 -2.123921e-09 4.332302e-09 -3.296128e-10 -5.362859e-09
1.648561e-08 -2.626526e-09 -2.107297e-09 6.006560e-09 -4.325766e-10 -6.268036e-09
1.226883e-08 -2.792920e-09 2.898570e-12 6.001927e-09 -7.474315e-10 -5.979097e-09
1.677656e-08 -3.054296e-09 8.807715e-10 7.178638e-09 -8.164030e-10 -8.632744e-09
1.825855e-08 -4.295558e-09 -2.326628e-09 1.571101e-09 4.300055e-10 -5.232588e-09
1.814958e-08 -4.893177e-09 -1.762491e-09 1.234351e-09 5.325759e-10 -5.391585e-09
1.526674e-08 -4.353200e-09 -1.679628e-09 1.404670e-11 7.467215e-10 -5.983410e-09
1.450279e-08 -4.245977e-09 -9.555556e-10 -9.087954e-11 1.043038e-09 -5.986730e-09
1.757936e-08 -4.263537e-09 -1.355867e-09 1.394631e-09 2.254126e-10 -4.850546e-09
1.776457e-08 -4.390664e-09 -1.665138e-09 1.214934e-09 -3.167361e-10 -4.678983e-09
1.732479e-08 -4.294507e-09 -7.902703e-10 -4.395300e-10 4.836682e-10 -4.597936e-09
1.775978e-08 -4.778136e-09 -8.042095e-10 1.171198e-09 9.905343e-11 -4.618157e-09
2.396151e-08 -4.333292e-09 -3.451860e-10 3.797290e-09 -5.497743e-10 -1.368834e-08
2.456991e-08 -4.430070e-09 6.069740e-09 4.288937e-09 -4.838659e-10 -1.850253e-08
2.468160e-08 -5.675345e-09 6.520908e-09 3.659786e-09 -1.289981e-09 -1.826331e-08
2.269397e-08 -6.165364e-09 6.462939e-09 5.354228e-09 -1.037577e-09 -1.966423e-08
2.657698e-08 -5.119639e-09 6.974871e-10 4.763967e-09 -7.016236e-10 -1.552100e-08
3.262707e-08 -5.489702e-09 1.607142e-09 2.758849e-09 -8.517624e-10 -2.022639e-08
2.481465e-08 -5.594319e-09 1.172916e-10 3.671709e-09 -1.381382e-09 -1.654171e-08
3.074363e-08 -5.949347e-09 9.832358e-10 1.826966e-09 -2.554637e-10 -1.898785e-08
2.857245e-08 -6.108455e-09 7.565268e-09 2.878327e-09 -3.964463e-10 -2.371601e-08
2.372030e-08 -6.807568e-09 7.808102e-09 5.032968e-09 -9.535095e-10 -2.089096e-08
2.476857e-08 -5.522816e-09 9.547013e-09 3.777959e-09 -2.462994e-09 -1.933799e-08
2.238808e-08 -3.783982e-09 -2.201668e-09 3.957382e-09 -9.487441e-10 -1.103922e-08
2.579352e-08 -3.595954e-09 -2.052892e-09 6.730748e-09 -1.124907e-09 -1.285646e-08
2.332190e-08 -3.475322e-09 -1.048190e-09 5.599676e-09 -1.484122e-09 -1.041011e-08
1.999333e-08 -4.408827e-09 2.239760e-09 8.322339e-09 -1.912733e-09 -1.316913e-08
2.666427e-08 -4.917817e-09 -1.216580e-10 2.873746e-10 5.351577e-10 -1.165446e-08
2.274160e-08 -4.922243e-09 -4.103642e-10 1.547625e-10 5.819420e-10 -1.035464e-08
2.379071e-08 -5.042137e-09 -1.173124e-09 -9.544007e-11 -6.068129e-11 -9.643015e-09
2.417073e-08 -5.196709e-09 1.701441e-09 -6.450776e-10 8.865457e-10 -1.077606e-08
2.723875e-08 -3.420684e-09 6.140320e-10 1.771976e-09 3.859282e-10 -1.577896e-08
2.242368e-08 -3.993501e-09 3.331519e-09 5.063945e-09 -1.567599e-09 -1.605384e-08
2.127771e-08 -4.064465e-09 3.219329e-09 5.391258e-09 -1.349454e-09 -1.751067e-08
2.353420e-08 -3.203123e-09 3.476778e-09 3.478406e-09 -6.949137e-10 -1.827299e-08
2.397266e-08 -3.987405e-09 -6.670624e-10 -1.109890e-09 7.639385e-10 -1.030041e-08
2.314336e-08 -4.095996e-09 -8.542747e-10 -1.543906e-10 -6.103524e-10 -9.626584e-09
2.191162e-08 -3.666931e-09 1.300431e-09 -4.777632e-09 1.452298e-09 -1.194749e-08
1.993716e-08 -4.167952e-09 8.993282e-10 -2.448738e-09 9.318343e-10 -8.416810e-09
2.659553e-08 -4.995711e-09 -1.800690e-09 8.388398e-10 1.047787e-09 -1.273426e-08
2.550912e-08 -4.987049e-09 -1.820152e-09 7.255047e-10 9.895740e-10 -1.094528e-08
2.595303e-08 -5.399023e-09 3.260181e-10 -2.348489e-10 1.443766e-09 -1.255121e-08
2.319148e-08 -5.324890e-09 3.076794e-09 -2.687415e-10 8.353301e-10 -1.476872e-08
2.505833e-08 -4.049516e-09 -2.618107e-09 -7.584513e-10 1.177136e-09 -1.107233e-08
2.465598e-08 -3.722129e-09 -1.995135e-09 -4.535409e-09 1.895783e-09 -1.288422e-08
2.000908e-08 -4.770918e-09 4.834138e-10 -3.987933e-09 1.864493e-09 -1.041613e-08
2.355388e-08 -4.348061e-09 -9.570074e-10 -2.605468e-09 1.665921e-09 -9.842533e-09
3.098712e-08 -3.937869e-09 -9.824342e-10 4.189170e-09 -8.585462e-10 -1.454895e-08
2.776598e-08 -4.862636e-09 3.759813e-09 8.692863e-09 -1.459918e-09 -1.718052e-08
2.753595e-08 -4.010947e-09 8.192302e-11 8.081163e-09 -2.507114e-09 -1.505205e-08
2.634607e-08 -3.762908e-09 -1.793086e-09 7.462782e-09 -1.259237e-09 -1.344395e-08
2.699017e-08 -4.375030e-09 3.755222e-09 8.821898e-09 -2.156397e-09 -1.646511e-08
2.872467e-08 -4.090510e-09 1.862344e-09 6.763922e-09 -1.607091e-09 -1.673680e-08
2.882110e-08 -3.748143e-09 2.129547e-09 7.259846e-09 -1.008630e-09 -1.656593e-08
2.360975e-08 -3.636779e-09 3.436671e-09 7.674451e-09 -1.341827e-09 -1.522396e-08
2.801171e-08 -3.463927e-09 3.604493e-09 6.494293e-09 -5.563466e-10 -1.706055e-08
2.167868e-08 -4.038931e-09 -1.017569e-09 2.510381e-09 -3.459872e-10 -1.204280e-08
2.089272e-08 -4.012948e-09 -5.255427e-10 2.446093e-09 -5.239078e-10 -1.077408e-08
1.646050e-08 -5.620424e-09 3.086781e-09 3.942229e-09 -1.422783e-09 -1.291909e-08
1.644230e-08 -4.320227e-09 3.037957e-09 3.657355e-09 -1.157277e-10 -1.353693e-08
2.841869e-08 -3.891005e-09 1.202152e-09 2.422184e-09 1.523510e-10 -1.666590e-08
3.330063e-08 -3.755083e-09 1.523689e-09 1.616284e-09 -1.973557e-10 -2.081901e-08
3.055874e-08 -3.924524e-09 1.143286e-09 2.458051e-09 3.760129e-10 -1.867239e-08
3.446099e-08 -3.948240e-09 1.119200e-09 2.352667e-09 2.481871e-10 -2.094508e-08
2.970760e-08 -3.616942e-09 3.640418e-09 7.617064e-09 -2.417841e-09 -2.239701e-08
2.902567e-08 -4.244616e-09 5.649502e-09 6.917509e-09 -2.300255e-09 -2.182041e-08
2.726515e-08 -4.758424e-09 5.473151e-09 7.944760e-09 -2.602293e-09 -2.123530e-08
3.146127e-08 -4.057887e-09 -1.705618e-09 -9.575408e-10 1.299431e-09 -1.364672e-08
3.734287e-08 -3.129246e-09 1.573840e-10 -3.062554e-09 1.344750e-09 -1.983976e-08
2.852726e-08 -3.159236e-09 -1.391620e-09 -2.524963e-09 1.926083e-09 -1.390483e-08
2.835070e-08 -3.048988e-09 -2.612284e-09 -3.217721e-09 1.488010e-09 -1.481462e-08
2.951166e-08 -4.623218e-09 2.983355e-09 -5.127263e-09 4.707693e-09 -1.741722e-08
2.963893e-08 -4.977726e-09 2.200819e-09 -5.010949e-09 2.048090e-09 -1.476376e-08
3.016416e-08 -3.806134e-09 -1.226416e-09 -4.219221e-09 1.870019e-09 -1.506803e-08
3.557930e-08 -1.242399e-09 -2.281383e-09 -7.014793e-09 3.652432e-09 -2.221847e-08
3.555882e-08 -4.908136e-09 3.346455e-09 -9.108943e-09 4.482067e-09 -2.435954e-08
2.469982e-08 -1.993515e-09 1.632357e-09 -6.642939e-09 3.386966e-09 -2.004049e-08
3.435199e-08 -2.832960e-10 1.796066e-09 -1.588082e-08 4.397055e-09 -2.132264e-08
3.019325e-08 -2.561710e-09 -8.441309e-10 -2.930704e-09 2.076787e-09 -2.224856e-08
2.754438e-08 -3.988271e-09 7.427786e-09 -4.879996e-09 8.565678e-10 -2.428584e-08
2.732088e-08 -5.871729e-09 5.399742e-09 -4.178434e-09 3.507564e-09 -2.552712e-08
2.473675e-08 -5.926715e-09 3.043337e-09 -5.050944e-09 3.869552e-09 -1.923500e-08
3.625667e-08 -3.847304e-09 1.222749e-09 1.875496e-09 2.908124e-10 -2.509158e-08
2.997290e-08 -3.734368e-09 3.314216e-09 8.138686e-09 -1.885920e-09 -2.707936e-08
3.058595e-08 -4.296449e-09 6.532025e-09 7.837371e-09 -2.308434e-09 -2.565103e-08
2.253014e-08 -3.013320e-09 7.140322e-09 9.191083e-09 -3.651427e-09 -2.431798e-08
4.136803e-08 -2.998201e-09 3.145726e-09 -1.950266e-09 2.174433e-09 -2.979350e-08
4.202442e-08 -2.151792e-09 9.440260e-09 -4.742001e-09 3.598460e-10 -3.513744e-08
3.417480e-08 -3.642980e-09 5.459508e-09 -4.528588e-09 2.344486e-09 -3.182487e-08
4.382531e-08 -4.467300e-09 5.872499e-09 -5.233091e-09 3.259515e-09 -3.487012e-08
4.252944e-08 -4.406198e-09 1.671495e-08 -5.167451e-09 2.160777e-09 -3.954061e-08
3.077296e-08 -4.855602e-09 1.261372e-08 -2.305188e-09 7.999638e-10 -3.051961e-08
3.338752e-08 -3.994472e-09 1.241586e-08 -3.963212e-09 -2.370613e-11 -2.968839e-08
4.634625e-08 -3.921215e-09 1.077485e-09 1.660513e-09 -1.094411e-10 -3.091072e-08
4.377054e-08 -4.100086e-09 4.068510e-09 4.592902e-09 -2.747464e-09 -3.132349e-08
4.440731e-08 -3.826197e-09 2.759372e-09 7.767617e-09 -2.400791e-09 -3.525554e-08
4.247146e-08 -3.142347e-09 1.086040e-08 9.789381e-09 -5.085445e-09 -3.879995e-08
4.645793e-08 -1.142158e-09 -1.725287e-12 -8.079508e-09 4.198251e-09 -2.747010e-08
4.770205e-08 -9.387868e-11 3.218374e-09 -1.157621e-08 3.751939e-09 -3.222352e-08
4.162623e-08 -2.433353e-09 1.296014e-09 -1.172372e-08 4.866680e-09 -2.857762e-08
3.890572e-08 1.096180e-10 -1.682765e-10 -1.252125e-08 3.833507e-09 -2.588783e-08
3.930455e-08 -4.909398e-09 5.724503e-09 -9.265810e-09 4.564065e-09 -2.755063e-08
3.700121e-08 -7.046486e-10 6.099271e-09 -1.331096e-08 3.290867e-09 -2.606763e-08
4.017643e-08 -6.506048e-10 3.172282e-10 -1.377904e-08 3.773418e-09 -2.726913e-08
3.538984e-08 -5.358487e-09 -8.462048e-10 3.360972e-09 -1.586289e-09 -2.364120e-08
3.353224e-08 -5.644385e-09 7.480120e-09 4.398024e-09 -1.555535e-09 -2.773535e-08
2.929806e-08 -6.991374e-09 5.709849e-09 6.432339e-09 -2.672783e-09 -2.286722e-08
3.021208e-08 -7.026148e-09 1.011576e-08 1.390465e-09 -9.943608e-10 -2.955333e-08
3.026896e-08 -1.221101e-09 6.430146e-10 -6.940788e-09 3.281531e-09 -1.907103e-08
2.837380e-08 -1.757540e-09 2.871841e-09 -4.693072e-09 4.390416e-09 -1.788541e-08
2.847293e-08 -2.200956e-09 1.800331e-09 -4.705680e-09 4.843358e-10 -1.617535e-08
2.623424e-08 -6.774829e-10 5.476974e-09 -1.305926e-08 5.214019e-09 -1.911357e-08
4.142331e-08 -4.004054e-09 7.091346e-10 -1.788436e-09 3.918525e-10 -2.926431e-08
4.458729e-08 -1.620112e-09 1.038408e-08 -7.738517e-09 1.217146e-09 -3.746275e-08
5.426481e-08 -4.129163e-09 -1.368537e-09 -1.920334e-09 1.062741e-09 -3.299877e-08
4.652213e-08 -4.702502e-09 7.618960e-09 -7.504236e-09 4.145429e-09 -3.750441e-08
4.639519e-08 -3.250196e-09 6.830288e-09 6.721723e-09 -6.549395e-09 -3.463591e-08
3.961964e-08 -3.152374e-09 1.455901e-08 6.646075e-09 -7.522069e-09 -3.752761e-08
4.213701e-08 -3.639894e-09 1.427644e-08 -5.071444e-09 4.803693e-10 -3.817740e-08
4.997420e-08 -1.301492e-09 1.329222e-08 -1.075068e-08 5.680891e-09 -4.583234e-08
4.492383e-08 -2.543172e-09 1.757526e-08 -7.274632e-09 5.589778e-09 -5.005823e-08
4.377721e-08 -2.210862e-09 2.068402e-08 -8.202833e-09 4.434552e-09 -4.867329e-08
4.136946e-08 -1.650017e-09 2.338772e-08 -7.252397e-09 1.808937e-09 -4.691559e-08
3.697172e-08 7.802182e-09 2.707873e-09 -2.206166e-08 1.054462e-08 -3.303670e-08
3.355606e-08 5.917970e-09 -3.091717e-10 -1.558463e-08 8.131643e-09 -2.591571e-08
2.137577e-08 1.098650e-08 7.950989e-09 -2.725861e-08 1.526623e-08 -3.400292e-08
2.310274e-08 1.054724e-08 8.767297e-09 -2.665046e-08 1.498017e-08 -3.200200e-08
4.515409e-08 7.357789e-09 1.050794e-08 -1.956353e-08 1.001301e-08 -4.374116e-08
3.685206e-08 1.260926e-08 2.058324e-08 -2.368220e-08 1.549696e-08 -5.273843e-08
3.052198e-08 1.315191e-08 1.705508e-08 -2.687692e-08 1.668520e-08 -4.695588e-08
3.279512e-08 1.305519e-08 1.497985e-08 -2.635260e-08 1.726477e-08 -4.742380e-08
3.267423e-08 6.457571e-09 2.654722e-08 -2.515305e-08 1.623870e-08 -4.616959e-08
2.843528e-08 8.470201e-09 2.120569e-08 -2.366057e-08 1.342938e-08 -4.121604e-08
2.789801e-08 1.032233e-08 1.467970e-08 -2.330024e-08 1.402793e-08 -4.311979e-08
3.019248e-08 7.529380e-09 9.909073e-09 -2.006323e-08 1.213383e-08 -3.330419e-08
2.803777e-08 9.028408e-09 3.024357e-09 -1.797715e-08 8.892461e-09 -2.943222e-08
2.552096e-08 1.097564e-08 1.341633e-08 -2.735299e-08 1.506111e-08 -2.897558e-08
2.916350e-08 5.331794e-09 6.711081e-09 -1.397056e-08 7.178420e-09 -2.262409e-08
3.359042e-08 -6.404923e-10 1.085981e-08 -6.202817e-09 1.917935e-09 -3.799960e-08
3.449419e-08 -1.127864e-09 1.484583e-08 -5.310269e-09 2.873456e-09 -4.360605e-08
3.074551e-08 -2.744841e-09 1.087701e-08 -8.595027e-11 2.511519e-10 -3.320299e-08
2.676059e-08 -2.654960e-09 1.350795e-08 -7.904058e-10 7.376087e-10 -3.714905e-08
5.606906e-08 -1.972316e-09 6.908948e-09 -6.759083e-09 2.395020e-09 -4.330568e-08
5.188242e-08 -3.804459e-09 1.119969e-08 -1.649553e-09 1.262741e-09 -4.723450e-08
5.043577e-08 -8.758291e-10 1.189794e-08 -6.768941e-10 -3.784816e-09 -4.514794e-08
5.235662e-08 -3.757810e-09 1.182855e-08 8.712997e-09 -6.134905e-09 -4.524042e-08
4.114368e-08 5.138381e-09 1.415107e-08 -1.456568e-08 2.598425e-09 -4.139127e-08
3.571818e-08 1.512218e-08 1.746851e-08 -2.296824e-08 8.079041e-09 -4.906376e-08
2.816810e-08 4.478934e-09 1.526709e-08 -1.084428e-08 4.831777e-09 -4.564856e-08
5.348557e-08 4.931411e-09 2.341248e-08 -1.429646e-08 6.947637e-09 -6.045532e-08
4.276433e-08 7.777889e-09 5.144982e-08 -2.889991e-09 -6.316274e-09 -6.995375e-08
2.650049e-08 1.196253e-08 2.668057e-08 -1.267944e-08 -5.607179e-09 -4.039089e-08
2.897670e-08 1.138888e-08 2.443507e-08 -1.334399e-08 -3.276532e-09 -4.253325e-08
2.903131e-08 1.034249e-08 3.620243e-08 -2.964866e-08 2.237245e-08 -5.159853e-08
2.278534e-08 1.000372e-08 3.173460e-08 -2.743155e-08 2.104401e-08 -4.537983e-08
2.110746e-08 1.389000e-08 2.604513e-08 -2.635721e-08 1.869617e-08 -4.228225e-08
2.109174e-08 7.817684e-09 3.316456e-08 -2.447713e-08 1.803072e-08 -4.005789e-08
2.328448e-08 1.499010e-08 1.890578e-08 -2.168438e-08 8.298100e-09 -5.148013e-08
2.212261e-08 6.682335e-09 5.109886e-08 3.242365e-09 -3.352450e-09 -7.630080e-08
2.241548e-08 1.138532e-08 2.220795e-08 -9.041701e-09 -3.444933e-09 -4.575115e-08
1.316144e-08 1.573381e-08 3.020132e-08 -5.742801e-09 -9.359647e-09 -5.101768e-08
1.006106e-08 3.455553e-08 1.436389e-08 -3.272379e-08 2.129114e-08 -3.087609e-08
4.972056e-09 3.775058e-08 5.894455e-09 -2.772001e-08 1.694245e-08 -2.404932e-08
3.181717e-09 5.002423e-08 1.918870e-08 -3.366873e-08 3.012158e-08 -2.843541e-08
-4.038177e-10 4.128756e-08 1.046840e-08 -2.769720e-08 1.763277e-08 -1.777098e-08
4.735850e-08 1.318312e-08 3.824638e-08 -1.475217e-08 2.023287e-09 -7.305859e-08
3.636761e-08 1.802939e-08 5.628654e-08 -3.488038e-09 -1.479353e-08 -7.343407e-08
3.896284e-08 5.273631e-09 5.894443e-08 8.752212e-09 -8.682903e-09 -8.824738e-08
4.716023e-08 1.333251e-08 4.248656e-08 -2.247626e-09 -1.255368e-08 -7.178988e-08
-1.741883e-09 3.392645e-08 3.669079e-08 -1.337877e-08 9.879489e-09 -4.885875e-08
-2.405354e-08 6.568839e-08 3.554141e-08 -1.724299e-08 1.358283e-08 -3.410237e-08
1.390108e-10 2.672106e-08 4.826129e-08 -1.757542e-08 6.962757e-09 -4.313118e-08
2.008810e-09 2.368414e-08 4.637740e-08 -1.387002e-08 1.040611e-08 -5.092571e-08
2.089047e-09 2.377833e-08 5.751883e-08 -1.460761e-08 1.150964e-08 -6.275774e-08
-2.190454e-08 2.718456e-08 3.886362e-08 -1.343231e-08 9.430534e-09 -4.142667e-08
-3.644262e-10 2.729642e-08 2.960403e-08 -1.694059e-08 1.041218e-08 -3.244360e-08
1.054177e-08 4.368031e-08 3.366556e-08 -2.934489e-08 1.200739e-08 -5.929415e-08
-1.369548e-08 6.047462e-08 4.074621e-08 -2.771462e-08 1.590805e-08 -4.342973e-08
9.176072e-09 4.136692e-08 2.277464e-08 -1.870755e-08 1.769277e-08 -7.333222e-08
1.401910e-08 1.921898e-08 5.202970e-08 -2.331618e-08 1.244847e-08 -6.112148e-08
-1.251811e-09 6.577356e-08 5.575116e-08 -1.243011e-08 -1.760169e-08 -6.766144e-08
5.974793e-09 6.612883e-08 4.300021e-08 -1.444791e-08 -1.993696e-08 -6.530543e-08
5.920524e-09 1.779368e-08 5.770394e-08 -1.629712e-08 9.839545e-09 -6.490420e-08
2.368594e-08 9.369734e-09 3.452894e-08 -2.735187e-08 2.377617e-08 -5.474757e-08
2.356353e-08 9.294845e-09 2.845710e-08 -2.687303e-08 2.306183e-08 -4.870298e-08
2.737979e-08 7.301734e-09 3.230294e-08 -2.659807e-08 2.133243e-08 -4.392500e-08
1.251735e-08 8.195455e-09 4.226290e-08 -2.312695e-08 1.833855e-08 -5.415194e-08
3.661921e-09 3.245165e-08 1.361548e-08 -1.911903e-08 2.297401e-08 -4.874105e-08
-2.521813e-08 4.429502e-08 2.925158e-08 -1.117267e-08 2.575153e-08 -3.814890e-08
-1.331639e-08 4.637508e-08 3.764273e-08 -2.484307e-08 4.290474e-08 -4.760505e-08
3.588273e-09 4.819655e-08 2.924892e-08 -3.706930e-08 2.578600e-08 -3.772569e-08
1.790889e-09 5.116696e-08 1.105755e-08 -2.988977e-08 2.060490e-08 -2.741351e-08
-1.611796e-08 3.670759e-08 1.378192e-08 -1.376931e-08 1.579960e-08 -2.258006e-08
-2.292920e-08 4.712093e-08 1.896931e-08 -1.421375e-08 3.092002e-08 -3.392717e-08
-1.363628e-08 3.249471e-08 1.812932e-08 -2.842289e-08 1.510005e-08 -2.208750e-08
-6.132349e-09 2.203195e-08 6.409384e-08 -1.732025e-08 2.115755e-08 -5.940378e-08
-5.962827e-09 2.367530e-08 1.732644e-08 -4.240646e-09 1.295698e-08 -2.920686e-08
-6.299378e-09 1.110328e-08 1.173073e-08 -3.214724e-08 -1.041665e-08 -3.279413e-08
-9.674586e-09 1.628957e-08 2.640593e-08 -1.178556e-08 5.507981e-09 -2.505037e-08
6.558665e-10 4.647850e-08 1.620656e-08 -3.450556e-08 1.888292e-08 -2.466916e-08
1.077993e-10 6.453180e-09 6.492609e-09 -1.480030e-08 -1.349747e-09 -1.687640e-08
-4.392698e-10 1.728398e-08 2.140364e-08 -1.665796e-08 1.180044e-08 -1.817609e-08
7.151360e-09 3.492491e-08 1.464462e-08 -2.004930e-08 -1.037956e-09 -4.782072e-08
1.154774e-08 2.531113e-08 6.218944e-08 -9.175663e-09 5.383819e-09 -8.450130e-08
4.423343e-09 2.132414e-08 5.304479e-08 -1.916688e-08 1.486659e-08 -7.623646e-08
-4.497236e-09 1.860641e-08 3.277009e-08 -9.824064e-09 7.397475e-09 -4.813901e-08
-1.469756e-08 8.104464e-08 5.548463e-09 -2.811678e-08 3.204349e-08 -1.754637e-08
-1.454661e-08 8.260660e-08 -3.078384e-08 -2.278912e-08 2.541233e-08 -6.075250e-09
1.695227e-09 7.709431e-08 -2.145837e-08 -2.550626e-08 2.482932e-08 6.484036e-09
-1.841790e-08 8.855506e-08 -1.494253e-08 -2.352207e-08 1.135580e-08 -9.659361e-09
-4.757702e-08 6.815065e-08 -1.023940e-08 1.021235e-08 4.008859e-09 5.283114e-09
-2.762357e-08 7.389453e-08 -8.238971e-08 -1.711379e-08 -1.422799e-08 6.509364e-08
-7.409726e-09 5.367802e-08 -8.368082e-09 -1.192006e-08 -1.441231e-09 1.398985e-08
6.501705e-09 7.788661e-08 -7.662259e-09 -3.089298e-08 3.270773e-09 9.846940e-09
-1.456862e-08 7.790067e-08 -1.248842e-08 -2.942965e-08 6.706683e-09 -1.518332e-08
-3.814320e-08 8.246962e-08 -3.547321e-08 -1.113689e-08 -2.941389e-09 1.097797e-08
-7.656632e-09 6.713409e-08 -3.861320e-08 -1.001686e-08 6.517755e-09 1.936277e-08
-1.933253e-08 8.055177e-08 -2.965568e-09 -2.426739e-08 2.424964e-08 -9.255065e-09
-3.980062e-09 1.183298e-08 -1.670299e-08 -2.985009e-08 1.185888e-08 2.558438e-08
5.243080e-09 8.853657e-08 -4.082480e-10 -6.207034e-08 1.821141e-08 1.720569e-09
-1.392977e-08 7.800631e-08 2.741384e-09 -1.294103e-08 -2.677420e-08 9.050424e-09
-1.238826e-08 1.411086e-07 -5.384924e-08 -2.871966e-08 -1.316034e-08 -6.316105e-09
1.017069e-08 7.207092e-08 1.194953e-08 -3.790226e-08 3.975131e-08 -4.956820e-08
-1.471642e-08 8.199180e-08 -4.593861e-09 -3.770412e-08 2.345002e-08 -1.705337e-08
-9.599155e-09 3.396483e-08 3.314436e-08 -1.598016e-08 -6.161277e-09 -2.133853e-08
5.736692e-09 1.835310e-08 7.180081e-08 -1.337542e-08 1.248006e-08 -5.544328e-08
-1.066076e-08 2.450306e-08 4.382228e-08 -1.237941e-08 9.524701e-09 -3.385822e-08
-3.115406e-09 2.002050e-08 4.009899e-08 -1.214494e-08 -3.182973e-09 -1.756899e-08
-1.371237e-08 5.324221e-08 1.847199e-08 -1.599867e-08 2.758937e-08 -6.360280e-09
-2.577226e-08 5.782477e-08 -5.120622e-09 -5.247131e-09 1.090801e-08 1.057099e-08
-2.635604e-08 7.384674e-08 -3.425083e-09 -6.085304e-09 2.210145e-08 1.194602e-08
-6.502455e-09 5.491306e-08 -9.168527e-09 -1.190302e-08 1.068751e-08 1.340001e-08
4.113496e-09 5.773812e-08 3.135791e-08 -1.619529e-08 -2.283773e-09 -8.137917e-08
7.882298e-09 9.931780e-08 3.402109e-08 -2.968396e-08 2.903467e-08 -9.510304e-08
1.431881e-08 6.277110e-08 1.041941e-07 4.261369e-10 -4.258038e-08 -1.171994e-07
1.600078e-08 4.895208e-08 5.826199e-08 1.613565e-09 -1.687007e-08 -1.212507e-07
-7.019473e-09 6.247411e-08 1.904805e-08 -3.720953e-08 1.526934e-08 -6.940207e-08
7.029787e-09 5.740455e-08 2.940799e-08 -2.684801e-08 -1.908755e-08 -7.554551e-08
6.991986e-09 4.303298e-08 4.995722e-08 -1.393976e-08 -5.134972e-09 -9.178222e-08
7.036797e-09 4.131427e-08 5.301304e-08 -1.424817e-08 -7.916315e-09 -9.141135e-08
7.502208e-09 3.771038e-08 2.766975e-08 -2.773707e-08 6.833827e-09 -7.844918e-08
7.569411e-09 2.668960e-08 5.321020e-08 -3.591873e-08 1.617694e-09 -6.920634e-08
7.874607e-09 6.999259e-08 3.527755e-08 -3.219325e-08 -2.795707e-08 -7.251500e-08
4.530540e-09 6.754529e-08 3.527826e-08 -2.083617e-08 -2.853214e-08 -7.243573e-08
5.359140e-09 6.829787e-08 3.052421e-08 -2.162595e-08 -2.597733e-08 -7.517007e-08
-2.748676e-08 5.231549e-08 2.072793e-08 -9.574511e-09 2.891605e-08 -4.251727e-09
-3.246485e-08 7.615463e-08 4.560254e-10 -9.290958e-09 2.178317e-08 6.228246e-09
-3.141284e-08 7.378198e-08 -3.193708e-09 -5.475092e-09 2.206309e-08 1.272710e-08
-3.073579e-08 5.752136e-08 -4.899676e-09 -3.994671e-09 1.060401e-08 1.149643e-08
2.585604e-08 3.104582e-08 5.267461e-08 -1.070246e-08 1.938755e-09 -5.982372e-08
3.852848e-08 -1.467470e-08 7.878161e-08 -3.629379e-08 1.734124e-08 -9.408372e-08
-3.128082e-09 4.040344e-08 5.369329e-08 -1.215584e-08 -2.639585e-09 -6.508549e-08
1.447082e-08 6.168838e-08 5.863602e-08 -3.865294e-08 3.136006e-08 -7.985012e-08
1.466241e-08 -1.499131e-08 8.829837e-08 -1.475245e-08 3.169397e-08 -9.500966e-08
1.904714e-08 1.649409e-08 5.254258e-08 -4.260332e-08 5.284356e-09 -6.447756e-08
3.889015e-08 1.098702e-09 6.174800e-08 -4.350254e-08 2.542471e-08 -8.989723e-08
1.229145e-08 2.461929e-08 7.709470e-08 -2.494379e-08 2.849127e-08 -8.662035e-08
2.955014e-08 1.212623e-08 7.438262e-08 -4.576069e-08 6.952027e-09 -8.022415e-08
-4.554037e-08 4.899849e-08 1.062955e-08 1.218870e-08 3.295309e-09 1.219914e-08
-2.499571e-08 8.455534e-08 -8.772919e-08 -2.243817e-08 -1.188741e-08 6.435287e-08
-4.323552e-08 7.726740e-08 -2.637261e-09 2.453479e-08 1.111694e-08 2.251715e-08
-5.240059e-09 8.431521e-08 -1.519201e-08 -2.169236e-08 -1.087501e-08 2.003486e-08
-6.076621e-09 1.073662e-07 -3.526526e-08 -1.837905e-08 -1.421725e-08 2.474951e-08
-3.502093e-08 3.366387e-08 -4.579167e-08 3.185061e-08 -4.274640e-08 4.584595e-08
-5.044821e-08 6.755479e-08 -2.980898e-08 3.479695e-08 -1.457197e-08 3.749362e-08
2.925322e-08 1.660656e-08 -6.342103e-08 -5.346516e-08 9.538877e-09 -2.617993e-08
3.586580e-08 1.532501e-07 -7.402502e-08 -8.679771e-08 -3.256778e-08 -2.189223e-08
2.672046e-08 6.697451e-08 1.366163e-08 -5.725639e-08 4.068967e-08 -5.903276e-08
3.347792e-08 1.003728e-07 -6.545162e-09 -8.720023e-08 4.679420e-08 -8.520262e-08
-1.766239e-08 2.880661e-07 -1.401303e-07 3.042127e-09 8.450497e-09 4.078519e-08
9.550904e-09 1.859393e-07 -1.856575e-07 3.833902e-08 -8.988453e-08 2.995075e-08
-9.332425e-09 1.349302e-07 -1.751597e-07 -1.849170e-08 -9.144576e-08 4.523906e-08
-2.067424e-08 1.331821e-07 -1.761762e-07 -6.498222e-09 -8.643258e-08 4.163103e-08
-1.154822e-08 1.429653e-07 -8.539801e-08 -1.603615e-08 -3.879995e-08 -9.745607e-09
-3.966929e-08 1.544364e-07 -9.596753e-08 -4.243492e-08 -1.857819e-08 7.807162e-09
-6.936892e-09 1.555068e-07 -1.091739e-07 -2.779220e-08 2.594217e-09 2.838187e-08
4.780752e-09 7.867656e-08 -1.287027e-07 -4.109565e-08 -1.696588e-08 1.396278e-08
1.547728e-08 8.240368e-08 -4.455760e-09 -4.747854e-08 1.278057e-08 -4.213080e-08
3.622409e-08 8.089916e-08 -3.708879e-08 -2.405920e-08 -5.315720e-09 -2.744584e-08
-8.978456e-09 7.141065e-08 -2.112854e-08 -4.596096e-08 -1.615822e-08 -4.015516e-08
3.064187e-09 7.963547e-09 -2.049126e-08 -1.256854e-08 -1.973675e-08 -4.184758e-08
6.039181e-09 3.758338e-07 -2.259674e-07 -9.780270e-08 2.551394e-08 -1.118291e-07
4.858840e-09 1.596995e-07 1.061192e-07 -1.145470e-07 3.533510e-09 -1.197828e-07
-1.161008e-08 9.997183e-08 1.256855e-07 -8.275589e-08 5.647815e-08 -1.534490e-07
-6.166719e-09 1.306387e-07 -4.787726e-08 2.517787e-08 2.405760e-08 1.573795e-09
3.829938e-08 1.580152e-07 -1.619287e-07 1.227025e-08 -1.635541e-08 -8.819474e-09
3.349027e-09 1.400818e-07 -5.311766e-08 -1.845906e-08 7.734949e-09 -3.171503e-09
1.136768e-08 1.212446e-07 -1.234924e-07 -1.967040e-08 -3.222344e-08 -1.653388e-08
2.401134e-09 4.281075e-07 -2.508086e-07 -8.151322e-08 7.217711e-08 -7.321611e-08
-2.187146e-08 4.187530e-07 -1.737743e-07 -3.747268e-08 1.381348e-07 -6.871725e-08
-3.441230e-08 6.919267e-08 -6.791058e-08 2.924966e-08 -1.833966e-08 -3.299653e-08
-3.017977e-08 1.475131e-07 -8.551412e-08 -1.666050e-09 -2.807727e-08 5.416853e-08
-2.946770e-08 1.409774e-07 -5.261945e-08 -1.010754e-09 -1.764618e-08 4.691522e-08
-4.449531e-08 5.688842e-08 -5.518639e-08 3.458493e-08 -3.885017e-08 5.622620e-08
-3.606593e-08 2.147000e-08 -5.846376e-08 6.407391e-08 -5.002423e-08 6.267020e-08
-3.022791e-08 1.393312e-07 -8.247447e-08 5.026394e-08 -8.058146e-09 5.804209e-08
1.107684e-08 7.655889e-08 -9.640465e-08 6.097500e-08 -9.763171e-08 5.516975e-08
-2.178157e-08 4.616020e-08 -9.623968e-08 2.002806e-08 -9.411804e-08 6.475584e-08
1.163280e-08 7.767136e-08 -9.578464e-08 5.389255e-08 -1.007094e-07 5.601329e-08
-1.098884e-08 1.482713e-07 -5.549483e-08 -2.232670e-08 -2.131457e-08 4.325446e-08
3.166645e-09 2.850380e-08 -6.730485e-08 1.788698e-08 -6.050138e-08 5.112268e-08
-5.668416e-09 1.772140e-08 -1.064134e-07 8.666785e-08 -1.317460e-07 7.481385e-08
1.225827e-08 9.843667e-08 -2.041460e-07 2.913274e-08 -1.312117e-07 2.754866e-08
1.724928e-08 8.143712e-08 -1.021583e-07 1.795900e-08 -7.113792e-08 4.771119e-09
-9.224684e-09 1.147887e-07 -1.160942e-07 1.605529e-09 -4.911655e-08 2.531364e-08
-9.356410e-09 7.602473e-08 -1.254882e-07 -1.041806e-09 -8.330172e-08 2.196988e-08
1.591339e-08 3.188748e-08 -1.073400e-07 4.699107e-08 -1.335436e-07 5.678292e-08
-1.196826e-08 1.745209e-09 -1.114958e-07 7.643364e-08 -1.449969e-07 6.755549e-08
-5.245642e-09 1.460270e-08 -5.356928e-08 2.178441e-08 -5.820211e-08 4.481188e-08
-5.765821e-09 4.838163e-08 -5.857517e-08 2.147304e-08 -4.388226e-08 4.708685e-08
-8.758795e-09 8.963389e-08 -2.094782e-07 -3.497215e-08 -1.688964e-07 1.683076e-08
-1.150267e-08 7.337837e-08 -9.691484e-08 -2.030668e-08 -7.686642e-08 1.531644e-08
3.879740e-09 7.453285e-08 -1.257239e-07 -1.098176e-08 -8.476554e-08 2.198452e-08
-1.781096e-08 6.501636e-08 -1.452449e-07 -3.859678e-08 -1.135982e-07 1.281679e-09
4.964673e-09 5.018290e-09 -1.778583e-07 -4.046729e-08 -1.831404e-07 -5.979909e-09
8.311224e-09 1.078487e-07 -1.297791e-07 1.305522e-09 -1.048642e-07 1.329851e-08
1.037581e-07 -8.519411e-08 -1.798836e-07 -1.428789e-07 -2.089352e-07 -2.951795e-08
2.534828e-08 -1.487630e-08 -1.285981e-07 -5.449427e-08 -1.177972e-07 -2.750645e-08
3.946340e-08 -8.927286e-09 -1.091123e-07 4.668247e-08 -1.246968e-07 5.499997e-08
2.237869e-08 -5.652635e-08 -1.118239e-07 7.646516e-08 -1.363498e-07 6.182323e-08
2.617112e-08 -1.208584e-07 -7.285798e-08 8.652860e-08 -9.019935e-08 4.474788e-08
1.789069e-08 7.113278e-08 -8.375269e-08 6.796709e-08 -7.412074e-08 5.429881e-08
6.164557e-08 7.874081e-08 -1.965096e-07 -1.271667e-09 -7.299095e-08 -6.370588e-08
2.828908e-08 8.205367e-08 -5.377990e-08 -1.738600e-08 -7.045353e-08 -5.151649e-08
5.182101e-08 8.085504e-08 -1.163320e-07 -1.038699e-08 -8.640193e-08 -2.138594e-08
1.654347e-08 8.441177e-08 -5.382235e-08 -2.469488e-08 -6.978531e-08 -5.076376e-08
-2.512767e-08 4.077283e-07 -4.478490e-07 -4.987231e-08 1.999941e-09 -1.900980e-07
-4.136956e-08 2.490838e-07 -1.809862e-07 -1.182577e-07 8.578439e-08 -2.181534e-07
5.265079e-08 -1.546543e-08 -8.197155e-08 -9.107078e-09 -4.284367e-08 -1.519892e-08
-3.709976e-08 1.697325e-07 -1.988521e-07 -3.710041e-08 -9.788962e-08 -2.175756e-08
-4.850305e-08 9.587177e-08 -6.035768e-08 -7.851852e-09 -9.202394e-08 -1.909261e-08
-9.736426e-08 5.409987e-07 -2.347793e-07 -5.207144e-08 9.562772e-08 -1.539301e-07
-1.152081e-07 4.435444e-07 -1.533253e-07 -1.455561e-07 7.678386e-08 -9.382193e-08
3.350210e-08 1.822388e-07 -1.953550e-07 -9.806808e-08 -6.998414e-08 -4.239292e-08
1.649769e-08 4.290737e-08 -6.486305e-08 -3.624615e-08 -3.312069e-08 -2.051026e-08
-4.299884e-09 8.765957e-08 -6.967493e-08 -6.673728e-08 -4.376497e-08 -3.073051e-08
3.523420e-08 4.521540e-07 -2.016467e-07 -1.931032e-07 9.936843e-08 -1.087179e-07
8.426624e-08 -4.237461e-10 -1.963309e-07 -9.051924e-09 -2.015082e-07 -6.456425e-09
4.739087e-08 -4.367233e-08 -2.585660e-07 -1.084925e-08 -2.518579e-07 -8.809045e-09
1.032595e-07 -4.364055e-08 -2.070522e-07 -1.325164e-08 -2.300969e-07 3.371302e-09
5.092845e-08 -4.158063e-08 -2.277994e-07 -2.426404e-08 -2.405820e-07 -3.136087e-08
5.240776e-08 4.414825e-08 -1.494302e-07 -1.205399e-08 -1.277610e-07 -1.955928e-08
5.768724e-08 -5.172106e-08 -1.988929e-07 2.737369e-08 -2.030549e-07 -3.011898e-09
8.493353e-08 -1.111108e-07 -2.440133e-07 2.234865e-08 -2.944863e-07 4.069603e-08
-6.439410e-09 6.058254e-08 -1.287270e-07 -5.360764e-08 -1.523038e-07 -5.109217e-08
-1.820054e-09 6.606662e-08 -9.064659e-08 -3.626257e-08 -7.291966e-08 -3.627418e-08
-1.295062e-08 7.266078e-08 -8.384051e-08 -2.286622e-08 -6.342250e-08 -3.321342e-08
-2.445286e-08 1.087818e-07 -7.045251e-08 -2.743435e-08 -8.705570e-08 -3.523079e-08
4.392597e-08 -4.345766e-08 -1.104008e-07 -4.375257e-08 -1.698175e-07 -1.639756e-08
4.221453e-08 9.831748e-08 -9.098115e-08 -7.827873e-08 -9.499957e-08 -2.036884e-08
4.313565e-08 -9.453668e-08 -1.123803e-07 -7.559631e-08 -1.597827e-07 -1.887820e-08
1.720652e-08 -1.229933e-08 -9.416780e-08 -3.332412e-08 -1.108955e-07 -1.648774e-08
3.922249e-08 5.807642e-08 -1.183877e-07 2.285819e-08 -1.179045e-07 9.120925e-09
2.393567e-08 6.519923e-08 -9.841081e-08 -7.394336e-10 -9.463847e-08 4.400643e-09
3.646228e-08 -2.785932e-08 -1.245710e-07 2.269438e-08 -1.584241e-07 2.474049e-09
3.380847e-08 4.423563e-08 -1.195409e-07 1.584130e-08 -9.098229e-08 9.916021e-09
-5.786168e-08 8.643829e-08 -6.694107e-08 -3.268836e-08 -8.583113e-08 -9.461239e-08
-3.900944e-08 3.875725e-07 -2.149477e-07 4.291570e-08 6.107057e-08 -5.240234e-08
-5.527905e-08 2.492700e-07 -6.521830e-09 -1.582622e-08 1.428003e-07 -6.489485e-08
-4.670545e-08 1.589740e-07 1.536645e-07 -1.674603e-09 1.169894e-07 -1.832588e-08
5.009105e-09 1.285407e-07 -1.541383e-07 -2.938570e-08 -7.145303e-08 -3.051480e-08
-1.312986e-08 7.848834e-08 -1.323412e-07 9.977018e-09 -8.909769e-08 2.311444e-09
-3.650497e-08 2.239953e-07 -7.359614e-08 6.451945e-08 6.121024e-08 -6.381951e-09
-3.630749e-08 9.282932e-08 -1.502717e-08 5.568096e-09 1.971479e-08 1.871490e-08
1.471786e-08 5.612837e-08 -1.505079e-07 -5.967126e-08 -1.385674e-07 -5.699595e-08
7.752663e-09 7.384410e-08 -8.695836e-08 -6.677402e-08 -8.527044e-08 -6.550750e-08
1.178283e-08 7.055120e-08 -1.467036e-07 -2.875566e-08 -1.303222e-07 -4.725458e-08
6.332775e-09 8.617444e-08 -1.506519e-07 -3.612493e-08 -1.256122e-07 -4.255399e-08
2.004671e-09 7.856988e-08 -9.946688e-08 -2.921607e-08 -9.277431e-08 -5.299518e-08
-7.723707e-09 9.963442e-08 -1.067016e-07 -3.761583e-08 -6.103875e-08 -3.881920e-08
1.194129e-08 6.915692e-08 -1.101192e-07 -2.645467e-08 -5.071018e-08 -4.400278e-08
-7.029043e-09 8.997678e-08 -1.531343e-07 -5.162786e-08 -8.442258e-08 -3.593591e-08
-6.372434e-08 1.151547e-07 -1.454077e-07 6.437026e-09 -2.801098e-08 -5.623295e-08
-6.867590e-08 3.981792e-07 -2.259520e-07 -3.888463e-09 8.841258e-08 -3.432052e-08
-4.899983e-08 1.533698e-07 7.168677e-08 2.851305e-08 9.238968e-08 4.961803e-08
4.530114e-08 -3.887889e-08 -1.059375e-07 -7.286687e-08 -1.417709e-07 -1.938436e-08
3.008388e-08 -5.166591e-08 -7.552275e-08 -6.391205e-08 -1.186955e-07 -4.340332e-08
6.077083e-08 -5.128416e-08 -9.936148e-08 -6.754365e-08 -1.518786e-07 -3.126326e-08
1.739489e-08 -5.487400e-08 -9.232049e-08 -4.305133e-08 -1.447186e-07 -2.875151e-08
1.750878e-08 4.475572e-08 -7.774186e-08 -4.785307e-08 -8.763278e-08 -3.004305e-08
4.252618e-08 -1.162013e-08 -7.967149e-08 -3.775617e-08 -1.077220e-07 -3.828877e-08
6.160857e-08 -9.738904e-08 -1.089397e-07 -5.822085e-08 -1.769989e-07 -2.952844e-08
4.663827e-08 -4.830171e-08 -1.143470e-07 -1.311557e-08 -1.637457e-07 -2.796647e-08
5.006835e-08 -1.154191e-07 -1.210668e-07 -2.026320e-09 -1.982770e-07 -2.988533e-08
5.360629e-08 -1.083722e-07 -1.116979e-07 1.180120e-08 -1.653957e-07 -2.422442e-08
5.104398e-08 1.816466e-08 -8.984717e-08 1.050123e-08 -1.125552e-07 -2.402322e-08
-3.483204e-09 1.544233e-07 -1.538063e-07 -3.549026e-08 -5.255714e-08 -2.340788e-08
6.925285e-10 1.574231e-07 -1.494828e-07 -2.016410e-08 1.896230e-08 -1.308037e-08
-1.976585e-08 1.550254e-07 -9.490848e-08 -1.167281e-08 1.706399e-09 6.575933e-09
-2.254283e-08 1.421223e-07 -1.422438e-07 -2.074839e-08 3.059234e-08 1.898735e-08
1.219710e-08 4.517383e-08 -6.908450e-08 -5.440177e-08 -9.703859e-08 -7.514119e-08
1.162864e-08 1.284827e-08 -4.218450e-08 -5.754826e-08 -1.162088e-07 -7.868135e-08
6.193106e-09 4.069080e-08 -7.574644e-08 -3.360420e-08 -1.026343e-07 -4.377791e-08
1.855702e-08 4.240282e-08 -6.654451e-08 -4.209797e-08 -8.907865e-08 -5.697614e-08
-4.076015e-08 9.101055e-08 -1.028295e-07 1.369553e-08 -1.270513e-08 -1.081613e-07
-7.840798e-08 4.769389e-08 1.083294e-07 -2.804410e-08 -7.586363e-09 -7.989019e-08
8.949057e-10 -1.215817e-08 -5.321402e-08 -1.636583e-08 -1.067953e-07 -4.514490e-08
-5.719219e-08 1.642160e-07 -1.636083e-07 -3.992367e-08 -8.735423e-08 -9.388244e-08
-5.969592e-08 1.547171e-07 -1.544443e-07 -4.671254e-08 -6.917796e-08 -9.105033e-08
-4.606910e-08 1.659104e-07 -9.966297e-08 -2.573091e-08 -1.767040e-08 -6.294042e-08
-5.484814e-08 1.481007e-07 -1.279656e-07 -1.293417e-08 4.785924e-09 -7.900368e-08
-1.090785e-08 7.401268e-08 -8.195497e-08 -6.361226e-08 -8.432630e-08 -4.309027e-08
-2.142881e-08 7.370579e-08 -9.481396e-08 -6.177061e-08 -8.202443e-08 -5.537448e-08
-1.877840e-09 1.014236e-07 -1.028049e-07 -3.150548e-08 -6.391592e-08 -5.195730e-08
-4.130199e-08 9.773118e-08 -8.640602e-08 -5.713036e-08 -7.501456e-08 -4.599172e-08
-1.662194e-08 2.795124e-08 -8.133679e-08 -8.408407e-08 -1.160508e-07 -6.591044e-08
-2.238931e-08 2.924263e-08 -4.830106e-08 -6.568006e-08 -7.125316e-08 -5.413385e-08
-9.672622e-09 2.189236e-08 -5.948659e-08 -4.577431e-08 -5.936679e-08 -5.339234e-08
-1.645116e-08 2.466559e-08 -6.204644e-08 -6.316797e-08 -5.632290e-08 -4.633524e-08
-3.074322e-08 7.424407e-08 -7.889773e-08 -5.815461e-08 -8.621310e-08 -7.207482e-08
-3.562107e-08 8.968665e-08 -7.131414e-08 -5.603854e-08 -1.023434e-07 -6.736557e-08
-1.003025e-08 5.569423e-08 -8.324470e-08 -5.082003e-08 -7.632823e-08 -5.684754e-08
2.971910e-08 -5.483395e-08 -7.535700e-08 -6.536505e-08 -1.392033e-07 -5.914086e-08
2.637025e-08 -3.623874e-09 -5.669750e-08 -7.300432e-08 -9.610742e-08 -5.667971e-08
4.250681e-08 -9.670062e-08 -6.449218e-08 -7.040575e-08 -1.249550e-07 -6.018450e-08
4.518756e-08 -8.618049e-08 -6.857393e-08 -5.958544e-08 -1.271045e-07 -5.621520e-08
1.157199e-09 -5.134263e-08 -7.260270e-08 -8.639841e-08 -1.427080e-07 -4.891743e-08
-1.035357e-08 -2.857317e-08 -4.045688e-08 -6.632578e-08 -8.116949e-08 -4.352314e-08
6.551588e-09 1.060088e-08 -4.861312e-08 -5.912120e-08 -8.259895e-08 -3.752231e-08
3.819980e-09 -2.722932e-08 -4.171970e-08 -7.541314e-08 -7.970627e-08 -4.179776e-08
5.251752e-09 -1.059422e-08 -5.771944e-08 -5.061616e-08 -1.003887e-07 -3.389214e-08
5.075405e-09 -8.598828e-08 -6.791256e-08 -5.922532e-08 -1.286149e-07 -3.766472e-08
8.865897e-09 -8.457998e-08 -5.748267e-08 -6.831272e-08 -1.166920e-07 -4.414177e-08
-1.473914e-08 1.936120e-08 -4.959495e-08 -8.584153e-08 -1.173511e-07 -4.001273e-08
-6.934640e-09 5.405407e-08 3.985256e-09 -1.798422e-08 2.348018e-08 3.094643e-09
-3.833282e-08 4.044161e-08 -6.347369e-08 -6.163221e-08 -8.903737e-08 -5.914787e-08
2.595417e-08 9.349247e-08 -1.232080e-07 -1.289416e-09 -2.283242e-08 -8.727643e-09
1.729605e-08 4.766433e-08 6.401435e-09 -2.699934e-08 -3.318938e-09 3.041790e-08
-2.830959e-08 3.119194e-08 -1.738626e-07 -7.185623e-08 -1.333789e-07 -6.148200e-08
-1.609913e-08 9.717358e-08 -1.092904e-08 -1.579419e-08 7.415092e-09 -1.164464e-08
-8.550128e-09 5.727959e-08 -2.649896e-08 -3.295415e-08 -4.423371e-08 -2.243254e-08
-4.629812e-09 6.607797e-08 -2.011451e-08 -4.282811e-08 -5.796746e-08 3.362372e-09
-9.760089e-09 1.754527e-08 -3.709303e-08 -3.453345e-08 -5.138426e-08 -4.082420e-08
-7.912099e-09 1.589622e-08 -4.186318e-08 -3.494171e-08 -5.463738e-08 -3.983770e-08
-6.382861e-09 7.560690e-09 -3.416369e-08 -3.246372e-08 -3.369299e-08 -3.437253e-08
2.020192e-09 1.746102e-08 -6.001689e-08 -2.071705e-08 -4.946240e-08 -3.628734e-08
-1.179095e-08 -2.113637e-09 -1.949182e-08 -4.093543e-08 -5.134658e-08 -4.178653e-08
-1.018373e-08 -4.070077e-09 -2.296821e-08 -4.173343e-08 -5.494004e-08 -4.079511e-08
-1.550879e-08 -2.841195e-08 -2.452685e-08 -5.437271e-08 -6.124746e-08 -4.376403e-08
-9.565606e-09 -5.770077e-09 -2.459893e-08 -3.900871e-08 -4.257089e-08 -3.941998e-08
-9.009210e-09 1.978699e-08 -4.382036e-08 -4.689862e-08 -6.208170e-08 -4.424547e-08
-7.354710e-09 1.803714e-08 -4.901096e-08 -4.732547e-08 -6.545821e-08 -4.354278e-08
1.096983e-08 2.005783e-08 -5.407582e-08 -2.767737e-08 -5.903951e-08 -2.750442e-08
2.034178e-08 2.366728e-08 -4.944568e-08 -1.930992e-08 -6.501482e-08 -3.409337e-08
-1.300488e-08 4.146481e-10 -3.215990e-08 -5.693392e-08 -6.490275e-08 -4.951732e-08
-1.179379e-08 -1.702963e-09 -3.647683e-08 -5.782260e-08 -6.869548e-08 -4.912853e-08
-2.439569e-09 -4.201628e-08 -2.589935e-08 -5.935323e-08 -6.179165e-08 -3.834561e-08
-7.738982e-10 -2.884715e-08 -2.783872e-08 -5.219103e-08 -5.864727e-08 -3.908456e-08
-2.510669e-08 2.759552e-08 -3.540577e-08 -2.952858e-08 -5.577673e-08 -4.504800e-08
-2.374026e-08 2.362609e-08 -3.360527e-08 -2.881533e-08 -3.067637e-08 -3.406908e-08
-2.277114e-08 3.832860e-08 -4.218460e-08 -2.028770e-08 -3.527142e-08 -4.304549e-08
-1.548894e-08 4.745683e-08 -6.347267e-08 -9.720431e-09 -4.983323e-08 -4.505683e-08
-2.039450e-08 -1.069524e-10 -2.168049e-08 -5.333239e-08 -4.878867e-08 -3.604313e-08
-2.007276e-08 4.106362e-09 -2.244356e-08 -3.892736e-08 -3.631402e-08 -2.924010e-08
-1.905862e-08 5.871245e-09 -2.205026e-08 -5.016853e-08 -4.845584e-08 -3.622955e-08
-1.454594e-08 3.722747e-09 -2.050455e-08 -3.671037e-08 -3.675597e-08 -3.338655e-08
-1.454696e-08 6.456223e-10 -2.904694e-08 -3.699585e-08 -4.266486e-08 -3.366753e-08
-9.354711e-09 -6.430012e-09 -2.942451e-08 -3.707078e-08 -4.437883e-08 -3.324372e-08
-1.350683e-08 -2.933947e-08 -2.757269e-08 -4.856488e-08 -6.312391e-08 -3.738011e-08
-3.028661e-08 2.183176e-08 -3.247037e-08 -4.710723e-08 -4.885547e-08 -4.727798e-08
-3.015572e-08 2.473891e-08 -2.530575e-08 -3.219711e-08 -2.873923e-08 -3.509318e-08
-1.385510e-08 2.432656e-08 -2.573376e-08 -2.548297e-08 -3.133100e-08 -3.644137e-08
-2.016248e-08 2.864475e-08 -2.565707e-08 -2.536137e-08 -3.065500e-08 -3.685119e-08
-2.225323e-08 3.257104e-08 -4.288346e-08 -2.462099e-08 -3.782982e-08 -4.642994e-08
-2.787792e-08 3.616012e-08 -3.936633e-08 -2.515053e-08 -3.361879e-08 -4.420190e-08
-1.389919e-08 2.445231e-08 -3.433887e-08 -2.554249e-08 -3.163837e-08 -3.547358e-08
-3.050697e-08 2.008453e-08 -2.655135e-08 -4.647081e-08 -4.473714e-08 -4.920121e-08
-2.813165e-08 2.560570e-08 -2.606848e-08 -3.466314e-08 -2.856625e-08 -3.758022e-08
-1.951408e-08 1.803170e-08 -1.916372e-08 -2.803468e-08 -3.177807e-08 -4.009040e-08
-2.632445e-08 1.889719e-08 -2.386604e-08 -3.574792e-08 -2.553645e-08 -3.442957e-08
-3.470007e-08 4.104218e-08 -2.569608e-08 -3.127174e-08 -2.762947e-08 -3.919075e-08
-3.234247e-08 4.809326e-08 -2.916510e-08 -2.711378e-08 -3.123026e-08 -4.060664e-08
-2.265681e-08 3.263739e-08 -2.773080e-08 -2.272466e-08 -2.871296e-08 -4.581170e-08
-2.394135e-08 2.308963e-08 -2.291318e-08 -2.643723e-08 -3.720478e-08 -4.068387e-08
-2.124079e-08 6.587125e-08 -6.408314e-08 -5.210127e-09 -3.901778e-08 -5.955660e-08
-1.312635e-08 5.173545e-08 -2.696311e-08 -2.023112e-09 -2.182179e-08 -3.573543e-08
-2.062487e-08 3.356494e-08 -1.197857e-08 -1.507123e-08 -1.211213e-08 -3.490699e-08
-2.527351e-08 2.536862e-08 -2.498556e-08 -4.089737e-08 -2.955673e-08 -3.839786e-08
-2.556661e-08 4.844485e-08 -3.192069e-08 -1.891020e-08 -5.112894e-09 -3.111260e-08
-3.148530e-08 3.070316e-08 -2.911196e-08 -3.473428e-08 -2.861662e-08 -4.487629e-08
-9.378254e-09 6.599473e-08 -7.953434e-08 -6.462117e-09 -3.972391e-08 -4.836920e-08
-1.006395e-08 3.354036e-08 -3.224831e-08 -1.686842e-08 -1.066467e-08 -2.511114e-08
-3.178374e-08 2.799204e-08 -4.378947e-08 -3.380675e-08 -3.784542e-08 -4.115679e-08
-2.893813e-08 6.810502e-08 -4.724982e-08 -1.913240e-08 -1.430881e-08 -3.914708e-08
-1.343056e-08 3.540452e-08 -2.462798e-08 -1.601491e-08 -1.718257e-08 -3.564496e-08
-2.599303e-08 4.624236e-08 -2.551048e-08 -2.326553e-08 -1.827932e-08 -3.075192e-08
-1.779151e-08 2.791085e-08 -1.316550e-08 -1.436744e-08 -1.409991e-08 -2.258583e-08
-1.945538e-08 3.535111e-08 -3.161095e-08 -1.179425e-08 -2.764095e-08 -3.775903e-08
-1.784053e-08 3.764973e-08 -2.856000e-08 -9.265929e-09 -2.402596e-08 -3.203009e-08
-1.015063e-08 3.536349e-08 -2.116844e-08 -2.249980e-09 -1.179617e-08 -2.343464e-08
-1.587222e-08 2.815789e-08 -1.930581e-08 -2.696360e-08 -2.471228e-08 -2.554369e-08
-1.153470e-08 1.727716e-08 -2.322918e-08 -2.382251e-08 -3.277846e-08 -2.649900e-08
-9.844556e-09 1.739053e-08 -2.240737e-08 -2.825243e-08 -3.142246e-08 -2.811149e-08
-8.454658e-09 3.353035e-08 -2.544627e-08 -1.841888e-08 -2.801590e-08 -2.187764e-08
-2.021259e-08 2.195630e-08 -1.879386e-08 -2.173991e-08 -2.348384e-08 -2.636619e-08
-2.100888e-08 2.423045e-08 -2.563838e-08 -2.200532e-08 -3.389980e-08 -3.186833e-08
-9.932719e-09 2.623303e-08 -2.704025e-08 -1.493319e-08 -2.443332e-08 -2.376447e-08
-1.320583e-08 2.282233e-08 -2.022300e-08 -1.128474e-08 -2.456718e-08 -2.569393e-08
-1.244882e-08 2.349584e-08 -1.587073e-08 -1.583503e-08 -1.759407e-08 -2.433957e-08
-2.675369e-08 3.867884e-08 -2.274744e-08 -9.917981e-09 -1.494837e-08 -3.434868e-08
-2.851515e-08 4.626686e-08 -2.806438e-08 -1.000005e-08 -2.110255e-08 -3.854438e-08
-7.756557e-09 2.836041e-08 -2.011417e-08 -2.362683e-09 -1.388787e-08 -2.547398e-08
-2.153703e-08 2.437407e-08 -1.445141e-08 -2.360213e-08 -1.271822e-08 -2.279468e-08
-2.334873e-08 1.536799e-08 -8.067932e-09 -1.940670e-08 -1.383262e-08 -2.324029e-08
-2.054015e-08 3.861472e-08 -3.059757e-08 -9.502887e-09 -1.565789e-08 -2.967352e-08
-1.697961e-08 2.569567e-08 -2.501858e-08 -1.254364e-08 -3.507618e-09 -1.828594e-08
-2.221553e-08 1.634900e-08 -9.916875e-09 -2.143570e-08 -1.681170e-08 -2.083884e-08
-2.535281e-08 1.543703e-08 -1.477757e-08 -2.947803e-08 -2.257596e-08 -2.998368e-08
-1.826239e-08 1.817677e-08 -1.060357e-08 -1.806198e-08 -1.597671e-08 -2.085615e-08
-2.011076e-08 1.568040e-08 -5.593391e-09 -2.023898e-08 -1.615052e-08 -2.150942e-08
-2.044104e-08 2.226791e-08 -1.541144e-08 -1.854444e-08 -1.775366e-08 -2.417840e-08
-2.028885e-08 2.300969e-08 -1.492636e-08 -1.640732e-08 -1.592038e-08 -2.382559e-08
-2.423710e-08 2.298858e-08 -8.190735e-09 -1.723192e-08 -1.745255e-08 -2.594073e-08
-1.865584e-08 6.367805e-09 -6.580241e-09 -2.321134e-08 -2.034464e-08 -1.803428e-08
-2.007926e-08 8.513545e-10 -5.555868e-09 -3.215334e-08 -2.552633e-08 -2.588236e-08
-1.223688e-08 6.643691e-09 -5.250272e-09 -2.540076e-08 -1.971713e-08 -2.198144e-08
-1.925647e-08 7.210517e-09 -5.438571e-09 -2.918942e-08 -2.364573e-08 -2.550098e-08
-1.584538e-08 -1.117023e-08 -1.073312e-08 -2.892833e-08 -3.356085e-08 -2.578941e-08
-1.062471e-08 -4.613640e-09 -9.188646e-09 -2.300523e-08 -2.704358e-08 -1.910047e-08
-1.261393e-08 -1.998604e-09 -9.471661e-09 -2.355804e-08 -2.580468e-08 -2.071595e-08
-2.146542e-08 1.349531e-08 -1.038943e-08 -2.164282e-08 -1.817894e-08 -2.131176e-08
-2.363270e-08 1.458370e-08 -1.424602e-08 -3.121978e-08 -2.248917e-08 -3.149490e-08
-1.666197e-08 1.457841e-08 -1.168229e-08 -1.920587e-08 -1.801415e-08 -2.188740e-08
-1.550960e-08 1.826468e-08 -1.271074e-08 -2.273038e-08 -1.539383e-08 -2.692471e-08
-1.528610e-08 1.935371e-08 -1.949747e-08 -2.340798e-08 -2.072218e-08 -2.616068e-08
-2.072336e-08 1.619476e-08 -1.456392e-08 -1.914834e-08 -2.072983e-08 -2.492048e-08
-1.813580e-08 1.626702e-08 -1.751021e-08 -1.990064e-08 -2.131477e-08 -2.517781e-08
-1.958510e-08 1.876010e-09 -4.814631e-09 -3.946511e-08 -2.464402e-08 -3.120065e-08
-1.664744e-08 -9.594835e-09 -9.978169e-09 -4.011520e-08 -3.239755e-08 -3.116047e-08
-1.652406e-08 2.310882e-09 -3.333851e-09 -3.761006e-08 -1.975970e-08 -2.631918e-08
-1.118571e-08 -1.178555e-08 -4.349942e-09 -4.031846e-08 -3.266887e-08 -3.675612e-08
-1.773103e-08 1.617621e-08 -6.049340e-09 -1.886552e-08 -1.678721e-08 -1.732979e-08
-1.541529e-08 9.472782e-09 -6.880396e-09 -1.632714e-08 -2.030599e-08 -1.782202e-08
-1.388814e-08 1.192437e-08 -7.024642e-09 -1.884024e-08 -2.105896e-08 -1.767778e-08
-1.361509e-08 2.074083e-08 -7.861157e-09 -1.446219e-08 -1.945331e-08 -1.541550e-08
-1.854768e-08 1.657807e-08 -4.559655e-09 -1.274791e-08 -9.806302e-09 -1.603164e-08
-2.076016e-08 2.637182e-08 -1.199312e-08 -1.021830e-08 -1.207955e-08 -2.139534e-08
-9.424843e-09 1.552929e-08 -7.668445e-09 -4.717233e-09 -1.030036e-08 -1.422238e-08
-1.457657e-08 2.341921e-08 -8.751112e-09 -8.813324e-10 -7.066008e-09 -1.676086e-08
-1.834158e-08 1.236130e-08 -5.300626e-09 -1.581121e-08 -1.424174e-08 -1.724879e-08
-1.829674e-08 1.042656e-08 -7.033270e-09 -1.600458e-08 -2.076953e-08 -1.904221e-08
-1.356859e-08 1.382176e-08 -9.224884e-09 -1.135699e-08 -1.634363e-08 -1.659024e-08
-1.551806e-08 1.252807e-08 -8.171517e-09 -9.747686e-09 -1.472118e-08 -1.820603e-08
-1.994252e-08 5.945445e-09 -1.041997e-09 -2.421611e-08 -1.241864e-08 -1.705330e-08
-1.754226e-08 -1.577494e-10 -1.933172e-09 -2.552426e-08 -1.549702e-08 -1.638146e-08
-1.847063e-08 4.649818e-09 -1.704432e-09 -2.391005e-08 -1.111686e-08 -1.321277e-08
-1.610721e-08 -1.092594e-09 -3.121365e-10 -2.525801e-08 -1.563763e-08 -1.791658e-08
-1.743040e-08 1.562624e-08 -4.536963e-09 -1.292653e-08 -9.948203e-09 -1.628290e-08
-1.624903e-08 2.096122e-08 -1.329080e-08 -1.005146e-08 -1.474376e-08 -2.105999e-08
-1.608156e-08 2.021638e-08 -9.496667e-09 -9.140378e-09 -1.476539e-08 -1.882798e-08
-1.163711e-08 1.949568e-08 -3.693862e-09 -4.069308e-09 -6.324539e-09 -1.341547e-08
-1.414449e-08 1.664450e-08 -5.814978e-09 -1.020627e-08 -1.039585e-08 -1.404628e-08
-1.401657e-08 1.344776e-08 -6.524188e-09 -9.487128e-09 -8.344859e-09 -1.408845e-08
-1.331095e-08 1.026786e-08 -5.996666e-09 -9.321559e-09 -1.052406e-08 -1.277355e-08
-1.225786e-08 2.339115e-08 -1.089044e-08 -1.927298e-09 -6.558738e-09 -1.489422e-08
SCALARS stress double 6
LOOKUP_TABLE default
-2.285358e+09 -2.085359e+09 -2.245359e+09 -5.812114e+02 2.852595e+02 -9.890724e+01
-1.795480e+09 -1.595481e+09 -1.755481e+09 -2.395003e+02 2.269021e+02 -1.432870e+01
-1.734038e+09 -1.534037e+09 -1.694039e+09 -1.644542e+02 2.538638e+02 -2.625667e+02
-2.432581e+09 -2.232580e+09 -2.392581e+09 -6.258122e+02 1.105471e+02 -2.232854e+02
-1.953572e+09 -1.753572e+09 -1.913573e+09 -2.513882e+02 3.369008e+02 -3.032449e+02
-4.071523e+09 -3.871523e+09 -4.031523e+09 1.620877e+02 -1.095128e+02 4.038210e+01
-3.481971e+09 -3.281970e+09 -3.441970e+09 8.294718e+01 -5.276139e+01 -1.598639e+01
-3.371940e+09 -3.171940e+09 -3.331940e+09 1.328364e+02 -1.292140e+02 6.427516e+00
-4.229964e+09 -4.029963e+09 -4.189963e+09 1.197300e+02 3.282222e+01 -1.016633e+01
-4.038495e+09 -3.838495e+09 -3.998495e+09 3.369108e+01 -5.436165e+01 -9.945236e-01
-3.856372e+09 -3.656372e+09 -3.816372e+09 6.843632e+01 -3.300034e+01 -1.756882e+01
-3.819422e+09 -3.619421e+09 -3.779421e+09 6.023197e+01 -6.092678e+01 -6.491890e+00
-2.996901e+09 -2.796903e+09 -2.956903e+09 -4.471454e+02 1.038984e+02 -6.922329e+01
-2.784149e+09 -2.584150e+09 -2.744150e+09 -7.344285e+02 -2.012451e+01 2.815353e+01
-2.027570e+09 -1.827571e+09 -1.987571e+09 -5.867931e+02 3.012882e+02 -7.528622e+01
-2.779293e+09 -2.579294e+09 -2.739295e+09 -1.018200e+01 1.698671e+02 6.066046e+01
-2.184455e+09 -1.984456e+09 -2.144457e+09 -2.186887e+02 1.092367e+02 1.607610e+02
-1.893873e+09 -1.693875e+09 -1.853875e+09 9.330356e+00 1.864591e+02 3.145242e+01
-2.861605e+09 -2.661603e+09 -2.821605e+09 2.853957e+02 4.192934e+02 -2.272602e+02
-2.950086e+09 -2.750083e+09 -2.910085e+09 3.335338e+02 3.319365e+02 -2.380506e+02
-3.445720e+09 -3.245718e+09 -3.405719e+09 1.071275e+02 1.897615e+02 -3.842056e+01
-2.651078e+09 -2.451076e+09 -2.611077e+09 2.596995e+02 2.945606e+02 -9.062064e+01
-2.620686e+09 -2.420684e+09 -2.580685e+09 3.333961e+02 3.715218e+02 -1.522433e+02
-2.911391e+09 -2.711390e+09 -2.871391e+09 5.470431e+02 3.817708e+02 -1.819125e+02
-2.199458e+09 -1.999459e+09 -2.159458e+09 -1.618993e+02 -2.172438e+01 -4.325974e+01
-2.136595e+09 -1.936594e+09 -2.096594e+09 -3.458133e+01 -1.436707e+00 -5.462972e+00
-2.108274e+09 -1.908274e+09 -2.068274e+09 -5.456631e+01 -8.449838e+00 -1.705514e+01
-2.088278e+09 -1.888277e+09 -2.048277e+09 -6.327622e+01 -9.862422e+00 -1.930083e+01
-2.706199e+09 -2.506198e+09 -2.666199e+09 -4.605164e+01 -6.348010e+00 -2.417098e+01
-2.492896e+09 -2.292896e+09 -2.452896e+09 -6.890502e+01 -1.080613e+01 1.096612e+01
-2.769853e+09 -2.569852e+09 -2.729853e+09 -8.287089e+01 -1.049982e+01 -1.213249e+01
-3.726169e+09 -3.526168e+09 -3.686168e+09 3.602423e+01 8.011497e+00 -2.634159e+01
-3.976310e+09 -3.776309e+09 -3.936309e+09 3.646349e+01 6.897310e+00 -5.060169e+00
-3.748659e+09 -3.548658e+09 -3.708658e+09 2.216192e+01 4.405100e-01 -1.241759e+00
-4.126438e+09 -3.926442e+09 -4.086445e+09 -7.594233e+02 1.651995e+03 4.228100e+02
-3.421557e+09 -3.221558e+09 -3.381556e+09 1.875730e+02 8.055114e-02 -1.542637e+01
-2.674636e+09 -2.474637e+09 -2.634635e+09 7.000120e+01 -3.638312e+01 2.207059e+01
-3.610335e+09 -3.410336e+09 -3.570334e+09 1.148182e+02 -1.206915e+01 1.343347e+01
-3.509133e+09 -3.309135e+09 -3.469133e+09 7.519184e+01 -1.633848e+01 1.001768e+01
-3.425589e+09 -3.225590e+09 -3.385589e+09 -1.326668e+01 -2.966385e+00 3.367212e+00
-3.110695e+09 -2.910696e+09 -3.070696e+09 7.429266e-01 -8.878847e-01 2.506733e+00
-4.663708e+09 -4.463711e+09 -4.623710e+09 -5.312534e+02 1.698876e+02 6.752504e+00
-3.590274e+09 -3.390274e+09 -3.550274e+09 1.947880e+01 3.232368e+00 -1.932694e-01
-3.165317e+09 -2.965318e+09 -3.125318e+09 1.860580e+00 3.607166e+00 4.332838e+00
-3.323290e+09 -3.123291e+09 -3.283291e+09 -7.423208e-01 -5.402447e-01 2.252733e+00
-4.710028e+09 -4.510027e+09 -4.670028e+09 -1.129524e+02 2.491719e+01 -1.725612e+01
-3.037258e+09 -2.837258e+09 -2.997258e+09 -8.100492e+01 -7.835897e+00 -4.262098e+00
-2.029209e+09 -1.829210e+09 -1.989209e+09 -9.527815e+01 -1.369614e+01 -1.106961e+01
-2.099879e+09 -1.899879e+09 -2.059879e+09 -1.161554e+02 -1.986737e+01 3.273944e+01
-2.425362e+09 -2.225363e+09 -2.385363e+09 -9.981112e+01 -2.891871e+01 9.065706e+00
-2.462438e+09 -2.262438e+09 -2.422438e+09 -8.510658e+01 -1.758682e+01 -7.962375e+00
-2.358764e+09 -2.158766e+09 -2.318764e+09 -2.205934e+02 -8.043915e+01 -2.661786e+01
-2.611772e+09 -2.411774e+09 -2.571772e+09 -1.972408e+02 9.997579e+00 -3.987454e+01
-2.710995e+09 -2.510997e+09 -2.670995e+09 -2.711252e+02 -2.084315e+01 -4.638313e+01
-2.118528e+09 -1.918531e+09 -2.078529e+09 -1.946154e+02 3.116144e+01 -2.987579e+01
-1.809506e+09 -1.609507e+09 -1.769506e+09 -2.399770e+02 4.975060e+01 -3.932388e+01
-1.989729e+09 -1.789731e+09 -1.949729e+09 -2.886052e+02 -1.370416e+01 -1.478475e+01
-1.873221e+09 -1.673223e+09 -1.833221e+09 -1.496718e+02 -7.252545e+00 -7.269544e+01
-4.238130e+09 -4.038133e+09 -4.198132e+09 -5.889363e+02 -4.061129e+02 -3.087824e+01
-4.729224e+09 -4.529227e+09 -4.689226e+09 -2.946874e+02 -1.767116e+02 -3.897714e+01
-4.816524e+09 -4.616527e+09 -4.776525e+09 -3.946542e+02 9.534898e+00 -2.842795e+01
-3.759088e+09 -3.559091e+09 -3.719089e+09 -5.250987e+02 -3.242657e+02 -1.760379e+02
-3.880938e+09 -3.680941e+09 -3.840939e+09 -3.253668e+02 -2.841170e+02 -1.760262e+01
-4.244105e+09 -4.044108e+09 -4.204106e+09 -4.145519e+02 -2.080678e+02 -1.178821e+02
-4.468289e+09 -4.268289e+09 -4.428289e+09 5.560384e+01 -1.701969e+01 -9.232378e+00
-4.793410e+09 -4.593409e+09 -4.753409e+09 7.027439e+01 -3.563212e+01 -1.933489e+01
-4.957968e+09 -4.757968e+09 -4.917967e+09 -3.059011e+01 2.512157e+01 2.633925e+00
-3.423647e+09 -3.223652e+09 -3.383650e+09 -2.513509e+00 1.457050e+01 4.256547e+02
-2.092964e+09 -1.892964e+09 -2.052963e+09 -4.732375e+02 -2.223059e+02 -9.198051e+01
-3.201557e+09 -3.001557e+09 -3.161556e+09 -4.145910e+02 -1.433229e+02 -4.676314e+01
-3.074089e+09 -2.874088e+09 -3.034088e+09 -2.461903e+02 -1.362316e+02 -1.802192e+01
-2.685722e+09 -2.485721e+09 -2.645721e+09 -2.920859e+02 -1.285659e+02 -8.816793e+01
-2.987812e+09 -2.787811e+09 -2.947811e+09 -3.616862e+02 -1.620606e+02 -6.218062e+01
-4.985980e+09 -4.785977e+09 -4.945991e+09 2.285123e+02 1.949817e+03 -8.444391e+01
-2.107585e+09 -1.907585e+09 -2.067584e+09 -3.481066e+02 -2.312830e+02 -3.205260e+01
-2.984185e+09 -2.784185e+09 -2.944184e+09 -2.157231e+01 -7.111836e+01 -1.382979e+01
-2.981753e+09 -2.781751e+09 -2.941752e+09 5.510039e+02 3.646364e+02 -1.748550e+02
-3.021213e+09 -2.821211e+09 -2.981212e+09 4.634316e+02 3.725421e+02 -2.306643e+02
-3.461540e+09 -3.261538e+09 -3.421539e+09 7.783030e+02 9.701278e+01 -5.349618e+01
-3.414271e+09 -3.214269e+09 -3.374270e+09 5.461937e+02 1.976951e+02 -9.902832e+01
-3.667304e+09 -3.467302e+09 -3.627303e+09 7.078295e+02 2.813968e+02 -1.761441e+02
-3.744028e+09 -3.544026e+09 -3.704027e+09 8.032571e+02 2.770516e+02 -1.465583e+02
-3.789708e+09 -3.589707e+09 -3.749708e+09 7.066593e+02 3.134852e+02 -1.788580e+02
-2.464810e+09 -2.264813e+09 -2.424811e+09 -6.424177e+02 -8.970573e+02 -2.093466e+02
-2.155560e+09 -1.955564e+09 -2.115561e+09 -7.950494e+02 -8.470660e+02 -1.608383e+02
-2.231890e+09 -2.031893e+09 -2.191891e+09 -1.057167e+03 -8.288610e+02 -2.848721e+02
-2.435958e+09 -2.235960e+09 -2.395958e+09 -8.154934e+02 -7.760076e+02 -1.511230e+02
-2.541140e+09 -2.341143e+09 -2.501141e+09 -1.048525e+03 -7.571111e+02 -3.296392e+02
-1.846639e+09 -1.646643e+09 -1.806640e+09 -1.198874e+03 -1.265354e+03 -3.745310e+02
-3.059244e+09 -2.859247e+09 -3.019245e+09 1.215465e+01 1.117946e+02 -5.593193e+00
-1.547467e+09 -1.347468e+09 -1.507467e+09 3.364183e+01 8.417123e+00 -4.032495e+00
-1.835873e+09 -1.635874e+09 -1.795874e+09 3.334603e+01 8.073127e+00 2.522002e+01
-2.094500e+09 -1.894501e+09 -2.054501e+09 -2.467497e+01 -2.639230e+00 8.714308e+00
-2.185287e+09 -1.985288e+09 -2.145288e+09 -2.136452e+01 -2.413670e+00 1.035920e+01
-2.387345e+09 -2.187346e+09 -2.347346e+09 -6.441363e+01 -6.904671e+00 4.889754e+00
-2.473694e+09 -2.273695e+09 -2.433694e+09 -1.812706e+01 7.329421e+00 7.258806e+00
-1.676715e+09 -1.476716e+09 -1.636715e+09 -5.615044e+01 -5.073648e+00 2.182592e+01
-4.835395e+09 -4.635394e+09 -4.795394e+09 5.825313e+01 1.913955e+01 1.631779e+01
-2.091500e+09 -1.891498e+09 -2.051500e+09 -2.704569e+02 -6.028856e+02 -4.594153e+02
-2.149155e+09 -1.949153e+09 -2.109155e+09 -3.586890e+02 -5.085805e+02 -5.221796e+02
-2.552532e+09 -2.352530e+09 -2.512532e+09 -3.081712e+02 -6.295119e+02 -6.487890e+02
-2.413635e+09 -2.213634e+09 -2.373635e+09 -6.127223e+01 -1.653241e+01 -7.339040e+00
-1.996270e+09 -1.796269e+09 -1.956270e+09 -6.160289e+01 -1.042466e+01 1.170892e+01
-2.723098e+09 -2.523097e+09 -2.683097e+09 -6.140374e+01 -1.013998e+01 -7.446474e+00
-1.798744e+09 -1.598744e+09 -1.758744e+09 -9.274192e+01 -2.137010e+01 -5.353586e+00
-1.785516e+09 -1.585516e+09 -1.745516e+09 -8.103939e+01 -6.584440e+00 1.089922e+01
-2.681140e+09 -2.481139e+09 -2.641139e+09 -8.637649e+01 -1.075340e+01 -9.621211e+00
-1.976384e+09 -1.776383e+09 -1.936384e+09 -7.493715e+01 -1.201784e+01 1.976167e+01
-2.372907e+09 -2.172907e+09 -2.332907e+09 -8.531757e+01 -2.278468e+01 -8.364985e+00
-3.767854e+09 -3.567853e+09 -3.727854e+09 3.075988e+02 2.329262e+02 -8.435308e+01
-4.277332e+09 -4.077330e+09 -4.237343e+09 6.450591e+02 4.496732e+03 -5.007814e+02
-3.983606e+09 -3.783609e+09 -3.943607e+09 2.616894e+01 1.138434e+01 -2.071936e+00
-3.466778e+09 -3.266780e+09 -3.426778e+09 -5.197057e+01 1.916349e+01 -1.510140e+01
-4.742162e+09 -4.542165e+09 -4.702162e+09 -3.321435e+01 -1.838062e+01 -1.245837e+01
-4.439274e+09 -4.239277e+09 -4.399274e+09 -5.155683e+01 -6.424681e+00 -1.430253e+01
-4.820617e+09 -4.620616e+09 -4.780616e+09 6.264131e+01 -2.287112e+01 -2.486313e+01
-3.616944e+09 -3.416947e+09 -3.576944e+09 -5.123744e+01 1.185450e+01 -1.447510e+01
-3.750570e+09 -3.550573e+09 -3.710571e+09 1.624866e+01 1.971064e+01 -1.435334e+01
-3.062547e+09 -2.862545e+09 -3.022546e+09 3.661155e+02 1.511079e+02 -6.993132e+01
-2.576935e+09 -2.376933e+09 -2.536934e+09 6.028771e+02 3.082571e+02 -2.217039e+02
-3.069689e+09 -2.869687e+09 -3.029688e+09 6.341701e+02 2.652432e+02 -6.507184e+01
-3.329131e+09 -3.129129e+09 -3.289130e+09 5.931907e+02 4.681091e+02 -2.633406e+02
-3.248169e+09 -3.048167e+09 -3.208168e+09 2.817324e+02 2.446257e+02 -7.089075e+01
-3.668955e+09 -3.468954e+09 -3.628954e+09 -1.188684e+02 -7.521130e+01 -1.935931e+01
-4.310299e+09 -4.110302e+09 -4.270306e+09 -1.442023e+02 2.140751e+03 1.764037e+02
-2.855743e+09 -2.655742e+09 -2.815742e+09 -1.159597e+02 -1.640251e+02 -4.294458e+01
-3.127325e+09 -2.927327e+09 -3.087325e+09 4.773758e+02 1.023673e+02 3.618128e+01
-3.011426e+09 -2.811425e+09 -2.971425e+09 -1.147369e+02 -3.461247e+01 -3.627298e+01
-2.996975e+09 -2.796974e+09 -2.956974e+09 -4.385707e+01 -9.910693e+00 -4.760378e+01
-2.769749e+09 -2.569750e+09 -2.729749e+09 2.480637e+02 -1.504391e+02 1.189701e+01
-2.078235e+09 -1.878237e+09 -2.038235e+09 1.671716e+02 -1.420379e+02 -1.646163e+01
-3.968614e+09 -3.768613e+09 -3.928613e+09 7.741016e+01 2.303337e+01 -2.855001e+01
-2.009754e+09 -1.809756e+09 -1.969754e+09 4.457121e+02 -1.118797e+02 3.543266e+01
-2.763144e+09 -2.563145e+09 -2.723144e+09 4.239546e+01 -1.822118e+01 2.709770e+01
-2.491068e+09 -2.291070e+09 -2.451068e+09 4.646051e+02 -2.612144e+02 8.810473e+01
-2.629235e+09 -2.429234e+09 -2.589235e+09 3.674494e+01 2.397949e+02 -1.203384e+02
-1.780992e+09 -1.580991e+09 -1.740992e+09 4.641836e+02 3.204437e+02 -1.475855e+02
-2.062735e+09 -1.862733e+09 -2.022734e+09 2.520802e+02 2.054269e+02 -1.035844e+02
-1.799115e+09 -1.599114e+09 -1.759114e+09 4.954405e+02 2.931955e+02 -1.190327e+02
-2.087130e+09 -1.887128e+09 -2.047129e+09 -7.564429e+01 1.863456e+02 -8.951233e+01
-1.981628e+09 -1.781626e+09 -1.941627e+09 2.445243e+02 2.920109e+02 -2.005058e+02
-2.822880e+09 -2.622879e+09 -2.782880e+09 -2.192406e+02 3.180299e+02 -1.813877e+02
-2.351443e+09 -2.151442e+09 -2.311443e+09 2.461880e+02 2.886912e+02 -1.235140e+02
-2.961445e+09 -2.761443e+09 -2.921445e+09 -3.861428e+01 3.782082e+02 -2.657614e+02
-3.209433e+09 -3.009431e+09 -3.169432e+09 1.430708e+01 2.549390e+02 -1.091324e+02
-2.869110e+09 -2.669109e+09 -2.829110e+09 -3.557086e+02 1.599126e+02 -6.213916e+01
-1.721535e+09 -1.521534e+09 -1.681534e+09 5.978528e+02 3.314927e+02 -9.957473e+01
-2.572118e+09 -2.372117e+09 -2.532117e+09 3.985720e+02 2.771424e+02 -6.238856e+01
-2.574902e+09 -2.374901e+09 -2.534901e+09 5.315997e+02 3.066814e+02 -7.671255e+01
-2.435343e+09 -2.235341e+09 -2.395342e+09 2.254166e+02 2.601088e+02 -4.888839e+01
-2.527706e+09 -2.327705e+09 -2.487706e+09 3.558762e+02 3.346367e+02 -2.355084e+02
-1.988592e+09 -1.788590e+09 -1.948591e+09 5.469396e+02 2.275169e+02 -1.426206e+02
-2.488853e+09 -2.288852e+09 -2.448852e+09 5.804901e+02 3.430889e+02 -1.326212e+02
-2.006062e+09 -1.806060e+09 -1.966060e+09 6.518987e+02 2.614387e+02 -6.508544e+01
-3.714670e+09 -3.514669e+09 -3.674669e+09 -9.850957e+00 -2.357805e+00 -1.864926e+00
-3.414119e+09 -3.214119e+09 -3.374119e+09 -1.756492e+01 -3.293774e+00 2.341814e+00
-3.077582e+09 -2.877582e+09 -3.037582e+09 -3.669803e+01 -5.204832e-01 2.150919e+00
-3.983631e+09 -3.783631e+09 -3.943631e+09 -1.993812e+01 -3.397428e+00 -5.128733e-01
-3.828938e+09 -3.628937e+09 -3.788938e+09 -2.696983e+01 -2.235437e+00 -7.455364e+00
-4.142594e+09 -3.942594e+09 -4.102594e+09 -5.762820e+01 2.085046e+01 -5.308134e+00
-3.959538e+09 -3.759538e+09 -3.919538e+09 -5.993005e+00 5.165011e-01 -5.392835e+00
-2.761085e+09 -2.561085e+09 -2.721085e+09 1.003807e+01 1.195482e+01 9.733128e+00
-3.126247e+09 -2.926246e+09 -3.086246e+09 4.050005e+01 2.474540e+00 -6.195862e+00
-2.609889e+09 -2.409889e+09 -2.569889e+09 1.842676e+01 1.991849e+01 1.232991e+00
-4.996765e+09 -4.796766e+09 -4.956772e+09 -6.916683e+02 8.046639e+02 1.502998e+02
-2.663256e+09 -2.463256e+09 -2.623256e+09 2.680318e+01 2.011061e+01 -1.296576e+00
-3.914891e+09 -3.714891e+09 -3.874891e+09 2.443708e+01 2.141842e-01 -1.159607e+00
-3.581393e+09 -3.381392e+09 -3.541392e+09 1.272601e+01 2.773266e+00 -9.772894e+00
-2.948311e+09 -2.748310e+09 -2.908310e+09 1.701293e+02 -8.403971e+01 6.669790e+00
-2.596691e+09 -2.396691e+09 -2.556691e+09 2.937909e+02 -1.491285e+02 4.910074e+01
-2.578265e+09 -2.378265e+09 -2.538265e+09 1.444286e+02 -2.386115e+02 2.350455e+01
-4.581298e+09 -4.381299e+09 -4.541299e+09 -9.019555e+01 -1.483329e+01 1.042978e+01
-4.785093e+09 -4.585094e+09 -4.745094e+09 -1.684231e+02 -1.382169e+01 2.022531e+01
-4.592636e+09 -4.392636e+09 -4.552636e+09 -1.503187e+02 -7.741320e+00 1.502174e+00
-4.773755e+09 -4.573756e+09 -4.733756e+09 -8.719976e+01 -1.534019e+00 1.474038e+01
-2.790610e+09 -2.590613e+09 -2.750610e+09 -1.308974e+02 -2.401151e+01 -1.191291e+01
-3.097881e+09 -2.897884e+09 -3.057882e+09 -9.396734e+01 3.897899e+01 -2.073822e+01
-2.664598e+09 -2.464601e+09 -2.624598e+09 -4.694729e+01 2.303414e+01 -2.870997e+01
-3.148869e+09 -2.948871e+09 -3.108869e+09 -1.032588e+02 -4.598842e+01 -1.710948e+01
-2.890873e+09 -2.690876e+09 -2.850873e+09 -3.752708e+01 -9.250277e+00 -2.071107e+01
-3.176486e+09 -2.976489e+09 -3.136486e+09 -3.224582e+00 1.203663e+01 -2.235902e+01
-3.904572e+09 -3.704571e+09 -3.864571e+09 2.526956e+01 1.403208e+00 -6.483011e+00
-3.841702e+09 -3.641701e+09 -3.801701e+09 1.040004e+01 -1.176204e+00 -3.278865e+00
-3.237545e+09 -3.037543e+09 -3.197544e+09 -1.793219e+02 -3.252963e+02 -1.150985e+02
-2.993898e+09 -2.793902e+09 -2.953901e+09 1.682966e+03 4.722874e+02 1.003280e+03
-3.482962e+09 -3.282960e+09 -3.442961e+09 -2.434527e+02 -2.839228e+02 -7.586172e+01
-3.967102e+09 -3.767101e+09 -3.927101e+09 -8.445846e+01 -1.599469e+01 -3.101349e+01
-3.176025e+09 -2.976024e+09 -3.136025e+09 -3.867817e+02 -4.361702e+02 -2.330635e+02
-3.241638e+09 -3.041636e+09 -3.201637e+09 -3.987140e+02 -3.532707e+02 -2.153675e+02
-2.057699e+09 -1.857702e+09 -2.017699e+09 1.187822e+02 2.126386e+01 1.551999e+01
-2.139494e+09 -1.939497e+09 -2.099494e+09 1.597718e+02 4.302914e+00 6.943219e+00
-2.147868e+09 -1.947871e+09 -2.107868e+09 2.576162e+02 -3.417678e+01 2.192416e+01
-3.038093e+09 -2.838096e+09 -2.998095e+09 5.040289e+02 -1.117224e+02 3.823419e+02
-1.766114e+09 -1.566117e+09 -1.726114e+09 1.493708e+02 5.284500e+01 3.753030e+00
-2.590954e+09 -2.390954e+09 -2.550954e+09 6.251627e+01 1.529523e+01 -1.682661e+00
-2.737886e+09 -2.537886e+09 -2.697886e+09 9.066477e+01 6.683107e+00 2.555886e+00
-4.992301e+09 -4.792301e+09 -4.952301e+09 -9.536171e+01 -8.326214e+00 8.340315e+00
-2.895354e+09 -2.695354e+09 -2.855354e+09 3.494457e+01 8.190330e+00 -1.147174e+01
-2.197879e+09 -1.997879e+09 -2.157879e+09 3.012456e+01 4.804578e+00 -7.533814e-01
-2.533168e+09 -2.333167e+09 -2.493167e+09 5.013509e+02 2.450166e+02 -7.197003e+01
-3.125373e+09 -2.925372e+09 -3.085372e+09 6.910170e+02 2.567689e+02 -9.761993e+01
-2.935711e+09 -2.735710e+09 -2.895710e+09 4.670563e+02 1.868056e+02 -2.063036e+01
-2.394363e+09 -2.194362e+09 -2.354362e+09 4.743267e+02 2.792435e+01 -5.794344e+01
-3.132703e+09 -2.932703e+09 -3.092702e+09 6.536058e+02 2.081026e+02 -4.781534e+01
-3.659007e+09 -3.459006e+09 -3.619006e+09 4.212694e+02 2.173986e+02 -4.966275e+01
-3.620822e+09 -3.420821e+09 -3.580821e+09 4.251946e+02 1.967071e+02 -3.204094e+01
-2.006856e+09 -1.806855e+09 -1.966855e+09 6.561505e+01 1.023295e+01 -1.145567e+01
-1.684264e+09 -1.484263e+09 -1.644263e+09 7.176506e+01 1.869294e+01 -1.014485e+01
-3.098663e+09 -2.898662e+09 -3.058662e+09 4.438524e+01 5.379723e+00 -9.249526e+00
-3.413362e+09 -3.213361e+09 -3.373362e+09 3.378444e+01 1.753786e+00 -1.599594e+01
-3.394560e+09 -3.194560e+09 -3.354560e+09 5.986802e+01 5.686868e+00 -4.660929e+00
-3.500965e+09 -3.300964e+09 -3.460964e+09 7.017416e+01 -8.841674e-01 -4.593741e+00
-2.292814e+09 -2.092813e+09 -2.252813e+09 5.660696e+01 5.034654e+00 -4.492242e+00
-2.163283e+09 -1.963283e+09 -2.123283e+09 3.186993e+01 4.347100e+00 -1.261126e+01
-1.875731e+09 -1.675731e+09 -1.835731e+09 -3.821225e+01 -1.329969e+00 -4.378627e+01
-2.656137e+09 -2.456136e+09 -2.616136e+09 -6.986258e+01 1.462615e+01 -4.924748e+01
-3.029598e+09 -2.829598e+09 -2.989598e+09 -5.712674e+01 -1.556311e+01 -3.092378e+01
-2.165269e+09 -1.965269e+09 -2.125269e+09 -4.055240e+01 -5.823200e+00 -2.462406e+01
-2.626155e+09 -2.426154e+09 -2.586154e+09 -5.734541e+01 1.413053e+01 -3.897680e+01
-1.893844e+09 -1.693844e+09 -1.853843e+09 4.507279e+02 2.397287e+01 3.437381e+01
-2.223598e+09 -2.023598e+09 -2.183598e+09 4.083539e+00 3.419188e+00 -1.566473e+00
-1.595487e+09 -1.395488e+09 -1.555487e+09 4.425650e+02 3.999893e+01 3.937892e+01
-2.872234e+09 -2.672234e+09 -2.832233e+09 3.016169e+02 1.818640e+01 9.245677e+00
-2.540272e+09 -2.340272e+09 -2.500271e+09 3.074399e+02 -4.480674e+01 2.826234e+00
-2.077037e+09 -1.877038e+09 -2.037037e+09 2.867073e+02 1.434342e+01 4.113877e+01
-4.829699e+09 -4.629699e+09 -4.789704e+09 -8.503390e+02 -8.772253e+02 -7.856233e+01
-4.317614e+09 -4.117615e+09 -4.277620e+09 -5.732370e+02 -1.988879e+03 -8.541136e+00
-4.653618e+09 -4.453616e+09 -4.613624e+09 -7.565819e+02 -6.208707e+02 -1.568061e+02
-4.483636e+09 -4.283634e+09 -4.443641e+09 -5.836081e+02 -1.199086e+03 -3.006443e+02
-2.862306e+09 -2.662309e+09 -2.822307e+09 -2.318793e+02 -1.538381e+02 -3.837548e+01
-2.811419e+09 -2.611422e+09 -2.771420e+09 -3.401290e+02 -4.096309e+02 -8.561751e+01
-2.582325e+09 -2.382328e+09 -2.542325e+09 -2.480242e+02 -1.437152e+02 -4.281041e+01
-3.029018e+09 -2.829021e+09 -2.989019e+09 -1.745697e+02 -1.420377e+02 -5.226647e+01
-2.751244e+09 -2.551247e+09 -2.711245e+09 -1.701311e+02 -1.872305e+02 -6.495429e+01
-4.150256e+09 -3.950258e+09 -4.110257e+09 -7.127450e+02 -3.216516e+02 -1.559960e+02
-4.645934e+09 -4.445936e+09 -4.605936e+09 -9.180370e+02 -1.873578e+02 -1.636006e+02
-4.302701e+09 -4.102703e+09 -4.262703e+09 -9.409285e+02 -8.192979e+02 -1.317287e+02
-4.069106e+09 -3.869109e+09 -4.029108e+09 -6.142352e+02 -7.798344e+02 -7.061245e+01
-4.133824e+09 -3.933827e+09 -4.093827e+09 -7.510346e+02 -6.486528e+02 -1.195632e+02
-1.828968e+09 -1.628967e+09 -1.788967e+09 2.281944e+01 7.914322e+00 -1.573357e+01
-2.830001e+09 -2.630001e+09 -2.790001e+09 3.665307e+01 5.664797e+00 -1.071903e+01
-4.310518e+09 -4.110518e+09 -4.270520e+09 -1.592818e+03 9.644302e+02 6.640609e+02
-2.172018e+09 -1.972019e+09 -2.132019e+09 -4.523986e+01 -4.331557e+00 -3.759160e+00
-4.310109e+09 -4.110110e+09 -4.270112e+09 -1.451631e+03 8.582290e+02 3.695349e+02
-4.823107e+09 -4.623108e+09 -4.783113e+09 -9.190989e+02 7.456078e+02 5.103344e+02
-4.136641e+09 -3.936643e+09 -4.096647e+09 -9.951798e+02 1.558118e+03 5.488117e+02
-3.163648e+09 -2.963650e+09 -3.123649e+09 -7.525093e+02 -6.099227e+02 -1.428275e+02
-4.655764e+09 -4.455765e+09 -4.615765e+09 -3.720895e+02 5.354985e+00 1.872271e+01
-2.969104e+09 -2.769107e+09 -2.929106e+09 -1.082303e+03 -9.787747e+02 -3.318729e+02
-4.811166e+09 -4.611167e+09 -4.771167e+09 -5.887209e+02 -1.956093e+01 6.661289e+01
-3.638807e+09 -3.438809e+09 -3.598808e+09 -6.645236e+02 -7.713556e+02 -1.833197e+02
-3.672603e+09 -3.472605e+09 -3.632604e+09 -9.264195e+02 -8.081185e+02 -2.061688e+02
-2.108686e+09 -1.908686e+09 -2.068686e+09 -6.074988e+01 -9.655587e+00 1.371805e+01
-4.983597e+09 -4.783598e+09 -4.943598e+09 -4.961101e+02 7.097860e+00 -3.773589e+01
-2.177162e+09 -1.977163e+09 -2.137163e+09 -3.510174e+01 -3.925891e+00 9.446588e+00
-2.506777e+09 -2.306778e+09 -2.466778e+09 -3.163653e+01 -8.182431e+00 1.276946e+01
-2.352986e+09 -2.152987e+09 -2.312986e+09 -2.367189e+01 -5.962242e+00 -9.278672e+00
-2.683288e+09 -2.483288e+09 -2.643288e+09 -1.386485e+02 -1.594770e+02 -4.468153e+01
-2.157016e+09 -1.957016e+09 -2.117015e+09 -9.001970e+01 -4.086841e+01 -5.285599e+01
-2.173875e+09 -1.973876e+09 -2.133874e+09 -2.564050e+02 -2.299578e+02 3.673150e+00
-1.912864e+09 -1.712865e+09 -1.872864e+09 -1.338716e+02 -1.243958e+02 -4.214248e+01
-3.005855e+09 -2.805855e+09 -2.965855e+09 2.433849e+01 3.190618e+00 -5.612933e-01
-2.355384e+09 -2.155385e+09 -2.315385e+09 -1.767864e+02 -5.489433e+00 1.012464e+01
-3.841896e+09 -3.641895e+09 -3.801895e+09 7.947584e+00 4.328648e+00 -2.800647e+00
-4.983230e+09 -4.783229e+09 -4.943230e+09 -3.122629e+02 -7.245841e+01 -7.788355e+01
-2.188668e+09 -1.988667e+09 -2.148667e+09 1.855933e+01 2.367135e+00 -2.161949e+00
-3.575601e+09 -3.375600e+09 -3.535600e+09 7.387086e+00 7.363710e-01 -3.386753e+00
-2.009420e+09 -1.809423e+09 -1.969421e+09 -2.200497e+02 3.764314e+01 -2.123325e+01
-2.920012e+09 -2.720015e+09 -2.880013e+09 -2.875514e+02 3.614738e+01 -4.696711e+01
-3.965423e+09 -3.765426e+09 -3.925429e+09 -5.162307e+01 -1.771909e+03 1.865906e+02
-2.322870e+09 -2.122873e+09 -2.282870e+09 -2.659172e+02 -8.198672e+00 -5.966875e+01
-1.787136e+09 -1.587139e+09 -1.747137e+09 -2.240908e+02 5.015884e+01 -4.827663e+01
-4.315889e+09 -4.115890e+09 -4.275890e+09 3.791085e+02 6.507652e-01 -8.027364e+01
-4.823379e+09 -4.623380e+09 -4.783380e+09 5.022840e+02 1.981309e+01 2.554222e+01
-4.835044e+09 -4.635045e+09 -4.795044e+09 4.688112e+02 1.661652e+01 3.692280e+01
-4.327557e+09 -4.127558e+09 -4.287558e+09 4.574220e+02 -1.247254e+01 -5.472517e+01
-3.586953e+09 -3.386954e+09 -3.546953e+09 2.618814e+02 2.484316e+01 3.218090e+01
-3.081610e+09 -2.881611e+09 -3.041609e+09 2.404601e+02 -1.609757e+00 2.901421e+01
-3.651094e+09 -3.451095e+09 -3.611094e+09 1.750460e+02 2.072968e+01 4.791261e+00
-3.853870e+09 -3.653871e+09 -3.813869e+09 1.134376e+02 -3.704436e+00 -4.425239e+00
-3.234325e+09 -3.034325e+09 -3.194324e+09 1.756623e+02 2.904580e+01 3.330726e+01
-3.233307e+09 -3.033307e+09 -3.193306e+09 1.129628e+02 1.094274e+01 6.104769e+00
-3.426355e+09 -3.226354e+09 -3.386354e+09 -2.449121e+01 -5.318334e+00 -1.417707e+01
-3.610890e+09 -3.410889e+09 -3.570889e+09 -2.138378e+01 -1.269345e+00 -1.026689e+01
-1.567476e+09 -1.367479e+09 -1.527479e+09 7.037175e+01 7.100566e+01 -1.144267e+02
-3.547837e+09 -3.347837e+09 -3.507837e+09 -2.587768e+01 -1.578758e+00 -1.253537e+01
-2.555802e+09 -2.355801e+09 -2.515801e+09 -9.554693e+00 -3.084502e+00 -2.191563e+01
-2.680688e+09 -2.480688e+09 -2.640688e+09 -1.338882e+01 -2.227591e+00 -1.860171e+01
-4.615905e+09 -4.415905e+09 -4.575904e+09 1.061218e+02 -2.038770e+01 -7.238780e+00
-3.849105e+09 -3.649105e+09 -3.809104e+09 6.142194e+00 -2.615154e+01 -1.433690e+01
-2.946801e+09 -2.746801e+09 -2.906801e+09 5.657167e+01 -2.672905e+01 -1.863061e+01
-3.291719e+09 -3.091719e+09 -3.251718e+09 6.689233e+01 -1.493284e+00 -2.586700e+01
-4.279352e+09 -4.079352e+09 -4.239352e+09 1.098146e+02 -2.209711e+01 1.921945e+01
-4.334123e+09 -4.134123e+09 -4.294122e+09 -8.368890e+00 8.630536e-01 -1.426028e+01
-3.729972e+09 -3.529972e+09 -3.689972e+09 3.127312e+01 3.755942e+01 -1.162491e+01
-3.050596e+09 -2.850596e+09 -3.010595e+09 -1.092772e+01 -1.199744e+01 -3.985473e+01
-3.282173e+09 -3.082173e+09 -3.242173e+09 3.146330e+01 -7.610621e+01 -1.413464e+01
-1.589036e+09 -1.389036e+09 -1.549035e+09 -6.579844e+02 -3.625254e+02 -9.547576e+01
-2.530905e+09 -2.330905e+09 -2.490904e+09 -6.029288e+02 -3.100354e+02 -1.299390e+02
-2.865088e+09 -2.665088e+09 -2.825087e+09 -5.038839e+02 -2.787457e+02 -5.069705e+01
-2.552118e+09 -2.352117e+09 -2.512117e+09 -4.840783e+02 -2.882783e+02 -6.386109e+01
-2.088700e+09 -1.888699e+09 -2.048699e+09 -5.084016e+02 -2.525405e+02 -8.237895e+01
-1.909037e+09 -1.709037e+09 -1.869037e+09 -1.027897e+02 -1.260948e+01 -3.264180e-01
-3.889221e+09 -3.689221e+09 -3.849221e+09 3.409868e+01 -2.942599e+00 1.130520e+01
-4.782380e+09 -4.582380e+09 -4.742380e+09 9.146237e+01 9.056741e+00 3.621324e+00
-4.788990e+09 -4.588990e+09 -4.748990e+09 1.055571e+02 1.960149e+00 -1.432225e+01
-4.798075e+09 -4.598074e+09 -4.758074e+09 6.784560e+01 2.388468e+00 -2.151646e+01
-4.209476e+09 -4.009476e+09 -4.169476e+09 9.227970e+01 5.898826e+00 -7.709986e+00
-3.963889e+09 -3.763892e+09 -3.923894e+09 2.757289e+02 -1.668718e+03 3.156480e+02
-2.115075e+09 -1.915074e+09 -2.075074e+09 -6.293751e+01 -3.928182e+00 -3.061001e+01
-2.103507e+09 -1.903506e+09 -2.063506e+09 4.164897e+00 3.320570e+00 -2.493033e+01
-1.931193e+09 -1.731192e+09 -1.891192e+09 -2.993220e+01 5.923905e+00 -3.610503e+01
-2.424793e+09 -2.224793e+09 -2.384792e+09 -3.426963e+01 3.147088e+01 -2.849102e+01
-2.064745e+09 -1.864745e+09 -2.024745e+09 -1.142372e+01 -9.093224e+00 -1.559782e+01
-4.124387e+09 -3.924388e+09 -4.084386e+09 4.864169e+02 4.620615e+01 -5.537940e+01
-4.477556e+09 -4.277558e+09 -4.437556e+09 6.279989e+02 3.862130e+01 -1.363967e+01
-4.621666e+09 -4.421668e+09 -4.581666e+09 4.644284e+02 1.492921e+01 -2.532025e+01
-4.072251e+09 -3.872252e+09 -4.032250e+09 3.668485e+02 5.669412e+01 1.314943e+01
-4.806066e+09 -4.606068e+09 -4.766066e+09 5.272295e+02 4.534448e+01 2.562407e+01
-3.973023e+09 -3.773028e+09 -3.933026e+09 -1.541364e+02 5.603693e+01 4.751827e+02
-3.941183e+09 -3.741187e+09 -3.901185e+09 1.579099e+02 2.078704e+02 3.793450e+02
-4.305512e+09 -4.105516e+09 -4.265515e+09 -7.356615e+01 -4.575504e+00 6.632059e+01
-4.584248e+09 -4.384253e+09 -4.544251e+09 3.520012e+02 8.759390e+01 1.795907e+02
-3.892307e+09 -3.692311e+09 -3.852310e+09 -1.541027e+01 -8.587686e+00 1.718378e+01
-3.947824e+09 -3.747828e+09 -3.907828e+09 1.567214e+02 6.547083e+01 2.768683e+01
-4.486466e+09 -4.286467e+09 -4.446471e+09 -3.960584e+02 -1.368478e+03 -2.041146e+02
-1.984181e+09 -1.784186e+09 -1.944183e+09 -1.117255e+02 -6.162882e+02 1.382519e+01
-2.558415e+09 -2.358419e+09 -2.518417e+09 -3.790000e+02 -1.181785e+03 -1.020490e+02
-2.401337e+09 -2.201341e+09 -2.361338e+09 5.817356e+01 -1.017811e+03 1.408883e+02
-2.503742e+09 -2.303747e+09 -2.463744e+09 -1.680456e+02 -1.050203e+03 7.075957e+01
-2.321890e+09 -2.121895e+09 -2.281892e+09 2.492371e+01 -6.854497e+02 3.609533e+01
-1.792796e+09 -1.592800e+09 -1.752797e+09 -1.662503e+02 -6.865822e+02 2.342368e+01
-1.930249e+09 -1.730248e+09 -1.890249e+09 1.594520e+02 -4.824133e+02 -4.972715e+02
-2.147242e+09 -1.947240e+09 -2.107241e+09 1.655048e+01 -7.115319e+02 -6.658321e+02
-2.696634e+09 -2.496634e+09 -2.656635e+09 3.334571e+02 -2.792402e+02 -2.384788e+02
-2.262725e+09 -2.062725e+09 -2.222726e+09 6.292964e+02 -1.535971e+02 -4.048318e+02
-1.968657e+09 -1.768655e+09 -1.928657e+09 8.872691e+02 -3.549719e+02 -7.903542e+02
-2.752125e+09 -2.552124e+09 -2.712125e+09 8.548646e+02 6.716404e+01 -3.240251e+02
-2.204256e+09 -2.004257e+09 -2.164258e+09 1.038676e+03 -2.224115e+02 -2.399349e+02
-2.448914e+09 -2.248914e+09 -2.408914e+09 -6.767938e+01 -6.212273e-02 -4.517443e+01
-2.533691e+09 -2.333691e+09 -2.493691e+09 -1.064108e+02 4.100725e+01 -2.531897e+01
-5.014107e+09 -4.814106e+09 -4.974107e+09 -5.496198e+02 -1.833157e+02 -9.896766e+01
-2.448452e+09 -2.248452e+09 -2.408451e+09 -4.875493e+01 1.020328e+01 -4.786202e+01
-2.567079e+09 -2.367078e+09 -2.527078e+09 -2.286699e+01 4.546624e+00 -2.492501e+01
-1.857798e+09 -1.657798e+09 -1.817798e+09 -3.999701e+01 2.273114e+01 -3.882105e+01
-3.848511e+09 -3.648510e+09 -3.808510e+09 -3.548974e+01 -1.087335e+00 -3.388858e+00
-3.279737e+09 -3.079737e+09 -3.239737e+09 -7.055279e+01 -6.814478e+00 -7.283209e+00
-3.463989e+09 -3.263988e+09 -3.423989e+09 -7.662620e+01 -3.799734e+00 -6.960384e+00
-2.900487e+09 -2.700487e+09 -2.860487e+09 -3.901114e+01 -3.921667e+00 -1.039036e+01
-2.068301e+09 -1.868304e+09 -2.028304e+09 -1.094218e+02 2.481005e+02 4.276348e+02
-2.583237e+09 -2.383236e+09 -2.543237e+09 -3.158721e+01 -3.854371e+00 -7.039169e-01
-3.984408e+09 -3.784407e+09 -3.944408e+09 -7.223716e+02 -3.727845e+02 -1.465545e+02
-1.674097e+09 -1.474101e+09 -1.634098e+09 1.058871e+02 1.139572e+02 1.245275e+01
-2.231862e+09 -2.031865e+09 -2.191862e+09 6.010314e+01 1.074438e+02 8.673568e+00
-3.536379e+09 -3.336383e+09 -3.496380e+09 -5.655668e+00 2.137571e+01 3.360424e-01
-4.664146e+09 -4.464147e+09 -4.624149e+09 -8.819347e+02 -4.198860e+02 -1.592003e+02
-4.317438e+09 -4.117440e+09 -4.277442e+09 5.625513e+00 -1.399991e+03 1.412691e+02
-3.315140e+09 -3.115144e+09 -3.275141e+09 7.478496e+01 3.148525e+01 -1.756005e+01
-3.085141e+09 -2.885145e+09 -3.045142e+09 9.511544e+01 7.506396e+01 -1.927636e+01
-3.445717e+09 -3.245717e+09 -3.405717e+09 -9.431729e+01 -5.294895e+00 5.633604e-02
-3.119168e+09 -2.919167e+09 -3.079167e+09 -7.587531e+01 -1.171848e+01 -8.469137e-02
-3.180455e+09 -2.980455e+09 -3.140455e+09 -9.496047e+01 -1.493749e+01 -4.964349e+00
-4.784920e+09 -4.584920e+09 -4.744920e+09 1.401841e+02 1.095415e+01 1.597102e+01
-1.727306e+09 -1.527305e+09 -1.687305e+09 -3.261936e+02 -1.959724e+02 -1.980406e+01
-2.864995e+09 -2.664994e+09 -2.824994e+09 -3.897736e+02 -3.276355e+02 -1.026596e+02
-2.732056e+09 -2.532055e+09 -2.692055e+09 -3.959064e+02 -2.450127e+02 -1.369251e+02
-2.856203e+09 -2.656202e+09 -2.816202e+09 -6.069410e+02 -3.653790e+02 -2.082499e+02
-1.888080e+09 -1.688079e+09 -1.848079e+09 -4.601307e+02 -2.845327e+02 -6.348075e+01
-1.597191e+09 -1.397190e+09 -1.557190e+09 -7.481416e+02 -2.168055e+02 -1.435708e+02
-1.895547e+09 -1.695546e+09 -1.855546e+09 -6.710708e+02 -3.611190e+02 -1.145987e+02
-2.815617e+09 -2.615619e+09 -2.775619e+09 5.491303e+02 -1.046991e+02 -1.761456e+02
-2.096830e+09 -1.896831e+09 -2.056832e+09 6.962836e+02 -7.546047e+01 3.585103e+01
-2.379987e+09 -2.179989e+09 -2.339989e+09 3.851293e+02 -6.073735e+01 -2.253983e+01
-1.963955e+09 -1.763957e+09 -1.923957e+09 3.810287e+02 -6.050735e+01 2.546025e+01
-1.786047e+09 -1.586048e+09 -1.746049e+09 5.011193e+02 -1.927758e+02 -9.475026e+01
-2.621632e+09 -2.421634e+09 -2.581634e+09 4.132156e+02 -9.248313e+01 -5.769560e+00
-4.799597e+09 -4.599598e+09 -4.759597e+09 1.986431e+02 -8.775129e+00 -1.889104e+01
-2.807193e+09 -2.607195e+09 -2.767195e+09 1.858531e+02 -1.320914e+02 -8.113973e+01
-1.951942e+09 -1.751942e+09 -1.911943e+09 2.075979e+02 -3.030093e+02 -1.937272e+02
-3.109447e+09 -2.909445e+09 -3.069448e+09 7.302866e+02 -4.243413e+02 -7.331795e+02
-2.888873e+09 -2.688871e+09 -2.848873e+09 -1.104121e+02 -5.771175e+02 -5.317689e+02
-2.912167e+09 -2.712166e+09 -2.872167e+09 2.424957e+01 -4.495936e+02 -6.080674e+02
-3.049008e+09 -2.849008e+09 -3.009010e+09 8.752429e+02 -2.071099e+02 -3.311914e+02
-3.226616e+09 -3.026615e+09 -3.186616e+09 -3.339016e+01 -3.315997e+02 -1.863546e+02
-1.947516e+09 -1.747517e+09 -1.907515e+09 -5.645501e+01 -4.491099e+01 -4.259164e+00
-1.924130e+09 -1.724129e+09 -1.884130e+09 1.710358e+01 -4.000346e+02 -2.030681e+02
-4.003508e+09 -3.803509e+09 -3.963508e+09 1.930154e+02 1.313424e+01 2.307928e+01
-3.187532e+09 -2.987531e+09 -3.147533e+09 2.845603e+02 -3.159902e+02 -3.153174e+02
-2.599079e+09 -2.399079e+09 -2.559079e+09 -1.043908e+02 -1.415996e+01 2.133193e+01
-2.287353e+09 -2.087353e+09 -2.247353e+09 -1.158173e+02 -3.331779e+01 4.033461e-04
-1.729107e+09 -1.529107e+09 -1.689107e+09 -1.200516e+02 -1.017025e+01 -1.716647e+01
-2.069055e+09 -1.869055e+09 -2.029055e+09 -9.966956e+01 -1.301511e+01 -2.122577e+01
-1.791659e+09 -1.591659e+09 -1.751659e+09 -1.096630e+02 -7.259857e+00 -1.184577e+01
-2.560511e+09 -2.360513e+09 -2.520511e+09 -8.569100e+01 -9.005802e+01 8.988252e+00
-3.829897e+09 -3.629902e+09 -3.789901e+09 3.755858e+02 2.980112e+01 4.115449e+02
-3.631032e+09 -3.431036e+09 -3.591035e+09 -9.360592e+00 3.289395e-01 1.035336e+02
-3.612882e+09 -3.412886e+09 -3.572885e+09 1.296128e+01 1.668763e+01 8.267837e+01
-2.946333e+09 -2.746337e+09 -2.906337e+09 2.202797e+02 6.999526e+01 1.742728e+02
-3.375973e+09 -3.175977e+09 -3.335976e+09 1.713773e+02 1.067300e+02 7.341651e+01
-3.104941e+09 -2.904946e+09 -3.064945e+09 2.742240e-01 -4.542065e+01 1.006917e+02
-3.966430e+09 -3.766435e+09 -3.926434e+09 2.935524e+01 -2.084793e+01 4.529900e+01
-2.954727e+09 -2.754731e+09 -2.914730e+09 1.258208e+01 8.411324e+01 1.458163e+02
-2.981168e+09 -2.781169e+09 -2.941167e+09 4.480403e+01 1.834330e+01 -1.861157e+01
-3.774248e+09 -3.574249e+09 -3.734247e+09 5.040309e+01 -2.829495e+00 2.126819e+01
-4.021161e+09 -3.821161e+09 -3.981160e+09 4.078263e+01 8.592754e+00 -7.603260e-01
-3.050123e+09 -2.850124e+09 -3.010123e+09 1.396723e+02 -1.225256e+01 2.157155e+01
-4.256109e+09 -4.056107e+09 -4.216109e+09 -4.209844e+02 -2.795185e+02 -2.927040e+02
-4.792187e+09 -4.592185e+09 -4.752187e+09 -2.202988e+02 -1.013913e+02 -2.284302e+01
-3.944909e+09 -3.744908e+09 -3.904908e+09 -5.301618e+02 -2.806627e+02 -1.479928e+02
-4.647231e+09 -4.447230e+09 -4.607231e+09 -3.732559e+02 -9.599338e+01 -2.117269e+02
-4.447152e+09 -4.247151e+09 -4.407152e+09 -5.075352e+02 -2.673458e+02 -2.227413e+02
-3.812395e+09 -3.612394e+09 -3.772394e+09 -2.633378e+02 -1.240579e+02 -4.780510e+01
-3.302420e+09 -3.102420e+09 -3.262419e+09 -1.249703e+02 -9.810040e+01 -1.877241e+01
-3.285827e+09 -3.085826e+09 -3.245826e+09 -1.131729e+02 -4.124087e+01 -1.340747e+01
-2.265696e+09 -2.065695e+09 -2.225695e+09 -2.101712e+02 -9.627657e+01 9.664956e-01
-4.281218e+09 -4.081217e+09 -4.241217e+09 -1.522592e+02 -3.504434e+01 -3.671814e+01
-3.772244e+09 -3.572243e+09 -3.732243e+09 -8.156016e+01 -9.190019e+01 -2.967970e+01
-2.414242e+09 -2.214241e+09 -2.374241e+09 -2.221304e+02 -1.231733e+02 -5.346040e+01
-3.012262e+09 -2.812261e+09 -2.972261e+09 -3.034059e+02 -1.362095e+02 -2.261767e+01
-2.748754e+09 -2.548753e+09 -2.708753e+09 -1.740138e+02 -1.236112e+02 -3.587687e+01
-2.037826e+09 -1.837827e+09 -1.997826e+09 -7.873151e+01 -3.522469e+00 1.121625e+01
-3.416753e+09 -3.216754e+09 -3.376754e+09 4.991571e+01 1.920796e+01 3.005368e+00
-3.132822e+09 -2.932823e+09 -3.092823e+09 -9.581694e+01 -7.206681e+00 2.743389e+01
-4.289470e+09 -4.089471e+09 -4.249470e+09 1.653276e+02 -7.960802e+00 -2.097864e+01
-3.628666e+09 -3.428667e+09 -3.588667e+09 -6.814222e+01 -6.076863e+00 4.447919e+00
-3.271312e+09 -3.071313e+09 -3.231312e+09 -7.034205e+01 -3.490964e+00 7.917368e+00
-2.988003e+09 -2.788004e+09 -2.948003e+09 -6.365379e+01 -3.441881e+00 4.156647e+00
-2.420499e+09 -2.220499e+09 -2.380499e+09 -1.292556e+02 4.800199e+01 -4.858197e+01
-2.534086e+09 -2.334086e+09 -2.494085e+09 -3.043014e+02 6.003995e+01 -1.787060e+01
-2.404086e+09 -2.204087e+09 -2.364086e+09 -1.842265e+02 -1.723317e+01 -6.407308e+01
-2.050263e+09 -1.850263e+09 -2.010262e+09 -1.424381e+02 -2.119184e+01 -4.262143e+01
-2.445934e+09 -2.245934e+09 -2.405933e+09 -2.035184e+02 2.573047e+01 -5.406656e+01
-2.747622e+09 -2.547621e+09 -2.707622e+09 1.290056e+02 1.172683e+01 2.709800e+00
-3.956582e+09 -3.756581e+09 -3.916581e+09 5.510987e+01 1.249035e+01 -3.540792e+01
-4.055737e+09 -3.855737e+09 -4.015737e+09 1.497854e+02 7.930275e+00 -1.681129e+00
-4.995122e+09 -4.795123e+09 -4.955127e+09 -2.923021e+02 -5.886057e+02 1.346512e+01
-2.749897e+09 -2.549898e+09 -2.709898e+09 1.951049e+02 3.419651e+01 1.124993e+01
-3.050380e+09 -2.850380e+09 -3.010380e+09 1.886001e+02 2.531869e+01 -1.516123e+01
-3.408638e+09 -3.208638e+09 -3.368638e+09 1.246862e+02 5.873261e+00 -1.021462e+01
-3.695261e+09 -3.495261e+09 -3.655261e+09 1.338650e+02 -4.300626e-01 1.438448e+00
-4.679210e+09 -4.479210e+09 -4.639209e+09 4.107491e+02 3.132872e+01 1.625268e+01
-4.451479e+09 -4.251479e+09 -4.411484e+09 1.631346e+03 1.479491e+03 -5.139777e+02
-4.624881e+09 -4.424881e+09 -4.584880e+09 1.330554e+02 1.701940e+01 -3.095287e+01
-4.353151e+09 -4.153150e+09 -4.313150e+09 1.169514e+02 1.859164e+01 -5.383043e+00
-3.849581e+09 -3.649581e+09 -3.809580e+09 3.741709e+02 5.310675e+01 -2.746681e+00
-3.923574e+09 -3.723573e+09 -3.883573e+09 4.461717e+02 9.006086e+01 2.557628e+01
-4.064270e+09 -3.864269e+09 -4.024269e+09 1.934651e+02 3.417015e-02 1.239023e+00
-1.784131e+09 -1.584132e+09 -1.744131e+09 3.109775e+02 -2.510946e+01 -4.996704e+00
-3.049685e+09 -2.849686e+09 -3.009685e+09 2.553195e+02 -1.474930e+00 5.002749e+01
-2.858579e+09 -2.658580e+09 -2.818578e+09 4.245894e+02 8.605519e+00 4.277983e+00
-2.547527e+09 -2.347528e+09 -2.507527e+09 4.441700e+02 6.709851e+01 -3.206143e+01
-1.869965e+09 -1.669966e+09 -1.829964e+09 2.444861e+02 1.313878e+01 7.053568e+00
-1.893844e+09 -1.693845e+09 -1.853843e+09 4.399146e+02 7.215112e+00 2.862906e+01
-4.470362e+09 -4.270365e+09 -4.430370e+09 -2.573358e+02 1.947350e+03 6.536327e+01
-2.084293e+09 -1.884294e+09 -2.044292e+09 4.056007e+02 -5.430983e+00 6.005442e+01
-2.624519e+09 -2.424518e+09 -2.584518e+09 2.733699e+02 2.490566e+02 -4.328461e+00
-2.761361e+09 -2.561361e+09 -2.721360e+09 4.400917e+02 6.923223e+01 -2.125880e+01
-2.538972e+09 -2.338972e+09 -2.498971e+09 3.292570e+02 1.508963e+02 -1.199345e+01
-2.207770e+09 -2.007769e+09 -2.167769e+09 4.987719e+02 9.848172e+01 -6.265996e-01
-2.192025e+09 -1.992024e+09 -2.152024e+09 2.732234e+02 2.007420e+01 6.423823e+00
-3.731455e+09 -3.531453e+09 -3.691455e+09 -5.250070e+01 1.674606e+02 -1.248690e+02
-3.960982e+09 -3.760981e+09 -3.920982e+09 -2.144933e+02 1.713577e+02 -1.577805e+02
-4.764846e+09 -4.564844e+09 -4.724846e+09 -1.497464e+02 2.859589e+01 -1.535653e+02
-4.022127e+09 -3.822125e+09 -3.982127e+09 -2.557223e+02 6.883487e+01 2.876010e+01
-2.087134e+09 -1.887135e+09 -2.047135e+09 -5.149801e+00 2.282444e+00 3.933988e+00
-1.807677e+09 -1.607678e+09 -1.767678e+09 1.397816e+00 4.357493e+00 8.952341e-01
-2.609154e+09 -2.409155e+09 -2.569155e+09 1.983862e+01 3.141630e+00 7.893544e+00
-2.971782e+09 -2.771783e+09 -2.931783e+09 2.524893e+01 5.737358e+00 3.577219e+00
-2.049974e+09 -1.849975e+09 -2.009975e+09 1.200383e+01 1.635228e+00 4.914002e+00
-2.055582e+09 -1.855583e+09 -2.015582e+09 3.769440e-01 6.511245e-01 8.016769e-01
-2.521547e+09 -2.321548e+09 -2.481548e+09 4.239517e+00 -3.783895e-01 8.144646e+00
-2.478411e+09 -2.278412e+09 -2.438412e+09 3.484838e+00 6.504646e+00 -4.813145e-01
-2.401185e+09 -2.201186e+09 -2.361186e+09 2.281647e+01 5.331467e+00 2.479439e-02
-1.802069e+09 -1.602070e+09 -1.762070e+09 1.145609e+01 5.837638e+00 -4.109005e+00
-2.643236e+09 -2.443236e+09 -2.603236e+09 -4.854023e+01 -6.478610e+00 1.388971e+00
-3.107303e+09 -2.907303e+09 -3.067303e+09 -8.083791e+01 -8.548891e+00 7.225525e+00
-2.878664e+09 -2.678664e+09 -2.838664e+09 -1.291332e+02 -2.945862e+01 -1.212566e+01
-2.677533e+09 -2.477533e+09 -2.637533e+09 -1.035947e+02 -1.848857e+01 -2.178247e+00
-2.210560e+09 -2.010560e+09 -2.170560e+09 -1.161289e+02 -2.442309e+01 1.862360e+01
-1.787860e+09 -1.587859e+09 -1.747860e+09 1.956266e+02 3.402023e+02 -2.279925e+02
-1.778527e+09 -1.578526e+09 -1.738527e+09 6.267728e+01 2.605228e+02 -7.929937e+01
-2.967730e+09 -2.767729e+09 -2.927730e+09 3.526178e+01 2.408948e+02 -7.471327e+01
-2.546777e+09 -2.346775e+09 -2.506777e+09 -1.296047e+02 2.220625e+02 -2.219346e+02
-2.690712e+09 -2.490711e+09 -2.650712e+09 2.577999e+01 2.491605e+02 -7.549948e+01
-2.174611e+09 -1.974610e+09 -2.134611e+09 4.395780e+01 2.116534e+02 -5.221196e+01
-1.884029e+09 -1.684028e+09 -1.844029e+09 -6.706655e+01 2.526011e+02 -1.207200e+02
-1.998061e+09 -1.798060e+09 -1.958061e+09 -3.170989e+02 2.645267e+02 -2.543414e+02
-4.824487e+09 -4.624491e+09 -4.784490e+09 3.986906e+02 5.003393e+02 8.742590e-01
-3.011953e+09 -2.811954e+09 -2.971954e+09 4.815447e+00 6.598130e+00 3.636146e+00
-4.505620e+09 -4.305624e+09 -4.465626e+09 1.499887e+03 1.263369e+03 -2.704880e+02
-2.836460e+09 -2.636461e+09 -2.796460e+09 2.680973e+01 5.871899e+00 6.203683e+00
-1.630478e+09 -1.430479e+09 -1.590479e+09 2.561236e+01 8.933068e+00 7.306412e+00
-2.246067e+09 -2.046067e+09 -2.206067e+09 -1.598300e+01 4.462712e+00 -1.988101e+01
-2.586477e+09 -2.386476e+09 -2.546476e+09 -1.709107e+01 8.633334e+00 -3.161783e+01
-2.867987e+09 -2.667986e+09 -2.827986e+09 1.377632e+01 5.780599e+00 -1.627014e+01
-2.689686e+09 -2.489685e+09 -2.649685e+09 1.859716e+01 1.128734e+01 -2.518038e+01
-2.408224e+09 -2.208224e+09 -2.368224e+09 9.372829e+00 4.682190e+00 6.573745e-01
-2.114657e+09 -1.914656e+09 -2.074656e+09 2.148035e+01 1.321282e+00 -1.712312e+01
-1.903372e+09 -1.703372e+09 -1.863372e+09 -7.478269e+00 2.662957e+00 -2.794394e+01
-2.625238e+09 -2.425238e+09 -2.585238e+09 2.688702e+00 8.957598e+00 -2.271729e+01
-2.929256e+09 -2.729255e+09 -2.889256e+09 -1.420711e+01 -9.485532e-01 -1.215117e+01
-2.715344e+09 -2.515343e+09 -2.675344e+09 -1.469150e+01 -4.314377e+00 -1.425393e+01
-2.561432e+09 -2.361431e+09 -2.521431e+09 -1.020246e+01 -4.354039e+00 1.301444e+00
-2.802124e+09 -2.602124e+09 -2.762124e+09 -2.262024e+01 -1.049837e+01 9.074796e+00
-2.653556e+09 -2.453555e+09 -2.613555e+09 -1.761357e+01 -1.078342e+01 -1.036291e+00
-2.140842e+09 -1.940841e+09 -2.100842e+09 -1.409624e+01 -6.966800e-01 9.130154e-01
-1.872106e+09 -1.672106e+09 -1.832106e+09 -1.774980e+01 -7.465312e+00 -4.663036e+00
-2.983335e+09 -2.783335e+09 -2.943335e+09 -2.862297e+01 -2.166587e+00 4.689049e-02
-3.283293e+09 -3.083292e+09 -3.243293e+09 -4.703244e+01 -2.903132e+00 -4.288260e+00
-2.670714e+09 -2.470715e+09 -2.630715e+09 -7.761658e+01 -1.484684e+01 -1.575650e+00
-2.508305e+09 -2.308305e+09 -2.468305e+09 -1.181585e+02 -1.244445e+01 3.081494e+00
-2.485990e+09 -2.285991e+09 -2.445991e+09 -6.581239e+01 -1.869767e+01 3.270636e+01
-3.550925e+09 -3.350926e+09 -3.510925e+09 -6.283075e+01 -7.714313e+00 7.919059e+00
-3.102980e+09 -2.902980e+09 -3.062980e+09 -1.260144e+02 -2.356044e+01 1.521877e+01
-2.180758e+09 -1.980758e+09 -2.140758e+09 6.148596e+01 1.284347e+01 4.376695e-01
-2.775473e+09 -2.575474e+09 -2.735474e+09 2.384441e+01 1.017903e+01 -1.542222e+01
-3.007635e+09 -2.807636e+09 -2.967636e+09 6.063120e+01 8.845678e+00 5.345280e-02
-2.686772e+09 -2.486772e+09 -2.646772e+09 6.219626e+01 8.338108e+00 7.343566e-01
-2.014171e+09 -1.814172e+09 -1.974172e+09 6.102444e+01 6.343571e+00 1.435264e+01
-2.051595e+09 -1.851596e+09 -2.011596e+09 -8.165964e+01 -1.355459e+01 1.902085e+01
-1.758631e+09 -1.558632e+09 -1.718632e+09 -9.173145e+01 -4.946219e+00 1.461299e+01
-2.808855e+09 -2.608855e+09 -2.768855e+09 -1.235838e+02 -1.515018e+01 -1.295452e+01
-2.561196e+09 -2.361197e+09 -2.521197e+09 -6.719692e+01 -1.363381e+01 -2.586873e+00
-2.692516e+09 -2.492516e+09 -2.652516e+09 -1.595451e+02 -1.306625e+01 1.351378e+01
-1.972075e+09 -1.772075e+09 -1.932075e+09 -1.079445e+02 -2.009041e+01 -1.702488e+01
-1.934388e+09 -1.734388e+09 -1.894388e+09 -1.495436e+02 -2.514081e+01 1.669365e+01
-1.796873e+09 -1.596873e+09 -1.756873e+09 -7.873891e+01 -2.890608e+01 6.244381e+00
-2.538399e+09 -2.338397e+09 -2.498398e+09 7.497138e+02 3.733098e+02 -2.778441e+02
-1.789783e+09 -1.589781e+09 -1.749782e+09 8.411790e+02 5.605707e+02 -3.650702e+02
-2.361200e+09 -2.161198e+09 -2.321199e+09 5.546666e+02 3.774625e+02 -1.830289e+02
-3.280251e+09 -3.080249e+09 -3.240250e+09 4.093388e+02 3.769531e+02 -3.311458e+02
-2.177003e+09 -1.977004e+09 -2.137005e+09 -9.588880e+02 -3.819490e+00 2.532914e+02
-2.396496e+09 -2.196494e+09 -2.356496e+09 -3.390108e+02 1.325882e+02 1.544517e+01
-2.093087e+09 -1.893085e+09 -2.053086e+09 1.161666e+02 6.069735e+02 -4.720281e+02
-2.792113e+09 -2.592111e+09 -2.752113e+09 -8.971042e+02 -3.858354e+01 -1.933600e+02
-1.757227e+09 -1.557227e+09 -1.717228e+09 -6.184898e+02 2.128950e+02 2.843800e+01
-1.899319e+09 -1.699317e+09 -1.859318e+09 -2.152920e+02 4.313049e+02 -2.142373e+02
-2.565535e+09 -2.365533e+09 -2.525535e+09 -5.743661e+01 2.164600e+02 -2.758925e+02
-2.558655e+09 -2.358655e+09 -2.518655e+09 1.172800e+02 9.712663e+00 -2.505175e+01
-2.444496e+09 -2.244496e+09 -2.404496e+09 8.641428e+01 2.161170e+01 -2.973001e+00
-2.573726e+09 -2.373726e+09 -2.533726e+09 5.084377e+01 1.262322e+01 -1.165237e+01
-1.778447e+09 -1.578446e+09 -1.738446e+09 5.762899e+01 8.721122e+00 9.483499e+00
-2.595292e+09 -2.395292e+09 -2.555292e+09 6.017581e+01 1.679470e+01 -1.536804e+00
-2.326903e+09 -2.126903e+09 -2.286903e+09 8.955019e+01 2.176378e+01 -9.691323e-01
-2.411014e+09 -2.211013e+09 -2.371014e+09 -6.006653e+01 -6.540098e+00 -2.899717e+01
-3.995405e+09 -3.795410e+09 -3.955411e+09 1.112195e+03 1.700287e+03 -4.283545e+02
-3.074325e+09 -2.874325e+09 -3.034325e+09 -5.178133e+01 -6.595991e+00 -3.031543e+00
-1.890761e+09 -1.690760e+09 -1.850760e+09 -5.756024e+01 -9.353055e+00 -2.169043e+01
-3.958892e+09 -3.758890e+09 -3.918894e+09 2.273769e+02 -7.329287e+02 1.116795e+03
-1.814923e+09 -1.614922e+09 -1.774922e+09 -7.690264e+01 -1.219508e+01 -3.007127e+01
-4.123518e+09 -3.923518e+09 -4.083517e+09 -1.718436e+02 2.392094e+01 -1.302001e+01
-1.897327e+09 -1.697327e+09 -1.857327e+09 -1.053327e+02 -1.565278e+01 -2.201530e+01
-1.809393e+09 -1.609393e+09 -1.769393e+09 -9.110354e+01 -1.084471e+01 -1.288099e+01
-1.794926e+09 -1.594926e+09 -1.754926e+09 -5.402282e+01 -1.040138e+01 -1.218434e+01
-1.920146e+09 -1.720145e+09 -1.880145e+09 -6.905764e+01 -1.351271e+01 -1.778008e+01
-2.245488e+09 -2.045487e+09 -2.205488e+09 -7.468634e+01 -1.831519e+01 -3.065492e+01
-2.762958e+09 -2.562958e+09 -2.722958e+09 -8.702697e+01 -2.187670e+01 1.341981e+00
-2.177246e+09 -1.977245e+09 -2.137245e+09 -4.209615e+01 -1.946854e+01 -2.875890e+01
-3.876051e+09 -3.676052e+09 -3.836052e+09 1.511600e+01 3.996202e+00 3.289366e+00
-3.730067e+09 -3.530068e+09 -3.690068e+09 6.341855e+00 8.338442e-01 -1.944843e+00
-4.011865e+09 -3.811866e+09 -3.971866e+09 1.132060e+00 -3.379202e-01 -3.460658e+00
-4.686599e+09 -4.486600e+09 -4.646600e+09 -6.505177e-01 1.533028e+00 2.359098e+00
-3.554632e+09 -3.354633e+09 -3.514633e+09 1.253362e+01 3.060717e+00 -3.724132e-01
-3.694426e+09 -3.494427e+09 -3.654426e+09 5.765027e+00 2.244217e-01 8.522108e-01
-3.287649e+09 -3.087650e+09 -3.247650e+09 4.532848e+00 -1.678755e+00 3.388948e+00
-4.073317e+09 -3.873318e+09 -4.033318e+09 2.812055e+00 -2.703153e+00 6.462209e+00
-4.596272e+09 -4.396273e+09 -4.556273e+09 2.548410e+01 -1.294481e+00 -6.862848e+00
-4.447290e+09 -4.247291e+09 -4.407291e+09 -9.582782e+00 -3.489431e-01 3.100480e+00
-2.733254e+09 -2.533254e+09 -2.693253e+09 1.129972e+02 6.542962e+01 1.344015e+01
-2.806665e+09 -2.606665e+09 -2.766664e+09 1.204852e+02 2.697054e+01 1.526407e+01
-2.413693e+09 -2.213693e+09 -2.373692e+09 2.882823e+02 5.654442e+01 -3.812775e+01
-2.037860e+09 -1.837860e+09 -1.997859e+09 2.911847e+02 9.782916e+00 -1.096565e+01
-1.818685e+09 -1.618685e+09 -1.778684e+09 1.148669e+02 2.845038e+01 2.875480e+01
-2.052727e+09 -1.852728e+09 -2.012728e+09 -7.204118e+01 -1.642106e+01 1.440410e+01
-4.321641e+09 -4.121642e+09 -4.281650e+09 -5.733116e+02 2.910740e+03 5.334382e+02
-2.585489e+09 -2.385490e+09 -2.545489e+09 -1.149637e+02 -1.034396e+01 1.041654e+01
-1.811013e+09 -1.611013e+09 -1.771013e+09 -1.078254e+02 -2.056802e+01 1.495485e+01
-2.116536e+09 -1.916537e+09 -2.076537e+09 -2.962210e+01 -5.399934e+00 8.181750e+00
-2.770133e+09 -2.570134e+09 -2.730133e+09 -7.465055e+01 -6.936662e+00 4.139817e+00
-2.822912e+09 -2.622913e+09 -2.782913e+09 -6.226303e+01 -7.584064e+00 1.181899e-01
-2.570777e+09 -2.370778e+09 -2.530778e+09 -4.436181e+01 -1.522124e+01 -9.028963e+00
-4.619503e+09 -4.419502e+09 -4.579502e+09 -7.553097e+01 -5.827800e-01 -1.010900e+00
-4.976238e+09 -4.776236e+09 -4.936237e+09 3.901089e+02 -7.048291e+01 1.285048e+01
-4.593033e+09 -4.393033e+09 -4.553033e+09 -2.524412e+01 -5.579857e+00 -1.160979e+01
-4.321302e+09 -4.121302e+09 -4.281302e+09 -5.977014e+00 -1.490546e+01 -7.482583e-01
-3.791039e+09 -3.591039e+09 -3.751039e+09 -7.374978e+01 -1.664532e+00 -8.131080e+00
-3.872091e+09 -3.672091e+09 -3.832091e+09 -1.020040e+02 -1.650610e+01 1.108854e+01
-4.005421e+09 -3.805420e+09 -3.965420e+09 -8.306468e+01 -2.305968e+01 1.314864e+01
-2.545826e+09 -2.345825e+09 -2.505825e+09 5.592947e+02 2.338481e+02 -8.769290e+01
-4.669167e+09 -4.469167e+09 -4.629167e+09 -8.488136e+00 -2.190337e+00 2.975115e+00
-3.868837e+09 -3.668835e+09 -3.828837e+09 -1.531771e+02 -3.887202e+02 -3.244631e+02
-4.435983e+09 -4.235983e+09 -4.395982e+09 5.249416e+02 3.939437e+01 3.965423e+00
-4.641741e+09 -4.441740e+09 -4.601740e+09 -1.094644e+01 -4.134421e+00 -5.331316e+00
-3.709567e+09 -3.509566e+09 -3.669566e+09 -1.877331e+01 -2.897114e+00 3.570939e-01
-4.980242e+09 -4.780240e+09 -4.940243e+09 -1.302492e+03 -2.779639e+02 2.370197e+02
-3.591284e+09 -3.391284e+09 -3.551284e+09 -7.740276e+00 -3.668177e-01 -5.750159e+00
-3.546785e+09 -3.346784e+09 -3.506785e+09 -2.782418e+01 -1.307960e+00 -9.592071e+00
-3.074928e+09 -2.874927e+09 -3.034929e+09 -4.129339e+02 -9.096791e+02 -8.096501e+02
-2.070443e+09 -1.870443e+09 -2.030443e+09 -6.744074e+00 -3.555122e+00 -3.512497e-01
-2.791432e+09 -2.591432e+09 -2.751432e+09 -1.112001e+02 -1.482238e+01 -3.018620e+00
-2.562620e+09 -2.362620e+09 -2.522620e+09 -1.729683e+01 -8.585125e+00 -1.311679e+01
-2.826199e+09 -2.626198e+09 -2.786199e+09 -4.108811e+01 -1.378292e+01 2.212744e+00
-3.100810e+09 -2.900812e+09 -3.060811e+09 -2.778999e+02 -1.576856e+02 -4.301223e+01
-2.709952e+09 -2.509954e+09 -2.669952e+09 -2.026037e+02 -1.657292e+02 -1.111879e+01
-2.527100e+09 -2.327101e+09 -2.487100e+09 -4.047514e+02 -1.331493e+02 1.478659e+01
-2.019080e+09 -1.819082e+09 -1.979080e+09 -7.832642e+02 -4.434599e+02 -1.569315e+02
-2.283769e+09 -2.083772e+09 -2.243770e+09 -3.239867e+02 -3.089887e+02 -4.449457e+01
-2.027570e+09 -1.827573e+09 -1.987571e+09 -2.785457e+02 -4.611785e+02 8.727232e+01
-3.122081e+09 -2.922083e+09 -3.082082e+09 -6.886762e+02 -3.842176e+02 -2.032916e+02
-2.730696e+09 -2.530696e+09 -2.690696e+09 -3.655367e+01 -1.915870e+01 -4.136454e+01
-4.600213e+09 -4.400215e+09 -4.560213e+09 3.331724e+02 1.768847e+01 -3.360547e+01
-4.205919e+09 -4.005921e+09 -4.165919e+09 4.623015e+02 5.256636e+01 1.128953e+00
-4.020755e+09 -3.820757e+09 -3.980755e+09 1.968514e+02 -3.756792e+01 4.816470e+01
-4.384314e+09 -4.184316e+09 -4.344314e+09 1.270072e+02 -3.697995e+01 1.908506e+01
-4.467916e+09 -4.267914e+09 -4.427917e+09 -2.859889e+02 -4.445010e+02 6.703145e+02
-4.658171e+09 -4.458173e+09 -4.618171e+09 1.551208e+02 7.629360e+00 3.508717e+00
-4.658171e+09 -4.458173e+09 -4.618171e+09 2.541350e+02 -2.742105e+00 -5.696393e+00
-2.415337e+09 -2.215340e+09 -2.375337e+09 -1.291600e+02 2.544688e+01 -2.923576e+01
-2.040678e+09 -1.840681e+09 -2.000678e+09 -3.287562e+02 7.731707e+01 -1.203584e+01
-2.516085e+09 -2.316087e+09 -2.476085e+09 -2.193772e+02 4.615192e+01 -2.056156e+01
-1.988303e+09 -1.788306e+09 -1.948303e+09 -1.402200e+02 6.756585e+01 -9.032656e+00
-1.793303e+09 -1.593306e+09 -1.753304e+09 -2.222171e+02 -1.184309e+01 -3.384261e+01
-2.369826e+09 -2.169824e+09 -2.329825e+09 -4.070282e+02 -5.751675e+02 -2.732157e+02
-4.282195e+09 -4.082192e+09 -4.242198e+09 -9.858662e+02 -9.594979e+02 1.042827e+03
-2.343764e+09 -2.143762e+09 -2.303763e+09 -5.619335e+02 -6.394074e+02 -5.527525e+02
-3.488495e+09 -3.288493e+09 -3.448495e+09 -1.687677e+02 -4.531285e+02 -4.318313e+02
-3.914468e+09 -3.714466e+09 -3.874469e+09 3.982301e+00 -4.533365e+02 -4.042286e+02
-3.534126e+09 -3.334125e+09 -3.494127e+09 -1.089003e+00 -5.047759e+02 -3.976864e+02
-3.517260e+09 -3.317259e+09 -3.477260e+09 -3.377633e+02 -5.054903e+02 -3.628732e+02
-3.045774e+09 -2.845773e+09 -3.005774e+09 -6.760121e+02 -7.442064e+02 -4.649740e+02
-3.647428e+09 -3.447431e+09 -3.607430e+09 -5.923564e+02 -6.602938e+01 3.343867e+02
-4.899359e+09 -4.699359e+09 -4.859359e+09 -1.262189e+02 -5.648495e-01 -4.131685e+00
-4.456837e+09 -4.256842e+09 -4.416841e+09 -2.642248e+02 3.336295e+01 1.695012e+02
-4.176261e+09 -3.976264e+09 -4.136263e+09 -5.280061e+02 -1.008259e+02 7.342240e+01
-4.607527e+09 -4.407531e+09 -4.567530e+09 -5.286966e+02 1.073580e+01 1.684533e+01
-4.789763e+09 -4.589768e+09 -4.749766e+09 -3.555437e+02 -4.932937e+01 2.659939e+02
-4.784603e+09 -4.584606e+09 -4.744605e+09 -9.886332e+02 -7.870830e+01 4.214038e+02
-4.596655e+09 -4.396658e+09 -4.556657e+09 -7.648555e+02 -3.871621e+01 7.794659e+01
-4.026484e+09 -3.826488e+09 -3.986487e+09 -8.518276e+02 -6.563746e+01 6.694410e+02
-3.059409e+09 -2.859409e+09 -3.019409e+09 -1.075352e+02 -1.448144e+01 -5.711314e+00
-2.797691e+09 -2.597690e+09 -2.757691e+09 4.498854e+01 7.372041e+00 -6.529311e+00
-3.416879e+09 -3.216879e+09 -3.376879e+09 1.129065e+01 1.069143e+00 -9.131019e+00
-2.487544e+09 -2.287544e+09 -2.447544e+09 1.061861e+01 -2.681475e+00 -8.173295e+00
-2.540743e+09 -2.340742e+09 -2.500742e+09 2.691934e+01 -7.958514e+00 -7.251352e+00
-2.635703e+09 -2.435702e+09 -2.595702e+09 1.843340e+00 5.234899e+00 -8.496219e+00
-2.616956e+09 -2.416956e+09 -2.576956e+09 -6.912587e-01 -6.429580e+00 -1.114407e+01
-2.676918e+09 -2.476919e+09 -2.636918e+09 -4.995941e+02 -2.658573e+02 -1.596859e+02
-3.502050e+09 -3.302051e+09 -3.462050e+09 -4.085381e+02 -2.533986e+02 -9.061111e+01
-3.241179e+09 -3.041180e+09 -3.201179e+09 -6.151018e+02 -3.471966e+02 -1.148535e+02
-2.707045e+09 -2.507045e+09 -2.667045e+09 -6.045312e+02 -3.130793e+02 -1.337921e+02
-4.782770e+09 -4.582770e+09 -4.742770e+09 -1.200342e+01 1.240918e+01 -3.205638e+00
-4.225984e+09 -4.025984e+09 -4.185984e+09 -7.663008e+00 3.907914e+00 -6.075794e+00
-3.972740e+09 -3.772740e+09 -3.932740e+09 3.734701e+00 2.895463e+00 -1.778059e+01
-4.211986e+09 -4.011986e+09 -4.171986e+09 6.212897e+00 1.142283e+00 -1.292786e+01
-4.580291e+09 -4.380291e+09 -4.540291e+09 -1.232974e+01 1.987336e+01 2.717621e-01
-4.230816e+09 -4.030815e+09 -4.190815e+09 -1.110805e+01 1.136881e+01 3.971952e+00
-4.050675e+09 -3.850675e+09 -4.010675e+09 -1.605398e+01 1.157547e+01 -1.661336e+01
-4.687349e+09 -4.487350e+09 -4.647349e+09 -3.787775e+02 7.501486e-01 -6.508418e+01
-4.618955e+09 -4.418955e+09 -4.578955e+09 -1.653630e+02 -1.035845e+02 -5.013082e+01
-4.347224e+09 -4.147225e+09 -4.307224e+09 -5.029560e+01 -3.655529e+01 -1.318258e+01
-3.656743e+09 -3.456742e+09 -3.616743e+09 -3.532468e+01 -2.691447e+00 -2.638008e+01
-4.037562e+09 -3.837562e+09 -3.997562e+09 -3.774600e+02 -1.526818e+02 -2.665648e+01
-3.994221e+09 -3.794223e+09 -3.954222e+09 -4.690319e+02 -2.069927e+02 -4.311201e+01
-4.099519e+09 -3.899521e+09 -4.059520e+09 -3.545931e+02 -5.493012e+01 -9.802040e+00
-2.994134e+09 -2.794135e+09 -2.954134e+09 1.872814e+02 4.344718e+01 2.478049e+01
-4.117187e+09 -3.917187e+09 -4.077187e+09 9.377754e+02 2.024217e+01 6.594311e+00
-3.594437e+09 -3.394437e+09 -3.554436e+09 5.548084e+01 1.106066e+01 1.201471e+01
-2.274654e+09 -2.074655e+09 -2.234654e+09 1.047668e+02 1.350401e+01 1.282887e+01
-4.773916e+09 -4.573915e+09 -4.733915e+09 -1.072026e+02 -1.410669e+00 -1.672068e+01
-2.149683e+09 -1.949684e+09 -2.109683e+09 9.785423e+01 -7.345443e+00 2.387739e+01
-3.062081e+09 -2.862082e+09 -3.022080e+09 1.254828e+02 -2.083447e+01 2.446458e+01
-3.099318e+09 -2.899319e+09 -3.059318e+09 5.568332e+01 -2.753868e+00 6.753176e-02
-1.936366e+09 -1.736366e+09 -1.896365e+09 9.380361e+01 -4.134557e+00 1.690430e+01
-2.876703e+09 -2.676702e+09 -2.836702e+09 6.434444e+02 1.032470e+02 -4.608454e+01
-2.252661e+09 -2.052660e+09 -2.212660e+09 1.177425e+03 4.505131e+02 -2.007789e+02
-2.727181e+09 -2.527180e+09 -2.687180e+09 1.172652e+03 2.557418e+02 -1.541799e+02
-3.293889e+09 -3.093889e+09 -3.253889e+09 8.906163e+02 2.222237e+02 -3.656896e+01
-4.992492e+09 -4.792489e+09 -4.952496e+09 -5.176121e+02 -7.917008e+02 2.694477e+02
-3.381374e+09 -3.181373e+09 -3.341373e+09 7.137591e+02 4.796561e+02 -1.157397e+02
-3.773730e+09 -3.573729e+09 -3.733730e+09 8.063177e+02 2.154214e+02 -1.047898e+02
-3.713600e+09 -3.513599e+09 -3.673599e+09 8.625735e+02 1.834847e+02 -1.019053e+02
-3.819410e+09 -3.619410e+09 -3.779410e+09 8.719235e+02 2.391067e+02 -6.664070e+01
-3.196511e+09 -2.996510e+09 -3.156510e+09 1.019583e+03 3.930877e+02 -1.161085e+02
-4.591584e+09 -4.391582e+09 -4.551583e+09 -1.168675e+02 -1.181247e+02 -3.402345e+01
-3.573665e+09 -3.373663e+09 -3.533665e+09 -2.339337e+02 -2.971873e+02 -2.124842e+02
-4.618909e+09 -4.418908e+09 -4.578909e+09 -3.386730e+01 -1.108903e+02 -5.103093e+01
-3.770645e+09 -3.570643e+09 -3.730645e+09 -2.754980e+02 -2.306722e+02 -1.010824e+02
-4.299923e+09 -4.099922e+09 -4.259926e+09 6.461913e+01 -9.425254e+02 6.863391e+02
-4.556434e+09 -4.356432e+09 -4.516434e+09 -2.105608e+02 -2.329426e+02 -1.082460e+02
-4.220825e+09 -4.020824e+09 -4.180825e+09 -8.557169e+01 -2.800424e+02 -1.955690e+02
-4.618909e+09 -4.418908e+09 -4.578909e+09 -2.345832e+02 -1.289646e+02 2.813842e+01
-4.289883e+09 -4.089887e+09 -4.249885e+09 -3.996722e+01 -3.601671e+02 1.575346e+01
-4.475300e+09 -4.275304e+09 -4.435303e+09 -1.196240e+02 -5.620368e+02 -4.839503e+01
-4.193062e+09 -3.993066e+09 -4.153064e+09 -3.925961e+02 -4.130313e+02 1.186079e+00
-4.784323e+09 -4.584327e+09 -4.744326e+09 -3.284470e+02 -1.366678e+02 3.169670e+01
-3.817879e+09 -3.617879e+09 -3.777879e+09 6.398678e+01 1.390664e+01 7.880363e+00
-4.195347e+09 -3.995348e+09 -4.155348e+09 8.503089e+01 -1.801149e+00 -5.960421e+00
-3.116225e+09 -2.916225e+09 -3.076225e+09 5.755036e+01 1.940099e+01 1.349291e+01
-3.674567e+09 -3.474568e+09 -3.634568e+09 1.314334e+02 1.402266e+01 6.346294e+00
-3.288359e+09 -3.088359e+09 -3.248359e+09 1.041389e+02 1.133882e+01 -1.881068e+01
-1.968134e+09 -1.768133e+09 -1.928133e+09 1.095675e+03 3.720352e+02 -1.077034e+02
-3.089724e+09 -2.889723e+09 -3.049723e+09 6.187162e+02 3.125324e+02 -1.101183e+02
-2.170863e+09 -1.970861e+09 -2.130862e+09 1.066156e+03 4.351220e+02 -2.027570e+02
-4.482278e+09 -4.282280e+09 -4.442283e+09 9.493260e+02 1.533160e+03 -4.163243e+02
-2.613833e+09 -2.413831e+09 -2.573832e+09 1.036707e+03 3.355195e+02 -2.306639e+02
-4.478397e+09 -4.278396e+09 -4.438396e+09 1.386946e+01 1.946733e+00 -2.271783e+00
-3.680261e+09 -3.480260e+09 -3.640260e+09 4.929880e+00 -9.150050e-01 -3.235457e-01
-4.030919e+09 -3.830918e+09 -3.990919e+09 1.284404e+01 -1.818925e+00 1.256438e+00
-3.765966e+09 -3.565966e+09 -3.725966e+09 1.067795e+01 2.098794e+00 -6.727063e-01
-4.662505e+09 -4.462505e+09 -4.622505e+09 1.719194e+00 -6.921663e-01 1.092197e+00
-4.980059e+09 -4.780059e+09 -4.940059e+09 -6.363399e+01 6.302972e+00 2.742568e+01
-4.957832e+09 -4.757831e+09 -4.917831e+09 -1.302638e+02 6.686775e-01 4.176997e+00
-4.614867e+09 -4.414866e+09 -4.574866e+09 4.939082e+00 9.415153e-01 -1.109878e+00
-1.863574e+09 -1.663574e+09 -1.823574e+09 1.064187e+01 -2.031971e+01 -5.756165e+01
-2.149105e+09 -1.949105e+09 -2.109105e+09 5.680989e+01 -4.484186e+01 -6.256981e+01
-2.599996e+09 -2.399995e+09 -2.559995e+09 2.782308e+01 -8.803164e+00 -4.942024e+01
-2.742246e+09 -2.542245e+09 -2.702245e+09 3.152912e+01 1.698314e+01 -3.392327e+01
-2.841334e+09 -2.641333e+09 -2.801333e+09 8.667840e+00 -2.234987e+01 -4.747542e+01
-2.631967e+09 -2.431967e+09 -2.591966e+09 -1.711882e+02 1.803151e+01 -6.857550e+01
-3.052328e+09 -2.852328e+09 -3.012328e+09 -1.582796e+02 3.919541e+01 -2.997796e+01
-1.764918e+09 -1.564918e+09 -1.724917e+09 -1.433393e+02 -3.578185e+01 -4.795916e+01
-2.943172e+09 -2.743173e+09 -2.903172e+09 -1.899355e+02 -2.327495e+00 -6.100573e+01
-2.604313e+09 -2.404313e+09 -2.564313e+09 -1.296390e+02 1.846195e+01 -5.041388e+01
-3.617197e+09 -3.417196e+09 -3.577196e+09 2.202490e+01 -6.370380e-01 -4.516483e+00
-3.303876e+09 -3.103876e+09 -3.263876e+09 3.180376e+01 3.755517e+00 -1.051756e+01
-2.599321e+09 -2.399320e+09 -2.559320e+09 3.478718e+00 1.337877e+01 -2.274546e+01
-2.524175e+09 -2.324174e+09 -2.484174e+09 3.379144e+01 5.598135e+00 -2.217952e+01
-3.150607e+09 -2.950606e+09 -3.110606e+09 -3.789798e+02 -2.686798e+02 -1.194102e+02
-2.938404e+09 -2.738403e+09 -2.898403e+09 -3.603632e+02 -2.041727e+02 -1.085769e+02
-2.651342e+09 -2.451342e+09 -2.611342e+09 -4.491631e+02 -2.985302e+02 -6.385207e+01
-2.855445e+09 -2.655445e+09 -2.815444e+09 -5.582926e+02 -4.053691e+02 -1.358184e+02
-3.959691e+09 -3.759690e+09 -3.919690e+09 -4.118743e+02 -1.564097e+02 -7.922394e+01
-3.749493e+09 -3.549492e+09 -3.709492e+09 -3.888347e+02 -2.040007e+02 -8.206829e+01
-3.344199e+09 -3.144199e+09 -3.304198e+09 5.086550e+02 1.019317e+02 1.322755e+01
-2.497934e+09 -2.297934e+09 -2.457933e+09 4.558034e+02 -7.695262e+00 8.272539e+00
-3.084238e+09 -2.884238e+09 -3.044238e+09 4.776275e+02 8.565777e+01 1.845951e+00
-2.870724e+09 -2.670727e+09 -2.830724e+09 -1.181276e+02 2.182007e+01 -1.835521e+01
-3.189910e+09 -2.989912e+09 -3.149910e+09 -2.147636e+02 -5.147309e+00 -3.897573e+01
-2.496305e+09 -2.296307e+09 -2.456305e+09 -3.743606e+02 6.568010e+00 1.760713e+01
-3.124399e+09 -2.924402e+09 -3.084399e+09 -1.055679e+02 -4.923506e+01 6.968741e+00
-2.983173e+09 -2.783176e+09 -2.943173e+09 -2.543369e+02 8.903824e+01 -1.239222e+01
-4.289485e+09 -4.089481e+09 -4.249485e+09 2.909863e+02 7.203311e+02 -1.184313e+03
-4.315237e+09 -4.115233e+09 -4.275237e+09 -2.730808e+02 1.668375e+02 -5.115318e+02
-4.825186e+09 -4.625182e+09 -4.785186e+09 -1.257900e+02 4.695167e+01 1.540423e+01
-4.138721e+09 -3.938717e+09 -4.098721e+09 4.050068e+02 6.084297e+02 -1.254412e+03
-4.619503e+09 -4.419502e+09 -4.579502e+09 -5.488985e+01 -2.118142e+00 -8.507932e-01
-3.744397e+09 -3.544397e+09 -3.704397e+09 2.118775e+01 -5.546522e+01 -2.759722e+01
-3.073121e+09 -2.873121e+09 -3.033120e+09 7.034459e+01 -4.911097e+01 -1.234979e+01
-1.921426e+09 -1.721426e+09 -1.881426e+09 1.095773e+01 -9.444108e+01 -2.143354e+01
-2.327983e+09 -2.127982e+09 -2.287982e+09 3.692806e+01 -1.135942e+02 3.518410e+00
-3.471958e+09 -3.271957e+09 -3.431957e+09 -2.090503e+01 -6.643280e+01 4.757314e+00
-2.718014e+09 -2.518014e+09 -2.678014e+09 -3.586655e+01 -5.939578e+00 -3.335457e+01
-2.614340e+09 -2.414338e+09 -2.574339e+09 -6.455288e+01 -2.817534e+02 -3.560109e+01
-2.760904e+09 -2.560903e+09 -2.720903e+09 -6.811732e+01 -2.495411e+02 -2.270220e+01
-3.385909e+09 -3.185908e+09 -3.345909e+09 -1.995685e+02 -2.536661e+02 -1.408015e+02
-3.683979e+09 -3.483977e+09 -3.643978e+09 -7.234829e+01 -2.085504e+02 -5.342973e+01
-3.526888e+09 -3.326886e+09 -3.486887e+09 -7.459678e+01 -2.375069e+02 -4.606693e+01
-4.128991e+09 -3.928994e+09 -4.088994e+09 -9.957526e+02 7.918119e+02 1.632563e+02
-4.820558e+09 -4.620559e+09 -4.780559e+09 -1.348964e+03 2.162010e+02 7.260408e+01
-4.639802e+09 -4.439804e+09 -4.599804e+09 -1.298590e+03 3.116221e+02 1.326260e+02
-4.815456e+09 -4.615460e+09 -4.775459e+09 -9.839362e+02 2.263921e+02 7.240425e+01
-4.918806e+09 -4.718806e+09 -4.878806e+09 -6.805888e+01 -3.757606e+00 -4.497309e+00
-3.914458e+09 -3.714460e+09 -3.874459e+09 -2.294271e+02 -1.748089e+02 -1.627800e+01
-3.878112e+09 -3.678116e+09 -3.838114e+09 -2.679716e+02 -3.480343e+02 5.584821e+00
-3.722295e+09 -3.522298e+09 -3.682296e+09 -1.555288e+02 -1.352852e+02 -4.460313e+01
-4.086634e+09 -3.886630e+09 -4.046644e+09 -7.366156e+01 2.997443e+03 5.951522e+02
-3.950544e+09 -3.750541e+09 -3.910544e+09 -7.676763e+02 2.594765e+02 8.883808e+02
-4.448353e+09 -4.248357e+09 -4.408355e+09 -1.654364e+02 -8.982552e+01 -2.400480e+01
-4.646573e+09 -4.446570e+09 -4.606574e+09 -1.828911e+03 5.184285e+02 1.052932e+02
-4.826004e+09 -4.626002e+09 -4.786003e+09 -1.927977e+03 -1.377625e+02 2.685991e+02
-4.807811e+09 -4.607807e+09 -4.767809e+09 -2.058025e+03 -1.224642e+02 -1.443924e+02
-4.121346e+09 -3.921342e+09 -4.081346e+09 -2.539462e+03 5.639748e+02 6.963093e+00
-4.982659e+09 -4.782659e+09 -4.942659e+09 -1.330156e+02 -8.696887e+00 2.993484e+01
-3.304448e+09 -3.104446e+09 -3.264447e+09 -1.083523e+02 -2.366496e+02 -3.056723e+01
-3.310445e+09 -3.110447e+09 -3.270445e+09 2.751280e+02 5.066587e+01 3.128273e+01
-3.322233e+09 -3.122235e+09 -3.282233e+09 2.135611e+02 1.431982e+01 7.772444e+00
-2.713069e+09 -2.513071e+09 -2.673069e+09 1.567223e+02 2.876075e+01 5.634839e+01
-2.540079e+09 -2.340080e+09 -2.500078e+09 2.014800e+02 4.115792e+01 3.068004e+01
-2.885832e+09 -2.685833e+09 -2.845831e+09 2.661964e+02 4.492167e+01 -1.413698e+01
-1.752055e+09 -1.552057e+09 -1.712055e+09 2.908718e+01 4.150225e+00 -1.135533e+01
-1.766907e+09 -1.566910e+09 -1.726907e+09 6.185422e+00 -6.999278e+00 -1.355393e+01
-1.833943e+09 -1.633946e+09 -1.793943e+09 1.128421e+01 1.318701e+01 -3.397602e+00
-2.964533e+09 -2.764533e+09 -2.924533e+09 1.350170e+02 -4.129845e+01 -2.565100e+00
-3.100105e+09 -2.900105e+09 -3.060104e+09 1.718709e+02 -1.034552e+02 -2.984406e+01
-2.870498e+09 -2.670498e+09 -2.830498e+09 1.398826e+02 -1.555655e+02 -4.998559e+00
-1.962867e+09 -1.762867e+09 -1.922867e+09 1.735471e+02 -5.042915e+01 -1.226258e+01
-2.489248e+09 -2.289248e+09 -2.449248e+09 4.529386e+02 -3.221120e+02 1.510351e+02
-2.086140e+09 -1.886140e+09 -2.046140e+09 2.132622e+02 -8.766166e+01 1.260461e+01
-1.778111e+09 -1.578112e+09 -1.738111e+09 3.667121e+02 -1.111050e+02 2.082432e+01
-2.136681e+09 -1.936682e+09 -2.096681e+09 1.225607e+02 -3.267575e+01 -1.465182e+00
-2.538879e+09 -2.338881e+09 -2.498879e+09 2.915101e+02 -2.599049e+02 1.516037e+01
-1.786841e+09 -1.586843e+09 -1.746841e+09 4.351632e+02 -2.298690e+02 5.379627e+01
-2.607695e+09 -2.407696e+09 -2.567695e+09 3.554802e+02 -2.154780e+02 5.859529e+01
-2.543207e+09 -2.343207e+09 -2.503207e+09 3.462841e+02 -1.673695e+02 7.109418e+01
-3.264830e+09 -3.064829e+09 -3.224829e+09 -8.867829e+01 -2.160600e+01 -1.412582e+01
-2.281018e+09 -2.081018e+09 -2.241018e+09 -6.207985e+01 -1.198860e+01 -2.665901e+01
-2.381523e+09 -2.181522e+09 -2.341522e+09 -6.704472e+01 -1.821520e+01 -2.383519e+01
-1.936726e+09 -1.736725e+09 -1.896725e+09 -5.994054e+01 -3.460737e+01 -3.760465e+01
-2.463596e+09 -2.263595e+09 -2.423595e+09 -1.375861e+01 -8.520358e+01 -1.138560e+01
-1.868166e+09 -1.668165e+09 -1.828165e+09 -2.691305e+01 -4.369381e+01 -3.400221e+01
-2.680716e+09 -2.480715e+09 -2.640715e+09 -2.775773e+01 -1.975717e+01 -4.487252e+01
-2.748958e+09 -2.548957e+09 -2.708957e+09 -6.820944e+01 -2.529064e+01 -1.727604e+01
-3.307198e+09 -3.107198e+09 -3.267198e+09 -8.536392e+01 -6.505829e+00 -1.279759e+01
-2.918525e+09 -2.718524e+09 -2.878525e+09 -8.445426e+01 -4.049133e+00 -1.497608e+01
-3.732067e+09 -3.532066e+09 -3.692066e+09 -8.295872e+01 -1.479785e+01 -1.253875e+01
-3.035972e+09 -2.835971e+09 -2.995971e+09 -7.658381e+01 -8.011547e+00 -1.057424e+01
-3.771411e+09 -3.571410e+09 -3.731410e+09 -8.107688e+01 -1.213934e+01 -1.458880e+01
-2.772179e+09 -2.572180e+09 -2.732181e+09 9.826392e+02 -1.160963e+02 -9.201810e+01
-2.177704e+09 -1.977705e+09 -2.137706e+09 3.446582e+02 -2.146937e+02 -2.044697e+02
-1.892335e+09 -1.692335e+09 -1.852336e+09 4.594058e+02 -2.051249e+02 -3.273809e+02
-2.728837e+09 -2.528839e+09 -2.688839e+09 9.104211e+02 -1.134123e+01 -1.855183e+02
-2.755098e+09 -2.555098e+09 -2.715099e+09 6.661854e+02 -9.149581e+01 -1.124651e+02
-3.164626e+09 -2.964628e+09 -3.124628e+09 1.031699e+03 2.666042e+01 9.039937e+01
-2.516383e+09 -2.316384e+09 -2.476385e+09 7.596583e+02 3.462629e+01 -1.546576e+01
-4.052927e+09 -3.852927e+09 -4.012926e+09 -9.534654e+01 -2.839069e+00 -2.321536e+01
-4.809431e+09 -4.609431e+09 -4.769431e+09 -6.010483e+01 -2.897274e+01 -1.515330e+01
-2.332371e+09 -2.132370e+09 -2.292370e+09 2.590250e+01 -2.486882e-03 -1.943609e+01
-4.221171e+09 -4.021171e+09 -4.181170e+09 -4.451794e+01 2.867395e+00 -1.134887e+01
-3.992942e+09 -3.792942e+09 -3.952942e+09 -9.011331e+00 6.687273e-01 -1.690507e+01
-4.606325e+09 -4.406324e+09 -4.566324e+09 -1.399815e+01 5.330044e+00 -1.767696e+01
-4.471510e+09 -4.271510e+09 -4.431509e+09 -6.297046e+01 5.831444e+00 -1.955859e+01
-4.613767e+09 -4.413767e+09 -4.573766e+09 -6.891211e+01 2.062724e+01 -4.824113e+00
-4.791516e+09 -4.591515e+09 -4.751515e+09 -3.542740e+01 -1.092095e+01 -4.678654e+00
-3.885601e+09 -3.685604e+09 -3.845604e+09 -5.180056e+02 -5.814908e+01 3.416849e+02
-3.891996e+09 -3.692000e+09 -3.851999e+09 -1.984211e+02 -1.107227e+01 1.186296e+01
-4.521618e+09 -4.321621e+09 -4.481621e+09 -4.339090e+02 5.720931e+01 -6.439431e+01
-4.707878e+09 -4.507881e+09 -4.667880e+09 -3.729599e+02 4.550660e+01 -1.653606e+02
-4.043010e+09 -3.843013e+09 -4.003012e+09 -4.738261e+02 7.460191e+01 1.761049e+02
-2.877330e+09 -2.677331e+09 -2.837331e+09 5.778814e+01 5.703485e+00 3.953375e+00
-2.097603e+09 -1.897604e+09 -2.057603e+09 4.699088e+01 4.090838e+00 -3.510408e+00
-3.381909e+09 -3.181909e+09 -3.341909e+09 9.684545e+01 7.557980e+00 1.468206e+01
-3.285979e+09 -3.085980e+09 -3.245980e+09 8.156498e+01 1.408397e+01 9.560876e+00
-3.470218e+09 -3.270218e+09 -3.430218e+09 -1.875894e+02 -1.052710e+02 -5.118000e+01
-2.662949e+09 -2.462949e+09 -2.622949e+09 9.877939e+01 4.624956e+00 -6.905629e+00
-2.728365e+09 -2.528366e+09 -2.688366e+09 4.154815e+01 4.688605e+00 9.020799e+00
-2.551608e+09 -2.351609e+09 -2.511609e+09 8.680545e+01 1.909386e+01 -9.352608e-01
-3.044064e+09 -2.844065e+09 -3.004065e+09 4.512051e+01 7.311521e+00 2.915044e+00
-3.537683e+09 -3.337684e+09 -3.497684e+09 4.258785e+01 1.866418e+00 2.102346e+01
-2.700768e+09 -2.500768e+09 -2.660768e+09 1.752906e+01 2.821524e+00 2.710832e+00
-2.940498e+09 -2.740497e+09 -2.900497e+09 7.991689e+00 4.156484e+00 1.965198e+00
-3.637069e+09 -3.437069e+09 -3.597069e+09 -7.201862e+00 -2.158629e+00 6.714628e-03
-4.069799e+09 -3.869798e+09 -4.029799e+09 9.575856e+00 4.018829e-02 2.556035e-01
-3.161556e+09 -2.961556e+09 -3.121556e+09 -6.691773e-01 5.854974e-01 -1.278445e+01
-2.985326e+09 -2.785325e+09 -2.945325e+09 2.976309e+00 -1.336286e+00 -4.825698e+00
-4.017875e+09 -3.817874e+09 -3.977874e+09 9.138234e+00 -2.372309e+00 3.221523e+00
-3.552406e+09 -3.352405e+09 -3.512405e+09 1.265116e+01 4.464333e+00 1.403818e+01
-1.778907e+09 -1.578907e+09 -1.738907e+09 9.599380e+01 1.658481e+01 -2.535971e+01
-2.489994e+09 -2.289994e+09 -2.449994e+09 1.237351e+02 1.705410e+01 1.232284e+01
-2.808782e+09 -2.608782e+09 -2.768782e+09 1.214020e+02 1.393578e+01 8.832510e+00
-2.496232e+09 -2.296232e+09 -2.456232e+09 1.071783e+02 2.514952e+01 -4.630794e+00
-1.892081e+09 -1.692081e+09 -1.852081e+09 1.284940e+02 1.569768e+01 -2.309003e+01
-2.739262e+09 -2.539262e+09 -2.699262e+09 1.277961e+02 1.586851e+01 3.099423e-01
-2.200507e+09 -2.000507e+09 -2.160507e+09 1.830462e+02 5.754487e+00 -4.434863e+00
-4.062010e+09 -3.862010e+09 -4.022010e+09 -2.512879e+01 -2.062746e+00 -1.001872e+01
-3.358067e+09 -3.158066e+09 -3.318067e+09 -2.633622e+01 -7.110071e+00 -7.397830e+00
-4.030139e+09 -3.830138e+09 -3.990138e+09 -2.761801e+01 -1.231960e+00 -3.059670e+00
-3.237540e+09 -3.037540e+09 -3.197540e+09 -6.923321e+01 -3.013271e+00 -1.474105e+01
-1.855827e+09 -1.655826e+09 -1.815827e+09 -2.279802e+02 -4.655951e+02 -6.640734e+02
-2.924852e+09 -2.724850e+09 -2.884851e+09 -4.028296e+02 -5.575722e+02 -4.146173e+02
-2.767806e+09 -2.567805e+09 -2.727806e+09 -2.255068e+02 -3.415839e+02 -2.890474e+02
-3.101504e+09 -2.901505e+09 -3.061503e+09 3.141074e+01 5.335394e+00 -3.595559e+00
-2.268797e+09 -2.068795e+09 -2.228797e+09 -3.770832e+02 -5.735049e+02 -4.282418e+02
-2.571076e+09 -2.371074e+09 -2.531076e+09 -9.125381e+00 -6.376503e+02 -6.844361e+02
-1.777586e+09 -1.577591e+09 -1.737587e+09 2.219495e+02 -7.304211e+02 3.094453e+01
-2.370604e+09 -2.170609e+09 -2.330606e+09 5.659964e+01 -6.817657e+02 7.119065e+01
-2.571224e+09 -2.371228e+09 -2.531225e+09 3.671314e+02 -1.078548e+03 2.145633e+02
-3.976732e+09 -3.776732e+09 -3.936732e+09 -1.194063e+01 -9.760938e+00 -1.847078e+01
-1.857033e+09 -1.657038e+09 -1.817034e+09 -2.161630e+01 -1.354430e+03 1.122710e+02
-2.146035e+09 -1.946037e+09 -2.106035e+09 2.392441e+02 -1.786325e+01 3.289522e+01
-2.614174e+09 -2.414176e+09 -2.574174e+09 2.373033e+02 2.135092e+01 2.777593e+00
-2.625231e+09 -2.425233e+09 -2.585231e+09 2.422649e+02 4.495037e+01 1.803268e+01
-2.807682e+09 -2.607684e+09 -2.767682e+09 3.512805e+02 4.926537e+01 2.637154e+01
-2.199440e+09 -1.999442e+09 -2.159440e+09 3.002671e+02 4.294215e+01 1.897166e+01
-2.826700e+09 -2.626702e+09 -2.786700e+09 2.022342e+02 -9.183659e+00 1.717162e+01
-2.730852e+09 -2.530854e+09 -2.690852e+09 3.211945e+02 4.187138e+01 3.816946e+01
-2.586268e+09 -2.386271e+09 -2.546268e+09 9.414671e+01 -1.883314e+01 5.515652e+01
-2.056592e+09 -1.856593e+09 -2.016591e+09 2.016376e+02 9.656147e+00 1.694258e+01
-1.858105e+09 -1.658106e+09 -1.818104e+09 1.076094e+02 -3.181396e+01 2.059685e+01
-2.837008e+09 -2.637009e+09 -2.797007e+09 1.111929e+02 -2.743419e+01 -8.525788e+00
-2.706409e+09 -2.506411e+09 -2.666409e+09 9.553211e+01 -3.381986e+01 2.223674e+01
-1.959032e+09 -1.759036e+09 -1.919036e+09 6.786123e+02 2.276648e+02 3.159784e+02
-2.746051e+09 -2.546055e+09 -2.706054e+09 1.590222e+02 -2.097549e+01 2.263981e+02
-2.755327e+09 -2.555331e+09 -2.715330e+09 3.406972e+02 6.433808e+00 2.461966e+02
-2.529205e+09 -2.329210e+09 -2.489209e+09 4.441354e+02 -8.597220e+01 3.236447e+02
-2.113173e+09 -1.913177e+09 -2.073177e+09 3.248333e+02 2.069514e+01 3.084557e+02
-2.262447e+09 -2.062450e+09 -2.222450e+09 5.287141e+02 -1.244990e+01 2.689772e+02
-2.740822e+09 -2.540825e+09 -2.700825e+09 8.221712e+02 1.242560e+02 -9.807731e+01
-2.381073e+09 -2.181077e+09 -2.341076e+09 2.958056e+02 2.588329e+02 6.236719e+02
-4.639916e+09 -4.439915e+09 -4.599915e+09 2.472953e+01 1.720487e+00 -3.207031e+00
-4.060442e+09 -3.860441e+09 -4.020442e+09 -2.883799e+01 -7.963674e-01 4.416124e+00
-4.565796e+09 -4.365795e+09 -4.525795e+09 1.025030e+01 3.342542e+00 -2.302670e+00
-4.294065e+09 -4.094064e+09 -4.254064e+09 1.802674e+01 1.545708e+00 -9.419804e+00
-3.948024e+09 -3.748024e+09 -3.908024e+09 3.516130e+01 -1.403606e+00 -1.535250e+01
-3.996530e+09 -3.796529e+09 -3.956529e+09 1.177069e+01 -1.810637e+00 -1.625734e+01
-4.089217e+09 -3.889216e+09 -4.049216e+09 -1.949277e+01 -1.249679e+01 -3.241823e+00
-2.674776e+09 -2.474780e+09 -2.634779e+09 -8.262084e+01 9.327158e+01 8.912521e-01
-2.680974e+09 -2.480978e+09 -2.640977e+09 -2.099911e+02 2.862559e+01 2.981532e+02
-3.357005e+09 -3.157009e+09 -3.317008e+09 -1.973767e+02 -1.776635e+00 2.129427e+02
-2.431010e+09 -2.231014e+09 -2.391013e+09 -1.168185e+02 2.309657e+01 2.140165e+01
-3.246785e+09 -3.046790e+09 -3.206789e+09 6.051257e+01 4.091268e+01 4.546160e+02
-2.479075e+09 -2.279078e+09 -2.439078e+09 -1.616848e+02 1.091344e+02 3.231246e+02
-2.735651e+09 -2.535656e+09 -2.695655e+09 4.392140e+01 4.997443e+01 3.570188e+02
-3.651211e+09 -3.451212e+09 -3.611211e+09 1.586323e+02 2.922490e+01 5.783185e+00
-2.789048e+09 -2.589048e+09 -2.749047e+09 9.830838e+01 -3.163496e+00 7.540934e+00
-3.217427e+09 -3.017428e+09 -3.177426e+09 1.567379e+02 -1.017150e+01 -6.777891e+00
-3.981223e+09 -3.781224e+09 -3.941222e+09 4.784443e+01 -8.519371e-01 -1.108871e+01
-3.058147e+09 -2.858147e+09 -3.018146e+09 3.184157e+01 -9.662699e+00 6.913830e-01
-3.734144e+09 -3.534144e+09 -3.694143e+09 4.472042e+01 -2.431148e+01 1.260391e+01
-4.211445e+09 -4.011447e+09 -4.171446e+09 -6.646569e+01 -3.516663e-01 2.284143e+00
-2.705125e+09 -2.505126e+09 -2.665125e+09 6.253030e+01 6.292012e-03 6.692495e-01
-2.961631e+09 -2.761632e+09 -2.921630e+09 4.576860e+01 3.297708e+01 1.011745e+01
-3.624793e+09 -3.424793e+09 -3.584792e+09 3.265713e+02 3.145005e+01 1.162325e+01
-3.170753e+09 -2.970754e+09 -3.130753e+09 2.671000e+02 2.457425e+01 3.260894e+01
-3.053490e+09 -2.853490e+09 -3.013489e+09 2.543115e+02 2.909544e+01 3.073734e+01
-3.407293e+09 -3.207293e+09 -3.367292e+09 1.722262e+02 1.724565e+01 -7.232855e+00
-2.274099e+09 -2.074100e+09 -2.234098e+09 2.627555e+02 -7.783808e+01 8.274151e+00
-1.858734e+09 -1.658736e+09 -1.818734e+09 6.628522e+01 3.323233e+01 1.207638e+01
-3.175057e+09 -2.975056e+09 -3.135056e+09 -3.079633e+02 -1.637754e+02 -1.785762e+01
-2.906826e+09 -2.706825e+09 -2.866825e+09 -1.993493e+02 -2.792549e+02 -3.424167e+01
-2.954328e+09 -2.754327e+09 -2.914327e+09 -1.055985e+02 -5.584806e+01 -8.887707e+00
-4.431926e+09 -4.231924e+09 -4.391924e+09 -2.920535e+01 -2.058039e+01 -1.406809e+01
-4.643593e+09 -4.443594e+09 -4.603594e+09 3.869891e+02 2.451449e+01 1.854516e+01
-3.951105e+09 -3.751107e+09 -3.911115e+09 -4.561924e+02 3.622438e+03 3.472556e+02
-4.923574e+09 -4.723573e+09 -4.883573e+09 -6.837049e+01 -2.754589e+00 -7.976332e+00
-3.786733e+09 -3.586732e+09 -3.746732e+09 -6.217408e+01 -1.052791e+02 -1.061410e+01
-3.554352e+09 -3.354351e+09 -3.514351e+09 -6.260989e+01 -1.182803e+02 7.399795e+00
-2.174646e+09 -1.974647e+09 -2.134647e+09 -1.150674e+02 -6.724343e+00 4.185241e+00
-2.463570e+09 -2.263571e+09 -2.423570e+09 -7.487085e+01 -8.630294e+00 3.950179e+00
-3.592128e+09 -3.392129e+09 -3.552128e+09 -7.292967e+01 -3.175025e+00 7.471889e-02
-3.026673e+09 -2.826674e+09 -2.986673e+09 -7.421361e+01 -1.429668e+01 1.712839e+01
-3.130082e+09 -2.930082e+09 -3.090082e+09 -5.646695e+01 -3.556652e+00 2.578915e+00
-2.931784e+09 -2.731785e+09 -2.891785e+09 -4.877845e+01 -7.357046e+00 -6.374844e+00
-3.055611e+09 -2.855612e+09 -3.015612e+09 -9.160590e+01 -1.783967e+01 4.690015e+01
-4.647942e+09 -4.447942e+09 -4.607942e+09 -6.318440e+02 -9.536894e+00 4.674337e+01
-4.447090e+09 -4.247090e+09 -4.407090e+09 -7.445817e+02 1.202976e+01 -1.153027e+01
-4.637908e+09 -4.437909e+09 -4.597909e+09 -5.641184e+02 2.475236e+00 2.798797e+01
-4.301489e+09 -4.101489e+09 -4.261489e+09 -4.941502e+02 -5.825145e+00 -5.912733e+01
-4.821505e+09 -4.621506e+09 -4.781506e+09 -6.497645e+02 -2.599879e+01 4.152227e+01
-4.791513e+09 -4.591513e+09 -4.751513e+09 7.908366e+01 6.020784e-01 -2.004533e+01
-4.588012e+09 -4.388012e+09 -4.548012e+09 1.449532e+02 1.656109e+01 -7.702475e+00
-4.988225e+09 -4.788225e+09 -4.948225e+09 1.146439e+02 -8.254915e+00 5.121422e+00
-4.766982e+09 -4.566982e+09 -4.726982e+09 1.004124e+02 5.935831e+00 3.019967e+01
-4.227829e+09 -4.027829e+09 -4.187829e+09 9.461576e+01 4.111840e+00 2.877442e+00
-4.026236e+09 -3.826236e+09 -3.986236e+09 1.081443e+02 1.258330e+01 -2.670582e+00
-3.931092e+09 -3.731092e+09 -3.891092e+09 5.807862e+01 -2.840052e+00 -1.730012e+00
-4.990802e+09 -4.790801e+09 -4.950801e+09 3.164112e+02 -2.531843e+01 -5.164532e+01
-2.905002e+09 -2.705001e+09 -2.865001e+09 1.065224e+01 -1.934927e+01 -3.368595e+01
-2.540964e+09 -2.340963e+09 -2.500963e+09 -2.221453e+01 -4.473858e+01 -5.080862e+01
-2.124198e+09 -1.924197e+09 -2.084197e+09 2.003658e+01 -3.628025e+01 -4.773934e+01
-2.828873e+09 -2.628873e+09 -2.788872e+09 -1.431788e+01 3.253076e+00 -3.916526e+01
-2.176446e+09 -1.976446e+09 -2.136446e+09 -2.282536e+01 -5.845209e+00 -3.971327e+01
-4.976041e+09 -4.776040e+09 -4.936040e+09 5.755292e+01 -4.462294e+00 -1.632301e+00
-4.319906e+09 -4.119911e+09 -4.279907e+09 4.182212e+02 9.078008e+01 7.886216e+02
-4.106191e+09 -3.906195e+09 -4.066194e+09 1.066123e+03 1.762409e+02 3.470274e+02
-4.837749e+09 -4.637753e+09 -4.797751e+09 1.511023e+02 2.747213e+01 -1.275802e+02
-4.312375e+09 -4.112381e+09 -4.272378e+09 5.710226e+01 1.991258e+02 6.932364e+02
-4.663138e+09 -4.463143e+09 -4.623140e+09 4.408206e+02 6.304285e+01 3.608335e+02
-3.663173e+09 -3.463172e+09 -3.623174e+09 5.773065e+02 -3.829889e+02 -3.471545e+02
-3.634409e+09 -3.434407e+09 -3.594409e+09 7.899996e+01 -4.606138e+02 -4.884363e+02
-3.223308e+09 -3.023307e+09 -3.183309e+09 1.868806e+02 -9.508844e+02 -8.544582e+02
-3.952958e+09 -3.752953e+09 -3.912962e+09 1.452562e+03 1.793700e+03 -2.187818e+03
-2.494877e+09 -2.294875e+09 -2.454877e+09 -2.236337e+02 -6.913579e+02 -4.976590e+02
-3.336846e+09 -3.136845e+09 -3.296846e+09 -7.011365e+01 -5.629509e+02 -4.820700e+02
-4.131533e+09 -3.931536e+09 -4.091536e+09 1.386921e+03 1.084694e+03 -2.159003e+02
-3.081714e+09 -2.881714e+09 -3.041713e+09 3.264822e+02 2.997060e+01 1.286338e+01
-2.851323e+09 -2.651324e+09 -2.811323e+09 3.527979e+02 1.862185e+01 6.625181e+00
-3.629804e+09 -3.429805e+09 -3.589803e+09 2.689544e+02 5.260820e+01 2.667486e+01
-3.252164e+09 -3.052165e+09 -3.212163e+09 4.121222e+02 4.967833e+01 2.260353e+01
-3.741306e+09 -3.541306e+09 -3.701305e+09 4.388034e+02 5.100139e+01 -1.081165e-01
-4.990704e+09 -4.790704e+09 -4.950707e+09 1.709117e+03 3.392105e+02 -2.033865e+02
-2.398753e+09 -2.198752e+09 -2.358752e+09 -3.337327e+02 -3.134527e+02 -1.121458e+02
-5.011398e+09 -4.811400e+09 -4.971399e+09 1.374104e+03 1.675778e+02 -4.850467e+01
-3.893922e+09 -3.693920e+09 -3.853921e+09 -2.523104e+02 -2.052766e+02 -3.192046e+01
-4.219003e+09 -4.019002e+09 -4.179002e+09 -2.136008e+02 -1.511966e+02 -2.221040e+01
-3.012648e+09 -2.812647e+09 -2.972647e+09 -2.407402e+02 -2.238626e+02 -6.495351e+01
-3.552389e+09 -3.352388e+09 -3.512388e+09 -2.365438e+02 -1.732438e+02 -7.003861e+01
-3.366910e+09 -3.166909e+09 -3.326909e+09 -2.423245e+02 -1.709032e+02 -6.415781e+01
-1.760921e+09 -1.560919e+09 -1.720920e+09 -9.137642e+02 -7.146632e+02 -5.170503e+02
-2.445117e+09 -2.245115e+09 -2.405116e+09 -7.110282e+02 -5.870736e+02 -4.074925e+02
-1.896292e+09 -1.696291e+09 -1.856292e+09 -3.552761e+02 -6.141367e+02 -3.887341e+02
-1.895348e+09 -1.695346e+09 -1.855347e+09 -2.852187e+02 -3.992371e+02 -1.901174e+02
-4.964381e+09 -4.764382e+09 -4.924389e+09 1.022920e+03 1.266546e+03 -2.990673e+02
-2.803142e+09 -2.603140e+09 -2.763141e+09 -3.680222e+02 -3.610412e+02 -1.702401e+02
-3.386847e+09 -3.186845e+09 -3.346847e+09 1.632204e+01 -5.671534e+02 -4.558086e+02
-3.109082e+09 -2.909080e+09 -3.069082e+09 -2.853315e+02 -3.960882e+02 -2.429646e+02
-2.601092e+09 -2.401091e+09 -2.561092e+09 -2.993604e+02 -4.691125e+02 -1.719572e+02
-4.104882e+09 -3.904882e+09 -4.064882e+09 -1.279166e+02 2.570459e-01 4.995715e+00
-4.450489e+09 -4.250489e+09 -4.410489e+09 -1.744775e+02 -2.340794e-02 1.582016e+00
-4.609469e+09 -4.409468e+09 -4.569469e+09 -1.770401e+02 -1.114918e+01 6.097988e+00
-4.790784e+09 -4.590784e+09 -4.750784e+09 -1.816211e+02 -1.480785e+01 -1.433096e+01
-2.762952e+09 -2.562956e+09 -2.722955e+09 -2.271081e+02 1.320691e+02 4.135951e+02
-3.029418e+09 -2.829422e+09 -2.989421e+09 -1.888840e+02 5.753414e+01 1.713195e+02
-3.584789e+09 -3.384794e+09 -3.544792e+09 2.139702e+02 1.595273e+02 3.874204e+02
-2.202167e+09 -2.002173e+09 -2.162172e+09 -1.535979e+02 1.766639e+02 1.122817e+03
-2.729676e+09 -2.529682e+09 -2.689681e+09 -2.110510e+02 1.440203e+02 1.060033e+03
-1.553273e+09 -1.353273e+09 -1.513273e+09 1.352265e+02 2.844864e+01 6.499326e+00
-3.121758e+09 -2.921763e+09 -3.081761e+09 2.385359e+02 1.178065e+02 6.006706e+02
-2.606038e+09 -2.406043e+09 -2.566041e+09 3.517021e+02 2.203245e+02 5.985980e+02
-2.609751e+09 -2.409751e+09 -2.569751e+09 1.417551e+02 9.433884e+00 -3.787890e+01
-2.559338e+09 -2.359338e+09 -2.519338e+09 1.064816e+02 9.273279e+00 9.209014e+00
-2.339484e+09 -2.139484e+09 -2.299484e+09 6.360732e+01 8.434708e+00 -3.567032e+01
-1.777031e+09 -1.577031e+09 -1.737031e+09 8.393953e+01 1.599454e+01 -2.172911e+01
-1.890304e+09 -1.690304e+09 -1.850304e+09 1.029407e+02 1.577796e+01 -1.841147e+01
-3.196943e+09 -2.996943e+09 -3.156943e+09 3.434881e+01 4.446987e+00 3.187459e-01
-2.133412e+09 -1.933411e+09 -2.093411e+09 4.662427e+01 8.295650e+00 6.413577e+00
-3.878228e+09 -3.678228e+09 -3.838228e+09 8.081687e+01 2.811702e+00 -3.183555e+00
-3.975085e+09 -3.775085e+09 -3.935085e+09 7.016949e+01 2.693785e+00 -4.338098e+00
-2.201202e+09 -2.001201e+09 -2.161201e+09 6.380335e+01 6.574206e+00 -5.593634e+00
-3.782507e+09 -3.582506e+09 -3.742506e+09 7.773750e+01 1.772926e+01 -8.024044e+00
-3.835040e+09 -3.635039e+09 -3.795040e+09 9.714292e+01 7.430632e+00 1.198061e+01
-3.162117e+09 -2.962117e+09 -3.122117e+09 8.359817e+01 1.286530e+01 6.260247e+00
-4.994250e+09 -4.794253e+09 -4.954253e+09 1.140096e+03 3.019583e+02 -3.468525e+00
-3.961552e+09 -3.761551e+09 -3.921551e+09 -7.937736e+01 -6.790405e+00 -1.934320e+01
-3.657403e+09 -3.457403e+09 -3.617403e+09 -9.556910e+01 -1.190786e+01 -2.526772e+01
-3.780745e+09 -3.580744e+09 -3.740744e+09 -2.466988e+01 -2.879780e+00 -1.761220e+01
-4.682328e+09 -4.482327e+09 -4.642328e+09 -2.889006e+01 2.610697e+00 -3.716970e+00
-4.408471e+09 -4.208470e+09 -4.368470e+09 -3.630679e+01 2.606122e+00 -2.878338e-01
-4.498009e+09 -4.298013e+09 -4.458014e+09 3.885330e+02 9.838523e+02 -1.240738e+02
-4.682328e+09 -4.482327e+09 -4.642328e+09 -8.284280e+01 -3.542041e+00 -2.734147e+00
-1.800789e+09 -1.600790e+09 -1.760789e+09 4.740640e+00 1.163539e+00 3.796488e+00
-1.827642e+09 -1.627643e+09 -1.787643e+09 -3.121234e+01 -4.439340e+00 3.490973e+00
-1.781656e+09 -1.581657e+09 -1.741656e+09 -2.128681e+01 -6.899904e+00 5.771025e+00
-1.744981e+09 -1.544982e+09 -1.704981e+09 -1.057060e+01 -9.501522e-01 2.223736e+01
-2.301995e+09 -2.101996e+09 -2.261996e+09 3.593417e+00 6.994439e+00 -5.958985e-01
-2.642025e+09 -2.442026e+09 -2.602026e+09 -1.805973e+01 -2.056016e+00 4.408353e+00
-2.849114e+09 -2.649117e+09 -2.809115e+09 -6.246352e+02 -9.341919e+02 -1.086690e+02
-1.770309e+09 -1.570312e+09 -1.730309e+09 -8.615724e+02 -9.199376e+02 -8.396600e+01
-1.982866e+09 -1.782870e+09 -1.942867e+09 -6.140543e+02 -5.622802e+02 -1.163303e+02
-5.025103e+09 -4.825106e+09 -4.985109e+09 8.850814e+02 9.870586e+02 -1.654744e+02
-2.129221e+09 -1.929225e+09 -2.089222e+09 -3.591024e+02 -8.023114e+02 -9.018303e+01
-1.789001e+09 -1.589005e+09 -1.749002e+09 -4.238076e+02 -7.112540e+02 -7.665932e+01
-1.853814e+09 -1.653818e+09 -1.813815e+09 -3.220434e+02 -3.763066e+02 1.677567e+01
-1.597615e+09 -1.397619e+09 -1.557616e+09 -5.526760e+02 -6.054538e+02 -7.139795e+01
-2.532512e+09 -2.332514e+09 -2.492514e+09 -3.290331e+02 9.891053e+01 1.264581e+02
-2.601360e+09 -2.401361e+09 -2.561362e+09 -5.419498e+02 -1.291864e+00 2.234885e+02
-2.069570e+09 -1.869572e+09 -2.029572e+09 -3.347934e+02 9.411451e+01 1.123023e+02
-2.008439e+09 -1.808440e+09 -1.968440e+09 -4.617363e+02 8.697773e+01 4.014791e+01
-2.587782e+09 -2.387784e+09 -2.547785e+09 -4.822886e+02 6.417947e+01 5.148343e+01
-1.878290e+09 -1.678291e+09 -1.838292e+09 -9.383935e+02 1.662004e+02 1.207766e+02
-1.750651e+09 -1.550652e+09 -1.710652e+09 -4.076234e+02 1.345500e+02 3.978593e+01
-2.122501e+09 -1.922503e+09 -2.082503e+09 -4.768821e+02 6.299028e+01 1.231992e+02
-3.456815e+09 -3.256813e+09 -3.416815e+09 8.589779e+01 1.647273e+02 -8.871541e+01
-2.621593e+09 -2.421591e+09 -2.581592e+09 7.255260e+02 4.176577e+02 -2.969408e+02
-3.641220e+09 -3.441217e+09 -3.601219e+09 4.532378e+02 2.865838e+02 -2.304039e+02
-3.704878e+09 -3.504875e+09 -3.664877e+09 5.376613e+02 3.029027e+02 -2.236987e+02
-3.781601e+09 -3.581599e+09 -3.741601e+09 3.033057e+02 3.267425e+02 -2.655185e+02
-3.180659e+09 -2.980657e+09 -3.140658e+09 7.603750e+02 4.802659e+02 -2.589533e+02
-3.836109e+09 -3.636107e+09 -3.796109e+09 -4.583601e+02 1.196437e+02 -1.018235e+02
-3.953578e+09 -3.753576e+09 -3.913578e+09 -1.504972e+02 1.349649e+02 -3.242880e+02
-3.468017e+09 -3.268015e+09 -3.428017e+09 -4.859084e+02 1.122057e+02 -1.025577e+02
-1.886812e+09 -1.686811e+09 -1.846812e+09 2.047114e+02 2.416206e+02 -6.444912e+01
-3.375739e+09 -3.175738e+09 -3.335739e+09 -9.591939e+01 2.646144e+02 -2.482217e+02
-1.801717e+09 -1.601715e+09 -1.761717e+09 2.605794e+02 4.998498e+02 -5.119472e+02
-2.555897e+09 -2.355895e+09 -2.515896e+09 1.322036e+02 3.016315e+02 -2.578482e+02
-3.724051e+09 -3.524048e+09 -3.684050e+09 2.999835e+01 1.531204e+02 -2.339421e+02
-3.104180e+09 -2.904181e+09 -3.064180e+09 4.375538e+01 -5.221701e+01 -1.004486e+01
-3.597006e+09 -3.397006e+09 -3.557006e+09 1.363069e+02 -2.313931e+01 2.483859e+01
-2.664366e+09 -2.464366e+09 -2.624365e+09 1.100157e+02 -8.499109e+01 -1.469324e+01
-3.630219e+09 -3.430219e+09 -3.590218e+09 2.567300e+01 -4.447066e+01 -1.578567e+01
-3.305855e+09 -3.105855e+09 -3.265854e+09 1.353990e+02 -4.302411e+01 1.553909e+01
-2.306888e+09 -2.106890e+09 -2.266888e+09 3.624420e+02 2.869402e+01 -1.624935e+00
-2.666322e+09 -2.466324e+09 -2.626322e+09 3.023615e+02 -9.084475e+00 1.144471e+01
-2.667579e+09 -2.467581e+09 -2.627579e+09 2.934933e+02 4.514014e+01 3.587942e+01
-2.793688e+09 -2.593691e+09 -2.753688e+09 2.038980e+02 1.025222e+01 -1.401126e+01
-2.169775e+09 -1.969777e+09 -2.129775e+09 3.828454e+02 3.101936e+00 1.062897e+01
-1.954178e+09 -1.754180e+09 -1.914178e+09 3.976964e+02 6.172275e+00 3.168393e+01
-2.229841e+09 -2.029843e+09 -2.189841e+09 1.434645e+02 3.870910e+00 2.274713e+01
-2.081296e+09 -1.881295e+09 -2.041295e+09 2.027149e+01 7.581805e+00 2.026724e+00
-1.795338e+09 -1.595337e+09 -1.755337e+09 2.004869e+01 6.047344e+00 1.818893e+00
-2.397418e+09 -2.197417e+09 -2.357417e+09 2.249808e+01 8.097842e+00 -9.619390e+00
-2.056878e+09 -1.856877e+09 -2.016877e+09 2.420094e+01 5.528956e+00 -1.001872e+01
-3.674273e+09 -3.474272e+09 -3.634272e+09 -4.013244e+01 -5.847760e+01 -1.492380e+01
-1.816508e+09 -1.616508e+09 -1.776508e+09 2.156617e+01 4.867061e+00 -2.438915e+00
-2.530331e+09 -2.330331e+09 -2.490331e+09 2.546329e+01 1.222734e+00 -3.446084e+00
-3.950415e+09 -3.750419e+09 -3.910420e+09 -8.558871e+02 1.701332e+03 3.465151e+02
-2.484743e+09 -2.284742e+09 -2.444742e+09 4.014905e+01 3.162143e+00 1.565242e+00
-1.877325e+09 -1.677325e+09 -1.837325e+09 3.158900e+01 1.430686e+01 -1.168154e+01
-1.581477e+09 -1.381476e+09 -1.541476e+09 3.253233e+01 9.428097e+00 -1.063618e+01
-3.941153e+09 -3.741154e+09 -3.901154e+09 6.054462e+01 2.190659e+00 -1.030745e+00
-3.778664e+09 -3.578665e+09 -3.738665e+09 7.746994e+01 9.294815e+00 1.513122e+01
-3.304937e+09 -3.104938e+09 -3.264938e+09 6.948683e+01 5.760900e+00 -6.842068e+00
-4.479500e+09 -4.279502e+09 -4.439501e+09 -7.573060e+02 4.022965e+01 -2.422205e+02
-2.953879e+09 -2.753880e+09 -2.913880e+09 4.422610e+01 5.163548e+00 -1.654186e+00
-2.730023e+09 -2.530024e+09 -2.690023e+09 7.442253e+01 1.050227e+01 -5.012002e+00
-4.791349e+09 -4.591352e+09 -4.751350e+09 -9.512323e+01 5.931258e+01 -9.061715e+00
-4.984612e+09 -4.784614e+09 -4.944613e+09 -2.357125e+02 3.514139e+00 -1.069399e+02
-4.602259e+09 -4.402262e+09 -4.562260e+09 1.610071e+01 2.855632e+00 -2.875925e+00
-4.775701e+09 -4.575704e+09 -4.735701e+09 8.660367e+01 5.163676e+01 5.377572e+00
-3.461887e+09 -3.261890e+09 -3.421888e+09 3.581526e+00 -1.395879e+01 -1.419759e+01
-3.969570e+09 -3.769573e+09 -3.929570e+09 2.182424e+01 1.568134e+01 -6.452360e+00
-4.861086e+09 -4.661089e+09 -4.821087e+09 -6.363006e+00 6.479467e+00 2.350443e+00
-4.974000e+09 -4.774003e+09 -4.934001e+09 6.505988e+01 -2.767049e+00 2.815703e+01
-3.562489e+09 -3.362490e+09 -3.522490e+09 1.339298e+01 3.357759e+00 -8.218954e+00
-3.105748e+09 -2.905749e+09 -3.065748e+09 2.952731e+01 -3.222757e-01 1.565071e+01
-2.517101e+09 -2.317102e+09 -2.477102e+09 3.868396e+01 1.387581e+01 -1.508609e+01
-2.614762e+09 -2.414762e+09 -2.574762e+09 9.814123e+00 1.928816e+00 6.767476e+00
-2.016930e+09 -1.816931e+09 -1.976931e+09 2.565315e+01 4.058036e+00 9.122669e+00
-2.488736e+09 -2.288737e+09 -2.448737e+09 5.317889e-01 1.481906e+00 5.098032e+00
-3.142293e+09 -2.942291e+09 -3.102292e+09 2.423565e+02 2.763930e+02 -1.265427e+02
-1.880542e+09 -1.680540e+09 -1.840541e+09 1.004625e+03 4.813969e+02 -2.188552e+02
-3.363551e+09 -3.163549e+09 -3.323550e+09 1.018670e+01 2.063122e+02 -9.963839e+01
-1.992883e+09 -1.792881e+09 -1.952882e+09 3.212369e+02 3.573061e+02 -1.762523e+02
-2.950851e+09 -2.750849e+09 -2.910851e+09 4.251298e+02 3.901293e+02 -2.127612e+02
-1.582183e+09 -1.382181e+09 -1.542182e+09 6.858752e+02 4.934332e+02 -2.534921e+02
-1.596015e+09 -1.396014e+09 -1.556014e+09 1.050132e+03 6.059990e+02 -2.349979e+02
-3.806417e+09 -3.606416e+09 -3.766416e+09 -1.831313e+01 -7.821548e-01 -3.681929e+00
-2.065694e+09 -1.865694e+09 -2.025693e+09 9.352642e+01 4.696908e+01 -7.774546e-01
-3.452314e+09 -3.252313e+09 -3.412313e+09 -3.014510e+01 -8.743143e+00 -1.923386e+01
-3.782431e+09 -3.582430e+09 -3.742430e+09 -2.313140e+01 -2.823787e+00 -6.547621e+00
-4.124441e+09 -3.924442e+09 -4.084441e+09 -4.839342e+02 1.825076e+01 1.967839e+01
-2.854621e+09 -2.654621e+09 -2.814621e+09 -8.518003e+01 -5.520816e+00 9.013196e+00
-2.128064e+09 -1.928064e+09 -2.088064e+09 -1.247594e+02 -1.885050e+01 -1.321708e+01
-3.961584e+09 -3.761586e+09 -3.921585e+09 -4.888332e+02 2.216071e+01 -9.935435e+01
-1.952862e+09 -1.752863e+09 -1.912863e+09 -1.612706e+02 -3.288295e+01 -1.570154e+00
-2.339834e+09 -2.139834e+09 -2.299834e+09 -1.406659e+02 -8.802841e+00 2.654504e+00
-2.688105e+09 -2.488105e+09 -2.648105e+09 -5.839656e+01 -1.299721e+01 -4.195076e+00
-1.943737e+09 -1.743736e+09 -1.903737e+09 -1.508924e+02 -2.816959e+01 -1.546516e+00
-2.213551e+09 -2.013551e+09 -2.173551e+09 -4.862665e+01 -9.210245e+00 7.963923e-01
-3.072747e+09 -2.872751e+09 -3.032748e+09 7.524014e+01 -2.057683e+02 2.490889e+01
-2.649900e+09 -2.449904e+09 -2.609901e+09 1.398895e+02 -2.019554e+02 5.618469e+01
-1.635408e+09 -1.435412e+09 -1.595409e+09 1.298734e+02 -1.695913e+02 3.266768e+01
-2.013859e+09 -1.813863e+09 -1.973860e+09 3.393446e+02 -7.071384e+02 2.294729e+02
-2.597601e+09 -2.397605e+09 -2.557602e+09 2.311967e+02 -4.001004e+02 -1.299754e+00
-1.830789e+09 -1.630793e+09 -1.790790e+09 4.296678e+02 -6.556358e+02 1.470839e+02
-2.070018e+09 -1.870017e+09 -2.030017e+09 5.841655e+02 3.400923e+02 -1.015514e+02
-3.323875e+09 -3.123874e+09 -3.283874e+09 3.993822e+02 9.049551e+01 -1.375811e+01
-2.767512e+09 -2.567512e+09 -2.727511e+09 4.747662e+02 1.950897e+02 -2.697455e+01
-2.562561e+09 -2.362560e+09 -2.522560e+09 4.716135e+02 1.575107e+02 -3.349275e+01
-1.786793e+09 -1.586793e+09 -1.746792e+09 5.243660e+02 1.833117e+02 -4.271373e+01
-2.015183e+09 -1.815182e+09 -1.975182e+09 3.668972e+02 1.963801e+02 -7.004993e+01
-1.825707e+09 -1.625706e+09 -1.785706e+09 4.557149e+02 1.529431e+02 -8.273239e+01
-1.949457e+09 -1.749457e+09 -1.909457e+09 5.427906e+02 1.564233e+02 2.469974e+01
-1.838365e+09 -1.638364e+09 -1.798364e+09 5.652153e+02 2.251936e+02 -4.927347e+01
-2.805392e+09 -2.605392e+09 -2.765392e+09 -4.265976e+02 -2.252816e+02 -8.006048e+01
-3.331589e+09 -3.131588e+09 -3.291588e+09 -2.648555e+02 -1.414698e+02 -6.792547e+01
-4.027868e+09 -3.827867e+09 -3.987868e+09 -3.409393e+02 -1.128007e+02 -1.769144e+01
-1.878894e+09 -1.678894e+09 -1.838894e+09 -1.628958e+02 -2.797404e+01 4.391181e+00
-2.786540e+09 -2.586541e+09 -2.746541e+09 -7.050636e+01 -2.036268e+01 1.046147e+01
-3.092456e+09 -2.892457e+09 -3.052457e+09 -6.249628e+01 -4.133917e+00 -1.740842e+00
-3.457460e+09 -3.257459e+09 -3.417459e+09 -4.061122e+01 -1.571586e+02 7.794664e+00
-2.997466e+09 -2.797466e+09 -2.957466e+09 -6.767945e+01 -6.090151e+00 1.578615e+00
-2.215299e+09 -2.015300e+09 -2.175300e+09 -1.626369e+02 -1.027680e+01 3.935742e+00
-1.586865e+09 -1.386865e+09 -1.546864e+09 4.078175e+02 1.064811e+02 9.035198e+00
-4.779325e+09 -4.579326e+09 -4.739325e+09 -8.182380e+02 4.388239e+01 -1.651932e+02
-4.441850e+09 -4.241845e+09 -4.401849e+09 -1.105262e+03 -7.364897e+02 3.815929e+02
-4.613060e+09 -4.413056e+09 -4.573064e+09 -9.023302e+02 -4.956615e+01 2.805461e+02
-4.491665e+09 -4.291661e+09 -4.451664e+09 -1.522934e+03 -8.259550e+02 -2.526793e+02
-4.442283e+09 -4.242280e+09 -4.402289e+09 3.774476e+01 -1.624085e+03 6.032999e+02
-4.604813e+09 -4.404810e+09 -4.564819e+09 -6.784378e+02 2.560044e+01 2.595950e+02
-4.690454e+09 -4.490457e+09 -4.650455e+09 -2.138433e+02 1.328450e+02 -1.029708e+01
-4.837728e+09 -4.637731e+09 -4.797729e+09 -1.140695e+02 -2.226442e+01 -2.266083e+01
-4.839599e+09 -4.639602e+09 -4.799600e+09 -5.120603e+02 2.220232e+01 -1.406272e+01
-4.684545e+09 -4.484548e+09 -4.644546e+09 -4.829729e+02 1.025906e+02 1.005987e+01
-4.767955e+09 -4.567955e+09 -4.727955e+09 7.064809e+01 3.578897e+00 6.139061e+00
-4.220682e+09 -4.020681e+09 -4.180681e+09 6.485043e+01 -2.150347e+00 5.753392e+00
-4.142816e+09 -3.942816e+09 -4.102816e+09 7.708327e+01 5.741640e+00 5.463843e+00
-4.783208e+09 -4.583208e+09 -4.743208e+09 5.649288e+01 -5.613927e-01 -3.084141e+00
-4.291537e+09 -4.091537e+09 -4.251537e+09 4.620252e+01 -2.116849e-01 -2.382445e+01
-4.470488e+09 -4.270487e+09 -4.430488e+09 -1.030879e+03 1.133490e+02 1.281250e+02
-4.275724e+09 -4.075722e+09 -4.235723e+09 -5.160148e+02 1.037627e+02 1.959509e+02
-4.814870e+09 -4.614868e+09 -4.774869e+09 -5.036377e+02 8.241573e+01 1.045711e+02
-4.624745e+09 -4.424744e+09 -4.584745e+09 -3.453535e+02 2.175468e+01 2.267536e+00
-4.128404e+09 -3.928403e+09 -4.088403e+09 -4.792999e+02 -1.739461e+01 -3.488111e+00
-4.622895e+09 -4.422894e+09 -4.582894e+09 -7.397691e+01 -2.447278e+01 7.836121e+00
-2.681138e+09 -2.481137e+09 -2.641137e+09 9.918700e+00 5.290568e+00 -3.405038e+00
-2.774871e+09 -2.574871e+09 -2.734871e+09 2.779553e+01 7.378556e+00 -8.058450e+00
-1.628784e+09 -1.428783e+09 -1.588784e+09 4.593552e+01 1.244698e+01 -7.420473e+00
-2.448344e+09 -2.248343e+09 -2.408343e+09 2.580365e+01 1.016585e+01 -9.478569e+00
-2.894391e+09 -2.694390e+09 -2.854391e+09 1.107844e+02 2.411896e+02 -8.342869e+01
-3.879265e+09 -3.679264e+09 -3.839265e+09 -1.030537e+02 1.137079e+02 -4.816659e+01
-3.746232e+09 -3.546230e+09 -3.706232e+09 6.547944e+01 1.936829e+02 -1.719353e+02
-4.624126e+09 -4.424131e+09 -4.584125e+09 3.888370e+02 1.965379e+02 1.192237e+03
-4.302793e+09 -4.102792e+09 -4.262793e+09 -5.879595e+02 -1.101526e+01 2.179551e+01
-4.308053e+09 -4.108052e+09 -4.268052e+09 -5.430602e+02 -5.954632e+00 5.906449e+00
-4.824428e+09 -4.624427e+09 -4.784428e+09 -5.626214e+02 2.995272e+00 -5.712083e+01
-4.323681e+09 -4.123680e+09 -4.283681e+09 -8.512170e+01 -2.030624e+02 1.778491e+02
-4.129030e+09 -3.929029e+09 -4.089030e+09 -1.069400e+02 -1.868409e+02 1.513803e+02
-2.107367e+09 -1.907367e+09 -2.067367e+09 -3.556465e+01 -5.877091e+00 -3.262961e+00
-4.815496e+09 -4.615494e+09 -4.775496e+09 -1.373627e+02 -1.054903e+02 2.300491e+02
-4.302991e+09 -4.102990e+09 -4.262991e+09 2.115333e+01 -2.127140e+02 2.347756e+02
-2.521086e+09 -2.321090e+09 -2.481089e+09 1.375828e+02 6.290693e+01 2.515337e+02
-4.621256e+09 -4.421258e+09 -4.581257e+09 -9.979815e+01 2.184076e+00 -6.630982e+01
-1.762527e+09 -1.562530e+09 -1.722530e+09 4.471867e+02 2.117192e+01 -2.466513e+01
-2.178681e+09 -1.978685e+09 -2.138685e+09 7.306531e+01 5.731870e+01 -3.862203e+01
-4.435884e+09 -4.235883e+09 -4.395883e+09 1.362498e+01 -1.754209e+00 -2.050439e+01
-1.815380e+09 -1.615384e+09 -1.775384e+09 -8.881345e+01 4.758839e+01 7.681277e+01
-3.956417e+09 -3.756411e+09 -3.916399e+09 4.188272e+03 4.371206e+03 3.615036e+03
-2.159935e+09 -1.959935e+09 -2.119935e+09 -4.234506e+01 -9.785338e+00 1.165510e+01
-3.539134e+09 -3.339135e+09 -3.499135e+09 -1.144071e+02 -5.257927e+00 -2.839156e+00
-3.846012e+09 -3.646013e+09 -3.806012e+09 -3.906663e+01 -1.405213e+01 1.259816e+01
-3.586821e+09 -3.386822e+09 -3.546822e+09 -5.921751e+01 -6.377424e+00 9.751680e+00
-2.477478e+09 -2.277482e+09 -2.437482e+09 7.786169e+02 1.302583e+02 6.992538e+02
-1.909669e+09 -1.709673e+09 -1.869673e+09 8.289712e+02 2.530205e+02 8.677145e+02
-1.599043e+09 -1.399048e+09 -1.559048e+09 2.016861e+02 -2.881734e+00 8.501056e+02
-4.246293e+09 -4.046290e+09 -4.206292e+09 -1.906060e+02 1.698918e+01 1.924410e+02
-4.781682e+09 -4.581680e+09 -4.741682e+09 -3.632204e+02 9.732199e+01 1.802550e+02
-4.107169e+09 -3.907167e+09 -4.067168e+09 1.398468e+02 -1.627774e+02 -1.422850e+02
-4.095217e+09 -3.895215e+09 -4.055216e+09 -3.567902e+02 -2.443260e+01 4.287956e+01
-2.706503e+09 -2.506506e+09 -2.666504e+09 -8.492541e+01 3.068166e+01 -3.459930e+01
-2.822938e+09 -2.622941e+09 -2.782938e+09 -2.087967e+02 1.041318e+01 -2.355543e+01
-3.366337e+09 -3.166339e+09 -3.326337e+09 -9.990628e+01 1.785823e+01 -3.179265e+01
-2.041899e+09 -1.841902e+09 -2.001899e+09 -1.346700e+02 2.640037e+01 4.878055e-01
-2.671784e+09 -2.471787e+09 -2.631784e+09 -1.989532e+02 1.146446e+01 -4.525344e+01
-3.210392e+09 -3.010395e+09 -3.170393e+09 -3.043559e+02 8.692521e+01 -1.564241e+00
-3.486380e+09 -3.286383e+09 -3.446381e+09 -2.864637e+02 5.027329e+01 -1.260087e+01
-4.477218e+09 -4.277218e+09 -4.437218e+09 -2.657189e+02 -7.908813e+00 1.325990e+01
-4.841033e+09 -4.641032e+09 -4.801032e+09 -2.054258e+02 -1.884005e+01 -1.399273e+00
-4.497800e+09 -4.297799e+09 -4.457800e+09 -1.936611e+02 -3.251795e+00 1.114081e+00
-4.154567e+09 -3.954567e+09 -4.114567e+09 -1.976531e+02 -1.149942e-01 -8.185157e+00
-2.107878e+09 -1.907879e+09 -2.067881e+09 9.988798e+02 -2.240887e+02 -2.918001e+02
-1.866760e+09 -1.666762e+09 -1.826763e+09 1.193191e+02 -1.024950e+02 1.108280e+02
-1.797096e+09 -1.597097e+09 -1.757098e+09 1.030801e+03 -2.092040e+02 -2.651968e+02
-4.983657e+09 -4.783651e+09 -4.943651e+09 2.084043e+03 -7.318032e+01 -3.007936e+02
-1.592909e+09 -1.392910e+09 -1.552911e+09 3.919332e+02 -1.704064e+02 -1.094739e+02
-4.000471e+09 -3.800473e+09 -3.960471e+09 4.995833e+02 1.172954e+02 -2.752080e+01
-4.290173e+09 -4.090175e+09 -4.250173e+09 7.010011e+02 7.642650e+01 -2.469720e+01
-3.938229e+09 -3.738231e+09 -3.898229e+09 4.595104e+02 2.571444e+01 1.902893e+01
-4.134323e+09 -3.934325e+09 -4.094323e+09 6.355503e+02 3.084099e+01 3.879173e+01
-3.612191e+09 -3.412190e+09 -3.572190e+09 2.072681e+01 -1.658016e-01 -1.557777e+01
-4.184466e+09 -3.984468e+09 -4.144466e+09 3.328302e+02 6.622303e+01 4.421869e+00
-4.006957e+09 -3.806961e+09 -3.966958e+09 1.402399e+02 1.375093e+02 -1.275111e+01
-4.160216e+09 -3.960219e+09 -4.120217e+09 1.239826e+02 3.752948e+01 -1.083256e+01
-4.663620e+09 -4.463623e+09 -4.623621e+09 3.585340e+02 3.338477e+01 -3.145013e+01
-4.787282e+09 -4.587285e+09 -4.747282e+09 3.567939e+02 -5.247285e+01 1.878574e+01
-4.288234e+09 -4.088237e+09 -4.248234e+09 3.976651e+02 7.602050e+01 3.255651e+01
-4.451074e+09 -4.251076e+09 -4.411074e+09 5.262769e+02 -1.399903e+01 -4.731583e+02
-4.449916e+09 -4.249918e+09 -4.409916e+09 -2.950514e+02 9.599906e+01 -2.601167e+02
-4.629277e+09 -4.429278e+09 -4.589276e+09 7.439658e+01 5.706054e+01 -4.974606e+02
-3.850479e+09 -3.650479e+09 -3.810479e+09 -1.218027e+02 -8.199681e+00 -1.246813e+01
-3.364984e+09 -3.164983e+09 -3.324983e+09 1.726421e+01 3.627466e+00 -3.903278e+01
-4.471464e+09 -4.271467e+09 -4.431465e+09 -3.128039e+02 1.034046e+02 -3.738128e+02
-4.814698e+09 -4.614700e+09 -4.774698e+09 -3.198352e+02 1.095274e+02 -4.504278e+01
-4.833201e+09 -4.633202e+09 -4.793201e+09 -5.696497e+02 -5.927928e+01 -4.336359e+01
-4.065183e+09 -3.865185e+09 -4.025183e+09 -4.210711e+02 5.638495e+01 1.782586e+01
-3.265901e+09 -3.065905e+09 -3.225903e+09 6.624245e+01 -6.493188e+02 3.559759e+01
-3.475788e+09 -3.275792e+09 -3.435790e+09 -1.847642e+02 -9.213324e+02 2.183346e+01
-3.227485e+09 -3.027489e+09 -3.187487e+09 -3.901727e+02 -1.220114e+03 -1.857655e+02
-2.893986e+09 -2.693991e+09 -2.853988e+09 -3.861990e+02 -1.132925e+03 -7.886621e+01
-4.355887e+09 -4.155885e+09 -4.315886e+09 -8.884399e+01 -5.922397e+01 -2.899377e+00
-2.330206e+09 -2.130210e+09 -2.290207e+09 -1.190550e+02 -7.569383e+02 -2.453766e+01
-4.988881e+09 -4.788878e+09 -4.948881e+09 -2.077416e+03 -4.959575e+02 1.183899e+02
-4.464578e+09 -4.264576e+09 -4.424574e+09 -2.650623e+03 2.852196e+02 -3.686022e+02
-3.964017e+09 -3.764017e+09 -3.924020e+09 -1.136303e+03 -1.276998e+03 -5.200743e+02
-4.828302e+09 -4.628296e+09 -4.788294e+09 -1.769895e+03 1.218096e+03 -1.013878e+03
-4.141837e+09 -3.941830e+09 -4.101832e+09 -1.562104e+03 1.622137e+03 -5.661886e+02
-2.951724e+09 -2.751725e+09 -2.911724e+09 1.542513e+02 3.443334e+01 1.732372e+01
-4.098616e+09 -3.898612e+09 -4.058618e+09 -1.485221e+03 -4.576913e+02 2.166513e+02
-4.982904e+09 -4.782900e+09 -4.942901e+09 -2.179331e+03 -6.387027e+02 -1.442335e+02
-4.136679e+09 -3.936680e+09 -4.096679e+09 -4.762104e+02 1.686125e+01 9.219099e+00
-4.313465e+09 -4.113466e+09 -4.273465e+09 -6.925799e+02 7.011440e+01 2.757229e+01
-4.489969e+09 -4.289970e+09 -4.449969e+09 -6.209590e+02 2.274686e+01 -4.733861e+00
-4.136178e+09 -3.936179e+09 -4.096178e+09 -6.741200e+02 1.394206e+01 -3.264059e+01
-2.678730e+09 -2.478733e+09 -2.638730e+09 -1.435117e+02 1.047511e+02 6.696828e+00
-3.137448e+09 -2.937451e+09 -3.097449e+09 -1.261681e+01 4.817178e+01 -1.152878e+01
-3.838104e+09 -3.638107e+09 -3.798105e+09 -1.115627e+02 2.297865e+01 -8.936964e+00
-2.995369e+09 -2.795372e+09 -2.955369e+09 -5.117929e+01 4.001832e+01 -2.912152e+01
-2.766499e+09 -2.566502e+09 -2.726500e+09 -1.380393e+02 8.592840e+01 -3.805400e+01
-3.868788e+09 -3.668788e+09 -3.828787e+09 1.225359e+02 2.568525e+01 -6.870330e+00
-2.826831e+09 -2.626831e+09 -2.786830e+09 1.675720e+02 4.327999e+01 5.543660e+01
-2.688520e+09 -2.488520e+09 -2.648519e+09 2.624742e+02 3.602170e+01 7.893344e+00
-2.355887e+09 -2.155888e+09 -2.315887e+09 3.172325e+02 4.487909e+01 7.447145e+00
-4.119378e+09 -3.919379e+09 -4.079378e+09 1.600675e+02 2.336257e+01 5.572265e+00
-4.037707e+09 -3.837707e+09 -3.997706e+09 1.091090e+02 -1.007383e+01 6.596496e+00
-3.743997e+09 -3.543998e+09 -3.703997e+09 7.835161e+01 2.578957e+01 -1.788979e+01
-3.633296e+09 -3.433296e+09 -3.593295e+09 1.168879e+02 1.699537e+01 2.497414e+01
-3.986791e+09 -3.786791e+09 -3.946790e+09 1.067432e+02 -1.110166e+00 1.095703e+01
-3.394423e+09 -3.194424e+09 -3.354423e+09 8.172574e+01 1.545578e+01 2.605947e+00
-2.970054e+09 -2.770054e+09 -2.930053e+09 7.177903e+01 7.628238e+01 -4.400486e+01
-3.225921e+09 -3.025921e+09 -3.185920e+09 1.554143e+02 4.816825e+01 7.390046e+00
-4.318306e+09 -4.118306e+09 -4.278286e+09 -1.424279e+03 -2.425526e+03 4.648781e+03
-4.149830e+09 -3.949829e+09 -4.109814e+09 -3.261046e+03 -3.207789e+03 3.630969e+03
-4.281769e+09 -4.081771e+09 -4.241750e+09 1.453156e+02 -2.926155e+02 6.548006e+03
-4.113291e+09 -3.913296e+09 -4.073278e+09 -2.114286e+02 -3.659617e+02 7.227276e+03
-3.773207e+09 -3.573207e+09 -3.733207e+09 5.671738e+01 1.407728e+01 -9.896866e-01
-4.412091e+09 -4.212091e+09 -4.372091e+09 2.712859e+00 1.335221e+01 -8.243575e-01
-3.697833e+09 -3.497833e+09 -3.657833e+09 4.760852e+01 1.279721e+01 9.150043e+00
-4.563346e+09 -4.363346e+09 -4.523346e+09 1.200018e+02 8.321565e+00 8.091659e+00
-3.805885e+09 -3.605885e+09 -3.765885e+09 4.566120e+01 1.337369e+01 4.123677e+00
-3.891106e+09 -3.691106e+09 -3.851106e+09 3.981838e+01 -4.188262e+00 -1.104959e+01
-4.683905e+09 -4.483905e+09 -4.643905e+09 3.510786e+01 2.930339e+00 1.658374e+01
-4.499422e+09 -4.299423e+09 -4.459422e+09 7.115901e+02 1.517536e+01 -2.063376e+01
-4.842655e+09 -4.642656e+09 -4.802655e+09 7.613944e+02 -1.426412e+01 5.701909e+01
-4.821165e+09 -4.621167e+09 -4.781165e+09 7.627372e+02 -3.868594e+01 3.711732e+01
-4.499422e+09 -4.299424e+09 -4.459422e+09 8.261944e+02 1.147838e+02 1.334794e+00
-4.633029e+09 -4.433031e+09 -4.593029e+09 5.784511e+02 1.899559e+01 1.650453e+01
-4.125144e+09 -3.925145e+09 -4.085145e+09 -1.713337e+02 -4.831611e+00 2.905689e+01
-4.807667e+09 -4.607668e+09 -4.767668e+09 -1.225517e+02 -4.970703e+00 2.443085e+01
-4.121202e+09 -3.921203e+09 -4.081203e+09 -1.188441e+02 6.287143e+00 -3.427888e+01
-4.158800e+09 -3.958803e+09 -4.118801e+09 -4.345068e+02 8.469256e+01 2.021323e+01
-4.489719e+09 -4.289722e+09 -4.449720e+09 -3.603863e+02 4.847659e+01 -2.274855e+00
-4.845266e+09 -4.645268e+09 -4.805266e+09 -4.373657e+02 5.038369e+01 -1.333382e+01
-4.797261e+09 -4.597261e+09 -4.757260e+09 -2.593833e+02 -6.689904e+01 -1.712746e+01
-4.083817e+09 -3.883817e+09 -4.043816e+09 -1.842502e+02 5.707223e+00 -2.887838e+00
-4.984043e+09 -4.784044e+09 -4.944042e+09 -1.410904e+02 1.538702e+01 2.080859e+01
-4.804873e+09 -4.604873e+09 -4.764873e+09 -1.586185e+02 3.306758e+01 -1.944716e+01
-3.846726e+09 -3.646725e+09 -3.806725e+09 2.914107e+01 1.023832e+01 -1.174265e+01
-3.001138e+09 -2.801137e+09 -2.961138e+09 6.085513e+01 9.212421e+00 -2.747651e+00
-2.147914e+09 -1.947914e+09 -2.107913e+09 1.249545e+02 1.024783e+02 6.173828e+00
-4.582906e+09 -4.382906e+09 -4.542906e+09 7.702863e+01 8.711410e+00 2.502169e+00
-2.101039e+09 -1.901038e+09 -2.061039e+09 6.715265e+01 6.525301e+00 1.576570e+00
-2.677960e+09 -2.477961e+09 -2.637959e+09 -1.112812e+02 2.912038e+01 -4.414550e+01
-2.899386e+09 -2.699387e+09 -2.859386e+09 -8.520960e+01 2.905681e+01 -5.214863e+01
-3.024058e+09 -2.824059e+09 -2.984058e+09 -6.903756e+00 -2.907683e+00 -4.081293e+01
-2.164140e+09 -1.964141e+09 -2.124140e+09 -7.924431e+01 -6.101359e+00 -4.665718e+01
-1.932997e+09 -1.732999e+09 -1.892997e+09 -2.681121e+01 1.676746e+01 -5.245750e+01
-2.180677e+09 -1.980678e+09 -2.140677e+09 -2.287027e+01 -2.714401e+00 -3.485541e+01
-4.786331e+09 -4.586334e+09 -4.746333e+09 8.545566e+02 1.942854e+01 -6.703587e+01
-4.109436e+09 -3.909439e+09 -4.069438e+09 6.864365e+02 -2.657431e+01 9.161728e+01
-3.595746e+09 -3.395745e+09 -3.555745e+09 4.359995e+02 1.139497e+02 -2.958054e+01
-4.692974e+09 -4.492978e+09 -4.652977e+09 4.179144e+02 3.367541e+01 1.565057e+02
-3.617655e+09 -3.417658e+09 -3.577658e+09 8.247934e+02 1.501112e+02 2.076784e+02
-3.627855e+09 -3.427860e+09 -3.587859e+09 -1.381555e+01 1.181115e+02 4.251784e+02
-4.439282e+09 -4.239286e+09 -4.399285e+09 3.003376e+02 1.843421e+01 1.356605e+02
-4.837940e+09 -4.637944e+09 -4.797943e+09 4.543307e+02 -1.317290e+01 3.379704e+02
-4.271075e+09 -4.071075e+09 -4.231075e+09 5.843360e+02 -5.013112e+01 -9.786445e+01
-4.459845e+09 -4.259844e+09 -4.419845e+09 4.200462e+02 -7.498232e+00 -2.784231e+01
-4.501057e+09 -4.301057e+09 -4.461057e+09 3.760986e+02 -1.510272e+01 -2.721866e+01
-4.501057e+09 -4.301057e+09 -4.461057e+09 3.674337e+02 -6.158534e+00 -7.342842e+01
-4.475919e+09 -4.275919e+09 -4.435919e+09 4.694875e+02 -1.748042e+00 -5.321980e+01
-4.469908e+09 -4.269909e+09 -4.429909e+09 1.618791e+02 8.707777e+00 -3.925900e+00
-4.132882e+09 -3.932883e+09 -4.092883e+09 2.475375e+02 8.729949e-01 -4.558765e+01
-4.126675e+09 -3.926676e+09 -4.086676e+09 1.950552e+02 1.380761e+01 2.129107e+01
-4.828698e+09 -4.628699e+09 -4.788699e+09 2.881170e+02 1.122214e+01 3.722441e+01
-4.498010e+09 -4.298014e+09 -4.458017e+09 2.750554e+02 1.193490e+03 6.716944e+01
-4.807552e+09 -4.607556e+09 -4.767557e+09 1.155156e+02 8.653487e+02 1.030223e+01
-4.288477e+09 -4.088481e+09 -4.248481e+09 -2.752812e+02 1.064636e+03 1.453048e+02
-4.298081e+09 -4.098084e+09 -4.258087e+09 -7.516091e+02 1.426467e+03 4.476952e+02
-4.632681e+09 -4.432684e+09 -4.592685e+09 -7.425277e+02 5.778294e+02 1.326556e+02
-4.122058e+09 -3.922061e+09 -4.082062e+09 -8.602612e+02 1.469920e+03 3.622792e+02
-4.130202e+09 -3.930202e+09 -4.090202e+09 -4.467213e+02 -2.527891e+01 -3.514089e+00
-4.512384e+09 -4.312384e+09 -4.472384e+09 -3.730129e+02 -2.058190e+01 -5.831257e+00
-3.964017e+09 -3.764017e+09 -3.924020e+09 -1.097378e+03 -1.251201e+03 -4.215583e+02
-4.828504e+09 -4.628504e+09 -4.788504e+09 -3.640430e+02 -2.118729e+01 2.440071e+00
-4.473435e+09 -4.273435e+09 -4.433435e+09 -4.197708e+02 -1.365344e+01 9.543029e+00
-4.303489e+09 -4.103485e+09 -4.263487e+09 3.089373e+02 -3.276546e+01 1.136535e+03
-3.832389e+09 -3.632393e+09 -3.792391e+09 1.959242e+02 -3.331172e+02 5.755665e+01
-2.884135e+09 -2.684140e+09 -2.844137e+09 -8.860903e+01 -3.983494e+02 -1.188987e+01
-3.095194e+09 -2.895198e+09 -3.055196e+09 -2.490722e+02 -7.105468e+02 3.358444e+01
-4.301125e+09 -4.101129e+09 -4.261128e+09 3.894823e+01 -3.717020e+02 2.825613e+01
-3.881144e+09 -3.681148e+09 -3.841146e+09 -1.117368e+02 -6.688733e+02 1.163905e+01
-3.474064e+09 -3.274068e+09 -3.434066e+09 2.345423e+02 -7.310614e+02 1.068891e+02
-4.032776e+09 -3.832780e+09 -3.992778e+09 -6.309463e+01 -3.452769e+02 4.090558e+01
-3.395455e+09 -3.195459e+09 -3.355457e+09 -1.108657e+02 -7.378279e+02 2.593898e+01
-3.992225e+09 -3.792223e+09 -3.952224e+09 3.764579e+02 2.235848e+02 -9.555166e+01
-4.789356e+09 -4.589354e+09 -4.749355e+09 5.913500e+02 1.326394e+02 -6.746779e+01
-4.107281e+09 -3.907279e+09 -4.067280e+09 1.506295e+02 3.495320e+01 -2.350995e+01
-4.702380e+09 -4.502379e+09 -4.662380e+09 1.713225e+02 7.933891e+01 -1.218392e+01
-4.133466e+09 -3.933464e+09 -4.093465e+09 1.482524e+01 7.749303e+01 -2.313095e+01
-4.786314e+09 -4.586313e+09 -4.746313e+09 3.856542e+02 -2.438059e+01 -2.111577e+01
-3.396636e+09 -3.196635e+09 -3.356635e+09 -1.582717e+02 -9.608584e+00 -1.273303e+01
-1.997500e+09 -1.797500e+09 -1.957500e+09 -8.632745e+01 -7.151540e+00 -1.065743e+01
-2.643350e+09 -2.443349e+09 -2.603349e+09 -8.377183e+01 -1.359536e+01 -1.209559e+01
-2.351791e+09 -2.151790e+09 -2.311790e+09 -7.450672e+01 -2.303506e+01 -8.821779e+00
-2.768544e+09 -2.568544e+09 -2.728544e+09 -6.922841e+01 -6.708262e+00 -1.320551e+01
-2.715944e+09 -2.515943e+09 -2.675944e+09 -1.137995e+02 -1.571109e+01 -1.810791e+01
-4.121338e+09 -3.921337e+09 -4.081335e+09 -2.760738e+03 -1.499916e+03 1.226593e+03
-4.640378e+09 -4.440376e+09 -4.600376e+09 -2.423563e+03 -3.019050e+02 3.679758e+02
-4.807721e+09 -4.607715e+09 -4.767718e+09 -2.107737e+03 -4.034611e+02 -3.917310e+02
-4.815623e+09 -4.615620e+09 -4.775621e+09 -2.283073e+03 -5.075525e+02 5.260489e+02
-4.311696e+09 -4.111697e+09 -4.271696e+09 4.996053e+02 -2.084350e+01 -1.311720e+02
-1.908733e+09 -1.708737e+09 -1.868734e+09 7.460036e+01 -6.445027e+01 3.589118e+00
-4.461752e+09 -4.261753e+09 -4.421752e+09 3.863583e+02 7.575361e+00 -1.574008e+02
-4.281851e+09 -4.081853e+09 -4.241852e+09 1.538316e+02 1.100943e+01 -6.470137e+01
-4.817269e+09 -4.617270e+09 -4.777269e+09 5.276769e+02 1.689610e+01 6.805453e+01
-4.130803e+09 -3.930804e+09 -4.090804e+09 5.375301e+02 -4.745464e+01 -2.435372e+02
-4.293542e+09 -4.093543e+09 -4.253542e+09 5.654800e+02 -2.324797e+01 -1.608698e+02
-4.451255e+09 -4.251246e+09 -4.411245e+09 -2.415172e+03 -2.062483e+03 3.276837e+01
-4.989954e+09 -4.789950e+09 -4.949953e+09 7.863917e+02 4.277429e+02 1.202340e+02
-4.268552e+09 -4.068544e+09 -4.228555e+09 1.965778e+01 -8.161969e+01 -1.492948e+03
-4.101465e+09 -3.901457e+09 -4.061440e+09 -8.381673e+02 -4.118917e+03 -1.224243e+03
-4.619020e+09 -4.419014e+09 -4.579003e+09 -2.635246e+03 -4.246769e+03 -7.197359e+02
-4.282121e+09 -4.082113e+09 -4.242092e+09 -4.398628e+02 -4.135895e+03 1.734106e+03
-4.625354e+09 -4.425347e+09 -4.585329e+09 -4.011185e+02 -3.632648e+03 -1.399146e+02
-4.787928e+09 -4.587922e+09 -4.747909e+09 -9.693307e+02 -3.324155e+03 1.637906e+03
-1.585557e+09 -1.385560e+09 -1.545558e+09 1.919087e+02 2.445106e+01 5.459242e+00
-4.474424e+09 -4.274421e+09 -4.434423e+09 2.279047e+03 2.675547e+02 -3.937565e+02
-4.817657e+09 -4.617654e+09 -4.777657e+09 2.422137e+03 2.429420e+02 -3.875851e+02
-4.286953e+09 -4.086947e+09 -4.246954e+09 1.101071e+03 -2.625674e+02 -5.937186e+02
-4.113986e+09 -3.913979e+09 -4.073983e+09 1.931995e+03 1.943197e+03 -1.440472e+03
-3.951072e+09 -3.751066e+09 -3.911075e+09 2.233736e+03 1.665365e+03 1.339959e+02
-4.481636e+09 -4.281639e+09 -4.441637e+09 1.043599e+03 2.214175e+02 -8.397401e+00
-4.159077e+09 -3.959080e+09 -4.119079e+09 1.216140e+03 5.477419e+02 -9.492008e+01
-3.451113e+09 -3.251114e+09 -3.411114e+09 -6.959961e-01 9.706214e-01 -1.736851e-01
-4.498839e+09 -4.298841e+09 -4.458841e+09 1.659608e+03 3.433372e+02 -6.847527e+01
-4.845543e+09 -4.645545e+09 -4.805544e+09 1.218730e+03 5.081752e+01 -1.020373e+00
-4.842072e+09 -4.642074e+09 -4.802074e+09 1.449533e+03 1.568032e+02 -4.003303e+01
-1.623447e+09 -1.423446e+09 -1.583446e+09 1.667499e+01 5.808328e+00 -8.095371e+00
-4.175349e+09 -3.975351e+09 -4.135350e+09 1.293870e+03 2.561573e+02 -6.537067e+01
-4.134278e+09 -3.934273e+09 -4.094280e+09 -9.807697e+02 5.472163e+01 1.669052e+03
-4.654122e+09 -4.454122e+09 -4.614121e+09 -9.881997e+02 1.685833e+02 9.638185e+01
-4.828824e+09 -4.628825e+09 -4.788824e+09 -6.905432e+02 1.123612e+01 -1.900141e+00
-4.662344e+09 -4.462344e+09 -4.622343e+09 -7.019638e+02 3.603848e+01 -8.955468e+00
-4.142359e+09 -3.942359e+09 -4.102358e+09 -6.960003e+02 4.297355e+01 1.349322e+01
-4.306400e+09 -4.106401e+09 -4.266401e+09 -7.815217e+01 -1.901664e+00 5.307044e+00
-4.141127e+09 -3.941129e+09 -4.101128e+09 -8.243662e+01 -3.597959e+00 -4.594676e+01
-4.824560e+09 -4.624561e+09 -4.784561e+09 5.798404e+01 8.362542e+00 1.324853e+01
-4.827593e+09 -4.627594e+09 -4.787594e+09 -8.452288e+01 3.565630e+00 3.651835e+01
-4.293795e+09 -4.093796e+09 -4.253797e+09 7.769739e+02 -8.980156e+02 3.809141e+02
-4.637027e+09 -4.437029e+09 -4.597030e+09 7.784363e+02 -3.929968e+02 2.355175e+02
-4.310441e+09 -4.110442e+09 -4.270443e+09 6.373373e+02 -6.971692e+02 2.914734e+02
-4.807252e+09 -4.607252e+09 -4.767255e+09 6.593712e+02 -4.475329e+02 3.198722e+02
-3.183401e+09 -2.983401e+09 -3.143401e+09 2.266394e+01 -8.169248e-01 -2.168079e+00
-2.851807e+09 -2.651807e+09 -2.811807e+09 1.008806e+01 3.462361e+00 -5.725191e+00
-2.222433e+09 -2.022432e+09 -2.182432e+09 5.618403e-01 -7.577210e-01 -5.853565e+00
-1.938619e+09 -1.738618e+09 -1.898618e+09 1.563353e+01 3.420308e+00 -6.664157e+00
-2.178988e+09 -1.978987e+09 -2.138987e+09 9.124111e+00 -1.605281e+00 1.673062e+00
-1.855996e+09 -1.655995e+09 -1.815996e+09 2.201963e+01 5.571973e+00 -6.990526e+00
-2.741013e+09 -2.541012e+09 -2.701012e+09 2.518419e+01 2.828898e+00 -9.280015e+00
-2.921210e+09 -2.721209e+09 -2.881209e+09 7.969518e-01 -7.246204e-01 -6.738976e+00
-3.125087e+09 -2.925086e+09 -3.085086e+09 7.108628e+00 -8.238837e+00 -5.362669e+00
-2.865550e+09 -2.665549e+09 -2.825550e+09 2.620759e+01 -3.301800e+02 -3.212281e+01
-2.695065e+09 -2.495063e+09 -2.655065e+09 -6.293754e+01 -3.861918e+02 -1.145641e+02
-4.072999e+09 -3.872998e+09 -4.033000e+09 2.033559e+02 -1.861165e+02 -8.138180e+01
-3.728447e+09 -3.528446e+09 -3.688447e+09 -4.586787e+01 -3.354807e+02 -3.113280e+02
-2.792937e+09 -2.592940e+09 -2.752939e+09 -2.849922e+02 1.441225e+02 6.107947e+01
-2.024619e+09 -1.824619e+09 -1.984620e+09 -3.469902e+02 7.854879e+01 -4.138824e+01
-2.742381e+09 -2.542385e+09 -2.702384e+09 -2.194708e+02 6.114554e+01 6.992632e+01
-2.565137e+09 -2.365141e+09 -2.525140e+09 -6.342927e+02 -3.703260e+01 3.531027e+02
-2.147099e+09 -1.947101e+09 -2.107101e+09 -6.559065e+01 9.106841e+01 1.587950e+01
-1.899426e+09 -1.699428e+09 -1.859428e+09 -6.637175e+01 1.146489e+02 9.268378e+01
-4.652004e+09 -4.452004e+09 -4.612003e+09 5.077279e+02 -1.119925e+01 2.195880e+01
-4.144477e+09 -3.944478e+09 -4.104476e+09 2.191607e+02 -3.952454e+00 -1.866630e+00
-4.100111e+09 -3.900112e+09 -4.060110e+09 3.384828e+02 3.609544e+01 2.078675e+01
-3.955025e+09 -3.755026e+09 -3.915025e+09 4.266853e+02 5.983636e+01 -2.481282e+01
-2.653819e+09 -2.453818e+09 -2.613818e+09 1.299550e+02 1.287804e+02 -4.390997e+01
-2.588134e+09 -2.388134e+09 -2.548133e+09 2.556454e+02 1.470572e+02 -1.504438e+00
-3.052206e+09 -2.852205e+09 -3.012205e+09 1.490598e+02 9.244765e+01 -3.114083e+00
-3.061876e+09 -2.861876e+09 -3.021875e+09 1.657407e+02 6.180285e+01 6.200698e+00
-1.937347e+09 -1.737346e+09 -1.897346e+09 1.417837e+02 1.781239e+02 -2.037641e+01
-2.184958e+09 -1.984958e+09 -2.144957e+09 1.684510e+02 1.594157e+02 -3.876902e+00
-2.660831e+09 -2.460831e+09 -2.620830e+09 -8.555100e+01 3.999463e+01 -5.842162e+01
-2.214626e+09 -2.014627e+09 -2.174626e+09 -6.856937e+01 -1.267249e+01 -4.188566e+01
-2.598290e+09 -2.398291e+09 -2.558290e+09 -3.774483e+02 1.129917e+02 -2.020980e+01
-2.096925e+09 -1.896926e+09 -2.056925e+09 -2.415449e+02 5.105189e+00 -4.292104e+01
-1.787007e+09 -1.587008e+09 -1.747006e+09 -2.664017e+02 -2.685758e+01 -5.388759e+01
-1.867230e+09 -1.667231e+09 -1.827230e+09 -1.066920e+02 -7.327886e+00 -6.922039e+01
-2.135276e+09 -1.935277e+09 -2.095276e+09 -1.617192e+02 4.541592e+01 -4.305575e+01
-2.662563e+09 -2.462563e+09 -2.622562e+09 -2.208633e+02 -4.677205e-02 -1.155082e+01
-3.710588e+09 -3.510588e+09 -3.670588e+09 -9.237643e+01 -2.021150e+00 -4.574289e+01
-4.187111e+09 -3.987111e+09 -4.147111e+09 -7.928447e+01 -7.552192e+00 -4.625509e+00
-3.730042e+09 -3.530042e+09 -3.690042e+09 -7.036881e+01 -1.275183e+01 -3.059408e+01
-4.811062e+09 -4.611062e+09 -4.771063e+09 -1.508912e+03 3.570349e+02 1.872905e+02
-4.297087e+09 -4.097088e+09 -4.257088e+09 -1.501243e+03 4.253248e+02 2.605401e+02
-4.124596e+09 -3.924596e+09 -4.084597e+09 -1.535037e+03 4.580755e+02 3.205547e+02
-4.139449e+09 -3.939451e+09 -4.099451e+09 -1.560005e+03 7.832752e+02 3.621475e+02
-4.303488e+09 -4.103484e+09 -4.263486e+09 9.345818e+02 -3.075136e+01 1.867954e+02
-4.140534e+09 -3.940536e+09 -4.100537e+09 -1.467999e+03 8.816299e+02 3.508310e+02
-3.847720e+09 -3.647721e+09 -3.807720e+09 -1.795783e+02 -3.645110e+01 -5.713761e+01
-4.092848e+09 -3.892849e+09 -4.052848e+09 -3.247576e+02 -1.390742e+01 1.043572e+01
-4.250755e+09 -4.050756e+09 -4.210755e+09 -1.573883e+02 7.464491e+01 6.997290e+00
-3.799704e+09 -3.599705e+09 -3.759704e+09 -2.956674e+02 -1.875242e+01 -3.717338e+01
-3.751366e+09 -3.551367e+09 -3.711366e+09 -2.140243e+02 -2.225788e+01 -3.219162e+01
-3.347591e+09 -3.147592e+09 -3.307591e+09 -1.428783e+02 1.237650e+02 -1.855103e+01
-4.501430e+09 -4.301431e+09 -4.461430e+09 2.416824e+02 -4.690395e+01 -3.523097e+00
-4.437081e+09 -4.237081e+09 -4.397081e+09 -1.172736e+01 -1.430870e+01 -4.062506e+00
-4.708922e+09 -4.508923e+09 -4.668922e+09 1.070277e+02 -7.963856e+01 9.788443e+00
-4.316194e+09 -4.116193e+09 -4.276194e+09 2.431020e+02 -9.612265e+00 -5.294281e+01
-4.832725e+09 -4.632724e+09 -4.792724e+09 2.377460e+02 8.466196e+00 5.405425e+00
-4.146259e+09 -3.946259e+09 -4.106259e+09 2.516099e+02 8.154410e+00 -3.983297e+01
-2.784901e+09 -2.584901e+09 -2.744901e+09 3.904894e+01 1.108888e+01 -1.252452e+00
-3.753204e+09 -3.553204e+09 -3.713204e+09 4.861998e+01 1.226201e+01 2.393094e+00
-3.017434e+09 -2.817434e+09 -2.977434e+09 4.987072e+01 1.358714e+01 -1.753619e+01
-3.766923e+09 -3.566923e+09 -3.726923e+09 1.061208e+02 1.019848e+01 2.167577e+01
-3.430658e+09 -3.230658e+09 -3.390658e+09 1.088666e+02 -4.758803e+00 5.480076e+00
-4.345972e+09 -4.145966e+09 -4.305976e+09 -1.909112e+02 -1.723906e+03 -8.181676e+02
-4.137942e+09 -3.937939e+09 -4.097947e+09 -8.857963e+02 -1.996850e+03 -5.434755e+02
-4.639298e+09 -4.439296e+09 -4.599303e+09 -8.087123e+02 -6.487660e+02 -1.420225e+02
-4.837379e+09 -4.637380e+09 -4.797380e+09 3.706892e+02 -1.749232e+01 -8.972361e+01
-4.140843e+09 -3.940844e+09 -4.100844e+09 3.149454e+02 -1.211067e+01 -1.470132e+02
-4.150914e+09 -3.950915e+09 -4.110915e+09 3.825468e+02 2.098116e+01 1.030728e+01
-4.827309e+09 -4.627310e+09 -4.787309e+09 3.131070e+02 1.138909e+01 4.119907e+01
-4.016331e+09 -3.816330e+09 -3.976330e+09 1.684069e+01 6.068694e+00 -1.171105e+01
-4.432100e+09 -4.232100e+09 -4.392100e+09 1.412867e+01 1.638345e+00 -2.629648e+00
-4.662391e+09 -4.462390e+09 -4.622390e+09 4.343271e+00 1.460059e-01 2.572225e+00
-4.328430e+09 -4.128429e+09 -4.288431e+09 -7.614153e+02 -5.032536e+02 -2.073046e+02
-2.739237e+09 -2.539237e+09 -2.699237e+09 4.636098e+01 8.556358e+00 -8.841425e-01
-3.223611e+09 -3.023612e+09 -3.183612e+09 6.861684e+01 1.083869e+01 3.824793e+01
-4.102175e+09 -3.902176e+09 -4.062176e+09 -1.115324e+02 -8.209299e+00 -1.639797e+02
-4.610680e+09 -4.410681e+09 -4.570681e+09 -1.175272e+02 1.975684e+01 -3.279913e+01
-4.796639e+09 -4.596640e+09 -4.756640e+09 1.320408e+02 -8.095362e+00 -1.908920e+01
-4.788640e+09 -4.588642e+09 -4.748641e+09 -1.216292e+02 1.666044e+01 3.831641e+01
-4.161109e+09 -3.961112e+09 -4.121111e+09 -3.133661e+02 -4.165545e+02 -6.584867e+01
-3.948870e+09 -3.748873e+09 -3.908872e+09 -6.250471e+02 -5.468067e+02 -9.327164e+00
-4.156805e+09 -3.956808e+09 -4.116806e+09 -3.127046e+02 -7.161863e+01 -9.123105e+01
-4.464182e+09 -4.264185e+09 -4.424183e+09 -2.921475e+02 -1.468505e+02 -2.415323e+01
-3.609259e+09 -3.409263e+09 -3.569261e+09 -2.590298e+02 -3.832061e+02 -2.577403e+01
-3.985197e+09 -3.785197e+09 -3.945199e+09 -1.023873e+03 -9.184116e+02 -3.457928e+02
-3.460991e+09 -3.260994e+09 -3.420992e+09 -4.907632e+02 -4.459713e+02 -1.500487e+02
-2.909663e+09 -2.709662e+09 -2.869663e+09 -6.376880e+01 -1.827680e+01 -3.187464e+01
-2.010372e+09 -1.810371e+09 -1.970372e+09 -1.353815e+02 -2.921433e+01 -3.522380e+01
-2.318971e+09 -2.118971e+09 -2.278971e+09 -1.357678e+02 -1.599417e+01 -2.404996e+01
-2.702368e+09 -2.502367e+09 -2.662367e+09 -7.341641e+01 -9.278448e+00 -2.067191e+01
-2.852416e+09 -2.652415e+09 -2.812415e+09 -1.423607e+02 -2.055707e+01 -2.453111e+01
-2.225247e+09 -2.025246e+09 -2.185246e+09 -4.141503e+01 -9.031574e+00 -2.596748e+01
-1.921266e+09 -1.721265e+09 -1.881265e+09 -7.940174e+01 -1.824177e+01 -3.959915e+01
-3.973639e+09 -3.773640e+09 -3.933640e+09 8.883215e+02 -5.506867e+02 3.767613e+02
-3.570029e+09 -3.370030e+09 -3.530029e+09 -6.559538e+02 -3.072511e+02 -1.398557e+02
-2.150339e+09 -1.950340e+09 -2.110339e+09 -3.555819e+02 -2.708423e+02 -7.445434e+01
-1.926561e+09 -1.726562e+09 -1.886561e+09 -6.755684e+02 -3.493182e+02 -1.304267e+02
-2.426586e+09 -2.226590e+09 -2.386589e+09 2.305209e+01 4.269908e+01 5.778543e+01
-1.636316e+09 -1.436319e+09 -1.596319e+09 1.600164e+01 9.579133e+01 1.341837e+02
-4.828395e+09 -4.628398e+09 -4.788397e+09 1.083731e+03 5.286740e+02 -9.533552e+01
-4.661469e+09 -4.461472e+09 -4.621471e+09 8.691834e+02 2.869971e+02 -6.753348e+01
-4.141929e+09 -3.941932e+09 -4.101931e+09 1.094851e+03 3.789082e+02 -8.013607e+01
-4.626321e+09 -4.426322e+09 -4.586322e+09 -6.342756e+02 -1.298322e+02 2.078425e+02
-4.707879e+09 -4.507881e+09 -4.667881e+09 -3.645898e+02 -4.446249e+01 1.991414e+02
-4.805280e+09 -4.605281e+09 -4.765281e+09 -5.400729e+02 -2.354755e+01 1.874639e+02
-3.744298e+09 -3.544301e+09 -3.704301e+09 -2.509893e+02 -3.953326e+01 -9.920143e+00
-4.981736e+09 -4.781738e+09 -4.941737e+09 -4.756616e+02 -9.292337e+01 9.787666e+00
-4.637675e+09 -4.437673e+09 -4.597679e+09 -5.086981e+02 -2.637366e+01 4.746503e+02
-4.130641e+09 -3.930639e+09 -4.090644e+09 -1.330573e+02 -8.098070e+02 8.297065e+02
-4.811149e+09 -4.611147e+09 -4.771151e+09 -1.408864e+02 -3.785496e+02 4.475261e+02
-4.817107e+09 -4.617105e+09 -4.777110e+09 -2.143884e+02 -7.700172e+02 7.268513e+02
-4.833325e+09 -4.633320e+09 -4.793311e+09 -3.048966e+03 -2.063002e+03 1.313143e+03
-4.304544e+09 -4.104540e+09 -4.264517e+09 -1.646769e+03 -1.679393e+03 3.195329e+03
-4.140181e+09 -3.940178e+09 -4.100156e+09 -1.160095e+03 -2.078588e+03 4.432468e+03
-4.146861e+09 -3.946854e+09 -4.106848e+09 -3.079953e+03 -3.446400e+03 5.411105e+02
-4.787471e+09 -4.587469e+09 -4.747470e+09 -1.546675e+02 -7.319627e+01 -8.623854e+01
-3.954060e+09 -3.754059e+09 -3.914059e+09 2.665615e+02 1.967523e+01 -6.847462e+01
-4.781695e+09 -4.581692e+09 -4.741694e+09 5.280672e+01 -8.867672e+01 -1.124994e+02
-3.892247e+09 -3.692249e+09 -3.852248e+09 5.933590e+02 -4.656948e+02 1.257807e+02
-4.782424e+09 -4.582423e+09 -4.742423e+09 1.965496e+02 -8.091058e+01 -9.190675e+01
-4.252811e+09 -4.052810e+09 -4.212810e+09 5.745630e+01 -7.022731e+00 4.998221e+00
-3.860834e+09 -3.660837e+09 -3.820835e+09 2.463643e+02 -7.811824e+01 4.473814e+01
-3.821104e+09 -3.621106e+09 -3.781105e+09 2.597034e+02 -6.946955e+01 7.249274e+01
-2.752283e+09 -2.552286e+09 -2.712284e+09 4.877295e+02 -3.810755e+02 7.738391e+01
-4.460477e+09 -4.260480e+09 -4.420479e+09 4.684328e+02 -4.356367e+02 1.061830e+02
-3.027185e+09 -2.827188e+09 -2.987186e+09 2.949288e+02 -3.108319e+02 3.943530e+01
-3.799775e+09 -3.599778e+09 -3.759776e+09 4.852149e+02 -2.205029e+02 1.009430e+02
-3.309063e+09 -3.109063e+09 -3.269062e+09 6.178398e+02 6.035850e+01 -2.200847e+01
-3.218650e+09 -3.018650e+09 -3.178649e+09 4.332384e+02 6.482226e+01 -3.324139e+00
-4.054835e+09 -3.854838e+09 -4.014837e+09 3.811106e+02 -3.022635e+02 9.306551e+01
-3.216250e+09 -3.016251e+09 -3.176249e+09 6.219110e+02 6.245717e+01 2.423837e+01
-2.891197e+09 -2.691197e+09 -2.851196e+09 1.997667e+02 6.219738e+01 8.401493e-01
-2.374589e+09 -2.174589e+09 -2.334588e+09 7.249976e+02 9.779653e+01 -3.939263e+01
-2.975246e+09 -2.775246e+09 -2.935245e+09 7.143580e+02 1.484308e+02 -7.171437e+01
-4.823138e+09 -4.623139e+09 -4.783139e+09 4.079922e+02 -1.769932e+01 -1.440337e+02
-4.636774e+09 -4.436776e+09 -4.596775e+09 5.672768e+02 -8.000326e+00 -9.831022e+01
-4.807827e+09 -4.607827e+09 -4.767827e+09 6.167328e+02 8.981450e+00 1.415857e+01
-4.638992e+09 -4.438992e+09 -4.598992e+09 6.950893e+02 1.453071e+01 -4.088736e+01
-4.121361e+09 -3.921361e+09 -4.081361e+09 6.241191e+02 -2.919425e+01 -1.660002e+02
-4.288315e+09 -4.088315e+09 -4.248315e+09 5.947988e+02 -6.067248e+01 -2.142279e+02
-3.142087e+09 -2.942088e+09 -3.102088e+09 -3.335395e+01 -9.164256e+00 1.642373e+00
-4.028797e+09 -3.828797e+09 -3.988797e+09 -1.532012e+01 -8.945942e+00 -8.564534e+00
-2.628970e+09 -2.428971e+09 -2.588971e+09 -1.479431e+02 -1.533762e+01 -1.423837e+01
-2.089837e+09 -1.889837e+09 -2.049837e+09 -6.305360e+01 -9.693562e+00 -3.089276e+00
-1.681378e+09 -1.481378e+09 -1.641378e+09 -5.505408e+01 -2.131896e+01 4.372262e+00
-2.533107e+09 -2.333108e+09 -2.493108e+09 -9.498673e+01 -1.937335e+01 -6.136176e-01
-2.642579e+09 -2.442579e+09 -2.602579e+09 -2.464038e+01 -9.513423e+00 -1.900496e+01
-1.929050e+09 -1.729051e+09 -1.889051e+09 -2.874834e+01 -1.328494e+01 1.361647e+01
-4.414488e+09 -4.214487e+09 -4.374487e+09 -2.189332e+01 -3.046763e+00 -6.294020e+00
-3.938623e+09 -3.738622e+09 -3.898623e+09 -6.553089e+01 -3.954245e+00 -1.269460e+01
-4.181884e+09 -3.981883e+09 -4.141884e+09 -7.519062e+01 -3.704287e+00 -3.138744e+00
-3.841591e+09 -3.641591e+09 -3.801591e+09 -7.451204e+01 -7.125688e+00 -9.940548e+00
-4.113677e+09 -3.913676e+09 -4.073676e+09 -7.477625e+01 -4.911950e+00 -5.949758e+00
-4.803579e+09 -4.603581e+09 -4.763580e+09 1.084636e+02 -3.217522e-01 -1.136674e+02
-4.111276e+09 -3.911278e+09 -4.071277e+09 3.624681e+01 3.838862e+01 -1.260306e+02
-4.618381e+09 -4.418382e+09 -4.578381e+09 -5.559191e+01 3.852674e+01 -1.260960e+02
-4.823898e+09 -4.623900e+09 -4.783899e+09 -2.518023e+02 1.733736e+01 9.255939e+01
-4.137433e+09 -3.937435e+09 -4.097434e+09 -2.603766e+02 8.607682e+00 -2.959486e+02
-4.644537e+09 -4.444539e+09 -4.604538e+09 -2.458168e+02 1.277325e+01 -7.926613e+01
-4.275837e+09 -4.075838e+09 -4.235838e+09 1.134788e+02 1.610855e+00 -9.602156e+00
-4.832086e+09 -4.632087e+09 -4.792087e+09 1.364432e+02 1.225022e+01 -1.723842e+01
-4.820598e+09 -4.620597e+09 -4.780601e+09 -1.334871e+01 -2.684275e+02 1.051895e+02
-4.297437e+09 -4.097434e+09 -4.257442e+09 -8.298300e+02 -1.961242e+03 1.008745e+03
-4.126596e+09 -3.926593e+09 -4.086600e+09 6.886605e+00 -1.655278e+03 1.651481e+03
-4.625427e+09 -4.425425e+09 -4.585430e+09 -9.789972e+02 -4.506773e+01 4.397555e+02
-3.756400e+09 -3.556402e+09 -3.716400e+09 -1.079834e+02 7.293333e+01 -1.829221e+01
-4.078830e+09 -3.878832e+09 -4.038830e+09 -1.709878e+02 -1.601547e+01 -1.073779e+01
-3.969275e+09 -3.769278e+09 -3.929276e+09 -1.948782e+02 2.562536e+01 -1.810338e-01
-4.851944e+09 -4.651943e+09 -4.811943e+09 8.133619e+01 -7.694617e+00 -1.579755e+01
-4.511158e+09 -4.311157e+09 -4.471157e+09 8.343006e+01 3.736218e+00 -8.917052e+00
-4.150833e+09 -3.950833e+09 -4.110833e+09 4.629866e+01 7.154910e+00 -2.279691e+01
-4.634820e+09 -4.434819e+09 -4.594819e+09 1.090476e+01 -6.826639e+00 -1.110918e+01
-4.113885e+09 -3.913884e+09 -4.073884e+09 4.542123e+01 1.608146e+01 -1.733195e+00
-4.631726e+09 -4.431728e+09 -4.591727e+09 -3.473211e+02 1.305836e+01 -1.363066e+01
-4.114809e+09 -3.914810e+09 -4.074809e+09 -3.582057e+02 9.893882e+00 -1.658434e+02
-4.285350e+09 -4.085352e+09 -4.245351e+09 -3.681092e+02 1.658837e+00 -1.035443e+02
-4.801274e+09 -4.601275e+09 -4.761275e+09 -3.618085e+02 6.404758e-01 7.011052e+01
-4.808226e+09 -4.608225e+09 -4.768225e+09 -4.389372e+02 5.021252e+01 3.880054e+01
-4.131269e+09 -3.931268e+09 -4.091268e+09 -7.744078e+02 7.972751e+01 1.715064e+01
-4.121760e+09 -3.921760e+09 -4.081760e+09 -4.244682e+02 -9.848347e+00 -2.473285e+01
-4.278613e+09 -4.078612e+09 -4.238612e+09 -3.296220e+02 7.140421e+01 4.966250e+01
-4.319673e+09 -4.119673e+09 -4.279673e+09 -9.653387e+02 1.353849e+02 6.937666e+01
-4.817801e+09 -4.617800e+09 -4.777800e+09 -6.653879e+02 3.972655e+01 2.286564e+01
-4.131335e+09 -3.931335e+09 -4.091335e+09 -6.609410e+02 3.104213e+01 8.312699e+00
-4.150608e+09 -3.950608e+09 -4.110608e+09 -9.102137e+02 1.321704e+02 5.230671e+01
-4.828289e+09 -4.628290e+09 -4.788289e+09 -7.955621e+02 -4.983498e+01 4.562782e+00
-4.308021e+09 -4.108021e+09 -4.268020e+09 -8.441241e+02 1.068549e+02 8.046497e+01
-4.618678e+09 -4.418680e+09 -4.578679e+09 8.962384e+01 4.635985e-01 -1.332913e+01
-4.986013e+09 -4.786014e+09 -4.946014e+09 4.376051e+01 1.626906e+01 7.287561e+00
-4.816465e+09 -4.616466e+09 -4.776466e+09 -1.869649e+02 -5.570612e+00 5.699320e+01
-4.106537e+09 -3.906539e+09 -4.066538e+09 -3.739104e+01 1.242498e+01 3.092987e+01
-4.970963e+09 -4.770965e+09 -4.930964e+09 -4.137681e+01 -3.467484e+00 -1.090491e+01
-3.951952e+09 -3.751954e+09 -3.911953e+09 -1.912663e+02 1.625696e+01 -9.673553e+01
-4.130000e+09 -3.930001e+09 -4.090001e+09 -1.807289e+02 1.541909e+00 -9.124395e+01
-4.627537e+09 -4.427536e+09 -4.587536e+09 -2.732424e+02 -1.988346e+01 -1.526151e+01
-4.652586e+09 -4.452585e+09 -4.612585e+09 -1.486900e+02 -1.341105e+01 -1.060328e+01
-4.138547e+09 -3.938546e+09 -4.098547e+09 -2.244560e+02 -1.827386e+01 -4.231519e+01
-4.649744e+09 -4.449744e+09 -4.609744e+09 -2.561058e+02 -1.215728e+01 -1.431430e+01
-2.860617e+09 -2.660620e+09 -2.820617e+09 2.527475e+02 2.370598e+01 3.498052e+01
-3.128785e+09 -2.928788e+09 -3.088785e+09 3.022630e+02 4.152484e+01 2.986493e+00
-2.275986e+09 -2.075989e+09 -2.235986e+09 2.275458e+02 2.652504e+01 2.228849e+00
-2.986579e+09 -2.786582e+09 -2.946579e+09 5.794439e+01 6.283448e+01 -3.808139e+00
-3.098927e+09 -2.898931e+09 -3.058928e+09 2.105027e+02 -3.327070e+02 6.076741e+01
-3.358782e+09 -3.158785e+09 -3.318782e+09 2.520977e+02 1.221282e+02 -2.324917e+01
-4.296027e+09 -4.096027e+09 -4.256030e+09 5.340642e+02 -1.118411e+03 5.453006e+02
-4.995983e+09 -4.795982e+09 -4.955986e+09 3.911265e+02 -4.078881e+02 2.975732e+02
-4.643156e+09 -4.443155e+09 -4.603159e+09 5.032106e+01 -3.209988e+02 3.745034e+02
-4.822943e+09 -4.622943e+09 -4.782948e+09 3.745594e+02 -6.267254e+02 3.876250e+02
-4.308227e+09 -4.108226e+09 -4.268231e+09 2.260627e+02 -1.527800e+03 8.172144e+02
-4.988590e+09 -4.788588e+09 -4.948593e+09 -1.556153e+02 -5.523710e+02 2.625173e+02
-4.134133e+09 -3.934132e+09 -4.094136e+09 2.772513e+02 -1.207764e+03 1.165145e+03
-4.136478e+09 -3.936477e+09 -4.096482e+09 4.287276e+02 -1.438897e+03 7.015225e+02
-1.849698e+09 -1.649699e+09 -1.809699e+09 5.133078e+01 4.791932e+00 -1.860841e+00
-1.814175e+09 -1.614175e+09 -1.774175e+09 4.221562e+01 8.110414e+00 1.450574e+01
-3.441754e+09 -3.241755e+09 -3.401755e+09 4.633815e+01 1.560827e+01 1.330902e+01
-2.746860e+09 -2.546861e+09 -2.706860e+09 8.066831e+00 9.478768e+00 -4.927972e+00
-1.855539e+09 -1.655539e+09 -1.815539e+09 2.629995e+01 1.190087e+01 -1.538614e+01
-3.724988e+09 -3.524990e+09 -3.684988e+09 3.954517e+02 8.597615e+01 1.007896e+01
-2.845176e+09 -2.645179e+09 -2.805177e+09 3.507888e+02 7.179416e+01 3.465131e+01
-3.570606e+09 -3.370608e+09 -3.530606e+09 2.794336e+02 2.442405e+01 -1.315794e+01
-2.743159e+09 -2.543162e+09 -2.703160e+09 3.412074e+01 5.125102e+01 -5.528652e+00
-4.817286e+09 -4.617285e+09 -4.777287e+09 2.376806e+02 -6.007350e+01 3.504131e+01
-4.823016e+09 -4.623014e+09 -4.783015e+09 -3.292613e+02 -6.413110e+01 1.443831e+02
-4.114152e+09 -3.914150e+09 -4.074152e+09 -3.765843e+02 -2.126111e+02 4.170831e+02
-4.096935e+09 -3.896933e+09 -4.056936e+09 -1.071830e+02 -4.850415e+02 6.746534e+02
-4.590481e+09 -4.390479e+09 -4.550481e+09 -3.283535e+02 -1.285943e+02 1.740296e+02
-4.845278e+09 -4.645282e+09 -4.805280e+09 1.132783e+03 1.024256e+02 6.399241e+02
-4.435424e+09 -4.235423e+09 -4.395423e+09 1.738850e+01 1.026965e+00 -6.134112e+00
-4.478166e+09 -4.278170e+09 -4.438168e+09 1.235836e+03 5.807063e+01 4.191260e+02
-4.119802e+09 -3.919807e+09 -4.079802e+09 8.658393e+02 5.093140e+02 1.241769e+03
-4.297507e+09 -4.097512e+09 -4.257506e+09 1.318774e+03 4.204019e+02 1.449772e+03
-4.828209e+09 -4.628213e+09 -4.788210e+09 1.747924e+03 1.499201e+02 -4.975872e+02
-4.662680e+09 -4.462684e+09 -4.622680e+09 2.054681e+03 1.858124e+02 6.260547e+02
-4.445806e+09 -4.245806e+09 -4.405806e+09 -1.852533e+02 8.566435e-02 4.202313e+00
-4.300949e+09 -4.100949e+09 -4.260949e+09 -2.872156e+02 -1.311892e+01 -2.351050e+01
-1.861310e+09 -1.661313e+09 -1.821311e+09 -2.473771e+02 1.923806e+01 -4.288076e+01
-4.642471e+09 -4.442472e+09 -4.602472e+09 -2.287110e+02 -8.881713e-01 1.949282e+00
-4.143344e+09 -3.943345e+09 -4.103345e+09 -2.698011e+02 -1.579373e+01 3.368222e+01
-4.102573e+09 -3.902574e+09 -4.062574e+09 -1.581215e+02 -8.525689e+00 3.259112e+01
-4.653487e+09 -4.453488e+09 -4.613488e+09 -3.208575e+02 3.567845e-01 2.047509e+01
-4.628493e+09 -4.428495e+09 -4.588494e+09 -6.220557e+02 4.461352e+01 -1.968958e+01
-4.822551e+09 -4.622551e+09 -4.782551e+09 -9.116462e+02 -2.726353e+01 7.354334e+01
-4.606634e+09 -4.406635e+09 -4.566634e+09 -6.665644e+02 2.359312e+01 -6.300386e+00
-4.980545e+09 -4.780546e+09 -4.940546e+09 -8.377321e+02 2.475927e+01 -8.831652e+01
-4.159042e+09 -3.959045e+09 -4.119043e+09 -2.420004e+02 9.272549e+01 -1.132594e+01
-3.974441e+09 -3.774445e+09 -3.934442e+09 -2.400818e+02 2.099008e+02 -9.231471e+00
-4.832952e+09 -4.632955e+09 -4.792953e+09 -2.661960e+02 1.030848e+02 7.175781e+00
-4.673117e+09 -4.473121e+09 -4.633118e+09 -2.383862e+02 6.904436e+01 -3.007124e+01
-4.846878e+09 -4.646881e+09 -4.806879e+09 8.628134e+01 -3.816183e+01 -8.198885e+00
-4.609097e+09 -4.409100e+09 -4.569098e+09 -2.690885e+01 8.503998e+01 -2.009052e+01
-4.265864e+09 -4.065868e+09 -4.225865e+09 -3.743211e+01 2.987066e+00 1.424266e+01
-5.008921e+09 -4.808924e+09 -4.968921e+09 -2.577157e+02 1.837282e+01 1.471047e+01
-3.706055e+09 -3.506055e+09 -3.666055e+09 -1.552216e+02 -1.243644e+01 1.566396e+01
-4.194704e+09 -3.994704e+09 -4.154704e+09 -1.955834e+02 -3.108948e+00 -4.099579e+00
-3.303746e+09 -3.103747e+09 -3.263747e+09 -1.760531e+02 -7.151736e+00 5.745640e+00
-2.553609e+09 -2.353613e+09 -2.513610e+09 2.405978e+01 -1.511310e+02 1.081998e+01
-4.457024e+09 -4.257015e+09 -4.417022e+09 6.144655e+02 1.754515e+03 -1.347459e+02
-4.134278e+09 -3.934274e+09 -4.094276e+09 6.296140e+02 -5.723220e+02 1.141309e+03
-4.630185e+09 -4.430180e+09 -4.590187e+09 1.130159e+03 1.014859e+03 -1.897194e+02
-4.813391e+09 -4.613385e+09 -4.773390e+09 1.230223e+03 8.882737e+02 -7.027544e+02
-4.462565e+09 -4.262561e+09 -4.422558e+09 2.147798e+03 2.877190e+03 1.836985e+02
-2.157719e+09 -1.957724e+09 -2.117720e+09 -1.827054e+02 -1.534258e+03 2.084441e+01
-2.644445e+09 -2.444450e+09 -2.604447e+09 6.648821e+01 -3.894716e+02 8.077647e+01
-1.778079e+09 -1.578084e+09 -1.738081e+09 -6.943135e+01 -6.814881e+02 7.102162e+00
-1.877126e+09 -1.677130e+09 -1.837127e+09 -7.087328e+00 -3.827828e+02 3.062260e+01
-2.752728e+09 -2.552733e+09 -2.712730e+09 -2.725384e+02 -6.428811e+02 2.604944e+01
-2.118300e+09 -1.918304e+09 -2.078301e+09 -2.855424e+02 -8.031413e+02 -4.165897e+01
-2.618610e+09 -2.418615e+09 -2.578612e+09 -9.911461e+01 -5.760004e+02 -3.180496e+00
-2.928881e+09 -2.728884e+09 -2.888881e+09 2.862432e+02 8.824107e+01 -1.479984e+01
-2.875522e+09 -2.675525e+09 -2.835523e+09 8.459154e+01 3.566587e+01 2.713108e+01
-2.762413e+09 -2.562416e+09 -2.722414e+09 5.629784e+01 5.239027e+00 1.228433e+01
-3.006483e+09 -2.806485e+09 -2.966483e+09 3.024467e+01 -1.640747e+01 1.264567e+01
-1.681821e+09 -1.481823e+09 -1.641821e+09 1.002549e+02 -3.744879e+00 1.494545e+01
-1.929503e+09 -1.729506e+09 -1.889503e+09 8.405382e+01 -1.600862e+01 9.849440e+00
-4.131609e+09 -3.931610e+09 -4.091610e+09 3.053930e+02 -1.125165e+01 -4.260628e+01
-4.650723e+09 -4.450723e+09 -4.610723e+09 2.973295e+02 1.291853e+01 7.413298e+00
-4.818075e+09 -4.618075e+09 -4.778075e+09 3.089712e+02 2.349768e+01 2.167829e+01
-3.967161e+09 -3.767162e+09 -3.927162e+09 -1.106642e+01 -8.746811e+00 5.805816e+00
-3.459109e+09 -3.259110e+09 -3.419110e+09 -2.380531e+01 -5.048425e+00 1.406914e+01
-3.532378e+09 -3.332378e+09 -3.492378e+09 -8.153303e+01 -9.209919e+00 2.869882e+00
-3.079756e+09 -2.879757e+09 -3.039757e+09 -2.273716e+01 -5.243903e+00 -7.515858e+00
-2.898623e+09 -2.698624e+09 -2.858624e+09 -3.496642e+01 -2.016555e+00 -2.636686e+00
-2.370013e+09 -2.170016e+09 -2.330013e+09 -3.675174e+01 -1.183981e+01 -1.938385e+01
-2.856342e+09 -2.656344e+09 -2.816342e+09 -7.384512e+01 -3.856607e+01 -5.224721e+01
-3.378966e+09 -3.178969e+09 -3.338966e+09 -2.667349e+02 4.224593e+01 -8.025439e+00
-1.860455e+09 -1.660458e+09 -1.820455e+09 -3.087569e+02 9.725420e+01 -3.075792e+01
-2.870478e+09 -2.670480e+09 -2.830478e+09 -1.583147e+02 2.073574e+01 -2.429601e+01
-3.071024e+09 -2.871026e+09 -3.031024e+09 -1.288507e+02 4.760516e+00 -3.833153e+01
-1.896244e+09 -1.696247e+09 -1.856245e+09 -1.236442e+02 -4.968252e+00 -5.503854e+01
-2.118928e+09 -1.918931e+09 -2.078929e+09 -1.225380e+02 3.328678e+01 -2.107603e+01
-2.162552e+09 -1.962555e+09 -2.122553e+09 -1.047175e+02 1.525298e+01 -3.784740e+01
-2.611003e+09 -2.411005e+09 -2.571003e+09 -6.795013e+01 -5.362387e+01 -4.715093e+01
-4.131649e+09 -3.931643e+09 -4.091648e+09 -1.132500e+03 -2.651428e+02 -8.205416e+02
-4.282413e+09 -4.082407e+09 -4.242414e+09 -4.808067e+02 2.980298e+02 -9.795744e+02
-4.643264e+09 -4.443265e+09 -4.603269e+09 3.755456e+02 -6.207688e+02 1.823242e+02
-4.651541e+09 -4.451543e+09 -4.611544e+09 4.763670e+02 -4.592353e+02 1.732197e+02
-4.129838e+09 -3.929840e+09 -4.089842e+09 5.373569e+02 -1.437118e+03 3.470938e+02
-4.816304e+09 -4.616305e+09 -4.776308e+09 4.417174e+02 -4.841721e+02 2.272888e+02
-4.031777e+09 -3.831777e+09 -3.991777e+09 -3.610738e+01 -2.925176e+01 -4.141484e+01
-4.571495e+09 -4.371494e+09 -4.531494e+09 2.077143e+01 -1.234542e+01 -1.756731e+01
-4.146961e+09 -3.946960e+09 -4.106960e+09 -4.361825e+01 -1.260418e+01 -5.422523e+00
-4.814006e+09 -4.614005e+09 -4.774006e+09 -1.039955e+02 -1.391729e+01 2.398030e+01
-4.292431e+09 -4.092430e+09 -4.252430e+09 -1.663408e+02 -4.419054e+01 1.094273e+01
-4.762052e+09 -4.562044e+09 -4.722058e+09 1.359845e+03 -8.547996e+02 -5.890116e+02
-4.146457e+09 -3.946454e+09 -4.106443e+09 2.558615e+03 -2.825279e+03 -5.244285e+03
-4.844635e+09 -4.644635e+09 -4.804638e+09 -9.704593e+02 -3.802852e+02 -2.697783e+02
-4.631700e+09 -4.431696e+09 -4.591695e+09 2.035838e+03 -1.278259e+03 6.688040e+02
-3.097924e+09 -2.897925e+09 -3.057924e+09 -1.470141e+02 -2.414648e+01 -4.834908e+01
-2.724536e+09 -2.524536e+09 -2.684535e+09 -1.617327e+02 4.257895e+01 -5.793991e+01
-1.761850e+09 -1.561850e+09 -1.721849e+09 -1.864600e+02 1.710184e+01 -3.916021e+01
-2.849360e+09 -2.649360e+09 -2.809359e+09 -2.209773e+02 -1.479209e+01 -2.279920e+01
-3.012423e+09 -2.812424e+09 -2.972423e+09 -5.556209e+00 1.201577e+00 -4.075650e+01
-1.917716e+09 -1.717717e+09 -1.877716e+09 -1.832195e+01 1.534888e+01 -5.463654e+01
-2.165389e+09 -1.965390e+09 -2.125389e+09 -1.315107e+01 1.133479e+00 -2.946444e+01
-3.488285e+09 -3.288289e+09 -3.448286e+09 -4.148337e+01 -7.323761e+01 -5.938095e+00
-3.977832e+09 -3.777836e+09 -3.937834e+09 -3.604935e+01 -1.720458e+02 -2.098364e+01
-2.981517e+09 -2.781521e+09 -2.941519e+09 -4.821200e+02 -8.149410e+02 -3.234282e+02
-3.817745e+09 -3.617749e+09 -3.777747e+09 -6.076173e+01 -1.260544e+02 1.470300e+01
-3.681564e+09 -3.481568e+09 -3.641566e+09 -9.379018e+01 -4.106397e+02 -3.488625e+01
-4.293947e+09 -4.093949e+09 -4.253947e+09 -1.981758e+03 -2.696588e+02 6.095094e+02
-4.816514e+09 -4.616516e+09 -4.776511e+09 -2.796514e+03 -1.091018e+03 1.255282e+03
-4.473283e+09 -4.273283e+09 -4.433279e+09 -2.676005e+03 -8.432092e+02 8.557065e+02
-4.127873e+09 -3.927874e+09 -4.087873e+09 -2.116547e+03 5.396955e+00 2.564960e+02
-4.130049e+09 -3.930050e+09 -4.090047e+09 -2.523322e+03 -6.799462e+02 8.983433e+02
-3.915134e+09 -3.715132e+09 -3.875134e+09 -4.965478e+02 -3.829612e+02 -2.024215e+02
-4.599342e+09 -4.399340e+09 -4.559342e+09 -4.274824e+02 -2.176638e+02 -1.538789e+02
-4.614115e+09 -4.414113e+09 -4.574116e+09 -1.262901e+02 -2.801205e+02 -2.281203e+02
-4.045091e+09 -3.845089e+09 -4.005091e+09 5.124561e+01 -4.396475e+02 -5.344265e+02
-4.577825e+09 -4.377823e+09 -4.537825e+09 2.003670e+02 -1.256813e+02 -1.037249e+02
-4.251118e+09 -4.051116e+09 -4.211119e+09 -1.185148e+01 -3.577702e+02 -3.990423e+02
-4.995983e+09 -4.795982e+09 -4.955986e+09 3.808773e+02 -4.384349e+02 1.284149e+02
-4.817518e+09 -4.617519e+09 -4.777524e+09 -5.376243e+01 -7.202996e+02 3.617400e+02
-4.300031e+09 -4.100032e+09 -4.260036e+09 3.979341e+02 -1.579459e+03 4.945287e+02
-4.295518e+09 -4.095517e+09 -4.255524e+09 -1.651984e+02 -2.270399e+03 6.242973e+02
-4.132986e+09 -3.932986e+09 -4.092991e+09 4.829148e+02 -2.026532e+03 1.131498e+03
-4.636818e+09 -4.436817e+09 -4.596824e+09 -1.477261e+02 -5.726332e+02 2.629857e+02
-4.814376e+09 -4.614379e+09 -4.774368e+09 -5.560841e+02 -3.516145e+02 1.743295e+03
-4.820740e+09 -4.620739e+09 -4.780735e+09 2.606080e+03 -1.271937e+02 4.680464e+02
-4.443773e+09 -4.243770e+09 -4.403759e+09 3.030318e+03 3.277252e+03 2.071713e+03
-4.278399e+09 -4.078399e+09 -4.238387e+09 2.219685e+03 3.030361e+03 2.521773e+03
-4.614841e+09 -4.414845e+09 -4.574834e+09 1.350283e+03 5.491072e+02 2.247716e+03
-4.799334e+09 -4.599338e+09 -4.759323e+09 2.704467e+03 2.278642e+03 2.288002e+03
-4.299166e+09 -4.099170e+09 -4.259169e+09 -2.700891e+02 6.190807e+02 7.419161e+01
-4.136722e+09 -3.936726e+09 -4.096724e+09 -5.486610e+01 2.502386e+02 -2.427279e+01
-4.128446e+09 -3.928450e+09 -4.088448e+09 -5.161388e+02 6.002107e+02 1.020435e+02
-4.308082e+09 -4.108086e+09 -4.268085e+09 1.451968e+02 5.791137e+02 5.928500e+01
-3.982679e+09 -3.782678e+09 -3.942678e+09 4.566881e+01 8.781923e+00 -1.071774e+01
-4.571723e+09 -4.371722e+09 -4.531722e+09 1.594369e+01 4.734802e+00 3.302080e+00
-4.971142e+09 -4.771142e+09 -4.931142e+09 4.419779e+01 -5.420187e+00 -1.380214e+01
-4.141137e+09 -3.941136e+09 -4.101136e+09 6.182890e+01 1.806907e+00 -8.529568e+00
-4.484370e+09 -4.284369e+09 -4.444369e+09 5.364531e+01 -1.745878e+00 -9.880079e-01
-4.780125e+09 -4.580125e+09 -4.740125e+09 3.196332e+01 -1.309303e+00 -1.708251e-01
-4.818398e+09 -4.618400e+09 -4.778400e+09 1.718338e+03 3.873390e+02 -3.246763e+02
-4.301894e+09 -4.101895e+09 -4.261897e+09 1.834233e+03 1.076475e+03 -4.080038e+02
-4.644783e+09 -4.444784e+09 -4.604786e+09 1.817207e+03 5.034924e+02 -2.401851e+02
-4.848853e+09 -4.648855e+09 -4.808857e+09 1.444492e+03 4.119359e+02 -2.916454e+02
-4.651439e+09 -4.451440e+09 -4.611440e+09 -1.772769e+02 2.456068e+00 -2.268467e+00
-4.640791e+09 -4.440792e+09 -4.600792e+09 -3.993661e+02 2.049080e-01 -7.215043e+00
-3.956315e+09 -3.756316e+09 -3.916316e+09 -1.266505e+02 4.755623e+00 -2.954266e+01
-4.812103e+09 -4.612104e+09 -4.772104e+09 -2.747278e+02 -1.561844e+00 -7.997337e+01
-3.964727e+09 -3.764729e+09 -3.924728e+09 -2.527680e+02 7.910753e+00 -2.489286e+01
-2.628533e+09 -2.428533e+09 -2.588533e+09 -1.038894e+02 -7.950742e+00 6.030607e+00
-3.434331e+09 -3.234331e+09 -3.394331e+09 -1.164746e+02 -7.633414e+00 -1.843554e+00
-2.107793e+09 -1.907793e+09 -2.067793e+09 -1.193374e+02 -9.345172e+00 -2.249525e-01
-1.895809e+09 -1.695809e+09 -1.855809e+09 -1.168514e+02 -2.521989e+01 1.577142e+00
-2.208956e+09 -2.008955e+09 -2.168955e+09 -1.105083e+02 -1.261306e+01 -8.744909e+00
-1.697053e+09 -1.497053e+09 -1.657053e+09 -1.539463e+02 -2.090846e+01 -1.256467e+01
-2.343642e+09 -2.143642e+09 -2.303642e+09 -1.298849e+02 -1.185701e+01 -1.647478e+00
-2.944300e+09 -2.744299e+09 -2.904299e+09 -1.353318e+02 -1.732760e+01 -2.400540e+01
-4.833171e+09 -4.633168e+09 -4.793171e+09 5.039047e+01 -1.109696e+02 -1.136625e+02
-4.128571e+09 -3.928568e+09 -4.088570e+09 -8.601233e+01 -1.637951e+02 6.771559e+01
-4.971464e+09 -4.771468e+09 -4.931467e+09 -2.154884e+02 -1.943023e+02 -2.067434e+01
-4.625662e+09 -4.425662e+09 -4.585661e+09 9.122309e+02 9.942038e+01 3.048576e+01
-4.815037e+09 -4.615034e+09 -4.775035e+09 -9.458411e+01 5.926796e+01 2.647556e+02
-4.489938e+09 -4.289934e+09 -4.449937e+09 1.903858e+02 2.314798e+01 2.337441e+02
-4.658581e+09 -4.458581e+09 -4.618577e+09 -3.061618e+03 -1.365890e+03 6.324470e+02
-4.615268e+09 -4.415272e+09 -4.575259e+09 -2.076934e+02 -2.261237e+02 1.950260e+03
-1.532058e+09 -1.332058e+09 -1.492057e+09 5.208710e+02 1.519274e+02 -9.481156e+00
-3.971702e+09 -3.771695e+09 -3.931681e+09 -2.514668e+03 -7.512672e+03 2.180628e+03
-4.799759e+09 -4.599763e+09 -4.759748e+09 -2.530100e+02 5.015016e+01 5.683501e+02
-5.001400e+09 -4.801395e+09 -4.961381e+09 -2.080204e+03 -1.453304e+02 1.266631e+03
-4.823590e+09 -4.623583e+09 -4.783585e+09 -1.908944e+03 -8.540445e+02 -2.347794e+02
-4.668221e+09 -4.468218e+09 -4.628207e+09 -3.344329e+03 -1.364004e+03 1.489239e+03
-4.137124e+09 -3.937117e+09 -4.097118e+09 -2.077333e+03 -2.994062e+03 -2.078694e+02
-3.637674e+09 -3.437677e+09 -3.597677e+09 1.936698e+02 2.780903e+01 1.620193e+02
-3.018729e+09 -2.818731e+09 -2.978732e+09 3.594943e+02 -6.495886e+01 -1.889235e+02
-2.593557e+09 -2.393561e+09 -2.553560e+09 2.140094e+02 -2.846681e+01 1.443938e+01
-3.131034e+09 -2.931039e+09 -3.091037e+09 2.533893e+02 -4.864035e+01 5.726200e+02
-3.778668e+09 -3.578671e+09 -3.738671e+09 5.868966e+02 1.136647e+01 5.542297e+01
-4.653674e+09 -4.453675e+09 -4.613676e+09 6.605336e+02 -2.398735e+02 1.346053e+02
-2.300811e+09 -2.100811e+09 -2.260811e+09 -2.354461e+02 -2.237957e+01 -2.748109e+01
-4.508552e+09 -4.308554e+09 -4.468553e+09 1.178656e+03 1.999476e+02 -1.295902e+01
-4.661552e+09 -4.461554e+09 -4.621552e+09 8.161631e+02 3.145029e+01 -1.602695e+00
-4.854779e+09 -4.654780e+09 -4.814779e+09 1.061416e+03 -8.854904e+00 5.073549e+01
-5.004362e+09 -4.804364e+09 -4.964362e+09 9.602486e+02 9.482789e+01 7.342025e+00
-4.133985e+09 -3.933985e+09 -4.093985e+09 -2.945437e+02 -2.633341e+01 -3.064955e+00
-4.702202e+09 -4.502204e+09 -4.662202e+09 1.186120e+03 9.899656e+01 -2.662041e+01
-4.487447e+09 -4.287446e+09 -4.447447e+09 2.844656e+02 3.117254e+00 -3.185134e+01
-4.459056e+09 -4.259056e+09 -4.419056e+09 1.303932e+02 1.334393e+01 -2.427351e+01
-4.972530e+09 -4.772529e+09 -4.932529e+09 -2.764871e+02 -7.411954e-01 -2.941798e+01
-4.487447e+09 -4.287446e+09 -4.447447e+09 9.769511e+01 4.216638e+00 -2.856190e+01
-4.347274e+09 -4.147273e+09 -4.307273e+09 2.138900e+02 -5.810268e+00 -2.413103e+01
-4.844290e+09 -4.644289e+09 -4.804290e+09 3.704207e+02 -9.512367e+00 -5.906416e+01
-4.482302e+09 -4.282301e+09 -4.442302e+09 3.297067e+02 2.325344e+00 -3.942742e+01
-4.180281e+09 -3.980281e+09 -4.140281e+09 2.912867e+02 -2.316973e+01 -6.015974e+01
-4.866747e+09 -4.666746e+09 -4.826747e+09 2.506344e+02 2.575469e+01 3.076959e+01
-4.484978e+09 -4.284981e+09 -4.444979e+09 1.492978e+03 3.300317e+02 2.675696e+02
-4.990759e+09 -4.790763e+09 -4.950760e+09 1.385991e+03 -1.443313e+02 1.797611e+02
-4.117865e+09 -3.917867e+09 -4.077866e+09 1.803533e+03 2.427413e+02 1.767073e+02
-4.334909e+09 -4.134910e+09 -4.294909e+09 1.983865e+03 -3.568572e+01 4.999838e+02
-4.645303e+09 -4.445303e+09 -4.605303e+09 4.079407e+02 1.797202e+01 1.949793e+01
-4.817598e+09 -4.617599e+09 -4.777599e+09 4.022741e+02 1.384683e+01 2.062000e+01
-4.645135e+09 -4.445135e+09 -4.605135e+09 3.302310e+02 3.010056e+01 1.306662e+01
-4.131133e+09 -3.931133e+09 -4.091133e+09 3.970649e+02 -2.618727e-02 -5.193052e+01
-2.963073e+09 -2.763073e+09 -2.923073e+09 3.073538e+02 -1.311960e+02 -4.288111e+00
-4.050101e+09 -3.850101e+09 -4.010101e+09 2.509750e+02 -1.232454e+02 2.927453e+01
-4.229949e+09 -4.029948e+09 -4.189948e+09 2.041945e+02 -6.651210e+01 2.677508e+01
-3.421774e+09 -3.221774e+09 -3.381773e+09 1.848782e+02 -3.009139e+01 -2.101179e+01
-3.441886e+09 -3.241886e+09 -3.401885e+09 1.103185e+02 -9.967130e+01 1.699458e+01
-3.165052e+09 -2.965053e+09 -3.125052e+09 2.192954e+02 -2.409877e+02 5.907249e+01
-4.304433e+09 -4.104433e+09 -4.264435e+09 -9.747256e+02 -9.851374e+02 -3.274381e+02
-4.158170e+09 -3.958170e+09 -4.118173e+09 -1.000981e+03 -1.329405e+03 -3.489965e+02
-4.670279e+09 -4.470279e+09 -4.630281e+09 -1.062556e+03 -3.262052e+02 -2.050441e+02
-3.946523e+09 -3.746522e+09 -3.906522e+09 -1.922650e+02 -2.112907e+01 1.747917e-01
-2.528975e+09 -2.328976e+09 -2.488976e+09 4.386585e+01 1.771985e+01 -6.630665e+00
-4.811688e+09 -4.611690e+09 -4.771689e+09 7.580176e+01 1.136716e+01 2.894894e+01
-4.142232e+09 -3.942233e+09 -4.102233e+09 2.984348e+02 -1.168942e+01 -7.705295e+01
-4.824893e+09 -4.624894e+09 -4.784894e+09 1.432602e+02 4.188181e+00 3.127122e+01
-4.475394e+09 -4.275396e+09 -4.435395e+09 1.651673e+02 7.114396e+00 -1.956097e+01
-3.941265e+09 -3.741267e+09 -3.901266e+09 1.310586e+02 9.327664e+00 -1.143329e+02
-4.484076e+09 -4.284077e+09 -4.444077e+09 3.410650e+02 9.455538e-01 -6.253005e+01
-4.275445e+09 -4.075447e+09 -4.235446e+09 8.688521e+01 -3.490429e+00 -6.998785e+01
-4.323601e+09 -4.123602e+09 -4.283602e+09 4.747544e+02 -1.757359e+00 -1.208532e+02
-4.484076e+09 -4.284077e+09 -4.444077e+09 2.640548e+02 3.679442e+00 -5.137399e+01
-4.136085e+09 -3.936086e+09 -4.096085e+09 -9.510496e+02 6.422269e+01 -2.295456e+02
-4.301304e+09 -4.101306e+09 -4.261305e+09 -2.474313e+02 1.932532e+01 -1.983106e+02
-1.863718e+09 -1.663719e+09 -1.823718e+09 -6.508955e+01 -2.520593e+01 9.683067e+00
-4.136268e+09 -3.936269e+09 -4.096268e+09 -8.573664e+02 8.332606e+01 -1.767994e+01
-4.251068e+09 -4.051070e+09 -4.211068e+09 -2.015226e+01 -2.799913e+00 -3.783042e+02
-4.785764e+09 -4.585766e+09 -4.745765e+09 -3.967554e+01 6.836931e+01 4.650019e+01
-4.099298e+09 -3.899300e+09 -4.059299e+09 -1.088467e+01 -7.049328e+00 -4.741182e+02
-3.203080e+09 -3.003082e+09 -3.163080e+09 -4.072096e+02 5.105905e+00 -2.586927e+01
-3.981689e+09 -3.781688e+09 -3.941689e+09 -4.461058e+02 -1.214323e+01 -4.751523e+01
-2.537741e+09 -2.337744e+09 -2.497742e+09 -3.252465e+02 3.424489e+01 -5.092353e+00
-1.855143e+09 -1.655146e+09 -1.815144e+09 -3.986200e+02 9.535857e+01 -3.728758e+01
-3.178564e+09 -2.978565e+09 -3.138564e+09 -3.381191e+02 3.024576e+01 -5.451242e+01
-2.629838e+09 -2.429840e+09 -2.589838e+09 -3.443531e+02 6.699686e+01 -9.700373e+00
-2.176723e+09 -1.976724e+09 -2.136724e+09 -1.992390e+01 -2.065121e+00 3.561240e+00
-3.479068e+09 -3.279070e+09 -3.439068e+09 -3.789796e+02 5.472564e+01 -3.045320e+00
-2.983379e+09 -2.783382e+09 -2.943380e+09 -3.451500e+02 7.956659e+01 -5.868104e+01
-4.297595e+09 -4.097594e+09 -4.257595e+09 -9.129247e+02 1.056484e+00 5.786612e+01
-1.583547e+09 -1.383547e+09 -1.543547e+09 1.209443e+02 3.072523e+01 -6.530580e+00
-4.478206e+09 -4.278206e+09 -4.438206e+09 -1.033889e+03 1.206733e+01 -1.991900e+01
-4.504301e+09 -4.304301e+09 -4.464301e+09 -9.535132e+02 3.095792e+00 -2.207494e+01
-4.806497e+09 -4.606497e+09 -4.766497e+09 -8.260442e+02 7.756541e+00 -3.936236e+01
-4.289324e+09 -4.089323e+09 -4.249324e+09 -7.658804e+02 8.452822e+00 3.816643e+01
-4.313966e+09 -4.113967e+09 -4.273966e+09 -4.858082e+02 5.338851e+01 1.164966e+01
-4.144714e+09 -3.944714e+09 -4.104714e+09 -4.680529e+02 1.803888e+01 -1.268416e+01
-4.651486e+09 -4.451485e+09 -4.611485e+09 -4.399234e+02 -8.820685e+00 -3.794381e+01
-4.662476e+09 -4.462476e+09 -4.622475e+09 -5.030466e+02 -3.014530e+01 -2.674192e+01
-4.994770e+09 -4.794770e+09 -4.954770e+09 -6.346699e+02 1.260145e+02 4.754535e+01
-4.831180e+09 -4.631180e+09 -4.791179e+09 -4.831042e+02 1.642053e+01 -1.007953e+01
-4.122135e+09 -3.922134e+09 -4.082134e+09 -1.227138e+02 -2.774584e+01 -5.750197e+01
-4.633754e+09 -4.433754e+09 -4.593754e+09 -7.580790e+01 6.997787e+00 -3.606236e+01
-4.433963e+09 -4.233962e+09 -4.393962e+09 8.485542e+01 4.290909e+00 -2.878066e+01
-4.635499e+09 -4.435499e+09 -4.595499e+09 -2.120746e+02 -5.769508e+00 -3.405610e+01
-2.125814e+09 -1.925814e+09 -2.085814e+09 -5.352668e+01 -6.771828e+00 -8.027625e+00
-2.695225e+09 -2.495225e+09 -2.655225e+09 -2.996291e+01 -5.396373e+00 -1.128388e+01
-3.048298e+09 -2.848298e+09 -3.008298e+09 -8.198701e+01 -5.762880e+00 -1.192730e+01
-1.901726e+09 -1.701726e+09 -1.861726e+09 -5.486149e+01 -5.179217e+00 -2.316893e+01
-2.620531e+09 -2.420531e+09 -2.580531e+09 -9.312195e+01 -1.468275e+01 -1.212274e+01
-1.773037e+09 -1.573036e+09 -1.733036e+09 -1.353696e+02 -2.256890e+01 -2.859881e+01
-1.990550e+09 -1.790550e+09 -1.950550e+09 -8.491416e+01 -1.050674e+01 -2.242817e+01
-1.919081e+09 -1.719081e+09 -1.879081e+09 -3.799216e+01 -4.231957e+00 -1.571038e+01
-4.298000e+09 -4.097999e+09 -4.258000e+09 7.872594e+00 -1.820645e+02 9.815768e+01
-4.850227e+09 -4.650226e+09 -4.810226e+09 -1.479050e+02 -5.059528e+01 9.055612e+01
-4.837352e+09 -4.637351e+09 -4.797352e+09 3.468913e+01 -6.018573e+01 1.338980e+02
-4.311180e+09 -4.111179e+09 -4.271179e+09 1.450124e+02 -1.618090e+02 1.326866e+02
-4.797972e+09 -4.597966e+09 -4.757980e+09 7.724394e+02 2.859891e+02 -3.003915e+02
-4.111506e+09 -3.911501e+09 -4.071518e+09 2.889119e+02 2.604801e+03 -3.501698e+02
-4.241858e+09 -4.041853e+09 -4.201871e+09 2.153451e+02 2.660481e+03 4.829495e+01
-4.811180e+09 -4.611179e+09 -4.771179e+09 -3.548757e+02 3.238212e+01 9.518695e+00
-4.644330e+09 -4.444330e+09 -4.604329e+09 -4.073273e+02 -2.335395e+01 -3.202152e+01
-4.132735e+09 -3.932734e+09 -4.092734e+09 -1.353178e+02 -1.043247e+01 -3.938463e+01
-4.124715e+09 -3.924714e+09 -4.084714e+09 -3.445947e+02 3.804683e+00 -2.925847e+01
-1.959783e+09 -1.759786e+09 -1.919783e+09 3.787546e+02 1.109285e+02 -1.114909e+01
-3.094159e+09 -2.894160e+09 -3.054160e+09 -3.708761e+02 4.981632e+00 3.842205e+02
-3.628921e+09 -3.428923e+09 -3.588923e+09 -1.077958e+03 -6.018608e+01 6.657193e+01
-4.050127e+09 -3.850129e+09 -4.010129e+09 -6.144568e+02 3.685463e+01 3.215950e+01
-3.970593e+09 -3.770593e+09 -3.930592e+09 -1.952241e+02 2.850755e+01 -4.093544e+01
-3.863015e+09 -3.663014e+09 -3.823015e+09 -7.120735e+02 4.277084e+01 -7.755486e+01
-3.027312e+09 -2.827312e+09 -2.987313e+09 -7.402475e+02 1.146150e+02 1.045211e+02
-4.648481e+09 -4.448483e+09 -4.608482e+09 -8.578083e+02 9.039251e+01 1.505406e+01
-4.141424e+09 -3.941426e+09 -4.101425e+09 -8.442072e+02 -4.242143e+01 -5.564605e+01
-4.829236e+09 -4.629239e+09 -4.789237e+09 -7.923035e+02 2.470510e+01 -4.608057e+01
-4.827890e+09 -4.627891e+09 -4.787890e+09 -8.578948e+02 1.759510e+02 8.392884e+01
-4.458263e+09 -4.258265e+09 -4.418264e+09 1.598796e+02 3.746373e+00 1.868775e+00
-4.130346e+09 -3.930346e+09 -4.090346e+09 2.054159e+02 -1.037664e+01 -3.011178e+01
-4.477507e+09 -4.277509e+09 -4.437505e+09 -2.516642e+02 4.576112e+02 -8.624370e+02
-4.115271e+09 -3.915272e+09 -4.075272e+09 1.655310e+02 1.478053e+01 1.382734e+01
-4.801496e+09 -4.601497e+09 -4.761497e+09 1.417846e+02 4.916541e+00 2.843936e+01
-4.816811e+09 -4.616812e+09 -4.776812e+09 2.024681e+02 1.759249e+01 2.640602e+01
-3.423401e+09 -3.223403e+09 -3.383402e+09 -6.793517e+02 -6.979959e+02 -1.493612e+02
-4.797211e+09 -4.597211e+09 -4.757211e+09 -1.726993e+02 -6.292801e+00 -2.723310e+01
-2.155889e+09 -1.955892e+09 -2.115890e+09 -1.104196e+03 -1.191947e+03 -3.573714e+02
-3.135111e+09 -2.935115e+09 -3.095113e+09 -2.593113e+02 -5.387139e+02 -4.506136e+01
-2.239066e+09 -2.039069e+09 -2.199066e+09 -5.811374e+02 -3.990026e+02 -1.230477e+02
-1.870357e+09 -1.670361e+09 -1.830359e+09 -1.072630e+03 -1.168900e+03 -2.760023e+02
-4.130331e+09 -3.930331e+09 -4.090331e+09 4.528137e+02 -6.143886e+00 -6.235732e+01
-4.301196e+09 -4.101196e+09 -4.261196e+09 4.732954e+02 -2.200017e+01 -5.522693e+01
-4.131038e+09 -3.931038e+09 -4.091038e+09 3.662766e+02 9.504971e+00 -2.576552e+01
-4.825535e+09 -4.625534e+09 -4.785534e+09 3.335698e+02 -6.611425e-01 -2.335059e+01
-4.690507e+09 -4.490506e+09 -4.650506e+09 2.106548e+02 1.770891e+01 -9.438990e+00
-3.969009e+09 -3.769009e+09 -3.929009e+09 3.491080e+02 3.996445e+01 6.738988e+00
-4.606746e+09 -4.406747e+09 -4.566746e+09 1.759450e+02 4.385184e+00 1.269761e+00
-4.263513e+09 -4.063514e+09 -4.223514e+09 1.745558e+02 -3.320303e+00 -1.897820e+01
-4.290642e+09 -4.090643e+09 -4.250643e+09 3.124353e+02 -2.731419e+00 -2.729740e+01
-4.669614e+09 -4.469617e+09 -4.629614e+09 1.023618e+02 3.570455e+01 -1.126799e+01
-4.121198e+09 -3.921198e+09 -4.081198e+09 2.153108e+02 -1.765823e+00 -2.568405e+01
-4.807663e+09 -4.607664e+09 -4.767664e+09 2.213397e+02 4.570548e+00 1.182538e+01
-4.998590e+09 -4.798591e+09 -4.958592e+09 -1.357480e+03 1.977680e+02 5.650116e+01
-4.702187e+09 -4.502190e+09 -4.662187e+09 6.781795e+01 2.586126e+01 -8.315421e+00
-4.775739e+09 -4.575738e+09 -4.735739e+09 7.001604e+01 -1.598918e+00 -1.298062e+00
-3.962687e+09 -3.762689e+09 -3.922690e+09 -1.752032e+03 1.355066e+03 7.602856e+02
-4.132261e+09 -3.932263e+09 -4.092265e+09 -1.732111e+03 1.306326e+03 7.784721e+02
-4.641314e+09 -4.441317e+09 -4.601320e+09 -7.672032e+02 7.566568e+02 1.654124e+02
-4.808523e+09 -4.608526e+09 -4.768528e+09 -7.126833e+02 3.770624e+02 1.451870e+02
-4.643866e+09 -4.443870e+09 -4.603870e+09 -1.015529e+03 4.922437e+02 7.696311e+01
-4.044378e+09 -3.844379e+09 -4.004379e+09 -6.838209e+02 -2.248694e+02 -9.409769e+01
-4.099129e+09 -3.899130e+09 -4.059130e+09 -9.107372e+02 -6.650026e+02 -2.359668e+02
-4.561397e+09 -4.361398e+09 -4.521398e+09 -6.112281e+02 -1.262278e+02 -1.875201e+01
-3.068386e+09 -2.868386e+09 -3.028386e+09 -1.671968e+02 -2.941323e+01 1.110989e+01
-4.480600e+09 -4.280599e+09 -4.440599e+09 -2.616497e+02 -2.255727e+01 5.699762e+00
-4.678996e+09 -4.478998e+09 -4.638997e+09 -5.669373e+02 -3.934447e+02 -3.510131e+01
-4.234509e+09 -4.034513e+09 -4.194511e+09 -3.220054e+02 -4.076468e+02 -3.174348e+01
-4.120820e+09 -3.920821e+09 -4.080820e+09 -5.545344e+02 -3.404930e+02 -5.252169e+01
-4.596044e+09 -4.396042e+09 -4.556043e+09 5.689754e+01 3.116798e+01 -1.535035e+01
-4.264033e+09 -4.064032e+09 -4.224033e+09 -4.871843e+01 1.125660e+01 9.773130e+00
-4.606332e+09 -4.406331e+09 -4.566331e+09 -1.676702e+02 1.242757e+01 -2.164478e+01
-3.946522e+09 -3.746522e+09 -3.906522e+09 -2.885536e+02 -2.169495e+01 3.718313e+01
-4.439191e+09 -4.239190e+09 -4.399191e+09 2.270314e+02 -4.935327e+00 -3.038500e+01
-4.686113e+09 -4.486113e+09 -4.646113e+09 -6.880893e+01 -3.056226e+00 4.342263e+00
-4.675346e+09 -4.475346e+09 -4.635346e+09 -3.573371e+01 3.322001e-01 -9.676278e+00
-4.688373e+09 -4.488372e+09 -4.648373e+09 -7.871137e+01 -3.501057e+00 -1.393531e+01
-3.426398e+09 -3.226400e+09 -3.386398e+09 5.990722e+02 4.126336e+01 -8.414897e+00
-3.973552e+09 -3.773551e+09 -3.933551e+09 -2.111796e+01 -6.321450e-01 2.563322e+00
-4.696946e+09 -4.496946e+09 -4.656946e+09 -2.529197e+01 -1.082050e+00 -6.011657e+00
-4.949203e+09 -4.749203e+09 -4.909203e+09 -2.223895e+01 -5.333653e-01 -1.515596e+01
-3.646091e+09 -3.446090e+09 -3.606090e+09 -3.306094e+01 -7.255010e+00 -2.045082e+01
-2.966854e+09 -2.766853e+09 -2.926853e+09 -3.645559e+01 -3.491806e+00 -3.397222e+01
-3.354559e+09 -3.154559e+09 -3.314559e+09 -2.110172e+01 -3.176952e+00 -1.465117e+01
-4.425321e+09 -4.225320e+09 -4.385320e+09 -3.110893e+01 -1.573188e+00 -5.349346e+00
-4.817896e+09 -4.617895e+09 -4.777895e+09 -5.704951e+02 -1.123929e+00 -6.147331e+01
-4.632557e+09 -4.432556e+09 -4.592557e+09 -7.680211e+02 -5.168494e+01 8.556025e+01
-4.130632e+09 -3.930631e+09 -4.090632e+09 -7.027924e+02 -2.694697e+01 -1.664333e+01
-4.819168e+09 -4.619168e+09 -4.779168e+09 -6.534907e+02 -3.213413e+01 9.224515e+01
-4.304071e+09 -4.104071e+09 -4.264071e+09 -2.997392e+02 -7.733337e+00 -2.804817e+01
-4.173739e+09 -3.973739e+09 -4.133739e+09 -6.927557e+02 -2.825451e+01 4.083178e+01
-4.307165e+09 -4.107164e+09 -4.267164e+09 7.773999e+01 2.537682e+00 -1.503764e+01
-4.159222e+09 -3.959222e+09 -4.119222e+09 1.262856e+02 -1.121050e+01 -3.785449e+01
-4.822071e+09 -4.622071e+09 -4.782071e+09 1.067612e+02 -3.234770e+01 -4.403554e+01
-4.135606e+09 -3.935605e+09 -4.095605e+09 9.655129e+01 4.592423e+01 8.953845e+00
-3.983115e+09 -3.783115e+09 -3.943115e+09 -9.877020e+01 -7.215664e+00 -2.137445e+01
-4.022459e+09 -3.822458e+09 -3.982459e+09 -8.149590e+01 -5.781034e+00 -1.486292e+01
-3.963559e+09 -3.763558e+09 -3.923558e+09 -8.659678e+01 -6.107962e+00 -1.708072e+01
-4.491125e+09 -4.291124e+09 -4.451124e+09 -2.368015e+01 -1.835581e+00 -5.677881e+00
-3.653626e+09 -3.453625e+09 -3.613625e+09 -1.367858e+02 -9.029199e+00 -1.540361e+01
-3.608016e+09 -3.408015e+09 -3.568015e+09 -1.096753e+02 -6.842452e+00 -1.209693e+01
-4.088982e+09 -3.888981e+09 -4.048981e+09 -5.711016e+01 -5.369813e+00 5.383342e+00
-2.199545e+09 -1.999544e+09 -2.159544e+09 -1.000517e+02 -1.246566e+01 -1.828965e+01
-2.986413e+09 -2.786412e+09 -2.946412e+09 -8.762389e+01 -5.357058e+00 -1.268736e+01
-2.731935e+09 -2.531936e+09 -2.691935e+09 4.671647e+02 1.011970e+02 -4.923361e+01
-3.799313e+09 -3.599314e+09 -3.759313e+09 2.400866e+02 3.725331e+01 -6.340096e+00
-2.123433e+09 -1.923435e+09 -2.083433e+09 1.924611e+02 4.023562e+00 7.865715e+00
-3.530982e+09 -3.330984e+09 -3.490982e+09 4.639937e+02 2.210195e+01 1.789799e+01
-1.803282e+09 -1.603284e+09 -1.763282e+09 3.180597e+02 1.136732e+00 -2.856556e+01
-2.268700e+09 -2.068702e+09 -2.228700e+09 3.933636e+02 3.038003e+01 2.232783e+01
-2.573506e+09 -2.373506e+09 -2.533505e+09 -4.059270e+02 -2.601460e+02 -8.977913e+01
-3.700637e+09 -3.500638e+09 -3.660637e+09 -3.399223e+02 -1.871685e+02 -5.690439e+01
-2.259680e+09 -2.059679e+09 -2.219679e+09 -3.140022e+02 -1.139040e+02 -3.493796e+00
-1.838248e+09 -1.638250e+09 -1.798248e+09 -5.513772e+02 -3.930660e+02 -1.319552e+02
-1.861784e+09 -1.661784e+09 -1.821783e+09 -3.372380e+02 -1.707768e+02 1.087512e+01
-3.328702e+09 -3.128703e+09 -3.288702e+09 -1.574305e+02 -4.847186e+01 -3.218024e+01
-3.078762e+09 -2.878762e+09 -3.038761e+09 -4.841376e+01 -1.634165e+02 -3.790756e+01
-2.577597e+09 -2.377598e+09 -2.537597e+09 -2.506170e+02 -3.280713e+02 -7.494588e+01
-2.973908e+09 -2.773908e+09 -2.933907e+09 -1.741086e+02 -5.142338e+01 -2.682798e+01
-3.282666e+09 -3.082667e+09 -3.242666e+09 -3.991772e+02 -2.145408e+02 -9.787599e+01
-3.697343e+09 -3.497343e+09 -3.657342e+09 -5.735887e+02 -2.243938e+02 -6.754180e+01
-2.169783e+09 -1.969783e+09 -2.129782e+09 -4.203859e+02 -2.271420e+02 -8.808330e+01
-2.229610e+09 -2.029609e+09 -2.189609e+09 -6.580553e+02 -3.257412e+02 -1.377475e+02
-3.139543e+09 -2.939543e+09 -3.099542e+09 -4.319155e+02 -2.586794e+02 -5.893911e+01
-4.429866e+09 -4.229861e+09 -4.389876e+09 4.802544e+02 2.125360e+03 5.589105e+02
-4.272039e+09 -4.072032e+09 -4.232050e+09 8.736792e+02 3.239424e+03 -9.916099e+02
-4.620564e+09 -4.420562e+09 -4.580573e+09 6.194800e+02 1.305528e+03 -6.390793e+01
-4.277800e+09 -4.077796e+09 -4.237812e+09 6.623344e+02 4.028057e+03 -1.283899e+03
-4.116345e+09 -3.916344e+09 -4.076356e+09 -9.310616e+01 3.873886e+03 -1.713282e+02
-4.802811e+09 -4.602809e+09 -4.762821e+09 1.024101e+02 1.751152e+03 3.938019e+02
-4.651319e+09 -4.451321e+09 -4.611325e+09 -1.021306e+02 -6.608387e+02 1.140931e+02
-4.303899e+09 -4.103900e+09 -4.263905e+09 4.798971e+01 -1.832494e+03 3.962961e+02
-4.134083e+09 -3.934084e+09 -4.094088e+09 3.618443e+02 -1.676384e+03 6.380530e+02
-4.824735e+09 -4.624737e+09 -4.784740e+09 -5.503679e+01 -4.147704e+02 1.060896e+02
-4.321527e+09 -4.121529e+09 -4.281531e+09 1.501980e+02 -1.133359e+03 1.861412e+02
-4.444924e+09 -4.244924e+09 -4.404924e+09 -2.564295e+02 -4.757787e+00 9.295110e+00
-4.137367e+09 -3.937366e+09 -4.097367e+09 -2.912104e+02 -1.192167e+01 -3.600615e+01
-4.306512e+09 -4.106511e+09 -4.266511e+09 -2.574597e+02 -1.621809e+01 1.019271e+01
-4.101691e+09 -3.901691e+09 -4.061691e+09 -2.659201e+02 -2.012897e+01 2.624159e+01
-4.693647e+09 -4.493647e+09 -4.653647e+09 -2.928605e+01 -1.796536e-01 1.072938e+01
-4.064393e+09 -3.864394e+09 -4.024394e+09 -6.453355e+01 -2.706107e+00 3.834401e+00
-4.693647e+09 -4.493647e+09 -4.653647e+09 -3.838036e+01 -2.280313e+00 -1.505736e+01
-3.794654e+09 -3.594655e+09 -3.754655e+09 -5.144402e+01 1.728122e+00 1.271875e+01
-3.968331e+09 -3.768331e+09 -3.928331e+09 -4.647803e+02 -5.453696e+00 -5.007703e+01
-4.132621e+09 -3.932620e+09 -4.092620e+09 -2.752449e+02 -6.544177e+00 -2.949515e+01
-4.130966e+09 -3.930965e+09 -4.090965e+09 -4.450329e+02 4.774643e+01 -1.469138e+01
-4.301097e+09 -4.101097e+09 -4.261097e+09 -4.042639e+02 3.369661e+01 1.248710e+01
-4.833544e+09 -4.633545e+09 -4.793544e+09 -2.234867e+02 -4.174895e+00 4.036012e+01
-4.310254e+09 -4.110255e+09 -4.270255e+09 -3.220223e+02 -1.253297e+00 -1.251741e+01
-4.822247e+09 -4.622248e+09 -4.782248e+09 -3.402103e+02 -1.700781e+01 4.207976e+01
-4.121410e+09 -3.921411e+09 -4.081411e+09 -2.123702e+02 2.309061e+00 -2.706428e+01
-3.965515e+09 -3.765516e+09 -3.925516e+09 -2.562174e+02 -3.709335e+00 1.605965e+01
-4.822834e+09 -4.622834e+09 -4.782834e+09 3.130197e+02 1.537822e+01 1.728000e+01
-4.633875e+09 -4.433875e+09 -4.593875e+09 3.120597e+02 1.354596e+01 2.939093e+01
-4.650466e+09 -4.450466e+09 -4.610466e+09 3.072413e+02 1.970474e+01 1.622971e+01
-4.635368e+09 -4.435369e+09 -4.595369e+09 2.132768e+02 1.099896e+01 1.849194e+01
-4.161068e+09 -3.961068e+09 -4.121068e+09 -8.886365e+02 3.207026e+01 -8.490340e+01
-4.175571e+09 -3.975571e+09 -4.135571e+09 -6.925147e+02 -3.850896e+01 1.558043e+01
-4.487621e+09 -4.287621e+09 -4.447621e+09 -7.654552e+02 1.486038e+01 -6.417189e+00
-4.346934e+09 -4.146934e+09 -4.306934e+09 -7.042270e+02 -1.789936e+01 -5.568355e+00
-4.132702e+09 -3.932702e+09 -4.092702e+09 -6.919202e+02 1.487751e+00 -5.389188e+01
-3.878865e+09 -3.678867e+09 -3.838865e+09 3.137019e+02 -4.517353e-01 7.508170e+00
-3.962406e+09 -3.762406e+09 -3.922406e+09 -7.003443e+02 -5.882322e+01 5.185143e+01
-4.860205e+09 -4.660204e+09 -4.820205e+09 -7.063838e+02 -1.634706e+01 -2.859460e+01
-4.847533e+09 -4.647533e+09 -4.807534e+09 -8.427602e+02 -3.298553e+01 8.871587e+01
-4.644721e+09 -4.444722e+09 -4.604722e+09 -4.940289e+02 -1.587836e+01 2.582048e+01
-4.304709e+09 -4.104709e+09 -4.264709e+09 -6.313261e+02 4.730568e+00 -2.995543e+01
-4.479572e+09 -4.279572e+09 -4.439572e+09 -4.801313e+02 -5.779318e+00 5.851289e+00
-4.309534e+09 -4.109535e+09 -4.269535e+09 -5.252690e+02 -8.398067e+00 -4.705408e+01
-4.642243e+09 -4.442243e+09 -4.602243e+09 -1.589559e+02 -1.984640e+01 -2.805995e+01
-4.137873e+09 -3.937873e+09 -4.097873e+09 -1.637405e+02 1.063199e+01 -1.946235e+01
-4.467041e+09 -4.267041e+09 -4.427041e+09 -1.309957e+02 8.665779e+00 -1.337777e+01
-4.824339e+09 -4.624338e+09 -4.784338e+09 -1.690500e+02 -1.496840e+00 -1.109212e+01
-4.845368e+09 -4.645367e+09 -4.805367e+09 1.750092e+02 -1.432156e+00 -2.087058e+01
-4.659427e+09 -4.459426e+09 -4.619426e+09 2.436543e+02 2.768133e+01 2.591648e+00
-4.158902e+09 -3.958902e+09 -4.118902e+09 1.771671e+02 1.167545e+01 -3.905799e+00
-4.489492e+09 -4.289492e+09 -4.449492e+09 2.337210e+02 5.665213e+00 -9.302714e+00
-4.824693e+09 -4.624693e+09 -4.784693e+09 2.678853e+02 1.173369e+01 -1.251735e+01
-3.998223e+09 -3.798227e+09 -3.958224e+09 -5.459378e+01 2.489145e+01 -2.108602e+00
-2.829230e+09 -2.629234e+09 -2.789231e+09 2.452160e+00 1.564106e+02 -2.950774e+01
-3.772326e+09 -3.572329e+09 -3.732326e+09 -1.561514e+01 8.444419e+01 -1.045948e+01
-3.157792e+09 -2.957796e+09 -3.117793e+09 -3.329665e+01 1.383825e+02 -2.462652e+01
-3.938690e+09 -3.738693e+09 -3.898690e+09 -9.293501e+01 2.278172e+01 -2.621605e+01
-3.616727e+09 -3.416730e+09 -3.576728e+09 -1.164058e+02 1.047421e+02 -3.880847e+01
-4.631428e+09 -4.431432e+09 -4.591429e+09 -1.561865e+02 5.827845e+01 -1.454897e+01
-4.153297e+09 -3.953294e+09 -4.113301e+09 -7.207251e+02 -1.470851e+03 -1.206451e+03
-4.839762e+09 -4.639759e+09 -4.799766e+09 -1.761336e+02 -4.071695e+02 -1.157684e+02
-4.350190e+09 -4.150188e+09 -4.310192e+09 -6.813118e+02 -9.541997e+02 -5.310762e+02
-4.501915e+09 -4.301914e+09 -4.461920e+09 -7.628203e+02 -1.420131e+03 -5.425067e+02
-4.862384e+09 -4.662383e+09 -4.822387e+09 -7.358506e+02 -6.247707e+02 -1.221608e+02
-4.175919e+09 -3.975918e+09 -4.135922e+09 -9.977971e+02 -9.291699e+02 -6.553635e+02
-4.605326e+09 -4.405325e+09 -4.565326e+09 -1.984166e+02 -1.190313e+01 1.284499e+01
-3.343878e+09 -3.143878e+09 -3.303878e+09 -1.248570e+02 -1.151626e+01 1.132789e+01
-4.501914e+09 -4.301913e+09 -4.461918e+09 -7.102563e+02 -9.672950e+02 -4.130685e+02
-4.826330e+09 -4.626331e+09 -4.786331e+09 -5.529455e+02 1.396137e+01 -2.607738e+01
-4.157315e+09 -3.957315e+09 -4.117315e+09 -4.583785e+02 -1.215069e+01 1.829221e+01
-4.139865e+09 -3.939865e+09 -4.099865e+09 -5.701835e+02 -3.985566e+01 2.965946e+01
-4.994003e+09 -4.794003e+09 -4.954003e+09 -3.329761e+02 3.400686e+00 -4.867633e+00
-4.473435e+09 -4.273435e+09 -4.433435e+09 -4.449467e+02 -1.605033e+01 -6.316607e+00
-3.960860e+09 -3.760861e+09 -3.920866e+09 1.250854e+00 -2.108957e+03 4.648685e+02
-4.820548e+09 -4.620549e+09 -4.780553e+09 1.752458e+02 -6.938285e+02 4.268738e+01
-4.990934e+09 -4.790935e+09 -4.950940e+09 4.248245e+01 -6.871033e+02 1.502502e+02
-4.650917e+09 -4.450918e+09 -4.610922e+09 -4.615585e+02 -6.265485e+02 1.853491e+01
-4.821706e+09 -4.621707e+09 -4.781711e+09 -3.201971e+02 -7.915753e+02 -8.294727e+00
-4.296065e+09 -4.096063e+09 -4.256071e+09 -7.569627e+02 -2.378470e+03 -4.388946e+02
-4.308087e+09 -4.108088e+09 -4.268092e+09 -1.000199e+02 -1.863156e+03 2.984271e+02
-4.275297e+09 -4.075297e+09 -4.235297e+09 -2.548075e+02 -8.188863e-01 -1.172836e+01
-4.554992e+09 -4.354992e+09 -4.514992e+09 -1.046139e+02 -2.558914e+00 5.533799e+00
-3.889950e+09 -3.689950e+09 -3.849950e+09 -1.899379e+02 -1.720116e+01 1.512552e+01
-4.262093e+09 -4.062093e+09 -4.222093e+09 -1.970080e+02 -9.725767e+00 -5.308501e+01
-4.035841e+09 -3.835841e+09 -3.995841e+09 -1.920569e+02 6.935218e-01 -2.265413e+01
-4.591009e+09 -4.391009e+09 -4.551009e+09 -1.815180e+02 -9.844143e+00 5.929515e+00
-2.800101e+09 -2.600105e+09 -2.760103e+09 1.362035e+02 -1.951716e+02 9.654200e+01
-2.641288e+09 -2.441292e+09 -2.601290e+09 -2.873827e+02 -4.498716e+02 -6.757811e+01
-3.965039e+09 -3.765039e+09 -3.925039e+09 -3.323393e+02 -4.772094e+01 1.931749e+00
-2.615905e+09 -2.415910e+09 -2.575907e+09 -3.330565e+02 -6.933786e+02 -1.236025e+02
-1.597615e+09 -1.397620e+09 -1.557616e+09 -6.786840e+02 -8.603473e+02 -1.368383e+01
-2.464324e+09 -2.264328e+09 -2.424325e+09 -3.066641e+02 -8.164467e+02 -6.320212e+00
-2.569345e+09 -2.369349e+09 -2.529346e+09 -2.881883e+02 -4.397417e+02 4.585489e+00
-4.509148e+09 -4.309150e+09 -4.469149e+09 -4.705158e+02 -9.574464e+01 -8.880107e+01
-4.683356e+09 -4.483359e+09 -4.643358e+09 -5.762104e+02 -2.082353e+02 -3.662004e+01
-4.473522e+09 -4.273523e+09 -4.433523e+09 -3.194594e+02 -4.138326e+01 -3.721670e+01
-4.002074e+09 -3.802076e+09 -3.962074e+09 -3.937355e+02 -2.643889e+02 -1.018555e+02
-4.805226e+09 -4.605227e+09 -4.765227e+09 -5.939732e+02 -1.034822e+02 -3.283603e+01
-4.321467e+09 -4.121465e+09 -4.281467e+09 1.203537e+03 -3.097393e+02 -2.539235e+02
-4.654393e+09 -4.454392e+09 -4.614395e+09 1.285835e+03 -3.241870e+01 -2.680847e+02
-4.644097e+09 -4.444094e+09 -4.604098e+09 9.042449e+02 -1.137651e+02 -3.797395e+02
-4.156938e+09 -3.956936e+09 -4.116939e+09 1.090359e+03 -2.285899e+02 -2.531352e+02
-3.740864e+09 -3.540863e+09 -3.700863e+09 1.255352e+01 -4.008385e-01 -2.197101e+00
-3.798025e+09 -3.598025e+09 -3.758025e+09 1.266782e+01 4.549236e+00 -7.509293e+00
-2.950677e+09 -2.750677e+09 -2.910677e+09 1.125819e+01 1.616634e+00 -1.575762e+00
-1.932812e+09 -1.732812e+09 -1.892812e+09 3.860489e+01 7.240621e+00 -1.043065e+01
-3.407282e+09 -3.207281e+09 -3.367281e+09 2.158475e+01 3.876407e+00 -5.307092e+00
-3.791912e+09 -3.591911e+09 -3.751911e+09 3.551307e+01 6.644946e+00 -2.765233e+00
-3.100862e+09 -2.900866e+09 -3.060863e+09 -5.386497e+01 -1.626993e+02 3.120176e+01
-1.929746e+09 -1.729750e+09 -1.889747e+09 -4.146507e+01 -1.082938e+02 3.248018e+01
-2.147474e+09 -1.947478e+09 -2.107475e+09 -2.831487e+02 -4.320231e+02 -5.038541e+01
-2.156069e+09 -1.956074e+09 -2.116070e+09 -9.958164e+01 -4.413791e+02 1.483222e+01
-2.635184e+09 -2.435189e+09 -2.595186e+09 -3.387727e+01 -1.306746e+02 1.394840e+01
-2.082660e+09 -1.882664e+09 -2.042661e+09 -3.399130e+02 -4.630033e+02 -1.232413e+01
-2.846386e+09 -2.646390e+09 -2.806387e+09 -1.567411e+02 -2.216605e+02 -2.073196e+01
-4.261581e+09 -4.061578e+09 -4.221588e+09 -6.910352e+02 -2.010131e+03 3.635064e+02
-4.629221e+09 -4.429219e+09 -4.589227e+09 -4.435983e+02 -6.213918e+02 2.207223e+02
-4.516236e+09 -4.316230e+09 -4.476241e+09 -1.369743e+03 -1.358438e+03 -6.194302e+02
-4.173003e+09 -3.972999e+09 -4.133009e+09 -8.394004e+02 -1.960415e+03 -7.899752e+02
-4.810086e+09 -4.610083e+09 -4.770092e+09 -8.003113e+02 -1.097911e+03 -1.182160e+02
-4.812548e+09 -4.612547e+09 -4.772554e+09 -6.736563e+02 -9.235724e+02 -9.404785e+01
-4.824408e+09 -4.624405e+09 -4.784412e+09 -6.938081e+02 -8.430065e+02 -2.639647e+02
-4.438979e+09 -4.238978e+09 -4.398978e+09 -1.638748e+02 -5.980048e+01 -1.795420e+01
-4.436648e+09 -4.236649e+09 -4.396648e+09 -3.476629e+02 -6.388793e+01 -9.508611e+00
-4.494459e+09 -4.294459e+09 -4.454459e+09 -4.207835e+02 -6.193396e+01 -2.196962e+01
-4.767842e+09 -4.567842e+09 -4.727842e+09 -5.403244e+02 -1.778525e+02 -4.083861e+01
-4.117938e+09 -3.917938e+09 -4.077938e+09 -5.557694e+02 -1.930489e+02 -8.635903e+01
-4.568925e+09 -4.368925e+09 -4.528925e+09 -2.867298e+02 -2.532920e+01 -4.766609e+01
-4.821034e+09 -4.621034e+09 -4.781038e+09 1.876348e+03 4.582285e+02 -5.744102e+02
-4.131932e+09 -3.931935e+09 -4.091935e+09 1.654882e+03 8.465185e+02 -1.059741e+02
-4.615303e+09 -4.415302e+09 -4.575309e+09 1.765748e+03 7.678977e+02 -3.164521e+02
-4.128431e+09 -3.928429e+09 -4.088436e+09 2.256629e+03 2.240060e+03 -1.509310e+03
-4.307144e+09 -4.107143e+09 -4.267148e+09 1.821639e+03 1.675104e+03 -9.202595e+02
-4.818054e+09 -4.618055e+09 -4.778058e+09 1.592039e+03 7.337352e+02 9.509063e+01
-4.301005e+09 -4.101004e+09 -4.261009e+09 1.681413e+03 1.851084e+03 -9.673323e+02
-4.310341e+09 -4.110341e+09 -4.270341e+09 3.198774e+01 2.450289e+01 -3.481771e+00
-4.254440e+09 -4.054440e+09 -4.214440e+09 1.474214e+01 1.586535e+01 -1.658775e+00
-4.632977e+09 -4.432976e+09 -4.592976e+09 -3.013129e+01 -9.392473e+00 -1.494742e+01
-4.144804e+09 -3.944804e+09 -4.104803e+09 1.006975e+01 -6.803337e+00 -2.465383e+01
-4.458504e+09 -4.258505e+09 -4.418505e+09 1.752677e+02 5.640011e+00 -2.571205e-01
-4.488854e+09 -4.288854e+09 -4.448854e+09 1.439371e+02 1.064891e+01 -5.173575e+00
-4.297770e+09 -4.097770e+09 -4.257770e+09 8.268622e+01 -5.743650e+00 -1.144407e+01
-4.315153e+09 -4.115154e+09 -4.275154e+09 1.313313e+02 -9.864101e-01 -2.900486e+01
-4.153890e+09 -3.953890e+09 -4.113890e+09 1.557881e+02 7.601557e+00 3.761359e+01
-4.297313e+09 -4.097313e+09 -4.257313e+09 1.393245e+02 2.426306e+01 4.256299e+01
-4.821662e+09 -4.621662e+09 -4.781662e+09 1.583309e+02 1.023411e+01 -1.875373e+01
-4.990370e+09 -4.790371e+09 -4.950370e+09 2.635609e+02 -2.719028e+00 -4.251972e+01
-4.307490e+09 -4.107491e+09 -4.267490e+09 2.969849e+02 -4.443673e+00 -1.446465e+01
-4.136552e+09 -3.936553e+09 -4.096553e+09 2.580920e+02 1.839554e+01 3.142857e+01
-4.847161e+09 -4.647161e+09 -4.807161e+09 1.924053e+02 -4.599160e+00 -7.249636e+00
-4.984163e+09 -4.784164e+09 -4.944164e+09 1.655168e+02 2.371653e+00 -1.893366e+01
-4.281301e+09 -4.081301e+09 -4.241301e+09 2.293408e+02 5.507486e-01 -4.458841e+01
-4.116255e+09 -3.916255e+09 -4.076255e+09 2.759648e+02 2.325782e+01 7.632096e+00
-4.996622e+09 -4.796623e+09 -4.956623e+09 1.922645e+02 -4.708661e+00 -1.069247e+01
-4.160695e+09 -3.960696e+09 -4.120695e+09 1.939490e+02 1.404976e+01 2.427264e+00
-4.442869e+09 -4.242870e+09 -4.402869e+09 6.163792e+02 4.664622e+01 -5.613765e+00
-4.260051e+09 -4.060051e+09 -4.220051e+09 1.455960e+02 5.934265e+00 -2.915057e+01
-4.302700e+09 -4.102700e+09 -4.262700e+09 2.892421e+02 -8.588467e+00 -2.366539e+01
-4.815093e+09 -4.615093e+09 -4.775093e+09 2.062763e+02 1.311034e+01 -2.959883e+00
-4.304301e+09 -4.104301e+09 -4.264301e+09 1.971969e+02 -6.966502e+00 -3.262307e+01
-2.079558e+09 -1.879562e+09 -2.039560e+09 -9.519907e+02 -1.283020e+03 -1.849456e+02
-3.457197e+09 -3.257199e+09 -3.417198e+09 -6.928833e+02 -6.312010e+02 -2.542569e+01
-2.749037e+09 -2.549040e+09 -2.709038e+09 -7.919507e+01 -4.659535e+01 -3.260683e+01
-2.808924e+09 -2.608927e+09 -2.768925e+09 -4.920571e+01 -9.482015e+01 -4.080564e+01
-3.567833e+09 -3.367836e+09 -3.527835e+09 -6.154735e+02 -5.927254e+02 -1.178635e+02
-4.034955e+09 -3.834958e+09 -3.994957e+09 -5.200420e+02 -3.059600e+02 -1.326021e+02
-3.905643e+09 -3.705647e+09 -3.865645e+09 -6.162021e+01 -1.603896e+02 -2.366607e+01
-3.431644e+09 -3.231646e+09 -3.391645e+09 -3.939508e+02 -3.739095e+02 -7.581599e+01
-3.306168e+09 -3.106172e+09 -3.266170e+09 -3.019216e+02 -7.525280e+02 -9.684659e+01
-4.437071e+09 -4.237071e+09 -4.397071e+09 -1.182561e+01 -1.076494e+01 -1.132534e-01
-4.197758e+09 -3.997758e+09 -4.157758e+09 -1.809849e+02 -6.353904e-01 -3.816893e-01
-4.208307e+09 -4.008307e+09 -4.168307e+09 -1.173235e+02 -5.907388e+00 1.895119e+01
-3.724008e+09 -3.524008e+09 -3.684009e+09 -1.678532e+02 -1.533626e+01 2.171981e+01
-4.800160e+09 -4.600160e+09 -4.760160e+09 -1.424513e+02 7.038920e-01 2.998298e+01
-4.982659e+09 -4.782659e+09 -4.942659e+09 -6.550344e+01 1.438214e+01 -2.560761e-01
-4.068319e+09 -3.868320e+09 -4.028320e+09 -9.278001e+01 -4.400768e+00 -3.216251e+00
-4.823188e+09 -4.623192e+09 -4.783190e+09 2.044601e+00 2.504381e+02 2.186648e+01
-4.313029e+09 -4.113033e+09 -4.273031e+09 1.091940e+02 3.412855e+02 1.116221e+01
-4.318236e+09 -4.118240e+09 -4.278239e+09 8.681440e+02 6.802682e+02 -2.434024e+01
-2.133406e+09 -1.933409e+09 -2.093406e+09 -1.630590e+02 7.856268e+01 -1.118372e+01
-4.835406e+09 -4.635410e+09 -4.795408e+09 5.692551e+02 3.400677e+02 -2.559066e+01
-4.324559e+09 -4.124563e+09 -4.284561e+09 3.644747e+02 2.958148e+02 3.921173e+01
-4.829809e+09 -4.629810e+09 -4.789810e+09 -2.686645e+02 9.511670e+00 -3.571780e+01
-4.312531e+09 -4.112532e+09 -4.272532e+09 -3.728167e+02 -3.536638e+00 -2.360525e+01
-4.814393e+09 -4.614394e+09 -4.774394e+09 -4.123659e+02 9.783466e+00 -4.480115e+01
-4.126476e+09 -3.926477e+09 -4.086477e+09 -3.348686e+02 -2.495479e+01 2.539234e+01
-4.648915e+09 -4.448916e+09 -4.608916e+09 -4.083778e+02 -1.720829e+01 1.987669e+01
-4.831635e+09 -4.631637e+09 -4.791640e+09 -5.959218e+02 -4.083968e+02 1.964296e+01
-4.819769e+09 -4.619769e+09 -4.779775e+09 -4.866414e+02 -6.693681e+02 8.073645e+01
-4.990558e+09 -4.790558e+09 -4.950564e+09 -3.658399e+02 -8.085741e+02 3.300937e+01
-4.135240e+09 -3.935242e+09 -4.095246e+09 -1.783454e+02 -1.863299e+03 3.067275e+02
-4.138270e+09 -3.938272e+09 -4.098275e+09 5.732956e+01 -1.815353e+03 2.102702e+02
-4.660846e+09 -4.460847e+09 -4.620852e+09 -6.009466e+02 -6.090030e+02 -4.724347e+00
-4.834278e+09 -4.634278e+09 -4.794278e+09 8.666022e+01 -2.969234e+00 -4.359765e+00
-4.982717e+09 -4.782716e+09 -4.942716e+09 1.025582e+02 -2.047614e+00 7.340905e+00
-4.639484e+09 -4.439484e+09 -4.599484e+09 1.218246e+02 3.196138e+00 -1.552800e+01
-4.296251e+09 -4.096251e+09 -4.256251e+09 1.171550e+02 1.246732e+00 -9.037990e+00
-4.491046e+09 -4.291045e+09 -4.451045e+09 7.829556e+01 5.182127e+00 -1.411475e+01
-4.436297e+09 -4.236296e+09 -4.396297e+09 1.268043e+02 -3.653454e+00 -9.185886e+00
-4.586697e+09 -4.386697e+09 -4.546697e+09 6.272035e+01 1.134560e+01 2.071625e+00
-3.123842e+09 -2.923842e+09 -3.083842e+09 1.276595e+01 6.869874e+00 -1.675227e+01
-3.166687e+09 -2.966687e+09 -3.126687e+09 1.494012e+01 -6.973695e+00 -1.671560e+01
-2.423926e+09 -2.223925e+09 -2.383925e+09 2.236553e+01 8.532963e+00 -1.899166e+01
-3.686036e+09 -3.486035e+09 -3.646036e+09 2.181779e+01 2.958239e+00 -1.410706e+01
-3.407922e+09 -3.207922e+09 -3.367922e+09 4.754554e+00 2.493838e+00 -4.116932e+00
-3.020791e+09 -2.820790e+09 -2.980790e+09 1.419114e+01 4.267252e+00 -5.196395e+00
-2.211354e+09 -2.011353e+09 -2.171353e+09 2.592463e+01 1.075671e+00 -1.375740e+00
-3.303986e+09 -3.103985e+09 -3.263985e+09 4.255252e+01 1.846238e+00 -3.531895e-01
-3.897632e+09 -3.697632e+09 -3.857632e+09 6.342270e+02 9.642590e+01 4.415801e+01
-4.450302e+09 -4.250302e+09 -4.410302e+09 8.297631e+02 9.563974e+01 9.136272e+00
-4.271690e+09 -4.071690e+09 -4.231690e+09 9.432777e+02 4.653708e+01 -1.087782e+02
-4.158221e+09 -3.958221e+09 -4.118220e+09 5.354997e+02 -9.715919e+00 -2.242891e+01
-4.036200e+09 -3.836200e+09 -3.996199e+09 8.786291e+02 1.422355e+02 -1.234503e+02
-4.195865e+09 -3.995864e+09 -4.155864e+09 6.096303e+02 1.067671e+02 -3.705378e+01
-4.307255e+09 -4.107252e+09 -4.267257e+09 1.298948e+03 9.764089e+02 -8.258648e+02
-4.645476e+09 -4.445475e+09 -4.605478e+09 1.614351e+03 4.436355e+02 -2.520369e+02
-4.819291e+09 -4.619289e+09 -4.779291e+09 1.447309e+03 1.029392e+02 1.081360e+02
-4.302787e+09 -4.102786e+09 -4.262788e+09 1.693640e+03 7.033297e+02 -5.290413e+02
-4.679706e+09 -4.479705e+09 -4.639705e+09 -2.477202e+02 -4.346389e+01 9.967921e+00
-4.837617e+09 -4.637616e+09 -4.797617e+09 -2.613164e+02 -3.345944e+01 6.914307e+01
-4.663914e+09 -4.463913e+09 -4.623913e+09 -3.341567e+02 -3.885791e+01 2.616968e+01
-4.321242e+09 -4.121241e+09 -4.281241e+09 -3.446797e+02 -5.441277e+01 3.403187e+01
-4.835333e+09 -4.635333e+09 -4.795330e+09 2.585715e+03 5.930688e+02 -2.833999e+02
-4.314397e+09 -4.114395e+09 -4.274395e+09 2.876554e+03 1.740107e+03 -1.396843e+02
-5.000863e+09 -4.800861e+09 -4.960861e+09 2.751806e+03 2.232487e+02 1.080179e+02
-4.154228e+09 -3.954227e+09 -4.114229e+09 2.263453e+03 3.615338e+02 -3.237985e+02
-4.638954e+09 -4.438951e+09 -4.598953e+09 2.053954e+03 3.638976e+02 -2.665155e+02
-4.626677e+09 -4.426676e+09 -4.586677e+09 -4.705116e+02 -7.550732e+01 9.663973e+01
-4.797115e+09 -4.597114e+09 -4.757115e+09 -6.221398e+02 -8.558821e+01 2.298541e+02
-4.082056e+09 -3.882055e+09 -4.042056e+09 -4.832882e+02 -1.754412e+02 2.488453e+02
-4.768522e+09 -4.568520e+09 -4.728522e+09 -5.124503e+02 -1.277843e+02 3.559109e+02
-2.144294e+09 -1.944293e+09 -2.104293e+09 -3.056697e+01 -5.002417e+00 -1.099981e+01
-4.855617e+09 -4.655617e+09 -4.815617e+09 -3.540007e+02 3.557376e+00 4.893273e+00
-4.656566e+09 -4.456565e+09 -4.616565e+09 -4.251484e+01 -2.122758e+01 -1.493214e+01
-2.180450e+09 -1.980449e+09 -2.140449e+09 -3.235939e+01 -6.624926e+00 -8.286026e+00
-2.591651e+09 -2.391650e+09 -2.551651e+09 -1.342886e+01 -5.256187e-01 -1.936766e+01
-3.368742e+09 -3.168742e+09 -3.328742e+09 -2.876353e+01 -1.539179e+00 -1.048305e+01
-2.140903e+09 -1.940902e+09 -2.100902e+09 -1.125481e+01 -4.492684e+00 -4.570499e+00
-2.961384e+09 -2.761383e+09 -2.921383e+09 -2.636153e+01 -6.088030e+00 -4.108532e+00
-3.338955e+09 -3.138954e+09 -3.298954e+09 -1.611931e+01 -2.255264e+00 -6.661459e+00
-4.629659e+09 -4.429660e+09 -4.589659e+09 -4.149154e+02 5.363571e+00 -1.405230e+01
-4.017539e+09 -3.817540e+09 -3.977538e+09 -3.381863e+02 2.599442e+01 -1.579254e+01
-3.829175e+09 -3.629176e+09 -3.789175e+09 -1.726068e+02 3.500585e+00 -3.413435e+01
-4.251471e+09 -4.051472e+09 -4.211470e+09 -1.953938e+02 3.091905e+01 -1.337008e+01
-4.697496e+09 -4.497497e+09 -4.657495e+09 -1.223536e+02 -5.850723e+01 -6.818186e+00
-3.736859e+09 -3.536860e+09 -3.696858e+09 -1.887378e+02 1.002449e+01 -4.031659e+01
-4.791421e+09 -4.591422e+09 -4.751421e+09 -1.780560e+02 4.076215e+01 -1.729004e+01
-4.838385e+09 -4.638388e+09 -4.798386e+09 6.466337e+02 -6.798693e+01 2.286197e+01
-4.320387e+09 -4.120391e+09 -4.280388e+09 3.551729e+02 7.643625e+01 -1.156396e+00
-4.132278e+09 -3.932280e+09 -4.092278e+09 4.743103e+02 2.168478e+00 1.241249e+01
-4.860541e+09 -4.660537e+09 -4.820522e+09 -1.384899e+03 1.327023e+03 -1.467499e+03
-4.682544e+09 -4.482538e+09 -4.642521e+09 -1.512502e+03 1.589693e+03 -1.175222e+03
-4.647971e+09 -4.447965e+09 -4.607950e+09 5.410388e+02 3.451958e+03 3.669098e+02
-4.629297e+09 -4.429296e+09 -4.589297e+09 -2.565988e+02 -4.725258e+00 -2.533554e+00
-2.568800e+09 -2.368804e+09 -2.528801e+09 1.484453e+02 -7.672189e+02 7.797696e+01
-4.123899e+09 -3.923899e+09 -4.083899e+09 -3.199764e+02 -2.933010e+01 -4.564644e+01
-4.079921e+09 -3.879920e+09 -4.039920e+09 -1.794475e+02 -1.567796e+01 2.382748e+00
-4.494109e+09 -4.294108e+09 -4.454108e+09 -1.549534e+02 -4.202462e+00 -4.195648e-01
-4.837341e+09 -4.637341e+09 -4.797341e+09 -1.836879e+02 -5.569660e+00 3.101166e+01
-4.150876e+09 -3.950875e+09 -4.110875e+09 -2.066966e+02 -1.300233e+01 -3.967903e+01
-4.822280e+09 -4.622282e+09 -4.782280e+09 -4.353324e+02 -4.391899e+01 -4.005294e+01
-3.866927e+09 -3.666929e+09 -3.826927e+09 -3.493564e+02 3.093526e+01 -1.572601e+01
-3.913457e+09 -3.713457e+09 -3.873456e+09 -3.128590e+02 -2.372125e+01 -3.617687e+01
-4.803416e+09 -4.603417e+09 -4.763416e+09 -3.414115e+02 2.642270e+01 -4.440180e+01
-4.797577e+09 -4.597578e+09 -4.757576e+09 -3.267755e+02 -5.202867e+01 -7.089365e-01
-2.815405e+09 -2.615406e+09 -2.775405e+09 7.715064e+01 -1.377717e+00 1.462012e+01
-2.205102e+09 -2.005102e+09 -2.165101e+09 5.986196e+01 1.869404e-01 1.556235e+01
-2.037615e+09 -1.837616e+09 -1.997615e+09 2.307881e+02 -5.980663e+00 1.695875e+01
-2.326254e+09 -2.126255e+09 -2.286253e+09 1.745195e+02 -2.665819e+01 2.559276e+01
-1.889414e+09 -1.689415e+09 -1.849413e+09 1.086176e+02 -1.726493e+00 2.677789e+01
-1.824801e+09 -1.624802e+09 -1.784801e+09 7.093413e+01 -2.071873e+01 2.565816e+01
-2.001372e+09 -1.801373e+09 -1.961371e+09 1.959204e+02 -2.908876e+00 7.752617e+00
-4.441091e+09 -4.241095e+09 -4.401094e+09 -3.730569e+02 -5.261404e+02 -4.949452e+01
-4.846977e+09 -4.646981e+09 -4.806981e+09 -3.272670e+01 -4.907943e+02 -2.724782e+00
-4.649989e+09 -4.449993e+09 -4.609991e+09 1.852503e+02 -1.828147e+02 2.473884e+01
-4.160512e+09 -3.960515e+09 -4.120515e+09 1.983847e+01 -6.124350e+02 4.693896e+01
-4.831256e+09 -4.631260e+09 -4.791259e+09 1.757041e+02 -1.143483e+02 2.998112e+01
-4.296166e+09 -4.096163e+09 -4.256171e+09 -6.540325e+02 -1.944885e+03 1.038099e+03
-4.793761e+09 -4.593756e+09 -4.753764e+09 -1.034467e+03 -7.111465e+02 4.315230e+02
-4.812152e+09 -4.612149e+09 -4.772155e+09 -1.161248e+03 -4.721040e+02 5.795411e+02
-4.293827e+09 -4.093823e+09 -4.253829e+09 -1.418775e+03 -5.656169e+02 9.664325e+02
-4.125687e+09 -3.925683e+09 -4.085690e+09 -1.153813e+03 -5.127724e+02 8.297981e+02
-4.107257e+09 -3.907256e+09 -4.067256e+09 -1.934226e+02 -2.029019e+01 -1.199158e+01
-3.286672e+09 -3.086674e+09 -3.246673e+09 7.017668e+02 -6.503553e+02 2.859154e+02
-3.271926e+09 -3.071928e+09 -3.231927e+09 4.975413e+02 -6.399180e+02 8.192445e+01
-3.725244e+09 -3.525245e+09 -3.685244e+09 4.357454e+02 -1.331729e+02 5.767223e+01
-4.245072e+09 -4.045074e+09 -4.205073e+09 3.065713e+02 -1.967414e+02 3.826439e+01
-3.262518e+09 -3.062519e+09 -3.222518e+09 5.282946e+02 -2.823749e+02 6.041902e+01
-2.886901e+09 -2.686901e+09 -2.846901e+09 -1.550176e+02 -2.929370e+01 -1.448542e+01
-4.837074e+09 -4.637074e+09 -4.797073e+09 -8.314337e+02 2.198775e+01 2.735328e+01
-3.967797e+09 -3.767797e+09 -3.927796e+09 -9.406382e+02 1.088103e+02 3.081785e+01
-4.134136e+09 -3.934137e+09 -4.094136e+09 -9.005527e+02 7.984422e+01 4.159612e+00
-4.829386e+09 -4.629386e+09 -4.789386e+09 -1.077331e+03 -6.018372e+00 -4.478404e+01
-4.840829e+09 -4.640828e+09 -4.800829e+09 -9.410840e+02 -4.603032e+01 -6.045206e+00
-3.948457e+09 -3.748456e+09 -3.908456e+09 -7.500042e+02 7.166013e+00 2.645430e+01
-4.142921e+09 -3.942921e+09 -4.102921e+09 -1.111085e+03 3.104625e+02 2.172085e+02
-3.962340e+09 -3.762339e+09 -3.922339e+09 -9.497151e+01 -1.690873e+01 -4.786868e+00
-3.803023e+09 -3.603022e+09 -3.763022e+09 -1.489670e+02 -2.580937e+01 -2.425362e+01
-4.813206e+09 -4.613206e+09 -4.773206e+09 -1.594794e+02 -8.843191e+00 -4.135377e+01
-4.027795e+09 -3.827794e+09 -3.987794e+09 -1.551543e+02 -2.288925e+01 -2.464197e+01
-4.601489e+09 -4.401488e+09 -4.561489e+09 -7.890282e+01 -6.667005e+00 -1.562094e+01
-4.785405e+09 -4.585404e+09 -4.745404e+09 -1.348449e+02 -4.215419e+00 1.989326e+01
-2.139954e+09 -1.939957e+09 -2.099955e+09 -7.721117e+01 -9.232267e+01 -5.630380e+01
-4.215951e+09 -4.015951e+09 -4.175951e+09 4.078672e+01 7.065680e+00 5.530367e-01
-4.277525e+09 -4.077525e+09 -4.237525e+09 -3.523121e+01 3.086420e+01 2.408686e+00
-3.102216e+09 -2.902219e+09 -3.062217e+09 -2.652601e+02 -1.236260e+02 -9.500741e+01
-4.028747e+09 -3.828746e+09 -3.988746e+09 -5.638329e+01 5.180778e+00 -1.563832e+01
-4.603790e+09 -4.403790e+09 -4.563790e+09 -4.489943e+01 1.386161e+01 -1.018181e+01
-4.778584e+09 -4.578584e+09 -4.738584e+09 5.344048e+00 -4.017611e+00 -1.680995e+00
-4.798507e+09 -4.598506e+09 -4.758506e+09 -1.976052e+01 -6.391829e+00 -9.579692e+00
-2.856700e+09 -2.656699e+09 -2.816699e+09 -6.642161e+00 -1.928118e+00 -2.999698e+00
-3.800480e+09 -3.600479e+09 -3.760479e+09 -3.437457e+01 -4.616183e+00 -3.775611e+00
-2.716795e+09 -2.516795e+09 -2.676795e+09 -4.527035e+01 -6.284607e+00 -1.013200e+01
-4.474197e+09 -4.274196e+09 -4.434197e+09 -2.796944e+01 -3.376185e+00 -3.743505e+00
-3.754326e+09 -3.554325e+09 -3.714325e+09 -8.507783e+00 -4.933511e-01 -4.020521e+00
-4.801482e+09 -4.601482e+09 -4.761482e+09 -1.336550e+03 -1.095455e+02 -8.986389e+01
-4.115017e+09 -3.915016e+09 -4.075016e+09 -1.462833e+03 2.923647e+02 4.003699e+01
-4.433375e+09 -4.233375e+09 -4.393374e+09 -1.367780e+03 4.131440e+02 -1.886184e+01
-4.811134e+09 -4.611133e+09 -4.771134e+09 -1.637378e+03 -9.918204e+01 1.669616e+02
-4.776608e+09 -4.576608e+09 -4.736607e+09 -1.537863e+03 4.872939e+02 -7.380784e+01
-3.918925e+09 -3.718925e+09 -3.878925e+09 -1.385779e+02 -1.938802e+01 -4.682459e-01
-4.601558e+09 -4.401558e+09 -4.561558e+09 -1.169595e+02 3.648996e+00 -4.355397e+01
-3.996803e+09 -3.796804e+09 -3.956804e+09 -1.766317e+02 -1.970491e+01 -1.925427e+01
-4.119818e+09 -3.919818e+09 -4.079818e+09 -2.468831e+02 -2.325246e+01 -3.193726e+00
-4.254462e+09 -4.054462e+09 -4.214462e+09 -2.121849e+02 -1.465510e+01 -3.138102e+01
-4.282813e+09 -4.082813e+09 -4.242813e+09 -2.804429e+02 -8.152056e-01 -9.921287e+00
-4.739337e+09 -4.539338e+09 -4.699339e+09 6.175999e+02 -4.545916e+01 1.328402e+02
-4.577044e+09 -4.377045e+09 -4.537046e+09 1.115353e+03 -8.395494e+01 -1.529491e+02
-3.434881e+09 -3.234884e+09 -3.394883e+09 5.237917e+02 5.987319e+00 1.607357e+02
-3.914018e+09 -3.714020e+09 -3.874021e+09 1.098759e+03 5.445932e+01 -3.389458e+01
-4.640849e+09 -4.440853e+09 -4.600852e+09 9.704550e+02 1.199955e+02 1.718350e+02
-4.482013e+09 -4.282016e+09 -4.442016e+09 6.135449e+02 7.225072e+01 -2.233102e+00
-4.668029e+09 -4.468031e+09 -4.628031e+09 5.879812e+02 1.765684e+01 7.273684e+01
-3.004898e+09 -2.804898e+09 -2.964898e+09 -1.175886e+02 -1.360448e+01 -2.078848e+01
-2.114330e+09 -1.914334e+09 -2.074333e+09 2.048038e+02 5.924884e-01 2.793270e+02
-1.566319e+09 -1.366322e+09 -1.526322e+09 2.409930e+02 -6.750634e+01 -7.491916e+01
-2.488568e+09 -2.288572e+09 -2.448572e+09 7.895818e+02 9.839304e+01 2.134842e+02
-2.363061e+09 -2.163065e+09 -2.323065e+09 6.719424e+02 2.390173e+02 2.764487e+02
-1.960875e+09 -1.760877e+09 -1.920877e+09 9.648324e+02 3.224321e+01 -2.464262e+02
-1.745330e+09 -1.545332e+09 -1.705332e+09 7.565147e+02 6.926013e-01 -3.187434e+02
-4.800849e+09 -4.600846e+09 -4.760852e+09 1.080688e+03 3.702816e+02 -1.403774e-01
-4.813908e+09 -4.613906e+09 -4.773912e+09 1.606655e+03 6.452841e+02 -8.617199e+02
-4.127442e+09 -3.927441e+09 -4.087446e+09 1.587991e+03 1.678513e+03 -8.422035e+02
-4.650376e+09 -4.450376e+09 -4.610380e+09 1.806034e+03 5.190041e+02 -2.685359e+02
-4.114384e+09 -3.914380e+09 -4.074387e+09 1.631047e+03 1.493305e+03 -1.693944e+03
-4.463809e+09 -4.263808e+09 -4.423808e+09 2.211535e+01 3.551989e+00 -1.933664e+00
-3.788428e+09 -3.588427e+09 -3.748427e+09 2.082853e+01 4.708870e+00 -5.269392e+00
-2.940091e+09 -2.740091e+09 -2.900091e+09 1.445500e+01 8.261978e+00 -7.751380e+00
-2.733269e+09 -2.533268e+09 -2.693268e+09 1.328114e+01 8.985591e+00 -3.777352e+00
-2.749812e+09 -2.549812e+09 -2.709812e+09 1.494875e+01 4.106331e+00 -7.598728e+00
-3.804368e+09 -3.604367e+09 -3.764368e+09 3.647757e+01 5.023040e+00 9.312195e-01
-4.079314e+09 -3.879313e+09 -4.039313e+09 2.830840e+01 8.363941e-01 -3.097819e+00
-3.904521e+09 -3.704520e+09 -3.864520e+09 1.998030e+01 4.721304e+00 -5.577668e+00
-2.142054e+09 -1.942053e+09 -2.102054e+09 -2.592782e+01 -9.002552e+00 2.512166e+00
-4.399483e+09 -4.199483e+09 -4.359483e+09 -6.051119e+01 -1.047214e+01 5.298588e-01
-4.356863e+09 -4.156863e+09 -4.316863e+09 -7.593553e+01 -2.636263e+00 3.265734e+00
-4.656167e+09 -4.456167e+09 -4.616167e+09 -1.076331e+02 2.167585e+00 5.074419e+00
-4.094834e+09 -3.894834e+09 -4.054834e+09 -4.377754e+01 7.068017e-01 7.516853e+00
-4.399380e+09 -4.199380e+09 -4.359379e+09 4.110391e+02 2.638392e+01 2.211025e+01
-4.666836e+09 -4.466837e+09 -4.626836e+09 3.984402e+02 1.189988e+01 -3.186716e+01
-4.445975e+09 -4.245975e+09 -4.405975e+09 1.729038e+02 1.431012e+01 7.736246e-01
-3.956071e+09 -3.756071e+09 -3.916070e+09 4.353973e+02 -2.920326e+01 3.275270e+01
-1.986903e+09 -1.786901e+09 -1.946902e+09 -6.896382e+02 -5.104104e+02 -2.574166e+02
-3.611401e+09 -3.411402e+09 -3.571400e+09 2.581071e+02 6.693040e+01 -6.406297e+00
-3.220169e+09 -3.020168e+09 -3.180168e+09 2.688413e+01 1.075236e+00 -1.528401e+01
-3.055632e+09 -2.855631e+09 -3.015631e+09 1.087894e+01 3.591021e-01 -1.002069e+01
-3.333321e+09 -3.133320e+09 -3.293320e+09 4.506063e+01 2.699853e+00 -1.920456e+01
-2.218602e+09 -2.018602e+09 -2.178602e+09 1.650963e+01 -3.596341e+00 -1.408647e+01
-2.927527e+09 -2.727526e+09 -2.887526e+09 4.702139e+01 1.316474e+01 -1.825782e+01
-4.797887e+09 -4.597880e+09 -4.757874e+09 -7.651436e+02 -4.675330e+02 2.389795e+03
-4.159770e+09 -3.959766e+09 -4.119740e+09 -8.617270e+02 -2.135848e+03 -3.799110e+03
-4.360994e+09 -4.160992e+09 -4.320974e+09 5.919819e+01 -2.053453e+03 -1.115597e+03
-4.853058e+09 -4.653053e+09 -4.813040e+09 1.632945e+03 -5.488773e+02 -4.492532e+02
-4.846235e+09 -4.646233e+09 -4.806213e+09 4.601122e+02 -1.488612e+03 -1.042063e+02
-4.589525e+09 -4.389523e+09 -4.549525e+09 -1.914897e+02 -3.112253e+01 5.315303e+01
-4.971807e+09 -4.771805e+09 -4.931806e+09 -4.740339e+02 1.037296e+02 8.295810e+01
-5.008205e+09 -4.808205e+09 -4.968205e+09 -3.647934e+02 1.230085e+01 -1.007547e+01
-4.457392e+09 -4.257390e+09 -4.417392e+09 -1.060013e+03 2.115091e+02 3.009662e+02
-4.815024e+09 -4.615022e+09 -4.775024e+09 -4.033451e+02 5.557201e+01 -8.368548e+01
-4.114159e+09 -3.914157e+09 -4.074159e+09 -1.062240e+03 2.300479e+02 3.469055e+02
-4.128559e+09 -3.928556e+09 -4.088559e+09 -6.943443e+02 2.805587e+02 5.360804e+02
-4.788313e+09 -4.588313e+09 -4.748313e+09 5.463157e+02 8.545509e+00 1.480699e-01
-4.132686e+09 -3.932686e+09 -4.092686e+09 5.563719e+02 -1.774210e+01 -8.746605e+01
-3.966066e+09 -3.766067e+09 -3.926066e+09 5.458073e+02 2.317611e+01 -8.200832e+01
-3.955780e+09 -3.755781e+09 -3.915781e+09 4.428916e+02 -1.178722e+01 -1.113185e+02
-4.113292e+09 -3.913292e+09 -4.073292e+09 6.754479e+02 -2.122462e+01 -7.999888e+01
-4.299426e+09 -4.099426e+09 -4.259426e+09 7.221206e+02 -6.152698e+01 -1.294443e+02
-4.829174e+09 -4.629175e+09 -4.789175e+09 5.399791e+02 -1.822922e+01 -1.006234e+02
-2.025526e+09 -1.825526e+09 -1.985526e+09 5.066033e+01 9.836857e+00 1.056427e+01
-1.860374e+09 -1.660375e+09 -1.820375e+09 4.309226e+01 2.044761e+01 -2.285911e+01
-1.951377e+09 -1.751378e+09 -1.911378e+09 9.387722e+01 1.634480e+01 -2.048360e+01
-2.913630e+09 -2.713630e+09 -2.873630e+09 -9.669418e+01 -1.090889e+01 1.981871e+01
-1.786519e+09 -1.586519e+09 -1.746519e+09 8.634740e+01 9.145076e+00 -9.421439e+00
-2.246181e+09 -2.046181e+09 -2.206181e+09 8.578780e+01 1.549271e+01 -2.621423e+00
-1.586522e+09 -1.386523e+09 -1.546522e+09 5.913885e+01 3.139361e+01 -2.531166e+00
-2.172325e+09 -1.972326e+09 -2.132326e+09 7.657524e+01 1.457464e+01 -3.713431e+00
-4.648025e+09 -4.448024e+09 -4.608024e+09 -2.264559e+02 -2.603944e+01 -7.105395e+00
-4.326737e+09 -4.126736e+09 -4.286736e+09 -1.931576e+02 -4.456340e+01 2.522109e+01
-4.134407e+09 -3.934406e+09 -4.094406e+09 -3.482803e+02 -6.509882e+01 8.542196e+01
-4.664474e+09 -4.464473e+09 -4.624474e+09 -3.445903e+02 -3.497133e+01 6.302145e+00
-4.477639e+09 -4.277639e+09 -4.437639e+09 -3.873809e+02 -2.974084e+01 1.808469e+01
-2.900509e+09 -2.700509e+09 -2.860509e+09 -8.883752e+00 -5.520569e+00 -3.178096e+01
-2.709936e+09 -2.509936e+09 -2.669936e+09 -3.559529e+01 -1.975245e+01 -4.657269e+01
-3.929648e+09 -3.729648e+09 -3.889648e+09 -8.630452e+01 -1.107460e+01 -2.910591e+01
-3.000887e+09 -2.800887e+09 -2.960887e+09 -9.209874e+01 -1.444390e+01 -8.058002e+00
-3.671353e+09 -3.471352e+09 -3.631352e+09 -3.631915e+01 -1.961605e+01 -3.856077e+01
-3.851109e+09 -3.651108e+09 -3.811108e+09 -1.772471e+01 1.746550e+00 -1.001487e+01
-3.954914e+09 -3.754916e+09 -3.914915e+09 -1.970692e+02 8.171955e+01 -2.710644e+02
-4.797742e+09 -4.597743e+09 -4.757742e+09 4.439557e+01 -2.842022e-01 -2.344562e+02
-4.100458e+09 -3.900460e+09 -4.060458e+09 3.546492e+02 1.022453e+01 -3.369303e+02
-4.098166e+09 -3.898167e+09 -4.058166e+09 4.156216e+02 -1.194426e+01 -3.577203e+02
-4.252227e+09 -4.052229e+09 -4.212228e+09 3.244391e+02 -2.327861e+01 -3.422613e+02
-4.441399e+09 -4.241400e+09 -4.401399e+09 4.167585e+02 -1.488653e+01 -2.102157e+02
-3.959566e+09 -3.759567e+09 -3.919567e+09 -3.187817e+02 -1.087961e+01 2.281835e+01
-4.134038e+09 -3.934039e+09 -4.094039e+09 -2.717816e+02 5.615171e-01 -2.340809e+01
-4.623943e+09 -4.423943e+09 -4.583943e+09 -2.907501e+02 -4.990576e+00 1.691158e+01
-4.819293e+09 -4.619294e+09 -4.779294e+09 -3.055519e+02 -1.925932e+01 2.195815e+01
-4.265549e+09 -4.065549e+09 -4.225549e+09 -2.106184e+02 -1.620857e+01 -1.712215e+01
-4.966570e+09 -4.766571e+09 -4.926568e+09 -1.100906e+03 1.541506e+02 -4.640177e+02
-4.477507e+09 -4.277509e+09 -4.437505e+09 -1.041321e+03 -1.894418e+02 -8.679110e+02
-3.936872e+09 -3.736872e+09 -3.896869e+09 -1.625926e+03 8.049321e+02 -6.915254e+02
-4.779848e+09 -4.579849e+09 -4.739845e+09 -7.050027e+02 2.957395e+02 -9.383888e+01
-4.093382e+09 -3.893384e+09 -4.053379e+09 -4.309708e+02 2.120249e+02 -1.498201e+03
-3.980807e+09 -3.780810e+09 -3.940808e+09 3.598304e+02 1.130896e+02 -1.598327e+01
-4.443360e+09 -4.243363e+09 -4.403360e+09 3.557890e+01 1.028477e+01 3.192508e+00
-4.015156e+09 -3.815159e+09 -3.975157e+09 1.089713e+02 1.798124e+01 1.704132e+01
-4.566221e+09 -4.366224e+09 -4.526221e+09 1.908039e+02 2.926867e+01 -2.400314e+01
-3.844250e+09 -3.644253e+09 -3.804251e+09 5.338185e+01 6.614642e+01 -8.579232e+00
-4.588424e+09 -4.388427e+09 -4.548424e+09 1.244609e+02 2.280236e+01 -8.660280e+00
-4.074630e+09 -3.874633e+09 -4.034630e+09 5.590031e+01 3.737066e+01 -4.609332e+00
-3.786180e+09 -3.586183e+09 -3.746180e+09 3.425916e+01 7.372862e+00 -7.087291e+00
-4.715174e+09 -4.515177e+09 -4.675174e+09 3.626307e+01 4.317233e+00 7.972503e+00
-2.484497e+09 -2.284497e+09 -2.444497e+09 -2.586095e+02 1.960671e+02 1.073078e+02
-2.797813e+09 -2.597813e+09 -2.757813e+09 -2.722208e+02 1.221864e+02 1.145787e+02
-2.856196e+09 -2.656197e+09 -2.816198e+09 -1.048397e+03 -5.470785e+01 6.133900e+01
-2.656823e+09 -2.456823e+09 -2.616823e+09 1.592141e+02 -2.400686e+01 -2.267010e+01
-4.993185e+09 -4.793185e+09 -4.953191e+09 -7.352260e+02 -8.885582e+02 -1.663418e+02
-3.567249e+09 -3.367247e+09 -3.527248e+09 -2.288592e+01 2.032760e+02 -1.014997e+02
-4.145170e+09 -3.945172e+09 -4.105175e+09 -5.123722e+02 -1.904851e+03 -1.307268e+02
-3.650303e+09 -3.450301e+09 -3.610303e+09 -1.164388e+02 -2.675681e+02 -6.976629e+01
-4.143233e+09 -3.943234e+09 -4.103239e+09 -8.929260e+02 -1.653843e+03 -1.898851e+02
-2.782497e+09 -2.582495e+09 -2.742496e+09 -5.483535e+02 -4.327743e+02 -1.917697e+02
-4.484166e+09 -4.284165e+09 -4.444170e+09 -1.229009e+03 -1.124656e+03 -3.421399e+02
-4.984188e+09 -4.784191e+09 -4.944190e+09 3.228145e+02 -2.188947e+02 2.706633e+01
-4.319755e+09 -4.119757e+09 -4.279760e+09 -6.564526e+02 -1.447402e+03 -1.405571e+02
-4.830228e+09 -4.630229e+09 -4.790232e+09 -8.991070e+02 -4.918100e+02 -1.627275e+02
-4.502135e+09 -4.302135e+09 -4.462135e+09 1.851002e+02 5.534396e+00 -6.865149e-01
-4.997992e+09 -4.797991e+09 -4.957991e+09 1.664473e+02 -1.298649e+01 -2.987930e+01
-4.502135e+09 -4.302135e+09 -4.462135e+09 1.657688e+02 5.757371e+00 -1.968395e+01
-4.517233e+09 -4.317233e+09 -4.477233e+09 9.910128e+01 7.509467e+00 -9.699344e+00
-3.960336e+09 -3.760335e+09 -3.920336e+09 -6.033423e+02 -1.024338e+02 1.278475e+02
-4.998312e+09 -4.798311e+09 -4.958311e+09 8.349631e+01 -9.380038e+00 -3.290914e+00
-4.657087e+09 -4.457089e+09 -4.617087e+09 -6.002243e+02 2.932986e+01 1.407181e+01
-4.502455e+09 -4.302455e+09 -4.462455e+09 8.214408e+01 2.194502e-01 -3.047888e+00
-3.981653e+09 -3.781652e+09 -3.941652e+09 1.590469e+02 1.396705e+01 -3.706657e+01
-3.969249e+09 -3.769251e+09 -3.929250e+09 -1.199854e+02 -3.079528e-01 -1.785031e+01
-4.986013e+09 -4.786014e+09 -4.946014e+09 -1.357565e+02 -1.273363e+01 1.026791e+00
-3.832178e+09 -3.632178e+09 -3.792177e+09 1.175839e+02 6.066612e+01 -5.079716e+00
-1.574533e+09 -1.374533e+09 -1.534532e+09 1.202057e+02 2.280422e+01 6.491361e+00
-4.308206e+09 -4.108208e+09 -4.268207e+09 -1.769110e+02 -1.568099e+00 -2.334220e+01
-4.142556e+09 -3.942557e+09 -4.102557e+09 -2.928099e+02 -1.035724e+01 3.966923e+01
-4.646206e+09 -4.446207e+09 -4.606206e+09 -2.162734e+02 1.850574e+00 1.578957e+00
-4.299408e+09 -4.099410e+09 -4.259409e+09 -1.292476e+02 -3.363457e+00 -1.407135e+01
-4.811610e+09 -4.611611e+09 -4.771610e+09 -1.669841e+02 2.661297e+00 -3.419775e+01
-4.277992e+09 -4.077991e+09 -4.237992e+09 1.017269e+03 1.223609e+02 -1.408497e+02
-1.643151e+09 -1.443150e+09 -1.603150e+09 5.009318e+02 1.877817e+02 -4.573521e+00
-4.788365e+09 -4.588363e+09 -4.748364e+09 7.861943e+02 -3.005737e+01 8.267745e+01
-3.968533e+09 -3.768536e+09 -3.928534e+09 -8.790434e+02 3.266224e+02 8.529784e+01
-4.643217e+09 -4.443215e+09 -4.603216e+09 9.513047e+02 1.711662e+02 -5.143670e+01
-4.003591e+09 -3.803589e+09 -3.963590e+09 6.476205e+02 3.522584e+02 -2.720204e+02
-4.815430e+09 -4.615429e+09 -4.775429e+09 -6.792737e+02 5.407554e+01 1.428492e+01
-3.681144e+09 -3.481143e+09 -3.641143e+09 -1.966342e+00 -1.542574e+00 1.464175e+00
-3.980486e+09 -3.780484e+09 -3.940485e+09 5.062834e+02 9.967711e+01 -4.369719e+01
-4.256810e+09 -4.056808e+09 -4.216810e+09 8.213072e+02 1.193421e+02 -1.926356e+02
-2.434520e+09 -2.234520e+09 -2.394520e+09 -5.010692e+01 -1.492189e+01 -2.577951e+01
-4.976221e+09 -4.776220e+09 -4.936221e+09 -2.563470e+02 2.957123e+00 -4.118803e+00
-3.782494e+09 -3.582494e+09 -3.742494e+09 -2.581057e+02 -1.843744e+02 -4.575599e+01
-4.450576e+09 -4.250576e+09 -4.410575e+09 -1.150300e+02 -5.840740e+01 -5.842200e+00
-2.897396e+09 -2.697395e+09 -2.857395e+09 -8.437041e+01 -1.404277e+02 -3.171762e+01
-2.426121e+09 -2.226120e+09 -2.386120e+09 -9.985827e+01 -3.483022e+01 -3.055964e+01
-2.925557e+09 -2.725557e+09 -2.885557e+09 4.674824e+00 2.900993e+00 -5.346088e+00
-3.879087e+09 -3.679086e+09 -3.839086e+09 -2.115982e+02 -2.272076e+01 -2.398234e+01
-4.492910e+09 -4.292909e+09 -4.452909e+09 -2.531096e+02 -9.146205e+01 1.429961e+00
-4.140172e+09 -3.940172e+09 -4.100172e+09 3.644388e+01 -2.558051e+01 -4.900960e+01
-3.726494e+09 -3.526494e+09 -3.686493e+09 -3.031184e+02 -1.269129e+02 -6.772376e+01
-3.167743e+09 -2.967743e+09 -3.127742e+09 -5.001103e+01 1.105094e+02 -1.087740e+01
-4.294701e+09 -4.094698e+09 -4.254702e+09 -1.393008e+03 -2.754474e+02 7.482865e+02
-4.292188e+09 -4.092183e+09 -4.252190e+09 -1.862688e+03 -9.977319e+02 1.014036e+02
-4.991583e+09 -4.791580e+09 -4.951586e+09 -1.546099e+03 -7.525326e+02 2.444916e+02
-4.929399e+09 -4.729398e+09 -4.889399e+09 0.000000e+00 3.448832e-01 -1.387193e+00
-4.800812e+09 -4.600809e+09 -4.760813e+09 -1.130610e+03 -5.035702e+02 6.293242e+02
-4.114346e+09 -3.914343e+09 -4.074348e+09 -1.356336e+03 -8.421730e+01 6.493344e+02
-4.813060e+09 -4.613058e+09 -4.773064e+09 -7.488622e+02 -4.966521e+01 7.778434e+01
-3.963619e+09 -3.763617e+09 -3.923622e+09 1.852551e+03 1.431949e+03 -1.011125e+03
-4.130025e+09 -3.930021e+09 -4.090026e+09 -1.262304e+03 -6.499658e+02 9.072956e+02
-4.420938e+09 -4.220938e+09 -4.380938e+09 -1.522913e+02 -9.460017e+00 -8.492414e+00
-4.081246e+09 -3.881245e+09 -4.041245e+09 -9.061764e+01 -6.721965e+00 -9.058084e+00
-3.008688e+09 -2.808688e+09 -2.968688e+09 -1.492010e+01 -3.778259e+00 -6.163308e+00
-3.958025e+09 -3.758028e+09 -3.918028e+09 1.591773e+03 8.514659e+02 -1.816222e+02
-2.198143e+09 -1.998142e+09 -2.158143e+09 7.077547e+01 -2.710141e+02 -2.005731e+02
-3.932265e+09 -3.732265e+09 -3.892265e+09 -1.636715e+02 -2.360435e+01 3.744027e+00
-3.831229e+09 -3.631228e+09 -3.791228e+09 -8.517474e+01 -1.017445e+01 -1.952741e+01
-4.713506e+09 -4.513506e+09 -4.673506e+09 -1.105437e+02 -6.610428e-01 9.414109e+00
-1.853994e+09 -1.653994e+09 -1.813994e+09 -9.710957e+01 -1.230314e+01 7.037609e+00
-3.952310e+09 -3.752309e+09 -3.912310e+09 -3.784395e+01 -4.077744e+00 -1.366178e+01
-2.964231e+09 -2.764230e+09 -2.924231e+09 -8.236452e+01 -9.041863e+00 -1.770001e+01
-4.618530e+09 -4.418530e+09 -4.578530e+09 -2.512038e+02 -1.445033e+01 2.484925e+01
-4.652767e+09 -4.452767e+09 -4.612767e+09 -5.264745e+02 -2.321456e+01 2.680067e+01
-4.816668e+09 -4.616668e+09 -4.776668e+09 -4.220581e+02 -3.136024e+00 1.033282e+01
-3.874167e+09 -3.674167e+09 -3.834167e+09 -1.486502e+02 -1.997619e+01 -3.923666e+01
-4.500477e+09 -4.300477e+09 -4.460477e+09 -5.002925e+02 -1.963666e+01 -1.535648e+00
-3.129501e+09 -2.929502e+09 -3.089502e+09 -2.065054e+02 -1.581502e+01 -1.189436e+01
-4.157244e+09 -3.957244e+09 -4.117244e+09 -4.527768e+02 -1.873080e+01 -4.171060e+01
-4.467132e+09 -4.267131e+09 -4.427132e+09 -3.697826e+02 -2.275165e+01 -3.210090e+00
-4.140549e+09 -3.940548e+09 -4.100549e+09 -3.567044e+02 -1.889770e+01 2.942892e+01
-4.475307e+09 -4.275307e+09 -4.435307e+09 1.917265e+01 1.241961e+01 -1.365285e+01
-4.984514e+09 -4.784515e+09 -4.944515e+09 3.450140e+01 -3.493572e+00 -1.675399e+00
-4.650398e+09 -4.450397e+09 -4.610397e+09 7.784819e+01 1.867244e+01 -2.095992e+01
-4.287383e+09 -4.087382e+09 -4.247382e+09 1.082520e+01 -8.391471e+00 -1.420301e+01
-3.958037e+09 -3.758036e+09 -3.918036e+09 1.079272e+02 1.344900e+01 -3.506896e+01
-4.169308e+09 -3.969308e+09 -4.129308e+09 1.490349e+02 4.700949e+01 7.666608e+00
-4.968059e+09 -4.768059e+09 -4.928059e+09 3.772438e+01 -3.239933e+00 5.264269e-01
-4.987735e+09 -4.787734e+09 -4.947734e+09 1.698574e+02 -5.108788e+00 1.028663e+00
-3.057575e+09 -2.857576e+09 -3.017576e+09 5.954583e+00 6.128467e+00 7.692478e-01
-3.958036e+09 -3.758036e+09 -3.918036e+09 1.751928e+02 3.086745e+01 -3.391047e+01
-4.115824e+09 -3.915823e+09 -4.075823e+09 8.625508e+01 -3.303612e+01 -7.050283e+01
-4.309449e+09 -4.109450e+09 -4.269450e+09 5.481585e+01 4.956394e+00 -6.239730e+00
-3.324473e+09 -3.124474e+09 -3.284474e+09 1.239560e+02 7.473382e-01 6.973478e+00
-4.315392e+09 -4.115393e+09 -4.275393e+09 -8.571888e+01 -2.453342e+00 -1.543012e+01
-4.481660e+09 -4.281661e+09 -4.441661e+09 1.286433e+02 5.215646e+00 -4.960134e+00
-5.002829e+09 -4.802828e+09 -4.962828e+09 4.337275e+01 -8.168595e+00 7.237972e+00
-3.164550e+09 -2.964551e+09 -3.124551e+09 -2.046908e+02 -1.683678e+01 -1.137130e+01
-2.772469e+09 -2.572470e+09 -2.732470e+09 -2.974630e+00 -5.083969e+00 2.234479e+00
-1.590007e+09 -1.390006e+09 -1.550006e+09 1.746846e+01 -9.535361e+01 -6.502423e+01
-1.575895e+09 -1.375895e+09 -1.535895e+09 9.674189e+01 -8.943372e+01 -7.348490e+01
-4.132162e+09 -3.932163e+09 -4.092162e+09 1.986977e+02 2.321681e+01 -3.384185e+00
-1.674129e+09 -1.474128e+09 -1.634128e+09 -1.178813e+02 -4.608804e+01 -2.501049e+01
-3.962921e+09 -3.762922e+09 -3.922922e+09 3.708410e+01 1.774853e+01 -1.543933e+01
-4.616260e+09 -4.416261e+09 -4.576261e+09 -4.111019e+00 -2.068317e+00 -4.073541e-01
-3.107386e+09 -2.907386e+09 -3.067386e+09 -7.411033e+01 -4.850977e+00 -1.835670e+01
-4.813248e+09 -4.613249e+09 -4.773249e+09 1.041073e+02 -3.718897e+00 -7.905642e+00
-4.481328e+09 -4.281329e+09 -4.441328e+09 5.197865e+01 3.282666e+00 -4.065583e+00
-4.481660e+09 -4.281661e+09 -4.441661e+09 1.702069e+02 3.411200e+00 -1.409220e+01
-4.983520e+09 -4.783520e+09 -4.943520e+09 -9.245825e+01 1.615589e+00 -6.672849e-01
-4.126783e+09 -3.926784e+09 -4.086784e+09 1.010062e+02 5.197092e+00 1.326654e+01
-3.701083e+09 -3.501085e+09 -3.661083e+09 -2.367639e+02 -9.583642e+01 4.947737e+00
-4.517249e+09 -4.317253e+09 -4.477251e+09 5.777212e+01 -8.076370e+01 4.592433e+00
-2.106905e+09 -1.906906e+09 -2.066905e+09 3.307105e+01 -2.541793e+01 2.594209e+01
-4.944589e+09 -4.744588e+09 -4.904588e+09 -4.425885e+01 -1.994364e+01 2.044251e+01
-4.125298e+09 -3.925297e+09 -4.085297e+09 2.313173e+02 -1.748088e+02 2.162275e+02
-4.990733e+09 -4.790735e+09 -4.950734e+09 -2.779276e+02 -3.405160e+01 -8.570035e+01
-2.804082e+09 -2.604086e+09 -2.764084e+09 -6.698161e+02 -9.424702e+02 -1.314524e+02
-3.890087e+09 -3.690089e+09 -3.850088e+09 -5.405189e+02 -2.277429e+02 -5.311636e+01
-4.445145e+09 -4.245147e+09 -4.405146e+09 -6.054074e+01 -4.076894e+01 -1.466388e+01
-4.696610e+09 -4.496609e+09 -4.656609e+09 -1.139639e+01 -2.324040e+01 -6.765237e+00
-4.621402e+09 -4.421405e+09 -4.581404e+09 -3.288005e+02 -1.734104e+02 -5.281555e+01
-4.629576e+09 -4.429579e+09 -4.589577e+09 -8.411697e+01 1.658115e+01 1.723265e+01
-4.551481e+09 -4.351484e+09 -4.511482e+09 -3.464772e+02 -1.280917e+02 -3.304237e+01
-2.811173e+09 -2.611176e+09 -2.771174e+09 3.543372e+02 -2.944494e+02 1.118527e+02
-4.903433e+09 -4.703436e+09 -4.863434e+09 -2.016741e+02 -3.839880e+01 -2.740076e+01
-4.468269e+09 -4.268266e+09 -4.428270e+09 4.892433e+02 -3.442912e+02 -6.597471e+02
-3.945317e+09 -3.745318e+09 -3.905318e+09 2.709141e+02 1.696804e+01 1.709326e+01
-1.919677e+09 -1.719677e+09 -1.879678e+09 -1.324332e+02 -4.022392e+02 -7.052561e+01
-4.840693e+09 -4.640692e+09 -4.800694e+09 2.029730e+03 -2.199233e+00 3.633035e+02
-4.300361e+09 -4.100361e+09 -4.260361e+09 3.862939e+02 -8.104234e+00 -7.931210e+01
-4.318757e+09 -4.118755e+09 -4.278758e+09 2.080956e+03 1.962464e+02 -1.296187e+02
-4.002295e+09 -3.802298e+09 -3.962295e+09 -6.806448e+00 -2.835162e+01 -8.926855e+00
-4.804499e+09 -4.604496e+09 -4.764501e+09 9.085394e+02 -1.172282e+02 -2.977925e+02
-4.300864e+09 -4.100861e+09 -4.260865e+09 9.120475e+02 -2.519489e+02 -5.254475e+02
-4.664700e+09 -4.464698e+09 -4.624701e+09 1.192096e+03 -1.236619e+02 -2.561014e+02
-4.126559e+09 -3.926562e+09 -4.086559e+09 2.867986e+02 -1.020750e+01 1.523997e+01
-1.636074e+09 -1.436076e+09 -1.596073e+09 4.732838e+01 1.810374e+01 2.924958e+01
-4.569655e+09 -4.369658e+09 -4.529656e+09 2.869158e+02 1.064990e+01 -2.374641e+01
-4.334660e+09 -4.134664e+09 -4.294662e+09 -1.156001e+02 1.602233e+02 1.565018e+01
-4.641251e+09 -4.441250e+09 -4.601250e+09 -2.847241e+02 -5.003095e+00 -4.102401e+01
-4.705717e+09 -4.505719e+09 -4.665717e+09 1.278645e+02 -3.463090e+01 6.140628e+00
-4.304792e+09 -4.104791e+09 -4.264792e+09 -2.252621e+02 -4.813317e+01 1.337400e+01
-3.932972e+09 -3.732974e+09 -3.892972e+09 4.141220e+02 2.186405e+01 2.619589e+01
-4.809425e+09 -4.609427e+09 -4.769425e+09 4.083755e+02 -4.214907e+01 -2.610885e+01
-4.759071e+09 -4.559074e+09 -4.719071e+09 2.224423e+02 -2.989447e+01 2.798839e+01
-4.287981e+09 -4.087981e+09 -4.247981e+09 5.112486e+02 -6.544158e+01 -1.845097e+02
-4.009463e+09 -3.809465e+09 -3.969463e+09 1.703278e+02 1.726591e+01 1.601640e+01
-3.994538e+09 -3.794539e+09 -3.954539e+09 -1.717252e+02 2.050349e+00 -1.066905e+00
-4.461439e+09 -4.261443e+09 -4.421438e+09 -1.155831e+03 2.072045e+01 8.307085e+02
-1.859634e+09 -1.659633e+09 -1.819633e+09 4.216143e+02 2.057637e+02 -8.032775e+01
-4.992794e+09 -4.792792e+09 -4.952795e+09 -1.471750e+03 2.697936e+02 2.113938e+02
-4.145314e+09 -3.945314e+09 -4.105314e+09 -1.503683e+02 2.082604e+00 -2.891792e+00
-4.196240e+09 -3.996240e+09 -4.156240e+09 -1.834061e+02 -4.939977e+00 -3.392355e+00
-3.956073e+09 -3.756074e+09 -3.916073e+09 7.902800e+02 3.991560e+00 -2.258773e+02
-4.812942e+09 -4.612943e+09 -4.772942e+09 -3.285285e+02 1.104111e+01 -2.114357e+01
-4.984612e+09 -4.784614e+09 -4.944613e+09 -4.538367e+02 6.099708e+00 -1.134433e+02
-4.995214e+09 -4.795214e+09 -4.955214e+09 -2.310446e+02 -1.518700e+00 -1.601006e+01
-4.783491e+09 -4.583492e+09 -4.743492e+09 -1.962531e+02 -1.265810e+01 2.658777e+01
-4.133581e+09 -3.933580e+09 -4.093584e+09 2.219875e+03 1.313059e+03 -1.226129e+03
-4.820590e+09 -4.620590e+09 -4.780591e+09 1.747929e+03 3.377087e+02 -3.754553e+02
-4.695664e+09 -4.495666e+09 -4.655665e+09 1.495180e+02 6.956395e+01 -1.904770e+01
-3.025539e+09 -2.825542e+09 -2.985541e+09 7.315124e+02 -1.036851e+03 2.836351e+02
-4.996328e+09 -4.796327e+09 -4.956327e+09 -1.594925e+02 -2.605903e+01 1.834012e+01
-4.962754e+09 -4.762754e+09 -4.922754e+09 -6.820939e+02 4.111990e+00 -9.613968e+01
-4.134913e+09 -3.934914e+09 -4.094915e+09 2.045115e+03 9.182475e+02 -5.804055e+02
-1.889931e+09 -1.689933e+09 -1.849931e+09 -1.692987e+02 -2.087071e+01 -5.599926e+00
-4.639643e+09 -4.439638e+09 -4.599638e+09 -2.338566e+03 -1.112149e+03 8.399019e+02
-4.134681e+09 -3.934678e+09 -4.094681e+09 1.398232e+03 8.961525e+02 -1.011819e+03
-2.218538e+09 -2.018539e+09 -2.178538e+09 1.427274e+02 5.223217e+00 5.884825e+00
-4.993318e+09 -4.793316e+09 -4.953320e+09 1.564480e+03 3.747433e+02 -2.728476e+02
-4.994980e+09 -4.794981e+09 -4.954980e+09 -9.353129e+02 7.939957e+01 4.280325e+01
-4.307233e+09 -4.107234e+09 -4.267234e+09 3.062132e+02 -5.778248e+00 -5.398283e+01
-4.134124e+09 -3.934124e+09 -4.094126e+09 1.726273e+03 5.751442e+02 -2.011271e+02
-4.318272e+09 -4.118272e+09 -4.278272e+09 -3.531251e+02 -2.778687e+00 -4.741349e+00
-4.626046e+09 -4.426046e+09 -4.586046e+09 -2.797718e+02 -1.155233e+01 2.113904e+01
-4.259797e+09 -4.059797e+09 -4.219797e+09 -1.805328e+02 -2.859835e+00 -2.890715e+01
-4.809222e+09 -4.609221e+09 -4.769222e+09 -2.553126e+02 -1.654977e+01 2.014389e-02
-3.877946e+09 -3.677945e+09 -3.837946e+09 3.599041e-01 -1.333967e+00 -1.383462e+00
-4.806284e+09 -4.606284e+09 -4.766284e+09 -2.246770e+02 2.808281e+00 -5.611739e+00
-4.474839e+09 -4.274840e+09 -4.434839e+09 -4.421958e+02 -6.729796e-01 -1.472785e+01
-3.967277e+09 -3.767277e+09 -3.927277e+09 -2.471043e+02 -2.311645e+01 -2.437336e+00
-2.169609e+09 -1.969609e+09 -2.129609e+09 -1.904587e+01 5.751702e-01 -2.982616e+01
-4.641576e+09 -4.441577e+09 -4.601577e+09 -2.531441e+02 1.668294e+01 -4.270485e+01
-2.639849e+09 -2.439848e+09 -2.599848e+09 -4.205203e+01 4.671318e+01 -3.373144e+01
-2.826183e+09 -2.626183e+09 -2.786182e+09 -2.835891e+01 1.670605e+01 -3.379184e+01
-2.991811e+09 -2.791811e+09 -2.951811e+09 9.810411e+00 -7.005664e+00 -2.763490e+01
-4.305245e+09 -4.105245e+09 -4.265245e+09 -6.991152e+01 -6.158061e+00 3.879464e+00
-1.675470e+09 -1.475469e+09 -1.635469e+09 -5.531790e+01 4.265064e+00 -4.974969e+01
-1.923142e+09 -1.723141e+09 -1.883141e+09 -1.744085e+01 -1.441811e+01 -3.317504e+01
-4.819152e+09 -4.619151e+09 -4.779152e+09 5.108750e+02 -8.029658e+00 -7.903839e+00
-4.320411e+09 -4.120410e+09 -4.280410e+09 4.185118e+02 2.642456e+01 -2.116161e+01
-3.977178e+09 -3.777177e+09 -3.937177e+09 4.237397e+02 2.863523e+01 -4.640348e+01
-4.905173e+09 -4.705175e+09 -4.865173e+09 -1.141820e+01 9.947388e-05 1.029691e+01
-4.675795e+09 -4.475796e+09 -4.635795e+09 1.308745e+03 6.513190e+01 -1.144083e+01
-4.823925e+09 -4.623926e+09 -4.783926e+09 1.564990e+03 1.984578e+02 -1.383677e+02
-4.843668e+09 -4.643668e+09 -4.803668e+09 1.307987e+03 6.791855e+01 2.518672e+01
-4.157202e+09 -3.957203e+09 -4.117202e+09 1.423925e+03 2.912037e+02 -1.871278e+02
-2.000893e+09 -1.800893e+09 -1.960893e+09 4.117398e+01 6.905561e+00 -1.543395e+01
-4.934329e+09 -4.734329e+09 -4.894329e+09 2.215857e+01 1.060936e+00 3.026109e+00
-4.960869e+09 -4.760868e+09 -4.920868e+09 -3.609712e+01 -5.159396e+00 1.313083e-01
-3.990757e+09 -3.790756e+09 -3.950756e+09 3.308788e+01 9.271211e+00 -5.415970e-01
-2.894729e+09 -2.694729e+09 -2.854729e+09 4.515538e+01 1.160880e+01 -3.425058e+00
-3.495178e+09 -3.295178e+09 -3.455178e+09 2.197983e+01 1.302798e+01 -1.053180e+01
-3.823026e+09 -3.623025e+09 -3.783026e+09 5.539534e+01 1.697891e+01 -8.768317e+00
-4.148156e+09 -3.948156e+09 -4.108156e+09 3.746155e+01 5.928069e-01 -2.050026e+00
-1.589813e+09 -1.389814e+09 -1.549813e+09 -1.545698e+02 6.670963e+01 -6.605795e+01
-4.669705e+09 -4.469705e+09 -4.629705e+09 3.222654e+01 -5.617906e-01 2.591896e+00
-5.005328e+09 -4.805329e+09 -4.965327e+09 -5.201566e+02 4.972033e+00 1.164147e+01
-3.644980e+09 -3.444982e+09 -3.604980e+09 3.777798e+02 1.721408e+01 -1.091598e+01
-5.014392e+09 -4.814393e+09 -4.974392e+09 1.229741e+03 9.850430e+01 -5.250113e+01
-4.462425e+09 -4.262425e+09 -4.422425e+09 3.812850e+01 7.843171e+00 5.257554e+00
-4.996885e+09 -4.796887e+09 -4.956885e+09 -6.831202e+02 2.922037e+01 3.950825e+01
-4.588246e+09 -4.388246e+09 -4.548246e+09 3.855266e+01 5.127303e+00 2.064723e+01
-2.903655e+09 -2.703654e+09 -2.863654e+09 -2.782408e+01 1.206308e+01 -3.250520e+01
-4.989807e+09 -4.789807e+09 -4.949807e+09 -1.124614e+03 -6.223043e+00 3.850771e+01
-4.477511e+09 -4.277508e+09 -4.437513e+09 -1.919263e+03 1.105723e+03 1.273110e+03
-4.791433e+09 -4.591433e+09 -4.751433e+09 4.118462e+01 6.781526e+00 1.001742e+01
-4.130820e+09 -3.930820e+09 -4.090821e+09 4.233068e+02 -4.883847e+02 5.131869e+02
-4.305882e+09 -4.105881e+09 -4.265886e+09 -2.190049e+01 -1.388971e+03 9.476147e+02
-4.288196e+09 -4.088199e+09 -4.248196e+09 -1.616991e+02 5.816826e+01 2.501989e+01
-1.598965e+09 -1.398964e+09 -1.558964e+09 -2.016701e+02 -1.441438e+02 -2.900628e+01
-4.818541e+09 -4.618540e+09 -4.778544e+09 3.605681e+02 -2.478066e+02 4.115582e+02
-4.783999e+09 -4.583997e+09 -4.744000e+09 -3.908396e+02 -2.611989e+02 3.788525e+02
-2.022202e+09 -1.822202e+09 -1.982202e+09 -1.254493e+02 -5.013711e+01 -4.225227e+01
-4.988591e+09 -4.788588e+09 -4.948593e+09 -4.526465e+02 -5.067861e+02 3.065587e+02
-1.605928e+09 -1.405928e+09 -1.565928e+09 -6.771534e+01 -1.430076e+01 -3.566496e+01
-4.132076e+09 -3.932075e+09 -4.092078e+09 4.851899e+02 -8.497688e+02 5.163466e+02
-4.097533e+09 -3.897531e+09 -4.057534e+09 -2.246423e+02 -4.368593e+02 5.804557e+02
-3.608765e+09 -3.408764e+09 -3.568765e+09 4.205258e+01 3.936762e+00 -1.067805e+01
-5.000488e+09 -4.800489e+09 -4.960492e+09 -7.822876e+02 -7.034586e+02 -5.245318e+01
-2.496687e+09 -2.296686e+09 -2.456686e+09 -4.353186e+02 -2.899895e+02 -8.710776e+01
-3.014036e+09 -2.814036e+09 -2.974036e+09 4.434074e+01 9.783807e+00 1.968319e+00
-3.207924e+09 -3.007923e+09 -3.167923e+09 1.567920e+01 -2.106155e-01 -3.844601e+00
-4.310044e+09 -4.110045e+09 -4.270047e+09 -8.851731e+02 -1.297624e+03 -3.061042e+02
-4.484165e+09 -4.284165e+09 -4.444169e+09 -4.296004e+02 -1.143918e+03 -3.567948e+02
-4.819359e+09 -4.619360e+09 -4.779362e+09 -9.484482e+02 -6.055201e+02 -9.567413e+01
-4.327046e+09 -4.127047e+09 -4.287049e+09 -1.029757e+03 -9.936153e+02 -4.021828e+02
-2.772781e+09 -2.572781e+09 -2.732781e+09 1.449197e+00 2.201909e-01 -1.092657e+00
-4.519152e+09 -4.319150e+09 -4.479155e+09 -1.161324e+03 -8.602150e+02 -3.543978e+02
-1.581653e+09 -1.381653e+09 -1.541653e+09 1.024355e+02 2.229072e+01 -9.458829e+00
-3.985197e+09 -3.785197e+09 -3.945199e+09 -1.155246e+03 -9.263741e+02 -5.551512e+02
-4.294302e+09 -4.094298e+09 -4.254297e+09 2.572826e+03 4.301753e+02 2.122199e+03
-4.642162e+09 -4.442166e+09 -4.602155e+09 -1.264630e+03 -3.893664e+02 1.367884e+03
-4.983230e+09 -4.783235e+09 -4.943232e+09 -1.809828e+02 7.308780e+01 1.211320e+02
-4.637180e+09 -4.437181e+09 -4.597180e+09 -1.982675e+03 1.629371e+01 4.676009e+02
-4.303679e+09 -4.103678e+09 -4.263678e+09 -2.253696e+03 -3.900115e+02 3.887648e+02
-4.456102e+09 -4.256104e+09 -4.416094e+09 2.891176e+03 3.991663e+03 1.495906e+03
-4.464570e+09 -4.264569e+09 -4.424566e+09 -2.937009e+03 -9.894783e+02 8.508892e+02
-4.120798e+09 -3.920804e+09 -4.080795e+09 -1.077013e+03 -3.638609e+02 3.788031e+03
-4.978752e+09 -4.778752e+09 -4.938751e+09 1.789900e+02 5.205423e-01 -3.099075e+00
-3.958025e+09 -3.758028e+09 -3.918028e+09 1.803917e+03 1.167615e+03 -3.723235e+02
-4.981650e+09 -4.781652e+09 -4.941651e+09 -2.872137e+02 -1.254528e+01 6.433609e-01
-4.625125e+09 -4.425131e+09 -4.585124e+09 -8.986364e+02 -9.759869e+01 1.164605e+03
-4.804672e+09 -4.604677e+09 -4.764673e+09 -1.107892e+03 -5.349165e+01 3.130940e+02
-1.576291e+09 -1.376292e+09 -1.536292e+09 -5.281135e+01 -1.697288e+01 -1.394218e+00
-3.950847e+09 -3.750848e+09 -3.910847e+09 -7.790937e+02 -1.579996e+01 -1.180746e+02
-4.812201e+09 -4.612201e+09 -4.772201e+09 1.876885e+02 9.130233e+00 1.345587e+01
-4.807265e+09 -4.607270e+09 -4.767261e+09 -8.013714e+02 -9.850803e+01 3.433935e+02
-2.645522e+09 -2.445523e+09 -2.605522e+09 -1.324397e+02 3.530432e+01 -4.465099e+01
-3.751077e+09 -3.551077e+09 -3.711077e+09 6.511596e+01 -1.075237e+02 1.325663e+01
-4.561569e+09 -4.361568e+09 -4.521569e+09 1.289334e+00 -1.253636e+01 -1.200075e+01
-4.218336e+09 -4.018336e+09 -4.178336e+09 2.045557e+01 -1.415412e+02 5.542063e+01
-3.958434e+09 -3.758437e+09 -3.918437e+09 -1.017655e+03 9.590260e+02 2.533975e+02
-2.897119e+09 -2.697118e+09 -2.857118e+09 -1.662388e+01 -5.730142e+01 -1.642324e+01
-4.996730e+09 -4.796730e+09 -4.956730e+09 1.356425e+02 -1.301096e+01 -1.647325e+01
-4.251257e+09 -4.051256e+09 -4.211256e+09 1.805019e+01 -5.521855e+01 4.749464e+01
-3.645494e+09 -3.445497e+09 -3.605495e+09 2.441676e+01 -8.384055e+01 2.182218e+01
-4.744021e+09 -4.544020e+09 -4.704020e+09 6.356399e+01 2.176733e+00 2.790162e+01
-4.304142e+09 -4.104141e+09 -4.264142e+09 -5.221327e+02 -5.027384e+01 5.183395e+01
-4.290909e+09 -4.090911e+09 -4.250910e+09 -1.916518e+02 -8.377842e+00 -4.655804e+01
-4.651285e+09 -4.451285e+09 -4.611285e+09 -5.437018e+02 -3.879163e+01 1.283145e+01
-4.981524e+09 -4.781523e+09 -4.941523e+09 4.629483e+01 -3.228724e+01 3.006303e+01
-4.824777e+09 -4.624777e+09 -4.784777e+09 -3.134446e+02 -2.150790e+01 5.839581e+01
-3.964317e+09 -3.764316e+09 -3.924316e+09 -2.781578e+02 -5.459548e+01 2.072697e+01
-4.496068e+09 -4.296071e+09 -4.456069e+09 -4.910776e+01 5.464733e+01 -8.883106e+00
-4.820872e+09 -4.620871e+09 -4.780872e+09 -3.799802e+02 -3.968096e+00 -4.409057e+01
-4.820312e+09 -4.620311e+09 -4.780311e+09 -4.216253e+02 -4.021202e+01 1.037645e+02
-3.954583e+09 -3.754583e+09 -3.914582e+09 -6.292111e+02 5.978245e+00 -1.218073e+01
-2.432659e+09 -2.232657e+09 -2.392658e+09 -2.311203e+02 -1.866686e+02 -2.281788e+01
-4.986533e+09 -4.786532e+09 -4.946535e+09 1.745059e+02 -3.036400e+02 2.404155e+02
-3.052775e+09 -2.852773e+09 -3.012774e+09 -6.891410e+01 -2.167322e+02 -2.019085e+01
-2.191714e+09 -1.991712e+09 -2.151713e+09 -3.166169e+02 -2.725700e+02 -1.209315e+02
-5.001633e+09 -4.801634e+09 -4.961634e+09 3.806928e+02 -5.185671e+00 -6.065901e+01
-1.552191e+09 -1.352193e+09 -1.512193e+09 7.502329e+02 5.143229e+01 -1.211937e+02
-4.890114e+09 -4.690117e+09 -4.850117e+09 -8.760360e+01 -2.444003e+01 9.951422e-05
-4.280699e+09 -4.080703e+09 -4.240700e+09 -9.275165e+02 -1.488844e+02 5.949819e+02
-4.479606e+09 -4.279610e+09 -4.439608e+09 7.534158e+02 2.435817e+02 -2.028347e+01
-2.184106e+09 -1.984104e+09 -2.144104e+09 -1.167004e+02 -2.575418e+02 -3.631420e+00
-2.174259e+09 -1.974261e+09 -2.134261e+09 -7.747866e+02 -8.102550e+01 1.649173e+02
-1.940035e+09 -1.740034e+09 -1.900034e+09 -1.281639e+02 -3.224063e+02 -3.631460e+01
-2.885299e+09 -2.685299e+09 -2.845300e+09 2.492699e+02 -2.806537e+02 -2.427382e+01
-3.108606e+09 -2.908605e+09 -3.068607e+09 1.704056e+02 -3.141541e+02 -9.617958e+01
-2.907448e+09 -2.707449e+09 -2.867448e+09 -1.696248e+02 -2.375753e+01 -4.808800e+01
-1.979282e+09 -1.779285e+09 -1.939282e+09 3.189934e+00 2.133739e+01 -2.096684e+01
-3.034092e+09 -2.834091e+09 -2.994092e+09 -3.335782e+01 -3.105935e+02 -1.395615e+02
-2.540449e+09 -2.340450e+09 -2.500448e+09 4.581752e+01 1.373266e+00 4.724345e+01
-4.740647e+09 -4.540648e+09 -4.700646e+09 3.771954e+02 -1.688100e+01 3.856773e+01
-1.671812e+09 -1.471811e+09 -1.631812e+09 7.620076e+01 -4.249052e+02 -8.943879e+01
-1.595487e+09 -1.395488e+09 -1.555487e+09 4.016334e+02 5.595279e+01 2.688523e+01
-1.919494e+09 -1.719493e+09 -1.879494e+09 -1.439296e+01 -3.779553e+02 -1.413127e+02
-4.812835e+09 -4.612834e+09 -4.772834e+09 -2.042977e+02 -2.027868e+01 -1.950014e+01
-2.156973e+09 -1.956973e+09 -2.116972e+09 9.883125e+01 4.622855e+01 1.385192e+01
-3.956238e+09 -3.756238e+09 -3.916237e+09 -2.687222e+02 -6.071280e+00 -4.549586e+01
-4.126369e+09 -3.926369e+09 -4.086369e+09 -2.306973e+02 4.574925e+01 -1.084420e+01
-4.646300e+09 -4.446299e+09 -4.606299e+09 -1.408119e+02 -1.622068e+01 -3.353935e+01
-4.303289e+09 -4.103289e+09 -4.263289e+09 -7.094316e+01 3.845160e+01 8.196564e+00
-3.608088e+09 -3.408089e+09 -3.568089e+09 -3.882589e+01 -5.310758e+00 -5.684831e-01
-3.783681e+09 -3.583682e+09 -3.743682e+09 -2.795423e+01 -9.432580e+00 1.578684e+00
-3.355423e+09 -3.155424e+09 -3.315424e+09 8.743037e+01 1.667838e+00 -2.688761e+00
-2.720401e+09 -2.520402e+09 -2.680402e+09 -7.521765e+01 -5.399034e+00 4.391541e+00
-2.784223e+09 -2.584224e+09 -2.744223e+09 -1.496130e+01 -8.206520e+00 3.701159e+00
-4.410777e+09 -4.210778e+09 -4.370778e+09 -3.008993e-01 7.010787e+00 -2.374591e+00
-2.340759e+09 -2.140760e+09 -2.300760e+09 -4.938816e+01 -5.438826e+00 6.583457e+00
-5.015536e+09 -4.815536e+09 -4.975536e+09 6.720324e+01 -7.568730e+00 6.677997e+00
-2.219731e+09 -2.019731e+09 -2.179731e+09 -2.644294e+01 -3.609163e+00 3.633721e+00
-1.926767e+09 -1.726768e+09 -1.886767e+09 -2.050513e+01 -9.743001e+00 1.179193e+01
-3.016051e+09 -2.816052e+09 -2.976052e+09 -2.970836e+00 -5.079197e+00 5.573391e-01
-2.766852e+09 -2.566851e+09 -2.726851e+09 -4.324469e+00 -3.382852e+01 -5.611985e+01
-2.118508e+09 -1.918508e+09 -2.078507e+09 -2.009077e+01 -7.525010e+00 -4.927810e+01
-1.837335e+09 -1.637334e+09 -1.797334e+09 7.322838e+01 -6.745696e+01 -3.427826e+01
-3.887882e+09 -3.687881e+09 -3.847881e+09 -3.409644e+01 -3.844271e+01 3.843951e+00
-1.657151e+09 -1.457150e+09 -1.617150e+09 -1.365358e+00 6.662640e+00 -3.529713e+00
-1.857884e+09 -1.657884e+09 -1.817884e+09 3.416336e+01 -5.444429e+01 -5.306497e+01
-2.100997e+09 -1.900997e+09 -2.060997e+09 8.049968e+01 -7.248699e+01 -4.658670e+01
-1.581477e+09 -1.381476e+09 -1.541476e+09 3.728489e+01 1.350333e+01 -1.231724e+01
-1.711007e+09 -1.511006e+09 -1.671006e+09 4.771012e+01 1.854250e+01 -1.228527e+01
-2.160845e+09 -1.960844e+09 -2.120844e+09 7.927564e+01 -7.368999e+01 -3.236339e+01
-4.982717e+09 -4.782716e+09 -4.942716e+09 1.147649e+02 -6.186212e+00 1.180084e+00
-2.464478e+09 -2.264478e+09 -2.424478e+09 8.824498e+01 -9.559460e+01 -4.070396e+01
-4.268875e+09 -4.068879e+09 -4.228877e+09 9.450326e+02 9.719134e+01 2.078359e+01
-4.907933e+09 -4.707932e+09 -4.867932e+09 -2.364843e+00 -3.639727e+00 -4.973784e-05
-1.695812e+09 -1.495812e+09 -1.655812e+09 9.541199e+01 2.364772e+01 -9.206962e+00
-5.018490e+09 -4.818494e+09 -4.978492e+09 1.074041e+03 5.970897e+01 1.125173e+01
-4.401905e+09 -4.201906e+09 -4.361907e+09 1.168724e+03 1.250621e+02 1.769737e+02
-4.329550e+09 -4.129551e+09 -4.289550e+09 2.529734e+03 6.302707e+02 4.865283e+02
-3.089813e+09 -2.889813e+09 -3.049813e+09 7.956089e-01 -2.420350e+00 -1.459437e+00
-3.525386e+09 -3.325386e+09 -3.485386e+09 2.031777e+01 6.226450e+00 1.284121e+01
-4.498021e+09 -4.298022e+09 -4.458023e+09 1.849002e+03 1.485371e+02 -1.519389e+02
-4.434640e+09 -4.234640e+09 -4.394641e+09 1.444960e+03 -1.209475e+01 1.895594e+01
-3.814481e+09 -3.614483e+09 -3.774483e+09 1.686732e+03 3.848691e+02 2.310182e+02
-1.838975e+09 -1.638976e+09 -1.798976e+09 9.342599e+01 1.524559e+01 5.212703e+00
-1.674100e+09 -1.474100e+09 -1.634100e+09 -9.687516e+01 -6.310955e+01 -5.545484e+01
-2.281949e+09 -2.081949e+09 -2.241949e+09 -1.108405e+02 -1.073920e+01 -1.787971e+01
-4.944589e+09 -4.744588e+09 -4.904588e+09 6.256645e+01 -1.131318e+01 1.988097e+01
-3.026655e+09 -2.826654e+09 -2.986654e+09 -6.737793e+01 -5.699867e+01 -2.282593e+00
-4.575370e+09 -4.375373e+09 -4.535373e+09 7.042193e+02 1.261434e+02 2.113881e+02
-3.068383e+09 -2.868382e+09 -3.028382e+09 -6.665392e+01 -1.417516e+01 -2.057004e+01
-4.379953e+09 -4.179955e+09 -4.339955e+09 1.149880e+03 1.397491e+02 4.477386e+01
-4.983597e+09 -4.783598e+09 -4.943598e+09 -4.991372e+02 -9.349648e+00 -4.573615e+01
-4.297559e+09 -4.097560e+09 -4.257559e+09 -4.000986e+02 -8.946198e+00 -4.334795e+01
-1.908677e+09 -1.708676e+09 -1.868676e+09 -6.509017e+01 -1.237787e+01 -9.554314e+00
-4.478272e+09 -4.278273e+09 -4.438273e+09 -6.491318e+02 -2.641037e+01 -1.236019e+01
-3.961844e+09 -3.761845e+09 -3.921845e+09 -6.806566e+02 1.177408e+01 3.097145e+01
-4.288494e+09 -4.088495e+09 -4.248494e+09 -3.474985e+02 1.386437e+00 -4.839055e+01
-4.628583e+09 -4.428584e+09 -4.588584e+09 -3.686677e+02 5.658965e+00 -2.808970e+01
-4.810906e+09 -4.610907e+09 -4.770907e+09 -5.058208e+02 1.408476e+01 -1.420299e+02
-1.676403e+09 -1.476403e+09 -1.636403e+09 -2.233129e+02 -3.638604e+01 -1.222500e+01
-4.814896e+09 -4.614895e+09 -4.774901e+09 1.644903e+03 7.226850e+02 6.863573e+01
-4.621440e+09 -4.421437e+09 -4.581443e+09 1.443789e+03 4.533138e+02 -6.739314e+02
-4.802319e+09 -4.602317e+09 -4.762326e+09 1.358931e+03 1.041664e+03 -1.139544e+03
-1.587170e+09 -1.387170e+09 -1.547170e+09 -1.168085e+02 -2.519203e+01 -1.038910e+01
-2.207112e+09 -2.007111e+09 -2.167111e+09 -7.118305e+01 -7.358015e+01 -2.881700e+01
-1.908023e+09 -1.708021e+09 -1.868022e+09 -1.355141e+02 -4.451844e+02 -7.121233e+01
-2.747141e+09 -2.547139e+09 -2.707141e+09 -4.395934e+02 -7.944939e+02 -7.846819e+02
-4.116782e+09 -3.916777e+09 -4.076787e+09 1.871474e+03 2.351243e+03 -2.396484e+03
-4.267545e+09 -4.067540e+09 -4.227549e+09 1.042776e+03 1.656220e+03 -1.453619e+03
-3.281506e+09 -3.081505e+09 -3.241505e+09 -4.973038e-05 -2.210294e+01 -1.929544e+01
-3.325169e+09 -3.125173e+09 -3.285172e+09 -7.891350e+02 -1.132837e+02 7.903420e+02
-3.775958e+09 -3.575963e+09 -3.735961e+09 -7.451928e+02 4.001319e+01 8.323620e+02
-1.598015e+09 -1.398017e+09 -1.558015e+09 3.765224e+02 5.325860e+01 1.553264e+01
-2.781506e+09 -2.581509e+09 -2.741508e+09 -1.019679e+03 4.174303e+01 4.791034e+02
-4.605645e+09 -4.405646e+09 -4.565646e+09 -1.202254e+03 -1.172359e+02 7.234097e+01
-4.013383e+09 -3.813384e+09 -3.973384e+09 -1.165928e+03 -3.991062e+01 -4.224601e+01
-1.957469e+09 -1.757470e+09 -1.917470e+09 -1.065754e+03 -7.622813e+01 4.068496e+02
-1.947016e+09 -1.747019e+09 -1.907016e+09 -1.416553e+02 1.155330e+02 -2.707143e+01
-3.105244e+09 -2.905247e+09 -3.065247e+09 -8.299295e+02 9.354079e+00 4.905861e+02
-4.315006e+09 -4.115006e+09 -4.275006e+09 1.332713e+03 3.269158e+02 -1.955839e+02
-2.877519e+09 -2.677522e+09 -2.837520e+09 5.140443e+02 8.834646e+01 -5.444022e+00
-4.142498e+09 -3.942497e+09 -4.102497e+09 1.322077e+03 3.424442e+02 -2.476134e+02
-1.597409e+09 -1.397409e+09 -1.557409e+09 -6.816283e+01 -1.495194e+01 -1.965541e+01
-4.136339e+09 -3.936340e+09 -4.096340e+09 -5.058306e+02 1.082102e+01 -3.187500e+01
-2.638059e+09 -2.438060e+09 -2.598060e+09 -4.013717e+01 -2.228558e+01 1.484460e+01
-4.990411e+09 -4.790411e+09 -4.950411e+09 -5.501569e+02 8.481173e+00 -2.439939e+01
-4.332562e+09 -4.132563e+09 -4.292562e+09 1.305501e+03 2.447685e+02 -1.113825e+02
-4.640233e+09 -4.440233e+09 -4.600233e+09 9.885320e+02 1.520805e+02 2.325053e+00
-3.799962e+09 -3.599962e+09 -3.759962e+09 -3.587206e+01 -4.561471e-01 -1.789430e+00
-4.442043e+09 -4.242042e+09 -4.402042e+09 -5.138653e+01 -3.846830e+00 -1.734811e+00
-1.830017e+09 -1.630016e+09 -1.790016e+09 -8.360603e+01 -1.440849e+01 -3.996323e+01
-4.908634e+09 -4.708634e+09 -4.868634e+09 -2.847744e+01 1.362025e+00 3.277510e+00
-4.686999e+09 -4.486998e+09 -4.646999e+09 -3.468395e+01 3.572540e+00 -2.245670e-01
-3.325074e+09 -3.125074e+09 -3.285074e+09 -1.279356e+01 -1.438398e+00 -1.146172e+01
-4.723236e+09 -4.523235e+09 -4.683236e+09 -7.628835e+01 5.831012e+00 2.648598e+00
-1.697014e+09 -1.497013e+09 -1.657013e+09 -1.275681e+02 -2.711379e+01 -2.321880e+01
-1.996972e+09 -1.796971e+09 -1.956971e+09 -1.557186e+02 -2.214738e+01 1.620712e-01
-2.152202e+09 -1.952202e+09 -2.112202e+09 5.629368e+01 1.349469e+01 -6.828342e+00
-2.865273e+09 -2.665273e+09 -2.825273e+09 4.448118e+01 1.469571e+01 1.402865e+01
-2.079473e+09 -1.879473e+09 -2.039473e+09 4.807629e+01 1.175309e+01 -2.716726e+00
-4.803377e+09 -4.603377e+09 -4.763377e+09 -1.014707e+02 -1.675956e+01 -1.140224e+01
-2.944487e+09 -2.744487e+09 -2.904487e+09 1.954319e+00 9.003430e+00 8.175347e+00
-2.637212e+09 -2.437211e+09 -2.597212e+09 5.100025e+01 1.293744e+01 -6.196742e+00
-1.964406e+09 -1.764406e+09 -1.924406e+09 -2.456055e+02 -1.263514e+01 -1.158236e+00
-3.435875e+09 -3.235875e+09 -3.395874e+09 2.660746e+01 -9.104291e+00 -4.709673e+01
-3.097371e+09 -2.897370e+09 -3.057370e+09 4.901604e+01 3.600981e+00 -7.271694e-02
-2.247085e+09 -2.047089e+09 -2.207087e+09 -9.073128e+02 -1.298803e+03 -1.369456e+02
-3.960860e+09 -3.760861e+09 -3.920866e+09 -2.071033e+02 -2.141279e+03 2.858422e+02
-2.014111e+09 -1.814116e+09 -1.974112e+09 -2.266431e+02 -1.314775e+03 -1.057968e+02
-2.732880e+09 -2.532883e+09 -2.692881e+09 -5.583949e+02 -5.017669e+02 -1.011578e+02
-1.598965e+09 -1.398965e+09 -1.558964e+09 -4.167511e+02 -1.562032e+02 -4.118121e+01
-4.792971e+09 -4.592970e+09 -4.752970e+09 -1.960408e+02 1.745438e+01 -1.293219e+01
-4.634018e+09 -4.434020e+09 -4.594016e+09 -1.833007e+01 3.121906e+02 -6.518647e+02
-3.011345e+09 -2.811346e+09 -2.971345e+09 9.518757e+00 -1.867199e+01 9.764413e+00
-1.674098e+09 -1.474098e+09 -1.634098e+09 1.605956e+02 -1.513217e+02 1.569987e+01
-4.751232e+09 -4.551231e+09 -4.711231e+09 -3.549282e+02 -1.329289e+02 -4.347389e+01
-2.754406e+09 -2.554410e+09 -2.714407e+09 2.198345e+01 -9.268259e+01 5.768188e+01
-2.260886e+09 -2.060885e+09 -2.220885e+09 -1.469647e+02 -1.272898e+02 -1.666302e+01
-4.029859e+09 -3.829859e+09 -3.989859e+09 -1.469621e+02 -4.076352e+00 1.896882e+00
-3.009059e+09 -2.809057e+09 -2.969059e+09 -1.332072e+02 -5.250721e+02 -5.912370e+02
-4.610419e+09 -4.410419e+09 -4.570418e+09 -5.318677e+01 -4.083681e+01 -1.921401e+01
-4.002316e+09 -3.802315e+09 -3.962315e+09 2.168909e+02 3.757759e+01 -3.720912e+01
-4.877313e+09 -4.677312e+09 -4.837312e+09 -1.347171e+02 -2.791545e-01 -5.047212e+00
-2.122892e+09 -1.922891e+09 -2.082891e+09 5.765250e+02 2.544301e+02 -6.062871e+01
-2.925346e+09 -2.725344e+09 -2.885345e+09 1.365985e+02 1.715971e+02 -2.692696e+01
-3.060189e+09 -2.860187e+09 -3.020188e+09 1.505454e+02 1.839791e+02 -1.875503e+01
-1.917830e+09 -1.717829e+09 -1.877829e+09 1.329111e+02 2.881562e+02 -2.496627e+01
-4.802289e+09 -4.602288e+09 -4.762289e+09 6.583116e+01 4.323025e+01 2.771172e+01
-3.961176e+09 -3.761175e+09 -3.921175e+09 -1.670830e+02 1.037669e+01 -5.650868e+01
-1.917830e+09 -1.717828e+09 -1.877829e+09 1.500896e+02 2.502377e+02 -1.951670e+01
-4.493488e+09 -4.293490e+09 -4.453489e+09 -6.696401e+02 -2.129955e+02 -8.653872e+01
-3.836669e+09 -3.636673e+09 -3.796672e+09 -4.222159e+02 -7.274571e+02 -1.911821e+00
-4.451833e+09 -4.251836e+09 -4.411834e+09 -3.613272e+02 -6.439177e+01 4.167951e+00
-4.548001e+09 -4.348005e+09 -4.508003e+09 -2.641724e+02 -1.844145e+02 1.567324e+00
-4.808543e+09 -4.608546e+09 -4.768545e+09 -2.857751e+02 -2.144394e+01 4.605882e+01
-1.571212e+09 -1.371212e+09 -1.531212e+09 7.005147e+01 2.039971e+01 -1.411781e+01
-4.799231e+09 -4.599234e+09 -4.759234e+09 -5.939078e+02 -9.826735e+01 2.811242e+00
-4.467836e+09 -4.267836e+09 -4.427836e+09 2.985126e+02 -1.142621e+02 6.143598e+01
-4.165947e+09 -3.965947e+09 -4.125947e+09 2.079298e+02 -2.004598e+02 6.477678e+01
-4.480692e+09 -4.280693e+09 -4.440693e+09 1.479181e+03 2.529765e+02 -1.372225e+02
-4.476663e+09 -4.276661e+09 -4.436663e+09 -5.800315e+02 3.656560e+01 -1.265556e+02
-3.967350e+09 -3.767354e+09 -3.927352e+09 5.552186e+02 5.935334e+02 -5.815299e+01
-3.822645e+09 -3.622645e+09 -3.782645e+09 2.637908e+02 -1.348668e+02 4.200436e+01
-4.022182e+09 -3.822183e+09 -3.982182e+09 4.666209e+02 -1.893309e+02 4.067689e+01
-4.784107e+09 -4.584107e+09 -4.744107e+09 2.798810e+02 -1.224256e+02 5.879783e+01
-2.825982e+09 -2.625980e+09 -2.785981e+09 -2.069217e+02 -4.585521e+02 -2.368428e+02
-4.308284e+09 -4.108286e+09 -4.268289e+09 -1.061931e+03 1.491809e+03 6.423841e+02
-4.990316e+09 -4.790317e+09 -4.950321e+09 -1.169136e+03 6.785102e+02 2.617633e+02
-3.670312e+09 -3.470311e+09 -3.630311e+09 1.545156e+02 8.634257e+01 -2.054211e+01
-4.479875e+09 -4.279876e+09 -4.439881e+09 -9.987032e+02 1.137752e+03 5.985633e+02
-4.127130e+09 -3.927133e+09 -4.087138e+09 -2.546050e+01 2.579444e+03 5.750254e+01
-4.996765e+09 -4.796767e+09 -4.956772e+09 -1.873174e+02 8.696202e+02 1.737233e+02
-2.618045e+09 -2.418046e+09 -2.578045e+09 -5.554314e+01 -4.388657e+01 -4.132545e+00
-3.622815e+09 -3.422816e+09 -3.582815e+09 9.633495e+01 9.744730e-01 1.938957e+01
-4.095504e+09 -3.895505e+09 -4.055504e+09 1.755576e+01 2.058981e-01 1.127842e+01
-3.748586e+09 -3.548587e+09 -3.708587e+09 4.208097e+01 6.923230e+00 -7.570121e-02
-3.998866e+09 -3.798867e+09 -3.958866e+09 3.246276e+01 3.591293e+00 1.054015e+01
-4.471437e+09 -4.271437e+09 -4.431437e+09 1.656792e+02 1.518936e+00 -2.998349e+00
-3.351320e+09 -3.151321e+09 -3.311320e+09 5.714259e+02 5.302654e+01 9.308341e+00
-4.467707e+09 -4.267707e+09 -4.427707e+09 1.532768e+02 1.223363e+01 5.045049e+00
-4.790485e+09 -4.590484e+09 -4.750484e+09 4.186048e+02 -2.676680e+01 -3.450628e+01
-4.978185e+09 -4.778184e+09 -4.938184e+09 2.234166e+02 -9.433705e+00 6.031552e+00
-4.471437e+09 -4.271437e+09 -4.431437e+09 1.545790e+02 6.448692e+00 -1.225634e+01
-3.043684e+09 -2.843682e+09 -3.003684e+09 -5.178552e+01 3.687883e+02 -2.669422e+02
-4.621191e+09 -4.421193e+09 -4.581192e+09 2.990371e+02 -5.348505e+01 3.915015e+01
-4.423823e+09 -4.223824e+09 -4.383823e+09 1.911023e+01 -2.191001e+01 9.460632e+00
-3.911445e+09 -3.711446e+09 -3.871445e+09 2.426461e+02 -1.176391e+02 2.902606e+01
-4.767781e+09 -4.567782e+09 -4.727781e+09 3.460338e+02 5.364949e+01 -1.487583e+01
-4.773271e+09 -4.573272e+09 -4.733271e+09 2.035949e+02 -9.538830e+01 1.075191e+01
-3.985555e+09 -3.785553e+09 -3.945563e+09 -2.039092e+03 2.366465e+03 1.542024e+03
-3.966848e+09 -3.766846e+09 -3.926848e+09 -2.024411e+03 -4.548748e+02 2.468390e+02
-4.791923e+09 -4.591925e+09 -4.751924e+09 2.713429e+02 2.359738e+01 -8.658920e-01
-2.677954e+09 -2.477954e+09 -2.637955e+09 -9.065334e+02 5.593233e+01 6.605476e+01
-3.028483e+09 -2.828481e+09 -2.988482e+09 6.593971e+02 4.971993e+02 -2.597228e+02
-4.055490e+09 -3.855492e+09 -4.015490e+09 2.709746e+02 -1.069417e+02 3.353485e+01
-3.778861e+09 -3.578863e+09 -3.738861e+09 2.187875e+02 -2.166224e+01 3.679322e+01
-4.697680e+09 -4.497682e+09 -4.657680e+09 1.616574e+02 -1.080061e+02 4.383954e+01
-3.951065e+09 -3.751069e+09 -3.911068e+09 -6.107801e+01 3.947027e+01 2.067407e+01
-3.283608e+09 -3.083612e+09 -3.243611e+09 1.608518e+02 -1.114695e+03 8.637997e+00
-4.256693e+09 -4.056696e+09 -4.216695e+09 4.373496e+02 -2.340779e+02 9.092274e+01
-3.406627e+09 -3.206630e+09 -3.366628e+09 1.894925e+02 -3.453091e+02 8.959883e+01
-2.989786e+09 -2.789787e+09 -2.949786e+09 -7.116134e+01 -6.867188e+01 -9.226417e+01
-2.899040e+09 -2.699044e+09 -2.859042e+09 3.517050e+02 -5.128148e+02 1.493033e+02
-4.424659e+09 -4.224663e+09 -4.384661e+09 -1.259030e+01 -4.202726e+01 8.134922e+00
-3.772369e+09 -3.572373e+09 -3.732370e+09 5.921972e+01 -3.714614e+02 2.446665e+01
-4.989514e+09 -4.789512e+09 -4.949513e+09 -1.796838e+02 9.507019e+00 1.173799e+01
-2.702345e+09 -2.502348e+09 -2.662348e+09 3.254441e+02 -1.765885e+02 2.036783e+01
-4.115703e+09 -3.915701e+09 -4.075704e+09 -5.499111e+02 -6.346243e+02 -2.492937e+02
-4.096933e+09 -3.896936e+09 -4.056935e+09 4.647050e+02 -5.546668e+02 1.092890e+02
-3.234758e+09 -3.034758e+09 -3.194758e+09 -4.671270e+01 -5.368706e+00 1.972435e+00
-3.673446e+09 -3.473446e+09 -3.633446e+09 -3.195875e+01 -1.127284e+01 1.725637e+01
-1.828035e+09 -1.628038e+09 -1.788038e+09 1.350265e+02 4.858269e+01 3.357261e+01
-2.009927e+09 -1.809927e+09 -1.969926e+09 -6.296710e+01 -1.160984e+01 -2.430920e+00
-4.953011e+09 -4.753013e+09 -4.913013e+09 6.260106e+02 8.057060e-01 4.015191e+01
-1.910006e+09 -1.710007e+09 -1.870006e+09 -1.186470e+02 -1.452947e+00 -9.968492e-01
-3.557763e+09 -3.357762e+09 -3.517763e+09 -3.444943e+01 -4.267520e+00 -1.757996e+01
-3.509430e+09 -3.309434e+09 -3.469433e+09 2.156851e+02 -1.936339e-01 3.305607e+01
-4.442759e+09 -4.242759e+09 -4.402759e+09 -6.380390e+00 -1.204443e+01 4.582859e-01
-4.918806e+09 -4.718806e+09 -4.878806e+09 -5.433622e+01 -9.380088e-01 -2.383196e+00
-3.583315e+09 -3.383315e+09 -3.543315e+09 -4.633368e+01 -7.376592e+00 1.200120e+01
-4.000162e+09 -3.800162e+09 -3.960162e+09 -1.017230e+02 -8.649120e+00 -9.962221e+00
-3.115196e+09 -2.915195e+09 -3.075196e+09 4.790015e+01 2.074783e+02 -1.418808e+02
-4.748790e+09 -4.548789e+09 -4.708789e+09 -5.112051e+01 -8.036391e+00 6.488483e+00
-3.685283e+09 -3.485283e+09 -3.645283e+09 -1.109386e+02 -4.996281e+00 -8.150241e+00
-4.149932e+09 -3.949931e+09 -4.109932e+09 -1.187510e+02 -1.549973e+00 -3.339996e+01
-4.671121e+09 -4.471121e+09 -4.631121e+09 -6.564191e+01 -1.019937e+01 -1.666621e+00
-1.591516e+09 -1.391514e+09 -1.551515e+09 4.761281e+02 3.865893e+02 -1.094065e+02
-4.174379e+09 -3.974380e+09 -4.134380e+09 -1.207416e+03 -6.410982e+01 -1.906402e+00
-1.636086e+09 -1.436087e+09 -1.596087e+09 5.373979e+01 2.031370e+02 2.024417e+01
-3.765432e+09 -3.565430e+09 -3.725431e+09 1.095843e+01 2.219066e+02 -1.218440e+02
-4.737491e+09 -4.537490e+09 -4.697491e+09 -9.650245e+01 -1.081130e+01 -1.335838e+00
-4.831270e+09 -4.631269e+09 -4.791269e+09 -4.642271e+00 1.231945e+01 6.699707e+00
-4.653107e+09 -4.453107e+09 -4.613107e+09 -3.647245e+01 -1.135096e+00 -2.734794e+01
-4.810274e+09 -4.610274e+09 -4.770273e+09 -9.603541e+01 -1.373445e+01 -1.247454e+01
-4.299866e+09 -4.099866e+09 -4.259865e+09 -1.001398e+02 2.141902e+01 4.694899e+00
-4.112041e+09 -3.912041e+09 -4.072041e+09 -4.977186e+01 1.934166e+01 -7.349634e+00
-1.964475e+09 -1.764475e+09 -1.924475e+09 -2.449475e+02 -1.364898e+01 1.749136e+00
-4.134382e+09 -3.934381e+09 -4.094381e+09 -6.277745e+01 5.998228e+00 -1.899409e+01
-1.670158e+09 -1.470156e+09 -1.630157e+09 1.151116e+02 3.045016e+02 -1.353024e+01
-4.143633e+09 -3.943632e+09 -4.103633e+09 1.345621e+03 4.434934e+02 -4.171790e+02
-4.985633e+09 -4.785632e+09 -4.945632e+09 -2.080054e+02 -1.638340e+01 6.007056e+00
-4.825012e+09 -4.625012e+09 -4.785012e+09 -2.000998e+02 -1.905547e+01 3.456452e+01
-4.147652e+09 -3.947651e+09 -4.107651e+09 -2.472998e+02 -2.867062e+01 2.989577e+01
-4.297210e+09 -4.097209e+09 -4.257209e+09 -9.521245e+01 -3.820771e+01 2.379572e+01
-4.631466e+09 -4.431469e+09 -4.591467e+09 4.028317e+02 3.327030e+01 -2.010625e+01
-2.340087e+09 -2.140087e+09 -2.300087e+09 -1.702569e+02 -1.404330e+01 8.342417e+00
-4.646435e+09 -4.446434e+09 -4.606434e+09 -2.608113e+02 -2.184351e+01 1.029839e+01
-1.984492e+09 -1.784492e+09 -1.944491e+09 9.405839e+02 1.920889e+02 -1.459431e+01
-2.135938e+09 -1.935941e+09 -2.095939e+09 9.330544e+01 4.375789e+00 4.159495e+00
-3.966405e+09 -3.766405e+09 -3.926404e+09 1.311996e+03 2.766449e+02 -1.015151e+02
-4.121641e+09 -3.921640e+09 -4.081640e+09 9.888607e+02 8.255494e+01 2.394958e+00
-4.299984e+09 -4.099983e+09 -4.259983e+09 9.513434e+02 1.671919e+02 -1.588238e+02
-4.983758e+09 -4.783757e+09 -4.943757e+09 2.373287e+02 -3.558654e+01 -1.760198e+01
-3.958385e+09 -3.758389e+09 -3.918387e+09 -6.170602e+02 5.673250e+02 4.959002e+01
-1.674920e+09 -1.474923e+09 -1.634921e+09 -2.572831e+02 5.383855e+01 -4.059320e+01
-4.826721e+09 -4.626720e+09 -4.786721e+09 1.400797e+03 2.123907e+02 -2.170798e+02
-3.964163e+09 -3.764162e+09 -3.924163e+09 1.684912e+03 6.259560e+02 -3.035182e+02
-4.052568e+09 -3.852570e+09 -4.012568e+09 -2.821070e+02 1.678976e+01 -4.099534e+01
-1.938832e+09 -1.738834e+09 -1.898832e+09 9.473961e+01 -2.027199e+01 9.905769e+00
-4.134569e+09 -3.934570e+09 -4.094572e+09 1.855867e+03 1.537026e+03 -3.537051e+02
-4.477357e+09 -4.277357e+09 -4.437358e+09 1.705101e+03 4.518400e+02 -2.536482e+02
-1.878383e+09 -1.678384e+09 -1.838383e+09 1.778120e+01 4.753572e+00 9.219061e+00
-4.309320e+09 -4.109319e+09 -4.269321e+09 1.288386e+03 5.063399e+02 -3.571281e+02
-4.822668e+09 -4.622666e+09 -4.782668e+09 1.219797e+03 2.734787e+02 -3.406906e+02
-3.963553e+09 -3.763554e+09 -3.923553e+09 1.606843e+03 4.415960e+02 -1.592670e+02
-4.829170e+09 -4.629170e+09 -4.789170e+09 2.079451e+02 -4.134520e+00 -8.486197e+00
-4.316751e+09 -4.116750e+09 -4.276751e+09 1.345860e+03 4.375098e+02 -3.310617e+02
-4.823136e+09 -4.623136e+09 -4.783137e+09 1.496095e+03 1.067576e+02 5.227701e+01
-4.655997e+09 -4.455997e+09 -4.615997e+09 1.423478e+03 1.699974e+02 -3.912119e+01
-2.579276e+09 -2.379276e+09 -2.539276e+09 -4.096170e+01 -1.466829e+01 -3.298205e+01
-4.039356e+09 -3.839357e+09 -3.999357e+09 -9.633182e+01 -1.467519e+00 -8.941125e+00
-3.957956e+09 -3.757957e+09 -3.917957e+09 -1.564700e+01 -5.804573e+00 -1.904503e+01
-1.586522e+09 -1.386523e+09 -1.546522e+09 6.735928e+01 2.746287e+01 -2.651943e+00
-4.851903e+09 -4.651903e+09 -4.811903e+09 5.882521e+01 -5.512835e+00 1.557172e+00
-2.889918e+09 -2.689918e+09 -2.849918e+09 -8.621577e+01 -5.534732e+00 3.192421e+00
-3.765140e+09 -3.565140e+09 -3.725140e+09 -7.125781e+01 -1.921819e+01 1.267115e+01
-4.653276e+09 -4.453278e+09 -4.613280e+09 -8.562738e+02 -4.420970e+02 -1.428251e+02
-4.289916e+09 -4.089919e+09 -4.249919e+09 -5.775077e+02 -8.805920e+02 -3.413956e+01
-4.997892e+09 -4.797894e+09 -4.957895e+09 -7.920188e+02 -3.514076e+02 -6.699588e+01
-3.831739e+09 -3.631739e+09 -3.791739e+09 -1.675199e+02 -1.171637e+01 3.561365e+00
-2.709344e+09 -2.509344e+09 -2.669344e+09 5.348074e+01 2.636860e+00 1.703029e+01
-1.595649e+09 -1.395649e+09 -1.555649e+09 2.188591e+01 1.878793e+01 -2.672891e+01
-3.032116e+09 -2.832116e+09 -2.992116e+09 5.640880e+01 8.253423e+00 3.386185e+01
-3.082685e+09 -2.882685e+09 -3.042685e+09 1.104437e+02 2.396269e+01 1.191013e+01
-4.393404e+09 -4.193404e+09 -4.353404e+09 2.407428e+01 9.649270e+00 -4.329120e+00
-1.638464e+09 -1.438463e+09 -1.598464e+09 -2.056505e-10 1.134909e+00 1.836923e+00
-5.002829e+09 -4.802828e+09 -4.962828e+09 6.128939e+01 1.140592e+01 -2.463324e+00
-1.628784e+09 -1.428783e+09 -1.588784e+09 1.335689e+01 7.329185e+00 -1.827292e+01
-2.947514e+09 -2.747515e+09 -2.907514e+09 6.119550e+01 1.074879e+01 1.092110e+01
-1.563616e+09 -1.363616e+09 -1.523616e+09 -7.832995e+01 -2.057328e+01 1.674468e+01
-2.755207e+09 -2.555207e+09 -2.715207e+09 4.228973e+01 1.079827e+01 4.555428e+00
-4.338638e+09 -4.138643e+09 -4.298645e+09 5.138486e+02 1.840595e+03 2.726244e+02
-4.139045e+09 -3.939047e+09 -4.099052e+09 1.569622e+03 1.954659e+03 -8.194293e+02
-3.050659e+09 -2.850659e+09 -3.010659e+09 1.807487e+02 2.288753e+01 -3.042423e+00
-5.025104e+09 -4.825106e+09 -4.985109e+09 9.964677e+02 1.015775e+03 -6.792398e+01
-3.131742e+09 -2.931745e+09 -3.091742e+09 5.137032e+02 1.285598e+02 -1.749253e+01
-4.808106e+09 -4.608106e+09 -4.768106e+09 1.002897e+03 1.620504e+02 -1.349797e+02
-4.855379e+09 -4.655383e+09 -4.815383e+09 9.359401e+02 8.084170e+02 -8.226852e+01
-4.478456e+09 -4.278460e+09 -4.438460e+09 6.009756e+02 7.709106e+02 -3.425737e+01
-4.426338e+09 -4.226337e+09 -4.386337e+09 2.084581e+02 6.857180e+01 -1.073764e+01
-4.168913e+09 -3.968917e+09 -4.128917e+09 9.450583e+02 7.632836e+02 -7.363476e+01
-4.841243e+09 -4.641246e+09 -4.801248e+09 3.639052e+02 4.732568e+02 -1.612180e+01
-4.474821e+09 -4.274823e+09 -4.434826e+09 2.155076e+03 1.195599e+03 -3.866508e+02
-4.308583e+09 -4.108581e+09 -4.268583e+09 1.101523e+03 3.817015e+02 -4.055166e+02
-4.773099e+09 -4.573095e+09 -4.733109e+09 3.811384e+02 1.742251e+03 7.292255e+02
-3.353548e+09 -3.153545e+09 -3.313548e+09 -2.709518e+02 3.650429e+02 -4.088462e+02
-3.413113e+09 -3.213112e+09 -3.373112e+09 -5.353797e-01 8.119851e+00 -7.027481e-01
-2.541163e+09 -2.341161e+09 -2.501162e+09 2.742798e+02 2.263163e+02 1.146784e+01
-4.648258e+09 -4.448253e+09 -4.608254e+09 -2.221597e+03 -1.139218e+03 -4.612149e+02
-4.161702e+09 -3.961703e+09 -4.121702e+09 -9.791745e+02 7.732248e+01 -2.414645e+02
-1.601370e+09 -1.401373e+09 -1.561373e+09 -2.816264e+02 2.617276e+02 3.142327e+02
-3.101413e+09 -2.901414e+09 -3.061415e+09 -1.883757e+03 -3.251365e+02 5.514943e+02
-4.282429e+09 -4.082429e+09 -4.242429e+09 9.132062e+02 5.622098e+01 -6.339749e+01
-4.319695e+09 -4.119698e+09 -4.279695e+09 -3.866948e+02 2.233349e+01 -4.640962e+02
-3.976463e+09 -3.776465e+09 -3.936463e+09 -4.142410e+02 1.961214e+01 -6.327204e+02
-2.352731e+09 -2.152731e+09 -2.312730e+09 7.514942e+02 1.540367e+02 -3.727596e+01
-1.680255e+09 -1.480255e+09 -1.640254e+09 7.743326e+02 1.629078e+02 -2.394212e+01
-4.473281e+09 -4.273283e+09 -4.433279e+09 -2.628131e+03 -7.642527e+02 1.469360e+03
-5.006162e+09 -4.806163e+09 -4.966161e+09 -8.916703e+02 1.157320e+02 -2.619806e+02
-1.636088e+09 -1.436086e+09 -1.596087e+09 1.924218e+02 2.758993e+02 -4.887453e+01
-4.319696e+09 -4.119697e+09 -4.279696e+09 -1.156407e+03 2.137084e+02 -6.107690e+02
-4.534333e+09 -4.334332e+09 -4.494332e+09 6.277556e+00 4.496314e-01 -1.191752e+01
-3.905939e+09 -3.705939e+09 -3.865939e+09 -2.185786e+00 5.172428e+00 1.317286e+00
-4.435036e+09 -4.235035e+09 -4.395035e+09 2.472834e+01 1.316515e+00 -1.019201e+01
-4.708893e+09 -4.508893e+09 -4.668893e+09 7.298303e-01 1.196865e+01 -3.300588e+00
-4.429027e+09 -4.229027e+09 -4.389027e+09 -2.587470e+00 7.984763e+00 -1.481222e+00
-2.803720e+09 -2.603718e+09 -2.763720e+09 4.362363e+02 3.261823e+02 -4.573677e+02
-2.787601e+09 -2.587599e+09 -2.747600e+09 8.523134e+02 3.611163e+02 -3.431289e+02
-3.424564e+09 -3.224564e+09 -3.384564e+09 3.763756e+01 2.498066e+00 5.973719e-01
-4.974053e+09 -4.774051e+09 -4.934052e+09 1.637812e+02 1.156720e+02 -1.572695e+01
-4.771646e+09 -4.571646e+09 -4.731646e+09 3.024881e+01 4.893423e+00 2.100187e+00
-1.553905e+09 -1.353905e+09 -1.513905e+09 -9.003076e+01 -2.058026e+01 1.208763e+01
-3.509457e+09 -3.309457e+09 -3.469457e+09 -1.062622e+01 -2.531216e+00 -2.946006e+00
-4.081502e+09 -3.881502e+09 -4.041502e+09 -2.943070e+01 7.178311e+00 -5.154622e+00
-4.351617e+09 -4.151616e+09 -4.311617e+09 -3.343855e+01 -2.121773e+00 -7.919756e+00
-4.162853e+09 -3.962846e+09 -4.122850e+09 9.873033e+01 1.030015e+03 1.252135e+03
-1.921102e+09 -1.721101e+09 -1.881102e+09 -1.286094e+02 -2.061703e+01 -2.185323e+01
-1.636087e+09 -1.436088e+09 -1.596087e+09 -8.683259e+00 -1.717699e+01 3.568154e+00
-4.003023e+09 -3.803015e+09 -3.963023e+09 -1.158139e+03 5.245383e+02 -2.114453e+02
-4.506085e+09 -4.306078e+09 -4.466084e+09 6.469852e+02 1.317831e+03 4.728970e+02
-4.862455e+09 -4.662449e+09 -4.822457e+09 4.704571e+02 -7.555458e+02 -4.274999e+02
-4.003020e+09 -3.803014e+09 -3.963022e+09 -3.029098e+02 2.056852e+02 -5.394698e+02
-1.966117e+09 -1.766117e+09 -1.926117e+09 5.434747e+00 -9.540505e+01 -4.567775e+01
-4.470161e+09 -4.270153e+09 -4.430158e+09 6.423193e+02 4.463007e+02 -1.126561e+03
-4.859469e+09 -4.659464e+09 -4.819473e+09 -1.092733e+02 -2.780994e+02 -1.810786e+02
-2.872584e+09 -2.672587e+09 -2.832584e+09 1.529485e+02 1.476614e+01 -1.665823e+01
-1.688333e+09 -1.488332e+09 -1.648333e+09 -1.117514e+02 -1.807027e+01 -1.548313e+01
-2.025942e+09 -1.825944e+09 -1.985942e+09 2.618941e+02 -2.944464e+01 1.674699e+01
-3.949425e+09 -3.749426e+09 -3.909424e+09 8.962798e+02 6.304250e+00 -4.462425e+02
-4.990035e+09 -4.790034e+09 -4.950034e+09 -6.391279e+02 5.540767e-02 2.740464e+01
-4.969522e+09 -4.769523e+09 -4.929522e+09 3.380454e+02 5.236354e+01 -2.287414e+01
-2.745448e+09 -2.545450e+09 -2.705448e+09 3.781028e+02 -3.686408e+01 2.881069e+01
-3.004929e+09 -2.804932e+09 -2.964929e+09 4.697795e+01 -5.457809e-01 1.697287e+01
-4.358551e+09 -4.158550e+09 -4.318550e+09 -2.715595e+01 -2.114357e+01 -8.156135e+00
-2.786422e+09 -2.586424e+09 -2.746422e+09 9.181738e+01 6.811544e+01 2.948878e+01
-4.767046e+09 -4.567046e+09 -4.727046e+09 -3.688992e+01 -7.469701e+00 2.174490e+01
-1.938855e+09 -1.738857e+09 -1.898855e+09 2.945837e+01 1.215006e+01 8.042981e+00
-2.871774e+09 -2.671778e+09 -2.831775e+09 -2.306936e+02 -4.141562e+02 -6.748749e+01
-4.478028e+09 -4.278027e+09 -4.438029e+09 -3.993800e+02 -3.085542e+02 -1.353135e+02
-4.524473e+09 -4.324471e+09 -4.484455e+09 -1.732926e+03 1.647202e+03 -1.514537e+03
-2.186514e+09 -1.986516e+09 -2.146514e+09 6.256363e+01 1.131718e+01 -7.901527e+00
-3.954838e+09 -3.754839e+09 -3.914840e+09 7.888165e+02 -1.012302e+03 4.743303e+02
-2.415918e+09 -2.215919e+09 -2.375918e+09 -7.697926e+02 -6.056321e+02 -1.639187e+02
-2.303322e+09 -2.103323e+09 -2.263322e+09 -6.252224e+02 -4.221140e+02 -1.134342e+02
-1.893688e+09 -1.693693e+09 -1.853689e+09 2.959084e+02 -9.579274e+02 6.730347e+01
-2.861340e+09 -2.661340e+09 -2.821340e+09 -1.984212e+02 -1.284033e+02 -2.865739e+01
-4.434993e+09 -4.234997e+09 -4.394994e+09 1.171912e+01 -5.055504e+01 1.938723e+01
-4.619449e+09 -4.419452e+09 -4.579451e+09 2.253328e+02 -1.848109e+02 5.263246e+01
-3.295871e+09 -3.095872e+09 -3.255871e+09 6.098163e+02 -4.643150e+02 2.133859e+02
-2.839610e+09 -2.639611e+09 -2.799610e+09 -6.142848e+02 -3.111924e+02 -1.470456e+02
-2.127182e+09 -1.927183e+09 -2.087182e+09 -6.337634e+02 -3.125068e+02 -1.320756e+02
-3.181862e+09 -2.981862e+09 -3.141862e+09 -1.504422e+02 9.681158e-01 -1.383039e+00
-4.708802e+09 -4.508802e+09 -4.668802e+09 -5.140491e+01 -8.669829e-01 2.178566e+01
-2.734244e+09 -2.534244e+09 -2.694243e+09 -6.964191e+02 -4.410921e+02 -1.262825e+02
-2.183925e+09 -1.983925e+09 -2.143925e+09 -4.698281e+01 -8.594277e+00 6.142642e-01
-2.028989e+09 -1.828990e+09 -1.988989e+09 -9.961554e+02 -5.553848e+02 -2.701955e+02
-1.887392e+09 -1.687392e+09 -1.847391e+09 -5.726482e+02 -4.180940e+02 -6.436802e+01
-3.016575e+09 -2.816576e+09 -2.976576e+09 -7.703885e+02 -7.817112e+02 -2.497138e+02
-4.596517e+09 -4.396517e+09 -4.556517e+09 1.500457e+02 1.443976e+01 1.615987e+00
-4.791648e+09 -4.591648e+09 -4.751648e+09 1.284098e+02 7.420162e+00 1.465055e+01
-4.970226e+09 -4.770227e+09 -4.930226e+09 -1.106994e+02 9.090662e+00 -9.661008e+00
-3.731893e+09 -3.531894e+09 -3.691894e+09 1.507376e+02 3.045184e+00 -2.491435e+00
-3.964727e+09 -3.764729e+09 -3.924728e+09 -3.039107e+02 -2.966722e+00 -1.797367e+01
-4.603284e+09 -4.403284e+09 -4.563284e+09 1.402722e+02 1.365799e+01 9.979480e+00
-4.177727e+09 -3.977727e+09 -4.137727e+09 1.383439e+02 5.938101e+00 1.374981e+01
-4.295569e+09 -4.095565e+09 -4.255570e+09 6.436790e+02 -1.375958e+03 -8.923803e+02
-4.992273e+09 -4.792270e+09 -4.952276e+09 1.898877e+02 -4.629546e+02 -4.572395e+02
-4.967567e+09 -4.767566e+09 -4.927567e+09 -5.076389e+01 2.667672e+00 -2.970751e+00
-4.461267e+09 -4.261264e+09 -4.421269e+09 4.948127e+02 -3.729435e+02 -6.275490e+02
-4.135542e+09 -3.935538e+09 -4.095544e+09 2.380823e+02 -9.202973e+02 -8.097613e+02
-4.465834e+09 -4.265830e+09 -4.425836e+09 1.305642e+03 -4.140806e+02 -6.472987e+02
-2.506844e+09 -2.306847e+09 -2.466844e+09 -1.506471e+02 6.524024e+01 -4.948700e+01
-2.132046e+09 -1.932046e+09 -2.092046e+09 2.695647e+01 6.455519e+00 -9.049262e+00
-2.390022e+09 -2.190024e+09 -2.350022e+09 -3.134171e+02 5.033042e+01 -3.831373e+01
-2.691258e+09 -2.491257e+09 -2.651257e+09 -4.864848e+00 -1.111728e+01 -1.922920e+00
-1.769804e+09 -1.569806e+09 -1.729804e+09 -1.190161e+02 5.451178e+01 -2.884112e+01
-3.281505e+09 -3.081504e+09 -3.241505e+09 4.973807e-05 -1.993623e+00 -2.146145e+00
-1.973526e+09 -1.773529e+09 -1.933527e+09 -2.571513e+02 3.215516e+01 -2.660728e+01
-1.790921e+09 -1.590924e+09 -1.750922e+09 -3.038878e+02 -1.290724e+01 -3.772356e+01
-4.613493e+09 -4.413494e+09 -4.573494e+09 -1.348509e+03 -4.600477e+01 1.820479e+02
-4.478925e+09 -4.278925e+09 -4.438925e+09 -1.734131e+03 -1.161099e+02 6.285589e+01
-3.855609e+09 -3.655608e+09 -3.815610e+09 -1.343701e+03 -2.381694e+02 2.862743e+02
-2.219983e+09 -2.019982e+09 -2.179983e+09 -9.070916e+00 5.943709e-03 -1.638220e+00
-4.295367e+09 -4.095366e+09 -4.255367e+09 -8.245732e+02 -1.249418e+02 2.442722e+02
-4.810625e+09 -4.610626e+09 -4.770626e+09 -1.471225e+03 -1.930945e+02 3.747027e+02
-2.491010e+09 -2.291009e+09 -2.451010e+09 -1.196159e+01 -2.111579e+01 -8.475851e-01
-4.807652e+09 -4.607651e+09 -4.767652e+09 -7.431155e+02 3.575589e+01 1.510800e+02
-4.065096e+09 -3.865099e+09 -4.025097e+09 -4.473968e+02 7.109618e+01 1.668064e+01
-3.456859e+09 -3.256859e+09 -3.416859e+09 1.344862e+02 2.588788e+00 -4.911552e+00
-4.980927e+09 -4.780929e+09 -4.940928e+09 -5.012942e+02 -1.170285e+01 2.079548e+01
-4.127372e+09 -3.927374e+09 -4.087372e+09 -5.280548e+02 7.364083e+01 -3.856436e+01
-4.215794e+09 -4.015796e+09 -4.175794e+09 -4.198350e+02 -2.267861e+01 1.772265e+01
-4.192174e+09 -3.992176e+09 -4.152174e+09 -2.522666e+02 -6.868844e+01 1.288989e+00
-4.789725e+09 -4.589727e+09 -4.749725e+09 -4.390761e+02 -4.963160e+01 -2.491080e+01
-3.941397e+09 -3.741398e+09 -3.901397e+09 -1.235716e+01 3.622583e+00 -1.016544e+01
-3.581221e+09 -3.381222e+09 -3.541222e+09 -3.957988e+00 4.270007e-01 2.290211e+00
-4.800563e+09 -4.600564e+09 -4.760564e+09 5.859386e+01 -2.723531e+00 2.634798e+01
-3.741769e+09 -3.541770e+09 -3.701769e+09 2.432812e+01 3.868753e+00 4.207163e+00
-2.167732e+09 -1.967735e+09 -2.127732e+09 -4.067448e+01 2.845227e+01 -1.769335e+01
-1.560005e+09 -1.360006e+09 -1.520006e+09 9.480900e-01 4.733268e+00 1.195048e+00
-1.794951e+09 -1.594952e+09 -1.754952e+09 5.185592e+01 2.402797e+01 7.455427e+00
-4.459433e+09 -4.259433e+09 -4.419433e+09 4.824983e+00 1.172638e+01 4.120793e-02
-1.662266e+09 -1.462267e+09 -1.622266e+09 7.725205e+00 2.605947e+01 9.438033e-01
-2.291160e+09 -2.091163e+09 -2.251161e+09 -4.001881e+01 2.233186e+01 -2.705873e+01
-3.012497e+09 -2.812500e+09 -2.972497e+09 -8.021444e+00 5.305095e+01 -1.914901e+01
-1.959841e+09 -1.759842e+09 -1.919842e+09 8.115773e+00 -2.210978e+00 8.982259e+00
-3.606385e+09 -3.406388e+09 -3.566385e+09 -3.269663e+00 -4.466770e+00 -8.137763e+00
-3.142791e+09 -2.942794e+09 -3.102792e+09 -5.604690e+01 1.369322e+01 -2.422573e+01
-4.298004e+09 -4.098004e+09 -4.258004e+09 6.321731e+02 -3.176050e+01 -9.983479e+01
-3.451095e+09 -3.251096e+09 -3.411095e+09 1.127181e+00 4.554486e+00 -1.253198e+00
-2.928886e+09 -2.728887e+09 -2.888886e+09 -2.253532e+02 -2.537709e+01 1.231426e+01
-3.240862e+09 -3.040862e+09 -3.200862e+09 -9.170805e+01 -2.205328e+01 2.399553e+01
-2.204554e+09 -2.004554e+09 -2.164554e+09 -5.671319e+01 -9.439131e+00 -7.749179e+00
-3.414880e+09 -3.214881e+09 -3.374881e+09 -2.451593e+02 -6.791971e+00 6.784859e+00
-2.672849e+09 -2.472852e+09 -2.632849e+09 -2.342708e+00 2.833509e+01 -1.579585e+01
-2.583975e+09 -2.383975e+09 -2.543975e+09 -1.543708e+01 -2.997599e+01 1.433175e+00
-2.157638e+09 -1.957641e+09 -2.117638e+09 -1.901548e+01 1.530197e+01 -1.005713e+01
-3.000141e+09 -2.800144e+09 -2.960142e+09 -1.362705e+01 3.197550e+00 -5.912828e+00
-4.303341e+09 -4.103338e+09 -4.263343e+09 -1.844544e+03 -6.453096e+02 6.532076e+02
-3.988554e+09 -3.788554e+09 -3.948554e+09 -1.657043e+02 -2.194622e+01 -1.423268e+01
-4.804858e+09 -4.604855e+09 -4.764860e+09 -8.142912e+02 4.571409e+01 1.213231e+02
-4.252123e+09 -4.052121e+09 -4.212123e+09 -9.296465e+02 -1.327423e+02 4.412917e+02
-3.655163e+09 -3.455162e+09 -3.615162e+09 -2.285981e+01 -3.014470e+00 -1.441786e+01
-4.595356e+09 -4.395354e+09 -4.555357e+09 -9.418628e+02 -2.948214e+01 2.629343e+02
-2.759132e+09 -2.559132e+09 -2.719132e+09 -5.226667e+00 -6.265893e+00 -1.283041e+00
-1.823434e+09 -1.623433e+09 -1.783433e+09 -1.825240e+01 -1.141800e+01 9.876212e+00
-1.677687e+09 -1.477686e+09 -1.637687e+09 -1.922876e+02 -3.232797e+01 -1.429652e+01
-4.111424e+09 -3.911422e+09 -4.071424e+09 -1.140205e+03 4.931949e+01 2.335904e+02
-4.790280e+09 -4.590278e+09 -4.750280e+09 -1.536867e+03 2.128852e+02 1.117688e+02
-4.655608e+09 -4.455613e+09 -4.615610e+09 9.698778e+01 1.903533e+01 3.756191e+02
-1.636281e+09 -1.436280e+09 -1.596280e+09 -3.844262e+01 -1.158415e+01 -6.154982e+01
-3.666356e+09 -3.466359e+09 -3.626357e+09 2.110517e+01 -8.512085e+01 6.229317e+01
-1.625685e+09 -1.425687e+09 -1.585685e+09 2.597512e+02 -9.973287e+01 -8.949214e+00
-4.096042e+09 -3.896041e+09 -4.056041e+09 2.264247e+01 -2.161041e+01 -2.392373e+00
-1.605928e+09 -1.405928e+09 -1.565928e+09 -9.094780e+01 -1.916570e+01 -4.606642e+01
-4.265707e+09 -4.065711e+09 -4.225708e+09 -9.491343e+02 -7.090279e+00 6.517279e+02
-4.541590e+09 -4.341595e+09 -4.501593e+09 -1.944872e+02 -1.905627e+01 3.314813e+02
-3.187455e+09 -2.987458e+09 -3.147457e+09 -6.065634e+02 -1.365175e+02 4.088790e+02
-3.851641e+09 -3.651646e+09 -3.811644e+09 2.021875e+02 1.587590e+02 8.578516e+02
-1.636087e+09 -1.436090e+09 -1.596088e+09 4.259155e+01 -1.066146e+02 -5.731396e+00
-2.096270e+09 -1.896272e+09 -2.056270e+09 2.049543e+02 -5.867465e+01 8.484891e+01
-4.114624e+09 -3.914629e+09 -4.074626e+09 -2.649828e+02 1.243325e+02 3.006389e+02
-4.712519e+09 -4.512521e+09 -4.672520e+09 1.710401e+02 -1.151143e+02 5.203937e+01
-1.926422e+09 -1.726422e+09 -1.886422e+09 7.466003e+01 7.073886e+00 -5.702688e+01
-2.763439e+09 -2.563439e+09 -2.723439e+09 -2.278010e+01 -1.019748e+01 -3.556717e+01
-4.845147e+09 -4.645145e+09 -4.805151e+09 -6.577022e+02 -8.410417e+02 -4.344536e+02
-4.827398e+09 -4.627398e+09 -4.787403e+09 -7.793345e+02 -8.214862e+02 -8.653358e+01
-3.967960e+09 -3.767959e+09 -3.927964e+09 -1.010449e+03 -1.560825e+03 -5.653345e+02
-4.990724e+09 -4.790721e+09 -4.950729e+09 -4.416238e+02 -9.796024e+02 -4.220660e+02
-2.110306e+09 -1.910307e+09 -2.070306e+09 -2.183724e+01 -3.341913e+01 -3.620668e+01
-4.712037e+09 -4.512037e+09 -4.672037e+09 -2.140738e+01 3.090122e+00 -4.323127e+00
-3.967960e+09 -3.767959e+09 -3.927964e+09 -9.411452e+02 -1.575425e+03 -6.019041e+02
-4.826869e+09 -4.626868e+09 -4.786874e+09 -7.404373e+02 -6.909090e+02 -1.560268e+02
-1.674084e+09 -1.474083e+09 -1.634083e+09 1.225380e+02 -1.040803e+02 -3.350272e+01
-1.588652e+09 -1.388653e+09 -1.548652e+09 1.969453e+02 -1.765152e+02 -4.024874e+01
-2.543854e+09 -2.343857e+09 -2.503855e+09 4.967011e+01 -8.144544e+01 -4.317536e+01
-4.645933e+09 -4.445933e+09 -4.605933e+09 2.879586e+02 1.864822e+01 3.363552e+01
-2.598752e+09 -2.398753e+09 -2.558752e+09 4.305475e+01 -2.872787e+01 -3.034402e+01
-1.575895e+09 -1.375895e+09 -1.535895e+09 1.995421e+02 -1.510656e+02 -1.607551e+01
-4.306231e+09 -4.106231e+09 -4.266231e+09 3.725987e+02 -1.079928e+01 -2.679910e+01
-4.136368e+09 -3.936369e+09 -4.096369e+09 3.112798e+02 -2.193595e+00 -3.105782e+01
-4.136296e+09 -3.936296e+09 -4.096296e+09 3.524453e+02 1.847458e+01 -1.828369e-01
-4.161946e+09 -3.961945e+09 -4.121945e+09 -1.135482e+02 -4.568646e+00 6.764765e+00
-4.654271e+09 -4.454271e+09 -4.614271e+09 2.643181e+02 2.361056e+01 1.263614e+01
-4.106913e+09 -3.906914e+09 -4.066914e+09 2.346447e+02 1.099011e+00 -2.462443e+01
-4.624534e+09 -4.424534e+09 -4.584534e+09 2.292701e+02 1.658630e+01 1.708649e+01
-4.802006e+09 -4.602007e+09 -4.762007e+09 5.191438e+02 -1.871287e+01 5.902503e+00
-3.714371e+09 -3.514370e+09 -3.674371e+09 -9.020781e+00 -2.336293e+00 -1.126963e+00
-4.298135e+09 -4.098137e+09 -4.258136e+09 5.300193e+02 -3.424930e+02 1.504018e+02
-4.812763e+09 -4.612765e+09 -4.772764e+09 5.440690e+02 -2.417072e+01 4.418707e+01
-4.304978e+09 -4.104979e+09 -4.264978e+09 -1.233115e+03 -7.270898e+01 -1.865763e+02
-3.107482e+09 -2.907482e+09 -3.067482e+09 -6.953941e+01 -3.197291e+01 -9.438729e+00
-4.625474e+09 -4.425474e+09 -4.585474e+09 -2.819015e+01 -2.486352e+00 -3.167315e+00
-3.884608e+09 -3.684607e+09 -3.844608e+09 -7.941392e+00 -8.939409e-01 -4.144574e+00
-4.826779e+09 -4.626778e+09 -4.786779e+09 -1.195533e+03 8.933277e+01 -4.843353e+01
-3.616671e+09 -3.416670e+09 -3.576670e+09 2.324215e+00 4.392903e+00 -2.457703e+00
-2.144512e+09 -1.944511e+09 -2.104512e+09 1.918384e+01 5.194387e-01 1.569234e-01
-1.826292e+09 -1.626291e+09 -1.786291e+09 -2.669722e+01 -1.003442e+01 -1.456180e+01
-4.355277e+09 -4.155276e+09 -4.315276e+09 -6.955162e+00 -6.630074e-01 -3.390888e-01
-4.791659e+09 -4.591658e+09 -4.751660e+09 -1.430766e+03 2.233754e+02 -2.919092e+01
-4.833450e+09 -4.633450e+09 -4.793450e+09 -1.153353e+03 -1.859508e+01 5.272936e+00
-4.490217e+09 -4.290217e+09 -4.450216e+09 -1.256196e+03 1.113840e+02 -1.013770e+02
-4.644427e+09 -4.444426e+09 -4.604426e+09 -1.075135e+03 -3.716432e+01 2.073651e+02
-3.951924e+09 -3.751922e+09 -3.911924e+09 -1.185876e+03 -3.033640e+01 2.374965e+02
-4.586169e+09 -4.386167e+09 -4.546169e+09 -7.421726e+02 -2.354386e+01 2.509991e+02
-4.100208e+09 -3.900211e+09 -4.060210e+09 2.904533e+02 -1.145811e+02 5.207275e+01
-4.624037e+09 -4.424036e+09 -4.584037e+09 -9.478279e+02 -4.982581e+01 1.430347e+02
-4.130491e+09 -3.930490e+09 -4.090490e+09 -1.118257e+03 4.508851e+01 1.135421e+02
-1.893585e+09 -1.693589e+09 -1.853586e+09 9.629657e+02 -1.070336e+03 3.626175e+02
-4.816956e+09 -4.616955e+09 -4.776956e+09 -1.025583e+03 -8.021315e+01 2.166351e+02
-4.798584e+09 -4.598583e+09 -4.758583e+09 7.894550e+01 -2.462028e+01 6.377597e+01
-4.112118e+09 -3.912118e+09 -4.072118e+09 8.008455e+01 -1.308624e+02 1.587865e+01
-4.792268e+09 -4.592268e+09 -4.752268e+09 3.503792e+02 -9.485348e+01 2.414764e+01
-4.116443e+09 -3.916442e+09 -4.076442e+09 2.076446e+02 -1.526994e+02 7.582609e+01
-4.308253e+09 -4.108253e+09 -4.268252e+09 -4.376018e+02 7.326406e+01 1.032562e+01
-1.918696e+09 -1.718701e+09 -1.878697e+09 1.477420e+01 -1.524278e+02 5.162187e+01
-4.502700e+09 -4.302699e+09 -4.462701e+09 -6.889494e+02 -5.511498e+02 -2.802642e+02
-4.477226e+09 -4.277221e+09 -4.437230e+09 9.366032e+01 -9.591047e+02 -6.858156e+02
-2.729251e+09 -2.529255e+09 -2.689252e+09 1.976779e+02 -4.140686e+02 6.542307e+01
-3.967427e+09 -3.767427e+09 -3.927427e+09 -4.702061e+02 -3.766111e+00 -3.530654e+01
-4.817431e+09 -4.617431e+09 -4.777431e+09 -4.129706e+02 -9.184568e+00 -9.424570e+00
-4.319111e+09 -4.119111e+09 -4.279111e+09 -7.018141e+02 6.685574e+01 1.941206e+01
-1.636087e+09 -1.436091e+09 -1.596088e+09 1.533241e+01 -1.574238e+02 1.065910e+01
-1.571484e+09 -1.371490e+09 -1.531486e+09 3.021678e+02 -1.198363e+03 1.055168e+02
-2.764373e+09 -2.564378e+09 -2.724374e+09 8.723497e+00 -1.078875e+02 3.092067e+01
-4.015816e+09 -3.815819e+09 -3.975817e+09 3.940690e+01 -7.725021e+01 5.029768e+01
-3.967796e+09 -3.767796e+09 -3.927796e+09 -6.557093e+02 -1.405807e+01 -3.026002e+01
-4.308623e+09 -4.108622e+09 -4.268622e+09 -6.803304e+02 4.699152e+01 3.203775e+01
-4.134479e+09 -3.934479e+09 -4.094479e+09 -2.728982e+02 6.103259e+01 1.635401e+01
-4.111996e+09 -3.911995e+09 -4.071995e+09 -5.770355e+02 7.114781e+01 3.997685e+01
-4.285299e+09 -4.085299e+09 -4.245298e+09 -5.200909e+02 6.266503e+01 4.692275e+01
-4.781714e+09 -4.581713e+09 -4.741713e+09 -6.454650e+01 -9.282352e-01 -1.791786e+01
-3.968306e+09 -3.768304e+09 -3.928307e+09 -4.112938e+02 -6.276399e+02 -5.778580e+02
-4.760321e+09 -4.560319e+09 -4.720322e+09 1.904539e+02 -9.403244e+01 -4.572626e+01
-4.570727e+09 -4.370726e+09 -4.530727e+09 -7.570945e+01 -5.672916e+00 -9.005617e+00
-4.499270e+09 -4.299268e+09 -4.459272e+09 -5.676463e+02 -7.681461e+02 -5.348302e+02
-4.806961e+09 -4.606959e+09 -4.766961e+09 -9.295083e+01 -2.074021e+02 -3.053936e+02
-4.745931e+09 -4.545931e+09 -4.705931e+09 -4.612853e+01 -3.014122e+00 3.275682e+00
-3.382623e+09 -3.182622e+09 -3.342622e+09 -3.089058e+01 -2.107380e+00 -5.243367e+00
-4.087886e+09 -3.887888e+09 -4.047887e+09 6.396587e+02 -3.851520e+02 9.811894e+01
-4.631511e+09 -4.431510e+09 -4.591510e+09 -1.105228e+01 -7.264234e-02 -1.956842e+00
-4.981479e+09 -4.781477e+09 -4.941479e+09 1.211462e+02 -1.052404e+02 -9.138679e+01
-4.898519e+09 -4.698518e+09 -4.858519e+09 -1.266091e+01 -8.845902e-02 3.651763e-01
-4.776261e+09 -4.576260e+09 -4.736260e+09 -6.950099e+01 7.172712e+01 6.180398e+01
-4.988728e+09 -4.788729e+09 -4.948726e+09 -2.442474e+03 -7.911088e+01 3.309935e+02
-4.158813e+09 -3.958817e+09 -4.118815e+09 1.221891e+03 2.221080e+02 4.304880e+02
-4.121200e+09 -3.921199e+09 -4.081199e+09 -2.779204e+02 9.784552e+01 4.894518e+01
-4.089795e+09 -3.889794e+09 -4.049795e+09 -4.688204e+01 -7.034841e+01 -9.154645e+01
-3.932943e+09 -3.732942e+09 -3.892942e+09 1.497671e+01 2.861659e+01 -4.043263e+01
-5.001250e+09 -4.801249e+09 -4.961250e+09 -5.536735e+02 1.300559e+02 1.417353e+02
-3.272209e+09 -3.072207e+09 -3.232209e+09 -4.038267e+02 -8.734206e+02 -7.460694e+02
-4.101005e+09 -3.901004e+09 -4.061005e+09 -2.222417e+02 1.337318e+02 1.309874e+02
-4.977595e+09 -4.777594e+09 -4.937594e+09 -3.101918e+02 -1.034921e+01 9.230998e+00
-4.628586e+09 -4.428584e+09 -4.588585e+09 3.420653e+02 -1.611259e+02 -1.472405e+02
-2.792550e+09 -2.592549e+09 -2.752549e+09 -5.547204e+01 6.456837e+00 -1.500302e+01
-4.820743e+09 -4.620740e+09 -4.780741e+09 6.948441e+02 -4.738997e+01 -1.573631e+02
-5.007193e+09 -4.807191e+09 -4.967193e+09 -1.946986e+02 1.102101e+02 1.632655e+02
-4.285354e+09 -4.085351e+09 -4.245353e+09 2.094832e+02 -1.334697e+02 2.335548e+02
-1.788681e+09 -1.588680e+09 -1.748680e+09 2.143998e+01 -2.289356e+00 -1.697059e+01
-4.829516e+09 -4.629514e+09 -4.789515e+09 4.085187e+02 1.819278e+02 1.736717e+02
-4.042123e+09 -3.842122e+09 -4.002122e+09 2.772580e+01 2.491438e+00 -1.204306e+00
-4.486283e+09 -4.286281e+09 -4.446282e+09 6.112739e+02 -5.004541e+01 -8.749167e+00
-3.953018e+09 -3.753018e+09 -3.913018e+09 1.403243e+02 1.780475e+01 1.057126e+01
-3.993988e+09 -3.793987e+09 -3.953987e+09 -7.975736e-01 -1.197769e+00 4.587584e-01
-4.095229e+09 -3.895227e+09 -4.055228e+09 -4.480738e+01 9.256280e+01 2.341482e+02
-4.188602e+09 -3.988606e+09 -4.148604e+09 -1.279918e+02 -3.631097e+02 7.299964e+00
-3.880329e+09 -3.680333e+09 -3.840332e+09 -4.540652e+02 -7.093587e+02 -8.323931e+01
-2.265051e+09 -2.065052e+09 -2.225053e+09 -1.562810e+03 -1.408558e+02 2.206259e+02
-3.742606e+09 -3.542606e+09 -3.702606e+09 -1.556472e+02 2.039599e+02 -2.563662e+02
-1.697066e+09 -1.497065e+09 -1.657066e+09 1.335122e+02 2.609631e+01 -6.642969e+00
-1.588498e+09 -1.388497e+09 -1.548497e+09 -1.004512e+01 1.374133e+01 -3.035763e+01
-2.157216e+09 -1.957217e+09 -2.117217e+09 -2.073445e+02 1.708412e+02 -1.486206e+01
-2.470833e+09 -2.270834e+09 -2.430834e+09 -6.895613e+02 6.974425e+01 1.213556e+02
-3.727454e+09 -3.527454e+09 -3.687455e+09 -8.019717e+02 1.094760e+02 -1.269757e+02
-4.641782e+09 -4.441781e+09 -4.601783e+09 -1.200812e+03 1.832439e+02 -2.510004e+02
-3.931244e+09 -3.731248e+09 -3.891246e+09 -7.327278e+02 2.005243e+01 3.269965e+02
-3.144187e+09 -2.944189e+09 -3.104189e+09 -1.085737e+03 -1.026172e+02 9.396458e+01
-1.972163e+09 -1.772163e+09 -1.932163e+09 1.183510e+02 8.871393e+00 -4.293707e+00
-4.468969e+09 -4.268968e+09 -4.428969e+09 2.284262e+02 1.340811e+01 -1.813957e+01
-4.513843e+09 -4.313844e+09 -4.473844e+09 -6.355376e+01 -5.745571e+00 6.939694e-02
-3.860708e+09 -3.660708e+09 -3.820708e+09 8.371033e+01 7.676920e+00 -5.308013e+00
-4.984346e+09 -4.784347e+09 -4.944347e+09 7.064250e+01 -6.850811e+00 -1.215000e+00
-3.920057e+09 -3.720057e+09 -3.880057e+09 1.135334e+02 1.560393e+01 2.451888e+01
-4.615623e+09 -4.415622e+09 -4.575622e+09 -3.523439e-01 0.000000e+00 -1.998472e-01
-4.777769e+09 -4.577769e+09 -4.737769e+09 -1.073439e+02 -3.980917e+00 -1.978371e+01
-1.583547e+09 -1.383547e+09 -1.543547e+09 1.145558e+02 3.173897e+01 -1.074928e+01
-1.595650e+09 -1.395649e+09 -1.555649e+09 5.881537e+01 2.067573e+01 -1.344084e+01
-4.106183e+09 -3.906184e+09 -4.066184e+09 -6.404218e+01 -1.038268e+01 -1.942802e+01
-3.966716e+09 -3.766716e+09 -3.926716e+09 2.068373e+02 2.264524e+01 -1.471449e+00
-4.441860e+09 -4.241861e+09 -4.401861e+09 -1.770217e+02 -6.432625e+00 1.540976e+00
-4.124475e+09 -3.924474e+09 -4.084475e+09 1.813497e+02 -2.691596e+00 -3.380706e+01
-3.416617e+09 -3.216617e+09 -3.376617e+09 -8.072476e-01 1.595202e+01 -8.349517e-01
-3.824805e+09 -3.624805e+09 -3.784805e+09 -4.747846e+01 -1.568094e+01 1.608338e+01
-2.155458e+09 -1.955458e+09 -2.115458e+09 4.192415e+00 3.209543e+00 -1.608079e+00
-4.697660e+09 -4.497660e+09 -4.657660e+09 -4.697186e+01 1.712218e+00 1.931718e+01
-2.095531e+09 -1.895531e+09 -2.055531e+09 3.078125e+01 1.139288e+01 1.089054e+01
-4.697660e+09 -4.497660e+09 -4.657660e+09 -5.122048e+01 -1.950077e+00 -1.882829e+01
-4.489860e+09 -4.289860e+09 -4.449859e+09 1.013522e+02 1.889269e+01 7.519091e+00
-4.981307e+09 -4.781308e+09 -4.941308e+09 1.037903e+02 -5.832016e+00 -5.027516e-01
-3.687544e+09 -3.487545e+09 -3.647545e+09 2.580401e+00 1.445790e+00 -5.680079e-02
-4.468456e+09 -4.268457e+09 -4.428457e+09 6.681194e+01 7.664266e+00 -1.915232e+01
-2.687460e+09 -2.487461e+09 -2.647459e+09 1.557237e+02 1.790618e+00 1.549177e+01
-4.303852e+09 -4.103853e+09 -4.263855e+09 -2.056397e+03 1.642349e+03 1.200841e+03
-3.390611e+09 -3.190611e+09 -3.350610e+09 7.765585e+01 1.903566e+00 1.040666e+01
-4.298343e+09 -4.098345e+09 -4.258344e+09 -2.534969e+02 3.101321e+00 -1.060351e+02
-4.280894e+09 -4.080899e+09 -4.240894e+09 3.689931e+02 9.962402e+01 1.793057e+03
-4.981831e+09 -4.781836e+09 -4.941831e+09 -1.096947e+03 -6.806507e+01 9.616704e+01
-4.715563e+09 -4.515563e+09 -4.675562e+09 1.414998e+02 -7.539881e+00 -1.529454e+01
-2.003682e+09 -1.803682e+09 -1.963682e+09 -1.466428e+02 -2.852072e+01 6.351293e-01
-3.825776e+09 -3.625776e+09 -3.785776e+09 -1.754079e+02 -1.886088e+01 -1.264513e+01
-4.527686e+09 -4.327687e+09 -4.487685e+09 1.817667e+02 2.455470e+01 1.997363e+01
-4.634142e+09 -4.434143e+09 -4.594143e+09 -1.921989e+02 -1.430334e+00 -1.261962e+01
-1.584142e+09 -1.384143e+09 -1.544142e+09 -1.617776e+01 -4.415552e+00 3.795127e+00
-4.984514e+09 -4.784515e+09 -4.944515e+09 3.187968e+01 3.429403e+00 -3.960785e+00
-3.381314e+09 -3.181314e+09 -3.341314e+09 -9.334379e+00 -1.883774e+01 -7.544507e-01
-3.881656e+09 -3.681657e+09 -3.841655e+09 1.688825e+02 -2.148843e+01 6.745889e+00
-4.345549e+09 -4.145548e+09 -4.305548e+09 3.274988e+02 2.497092e+01 -3.317601e+01
-1.696948e+09 -1.496948e+09 -1.656948e+09 1.574533e+02 2.224231e+01 -1.323327e+01
-2.982085e+09 -2.782084e+09 -2.942085e+09 -2.588703e+01 -1.000542e+00 -8.329006e+00
-4.491430e+09 -4.291430e+09 -4.451430e+09 -2.186228e+01 -4.037034e+00 -1.149788e+01
-3.952639e+09 -3.752640e+09 -3.912640e+09 2.704647e+02 2.162705e+01 1.191770e+01
-4.823018e+09 -4.623019e+09 -4.783018e+09 2.562059e+02 -1.034240e+01 -4.294672e+01
-4.296304e+09 -4.096305e+09 -4.256305e+09 2.402401e+02 6.978576e+00 -2.596204e+01
-4.656773e+09 -4.456773e+09 -4.616773e+09 -9.837137e+02 -1.808523e+01 8.807798e+01
-4.986812e+09 -4.786816e+09 -4.946813e+09 -1.079961e+03 -1.285624e+02 2.974370e+02
-4.788703e+09 -4.588702e+09 -4.748703e+09 -8.836201e+02 -6.631790e+00 -2.751581e+01
-2.562331e+09 -2.362332e+09 -2.522331e+09 5.524331e+01 1.791946e+01 1.792066e+00
-4.140313e+09 -3.940313e+09 -4.100313e+09 -1.030047e+03 -2.828137e+01 1.209591e+02
-3.961981e+09 -3.761981e+09 -3.921981e+09 2.818542e+02 1.967417e+01 -4.500443e+00
-4.325551e+09 -4.125551e+09 -4.285551e+09 -1.233244e+03 1.057777e+02 -7.448101e+01
-3.965431e+09 -3.765431e+09 -3.925431e+09 3.568070e+02 2.254775e+01 2.260457e+01
-4.138903e+09 -3.938902e+09 -4.098903e+09 -7.777662e+02 -1.055428e+02 3.109785e+02
-4.999309e+09 -4.799308e+09 -4.959309e+09 -9.144003e+02 5.057827e+01 -4.099124e+01
-3.963426e+09 -3.763423e+09 -3.923426e+09 8.776625e+02 4.349404e+02 -4.010091e+02
-4.128302e+09 -3.928302e+09 -4.088302e+09 -1.048662e+03 1.093519e+02 -5.230355e+01
-4.476862e+09 -4.276862e+09 -4.436862e+09 -1.722967e+02 -2.615696e+00 -1.585165e+01
-3.937103e+09 -3.737095e+09 -3.897092e+09 -2.979886e+03 -7.164153e+03 -1.392101e+03
-4.462320e+09 -4.262320e+09 -4.422320e+09 -1.541037e+02 1.019117e+01 -2.394941e+01
-1.678364e+09 -1.478364e+09 -1.638363e+09 1.114918e+03 4.420416e+02 -1.473103e+02
-5.008159e+09 -4.808162e+09 -4.968160e+09 5.499305e+02 4.495509e+01 3.500908e+01
-4.829832e+09 -4.629830e+09 -4.789831e+09 -1.366720e+03 -1.405838e+02 3.247363e+02
-4.122248e+09 -3.922247e+09 -4.082247e+09 -1.382049e+02 -1.238603e+01 -1.795407e+01
-4.136374e+09 -3.936377e+09 -4.096375e+09 7.227805e+02 3.976151e+02 -4.781825e+01
-4.034860e+09 -3.834860e+09 -3.994859e+09 -2.313566e+02 1.302971e+01 -2.294031e+01
-4.133630e+09 -3.933630e+09 -4.093629e+09 -2.316529e+02 4.822665e+01 -2.232338e+01
-2.752553e+09 -2.552554e+09 -2.712554e+09 -4.291524e+00 5.369232e+00 1.096642e+01
-1.963417e+09 -1.763418e+09 -1.923418e+09 1.063340e+02 1.811755e+01 1.664084e+01
-4.996548e+09 -4.796546e+09 -4.956547e+09 -1.872456e+03 2.457150e+01 -1.924084e+02
-3.962060e+09 -3.762061e+09 -3.922056e+09 -3.460142e+03 -2.274506e+03 2.365782e+03
-2.932659e+09 -2.732658e+09 -2.892659e+09 8.136148e+01 2.168101e+02 -2.522357e+01
-2.214562e+09 -2.014565e+09 -2.174563e+09 9.463237e+02 -8.413998e+02 3.361327e+02
-4.015845e+09 -3.815846e+09 -3.975846e+09 1.452097e+00 1.362249e+00 -3.948708e+00
-3.995406e+09 -3.795409e+09 -3.955411e+09 1.126505e+03 1.378773e+03 -1.464815e+02
-3.002807e+09 -2.802810e+09 -2.962810e+09 -2.454852e+02 1.280602e+02 1.209877e+02
-4.661539e+09 -4.461538e+09 -4.621518e+09 -1.542174e+03 -1.951917e+03 2.284764e+03
-2.479924e+09 -2.279925e+09 -2.439924e+09 -8.153447e-02 -3.441173e+00 5.810998e+00
-1.695994e+09 -1.495996e+09 -1.655996e+09 -1.498721e+03 -2.282881e+02 5.755031e+02
-2.618184e+09 -2.418184e+09 -2.578185e+09 1.757351e+02 -1.715013e+02 1.966465e+02
-1.840172e+09 -1.640174e+09 -1.800174e+09 2.469430e+02 -7.550638e+01 -8.512486e+01
-1.772332e+09 -1.572335e+09 -1.732335e+09 -3.299830e+01 1.352763e+02 4.275537e+02
-3.545139e+09 -3.345143e+09 -3.505142e+09 -2.031353e+02 -2.347018e+01 4.464969e+01
-2.793762e+09 -2.593763e+09 -2.753763e+09 -1.285921e+00 4.004111e+00 1.001620e+01
-1.845339e+09 -1.645340e+09 -1.805340e+09 3.808488e+01 2.931346e+00 1.676458e+01
-1.757519e+09 -1.557520e+09 -1.717520e+09 5.078483e+00 -1.615741e+00 8.426337e+00
-4.839930e+09 -4.639929e+09 -4.799929e+09 -1.789793e+02 -4.731077e+00 -4.218239e+01
-2.080104e+09 -1.880102e+09 -2.040103e+09 8.298488e+02 5.671238e+02 -3.627951e+02
-4.303202e+09 -4.103201e+09 -4.263202e+09 -2.610902e+02 -2.445227e+01 2.168732e+00
-3.969170e+09 -3.769171e+09 -3.929158e+09 -2.844689e+03 -3.479044e+03 4.059961e+03
-3.971723e+09 -3.771725e+09 -3.931725e+09 2.276894e+03 9.085105e+02 3.726069e+02
-3.952132e+09 -3.752137e+09 -3.912132e+09 -1.290201e+03 -2.928706e+02 1.688404e+03
-3.965039e+09 -3.765039e+09 -3.925039e+09 -3.153144e+02 -4.460620e+01 -1.739102e+01
-4.483782e+09 -4.283781e+09 -4.443781e+09 -3.612604e+02 -2.032458e+01 3.172737e+00
-3.949904e+09 -3.749903e+09 -3.909904e+09 -3.111989e+02 -4.052179e+01 -8.086776e+00
-1.636087e+09 -1.436089e+09 -1.596087e+09 -5.869714e+00 8.044971e+00 -7.522843e+01
-4.834117e+09 -4.634117e+09 -4.794117e+09 -2.615874e+02 -4.981309e+00 -4.141646e+01
-4.994738e+09 -4.794737e+09 -4.954737e+09 -3.096371e+02 3.144436e-01 3.656031e+00
-4.483827e+09 -4.283827e+09 -4.443827e+09 -3.969550e+02 -2.322361e+01 5.861635e+00
-4.324988e+09 -4.124985e+09 -4.284975e+09 -3.362753e+03 -1.489596e+03 3.027154e+03
-4.647778e+09 -4.447774e+09 -4.607752e+09 -1.749063e+03 -1.641532e+03 1.225899e+03
-4.811358e+09 -4.611358e+09 -4.771335e+09 1.074615e+03 1.732328e+03 3.418060e+02
-4.632353e+09 -4.432349e+09 -4.592324e+09 2.673171e+01 5.311205e+02 9.425053e+02
-4.290123e+09 -4.090120e+09 -4.250083e+09 1.107235e+03 4.180704e+03 4.748267e+03
-4.358969e+09 -4.158971e+09 -4.318970e+09 1.186983e+03 1.585944e+02 -8.929939e+01
-4.124889e+09 -3.924889e+09 -4.084860e+09 2.633384e+03 3.672252e+03 9.192183e+03
-1.597382e+09 -1.397384e+09 -1.557382e+09 6.236538e+02 -4.016297e+02 8.444699e+01
-4.460226e+09 -4.260226e+09 -4.420226e+09 -5.325438e+02 -1.981232e+02 -4.729954e+01
-4.589632e+09 -4.389631e+09 -4.549632e+09 -5.649922e+02 -1.074623e+02 -9.437924e+01
-4.478000e+09 -4.278000e+09 -4.438001e+09 -7.760463e+02 -2.774379e+02 -2.090534e+02
-4.624141e+09 -4.424140e+09 -4.584141e+09 -4.825059e+02 -8.741532e+01 -1.056722e+02
-3.931743e+09 -3.731741e+09 -3.891743e+09 -2.479422e+02 -3.495994e+02 5.043544e+02
-4.090143e+09 -3.890143e+09 -4.050142e+09 -1.428791e+03 2.514451e+02 -2.442564e+02
-4.478029e+09 -4.278028e+09 -4.438030e+09 -9.639646e+02 -4.492334e+02 -3.266136e+02
-4.443396e+09 -4.243394e+09 -4.403396e+09 -6.552289e+02 -2.410982e+02 -1.903198e+02
-4.120629e+09 -3.920628e+09 -4.080631e+09 6.784497e+02 -8.967110e+02 7.229479e+02
-4.821261e+09 -4.621260e+09 -4.781262e+09 -5.788160e+02 -1.392591e+02 -1.179808e+01
-4.305842e+09 -4.105841e+09 -4.265842e+09 -4.607733e+02 -1.221237e+02 1.456748e+02
-4.494468e+09 -4.294469e+09 -4.454468e+09 1.003468e+03 9.844787e+01 -5.889140e+01
-4.134275e+09 -3.934275e+09 -4.094273e+09 -1.876401e+03 1.541194e+03 -5.545805e+02
-3.985993e+09 -3.785995e+09 -3.945993e+09 8.041952e+02 7.904120e+01 -1.230421e+01
-3.084097e+09 -2.884097e+09 -3.044097e+09 5.275749e+01 -1.322788e+02 3.198541e+01
-4.786102e+09 -4.586103e+09 -4.746101e+09 5.587885e+02 3.601627e+01 -2.525076e+01
-4.099636e+09 -3.899637e+09 -4.059636e+09 6.107300e+02 1.773799e+01 4.163993e+01
-4.820789e+09 -4.620790e+09 -4.780788e+09 6.271946e+02 5.082079e+01 -3.452614e+01
-3.561576e+09 -3.361576e+09 -3.521575e+09 1.484890e+02 -1.026055e+02 9.693045e+00
-3.963838e+09 -3.763837e+09 -3.923838e+09 -2.219473e+02 -1.534263e+02 1.570619e+02
-4.990938e+09 -4.790940e+09 -4.950938e+09 6.807454e+02 1.046906e+02 3.831926e+00
-4.837701e+09 -4.637702e+09 -4.797701e+09 8.198899e+02 -2.703939e+01 -5.820969e-01
-5.015692e+09 -4.815692e+09 -4.975691e+09 5.668038e+02 1.487940e+02 -2.614109e+01
-3.999088e+09 -3.799088e+09 -3.959088e+09 -2.030683e+02 -1.951491e+01 1.336236e+00
-4.122756e+09 -3.922756e+09 -4.082756e+09 -2.522850e+02 -2.835364e+00 -8.877834e+00
-4.976221e+09 -4.776220e+09 -4.936221e+09 -1.792301e+02 1.028940e+00 -3.348411e+01
-4.342321e+09 -4.142321e+09 -4.302321e+09 -1.636901e+02 -1.512969e+01 -8.714245e+00
-3.985838e+09 -3.785838e+09 -3.945838e+09 5.038309e+01 1.092114e+01 -4.645877e+00
-4.972530e+09 -4.772529e+09 -4.932529e+09 -1.883767e+02 2.431193e-01 -1.052649e+01
-4.983219e+09 -4.783221e+09 -4.943220e+09 -9.663866e+02 1.932036e+02 3.808046e+01
-4.262533e+09 -4.062532e+09 -4.222533e+09 -1.640091e+02 -1.121196e+01 3.301956e+00
-4.976447e+09 -4.776446e+09 -4.936447e+09 -1.361672e+03 1.509950e+02 1.089819e+02
-4.235085e+09 -4.035084e+09 -4.195085e+09 -1.350416e+02 -8.249767e+00 1.596061e+01
-4.685554e+09 -4.485553e+09 -4.645554e+09 -1.395862e+02 -2.452245e+00 5.284935e+00
-3.963536e+09 -3.763536e+09 -3.923537e+09 -1.530843e+03 4.142856e+02 2.662184e+02
-3.958385e+09 -3.758388e+09 -3.918387e+09 -1.028198e+03 5.174649e+02 1.575521e+02
-4.499700e+09 -4.299700e+09 -4.459700e+09 -1.182546e+02 -5.933102e+00 3.252989e+00
-4.299668e+09 -4.099666e+09 -4.259666e+09 1.187308e+03 -2.307944e+02 3.892300e+02
-4.783400e+09 -4.583399e+09 -4.743401e+09 -2.613192e+02 -1.082711e+02 5.141759e-01
-4.651703e+09 -4.451705e+09 -4.611706e+09 5.066956e+02 -4.082415e+02 1.383441e+02
-1.674675e+09 -1.474676e+09 -1.634675e+09 9.136248e+02 -5.561049e+02 2.285218e+02
-4.106307e+09 -3.906306e+09 -4.066304e+09 1.436846e+03 -4.771155e+02 -3.535783e+02
-4.456179e+09 -4.256178e+09 -4.416174e+09 4.807684e+02 -1.738917e+01 -1.797633e+02
-3.979680e+09 -3.779671e+09 -3.939661e+09 -3.074323e+03 4.083102e+03 -1.830911e+03
-4.299667e+09 -4.099665e+09 -4.259662e+09 1.465961e+03 -1.355307e+03 4.782670e+02
-4.792772e+09 -4.592772e+09 -4.752770e+09 1.362887e+03 -3.109054e+02 -6.650873e+02
-3.976281e+09 -3.776281e+09 -3.936281e+09 -1.205169e+03 1.247950e+02 9.313948e-01
-4.627381e+09 -4.427382e+09 -4.587379e+09 8.612892e+02 4.648543e+01 -3.297353e+02
-4.277224e+09 -4.077223e+09 -4.237223e+09 1.467564e+02 -9.866039e+01 5.880417e+01
-4.449539e+09 -4.249540e+09 -4.409536e+09 1.426925e+03 -5.074990e+02 -5.537596e+02
-3.940915e+09 -3.740916e+09 -3.900914e+09 1.418330e+03 -5.028387e+02 -5.339179e+02
-4.125769e+09 -3.925768e+09 -4.085767e+09 1.375766e+03 -1.592730e+02 -4.077270e+02
-4.469002e+09 -4.269001e+09 -4.429000e+09 1.219709e+03 -2.915869e+02 -3.028974e+02
-4.974011e+09 -4.774011e+09 -4.934011e+09 -1.542245e+03 -1.700069e+01 -3.509801e+01
-4.319129e+09 -4.119128e+09 -4.279127e+09 1.420317e+03 -4.133612e+02 -5.955300e+02
-4.292658e+09 -4.092657e+09 -4.252656e+09 1.425420e+03 -4.094284e+02 -5.125993e+02
-4.635891e+09 -4.435891e+09 -4.595890e+09 1.255851e+03 8.912163e+01 8.367908e+01
-3.975896e+09 -3.775895e+09 -3.935895e+09 1.461079e+03 -4.354694e+02 -3.594434e+02
-4.436616e+09 -4.236617e+09 -4.396614e+09 -6.056782e+02 3.873902e+02 -6.142095e+02
-3.889046e+09 -3.689047e+09 -3.849047e+09 -4.692348e+00 8.312793e-01 1.450298e+01
-4.319514e+09 -4.119514e+09 -4.279514e+09 -9.456897e+02 2.084667e+01 2.364265e+01
-4.662363e+09 -4.462360e+09 -4.622361e+09 1.161616e+03 -1.260852e+02 -1.557488e+02
-3.950847e+09 -3.750848e+09 -3.910847e+09 -8.433739e+02 8.943592e+01 -1.010936e+02
-4.319129e+09 -4.119126e+09 -4.279128e+09 1.641801e+03 -5.517453e+02 -5.946319e+02
-3.975897e+09 -3.775893e+09 -3.935894e+09 1.250457e+03 -8.970972e+02 -1.336728e+02
-4.127801e+09 -3.927803e+09 -4.087802e+09 -1.839210e+02 2.309872e+01 -4.049065e+01
-4.996589e+09 -4.796591e+09 -4.956590e+09 1.529584e+02 4.463586e+01 -3.736395e+01
-4.110650e+09 -3.910649e+09 -4.070650e+09 -6.139083e+02 -1.060400e+02 9.461826e+01
-4.134274e+09 -3.934276e+09 -4.094273e+09 -1.633819e+02 2.268887e+02 -8.022687e+02
-4.818094e+09 -4.618096e+09 -4.778095e+09 2.033834e+02 3.152655e+01 4.824461e+00
-4.289217e+09 -4.089215e+09 -4.249217e+09 -7.750528e+02 -1.027817e+02 2.387011e+02
-4.971056e+09 -4.771055e+09 -4.931056e+09 -5.601146e+02 -7.473216e+01 8.287996e+01
-4.632449e+09 -4.432448e+09 -4.592449e+09 -7.783632e+02 -3.883831e+01 1.322017e+02
-4.817098e+09 -4.617097e+09 -4.777097e+09 -6.921537e+02 -5.988755e+01 1.447863e+02
-4.133048e+09 -3.933047e+09 -4.093048e+09 -4.868369e+02 -1.364837e+02 2.182865e+02
-3.933055e+09 -3.733056e+09 -3.893056e+09 -7.645873e+02 4.464368e+01 -4.456847e+00
-4.640827e+09 -4.440827e+09 -4.600827e+09 -9.101749e+02 -4.533862e+01 7.769465e+01
-2.303523e+09 -2.103524e+09 -2.263523e+09 5.823589e+02 -4.545695e+02 1.852286e+02
-2.205791e+09 -2.005792e+09 -2.165790e+09 1.562550e+02 2.198835e+01 8.272207e+00
-2.035153e+09 -1.835154e+09 -1.995152e+09 1.239922e+02 -1.819415e+00 1.736754e+01
-2.874460e+09 -2.674461e+09 -2.834460e+09 3.596902e+00 1.159031e+01 4.829186e-01
-5.007194e+09 -4.807191e+09 -4.967193e+09 -2.285746e+02 1.426040e+02 7.200998e+01
-2.899775e+09 -2.699778e+09 -2.859777e+09 -1.070012e+03 -2.703063e+02 9.365014e+02
-4.292657e+09 -4.092658e+09 -4.252656e+09 7.183202e+02 8.089328e+01 -1.023486e+03
-4.134276e+09 -3.934276e+09 -4.094275e+09 9.900511e+02 -1.737879e+02 -2.503630e+02
-1.614911e+09 -1.414910e+09 -1.574910e+09 -1.881193e+01 -9.500628e+00 4.433582e-01
-3.966716e+09 -3.766716e+09 -3.926716e+09 3.053268e+02 2.016177e+01 1.603517e+01
-2.215512e+09 -2.015512e+09 -2.175512e+09 -1.531050e+01 -1.670699e-01 -8.244930e+00
-4.995764e+09 -4.795765e+09 -4.955764e+09 5.276313e+02 -2.877097e+01 -9.217017e+01
-4.976037e+09 -4.776037e+09 -4.936037e+09 4.941071e+02 -3.776772e+01 -8.643672e+01
-2.040653e+09 -1.840652e+09 -2.000652e+09 -3.226921e+01 -9.659491e+00 -1.199832e+01
-1.843136e+09 -1.643135e+09 -1.803135e+09 -2.549022e+01 -8.522505e+00 -5.608431e+00
-4.980545e+09 -4.780546e+09 -4.940546e+09 -8.025931e+02 1.203938e+01 -9.289304e+01
-4.812235e+09 -4.612234e+09 -4.772232e+09 1.200082e+03 -2.322891e+02 -2.682658e+02
-2.152462e+09 -1.952463e+09 -2.112462e+09 1.342131e+02 4.467222e-01 1.917693e+01
-3.956073e+09 -3.756074e+09 -3.916073e+09 8.963973e+02 -1.371844e+02 -3.428767e+02
-4.134276e+09 -3.934276e+09 -4.094276e+09 7.718517e+02 -8.191491e+01 -1.670160e+02
-2.673462e+09 -2.473462e+09 -2.633462e+09 -4.191843e+00 -5.958213e+00 -4.882953e+00
-3.896084e+09 -3.696083e+09 -3.856083e+09 1.949807e+02 3.236615e+01 -1.059623e+01
-3.963095e+09 -3.763094e+09 -3.923096e+09 -1.763543e+03 8.098571e+02 6.326132e+02
-3.326090e+09 -3.126089e+09 -3.286089e+09 1.094773e+01 1.954218e+00 -2.479540e+00
-4.320728e+09 -4.120725e+09 -4.280728e+09 -1.255595e+03 3.036211e+02 8.704657e+02
-2.087357e+09 -1.887357e+09 -2.047357e+09 1.036336e+01 2.996838e+00 -4.243148e-01
-4.094747e+09 -3.894750e+09 -4.054756e+09 5.457978e+02 3.743823e+03 -3.248031e+01
-2.239600e+09 -2.039599e+09 -2.199599e+09 7.209323e+00 1.022787e+00 2.506297e-01
-3.958946e+09 -3.758938e+09 -3.918945e+09 -1.209502e+03 -1.645406e+03 -6.641701e+02
-2.670567e+09 -2.470566e+09 -2.630567e+09 1.820091e+01 4.754877e+00 -3.026837e+00
-3.964607e+09 -3.764608e+09 -3.924611e+09 2.074930e+03 1.928172e+03 -8.073254e+02
-2.901441e+09 -2.701440e+09 -2.861440e+09 8.360459e-01 1.650356e+00 -3.166209e+00
-4.648211e+09 -4.448212e+09 -4.608211e+09 -1.288349e+03 1.102762e+02 -8.714215e+01
-4.102238e+09 -3.902236e+09 -4.062238e+09 -8.354692e+02 -2.242834e+02 5.705501e+02
-4.998591e+09 -4.798591e+09 -4.958592e+09 -1.572734e+03 1.555840e+02 1.843195e+01
-4.971056e+09 -4.771054e+09 -4.931056e+09 -6.694969e+02 -8.996648e+01 1.032483e+02
-4.440766e+09 -4.240764e+09 -4.400767e+09 -2.477843e+02 -4.326127e+02 5.182451e+02
-4.091243e+09 -3.891240e+09 -4.051244e+09 -6.911431e+02 -3.151553e+02 8.992257e+02
-4.961441e+09 -4.761439e+09 -4.921442e+09 -4.453336e+02 -1.888215e+02 1.835525e+02
-3.956237e+09 -3.756235e+09 -3.916237e+09 1.529126e+02 -3.872928e+02 4.024141e+02
-4.679482e+09 -4.479484e+09 -4.639482e+09 3.783654e+02 1.810598e+01 -5.551925e+00
-2.206084e+09 -2.006085e+09 -2.166083e+09 7.876648e+01 -1.766946e+01 5.433304e+00
-4.054092e+09 -3.854093e+09 -4.014091e+09 1.118774e+02 -1.945878e+01 1.777574e+01
-4.118393e+09 -3.918391e+09 -4.078395e+09 -3.822670e+02 -8.212695e+02 1.283735e+03
-4.979574e+09 -4.779577e+09 -4.939574e+09 3.043146e+02 5.155634e+01 3.378921e+01
-3.248792e+09 -3.048795e+09 -3.208792e+09 2.196659e+02 1.320412e+02 -5.575057e+00
-4.986533e+09 -4.786531e+09 -4.946535e+09 -2.378092e+02 -2.163755e+02 1.587701e+02
-4.159303e+09 -3.959305e+09 -4.119303e+09 4.445825e+02 5.641855e+00 1.493769e+00
-3.582236e+09 -3.382239e+09 -3.542237e+09 1.459989e+02 4.540180e+01 -1.157452e+01
-3.727335e+09 -3.527338e+09 -3.687336e+09 1.259099e+02 -2.133949e+01 3.041946e+01
-1.686771e+09 -1.486772e+09 -1.646771e+09 5.609413e+02 1.061350e+01 1.942322e+01
-4.397800e+09 -4.197803e+09 -4.357800e+09 5.486737e+01 1.051282e+01 9.088797e+00
-3.354199e+09 -3.154198e+09 -3.314198e+09 1.012342e+03 4.043255e+02 -1.474837e+02
-4.985070e+09 -4.785070e+09 -4.945069e+09 2.805311e+02 -2.305296e+01 -2.039855e+00
-4.785082e+09 -4.585076e+09 -4.745081e+09 -1.933675e+03 2.356862e+02 -7.325140e+01
-2.857285e+09 -2.657286e+09 -2.817285e+09 4.434938e+01 -3.388500e+00 -7.216112e+00
-3.723287e+09 -3.523289e+09 -3.683286e+09 3.639238e+02 2.556515e+01 -2.114399e+01
-3.558097e+09 -3.358099e+09 -3.518097e+09 2.020971e+02 9.575466e+00 -1.433836e+01
-3.735345e+09 -3.535348e+09 -3.695345e+09 7.322615e+01 -1.093350e+01 4.876999e+00
-4.162620e+09 -3.962624e+09 -4.122621e+09 -2.106498e+02 1.572171e+02 1.982136e+01
-2.987144e+09 -2.787147e+09 -2.947144e+09 1.426843e+02 5.627405e+00 1.136762e+01
-2.601108e+09 -2.401111e+09 -2.561109e+09 -3.306840e+02 7.340306e+01 -7.902490e+00
-3.406261e+09 -3.206262e+09 -3.366261e+09 -5.085284e+02 3.252977e+01 6.332794e+00
-4.671658e+09 -4.471660e+09 -4.631658e+09 9.179375e+01 -1.926902e+01 4.560377e+00
-4.075351e+09 -3.875353e+09 -4.035351e+09 -2.235349e+02 -1.970722e+01 5.337266e+00
-4.697496e+09 -4.497497e+09 -4.657496e+09 -1.056370e+02 4.884706e+01 -5.860108e+00
-3.405820e+09 -3.205820e+09 -3.365820e+09 -1.677177e+02 -1.129551e+01 7.558807e-01
-3.075635e+09 -2.875637e+09 -3.035635e+09 -1.707727e+02 1.311588e+01 -2.630058e+01
-1.566319e+09 -1.366322e+09 -1.526322e+09 2.910197e+02 -7.335121e+01 1.067240e+02
-4.448115e+09 -4.248115e+09 -4.408115e+09 -1.236681e+02 -7.527348e+00 4.643775e+00
-2.773021e+09 -2.573022e+09 -2.733021e+09 -2.564751e+02 -1.147399e+01 -5.512216e+01
-2.640996e+09 -2.440995e+09 -2.600995e+09 -9.280832e+01 -1.767360e+01 -4.640822e+00
-3.935345e+09 -3.735346e+09 -3.895345e+09 -2.413663e+02 5.114042e+00 1.239186e+01
-3.449426e+09 -3.249426e+09 -3.409426e+09 -3.413916e+00 -1.537115e+01 6.580336e-01
-3.128874e+09 -2.928876e+09 -3.088874e+09 -1.339212e+02 -1.219409e+01 -5.870100e+01
-4.997048e+09 -4.797052e+09 -4.957051e+09 6.400034e+02 1.520187e+02 4.437998e+01
-4.487960e+09 -4.287963e+09 -4.447962e+09 7.564568e+02 2.845392e+02 -5.829540e+01
-4.334223e+09 -4.134227e+09 -4.294224e+09 3.019359e+02 1.624770e+02 2.957174e+00
-4.667023e+09 -4.467027e+09 -4.627024e+09 6.752584e+02 7.052351e+01 -5.806993e+01
-4.822839e+09 -4.622842e+09 -4.782840e+09 7.363415e+02 -9.796270e+00 -3.132248e-01
-4.689255e+09 -4.489258e+09 -4.649256e+09 4.465308e+02 8.545432e+01 -2.664944e+01
-1.861527e+09 -1.661527e+09 -1.821527e+09 1.534225e+02 2.216932e+01 -1.210176e+01
-2.082671e+09 -1.882671e+09 -2.042671e+09 1.424406e+02 1.553592e+01 2.557094e+00
-4.412742e+09 -4.212743e+09 -4.372742e+09 2.075258e+00 1.599439e+00 -1.607448e+00
-4.639537e+09 -4.439538e+09 -4.599538e+09 2.407477e+02 -8.633104e+00 -5.342741e+01
-4.147078e+09 -3.947079e+09 -4.107079e+09 -2.206844e+02 -1.311404e+00 -4.595766e+01
-2.383459e+09 -2.183459e+09 -2.343459e+09 1.369490e+02 1.856127e+01 -2.716658e+00
-2.514182e+09 -2.314183e+09 -2.474183e+09 1.241920e+02 1.514769e+01 6.342390e+00
-4.115031e+09 -3.915032e+09 -4.075032e+09 1.392464e+02 4.225755e+00 -3.431879e+01
-1.935811e+09 -1.735811e+09 -1.895810e+09 2.771851e+02 5.305877e+01 4.324283e+00
-4.134521e+09 -3.934523e+09 -4.094522e+09 -1.198059e+02 -1.441532e-01 2.691169e+01
-4.406163e+09 -4.206163e+09 -4.366163e+09 5.391969e+01 1.098911e+01 -1.173339e+01
-4.215974e+09 -4.015975e+09 -4.175975e+09 6.286131e+01 2.613623e+00 -2.389667e+01
-2.725638e+09 -2.525639e+09 -2.685639e+09 -2.084519e+00 -3.479182e+00 -8.751400e-01
-3.174424e+09 -2.974425e+09 -3.134424e+09 -4.107147e+00 -1.446546e+00 -1.135077e+00
-4.996622e+09 -4.796623e+09 -4.956623e+09 2.445818e+02 -1.970123e-01 -2.366593e+01
-4.480418e+09 -4.280419e+09 -4.440419e+09 -1.561608e+01 -2.036182e+00 2.676557e+00
-4.230127e+09 -4.030127e+09 -4.190127e+09 1.576631e+02 1.901682e+00 -1.559259e+01
-4.066522e+09 -3.866522e+09 -4.026522e+09 1.727599e+02 -2.733053e+00 -2.024197e+01
-2.292954e+09 -2.092954e+09 -2.252954e+09 -2.066406e+02 -1.779809e+01 -3.471214e+01
-1.542621e+09 -1.342621e+09 -1.502620e+09 2.642450e+02 -6.213145e+01 4.085682e+01
-4.795705e+09 -4.595705e+09 -4.755705e+09 1.693869e+02 1.014451e+01 1.673049e+01
-4.632703e+09 -4.432703e+09 -4.592703e+09 1.604705e+02 7.338171e+00 2.107225e+00
-2.086420e+09 -1.886420e+09 -2.046419e+09 1.201652e+02 5.958281e+01 4.091024e+00
-4.099208e+09 -3.899208e+09 -4.059207e+09 1.873763e+02 1.094130e+01 -1.199439e+01
-1.600399e+09 -1.400398e+09 -1.560398e+09 -8.845406e+01 -2.077386e+01 -1.125358e+01
-3.837375e+09 -3.637376e+09 -3.797374e+09 2.755525e+02 3.904272e+01 6.787868e+00
-3.448410e+09 -3.248410e+09 -3.408409e+09 1.392011e+02 6.296308e+00 -1.183741e+01
-3.407927e+09 -3.207932e+09 -3.367931e+09 2.858296e+02 1.503810e+02 4.254954e+02
-4.115792e+09 -3.915794e+09 -4.075792e+09 2.611602e+02 2.244071e+01 -1.480034e+01
-2.305724e+09 -2.105723e+09 -2.265724e+09 -1.395349e+02 -1.466951e+01 -2.297572e+01
-2.257346e+09 -2.057345e+09 -2.217345e+09 -1.228687e+02 -2.035147e+01 -3.963146e+01
-3.886970e+09 -3.686970e+09 -3.846969e+09 2.331384e+02 -1.309178e+00 2.144289e+01
-3.149843e+09 -2.949844e+09 -3.109842e+09 3.535362e+02 1.378769e+01 1.328416e+01
-4.538409e+09 -4.338410e+09 -4.498408e+09 3.466169e+02 -1.835712e+01 -1.757958e+01
-1.584618e+09 -1.384622e+09 -1.544622e+09 3.922286e+02 1.112599e+01 1.895395e+02
-2.213260e+09 -2.013263e+09 -2.173260e+09 -7.946831e+01 2.295479e+01 -2.605078e+01
-2.679745e+09 -2.479748e+09 -2.639746e+09 -5.693985e+01 -4.717039e+01 -2.672298e+01
-2.619678e+09 -2.419681e+09 -2.579678e+09 -1.074720e+02 6.182190e+01 -1.168430e+01
-3.888141e+09 -3.688144e+09 -3.848141e+09 -3.328647e+01 -1.687193e+01 -1.887549e+01
-3.516941e+09 -3.316944e+09 -3.476942e+09 -1.110391e+02 7.245726e+01 -2.551956e+01
-3.793123e+09 -3.593126e+09 -3.753124e+09 -2.652698e+02 5.973426e+01 -2.002292e+01
-3.844055e+09 -3.644057e+09 -3.804055e+09 -3.844890e+01 -1.183845e+01 -1.726243e+01
-1.907263e+09 -1.707264e+09 -1.867263e+09 1.058636e+02 1.211357e+01 5.327244e+00
-2.126483e+09 -1.926484e+09 -2.086483e+09 8.772684e+01 1.085722e+01 -2.642828e+00
-1.807631e+09 -1.607631e+09 -1.767631e+09 6.169926e+01 5.872285e+00 9.378695e+00
-2.993899e+09 -2.793900e+09 -2.953900e+09 1.099096e+02 -6.125016e-01 2.736734e+00
-4.981479e+09 -4.781477e+09 -4.941479e+09 -4.934750e+01 -6.394814e+00 -5.589277e+01
-2.882559e+09 -2.682560e+09 -2.842559e+09 8.862741e+01 1.609852e+01 1.672491e+01
-3.298620e+09 -3.098625e+09 -3.258623e+09 1.998604e+02 1.469607e+02 5.783873e+02
-4.707622e+09 -4.507620e+09 -4.667621e+09 -4.187173e+01 -1.388156e+02 6.902788e+00
-2.885849e+09 -2.685849e+09 -2.845849e+09 8.086667e+01 9.389998e+00 5.968571e+00
-2.639619e+09 -2.439620e+09 -2.599620e+09 1.655585e+02 5.090046e+00 2.933835e+01
-3.768882e+09 -3.568881e+09 -3.728883e+09 4.708236e+02 -2.481552e+02 -2.591915e+02
-2.194759e+09 -1.994760e+09 -2.154759e+09 1.066777e+02 7.731541e+00 1.699864e+01
-2.880060e+09 -2.680061e+09 -2.840061e+09 1.069555e+02 -1.841450e+00 9.041795e+00
-4.826408e+09 -4.626405e+09 -4.786408e+09 -1.792252e+01 -4.109283e+01 4.084270e+01
-4.826386e+09 -4.626384e+09 -4.786386e+09 8.035571e+02 1.658237e+01 6.875128e+01
-4.139943e+09 -3.939939e+09 -4.099942e+09 1.561929e+02 3.205515e+02 -6.305413e+02
-4.439577e+09 -4.239575e+09 -4.399577e+09 3.879098e+02 1.643594e+02 -2.055471e+02
-4.651816e+09 -4.451814e+09 -4.611816e+09 1.107413e+03 2.354662e+02 -1.892555e+02
-3.942546e+09 -3.742545e+09 -3.902545e+09 1.439323e+02 -6.351952e+01 5.320243e+00
-4.571532e+09 -4.371532e+09 -4.531532e+09 -3.178318e+01 -6.677251e+01 -8.320414e+00
-4.075671e+09 -3.875671e+09 -4.035671e+09 5.787316e+01 -8.063789e+01 5.944342e+01
-4.478775e+09 -4.278770e+09 -4.438779e+09 -1.151214e+02 -9.603445e+02 -6.200429e+02
-4.247248e+09 -4.047247e+09 -4.207248e+09 -3.444550e+02 -2.521265e+02 3.783536e+02
-3.771159e+09 -3.571159e+09 -3.731159e+09 1.737080e+02 -6.622188e+01 1.945662e+01
-3.793201e+09 -3.593200e+09 -3.753200e+09 9.382082e+01 -2.844210e+01 4.518150e+00
-4.785280e+09 -4.585280e+09 -4.745280e+09 1.652128e+02 -9.614563e+01 5.976932e+01
-3.692905e+09 -3.492903e+09 -3.652904e+09 1.043609e+02 1.604187e+02 -3.835306e+01
-3.296095e+09 -3.096098e+09 -3.256097e+09 6.799263e+02 -1.021569e+03 3.212837e+02
-3.835560e+09 -3.635564e+09 -3.795562e+09 5.812240e+01 -1.513860e+02 2.484324e+01
-1.583794e+09 -1.383798e+09 -1.543795e+09 5.255184e+02 -6.024353e+02 1.406403e+02
-4.993537e+09 -4.793535e+09 -4.953537e+09 -2.743312e+02 -4.849273e+01 6.355660e+01
-4.075654e+09 -3.875657e+09 -4.035655e+09 1.803737e+02 -1.254930e+02 3.333395e+01
-4.986376e+09 -4.786379e+09 -4.946377e+09 4.131424e+02 -1.404614e+02 -1.725530e+01
-4.890117e+09 -4.690121e+09 -4.850119e+09 3.119271e+01 1.129886e-08 2.028474e+01
-2.297016e+09 -2.097018e+09 -2.257018e+09 9.241994e+02 1.591866e+02 4.039423e+01
-1.767735e+09 -1.567737e+09 -1.727738e+09 1.177087e+03 2.246185e+02 5.950200e+02
-1.913482e+09 -1.713482e+09 -1.873482e+09 -2.338603e+01 -1.526974e+01 -8.664196e+00
-2.960619e+09 -2.760620e+09 -2.920621e+09 9.780579e+02 -3.317230e+01 -5.617016e+01
-3.250494e+09 -3.050495e+09 -3.210495e+09 1.062680e+03 -7.461971e+01 -6.260319e+01
-3.063265e+09 -2.863264e+09 -3.023267e+09 1.666172e+03 8.059887e+01 -4.747001e+02
-4.986471e+09 -4.786470e+09 -4.946470e+09 1.361062e+02 -6.740314e+01 2.178504e+01
-3.996584e+09 -3.796585e+09 -3.956584e+09 4.511303e+02 -2.437694e+02 5.775888e+01
-4.632847e+09 -4.432847e+09 -4.592847e+09 5.356152e+01 1.449547e+01 1.151298e+00
-1.894134e+09 -1.694134e+09 -1.854137e+09 1.830972e+03 1.013989e+02 -3.874990e+02
-3.440481e+09 -3.240480e+09 -3.400480e+09 -2.863456e+01 -1.104134e+00 -3.955817e+01
-1.894686e+09 -1.694685e+09 -1.854686e+09 7.386210e+02 -1.988661e+02 -4.682137e+02
-3.544152e+09 -3.344154e+09 -3.504151e+09 2.651030e+02 4.386418e+01 -7.875725e+00
-4.298564e+09 -4.098563e+09 -4.258564e+09 2.274092e+02 -2.720063e+02 1.772330e+02
-3.494651e+09 -3.294650e+09 -3.454650e+09 -2.798692e+01 -7.260478e+00 -3.506086e+01
-4.487998e+09 -4.287999e+09 -4.447997e+09 3.390031e+02 2.172292e+01 -2.757534e+01
-4.974606e+09 -4.774606e+09 -4.934606e+09 -7.644901e+01 5.575430e+00 1.133350e+01
-3.192234e+09 -2.992236e+09 -3.152234e+09 5.174791e+02 8.578294e+01 -1.800605e+01
-2.947740e+09 -2.747741e+09 -2.907740e+09 4.890856e+02 7.079686e+01 3.105827e+01
-3.827407e+09 -3.627406e+09 -3.787406e+09 -1.084302e+02 -1.619489e+01 -1.006205e+01
-3.165636e+09 -2.965638e+09 -3.125636e+09 2.721370e+02 1.191646e+02 3.559319e+00
-2.945764e+09 -2.745765e+09 -2.905764e+09 3.988780e+02 -1.573585e+02 1.945644e+01
-3.355102e+09 -3.155103e+09 -3.315101e+09 3.614687e+02 2.357553e+01 1.948615e+01
-3.961061e+09 -3.761067e+09 -3.921062e+09 8.341160e+02 5.358713e+02 1.376872e+03
-4.127410e+09 -3.927410e+09 -4.087410e+09 -7.724131e+01 -6.386109e+01 -1.137948e+01
-4.991757e+09 -4.791762e+09 -4.951753e+09 -1.129665e+03 -2.858642e+02 4.279175e+02
-1.959784e+09 -1.759783e+09 -1.919783e+09 -7.109409e+01 -6.087389e+01 -2.873118e+01
-4.298929e+09 -4.098933e+09 -4.258922e+09 -1.163177e+03 -1.399973e+02 3.540959e+03
-4.991549e+09 -4.791548e+09 -4.951548e+09 -1.409015e+02 -5.360786e+00 1.057151e+01
-4.813950e+09 -4.613954e+09 -4.773946e+09 1.418512e+03 3.873206e+02 -2.390100e+01
-3.017654e+09 -2.817653e+09 -2.977654e+09 -3.693730e+01 -9.628840e-01 -8.594532e+00
-4.269016e+09 -4.069018e+09 -4.229000e+09 1.277700e+03 1.650691e+03 4.604212e+03
-4.998867e+09 -4.798870e+09 -4.958856e+09 -5.550379e+02 -3.528521e+02 5.513350e+02
-4.256166e+09 -4.056165e+09 -4.216165e+09 -1.002558e+02 -7.064464e+01 3.046918e+01
-1.579800e+09 -1.379804e+09 -1.539801e+09 -2.198030e+02 -6.478247e+02 -1.160655e+00
-4.127910e+09 -3.927914e+09 -4.087902e+09 -4.980515e+02 -2.035926e+02 3.515488e+03
-4.127481e+09 -3.927488e+09 -4.087478e+09 1.536462e+03 7.100449e+02 4.363839e+03
-4.482005e+09 -4.282005e+09 -4.442005e+09 -4.797741e+02 -5.877389e+00 5.218920e+00
-4.130687e+09 -3.930688e+09 -4.090688e+09 -4.826882e+02 4.478508e+00 -5.253175e+01
-4.132635e+09 -3.932635e+09 -4.092635e+09 -4.067313e+02 3.140258e+00 -2.235373e+01
-3.954575e+09 -3.754575e+09 -3.914576e+09 -4.479661e+02 -2.772140e+01 2.826414e+01
-4.305896e+09 -4.105896e+09 -4.265897e+09 -3.962300e+02 -4.749941e+00 -1.896987e+01
-4.826643e+09 -4.626642e+09 -4.786621e+09 -1.764420e+03 -1.675534e+03 2.170590e+03
-4.987652e+09 -4.787652e+09 -4.947652e+09 -3.454723e+02 -3.246647e+00 -2.234091e+01
-4.985271e+09 -4.785268e+09 -4.945272e+09 9.711577e+02 -1.606092e+02 -6.916555e+01
-4.304536e+09 -4.104537e+09 -4.264536e+09 -3.834679e+02 -3.100135e+00 -2.021581e+01
-4.981479e+09 -4.781477e+09 -4.941479e+09 9.977008e-02 -8.206570e+00 -7.309319e+01
-3.970211e+09 -3.770214e+09 -3.930215e+09 2.977937e+02 -1.171921e+03 1.920900e+02
-4.142364e+09 -3.942365e+09 -4.102365e+09 -3.585116e+02 -2.806108e+01 1.507608e+01
-4.819100e+09 -4.619101e+09 -4.779101e+09 -4.080192e+02 -2.697361e+01 1.981922e+01
-4.995013e+09 -4.795011e+09 -4.955015e+09 -1.963956e+02 -3.236152e+02 -1.884860e+02
-2.555196e+09 -2.355201e+09 -2.515198e+09 -7.656724e+01 -4.078334e+02 -1.417344e+01
-3.392557e+09 -3.192556e+09 -3.352557e+09 -5.151009e+02 -4.093479e+02 -1.721088e+02
-3.037025e+09 -2.837029e+09 -2.997026e+09 1.184833e+01 -1.626427e+02 2.729089e+01
-4.001094e+09 -3.801098e+09 -3.961096e+09 -1.241111e+01 -1.347275e+02 8.753748e+00
-1.684380e+09 -1.484383e+09 -1.644383e+09 -6.048272e+02 2.941532e+01 1.591753e+02
-4.624496e+09 -4.424497e+09 -4.584495e+09 8.507783e+00 4.269658e+00 0.000000e+00
-2.861191e+09 -2.661195e+09 -2.821192e+09 2.946409e+01 -1.933328e+02 -5.938741e+00
-3.054196e+09 -2.854200e+09 -3.014197e+09 8.759139e+01 -4.812939e+02 6.163278e+00
-3.414043e+09 -3.214047e+09 -3.374045e+09 9.404651e+01 -6.522780e+02 8.979849e+01
-2.211478e+09 -2.011477e+09 -2.171477e+09 1.048104e+02 2.811509e+02 -1.374422e+01
-4.985070e+09 -4.785070e+09 -4.945069e+09 1.346694e+02 4.049100e+01 1.846274e+01
-2.124120e+09 -1.924124e+09 -2.084121e+09 6.958548e+01 -4.087881e+02 8.238758e+01
-1.872170e+09 -1.672176e+09 -1.832172e+09 -6.197577e+02 -1.395718e+03 -1.414437e+02
-4.971526e+09 -4.771525e+09 -4.931525e+09 7.816350e+02 8.794671e-01 -2.437062e+01
-3.493310e+09 -3.293309e+09 -3.453309e+09 -7.577235e+01 -6.596725e+00 -1.132627e+01
-4.693216e+09 -4.493215e+09 -4.653216e+09 -1.374495e+02 -6.944829e+00 1.411412e+01
-4.759018e+09 -4.559018e+09 -4.719018e+09 -9.095582e+01 -4.578880e-01 1.411345e+01
-4.842933e+09 -4.642933e+09 -4.802933e+09 -1.426446e+02 -5.185782e+00 -2.306519e+01
-3.172084e+09 -2.972082e+09 -3.132083e+09 3.257853e+02 2.313743e+02 -7.224635e+01
-3.592421e+09 -3.392420e+09 -3.552420e+09 1.494614e+02 7.411682e+01 -4.088452e+01
-4.907948e+09 -4.707948e+09 -4.867947e+09 8.459587e+01 -2.011404e-01 -3.038509e-10
-4.477825e+09 -4.277824e+09 -4.437824e+09 -5.061280e+01 -3.801054e+00 -4.239757e+00
-2.972425e+09 -2.772422e+09 -2.932425e+09 -3.958211e+02 2.377110e+02 -4.773134e+02
-3.420975e+09 -3.220975e+09 -3.380975e+09 -4.563602e+01 -2.840487e+00 -5.462425e+00
-3.845721e+09 -3.645720e+09 -3.805720e+09 -4.990088e+01 -5.737252e+00 -1.064057e+01
-4.113814e+09 -3.913814e+09 -4.073814e+09 -7.982133e+02 -4.254490e+02 -1.862335e+02
-3.626800e+09 -3.426800e+09 -3.586800e+09 -4.155468e+02 -2.064150e+02 -5.587966e+01
-3.933021e+09 -3.733021e+09 -3.893021e+09 -5.204922e+02 -2.875195e+02 -1.783688e+02
-4.756726e+09 -4.556725e+09 -4.716725e+09 -4.091794e+02 -4.488891e+01 6.054904e+00
-4.803459e+09 -4.603458e+09 -4.763459e+09 -6.016468e+02 -1.739707e+02 -3.763420e+01
-4.996730e+09 -4.796730e+09 -4.956730e+09 2.181853e+02 -1.302146e+01 -1.979614e+01
-3.690368e+09 -3.490367e+09 -3.650367e+09 -4.135716e+02 -2.540346e+02 -9.283899e+01
-3.957012e+09 -3.757012e+09 -3.917012e+09 -5.627329e+02 -2.191083e+02 -9.865327e+01
-2.916761e+09 -2.716761e+09 -2.876760e+09 -4.263568e+01 -1.285394e+01 -3.281166e+01
-3.063394e+09 -2.863393e+09 -3.023393e+09 -4.063430e+01 2.559446e+01 -2.416862e+01
-4.652682e+09 -4.452683e+09 -4.612683e+09 4.458861e+01 8.834231e+00 3.886608e+00
-3.829151e+09 -3.629152e+09 -3.789152e+09 8.040907e+01 1.042659e+01 1.679801e+00
-3.753533e+09 -3.553533e+09 -3.713533e+09 -5.680705e+01 8.776343e+00 -3.503381e+01
-3.881533e+09 -3.681533e+09 -3.841533e+09 -1.199104e+01 -2.636735e-01 -1.191752e+01
-2.695455e+09 -2.495454e+09 -2.655455e+09 5.929445e+01 1.657907e+01 -9.517464e+00
-2.018404e+09 -1.818404e+09 -1.978404e+09 6.898819e+01 1.547468e+01 3.829701e-01
-2.620239e+09 -2.420239e+09 -2.580239e+09 1.113489e+01 1.347619e+01 -8.907229e+00
-4.190405e+09 -3.990405e+09 -4.150405e+09 5.961169e+01 1.127203e+00 -2.213119e+01
-4.292135e+09 -4.092136e+09 -4.252136e+09 2.200598e+02 -6.042173e-01 -4.737861e+01
-4.942732e+09 -4.742732e+09 -4.902732e+09 6.425320e+01 -8.181203e+00 1.441208e+00
-3.985838e+09 -3.785838e+09 -3.945838e+09 6.162269e+01 1.421303e+01 -7.071648e+00
-2.160611e+09 -1.960611e+09 -2.120611e+09 3.659602e+01 9.536682e+00 -1.123529e+01
-3.700120e+09 -3.500122e+09 -3.660120e+09 -1.933406e+02 4.930591e+01 -2.436610e+01
-2.063297e+09 -1.863297e+09 -2.023297e+09 5.236386e+01 1.845230e+01 -3.727489e+00
-3.828067e+09 -3.628067e+09 -3.788067e+09 4.621867e+01 8.631506e+00 -7.625680e+00
-1.881608e+09 -1.681607e+09 -1.841607e+09 3.713021e+01 1.071374e+01 -9.413552e+00
-1.832385e+09 -1.632385e+09 -1.792385e+09 2.685275e+01 1.480826e+01 -9.724971e+00
-4.981707e+09 -4.781709e+09 -4.941707e+09 -3.032164e+02 -7.369245e+01 -2.037601e+01
-3.821504e+09 -3.621504e+09 -3.781504e+09 -1.562493e+02 -1.545277e+01 1.110811e+00
-4.988006e+09 -4.788009e+09 -4.948006e+09 -2.245366e+02 1.708162e+01 -7.591197e+00
-4.419347e+09 -4.219347e+09 -4.379347e+09 -6.910910e+01 -4.368252e+00 -3.337854e-01
-4.455129e+09 -4.255129e+09 -4.415129e+09 -7.841142e+01 -5.334473e+00 -4.014978e+00
-3.813376e+09 -3.613375e+09 -3.773375e+09 -8.620116e+01 -1.748105e+01 -3.188185e+01
-3.824851e+09 -3.624854e+09 -3.784852e+09 4.340493e+02 3.743296e+01 -3.248291e+01
-4.980927e+09 -4.780929e+09 -4.940928e+09 -3.433882e+02 6.296332e+01 -2.130477e+00
-4.762373e+09 -4.562372e+09 -4.722372e+09 -1.376399e+02 -9.773242e+00 -8.704310e+00
-4.971353e+09 -4.771355e+09 -4.931353e+09 -1.807913e+02 -1.877420e+01 7.477746e+00
-3.657338e+09 -3.457340e+09 -3.617338e+09 -4.699581e+00 9.465637e+00 -6.287728e+00
-1.873728e+09 -1.673730e+09 -1.833728e+09 -4.030434e+02 -2.779236e+01 -6.845693e+01
-3.989945e+09 -3.789946e+09 -3.949946e+09 -1.438930e+02 -2.777074e+00 1.752843e+01
-1.883081e+09 -1.683085e+09 -1.843082e+09 1.046073e+02 -2.022656e+02 2.080556e+01
-3.970762e+09 -3.770761e+09 -3.930762e+09 1.027716e+02 1.923057e+01 -1.248436e+01
-3.985967e+09 -3.785970e+09 -3.945968e+09 2.184450e+02 -3.197237e+02 5.248059e+01
-4.151136e+09 -3.951134e+09 -4.111137e+09 2.567082e+02 -5.147181e+02 -6.447226e+02
-2.496326e+09 -2.296325e+09 -2.456326e+09 -1.936042e+02 -4.431043e+02 -1.447837e+02
-3.941432e+09 -3.741430e+09 -3.901433e+09 -5.799905e+02 -5.965364e+02 -4.558596e+02
-4.800716e+09 -4.600719e+09 -4.760718e+09 3.335782e+02 -2.948993e+02 1.907984e+01
-4.980502e+09 -4.780505e+09 -4.940504e+09 1.760969e+02 -4.990016e+01 3.945610e+01
-4.821399e+09 -4.621403e+09 -4.781401e+09 1.131194e+03 -1.838507e+01 1.810816e+02
-4.799235e+09 -4.599238e+09 -4.759237e+09 1.812231e+02 -1.058750e+01 2.457691e+00
-3.839948e+09 -3.639952e+09 -3.799950e+09 1.579102e+02 -1.593903e+02 4.387389e+01
-3.601103e+09 -3.401102e+09 -3.561102e+09 -4.148278e+01 -1.048990e+02 -1.261112e+01
-4.682618e+09 -4.482619e+09 -4.642619e+09 1.100683e+00 -2.033413e-01 -1.004409e+00
-4.001106e+09 -3.801107e+09 -3.961107e+09 1.677057e+00 -2.573603e-01 2.131459e+01
-1.585928e+09 -1.385929e+09 -1.545928e+09 -9.283196e+00 1.024478e-01 6.837538e+00
-4.992619e+09 -4.792620e+09 -4.952620e+09 3.461263e+01 -2.281793e+00 -4.300123e+00
-1.747511e+09 -1.547510e+09 -1.707510e+09 -8.959145e+01 -1.897223e+02 -2.180297e+01
-3.521440e+09 -3.321441e+09 -3.481441e+09 -3.796290e+01 -1.098889e+01 2.293347e+01
-4.890117e+09 -4.690118e+09 -4.850118e+09 -3.488424e+00 -1.103493e+00 6.874022e-11
-2.123353e+09 -1.923352e+09 -2.083352e+09 -2.194645e+02 -1.234094e+02 -7.469714e+01
-4.134275e+09 -3.934277e+09 -4.094276e+09 1.957740e+01 3.245015e+00 -3.449255e+00
-3.963351e+09 -3.763351e+09 -3.923351e+09 4.335370e+01 2.175863e+00 -5.910639e+00
-4.976636e+09 -4.776637e+09 -4.936637e+09 -1.538979e+02 -5.980496e+00 -6.888239e+00
-2.549073e+09 -2.349072e+09 -2.509072e+09 -2.352567e+02 -1.182943e+02 -5.466873e+01
-4.107449e+09 -3.907449e+09 -4.067449e+09 -2.555833e+02 -2.016378e+01 3.062003e+01
-1.877627e+09 -1.677625e+09 -1.837625e+09 -2.605179e+02 -1.541730e+02 -3.533489e+01
-1.576291e+09 -1.376292e+09 -1.536292e+09 -1.063865e+02 -1.940500e+01 -4.014820e-01
-2.943789e+09 -2.743790e+09 -2.903790e+09 -2.504974e+01 -9.998169e+00 -2.589385e+00
-3.455923e+09 -3.255923e+09 -3.415923e+09 2.090690e+02 -8.032934e-01 -3.178581e+00
-4.481327e+09 -4.281329e+09 -4.441328e+09 6.153462e+01 4.823130e+00 -1.360810e+01
-3.831074e+09 -3.631075e+09 -3.791074e+09 1.817693e+01 5.984090e+00 9.339452e+00
-1.585928e+09 -1.385929e+09 -1.545928e+09 2.982092e+00 -6.736199e-02 5.402727e+00
-2.716856e+09 -2.516854e+09 -2.676855e+09 -7.671618e+01 -2.162013e+02 -4.508707e+01
-2.971044e+09 -2.771045e+09 -2.931045e+09 -7.240425e+02 -8.484962e+01 9.687202e+01
-3.219293e+09 -3.019291e+09 -3.179292e+09 -4.753549e+01 -1.791447e+02 -9.346762e-01
-2.296171e+09 -2.096170e+09 -2.256170e+09 -8.100762e+01 -2.242340e+02 -1.151090e+01
-4.043132e+09 -3.843131e+09 -4.003132e+09 -3.593109e+02 1.170549e+02 -7.229761e+01
-4.997259e+09 -4.797258e+09 -4.957259e+09 -9.521873e+02 3.676451e+02 -1.378619e+02
-4.635015e+09 -4.435007e+09 -4.595017e+09 -5.697883e+02 -1.262429e+02 -5.089590e+02
-4.291782e+09 -4.091775e+09 -4.251784e+09 -5.335383e+02 3.967112e+02 -1.543835e+03
-4.123881e+09 -3.923873e+09 -4.083884e+09 5.535868e+02 1.303123e+03 -2.487520e+03
-4.284412e+09 -4.084405e+09 -4.244416e+09 -4.875395e+02 2.136424e+03 -2.032823e+03
-4.768252e+09 -4.568250e+09 -4.728252e+09 -2.628477e+02 -3.803872e+01 7.742178e+01
-3.959030e+09 -3.759030e+09 -3.919028e+09 -2.459783e+03 -6.891851e+02 1.180502e+03
-4.814338e+09 -4.614339e+09 -4.774338e+09 -2.114313e+03 -5.389626e+02 6.142337e+02
-4.995901e+09 -4.795896e+09 -4.955891e+09 -3.121427e+03 -3.964253e+02 1.297485e+02
-4.810346e+09 -4.610338e+09 -4.770347e+09 -7.705567e+01 -5.874795e+02 -4.894731e+02
-2.833532e+09 -2.633531e+09 -2.793531e+09 -1.961531e+01 -5.992262e-01 -1.154472e+01
-3.425992e+09 -3.225991e+09 -3.385991e+09 -8.319470e+01 -8.651774e+00 -1.459437e+01
-3.152373e+09 -2.952373e+09 -3.112373e+09 -9.344523e+01 -9.391074e+00 -1.229816e+01
-4.678142e+09 -4.478142e+09 -4.638142e+09 1.988559e+03 1.172036e+02 -1.349470e+01
-4.502520e+09 -4.302519e+09 -4.462519e+09 -7.544905e+01 -6.619878e+00 -1.009910e+01
-3.956549e+09 -3.756548e+09 -3.916548e+09 -2.106461e+01 -1.112378e+00 -2.513211e+00
-4.985633e+09 -4.785632e+09 -4.945632e+09 -1.765740e+02 1.141735e-01 1.071212e+01
-5.032074e+09 -4.832074e+09 -4.992074e+09 -8.767622e+02 2.154779e+01 -2.677724e+01
-3.184832e+09 -2.984832e+09 -3.144832e+09 -1.185284e+02 -1.029027e+01 -1.630755e+01
-4.756580e+09 -4.556580e+09 -4.716580e+09 -5.666057e+01 -1.492065e+00 8.262177e+00
-2.117663e+09 -1.917662e+09 -2.077662e+09 -4.516759e+01 -6.688616e+00 -1.517822e+01
-4.996328e+09 -4.796327e+09 -4.956327e+09 -9.540081e+01 -7.531799e+00 1.992021e+01
-2.106194e+09 -1.906193e+09 -2.066193e+09 -4.499881e+01 -5.865004e+00 -8.739040e+00
-4.991038e+09 -4.791037e+09 -4.951038e+09 -6.357600e+02 1.083870e+01 2.997131e-01
-2.772477e+09 -2.572476e+09 -2.732476e+09 1.168723e+01 -4.503278e-01 -8.225271e+00
-3.067324e+09 -2.867324e+09 -3.027324e+09 -1.916350e+01 -8.666969e-01 -7.048029e+00
-2.363389e+09 -2.163389e+09 -2.323389e+09 -3.507881e+01 -6.206978e+00 3.991051e+00
-2.202388e+09 -2.002387e+09 -2.162387e+09 -1.812562e+01 -3.909431e+00 -1.270843e+01
-3.675250e+09 -3.475250e+09 -3.635250e+09 1.867667e+01 6.530350e-01 -1.295436e+01
-1.689581e+09 -1.489581e+09 -1.649581e+09 -1.229404e+01 -4.786038e-01 -1.345512e+01
-2.933880e+09 -2.733879e+09 -2.893879e+09 -1.175010e+00 -1.185505e-01 -1.284981e+00
-3.828150e+09 -3.628149e+09 -3.788149e+09 1.119781e+01 2.619551e+00 1.241634e+00
-1.623447e+09 -1.423446e+09 -1.583446e+09 1.365402e+01 4.935576e+00 -5.761593e+00
-3.756111e+09 -3.556110e+09 -3.716111e+09 4.257662e+01 6.467680e+00 -5.874405e+00
-2.686827e+09 -2.486826e+09 -2.646826e+09 1.961835e+01 7.946788e+00 1.880180e+00
-3.116542e+09 -2.916542e+09 -3.076542e+09 2.273777e+01 3.447785e+00 -2.186569e+00
-1.720815e+09 -1.520814e+09 -1.680814e+09 1.313302e+01 7.635242e+00 -1.140051e+00
-4.368185e+09 -4.168184e+09 -4.328184e+09 9.057636e+00 -7.737640e+00 -3.983715e+00
-4.243464e+09 -4.043464e+09 -4.203464e+09 6.239211e+01 -9.226404e-02 -3.736253e+01
-3.564667e+09 -3.364667e+09 -3.524667e+09 1.704315e+02 -1.813398e+00 -2.793696e+01
-2.184725e+09 -1.984725e+09 -2.144725e+09 6.128516e+00 6.114043e-01 3.232074e+00
-2.686883e+09 -2.486885e+09 -2.646885e+09 -7.173888e+02 3.231959e+01 3.773073e+01
-1.635444e+09 -1.435444e+09 -1.595444e+09 -2.397968e+00 1.443176e+01 -3.839748e+00
-2.583770e+09 -2.383769e+09 -2.543769e+09 9.479682e+00 7.308786e+00 -8.816791e+00
-4.395181e+09 -4.195180e+09 -4.355180e+09 4.200408e+01 5.077080e+00 -9.004566e-01
-2.213680e+09 -2.013679e+09 -2.173679e+09 8.755975e+00 1.991517e+00 -4.765344e+00
-2.664573e+09 -2.464572e+09 -2.624573e+09 1.001091e+01 4.236570e+00 -1.332097e+01
-4.019585e+09 -3.819585e+09 -3.979585e+09 -3.415642e+00 6.360479e-01 -5.650410e+00
-1.867434e+09 -1.667434e+09 -1.827434e+09 3.899538e+01 1.221538e+01 -1.001537e+01
-2.734671e+09 -2.534670e+09 -2.694670e+09 3.028775e+01 1.114768e+01 -1.277698e+01
-2.233621e+09 -2.033620e+09 -2.193620e+09 3.366267e-01 9.263950e-01 -3.288029e+00
-1.837308e+09 -1.637307e+09 -1.797307e+09 1.391266e+01 5.634146e+00 -5.976517e+00
-3.985993e+09 -3.785994e+09 -3.945993e+09 6.373481e+02 3.866210e+00 1.900934e+01
-1.964885e+09 -1.764885e+09 -1.924885e+09 2.735291e+00 4.792405e+00 -4.150262e+00
-4.993251e+09 -4.793252e+09 -4.953252e+09 1.459000e+03 1.202664e+02 -7.625640e+01
-4.321323e+09 -4.121327e+09 -4.281325e+09 -1.082483e+02 2.533688e+02 3.280124e+01
-3.961714e+09 -3.761718e+09 -3.921718e+09 -1.015836e+02 9.524748e+02 -1.075538e+00
-3.964607e+09 -3.764608e+09 -3.924611e+09 2.002360e+03 1.649354e+03 -6.485741e+02
-3.154423e+09 -2.954427e+09 -3.114426e+09 -3.100572e+01 -1.172085e+03 1.921174e+02
-4.651517e+09 -4.451519e+09 -4.611523e+09 -1.042866e+03 6.272653e+02 3.202953e+02
-3.961715e+09 -3.761719e+09 -3.921718e+09 2.741655e+02 9.357792e+02 -2.977314e+01
-4.646020e+09 -4.446019e+09 -4.606021e+09 1.700429e+03 2.649996e+02 -1.616086e+02
-4.803709e+09 -4.603712e+09 -4.763711e+09 4.314460e+02 -6.550570e+01 7.688039e+01
-4.993251e+09 -4.793251e+09 -4.953252e+09 1.349278e+03 1.389657e+02 -9.197562e+01
-4.456920e+09 -4.256920e+09 -4.416920e+09 1.536253e+02 2.336719e+00 3.853013e+00
-4.819425e+09 -4.619428e+09 -4.779428e+09 2.930903e+02 -4.767538e+02 4.385536e+01
-4.134277e+09 -3.934276e+09 -4.094276e+09 1.122175e+02 9.126772e+00 -6.960683e+00
-4.488024e+09 -4.288027e+09 -4.448027e+09 2.038740e+02 -5.057797e+02 7.234121e+01
-3.948487e+09 -3.748486e+09 -3.908486e+09 1.539357e+02 2.424924e+01 -1.557719e+00
-3.953019e+09 -3.753018e+09 -3.913018e+09 7.972851e+01 1.500294e+01 -7.906227e+00
-3.940362e+09 -3.740366e+09 -3.900365e+09 2.087195e+02 -6.626739e+02 5.770963e+01
-3.983392e+09 -3.783391e+09 -3.943391e+09 9.443441e+01 1.731810e+01 -2.099699e+01
-4.476192e+09 -4.276195e+09 -4.436195e+09 2.873566e+02 -4.584099e+02 1.472148e+02
-2.204261e+09 -2.004260e+09 -2.164261e+09 3.464049e+02 -2.454881e+02 -1.266118e+02
-3.695621e+09 -3.495620e+09 -3.655622e+09 1.998222e+01 -3.609286e+02 -5.929219e+02
-4.982338e+09 -4.782338e+09 -4.942338e+09 1.754194e+02 -6.019115e+00 -3.622597e+01
-4.967398e+09 -4.767398e+09 -4.927398e+09 1.483899e+02 -2.829992e+00 5.867516e+00
-3.967032e+09 -3.767032e+09 -3.927032e+09 1.572936e+02 2.187634e+01 -6.648987e+00
-2.184202e+09 -1.984201e+09 -2.144203e+09 9.279731e+02 -1.046350e+02 -7.109087e+02
-4.988556e+09 -4.788556e+09 -4.948556e+09 1.235416e+02 -8.523351e+00 -1.428972e+00
-4.800153e+09 -4.600153e+09 -4.760153e+09 1.485277e+02 -2.902369e+00 1.596739e+00
-3.137237e+09 -2.937237e+09 -3.097238e+09 6.952022e+02 -2.762086e+02 -3.480235e+02
-4.647533e+09 -4.447533e+09 -4.607533e+09 1.981927e+02 1.980686e+01 5.241414e+00
-4.504603e+09 -4.304603e+09 -4.464603e+09 1.465868e+02 1.035545e+01 -1.332319e+01
-4.823327e+09 -4.623327e+09 -4.783327e+09 -1.025096e+03 1.891173e+02 5.850769e+01
-3.962151e+09 -3.762151e+09 -3.922150e+09 -6.612622e+02 2.017500e+01 -2.295760e+01
-3.267051e+09 -3.067050e+09 -3.227051e+09 4.658374e+02 -2.990833e+02 -2.414026e+02
-4.122541e+09 -3.922546e+09 -4.082544e+09 2.161935e+02 1.359502e+02 8.638512e+02
-4.845507e+09 -4.645511e+09 -4.805509e+09 -1.790365e+02 1.381131e+02 2.952731e+01
-4.142521e+09 -3.942524e+09 -4.102524e+09 5.608355e+02 -7.403994e+02 2.133798e+02
-4.828987e+09 -4.628989e+09 -4.788990e+09 5.150001e+02 -3.224459e+02 1.254844e+02
-4.835146e+09 -4.635149e+09 -4.795149e+09 1.617869e+02 -3.474012e+02 8.466455e+01
-4.977193e+09 -4.777193e+09 -4.937192e+09 -3.272358e+02 -1.355994e+01 3.936514e-01
-3.960109e+09 -3.760109e+09 -3.920109e+09 -1.167581e+03 3.393504e+02 1.125868e+02
-3.963535e+09 -3.763537e+09 -3.923536e+09 -1.292939e+03 5.146974e+02 1.554288e+02
-4.446492e+09 -4.246495e+09 -4.406493e+09 -4.684422e+02 3.442916e+01 -1.240453e+01
-4.491913e+09 -4.291916e+09 -4.451916e+09 1.638217e+02 -6.395319e+02 8.282505e+01
-4.664760e+09 -4.464762e+09 -4.624764e+09 1.506797e+02 -4.847311e+02 7.618326e+01
-4.655173e+09 -4.455174e+09 -4.615175e+09 -1.353243e+03 3.081354e+02 1.061600e+02
-4.093632e+09 -3.893631e+09 -4.053631e+09 5.469280e+01 -1.135147e+01 -6.330950e+00
-4.767084e+09 -4.567083e+09 -4.727083e+09 2.390587e+01 6.093924e+00 -1.728087e+01
-4.477369e+09 -4.277370e+09 -4.437369e+09 -9.222994e+02 1.049979e+02 -8.944890e+00
-3.965281e+09 -3.765283e+09 -3.925282e+09 -7.659737e+02 2.445765e+02 4.017541e+01
-3.985555e+09 -3.785556e+09 -3.945564e+09 -1.542034e+03 3.138212e+03 1.018974e+03
-4.790919e+09 -4.590918e+09 -4.750918e+09 -7.098357e+00 -3.504584e+01 1.577081e+01
-4.179496e+09 -3.979496e+09 -4.139495e+09 -3.565371e+01 -1.682223e+01 -5.971254e+00
-4.821912e+09 -4.621912e+09 -4.781912e+09 9.090767e+01 1.734476e+01 9.341193e+00
-4.521636e+09 -4.321636e+09 -4.481636e+09 -1.160121e+01 -3.185072e+01 -4.661718e+00
-4.470992e+09 -4.270993e+09 -4.430992e+09 -9.873661e+02 9.828720e+01 3.932115e+01
-4.780463e+09 -4.580463e+09 -4.740463e+09 6.174427e+01 2.977082e+01 -6.764566e+00
-1.947464e+09 -1.747467e+09 -1.907464e+09 4.204232e+01 1.825879e+01 -2.603759e+00
-1.932611e+09 -1.732614e+09 -1.892612e+09 5.054684e+01 1.445473e+01 1.201919e-01
-3.956417e+09 -3.756410e+09 -3.916395e+09 3.060673e+03 7.937009e+03 4.881010e+03
-3.275299e+09 -3.075303e+09 -3.235301e+09 -1.415121e+02 -7.806506e+02 -1.574791e+00
-4.983230e+09 -4.783229e+09 -4.943230e+09 -2.701604e+02 -2.042719e+01 -2.925979e+01
-2.725693e+09 -2.525696e+09 -2.685694e+09 3.206673e+01 2.277702e+01 -6.321742e+00
-2.535062e+09 -2.335065e+09 -2.495062e+09 1.101172e+02 2.276389e+01 2.804502e+00
-2.912582e+09 -2.712585e+09 -2.872583e+09 5.784139e+01 -4.225391e+00 -2.791358e-01
-2.741386e+09 -2.541385e+09 -2.701385e+09 -1.806971e+01 -4.862734e+00 -2.725326e+01
-4.986113e+09 -4.786108e+09 -4.946093e+09 2.624738e+03 -3.530345e+02 6.361930e+02
-4.998004e+09 -4.798001e+09 -4.958005e+09 2.329196e+02 -1.370459e+02 -1.118073e+02
-1.625730e+09 -1.425729e+09 -1.585729e+09 -1.509170e+01 -4.461305e+00 -2.498217e+01
-4.115905e+09 -3.915902e+09 -4.075915e+09 -9.355976e+02 2.554322e+03 1.374881e+03
-4.310386e+09 -4.110384e+09 -4.270392e+09 -7.310024e+02 -2.356996e+03 -4.314410e+02
-2.220248e+09 -2.020247e+09 -2.180247e+09 -4.307166e+01 -6.838427e+00 -9.971367e+00
-1.887098e+09 -1.687097e+09 -1.847098e+09 -3.226860e+01 -5.407241e+00 -1.011560e+01
-4.953328e+09 -4.753327e+09 -4.913328e+09 -3.680098e+02 -7.534657e+01 -2.518792e+01
-4.672275e+09 -4.472275e+09 -4.632275e+09 6.780848e+01 -8.490922e+00 9.835688e-02
-3.257409e+09 -3.057409e+09 -3.217409e+09 7.147340e+01 8.927323e+00 -1.356804e+01
-3.795209e+09 -3.595210e+09 -3.755209e+09 6.517659e+01 7.099278e+00 -1.354199e+01
-4.076127e+09 -3.876127e+09 -4.036127e+09 7.566980e+01 -2.171180e+00 -1.063881e+01
-4.999720e+09 -4.799721e+09 -4.959720e+09 3.170612e+02 -9.492610e+00 -2.374671e+01
-3.970305e+09 -3.770305e+09 -3.930305e+09 7.270267e+01 -4.618508e+00 -1.269637e+01
-3.960672e+09 -3.760672e+09 -3.920672e+09 2.631460e+02 1.407085e+01 1.555983e+01
-3.983133e+09 -3.783134e+09 -3.943133e+09 3.422215e+01 1.129629e+01 2.824976e+01
-3.432913e+09 -3.232914e+09 -3.392914e+09 4.568119e+01 6.282555e+00 2.570773e+01
-4.651773e+09 -4.451774e+09 -4.611773e+09 -2.396941e+01 -3.785069e+00 1.668203e+00
-4.347145e+09 -4.147146e+09 -4.307146e+09 1.621120e+01 1.409090e+01 -2.290285e+00
-4.976376e+09 -4.776377e+09 -4.936377e+09 -1.485816e+02 -1.456801e+00 -1.250935e+00
-4.587685e+09 -4.387686e+09 -4.547686e+09 8.582570e+01 -4.973687e+00 -4.308598e+01
-2.362283e+09 -2.162282e+09 -2.322282e+09 -1.506155e+02 -8.948263e+00 1.055067e+00
-4.784537e+09 -4.584537e+09 -4.744537e+09 8.342372e+01 1.167836e+01 1.344105e+01
-4.994015e+09 -4.794014e+09 -4.954014e+09 -2.970511e+02 -1.376648e+00 1.807046e+01
-4.605972e+09 -4.405973e+09 -4.565973e+09 1.799249e+01 3.280618e+00 5.926754e+00
-3.746946e+09 -3.546946e+09 -3.706946e+09 1.222906e+02 9.156993e+00 -6.312995e+00
-3.177447e+09 -2.977447e+09 -3.137447e+09 1.221669e+02 1.648014e+01 6.020684e+00
-4.998570e+09 -4.798571e+09 -4.958571e+09 -2.877611e+02 -8.473862e+00 -1.704998e+01
-4.005450e+09 -3.805450e+09 -3.965450e+09 8.623289e+01 -6.041211e+01 1.083469e+01
-4.131514e+09 -3.931515e+09 -4.091514e+09 -5.696410e+02 -2.610260e+01 3.526250e+01
-4.625039e+09 -4.425039e+09 -4.585038e+09 1.298492e+02 -5.382168e+01 -1.485875e+01
-4.990935e+09 -4.790935e+09 -4.950940e+09 1.068192e+02 -6.752027e+02 1.356068e+02
-5.007577e+09 -4.807577e+09 -4.967577e+09 -2.023602e+02 -1.102940e+01 2.657516e+01
-3.963838e+09 -3.763837e+09 -3.923838e+09 -1.791608e+02 -1.872943e+02 2.336433e+02
-4.657478e+09 -4.457477e+09 -4.617478e+09 -1.443951e+02 -2.513802e+01 -1.238650e+01
-4.985934e+09 -4.785933e+09 -4.945935e+09 1.218007e+02 -1.768970e+02 1.251517e+02
-3.743033e+09 -3.543032e+09 -3.703032e+09 6.630398e+01 -3.294196e+01 -1.619737e+01
-4.478046e+09 -4.278046e+09 -4.438045e+09 1.615215e+02 -8.631128e+01 -1.826413e+00
-4.957968e+09 -4.757968e+09 -4.917967e+09 9.253617e+01 -4.796414e+01 -6.673595e+00
-3.931743e+09 -3.731741e+09 -3.891743e+09 -3.226133e+02 -3.930320e+02 6.142373e+02
-4.262726e+09 -4.062724e+09 -4.222726e+09 -2.654090e+01 -4.588989e+02 6.031339e+02
-3.946971e+09 -3.746971e+09 -3.906970e+09 1.475094e+02 -9.122076e+01 1.598969e+01
-5.001096e+09 -4.801094e+09 -4.961096e+09 -1.815646e+03 -2.769199e+02 1.265003e+02
-4.785903e+09 -4.585902e+09 -4.745902e+09 1.063976e+02 -3.567462e+01 -7.697450e+00
-4.640669e+09 -4.440666e+09 -4.600673e+09 -8.786548e+02 -4.480390e+01 3.977934e+02
-4.638438e+09 -4.438442e+09 -4.598441e+09 -2.898625e+01 -6.116431e+01 6.028648e+01
-4.993936e+09 -4.793937e+09 -4.953937e+09 -6.898076e+02 1.275879e+01 -1.728119e+01
-1.636083e+09 -1.436083e+09 -1.596083e+09 -1.252815e+01 -2.657472e+01 -1.289582e-01
-4.703854e+09 -4.503858e+09 -4.663857e+09 -2.534687e+02 -2.375547e+01 1.355540e+02
-4.389405e+09 -4.189410e+09 -4.349409e+09 -1.773682e+02 3.213368e+01 1.705916e+02
-4.313540e+09 -4.113540e+09 -4.273540e+09 -1.005391e+03 1.079080e+02 -9.988451e+01
-4.345609e+09 -4.145609e+09 -4.305609e+09 -8.521832e+02 -1.002393e+01 3.292937e+01
-4.795282e+09 -4.595287e+09 -4.755285e+09 -3.763840e+02 -5.585452e+01 4.784502e+02
-4.372944e+09 -4.172948e+09 -4.332947e+09 -1.521875e+02 2.661789e+00 6.508041e+01
-4.705870e+09 -4.505874e+09 -4.665873e+09 -1.276994e+02 2.543765e+01 -5.096801e+01
-3.960672e+09 -3.760672e+09 -3.920672e+09 3.085271e+02 1.729460e+01 -8.170211e+00
-4.998570e+09 -4.798571e+09 -4.958571e+09 -2.885533e+02 1.629915e-01 -1.222998e+01
-4.605929e+09 -4.405930e+09 -4.565930e+09 -1.140314e+02 2.806280e-01 -3.493308e+01
-4.998948e+09 -4.798949e+09 -4.958948e+09 -1.263298e+02 -3.181864e+00 -1.368193e+00
-3.268279e+09 -3.068280e+09 -3.228279e+09 -1.357065e+02 -1.965006e+01 -5.301809e+00
-3.969249e+09 -3.769250e+09 -3.929250e+09 -1.749405e+02 -2.522611e+00 -1.114483e+01
-4.649632e+09 -4.449634e+09 -4.609633e+09 -7.763767e+01 7.543015e-01 -1.727376e+01
-4.138095e+09 -3.938096e+09 -4.098096e+09 5.744028e+01 1.025162e+00 -3.014622e+01
-4.439395e+09 -4.239396e+09 -4.399396e+09 -1.486460e+02 -4.578463e+00 -1.677439e+00
-2.771459e+09 -2.571460e+09 -2.731460e+09 -1.476988e+02 -2.142770e+01 1.207796e+01
-4.821168e+09 -4.621169e+09 -4.781169e+09 -3.874198e+02 -8.281426e+00 5.464410e+01
-3.137395e+09 -2.937396e+09 -3.097396e+09 -1.782925e+02 -1.378461e+01 -1.526399e+01
-3.781489e+09 -3.581490e+09 -3.741490e+09 -1.849388e+02 -2.115013e+01 1.200799e+00
-3.189606e+09 -2.989606e+09 -3.149606e+09 3.393116e+01 1.198332e+01 -3.217401e+00
-3.957301e+09 -3.757300e+09 -3.917300e+09 3.514186e+01 3.272834e+00 -1.129965e+01
-4.663996e+09 -4.463997e+09 -4.623996e+09 -2.314134e+02 1.431633e+00 -1.509001e+00
-3.962921e+09 -3.762922e+09 -3.922922e+09 -3.139628e+01 2.063716e+00 -5.784964e+00
-3.554955e+09 -3.354955e+09 -3.514955e+09 1.073840e-01 1.543990e+01 -4.411337e+00
-4.125102e+09 -3.925104e+09 -4.085101e+09 -2.322576e+03 -9.299669e+02 1.450540e+03
-4.981736e+09 -4.781737e+09 -4.941737e+09 -9.210802e+02 9.248836e+01 -1.988290e+02
-4.738414e+09 -4.538413e+09 -4.698413e+09 3.654912e+01 4.603438e+00 4.281247e+00
-4.993445e+09 -4.793440e+09 -4.953445e+09 -1.249340e+03 1.070190e+02 -1.052415e+02
-4.169915e+09 -3.969914e+09 -4.129914e+09 8.021283e+00 -3.297504e+00 4.021338e+00
-3.424388e+09 -3.224393e+09 -3.384391e+09 -2.137621e+02 1.622589e+02 1.215796e+03
-3.784436e+09 -3.584436e+09 -3.744436e+09 1.321669e+01 3.340628e+00 -1.630794e+01
-4.993446e+09 -4.793442e+09 -4.953446e+09 -3.903582e+02 5.045323e+00 -5.962516e+00
-4.537528e+09 -4.337527e+09 -4.497527e+09 1.335783e+01 4.383882e+00 -7.698173e+00
-3.005978e+09 -2.805977e+09 -2.965977e+09 2.562674e+02 2.727064e+02 -8.647698e+01
-1.699035e+09 -1.499038e+09 -1.659039e+09 9.711293e+02 1.049457e+02 5.447360e+02
-4.216210e+09 -4.016209e+09 -4.176209e+09 3.139875e+01 -1.132161e-01 4.249514e+00
-4.966881e+09 -4.766883e+09 -4.926883e+09 1.494412e+03 -1.030502e+02 -9.468833e+01
-4.632718e+09 -4.432713e+09 -4.592718e+09 3.212556e+02 3.343858e+02 -5.747739e+02
-2.817919e+09 -2.617920e+09 -2.777920e+09 -3.122255e+01 -9.013021e+00 -1.805616e+01
-2.902343e+09 -2.702344e+09 -2.862344e+09 -1.253324e+02 -3.641716e+00 5.824791e+00
-3.386366e+09 -3.186366e+09 -3.346366e+09 -1.935530e+02 7.393621e+00 -8.182223e+00
-4.971507e+09 -4.771502e+09 -4.931509e+09 3.144801e+02 5.523448e+02 -3.790405e+02
-2.232817e+09 -2.032817e+09 -2.192817e+09 -1.547619e+02 -5.810222e+00 7.688906e+00
-4.475833e+09 -4.275834e+09 -4.435834e+09 -1.367530e+03 1.979005e+02 1.193207e+02
-3.718369e+09 -3.518369e+09 -3.678371e+09 8.801541e+02 -3.654165e+01 -2.676916e+02
-4.465819e+09 -4.265820e+09 -4.425819e+09 -1.062013e+03 1.056181e+02 4.729211e+01
-4.983219e+09 -4.783222e+09 -4.943220e+09 -9.119890e+02 -8.017811e+01 -1.201308e+00
-3.177856e+09 -2.977857e+09 -3.137857e+09 -2.004007e+02 -1.561649e+01 2.460698e+01
-4.162387e+09 -3.962391e+09 -4.122392e+09 1.407353e+03 1.590367e+03 -2.189282e+01
-2.040170e+09 -1.840171e+09 -2.000171e+09 -1.517091e+02 -2.505636e+01 9.830043e+00
-4.990833e+09 -4.790832e+09 -4.950832e+09 -4.316299e+02 3.385018e+00 8.318990e-01
-4.996298e+09 -4.796297e+09 -4.956298e+09 -4.675255e+02 1.357400e+01 6.705079e+00
-1.676536e+09 -1.476537e+09 -1.636537e+09 -1.583745e+02 -1.871082e+01 3.514751e+01
-4.312855e+09 -4.112855e+09 -4.272855e+09 3.723483e+02 -2.658730e+02 2.150065e+02
-3.961134e+09 -3.761133e+09 -3.921134e+09 -4.508030e+02 -7.709354e+01 5.461950e+01
-4.120032e+09 -3.920031e+09 -4.080032e+09 -7.880738e+02 -4.482194e+01 1.306534e+02
-4.648014e+09 -4.448012e+09 -4.608014e+09 2.010768e+02 -1.140868e+02 1.325656e+02
-4.993937e+09 -4.793937e+09 -4.953937e+09 -5.517878e+02 1.314724e+01 -4.439026e+01
-4.790322e+09 -4.590323e+09 -4.750323e+09 -6.876248e+02 -7.678252e-01 -8.725640e+01
-4.979433e+09 -4.779433e+09 -4.939434e+09 -1.000989e+03 2.960254e+01 -3.418268e+01
-4.139589e+09 -3.939588e+09 -4.099589e+09 2.958922e+02 -3.205645e+02 1.554886e+02
-3.954838e+09 -3.754838e+09 -3.914839e+09 6.823559e+02 -5.434996e+02 3.226817e+02
-4.295870e+09 -4.095869e+09 -4.255872e+09 5.161590e+02 -9.925776e+02 4.983566e+02
-3.965629e+09 -3.765628e+09 -3.925629e+09 5.854720e+02 -3.770503e+02 3.738875e+02
-4.477508e+09 -4.277507e+09 -4.437504e+09 -2.322443e+03 7.389503e+02 -1.604116e+02
-4.826054e+09 -4.626054e+09 -4.786055e+09 2.573063e+02 -9.423489e+01 1.821290e+02
-4.993537e+09 -4.793535e+09 -4.953536e+09 -2.619692e+02 -4.729006e+01 6.463723e+01
-4.120786e+09 -3.920787e+09 -4.080789e+09 7.703472e+02 -9.786347e+02 3.931584e+02
-4.639259e+09 -4.439260e+09 -4.599263e+09 5.166770e+02 -3.472919e+02 2.608931e+02
-3.962057e+09 -3.762063e+09 -3.922055e+09 -1.657440e+03 -2.311086e+02 3.571186e+03
-4.823898e+09 -4.623899e+09 -4.783900e+09 6.945014e+02 -2.958832e+02 8.010385e+01
-4.620999e+09 -4.420996e+09 -4.581006e+09 1.100371e+03 6.085735e+02 -9.092350e+02
-4.997658e+09 -4.797656e+09 -4.957663e+09 -5.771219e+02 -9.845671e+02 -2.851839e+02
-4.790187e+09 -4.590182e+09 -4.750190e+09 5.889443e+02 6.846117e+02 -9.242227e+02
-3.671633e+09 -3.471637e+09 -3.631634e+09 1.886648e+00 -9.498561e+01 -1.412988e+01
-4.610777e+09 -4.410773e+09 -4.570781e+09 9.953518e+02 5.305847e+02 -6.671924e+02
-3.961236e+09 -3.761237e+09 -3.921242e+09 2.839899e+02 -1.894829e+03 5.892930e+02
-4.122027e+09 -3.922026e+09 -4.082028e+09 2.451569e+02 -4.227609e+02 3.381014e+02
-4.108246e+09 -3.908248e+09 -4.068252e+09 1.557914e+03 2.381345e+03 -4.991789e+02
-4.477508e+09 -4.277509e+09 -4.437507e+09 -1.704449e+02 -8.449757e+01 -3.991478e+02
-4.271625e+09 -4.071619e+09 -4.231627e+09 4.713234e+01 1.064383e+03 -1.864763e+03
-2.111389e+09 -1.911388e+09 -2.071389e+09 1.060499e+01 5.099437e+00 -3.824062e+00
-4.991038e+09 -4.791037e+09 -4.951038e+09 -7.511393e+02 9.496721e-01 1.854983e+01
-5.032074e+09 -4.832074e+09 -4.992075e+09 -6.467503e+02 4.903266e+01 -1.236716e+02
-4.979434e+09 -4.779434e+09 -4.939434e+09 -7.949299e+02 4.234747e+01 -6.331481e+01
-2.167238e+09 -1.967237e+09 -2.127237e+09 2.134106e+01 2.905495e+00 -2.858206e+00
-3.132195e+09 -2.932195e+09 -3.092195e+09 -3.642313e-01 4.511938e+00 3.142471e+00
-3.019852e+09 -2.819851e+09 -2.979851e+09 -8.282852e-01 8.767399e+00 -1.805962e+00
-4.980113e+09 -4.780116e+09 -4.940118e+09 -1.609932e+02 6.776950e+02 4.767630e+01
-4.641585e+09 -4.441588e+09 -4.601586e+09 -9.350307e+02 1.724832e+02 5.163828e+01
-5.000320e+09 -4.800322e+09 -4.960320e+09 -6.638654e+02 -5.883808e+01 -1.253052e+01
-4.296333e+09 -4.096336e+09 -4.256335e+09 -9.653631e+02 4.988989e+02 1.533595e+02
-1.914448e+09 -1.714448e+09 -1.874448e+09 7.334862e+00 7.655721e+00 -6.047083e+00
-3.964552e+09 -3.764555e+09 -3.924555e+09 1.131870e+03 9.225865e+02 -1.386391e+02
-1.911489e+09 -1.711488e+09 -1.871489e+09 9.523582e+00 7.647216e+00 5.336277e+00
-4.472793e+09 -4.272792e+09 -4.432793e+09 -1.232951e+03 2.578620e+02 7.083819e+01
-4.989807e+09 -4.789808e+09 -4.949808e+09 -1.133315e+03 7.141408e+01 4.112127e+01
-4.132600e+09 -3.932601e+09 -4.092601e+09 -1.322587e+03 1.217598e+02 3.135762e+01
-4.132970e+09 -3.932974e+09 -4.092971e+09 2.472304e+02 9.005836e+00 1.147281e+00
-4.819436e+09 -4.619439e+09 -4.779437e+09 2.682233e+02 1.145932e+02 -1.291248e+01
-4.850897e+09 -4.650900e+09 -4.810898e+09 3.989343e+02 -6.386147e+01 7.182837e+00
-4.677456e+09 -4.477459e+09 -4.637457e+09 3.021294e+02 9.563706e+01 -4.404913e+01
-4.160051e+09 -3.960054e+09 -4.120052e+09 5.329044e+02 6.512051e+01 -6.693440e+00
-5.001096e+09 -4.801095e+09 -4.961096e+09 -2.051142e+03 -2.882185e+02 1.339315e+02
-4.295721e+09 -4.095718e+09 -4.255719e+09 2.048941e+03 2.267009e+02 -4.488976e+02
-4.837147e+09 -4.637142e+09 -4.797118e+09 -4.752623e+02 4.741021e+02 -1.544643e+02
-3.978460e+09 -3.778464e+09 -3.938461e+09 4.702378e+02 1.453526e+02 -6.036964e+01
-4.820605e+09 -4.620603e+09 -4.780604e+09 -2.419558e+02 -9.512789e+00 1.444143e+01
-3.124940e+09 -2.924944e+09 -3.084944e+09 5.710173e+01 3.792610e+01 6.331487e+01
-4.974932e+09 -4.774925e+09 -4.934932e+09 4.275968e+02 1.124766e+03 -2.722362e+02
-3.505052e+09 -3.305050e+09 -3.465051e+09 -2.652452e+02 -1.474982e+02 -7.888830e+01
-4.984566e+09 -4.784563e+09 -4.944571e+09 1.230280e+03 9.074898e+02 -4.687779e+02
-4.469671e+09 -4.269675e+09 -4.429678e+09 -5.210293e+02 1.574514e+03 -7.969433e+01
-4.242912e+09 -4.042911e+09 -4.202911e+09 -1.125135e+02 -4.824759e+01 -1.750429e+01
-4.476408e+09 -4.276407e+09 -4.436407e+09 -2.382399e+02 -9.759298e+01 -3.942038e+01
-4.297001e+09 -4.097000e+09 -4.257000e+09 9.850501e+02 8.933990e+01 -9.190173e+01
-3.937444e+09 -3.737443e+09 -3.897443e+09 -2.134951e+02 -1.517212e+02 -3.105532e+01
-4.793264e+09 -4.593257e+09 -4.753269e+09 9.666446e+01 1.377180e+03 -2.271628e+02
-4.469627e+09 -4.269626e+09 -4.429626e+09 -1.327205e+02 -1.510443e+01 -1.950709e+01
-4.998868e+09 -4.798868e+09 -4.958856e+09 -2.930638e+03 -2.175808e+02 1.098656e+03
-4.140264e+09 -3.940260e+09 -4.100263e+09 -7.047109e+02 -4.629394e+01 -3.494103e+02
-4.585089e+09 -4.385084e+09 -4.545098e+09 5.685767e+02 1.396005e+02 4.793294e+01
-4.995067e+09 -4.795066e+09 -4.955066e+09 -7.579010e+01 -7.104913e+01 -1.962544e+01
-4.142860e+09 -3.942860e+09 -4.102860e+09 -5.015987e+02 1.118811e+01 -2.492130e+01
-4.465256e+09 -4.265256e+09 -4.425256e+09 -2.831386e+02 1.523265e+01 -1.149724e+01
-4.991849e+09 -4.791849e+09 -4.951848e+09 -4.319852e+02 9.390732e+01 1.630270e+01
-4.831587e+09 -4.631587e+09 -4.791587e+09 -2.977135e+02 2.550241e+00 -2.204430e+01
-4.145122e+09 -3.945122e+09 -4.105121e+09 -2.869398e+02 3.560551e+01 -2.621590e+00
-4.986013e+09 -4.786014e+09 -4.946014e+09 -4.427923e+01 -1.410071e-02 -2.884408e+01
-3.954914e+09 -3.754915e+09 -3.914914e+09 -4.187489e+02 6.169364e+01 -2.220878e+02
-4.979124e+09 -4.779124e+09 -4.939122e+09 9.376682e+02 -9.746697e+01 -4.528582e+02
-4.122023e+09 -3.922024e+09 -4.082023e+09 -3.181287e+02 4.706089e+01 -2.686391e+01
-4.815270e+09 -4.615271e+09 -4.775270e+09 6.601472e+02 -3.467585e+01 -2.060930e+02
-2.132130e+09 -1.932129e+09 -2.092129e+09 -8.156456e+01 -8.316565e+00 -9.916276e+00
-4.449235e+09 -4.249237e+09 -4.409236e+09 1.671467e+02 -7.080846e+00 -1.023610e+02
-4.983479e+09 -4.783481e+09 -4.943480e+09 4.378110e+02 4.141042e+00 -4.175007e+01
-3.935427e+09 -3.735429e+09 -3.895427e+09 3.398317e+02 -6.697602e-01 -3.172188e+02
-4.987695e+09 -4.787695e+09 -4.947695e+09 8.634194e+02 -8.413679e+01 -2.022168e+02
-4.820741e+09 -4.620742e+09 -4.780740e+09 -9.202978e+02 7.299185e+01 -3.727673e+02
-3.971723e+09 -3.771725e+09 -3.931724e+09 1.777276e+03 2.301181e+02 3.665105e+02
-4.642539e+09 -4.442540e+09 -4.602538e+09 9.880364e+02 -1.951290e+02 -3.952971e+02
-3.963096e+09 -3.763094e+09 -3.923097e+09 -1.701853e+03 6.361289e+02 8.166994e+02
-3.417419e+09 -3.217419e+09 -3.377419e+09 -8.719430e+01 -8.154121e+00 -1.252417e+01
-3.439961e+09 -3.239960e+09 -3.399961e+09 -9.358079e+01 -1.214987e+00 1.398055e+01
-4.437978e+09 -4.237979e+09 -4.397986e+09 9.041816e+02 2.070063e+03 -4.541945e+02
-3.711756e+09 -3.511755e+09 -3.671755e+09 -1.621837e+01 -1.198934e+00 -1.202118e+01
-3.031546e+09 -2.831545e+09 -2.991545e+09 -8.182897e+01 -9.154085e+00 -9.677931e+00
-3.967067e+09 -3.767071e+09 -3.927074e+09 -7.141388e+02 2.377910e+03 4.006955e+02
-3.954868e+09 -3.754866e+09 -3.914873e+09 2.119165e+03 2.127184e+03 -1.332894e+03
-1.783457e+09 -1.583457e+09 -1.743457e+09 -3.778506e+01 -6.693391e+00 -1.726965e+01
-3.079489e+09 -2.879488e+09 -3.039489e+09 -4.442444e+02 1.909694e+02 -3.282027e+01
-4.976446e+09 -4.776446e+09 -4.936447e+09 -1.362318e+03 8.096738e+01 -2.693648e+01
-3.967067e+09 -3.767069e+09 -3.927074e+09 -1.537159e+03 2.546952e+03 9.495502e+02
-4.477509e+09 -4.277508e+09 -4.437515e+09 -1.513822e+03 8.441270e+02 2.869933e+02
-3.294782e+09 -3.094783e+09 -3.254783e+09 -9.282133e+02 1.704855e+02 4.641429e+01
-3.953521e+09 -3.753524e+09 -3.913522e+09 -9.550753e+02 4.832951e+02 6.421729e+01
-4.159010e+09 -3.959008e+09 -4.119010e+09 4.617133e+01 1.489744e+02 -1.333086e+02
-3.972634e+09 -3.772637e+09 -3.932635e+09 5.650287e+02 2.924191e+02 -2.827789e+01
-4.779088e+09 -4.579086e+09 -4.739089e+09 -8.847767e+02 1.120735e+01 9.252417e+01
-3.373607e+09 -3.173607e+09 -3.333607e+09 -1.369110e+02 1.239929e+02 1.573540e+02
-3.280827e+09 -3.080826e+09 -3.240827e+09 -3.980226e+02 1.559984e+02 9.814351e+00
-4.991444e+09 -4.791444e+09 -4.951444e+09 -1.378106e+03 6.980444e+01 -1.913789e+02
-4.812101e+09 -4.612102e+09 -4.772102e+09 6.464981e+02 -2.645555e+02 1.815412e+02
-4.614721e+09 -4.414725e+09 -4.574725e+09 1.150666e+02 -1.225146e+00 -6.986977e+01
-3.954845e+09 -3.754842e+09 -3.914848e+09 -3.645195e+02 -1.361247e+02 1.391322e+03
-4.146647e+09 -3.946649e+09 -4.106649e+09 7.400835e+02 -5.213527e+02 2.414603e+02
-4.125636e+09 -3.925636e+09 -4.085636e+09 6.616513e+02 -2.840234e+02 1.004280e+02
-4.303488e+09 -4.103484e+09 -4.263489e+09 -2.802286e+02 4.151460e+02 4.728502e+02
-3.091822e+09 -2.891822e+09 -3.051821e+09 8.373727e+01 -1.863015e+01 5.114172e+01
-5.005596e+09 -4.805594e+09 -4.965593e+09 8.740079e+02 -3.603742e+02 -6.404333e+02
-4.820740e+09 -4.620740e+09 -4.780733e+09 -1.555386e+03 -4.952263e+02 -6.797415e+02
-5.015253e+09 -4.815252e+09 -4.975262e+09 -2.817426e+02 1.567041e+03 5.815565e+02
-4.102831e+09 -3.902831e+09 -4.062830e+09 1.231555e+02 1.079855e+01 2.683290e+00
-4.532327e+09 -4.332328e+09 -4.492326e+09 1.221822e+02 5.632952e+00 1.751189e+00
-4.668784e+09 -4.468784e+09 -4.628784e+09 -1.240158e+03 1.555011e+01 5.033255e+01
-2.868091e+09 -2.668092e+09 -2.828090e+09 4.266261e+01 -2.036820e+00 1.524905e+01
-4.454657e+09 -4.254647e+09 -4.414658e+09 1.511304e+03 -2.252752e+03 -1.578749e+03
-4.977251e+09 -4.777253e+09 -4.937248e+09 4.422069e+02 -1.559421e+02 -6.079582e+02
-3.435540e+09 -3.235541e+09 -3.395539e+09 6.284113e+01 6.037919e+00 -9.647717e-01
-4.739653e+09 -4.539652e+09 -4.699653e+09 -2.053712e+01 3.909655e-01 -5.229005e+00
-3.974859e+09 -3.774858e+09 -3.934859e+09 3.922999e+01 -2.411171e+02 -2.317463e+02
-2.120661e+09 -1.920660e+09 -2.080660e+09 -8.194115e+01 -7.320661e+00 -2.736833e-01
-4.357204e+09 -4.157204e+09 -4.317204e+09 -1.370282e+01 -1.703899e+00 -8.489529e-01
-4.936061e+09 -4.736060e+09 -4.896061e+09 -1.317916e+01 3.417989e+00 4.679300e+00
-3.285758e+09 -3.085762e+09 -3.245760e+09 4.201994e+02 -1.136291e+03 3.262184e+02
-2.680639e+09 -2.480639e+09 -2.640639e+09 -4.389685e+01 -6.036451e+00 -5.940193e+00
-4.961880e+09 -4.761879e+09 -4.921879e+09 -1.417950e+02 -3.040323e+01 2.836558e+00
-1.584344e+09 -1.384345e+09 -1.544344e+09 -4.623761e+02 -4.995467e+02 -5.884905e+01
-4.433968e+09 -4.233968e+09 -4.393968e+09 -4.109865e+01 -8.535785e-01 -3.895057e+00
-4.702111e+09 -4.502110e+09 -4.662111e+09 -2.730823e+01 -3.124391e+00 -5.111660e+00
-3.027748e+09 -2.827746e+09 -2.987747e+09 -1.988739e+02 -2.766272e+02 -9.747465e+01
-3.888193e+09 -3.688192e+09 -3.848192e+09 -2.995560e+01 -7.037777e+00 -2.282924e+01
-3.074682e+09 -2.874684e+09 -3.034682e+09 -2.566174e+02 -1.288482e+01 -3.508704e+01
-3.018244e+09 -2.818246e+09 -2.978244e+09 -1.253464e+01 -1.432193e+00 -3.916468e+01
-2.875956e+09 -2.675958e+09 -2.835956e+09 -1.084759e+02 1.107962e+01 -6.207175e+01
-1.650937e+09 -1.450939e+09 -1.610938e+09 -1.227997e+02 -7.849842e+00 -6.257430e+01
-2.146514e+09 -1.946516e+09 -2.106514e+09 -2.447423e+01 7.469975e+00 -2.872396e+01
-3.411896e+09 -3.211894e+09 -3.371895e+09 4.645911e+01 -3.016621e+02 -1.344045e+02
-4.890118e+09 -4.690117e+09 -4.850118e+09 -1.281138e+02 -7.204802e+01 2.503382e-05
-3.163754e+09 -2.963755e+09 -3.123753e+09 2.600975e+02 8.914544e-01 6.751982e+00
-1.977749e+09 -1.777748e+09 -1.937748e+09 -3.605068e+02 -2.976165e+02 -1.189842e+02
-2.894344e+09 -2.694349e+09 -2.854348e+09 -7.366047e+00 4.565821e+01 1.173209e+02
-1.593268e+09 -1.393271e+09 -1.553271e+09 -2.354248e+02 1.120788e+02 -7.963695e+01
-2.788899e+09 -2.588897e+09 -2.748898e+09 -7.902253e+01 -3.155279e+02 -5.645421e+01
-2.596105e+09 -2.396104e+09 -2.556105e+09 -3.528497e+02 -3.190449e+02 -1.697569e+02
-2.480834e+09 -2.280839e+09 -2.440838e+09 -2.514766e+02 -6.946749e+01 5.191329e+02
-1.603957e+09 -1.403957e+09 -1.563960e+09 1.641455e+03 2.609851e+02 -4.187581e+02
-4.595445e+09 -4.395444e+09 -4.555445e+09 8.300084e+01 -4.342049e+00 5.063775e+00
-4.983230e+09 -4.783235e+09 -4.943232e+09 -4.938777e+02 1.362666e+01 2.076094e+02
-3.382816e+09 -3.182815e+09 -3.342816e+09 -1.240779e+03 1.577415e+01 6.893706e+01
-1.840940e+09 -1.640943e+09 -1.800943e+09 -2.279849e+02 8.520659e+01 -7.586810e+01
-4.890117e+09 -4.690116e+09 -4.850118e+09 -7.684647e+01 -5.749140e+01 -9.939709e-05
-3.190456e+09 -2.990459e+09 -3.150458e+09 7.818973e+02 9.610324e+01 1.423981e+02
-4.989583e+09 -4.789585e+09 -4.949584e+09 -1.639086e+03 -4.557002e+00 2.966583e+01
-2.939872e+09 -2.739871e+09 -2.899871e+09 -1.282551e+02 -2.660609e+02 -1.016998e+02
-4.890118e+09 -4.690117e+09 -4.850118e+09 1.675878e+02 5.240837e+01 2.502584e-05
-2.126969e+09 -1.926968e+09 -2.086968e+09 4.647908e+02 9.520839e+01 -5.432115e+01
-1.662535e+09 -1.462534e+09 -1.622534e+09 -1.084451e+02 -4.211992e+02 -4.960848e+01
-3.080539e+09 -2.880540e+09 -3.040540e+09 -2.847116e+02 7.818060e+01 7.603581e+01
-4.720717e+09 -4.520715e+09 -4.680717e+09 -4.234686e+01 6.522706e+01 -1.009032e+02
-1.909565e+09 -1.709563e+09 -1.869564e+09 -1.067714e+02 -3.341313e+02 -3.268033e+01
-4.997892e+09 -4.797894e+09 -4.957895e+09 -7.627220e+02 -3.701144e+02 -4.311299e+01
-4.796745e+09 -4.596746e+09 -4.756747e+09 -9.542405e+02 -1.748584e+02 -1.161223e+02
-4.268005e+09 -4.068006e+09 -4.228006e+09 -9.645368e+02 -6.110129e+02 -2.182576e+02
-4.140932e+09 -3.940932e+09 -4.100937e+09 -1.014611e+03 -1.336017e+03 -6.628681e+02
-4.993715e+09 -4.793715e+09 -4.953719e+09 -8.745981e+02 -6.413916e+02 -1.648433e+02
-4.110280e+09 -3.910281e+09 -4.070282e+09 -1.013849e+03 -9.479228e+02 -2.889994e+02
-3.338819e+09 -3.138817e+09 -3.298818e+09 4.598025e+02 5.476586e+02 -3.728669e+02
-4.283276e+09 -4.083277e+09 -4.243277e+09 -8.071675e+02 -4.724808e+02 -8.082530e+01
-2.763484e+09 -2.563483e+09 -2.723483e+09 1.266657e+02 2.153650e+02 -1.976707e+01
-3.377429e+09 -3.177429e+09 -3.337428e+09 5.913917e+01 2.604371e+01 -1.999219e+00
-4.621225e+09 -4.421224e+09 -4.581224e+09 1.017972e+03 1.286570e+02 -3.411341e+01
-2.999539e+09 -2.799538e+09 -2.959538e+09 9.030592e+02 2.068211e+02 -8.988425e+01
-2.882440e+09 -2.682438e+09 -2.842439e+09 2.946844e+02 2.714694e+02 -8.486875e+01
-3.066428e+09 -2.866426e+09 -3.026427e+09 1.199120e+02 1.347633e+02 1.050409e+01
-3.010877e+09 -2.810881e+09 -2.970879e+09 5.857617e+02 3.436607e+02 8.571576e+02
-2.456945e+09 -2.256943e+09 -2.416944e+09 -1.150331e+02 2.727386e+02 1.061647e+01
-3.289511e+09 -3.089511e+09 -3.249510e+09 4.333295e+02 4.666732e+01 2.046155e+01
-2.093100e+09 -1.893100e+09 -2.053099e+09 5.488756e+02 1.503463e+02 -1.999439e+01
-3.160394e+09 -2.960393e+09 -3.120393e+09 1.236048e+02 1.187572e+02 -8.470430e+00
-3.865462e+09 -3.665462e+09 -3.825461e+09 4.772100e+02 8.125309e+01 1.479028e+01
-1.929736e+09 -1.729735e+09 -1.889735e+09 1.472701e+02 2.534200e+02 -3.039048e+01
-3.642373e+09 -3.442373e+09 -3.602372e+09 8.021067e+01 2.583548e+01 9.870405e+00
-4.713432e+09 -4.513432e+09 -4.673431e+09 1.527279e+02 3.942333e+00 3.483612e+01
-4.508320e+09 -4.308321e+09 -4.468320e+09 1.127603e+02 5.680278e+00 -5.086854e+00
-2.177405e+09 -1.977403e+09 -2.137404e+09 1.486802e+02 2.007114e+02 -3.003627e+00
-2.365491e+09 -2.165489e+09 -2.325490e+09 3.167979e+02 3.861283e+02 -2.588967e+02
-3.352926e+09 -3.152925e+09 -3.312926e+09 7.491222e+01 1.775656e+02 -6.841989e+01
-2.168555e+09 -1.968553e+09 -2.128554e+09 2.904263e+02 1.962633e+02 -1.274066e+02
-2.186082e+09 -1.986080e+09 -2.146081e+09 1.767061e+02 1.868490e+02 -6.291488e+01
-4.717888e+09 -4.517887e+09 -4.677887e+09 -7.002115e+01 -4.298825e+01 -1.485050e+01
-1.931385e+09 -1.731384e+09 -1.891384e+09 9.673087e+01 2.861177e+02 -5.482730e+00
-4.790385e+09 -4.590384e+09 -4.750385e+09 -5.167326e+02 -1.915515e+02 -2.718187e+02
-1.581551e+09 -1.381552e+09 -1.541553e+09 3.753708e+02 -2.857713e+02 -1.301142e+02
-1.623423e+09 -1.423421e+09 -1.583422e+09 -5.259688e+02 -5.719287e+02 -2.738780e+02
-2.179057e+09 -1.979056e+09 -2.139057e+09 1.365422e+02 2.521062e+02 -3.593694e+01
-3.335786e+09 -3.135784e+09 -3.295785e+09 -1.294225e+02 -3.038428e+02 -6.557094e+01
-3.796735e+09 -3.596734e+09 -3.756735e+09 -1.170920e+02 -2.239873e+02 -3.865395e+01
-2.653482e+09 -2.453481e+09 -2.613482e+09 -6.915336e+01 2.357616e+02 -1.544313e+02
-2.993837e+09 -2.793835e+09 -2.953838e+09 -5.440480e-01 -6.521695e+02 -5.928417e+02
-4.919676e+09 -4.719674e+09 -4.879675e+09 -2.325968e+02 -3.715179e+01 -1.289525e+01
-2.155682e+09 -1.955680e+09 -2.115681e+09 -1.298160e+02 -3.707614e+02 -7.215600e+01
-4.123152e+09 -3.923157e+09 -4.083152e+09 -1.472622e+03 -8.761603e+01 1.634221e+03
-1.636280e+09 -1.436280e+09 -1.596280e+09 -1.404736e+02 -3.802595e+02 -9.658989e+01
-4.504041e+09 -4.304040e+09 -4.464041e+09 -2.781535e+02 -5.444723e+01 7.822418e+00
-4.995067e+09 -4.795066e+09 -4.955066e+09 -2.130971e+02 -2.921311e+01 -3.162839e+01
-3.556096e+09 -3.356094e+09 -3.516095e+09 -1.059247e+02 -2.778600e+02 -5.825489e+01
-4.808619e+09 -4.608624e+09 -4.768620e+09 3.706471e+02 3.434891e+01 -6.482382e+01
-4.789681e+09 -4.589684e+09 -4.749682e+09 -1.180680e+03 -3.904731e+02 4.708338e+02
-1.929966e+09 -1.729966e+09 -1.889965e+09 -2.253664e+01 -1.612930e+01 -4.613313e+01
-3.957114e+09 -3.757117e+09 -3.917115e+09 -1.524508e+03 -1.208351e+02 1.165761e+03
-4.272060e+09 -4.072062e+09 -4.232060e+09 -1.611401e+03 -1.746050e+02 4.713153e+02
-1.974807e+09 -1.774806e+09 -1.934806e+09 -2.043501e+02 -1.320347e+02 -1.760358e+01
-1.729080e+09 -1.529079e+09 -1.689079e+09 -2.449494e+02 -2.085656e+02 -2.778530e+01
-2.090474e+09 -1.890473e+09 -2.050473e+09 -4.682102e+02 -1.691347e+02 -8.336724e+01
-2.916439e+09 -2.716440e+09 -2.876439e+09 -2.121776e+02 -1.772930e+02 -3.167558e+01
-2.394053e+09 -2.194055e+09 -2.354056e+09 1.515282e+03 2.600344e+02 4.224349e+02
-2.319133e+09 -2.119132e+09 -2.279132e+09 -9.532580e+01 -3.810102e+01 2.091955e+00
-3.988129e+09 -3.788129e+09 -3.948128e+09 -4.705427e+01 1.018510e+01 -2.147315e+01
-3.502325e+09 -3.302325e+09 -3.462325e+09 -1.399670e+02 -2.006207e+00 -1.863762e+01
-1.889854e+09 -1.689853e+09 -1.849853e+09 -4.048837e+02 -2.134994e+02 -7.176310e+01
-1.673916e+09 -1.473915e+09 -1.633915e+09 1.523208e+01 -1.046569e+01 -3.975253e+01
-3.445147e+09 -3.245149e+09 -3.405148e+09 -1.770707e+02 -1.608882e+02 -3.788956e+01
-1.892285e+09 -1.692289e+09 -1.852286e+09 -1.833117e+02 -2.072947e+02 -5.793134e+01
-2.170814e+09 -1.970814e+09 -2.130814e+09 3.306184e+00 2.876398e+00 -2.319330e+01
-1.673760e+09 -1.473760e+09 -1.633759e+09 -2.031912e+02 1.941700e+01 -6.432565e+01
-3.240570e+09 -3.040573e+09 -3.200572e+09 -8.560231e+02 -1.125120e+03 -2.899083e+02
-3.565671e+09 -3.365675e+09 -3.525674e+09 1.095743e+03 3.510510e+02 4.985228e+02
-2.997390e+09 -2.797393e+09 -2.957391e+09 -1.946777e+02 -1.552382e+02 -6.972167e+01
-3.461772e+09 -3.261776e+09 -3.421773e+09 -1.642720e+02 -1.825118e+01 -3.745902e+01
-3.379054e+09 -3.179055e+09 -3.339055e+09 -8.893833e+02 -5.033986e+02 -2.636998e+02
-3.504690e+09 -3.304693e+09 -3.464691e+09 -6.089021e+02 -4.281694e+02 -1.124687e+02
-3.051329e+09 -2.851332e+09 -3.011330e+09 -3.894890e+02 -3.729858e+02 -1.265522e+02
-1.908000e+09 -1.707998e+09 -1.867999e+09 -7.567830e+01 -3.957105e+02 -8.504831e+01
-3.104691e+09 -2.904689e+09 -3.064691e+09 1.035657e+02 -3.736172e+02 -3.753022e+02
-3.049962e+09 -2.849961e+09 -3.009962e+09 -4.147128e+02 -6.058131e+02 -3.902757e+02
-2.983972e+09 -2.783970e+09 -2.943971e+09 -2.548066e+02 -4.276271e+02 -2.253558e+02
-3.059188e+09 -2.859190e+09 -3.019188e+09 5.641375e+02 3.273877e+01 3.707732e+01
-3.509650e+09 -3.309651e+09 -3.469649e+09 2.796469e+01 4.211216e+00 2.136824e+01
-3.688672e+09 -3.488671e+09 -3.648672e+09 2.478083e+01 -2.562720e+02 -6.293554e+01
-1.660340e+09 -1.460339e+09 -1.620340e+09 -3.988629e+01 -4.812934e+02 -7.425234e+01
-2.984505e+09 -2.784503e+09 -2.944505e+09 7.474431e+01 -4.439255e+02 -3.560032e+02
-3.025714e+09 -2.825716e+09 -2.985716e+09 4.689243e+02 -1.243498e+02 -4.538132e+01
-3.687351e+09 -3.487354e+09 -3.647351e+09 3.512385e+01 8.032583e+01 -5.095831e+00
-2.550619e+09 -2.350617e+09 -2.510619e+09 9.308272e+01 -5.388949e+02 -7.222525e+02
-4.974000e+09 -4.774004e+09 -4.934001e+09 1.163222e+02 6.446640e+00 7.767433e+00
-1.872735e+09 -1.672736e+09 -1.832734e+09 7.632265e+01 -2.528508e+01 2.239848e+01
-3.094275e+09 -2.894275e+09 -3.054276e+09 3.321465e+02 -2.254647e+02 -1.086754e+02
-1.632485e+09 -1.432486e+09 -1.592485e+09 3.674180e+01 8.881607e+00 3.166141e+01
-3.100173e+09 -2.900174e+09 -3.060175e+09 -2.856929e+01 -2.257191e+02 -1.968625e+02
-1.662426e+09 -1.462426e+09 -1.622427e+09 2.868383e+02 -3.292659e+02 -1.153469e+02
-1.910292e+09 -1.710292e+09 -1.870293e+09 1.569377e+02 -3.130734e+02 -2.024714e+02
-4.617644e+09 -4.417645e+09 -4.577644e+09 -1.941849e+02 6.436439e+01 -8.461056e-01
-3.486732e+09 -3.286731e+09 -3.446732e+09 -8.124407e+01 -1.170718e+01 -1.376891e+01
-2.776986e+09 -2.576988e+09 -2.736986e+09 1.992962e+01 8.372346e+00 -1.135867e+00
-3.630690e+09 -3.430693e+09 -3.590690e+09 2.724472e+01 1.433049e+01 -9.747745e+00
-2.898737e+09 -2.698736e+09 -2.858736e+09 -2.648685e+01 -9.303728e+00 -1.228093e+01
-4.943471e+09 -4.743474e+09 -4.903472e+09 1.926999e+02 -2.570360e+00 6.482594e+00
-3.094737e+09 -2.894740e+09 -3.054738e+09 5.604527e+00 1.702947e+01 -1.051226e+01
-2.658667e+09 -2.458666e+09 -2.618666e+09 -1.211404e+01 -1.209812e+01 -3.573118e+01
-1.574804e+09 -1.374807e+09 -1.534804e+09 -2.308017e+02 4.582920e+01 -5.216027e+01
-4.502837e+09 -4.302840e+09 -4.462838e+09 5.344705e+01 4.546895e+01 -5.964705e-01
-1.931872e+09 -1.731871e+09 -1.891871e+09 -2.597870e+01 -3.332197e+00 -3.314980e+01
-4.972772e+09 -4.772775e+09 -4.932772e+09 -4.221953e+02 3.866194e+01 -3.291884e+00
-4.452942e+09 -4.252944e+09 -4.412942e+09 -7.492805e+00 5.775625e+00 -1.357646e+01
-2.622546e+09 -2.422545e+09 -2.582546e+09 -3.951136e+01 -6.945189e+00 -2.817647e+01
-4.800451e+09 -4.600446e+09 -4.760449e+09 2.142427e+03 -1.316124e+02 7.279384e+02
-3.356062e+09 -3.156065e+09 -3.316063e+09 4.274115e+02 9.880447e+01 -1.799518e+01
-4.890118e+09 -4.690120e+09 -4.850117e+09 5.966142e+01 -2.488427e-05 -1.433638e+01
-1.593682e+09 -1.393683e+09 -1.553681e+09 3.451964e+02 1.132914e+00 2.560884e+01
-4.822008e+09 -4.622003e+09 -4.782010e+09 3.558902e+02 -7.176309e+02 -6.014549e+02
-3.964012e+09 -3.764005e+09 -3.924014e+09 3.383362e+02 3.707684e+02 -3.845665e+02
-4.175989e+09 -3.975982e+09 -4.135990e+09 1.944589e+02 5.553314e+02 -1.006114e+03
-2.545722e+09 -2.345723e+09 -2.505721e+09 3.523941e+02 3.251513e+01 3.191937e+01
-4.650792e+09 -4.450793e+09 -4.610792e+09 4.366802e+01 1.992947e+01 1.371525e+00
-3.962575e+09 -3.762571e+09 -3.922578e+09 -5.734559e+01 -5.938496e+02 -5.865833e+02
-4.993710e+09 -4.793706e+09 -4.953712e+09 2.085042e+02 -6.012709e+02 -4.149880e+02
-4.382890e+09 -4.182892e+09 -4.342890e+09 2.981493e+02 1.791602e+01 -1.383512e+00
-3.693311e+09 -3.493312e+09 -3.653311e+09 2.793564e+01 1.833691e+00 -9.750936e+00
-3.241653e+09 -3.041656e+09 -3.201654e+09 3.793366e+02 2.749594e+01 -2.830457e+01
-3.282520e+09 -3.082521e+09 -3.242519e+09 5.301642e+01 -3.792721e+00 2.296975e+01
-3.964012e+09 -3.764007e+09 -3.924014e+09 -5.955666e+00 -1.121835e+03 -1.349330e+03
-2.257509e+09 -2.057508e+09 -2.217509e+09 -1.071921e+02 -1.638634e+01 -2.743146e+01
-2.161492e+09 -1.961494e+09 -2.121492e+09 9.904266e+01 -4.667898e+00 -1.092341e+01
-3.100940e+09 -2.900940e+09 -3.060939e+09 2.503517e+01 -1.052005e+01 -3.173502e+01
-3.129219e+09 -2.929218e+09 -3.089218e+09 4.911527e+00 -6.709730e+00 -3.369856e+01
-3.048264e+09 -2.848263e+09 -3.008263e+09 -2.509202e+01 -6.028804e+00 -3.282153e+01
-1.762558e+09 -1.562561e+09 -1.722559e+09 7.863084e+01 4.031167e+01 -2.104785e+01
-1.568637e+09 -1.368640e+09 -1.528638e+09 -2.864714e+02 -2.243182e+01 -7.516863e+01
-1.668274e+09 -1.468274e+09 -1.628274e+09 1.144732e+01 -1.268364e+01 -5.862680e+01
-1.915957e+09 -1.715956e+09 -1.875956e+09 -1.497449e+01 -1.795865e+00 -5.260188e+01
-4.619070e+09 -4.419071e+09 -4.579071e+09 1.134456e+02 8.422998e+00 -3.510445e+00
-3.357858e+09 -3.157860e+09 -3.317860e+09 1.687765e+03 3.873830e+02 4.547480e+02
-3.079971e+09 -2.879974e+09 -3.039971e+09 2.005083e+02 2.696634e+01 1.260013e+01
-4.984163e+09 -4.784164e+09 -4.944164e+09 1.907679e+02 -8.097183e+00 8.240093e-01
-2.610635e+09 -2.410637e+09 -2.570635e+09 -1.682478e+01 1.376633e+01 -5.852303e+01
-4.710948e+09 -4.510949e+09 -4.670948e+09 -8.246047e+01 -4.512181e+01 -1.427013e+01
-4.225702e+09 -4.025703e+09 -4.185702e+09 1.033302e+02 -3.166866e+00 -1.459365e+01
-3.544558e+09 -3.344561e+09 -3.504559e+09 -3.008402e+00 1.764072e+01 -3.759753e+01
-3.977513e+09 -3.777514e+09 -3.937514e+09 4.304626e+01 2.451747e+00 1.450099e+01
-4.820741e+09 -4.620742e+09 -4.780742e+09 1.251551e+01 1.650625e+00 5.007105e+00
-3.769116e+09 -3.569119e+09 -3.729116e+09 1.045229e+01 1.163814e+01 -2.556162e+01
-3.532739e+09 -3.332742e+09 -3.492740e+09 1.390856e+01 8.792657e+01 1.149022e+00
-1.583414e+09 -1.383416e+09 -1.543414e+09 -5.902513e+01 2.806001e+01 -3.566383e+01
-4.373934e+09 -4.173935e+09 -4.333935e+09 -8.034640e+00 1.250835e+00 2.288060e+00
-4.470015e+09 -4.270017e+09 -4.430016e+09 8.563765e+01 9.125491e-01 3.781489e+00
-3.951609e+09 -3.751610e+09 -3.911610e+09 9.829210e+01 1.305013e+01 4.262795e+00
-3.672531e+09 -3.472530e+09 -3.632531e+09 -6.442759e+01 -1.228210e+01 -8.068074e+00
-4.061929e+09 -3.861930e+09 -4.021930e+09 1.093315e+02 -3.000391e+00 -1.107905e+01
-4.132161e+09 -3.932164e+09 -4.092162e+09 9.494358e+02 1.940266e+02 -3.453707e+01
-3.385955e+09 -3.185955e+09 -3.345956e+09 6.339497e+02 -2.687884e+02 -4.875309e+02
-4.474766e+09 -4.274768e+09 -4.434768e+09 1.281525e+03 5.500869e+02 -9.512677e+01
-4.998119e+09 -4.798122e+09 -4.958121e+09 1.033693e+03 2.589807e+02 -1.809051e+01
-4.485162e+09 -4.285165e+09 -4.445164e+09 1.095926e+03 4.386333e+02 -1.333980e+02
-3.876988e+09 -3.676989e+09 -3.836989e+09 3.428228e+01 1.057585e+00 3.814282e+00
-4.502310e+09 -4.302313e+09 -4.462312e+09 1.264936e+03 3.795834e+02 -4.079375e+01
-1.831821e+09 -1.631822e+09 -1.791822e+09 -1.253397e+01 -3.955575e+00 7.559404e+00
-4.274728e+09 -4.074728e+09 -4.234728e+09 2.322711e+02 1.913103e+00 -9.532062e+00
-4.144728e+09 -3.944732e+09 -4.104730e+09 8.064655e+02 7.596177e+02 -9.988217e+01
-2.053580e+09 -1.853581e+09 -2.013580e+09 1.707298e+02 -1.122015e+02 2.297019e+00
-2.447517e+09 -2.247518e+09 -2.407517e+09 1.819912e+02 -1.791383e+02 -1.538958e-01
-2.174446e+09 -1.974447e+09 -2.134447e+09 -1.299912e+01 -2.378508e+00 5.847696e+00
-1.636087e+09 -1.436087e+09 -1.596087e+09 -2.478979e+00 -3.438922e+00 3.191152e+00
-3.043173e+09 -2.843174e+09 -3.003173e+09 6.912575e+01 6.283917e+00 7.813242e+00
-2.542738e+09 -2.342738e+09 -2.502738e+09 1.401587e+00 2.166357e+01 -7.975487e-01
-4.717167e+09 -4.517168e+09 -4.677168e+09 -4.078661e+00 -2.038154e+00 1.353871e+01
-1.907261e+09 -1.707260e+09 -1.867260e+09 3.219640e+00 2.876348e+00 -4.565077e+00
-2.747684e+09 -2.547685e+09 -2.707684e+09 2.238806e+02 -1.246625e+02 1.019283e+01
-2.995022e+09 -2.795022e+09 -2.955021e+09 1.493426e+02 -5.694397e+01 1.594783e+01
-2.055559e+09 -1.855560e+09 -2.015559e+09 3.608981e+02 -3.916903e+01 1.985022e+01
-3.003119e+09 -2.803121e+09 -2.963119e+09 2.204866e+02 -5.546330e+01 1.468798e+01
-4.897082e+09 -4.697081e+09 -4.857081e+09 7.040612e+00 1.257668e-10 1.000330e+00
-3.000766e+09 -2.800767e+09 -2.960766e+09 2.871033e+01 -2.348512e+01 4.256370e+00
-2.174327e+09 -1.974327e+09 -2.134326e+09 4.622079e+01 -2.170591e+01 -5.678835e+00
-1.997756e+09 -1.797757e+09 -1.957756e+09 5.236824e+02 -2.482869e+02 7.489378e+01
-2.511260e+09 -2.311260e+09 -2.471260e+09 2.886675e+02 -5.998202e+01 -1.639531e+01
-1.762630e+09 -1.562630e+09 -1.722630e+09 1.624222e+02 -5.113611e+01 -3.761868e+01
-1.866100e+09 -1.666101e+09 -1.826100e+09 1.826082e+02 -1.177933e+02 -4.880647e+01
-2.799254e+09 -2.599255e+09 -2.759254e+09 1.227381e+02 -1.051111e+02 -1.339441e+01
-1.665863e+09 -1.465864e+09 -1.625863e+09 1.922665e+02 -5.857480e+01 -5.239517e+01
-4.009207e+09 -3.809207e+09 -3.969207e+09 1.332875e+02 6.207799e+00 6.512419e+00
-4.971123e+09 -4.771124e+09 -4.931124e+09 1.348466e+02 -1.009184e-01 -6.568399e+00
-4.092236e+09 -3.892236e+09 -4.052236e+09 1.866253e+02 2.642992e+01 1.210553e+01
-3.916140e+09 -3.716141e+09 -3.876140e+09 2.075261e+02 9.458848e+00 -4.613534e+00
-4.975016e+09 -4.775016e+09 -4.935016e+09 1.988235e+02 -8.661402e+00 -2.893881e+01
-4.793379e+09 -4.593379e+09 -4.753379e+09 2.343146e+02 1.388713e+01 1.580548e+01
-4.503661e+09 -4.303660e+09 -4.463660e+09 -2.701161e+01 5.509229e-01 -1.502557e+01
-4.808928e+09 -4.608928e+09 -4.768928e+09 1.305205e+02 -4.059640e+00 1.671390e+01
-1.638464e+09 -1.438463e+09 -1.598464e+09 5.601045e+00 4.770992e+00 -2.039892e+00
-4.968424e+09 -4.768423e+09 -4.928423e+09 -5.422023e+01 -7.118551e+00 1.510080e+01
-3.205787e+09 -3.005787e+09 -3.165787e+09 -4.345747e+01 -6.291040e+01 -1.063324e+01
-1.948746e+09 -1.748746e+09 -1.908746e+09 -1.310417e+02 -3.012671e+01 -4.986791e+01
-2.075639e+09 -1.875642e+09 -2.035639e+09 2.478424e+01 9.443578e+00 -6.580834e+00
-1.955381e+09 -1.755385e+09 -1.915382e+09 6.628563e+01 1.530922e+01 -4.262690e+00
-1.612503e+09 -1.412502e+09 -1.572503e+09 -6.331791e+01 -1.984851e+01 -4.882453e+01
-2.047477e+09 -1.847480e+09 -2.007478e+09 2.407833e+02 8.461054e+01 7.624353e+00
-4.706202e+09 -4.506201e+09 -4.666201e+09 -2.658593e+01 7.227925e+00 -1.148318e+01
-3.341629e+09 -3.141628e+09 -3.301628e+09 -1.121414e+02 -3.794350e+01 -1.639068e+01
-3.409515e+09 -3.209514e+09 -3.369514e+09 -3.538948e+01 -2.957446e+00 -3.247058e+01
-2.158519e+09 -1.958518e+09 -2.118518e+09 4.704916e+00 1.459611e+00 -1.087272e+00
-2.583069e+09 -2.383072e+09 -2.543070e+09 1.583383e+02 3.750482e+01 8.149495e+00
-1.815015e+09 -1.615018e+09 -1.775016e+09 5.946092e+01 -1.041459e+01 2.981768e+00
-2.391039e+09 -2.191042e+09 -2.351039e+09 4.229510e+01 1.415441e+01 -1.457510e+01
-1.958937e+09 -1.758940e+09 -1.918937e+09 1.971346e+02 6.366055e+00 1.063999e+01
-1.566794e+09 -1.366794e+09 -1.526794e+09 5.855420e+01 3.053075e+01 -3.297815e+00
-2.685231e+09 -2.485234e+09 -2.645231e+09 1.092528e+02 1.474635e+01 -9.069393e+00
-1.830819e+09 -1.630822e+09 -1.790819e+09 2.246132e+02 1.014230e+01 1.306088e+01
-2.669462e+09 -2.469461e+09 -2.629461e+09 3.829184e+01 1.082179e+01 -6.565664e+00
-2.119839e+09 -1.919839e+09 -2.079839e+09 4.469456e-01 5.025278e+00 -8.441781e-01
-3.148095e+09 -2.948095e+09 -3.108095e+09 1.993807e+01 6.715580e+00 -7.076597e-01
-3.986528e+09 -3.786528e+09 -3.946528e+09 1.906698e+00 2.470696e+00 -1.900320e+01
-2.574083e+09 -2.374082e+09 -2.534082e+09 1.208569e+01 1.199728e+01 -1.343799e+01
-1.872809e+09 -1.672809e+09 -1.832809e+09 1.419219e+01 8.794075e+00 -1.130379e+01
-2.694111e+09 -2.494111e+09 -2.654111e+09 -1.098504e+02 -2.144891e+01 -1.557682e+01
-1.594955e+09 -1.394955e+09 -1.554955e+09 5.961422e+00 1.483881e+01 -1.954662e+01
-3.028402e+09 -2.828402e+09 -2.988402e+09 -1.200823e+01 -1.030687e+01 -2.464928e+00
-3.035262e+09 -2.835262e+09 -2.995262e+09 -6.674038e+01 -1.356177e+01 6.764435e+00
-3.036678e+09 -2.836679e+09 -2.996678e+09 2.084264e+02 2.565738e+01 1.736055e+00
-2.613610e+09 -2.413610e+09 -2.573610e+09 -4.682235e+01 -1.319341e+01 8.027587e-01
-1.946784e+09 -1.746784e+09 -1.906784e+09 -2.770764e+01 -1.448833e+01 -9.822644e+00
-1.607634e+09 -1.407635e+09 -1.567634e+09 4.698273e+01 2.171317e+01 6.064354e+00
-1.585940e+09 -1.385940e+09 -1.545940e+09 -6.370183e+01 -1.408168e+01 6.517293e+00
-4.967567e+09 -4.767566e+09 -4.927567e+09 -4.435517e+01 2.814971e+00 3.640513e+00
-2.981816e+09 -2.781815e+09 -2.941815e+09 1.301427e+01 3.739209e+00 -5.296673e+00
-2.170967e+09 -1.970966e+09 -2.130966e+09 -1.314262e+01 1.477219e-02 -1.991864e+01
-1.632566e+09 -1.432566e+09 -1.592566e+09 -4.175305e+00 -1.351457e+01 -3.156385e+00
-5.018489e+09 -4.818493e+09 -4.978491e+09 3.909720e+02 6.060644e+01 -1.316607e+01
-4.977712e+09 -4.777716e+09 -4.937715e+09 -2.855264e+02 -2.615143e+01 7.562428e+01
-3.342817e+09 -3.142817e+09 -3.302817e+09 1.403905e+00 2.039566e+01 -4.360032e-01
-2.194396e+09 -1.994396e+09 -2.154396e+09 -1.994185e+01 -5.152856e-01 1.077424e+00
-2.530988e+09 -2.330988e+09 -2.490988e+09 1.293087e+02 -4.386369e+01 -2.880298e+01
-4.133304e+09 -3.933305e+09 -4.093310e+09 -4.853672e+02 -2.310460e+03 -2.314024e+01
-2.767933e+09 -2.567934e+09 -2.727933e+09 9.754499e+01 -1.246762e+02 1.225661e+01
-3.402662e+09 -3.202663e+09 -3.362662e+09 1.244464e+02 3.290845e+01 -5.199870e+00
-3.911093e+09 -3.711093e+09 -3.871092e+09 -1.041773e+01 -4.974893e+00 -6.670897e+00
-2.117695e+09 -1.917694e+09 -2.077694e+09 3.964526e+01 7.580518e+00 -7.643225e+00
-2.132996e+09 -1.932995e+09 -2.092995e+09 2.671691e+01 -6.112084e-01 -2.991566e+00
-1.988292e+09 -1.788291e+09 -1.948291e+09 3.804121e+01 2.443976e+00 -1.631387e+01
-3.369537e+09 -3.169537e+09 -3.329537e+09 5.535242e+00 1.192804e+01 -6.129213e-01
-4.402931e+09 -4.202930e+09 -4.362931e+09 -3.167727e+02 -2.634756e+02 -1.117568e+02
-1.892626e+09 -1.692626e+09 -1.852626e+09 1.648182e+01 3.342592e+00 -1.327974e+01
-4.354392e+09 -4.154391e+09 -4.314391e+09 -4.769217e+01 1.943263e+00 -3.061722e+00
-1.642319e+09 -1.442321e+09 -1.602319e+09 -3.285490e+02 -1.293728e+02 -2.015843e+01
-3.969022e+09 -3.769021e+09 -3.929021e+09 2.425625e+01 -3.497513e+00 -1.482018e+00
-2.326869e+09 -2.126869e+09 -2.286869e+09 4.824777e+01 3.385533e+00 -1.181958e+01
-1.638464e+09 -1.438463e+09 -1.598464e+09 2.943905e+00 3.667137e+00 -1.103318e+01
-2.880782e+09 -2.680781e+09 -2.840781e+09 7.736744e+00 1.391200e+01 -2.995873e+01
-3.208170e+09 -3.008170e+09 -3.168170e+09 6.690148e+01 1.684302e+00 -8.663811e+00
-1.890187e+09 -1.690187e+09 -1.850187e+09 1.253460e+02 1.698963e+01 3.945640e+00
-2.639823e+09 -2.439822e+09 -2.599822e+09 2.014799e+01 8.808648e+00 -2.688939e+01
-2.131664e+09 -1.931664e+09 -2.091664e+09 8.464256e+00 -9.031002e+00 -1.516916e+01
-3.031995e+09 -2.831995e+09 -2.991995e+09 1.265207e+01 -1.408070e+00 -1.607630e+01
-3.090816e+09 -2.890815e+09 -3.050815e+09 -1.871084e+01 4.617675e-01 -7.991478e+00
-2.687352e+09 -2.487351e+09 -2.647351e+09 -5.945182e+00 -3.281713e-01 -1.629750e+01
-2.205707e+09 -2.005707e+09 -2.165707e+09 -5.680128e+00 -3.235755e+00 -1.907696e+01
-1.664528e+09 -1.464528e+09 -1.624528e+09 -1.746704e+01 1.324821e+00 -3.286003e+01
-2.081815e+09 -1.881814e+09 -2.041814e+09 -5.344830e+01 1.096535e+01 -3.372154e+01
-4.628532e+09 -4.428531e+09 -4.588531e+09 -5.245006e+02 -2.549777e+01 -2.314470e+01
-3.942121e+09 -3.742118e+09 -3.902120e+09 1.079199e+02 -1.908687e+01 1.206249e+02
-2.159808e+09 -1.959808e+09 -2.119808e+09 1.299186e+01 2.961002e+00 -1.683837e+01
-1.818006e+09 -1.618006e+09 -1.778006e+09 -6.401862e+01 -8.022415e+00 9.377172e+00
-1.864850e+09 -1.664851e+09 -1.824851e+09 -6.813827e+01 -1.404832e+01 1.054366e+01
-2.795817e+09 -2.595818e+09 -2.755817e+09 -3.016519e+01 -2.737641e+00 1.874516e+01
-2.823158e+09 -2.623159e+09 -2.783159e+09 -7.146324e+00 -4.768356e+00 3.339956e+00
-2.079494e+09 -1.879495e+09 -2.039495e+09 -3.001116e+00 -2.267244e+00 3.228095e+00
-1.831815e+09 -1.631816e+09 -1.791815e+09 -5.055469e+00 -3.043654e+00 -6.974261e-01
-3.573043e+09 -3.373043e+09 -3.533042e+09 3.521436e+02 2.103069e+01 2.332015e+01
-2.146961e+09 -1.946964e+09 -2.106962e+09 -3.643232e+02 6.493677e+01 -1.393886e+01
-3.186560e+09 -2.986563e+09 -3.146560e+09 -3.403970e+02 5.276428e+01 -5.446765e+01
-3.663220e+09 -3.463222e+09 -3.623220e+09 -8.065146e+00 1.346164e+01 -8.699425e+00
-1.574804e+09 -1.374807e+09 -1.534804e+09 -2.153460e+02 -1.305574e+01 -4.946398e+01
-1.898609e+09 -1.698611e+09 -1.858609e+09 -7.161517e+01 -3.042600e+01 -5.054859e+01
-1.636088e+09 -1.436087e+09 -1.596088e+09 1.645814e+02 2.980074e+02 -4.455330e+01
-2.895926e+09 -2.695926e+09 -2.855925e+09 4.348432e+02 3.557491e+01 -1.614575e+01
-2.663798e+09 -2.463799e+09 -2.623798e+09 5.457607e+02 -3.535662e+01 1.404208e+01
-3.615249e+09 -3.415251e+09 -3.575249e+09 2.459186e+02 3.390898e+01 4.356203e+00
-3.922487e+09 -3.722489e+09 -3.882487e+09 3.041238e+02 6.685936e+00 -7.466618e+00
-1.651754e+09 -1.451756e+09 -1.611756e+09 -3.249192e+02 1.429681e+02 2.587921e+01
-2.595275e+09 -2.395276e+09 -2.555274e+09 1.927377e+02 1.354194e+01 3.128727e+01
-3.813881e+09 -3.613882e+09 -3.773880e+09 4.931951e+02 5.101508e+01 -1.145700e+01
-2.102195e+09 -1.902199e+09 -2.062198e+09 -6.494647e+02 -3.619842e+01 4.546425e+02
-4.143051e+09 -3.943048e+09 -4.103049e+09 3.882391e+02 -2.294742e+02 -1.689340e+02
-4.841456e+09 -4.641454e+09 -4.801455e+09 4.225358e+02 -1.458169e+02 -1.555331e+02
-4.623931e+09 -4.423936e+09 -4.583933e+09 -9.309024e+02 -8.103447e+01 4.245748e+02
-4.864573e+09 -4.664573e+09 -4.824573e+09 5.718132e+02 -7.692944e+00 -1.194249e+01
-5.021672e+09 -4.821671e+09 -4.981671e+09 7.392700e+02 -9.966613e+01 -8.726814e+01
-4.678440e+09 -4.478438e+09 -4.638439e+09 8.483108e+02 -1.186958e+02 -1.317312e+02
-2.044668e+09 -1.844670e+09 -2.004670e+09 2.623839e+02 -3.417749e+01 -5.762669e+01
-4.178108e+09 -3.978107e+09 -4.138107e+09 6.326006e+02 -1.107692e+02 -9.277632e+01
-4.772461e+09 -4.572464e+09 -4.732464e+09 6.557015e+02 8.584509e+01 1.654426e+02
-4.463861e+09 -4.263860e+09 -4.423863e+09 1.217125e+02 -4.898623e+02 4.144602e+02
-1.696940e+09 -1.496941e+09 -1.656940e+09 -1.291436e+03 -8.247504e+02 -3.074387e+02
-1.599045e+09 -1.399049e+09 -1.559049e+09 1.258989e+02 -6.270451e+01 -1.574590e+01
-3.274789e+09 -3.074788e+09 -3.234788e+09 -1.666520e+02 -1.837464e+02 -7.123787e+01
-4.487364e+09 -4.287364e+09 -4.447364e+09 6.759672e+02 -3.689469e+01 -1.537212e+02
-2.812242e+09 -2.612242e+09 -2.772242e+09 5.967639e+01 8.383513e+00 -4.632895e+00
-2.859715e+09 -2.659718e+09 -2.819718e+09 9.410174e+01 -1.311668e+01 7.800653e+01
-2.043043e+09 -1.843043e+09 -2.003043e+09 2.132860e+01 8.202043e+00 -1.106090e+01
-4.667444e+09 -4.467445e+09 -4.627445e+09 4.210328e+01 -5.175213e+00 -5.907381e+00
-1.960262e+09 -1.760263e+09 -1.920263e+09 8.275617e+01 1.026497e+01 9.447632e+00
-4.004619e+09 -3.804618e+09 -3.964619e+09 1.703046e+01 1.577208e+02 -1.229442e+02
-2.466359e+09 -2.266359e+09 -2.426359e+09 6.775134e+01 1.612688e+01 1.987373e+01
-2.268882e+09 -2.068885e+09 -2.228885e+09 -1.033923e+03 -6.519927e+01 6.139674e+02
-3.001693e+09 -2.801692e+09 -2.961693e+09 -1.121844e+03 -1.308099e+02 1.768933e+02
-2.861032e+09 -2.661032e+09 -2.821032e+09 5.666901e+01 1.236980e+01 1.083296e+01
-3.056126e+09 -2.856126e+09 -3.016127e+09 -1.716368e+02 1.109295e+02 -2.140510e+01
-3.386099e+09 -3.186099e+09 -3.346099e+09 4.738850e+01 1.276664e+01 3.132392e+01
-1.907776e+09 -1.707776e+09 -1.867776e+09 1.483749e+01 1.069200e+01 6.533073e+00
-2.993841e+09 -2.793840e+09 -2.953840e+09 7.485036e+01 5.079505e+00 -4.289699e+01
-3.918910e+09 -3.718908e+09 -3.878909e+09 2.726094e+01 1.171905e+02 -3.201398e+01
-4.435491e+09 -4.235490e+09 -4.395491e+09 1.057036e+02 7.703909e+01 -1.256312e+01
-2.802544e+09 -2.602544e+09 -2.762544e+09 3.423277e+01 1.937250e+01 -2.525678e+01
-2.230654e+09 -2.030653e+09 -2.190654e+09 -6.025989e+01 2.721638e+02 -3.594915e+01
-2.584092e+09 -2.384095e+09 -2.544092e+09 -2.503751e+02 1.102449e+02 2.927528e+00
-2.772905e+09 -2.572908e+09 -2.732906e+09 -2.868067e+00 1.284951e+01 -2.695261e+01
-2.055722e+09 -1.855722e+09 -2.015722e+09 6.693329e+01 8.759005e+00 -9.514480e+00
-1.938304e+09 -1.738307e+09 -1.898305e+09 -2.558040e+01 2.967421e+01 -3.439998e+01
-1.636319e+09 -1.436321e+09 -1.596319e+09 -8.152703e+00 9.864648e+00 -6.194749e+01
-2.760701e+09 -2.560704e+09 -2.720701e+09 -1.755279e+00 1.671269e+01 -2.917795e+01
-1.968090e+09 -1.768090e+09 -1.928090e+09 6.308449e+01 1.024294e+01 8.822774e-01
-3.421987e+09 -3.221990e+09 -3.381988e+09 -4.620259e+01 4.950525e+01 -2.349682e+01
-2.361741e+09 -2.161743e+09 -2.321741e+09 -1.490251e+02 1.041002e+01 -2.184583e+01
-1.571212e+09 -1.371212e+09 -1.531212e+09 8.160507e+01 1.978745e+01 -9.255382e+00
-1.965989e+09 -1.765992e+09 -1.925989e+09 -5.667809e+01 -1.089017e+01 -3.192654e+01
-2.570799e+09 -2.370798e+09 -2.530798e+09 3.192044e+01 2.057092e+01 3.769588e+00
-1.907799e+09 -1.707799e+09 -1.867799e+09 1.170713e+01 1.248031e+01 -8.268518e+00
-4.434820e+09 -4.234819e+09 -4.394819e+09 1.702836e+02 3.583826e+01 -4.185750e+00
-4.601755e+09 -4.401754e+09 -4.561754e+09 5.841768e+02 1.667737e+02 -6.747319e+01
-4.643380e+09 -4.443380e+09 -4.603380e+09 2.394902e+02 1.428464e+01 2.380820e+01
-4.599228e+09 -4.399228e+09 -4.559227e+09 6.095921e+02 8.291323e+01 9.936407e+00
-3.408115e+09 -3.208117e+09 -3.368115e+09 -1.054332e+01 8.679404e+00 -4.489331e+01
-3.737520e+09 -3.537519e+09 -3.697519e+09 5.461900e+02 1.651301e+02 -2.716965e+01
-4.787958e+09 -4.587957e+09 -4.747957e+09 6.207879e+02 4.626750e+01 2.776148e+01
-4.708677e+09 -4.508676e+09 -4.668676e+09 1.937303e+02 4.874077e+01 -3.914420e+01
-4.089530e+09 -3.889529e+09 -4.049529e+09 2.086135e+02 5.212489e+01 -2.004828e+01
-3.762265e+09 -3.562266e+09 -3.722266e+09 5.647951e+02 -4.228156e+02 1.744582e+02
-2.587638e+09 -2.387638e+09 -2.547638e+09 6.073874e+00 2.523945e+01 1.400124e+00
-1.675921e+09 -1.475922e+09 -1.635922e+09 1.006483e+02 1.192989e+01 4.910246e+00
-3.233754e+09 -3.033754e+09 -3.193754e+09 4.692027e+02 -2.850657e+02 9.939524e+01
-3.085142e+09 -2.885143e+09 -3.045142e+09 2.072512e+02 -2.265119e+02 4.999529e+01
-1.703587e+09 -1.503586e+09 -1.663586e+09 1.538893e+00 1.076305e+00 -1.051038e+01
-2.613470e+09 -2.413471e+09 -2.573470e+09 8.303376e+02 -3.122834e+02 2.327543e+02
-2.381050e+09 -2.181051e+09 -2.341050e+09 6.697674e+02 -5.003491e+02 1.752617e+02
-2.975033e+09 -2.775033e+09 -2.935033e+09 4.917406e+02 -3.579640e+02 8.752936e+01
-3.615683e+09 -3.415683e+09 -3.575683e+09 8.166899e+01 1.363817e+01 2.796879e+00
-4.358839e+09 -4.158839e+09 -4.318839e+09 1.028263e+01 1.506365e+00 -1.827448e+00
-2.907433e+09 -2.707433e+09 -2.867432e+09 6.203203e+02 1.000911e+02 -2.834894e+01
-2.008419e+09 -1.808419e+09 -1.968418e+09 7.054134e+02 7.755725e+01 2.780387e+01
-4.771770e+09 -4.571771e+09 -4.731771e+09 7.063414e+01 1.002260e+01 8.306319e+00
-2.276332e+09 -2.076332e+09 -2.236331e+09 9.186219e+02 2.257122e+02 -3.874997e+01
-4.346022e+09 -4.146025e+09 -4.306023e+09 4.473669e+02 1.443310e+02 3.376911e+01
-3.985993e+09 -3.785994e+09 -3.945993e+09 9.586676e+02 1.440920e+02 7.971014e+01
-3.076070e+09 -2.876071e+09 -3.036071e+09 4.749639e+01 9.151616e+00 2.944330e+00
-3.536778e+09 -3.336777e+09 -3.496777e+09 1.300446e+02 1.341785e+02 5.364416e+00
-2.503615e+09 -2.303616e+09 -2.463616e+09 7.892538e+01 1.565752e+01 -1.001637e+01
-1.883949e+09 -1.683949e+09 -1.843949e+09 1.400015e+02 2.754526e+01 -1.413877e+00
-4.491368e+09 -4.291367e+09 -4.451367e+09 2.033825e+02 3.474905e+01 -5.702884e+00
-4.975246e+09 -4.775245e+09 -4.935245e+09 7.866946e+02 -1.307865e+01 -1.696374e+01
-4.985985e+09 -4.785985e+09 -4.945984e+09 8.128582e+02 7.698727e+01 -6.386905e+01
-1.986562e+09 -1.786562e+09 -1.946561e+09 8.167914e+02 2.190815e+02 -6.389831e+01
-2.423425e+09 -2.223426e+09 -2.383426e+09 8.232958e+01 1.930895e+01 -2.516247e+01
-4.136013e+09 -3.936013e+09 -4.096013e+09 -3.899052e+02 1.286996e+00 -2.994438e+01
-1.936726e+09 -1.736725e+09 -1.896725e+09 -6.775311e+00 -2.286000e+01 -3.222921e+01
-2.673325e+09 -2.473325e+09 -2.633325e+09 -6.727981e+01 -4.476715e+01 -2.406370e+00
-4.992619e+09 -4.792620e+09 -4.952620e+09 -4.240159e+01 -4.136771e+00 4.763383e+00
-3.964317e+09 -3.764316e+09 -3.924316e+09 -2.989961e+02 -5.419187e+01 -3.549228e+00
-4.823651e+09 -4.623652e+09 -4.783652e+09 -4.078838e+01 -2.574396e+00 -2.456544e+01
-4.137185e+09 -3.937186e+09 -4.097186e+09 -3.052903e+01 1.401927e+00 1.636912e+01
-4.477508e+09 -4.277509e+09 -4.437509e+09 2.159596e+01 1.828229e+00 8.609988e+00
-4.131520e+09 -3.931519e+09 -4.091519e+09 -1.717555e+02 -4.624974e+01 -3.162774e+01
-3.946938e+09 -3.746939e+09 -3.906938e+09 -1.548552e+02 1.192210e+01 5.511392e+00
-4.464435e+09 -4.264436e+09 -4.424435e+09 -1.203446e+02 2.938088e+00 -2.884070e+00
-4.002376e+09 -3.802376e+09 -3.962376e+09 -6.611738e+02 -6.166566e+01 6.951207e+01
-4.138312e+09 -3.938311e+09 -4.098311e+09 -3.302283e+02 -2.899919e+01 -4.573488e+01
-1.674100e+09 -1.474100e+09 -1.634100e+09 -8.532602e+01 -6.171627e+01 -4.014673e+01
-4.554678e+09 -4.354679e+09 -4.514679e+09 -7.512835e+01 2.395474e+00 -3.845965e+00
-2.519528e+09 -2.319529e+09 -2.479529e+09 -6.246746e+01 -5.271512e+00 -7.357803e-01
-4.308540e+09 -4.108541e+09 -4.268541e+09 -7.046926e+01 -7.650247e-01 3.295341e+00
-4.142039e+09 -3.942038e+09 -4.102039e+09 -3.498897e+02 -4.129696e+00 7.440182e-01
-4.579042e+09 -4.379040e+09 -4.539042e+09 3.909524e+02 1.588587e+02 -4.990551e+01
-4.176566e+09 -3.976564e+09 -4.136565e+09 3.834528e+02 1.322351e+02 -1.088011e+02
-3.985179e+09 -3.785177e+09 -3.945178e+09 2.357864e+02 2.908729e+02 -2.534005e+02
-2.906933e+09 -2.706933e+09 -2.866933e+09 6.462955e-01 1.819940e+01 2.012001e+00
-4.600043e+09 -4.400041e+09 -4.560043e+09 8.344518e+02 1.839286e+02 -1.098192e+02
-4.272839e+09 -4.072837e+09 -4.232839e+09 5.937660e+02 1.644765e+02 -2.256094e+02
-3.342783e+09 -3.142783e+09 -3.302783e+09 1.726631e+02 1.254779e+01 -6.445944e+00
-1.625150e+09 -1.425150e+09 -1.585150e+09 3.058991e+01 1.623514e+01 -3.787710e+00
-4.813876e+09 -4.613875e+09 -4.773875e+09 -6.195274e+01 -2.374218e+01 4.975612e+01
-4.669969e+09 -4.469969e+09 -4.629969e+09 -1.945267e+02 -2.274971e+01 4.614531e+00
-4.621852e+09 -4.421853e+09 -4.581852e+09 1.495600e+02 1.044117e+01 -9.034732e+00
-2.922895e+09 -2.722896e+09 -2.882896e+09 1.225361e+02 8.151898e+00 -1.124950e+01
-4.818785e+09 -4.618784e+09 -4.778785e+09 -1.051073e+02 -1.193801e+01 -3.089659e+01
-4.817985e+09 -4.617984e+09 -4.777985e+09 -1.526023e+02 -1.826476e+01 3.916484e+01
-3.390082e+09 -3.190082e+09 -3.350082e+09 5.263394e+01 1.942914e+01 -3.362736e+00
-3.973657e+09 -3.773656e+09 -3.933656e+09 -2.149999e+02 -2.269869e+01 -2.834643e+00
-1.649038e+09 -1.449038e+09 -1.609038e+09 4.489674e+00 2.659549e+01 4.023244e-01
-4.942732e+09 -4.742732e+09 -4.902732e+09 5.678343e+01 -8.477343e+00 1.394454e+00
-4.129207e+09 -3.929206e+09 -4.089207e+09 -2.272120e+02 -5.305223e+01 4.595057e+01
-2.050734e+09 -1.850735e+09 -2.010735e+09 1.841090e+01 1.505041e+00 3.232023e+01
-3.937559e+09 -3.737560e+09 -3.897559e+09 -4.582861e+02 5.893188e+00 -1.925656e+01
-4.151772e+09 -3.951774e+09 -4.111772e+09 -6.301215e+02 -5.590941e+01 -6.785080e+01
-2.254613e+09 -2.054614e+09 -2.214613e+09 3.922847e+01 1.183436e+01 -1.687003e+00
-2.545220e+09 -2.345220e+09 -2.505220e+09 8.808350e+01 2.266170e+01 -7.824010e+00
-4.462798e+09 -4.262797e+09 -4.422797e+09 -1.344435e+02 1.257715e+01 -1.520272e+01
-4.796997e+09 -4.596997e+09 -4.756996e+09 -2.321359e+02 3.447442e+01 -6.995897e+00
-3.464803e+09 -3.264804e+09 -3.424803e+09 -1.985195e+02 8.731355e+00 -1.619014e+01
-4.460183e+09 -4.260184e+09 -4.420183e+09 -3.564818e+02 1.002495e+01 -2.508897e+01
-4.488354e+09 -4.288354e+09 -4.448354e+09 -2.785645e+02 1.414751e+01 -6.967037e+00
-4.998030e+09 -4.798030e+09 -4.958029e+09 -4.562034e+02 6.474944e+01 2.708990e+01
-4.667218e+09 -4.467218e+09 -4.627218e+09 -1.092006e+02 2.839017e+00 -5.024830e+00
-4.653751e+09 -4.453751e+09 -4.613754e+09 -1.605780e+03 5.024512e+02 2.640706e+02
-4.119240e+09 -3.919240e+09 -4.079240e+09 -1.450159e+03 5.771007e+02 3.212176e+02
-4.967567e+09 -4.767566e+09 -4.927567e+09 -3.607735e+01 3.033421e+00 1.284354e+01
-5.001250e+09 -4.801249e+09 -4.961250e+09 -9.615075e+02 7.254236e+01 -2.676951e+01
-4.465849e+09 -4.265847e+09 -4.425848e+09 -9.164946e+02 1.434706e+02 1.117003e+02
-4.462032e+09 -4.262031e+09 -4.422032e+09 -1.249227e+03 2.784503e+02 2.670139e+02
-4.127256e+09 -3.927254e+09 -4.087255e+09 -1.071609e+03 1.620710e+02 9.621164e+01
-3.182346e+09 -2.982346e+09 -3.142346e+09 4.538144e+01 4.035094e+00 -3.105342e+00
-3.251293e+09 -3.051292e+09 -3.211293e+09 9.739606e+01 3.042473e+00 -6.958965e+00
-4.403597e+09 -4.203596e+09 -4.363597e+09 -5.441635e+00 -1.202192e+00 2.059750e+00
-4.035566e+09 -3.835566e+09 -3.995566e+09 1.023029e+02 1.325020e-01 -5.443202e-01
-4.420978e+09 -4.220978e+09 -4.380978e+09 1.135880e+02 7.232464e+00 -1.026728e+01
-3.552742e+09 -3.352741e+09 -3.512742e+09 4.612249e+01 9.338084e+00 -1.110455e+01
-4.274322e+09 -4.074322e+09 -4.234322e+09 1.304558e+02 1.100992e+01 -1.077620e+01
-4.497800e+09 -4.297799e+09 -4.457799e+09 -2.101968e+02 -1.381478e+01 -1.181787e+01
-4.971142e+09 -4.771142e+09 -4.931142e+09 9.047828e+01 -7.233297e+00 -3.275844e+00
-1.946727e+09 -1.746727e+09 -1.906727e+09 -3.033067e+01 -1.023516e+01 1.261454e+01
-4.641446e+09 -4.441445e+09 -4.601445e+09 9.799682e+01 3.422757e+00 1.462048e+01
-4.896967e+09 -4.696966e+09 -4.856966e+09 -1.172384e+01 3.090121e-10 -1.476025e+00
-3.539201e+09 -3.339201e+09 -3.499201e+09 -8.338808e+01 -1.181241e+01 -6.121740e+00
-4.960788e+09 -4.760787e+09 -4.920787e+09 1.190931e+02 -3.509662e+00 -1.373624e+01
-3.502378e+09 -3.302382e+09 -3.462379e+09 1.712060e+02 -1.747114e+02 3.405706e+01
-1.890782e+09 -1.690783e+09 -1.850783e+09 4.709951e+01 7.212678e+00 1.740048e+01
-2.104742e+09 -1.904745e+09 -2.064743e+09 2.430193e+02 -3.056157e+02 4.674676e+01
-2.792520e+09 -2.592520e+09 -2.752520e+09 -6.605106e+00 -1.945079e+00 -1.019082e+00
-1.597409e+09 -1.397409e+09 -1.557409e+09 -1.120447e+02 -1.815861e+01 8.948213e+00
-4.892337e+09 -4.692337e+09 -4.852337e+09 -7.998366e+00 2.479837e+00 -3.541901e-10
-2.848073e+09 -2.648076e+09 -2.808074e+09 1.483278e+02 -7.875377e+01 2.758207e+01
-2.759984e+09 -2.559984e+09 -2.719984e+09 -3.562036e+00 -2.768143e+00 -6.227694e-01
-2.135070e+09 -1.935069e+09 -2.095069e+09 -8.203197e+01 -1.333177e+01 1.529589e+01
-3.033651e+09 -2.833654e+09 -2.993652e+09 4.043727e+01 -1.368766e+02 3.372671e+01
-3.104991e+09 -2.904995e+09 -3.064993e+09 1.786760e+02 -1.168952e+02 5.242617e+01
-1.661060e+09 -1.461064e+09 -1.621061e+09 2.292597e+02 -1.514765e+02 2.548116e+01
-1.908740e+09 -1.708744e+09 -1.868741e+09 1.461337e+02 -1.832188e+02 6.556091e+01
-1.585928e+09 -1.385929e+09 -1.545928e+09 -2.717919e+01 -2.542793e+00 3.484930e+00
-3.787726e+09 -3.587725e+09 -3.747726e+09 2.671776e+00 7.103878e+00 -1.476224e+00
-4.956476e+09 -4.756477e+09 -4.916477e+09 -7.091642e-01 -3.055156e-02 2.449497e+00
-4.041857e+09 -3.841857e+09 -4.001857e+09 3.576888e+01 -3.240928e-01 -3.018101e-01
-1.630478e+09 -1.430479e+09 -1.590479e+09 3.028403e+01 9.160911e+00 8.130676e+00
-4.771241e+09 -4.571240e+09 -4.731240e+09 1.224706e+01 -2.339476e+00 4.431829e+00
-4.517277e+09 -4.317276e+09 -4.477276e+09 9.669165e+00 1.805041e+00 -2.731785e+00
-2.945178e+09 -2.745178e+09 -2.905177e+09 3.183188e+02 4.047963e+01 1.040248e+01
-1.749693e+09 -1.549694e+09 -1.709692e+09 2.652020e+02 4.286844e+00 4.636347e+01
-4.280710e+09 -4.080711e+09 -4.240711e+09 -2.906474e+02 -2.548537e+00 -1.507167e+00
-2.222008e+09 -2.022008e+09 -2.182007e+09 4.845274e+02 4.046260e+01 3.800460e+01
-1.574533e+09 -1.374533e+09 -1.534532e+09 3.245672e+02 1.777960e+00 -5.140012e+00
-1.585932e+09 -1.385931e+09 -1.545931e+09 -4.734178e+01 -1.212156e+01 -1.941441e+01
-2.640264e+09 -2.440264e+09 -2.600263e+09 4.671640e+02 3.935051e+01 -2.749147e+01
-2.106478e+09 -1.906477e+09 -2.066477e+09 3.436953e+02 5.420660e+01 3.000925e+01
-2.493191e+09 -2.293192e+09 -2.453192e+09 1.443843e+02 2.123620e+01 4.302790e+00
-2.506987e+09 -2.306987e+09 -2.466986e+09 1.105881e+02 6.884909e+01 3.128988e+01
-2.722589e+09 -2.522589e+09 -2.682588e+09 5.183421e+02 3.008874e+01 -4.406981e+01
-2.116877e+09 -1.916876e+09 -2.076876e+09 -1.166222e+01 -3.424181e+01 -3.815728e+01
-4.968424e+09 -4.768423e+09 -4.928423e+09 1.717219e+01 3.616051e+00 -1.532756e+01
-3.309422e+09 -3.109423e+09 -3.269422e+09 3.562075e+02 -1.286092e+02 6.651393e+01
-2.269530e+09 -2.069530e+09 -2.229530e+09 -8.783235e+01 -4.047863e+01 -4.057668e+01
-3.043288e+09 -2.843288e+09 -3.003287e+09 -1.074917e+02 -8.095766e+00 -4.036183e+01
-2.981682e+09 -2.781682e+09 -2.941681e+09 4.721483e+00 -2.356021e+01 -3.206649e+01
-1.849747e+09 -1.649747e+09 -1.809747e+09 7.779141e+01 2.419088e+01 -4.704763e+01
-3.029521e+09 -2.829521e+09 -2.989520e+09 -9.573876e+01 -3.659566e+00 -2.436815e+01
-2.640297e+09 -2.440297e+09 -2.600296e+09 -2.638705e+01 1.652674e+01 -5.290421e+01
-2.778179e+09 -2.578178e+09 -2.738178e+09 -8.084801e+01 -2.649357e+01 -1.759971e+01
-3.969691e+09 -3.769690e+09 -3.929690e+09 -5.029464e+01 -2.882192e+01 -3.260866e+00
-1.929966e+09 -1.729966e+09 -1.889966e+09 -1.840883e+01 1.498190e+01 -4.198123e+01
-2.177639e+09 -1.977639e+09 -2.137638e+09 -3.983914e+00 -2.414978e+00 -2.723856e+01
-3.343631e+09 -3.143631e+09 -3.303631e+09 2.562177e+01 -4.581695e+01 -4.940393e+01
-4.627401e+09 -4.427400e+09 -4.587402e+09 -1.692275e+03 3.128210e+02 7.401092e+01
-4.991445e+09 -4.791445e+09 -4.951445e+09 -1.142998e+03 3.690688e+01 -8.007444e+01
-4.479318e+09 -4.279319e+09 -4.439319e+09 -8.967319e+02 1.947103e+01 2.739340e+00
-4.664739e+09 -4.464740e+09 -4.624739e+09 -9.539793e+02 4.178131e+01 -9.141883e+01
-1.636074e+09 -1.436073e+09 -1.596073e+09 -3.366362e+01 -5.937348e+00 -3.680273e+01
-2.785696e+09 -2.585695e+09 -2.745696e+09 -2.785974e+01 -6.497249e+00 -3.371691e+01
-4.321506e+09 -4.121507e+09 -4.281506e+09 -9.562900e+02 9.205915e+01 -1.583673e+02
-5.005979e+09 -4.805980e+09 -4.965980e+09 -9.734078e+02 4.773972e+01 -1.124708e+02
-4.626932e+09 -4.426936e+09 -4.586934e+09 -1.155598e+01 -1.918846e+02 1.154913e-01
-3.611456e+09 -3.411455e+09 -3.571455e+09 -6.210420e+01 -8.867995e+00 -4.230619e+01
-4.030492e+09 -3.830496e+09 -3.990494e+09 6.160021e+01 -3.693227e+02 5.124654e+01
-4.117894e+09 -3.917897e+09 -4.077896e+09 -5.738639e+02 -4.261653e+02 -9.760944e+01
-3.016537e+09 -2.816536e+09 -2.976536e+09 7.710679e+01 -4.084330e+01 -1.748925e+01
-2.947549e+09 -2.747554e+09 -2.907551e+09 -1.088889e+02 -5.607587e+02 -1.702729e+01
-2.549903e+09 -2.349902e+09 -2.509902e+09 4.181493e+02 1.483638e+02 -2.806170e+01
-4.056219e+09 -3.856218e+09 -4.016218e+09 8.293539e+02 3.161994e+02 -1.777935e+02
-3.145409e+09 -2.945408e+09 -3.105408e+09 6.744849e+02 2.978036e+02 -1.577990e+02
-4.905148e+09 -4.705148e+09 -4.865148e+09 -4.205377e+01 1.068769e-09 -1.423203e+00
-3.337514e+09 -3.137514e+09 -3.297514e+09 -7.298731e+01 -8.116553e+01 5.389068e+00
-4.727644e+09 -4.527643e+09 -4.687643e+09 1.108496e+01 -4.219356e+01 -3.955812e+00
-4.417713e+09 -4.217712e+09 -4.377712e+09 -7.807400e+01 -6.336023e+00 1.411266e+00
-3.759280e+09 -3.559279e+09 -3.719279e+09 8.703084e+02 1.976438e+02 -6.978663e+01
-4.580053e+09 -4.380053e+09 -4.540053e+09 1.944989e+01 2.866918e+01 -1.165232e+01
-4.516833e+09 -4.316832e+09 -4.476832e+09 -6.347910e+00 -3.503594e+00 -1.108267e+01
-2.742347e+09 -2.542345e+09 -2.702346e+09 5.866668e+02 3.345234e+02 -6.994402e+01
-2.768708e+09 -2.568709e+09 -2.728709e+09 1.370876e+02 1.459958e+01 -1.391468e+01
-5.000460e+09 -4.800460e+09 -4.960460e+09 8.306808e+01 -6.387452e+00 -2.056159e+01
-1.657151e+09 -1.457150e+09 -1.617150e+09 -1.194746e+01 -4.364347e+00 -1.132709e+01
-4.421498e+09 -4.221497e+09 -4.381497e+09 -8.670767e+01 -5.670728e+00 -1.129813e+01
-4.892350e+09 -4.692349e+09 -4.852349e+09 -3.437800e+01 3.744055e-09 -6.098872e+00
-1.931242e+09 -1.731242e+09 -1.891242e+09 -1.929110e+01 -3.504663e+00 -3.085173e+01
-4.847836e+09 -4.647836e+09 -4.807836e+09 1.246651e+02 1.458351e+01 1.195468e+01
-3.993904e+09 -3.793903e+09 -3.953903e+09 -4.703755e+01 -7.190597e+00 -8.824186e+00
-5.011351e+09 -4.811351e+09 -4.971351e+09 1.074663e+02 -1.220172e+01 -2.475169e+01
-4.978185e+09 -4.778184e+09 -4.938185e+09 1.452765e+02 -1.471558e+01 -3.420599e+01
-4.124159e+09 -3.924159e+09 -4.084159e+09 2.308452e+02 4.183711e+00 -2.226263e+01
-4.161371e+09 -3.961370e+09 -4.121370e+09 1.497939e+02 -5.786712e+00 -1.844051e+01
-4.128204e+09 -3.928204e+09 -4.088204e+09 1.563461e+02 8.742347e+00 -7.059848e+00
-2.906054e+09 -2.706058e+09 -2.866056e+09 1.466920e+02 -5.618769e+02 4.170050e+01
-3.398309e+09 -3.198312e+09 -3.358310e+09 3.182085e+01 -8.813527e+01 2.005696e+01
-3.409412e+09 -3.209415e+09 -3.369414e+09 3.336484e+02 -5.766869e+02 1.139715e+02
-4.132736e+09 -3.932736e+09 -4.092736e+09 1.304367e+02 5.622913e+00 -1.769228e+01
-4.791106e+09 -4.591110e+09 -4.751108e+09 3.694905e+01 -4.096530e+01 -7.284054e+00
-3.431038e+09 -3.231041e+09 -3.391039e+09 4.035620e+01 -6.896645e+01 3.356030e+01
-4.518066e+09 -4.318068e+09 -4.478067e+09 2.586201e+02 -3.707559e+01 3.456476e+00
-2.099996e+09 -1.899999e+09 -2.059997e+09 5.381866e+02 -7.492227e+02 1.717775e+02
-4.982707e+09 -4.782711e+09 -4.942709e+09 8.303922e+01 -6.730306e+01 2.980708e+01
-4.810365e+09 -4.610364e+09 -4.770364e+09 -3.028841e+02 -8.372720e+00 3.534745e+01
-3.495785e+09 -3.295789e+09 -3.455787e+09 6.185101e+01 -1.231161e+02 3.461714e+00
-4.708850e+09 -4.508854e+09 -4.668852e+09 1.098665e+02 -9.319201e+01 6.672560e+01
-2.103435e+09 -1.903439e+09 -2.063436e+09 2.245273e+02 -4.005598e+02 2.784902e+01
-4.138913e+09 -3.938913e+09 -4.098913e+09 1.344358e+03 2.493790e+02 -4.866320e+01
-4.963016e+09 -4.763016e+09 -4.923016e+09 -1.663583e+02 3.209095e+00 -7.135611e+00
-4.974606e+09 -4.774606e+09 -4.934606e+09 1.814094e+00 1.016428e+01 -8.905090e+00
-3.152401e+09 -2.952400e+09 -3.112400e+09 -1.368469e+02 -2.860010e+01 -2.099020e+01
-3.773487e+09 -3.573487e+09 -3.733487e+09 -9.912995e+01 -3.773020e+01 -1.772427e+01
-4.828963e+09 -4.628963e+09 -4.788963e+09 1.148624e+03 -1.062215e+01 5.457498e+01
-3.881697e+09 -3.681697e+09 -3.841696e+09 8.615534e+02 1.122629e+02 -1.461689e+01
-4.312542e+09 -4.112542e+09 -4.272542e+09 -2.582993e+02 -2.238394e+01 -1.028619e+01
-3.686019e+09 -3.486018e+09 -3.646018e+09 -2.754859e+01 -2.467154e+00 -3.085625e+01
-3.669835e+09 -3.469835e+09 -3.629834e+09 -2.716956e+01 -4.335677e+01 -3.358437e+01
-4.198392e+09 -3.998391e+09 -4.158391e+09 5.859708e+02 4.262521e+01 -1.061933e+01
-3.993047e+09 -3.793046e+09 -3.953046e+09 6.104552e+02 1.068067e+02 -5.518515e+01
-1.697053e+09 -1.497053e+09 -1.657053e+09 -1.235523e+02 -2.392543e+01 -8.684253e+00
-4.977094e+09 -4.777093e+09 -4.937094e+09 7.779245e+02 -1.260699e+01 -2.433700e+01
-2.908574e+09 -2.708573e+09 -2.868573e+09 -1.111372e+02 -4.989584e+01 -1.054810e+01
-3.306312e+09 -3.106311e+09 -3.266311e+09 -6.966761e+01 -8.041446e+00 -2.619686e+01
-2.767799e+09 -2.567798e+09 -2.727798e+09 -1.780029e+01 -1.421417e+01 -1.669469e+01
-4.996976e+09 -4.796976e+09 -4.956976e+09 -3.143212e+02 3.413618e+00 -1.374967e+01
-2.653396e+09 -2.453395e+09 -2.613395e+09 4.440481e+00 1.447308e+01 -3.004927e+01
-1.696840e+09 -1.496840e+09 -1.656840e+09 1.315523e+02 1.582204e+01 -1.583723e+01
-4.984346e+09 -4.784347e+09 -4.944347e+09 1.222641e+02 6.267484e-01 -2.727671e+01
-3.039669e+09 -2.839669e+09 -2.999669e+09 5.922037e+01 8.402637e+00 -1.686292e+00
-2.942285e+09 -2.742285e+09 -2.902285e+09 6.171364e+01 8.057070e+00 5.936074e+00
-1.655417e+09 -1.455416e+09 -1.615416e+09 -3.046708e+01 7.095747e-02 -3.933575e+01
-2.472804e+09 -2.272805e+09 -2.432805e+09 7.762244e+00 5.937624e+00 -6.902452e+00
-4.653498e+09 -4.453497e+09 -4.613497e+09 1.584722e+02 8.070785e+00 8.159567e+00
-2.976515e+09 -2.776515e+09 -2.936515e+09 1.189746e+02 1.748808e+01 -8.407635e+00
-3.950255e+09 -3.750255e+09 -3.910255e+09 5.730868e+00 7.057534e+00 7.106079e+00
-4.613240e+09 -4.413240e+09 -4.573240e+09 9.591619e+01 1.259851e+01 -8.814791e+00
-3.930150e+09 -3.730150e+09 -3.890150e+09 2.241166e+01 1.899501e+01 -1.349991e+01
-4.113688e+09 -3.913688e+09 -4.073688e+09 1.690044e+02 1.550385e+01 -6.970929e+00
-2.586627e+09 -2.386626e+09 -2.546626e+09 -2.728096e+01 -3.471413e+00 -3.971879e+01
-2.591296e+09 -2.391296e+09 -2.551295e+09 -5.955271e+01 -7.501272e+00 -2.823002e+01
-3.973131e+09 -3.773130e+09 -3.933130e+09 6.568518e+01 1.173680e+01 -1.831221e+01
-1.903085e+09 -1.703085e+09 -1.863085e+09 -5.023512e+00 -9.601012e+00 -2.900173e+01
-3.973131e+09 -3.773130e+09 -3.933130e+09 3.801361e+01 8.510121e+00 -1.636783e+01
-2.612969e+09 -2.412969e+09 -2.572969e+09 -2.683417e+01 3.997996e+01 -3.034861e+01
-1.636087e+09 -1.436087e+09 -1.596087e+09 1.434139e+01 3.514294e+00 -5.111495e+01
-4.983779e+09 -4.783779e+09 -4.943779e+09 -2.123353e+02 -1.672251e+01 6.410730e+00
-2.961952e+09 -2.761952e+09 -2.921952e+09 1.502130e+01 -6.870514e+00 -2.383095e+01
-2.950466e+09 -2.750466e+09 -2.910466e+09 -1.069138e+02 9.820791e+00 -3.795815e+01
-4.996800e+09 -4.796799e+09 -4.956799e+09 -6.974124e+01 8.581122e+00 1.177771e+01
-4.484447e+09 -4.284448e+09 -4.444447e+09 -8.907562e+02 6.126496e+01 7.010386e+00
-2.780987e+09 -2.580987e+09 -2.740987e+09 2.562382e+01 1.608012e+01 -7.650325e+00
-3.475055e+09 -3.275055e+09 -3.435055e+09 4.373929e+01 9.226174e+00 -2.445625e+01
-4.475969e+09 -4.275969e+09 -4.435969e+09 1.261356e+02 1.188483e+01 -1.707673e+01
-4.343181e+09 -4.143180e+09 -4.303180e+09 6.904732e+01 1.901861e+01 -4.307211e+00
-1.564656e+09 -1.364656e+09 -1.524656e+09 -1.881799e+02 6.192038e+00 -6.846528e+01
-1.957532e+09 -1.757533e+09 -1.917533e+09 6.854234e+01 6.844066e+00 -1.724754e+01
-1.864663e+09 -1.664663e+09 -1.824663e+09 5.202296e+01 2.533603e+01 3.484544e+00
-2.494474e+09 -2.294474e+09 -2.454474e+09 7.240583e+01 2.274140e+01 1.184761e+01
-3.473029e+09 -3.273030e+09 -3.433030e+09 6.214091e+00 1.557504e+01 2.966871e-02
-2.804852e+09 -2.604852e+09 -2.764852e+09 9.286031e+01 1.917037e+01 3.629642e+01
-4.981307e+09 -4.781308e+09 -4.941308e+09 9.478104e+01 -6.418078e+00 -3.477506e+00
-1.612503e+09 -1.412502e+09 -1.572503e+09 -9.238601e+01 -3.034902e+01 -6.198299e+01
-4.658625e+09 -4.458626e+09 -4.618625e+09 -8.605483e+01 3.139855e+00 -2.510774e-01
-1.772712e+09 -1.572711e+09 -1.732712e+09 7.484289e+01 1.669568e+01 1.530162e+01
-4.470016e+09 -4.270017e+09 -4.430016e+09 1.259187e+02 8.021794e-01 1.281406e+00
-3.963253e+09 -3.763255e+09 -3.923254e+09 2.177867e+02 2.098536e+01 -1.099732e+00
-1.955509e+09 -1.755509e+09 -1.915509e+09 8.923324e+01 6.075496e+00 -3.419238e-01
-2.698892e+09 -2.498892e+09 -2.658892e+09 7.505082e+01 1.936835e+01 3.320869e+00
-3.961981e+09 -3.761981e+09 -3.921981e+09 3.612168e+02 1.416451e+01 2.536039e+01
-4.309004e+09 -4.109003e+09 -4.269003e+09 3.593954e+02 -1.124240e+01 -2.924023e+01
-2.385198e+09 -2.185198e+09 -2.345198e+09 7.404384e+01 2.017883e+01 -1.115491e+01
-4.144214e+09 -3.944214e+09 -4.104214e+09 1.905413e+02 -5.267363e+01 -1.015341e+02
-1.916967e+09 -1.716967e+09 -1.876967e+09 2.163916e+01 1.584635e+01 1.251219e+01
-1.917151e+09 -1.717151e+09 -1.877151e+09 1.013272e+01 1.490511e+01 -4.724537e+00
-3.971935e+09 -3.771936e+09 -3.931936e+09 3.825553e+02 2.097316e+01 -6.164090e+01
-4.639398e+09 -4.439395e+09 -4.599403e+09 -5.873671e+02 -2.318127e+01 4.821819e+02
-3.967032e+09 -3.767032e+09 -3.927032e+09 2.324676e+02 2.355096e+01 3.118259e+01
-4.992491e+09 -4.792489e+09 -4.952496e+09 -2.800189e+02 -7.862512e+02 2.960361e+02
-4.124417e+09 -3.924414e+09 -4.084422e+09 -7.037832e+02 -1.892022e+03 1.155436e+03
-3.405261e+09 -3.205262e+09 -3.365261e+09 -5.086146e+02 2.801159e+01 -3.164329e-01
-4.996885e+09 -4.796886e+09 -4.956885e+09 -7.501487e+02 9.768392e+00 5.875399e+01
-4.142771e+09 -3.942773e+09 -4.102771e+09 -7.958163e+02 1.859282e+02 8.636182e+01
-3.953576e+09 -3.753574e+09 -3.913581e+09 -2.468100e+02 -1.775767e+03 7.724367e+02
-4.295078e+09 -4.095079e+09 -4.255078e+09 -1.137725e+03 2.583227e+02 8.311360e+01
-4.802636e+09 -4.602634e+09 -4.762643e+09 -6.106101e+02 -8.951440e+02 3.407833e+02
-4.320475e+09 -4.120478e+09 -4.280477e+09 -5.308243e+02 1.829646e+02 2.158557e+01
-4.809857e+09 -4.609856e+09 -4.769864e+09 -4.119415e+02 -7.061166e+02 -1.297593e+01
-4.144859e+09 -3.944861e+09 -4.104859e+09 -7.394785e+02 1.750285e+02 1.424291e+01
-4.099049e+09 -3.899046e+09 -4.059056e+09 -8.397309e+02 -1.904866e+03 4.210874e+02
-4.831324e+09 -4.631327e+09 -4.791325e+09 -7.026470e+02 -3.935476e+01 2.281552e+01
-5.015143e+09 -4.815139e+09 -4.975118e+09 -5.125211e+01 3.822070e+02 -9.870332e+02
-4.116171e+09 -3.916169e+09 -4.076177e+09 -3.769669e+02 -2.041636e+03 1.503414e+02
-4.648270e+09 -4.448268e+09 -4.608271e+09 -6.520414e+01 -3.562937e+02 -2.453910e+02
-4.485259e+09 -4.285262e+09 -4.445262e+09 -1.807629e+02 -7.092304e+02 1.477478e+01
-4.296101e+09 -4.096104e+09 -4.256104e+09 -6.185860e+02 -8.588567e+02 -1.237196e+02
-5.032719e+09 -4.832714e+09 -4.992722e+09 4.184347e+02 -7.177516e+02 -8.244786e+02
-4.805416e+09 -4.605419e+09 -4.765419e+09 -4.486611e+02 -5.371142e+02 -2.474562e+01
-4.147940e+09 -3.947942e+09 -4.107944e+09 -8.644835e+02 -1.187231e+03 -2.586825e+02
-1.698204e+09 -1.498208e+09 -1.658205e+09 1.044050e+03 -1.027301e+03 3.227382e+02
-3.953506e+09 -3.753503e+09 -3.913508e+09 -2.257710e+02 -8.215518e+02 -9.482048e+02
-4.662988e+09 -4.462990e+09 -4.622992e+09 -6.717289e+02 -4.617450e+02 -2.173988e+01
-2.166927e+09 -1.966932e+09 -2.126928e+09 3.543096e+02 -1.480153e+03 2.530737e+02
-4.983203e+09 -4.783200e+09 -4.943205e+09 5.345376e+02 -4.263701e+02 -3.477784e+02
-4.302426e+09 -4.102426e+09 -4.262430e+09 4.602114e+02 -1.515726e+03 6.935529e+02
-4.785515e+09 -4.585511e+09 -4.745519e+09 -1.080080e+03 -4.092747e+02 -5.342644e+01
-4.462183e+09 -4.262186e+09 -4.422186e+09 -5.741733e+02 -6.481681e+02 1.966268e+01
-4.991666e+09 -4.791659e+09 -4.951666e+09 -8.868630e+02 8.482761e+00 -2.168819e+02
-4.816335e+09 -4.616328e+09 -4.776334e+09 -1.191577e+03 3.622152e+02 -5.831542e+02
-4.129868e+09 -3.929860e+09 -4.089866e+09 -1.356789e+03 -1.541505e+03 -1.294605e+03
-3.963620e+09 -3.763618e+09 -3.923622e+09 2.019677e+03 1.349868e+03 -1.032873e+03
-3.941810e+09 -3.741806e+09 -3.901812e+09 1.351188e+03 1.385470e+03 -1.545527e+03
-4.814974e+09 -4.614970e+09 -4.774968e+09 -2.911081e+03 -1.358989e+03 1.216643e+03
-4.587482e+09 -4.387481e+09 -4.547482e+09 -2.897345e+02 6.403694e+01 -8.081559e+01
-3.963747e+09 -3.763742e+09 -3.923747e+09 -1.142212e+03 -2.568892e+02 -7.765175e+02
-4.109712e+09 -3.909706e+09 -4.069713e+09 1.744484e+02 9.660648e+02 -1.955065e+03
-3.961006e+09 -3.761006e+09 -3.921008e+09 2.034859e+03 8.067284e+02 -4.428596e+02
-4.625646e+09 -4.425640e+09 -4.585647e+09 -4.946572e+02 3.797696e+01 -4.457659e+02
-3.883732e+09 -3.683732e+09 -3.843732e+09 -2.459355e+02 -1.009701e+01 3.024771e+01
-4.991543e+09 -4.791543e+09 -4.951543e+09 -5.758472e+02 -4.200384e+00 -4.661952e+01
-4.103857e+09 -3.903857e+09 -4.063857e+09 -6.960102e+02 -3.850424e+00 4.532618e+01
-4.983051e+09 -4.783047e+09 -4.943047e+09 -2.450487e+03 -2.469309e+00 2.446334e+02
-3.948926e+09 -3.748926e+09 -3.908926e+09 -1.116894e+02 6.869563e-01 1.187115e+00
-4.125637e+09 -3.925639e+09 -4.085638e+09 -2.632800e+02 -1.901135e+00 1.675892e+01
-4.994426e+09 -4.794427e+09 -4.954427e+09 -2.681380e+02 -6.648751e+00 -1.579214e+01
-4.796177e+09 -4.596171e+09 -4.756177e+09 -2.972621e+02 -1.727959e+02 -1.896891e+02
-3.224156e+09 -3.024156e+09 -3.184156e+09 2.329951e+01 3.838306e+00 -1.183866e+01
-3.953899e+09 -3.753900e+09 -3.913900e+09 -4.951684e+02 4.370676e+00 -3.079564e+01
-2.296742e+09 -2.096742e+09 -2.256742e+09 2.982444e+01 -2.279492e+00 -1.111257e+01
-4.305757e+09 -4.105758e+09 -4.265757e+09 -3.552951e+02 -1.227457e+01 -2.655158e+01
-3.942109e+09 -3.742107e+09 -3.902108e+09 -8.591375e+02 2.364643e+02 3.858349e+02
-3.592831e+09 -3.392831e+09 -3.552831e+09 2.867425e+01 -9.683614e-01 -5.610358e+00
-3.946338e+09 -3.746338e+09 -3.906338e+09 5.200248e+02 3.088826e+01 -5.204506e+01
-4.805705e+09 -4.605705e+09 -4.765706e+09 -1.339988e+03 -1.457191e+01 -4.970283e+00
-4.639880e+09 -4.439879e+09 -4.599881e+09 -1.533797e+03 2.983205e+02 2.545611e+02
-2.609781e+09 -2.409781e+09 -2.569781e+09 1.323453e+01 1.767201e+01 -1.701761e+01
-1.902822e+09 -1.702822e+09 -1.862822e+09 8.809593e+00 4.417542e+00 -1.447880e+01
-4.136861e+09 -3.936862e+09 -4.096861e+09 -9.983961e+02 1.396015e+02 2.655682e+01
-4.486154e+09 -4.286154e+09 -4.446154e+09 -1.153455e+03 1.980564e+02 8.527309e+01
-3.168229e+09 -2.968228e+09 -3.128229e+09 -1.401684e+02 1.645483e+02 -1.604528e+01
-2.164346e+09 -1.964344e+09 -2.124345e+09 3.030244e+02 5.743029e+02 -4.487529e+02
-3.419392e+09 -3.219391e+09 -3.379392e+09 -3.167268e+02 1.419387e+02 -5.473652e+01
-4.806856e+09 -4.606855e+09 -4.766855e+09 -2.412459e+01 -3.557147e+01 -3.925902e+01
-4.823145e+09 -4.623145e+09 -4.783144e+09 -4.806305e+02 1.195766e+01 -3.311162e+01
-4.980770e+09 -4.780766e+09 -4.940771e+09 1.395936e+03 -2.534073e+02 -3.157043e+02
-4.075587e+09 -3.875581e+09 -4.035597e+09 4.117098e+02 1.309642e+03 1.556983e+03
-4.805798e+09 -4.605793e+09 -4.765786e+09 2.518616e+03 2.800921e+03 -9.413282e+02
-3.959517e+09 -3.759517e+09 -3.919489e+09 2.551003e+03 3.160138e+03 9.331233e+03
-4.981276e+09 -4.781268e+09 -4.941279e+09 -1.630459e+03 1.551766e+03 1.782226e+02
-4.117755e+09 -3.917749e+09 -4.077738e+09 -2.997116e+03 -7.180662e+03 3.883107e+03
-1.607949e+09 -1.407947e+09 -1.567949e+09 -5.812566e+01 3.004792e+02 -1.984956e+02
-4.990760e+09 -4.790765e+09 -4.950760e+09 8.080461e+02 -5.856437e+01 2.487017e+02
-4.297145e+09 -4.097143e+09 -4.257143e+09 -2.420975e+03 -4.369514e+02 2.539858e+02
-4.103644e+09 -3.903645e+09 -4.063627e+09 1.069845e+03 1.794120e+03 4.431924e+03
-4.995898e+09 -4.795895e+09 -4.955890e+09 -2.738361e+03 -2.624921e+02 5.433115e+02
-4.966796e+09 -4.766790e+09 -4.926788e+09 2.197592e+02 1.411360e+02 -3.668238e+02
-4.281484e+09 -4.081476e+09 -4.241464e+09 4.478176e+02 3.631703e+03 8.919986e+02
-4.296411e+09 -4.096406e+09 -4.256409e+09 -2.322813e+03 -1.254138e+03 -5.160189e+02
-3.953505e+09 -3.753502e+09 -3.913507e+09 3.111636e+02 -3.632740e+02 -7.234328e+02
-4.121651e+09 -3.921642e+09 -4.081622e+09 2.299990e+03 8.399824e+03 1.446244e+03
-1.695565e+09 -1.495569e+09 -1.655569e+09 -4.188857e+02 -8.544355e+01 7.120272e+02
-3.959522e+09 -3.759522e+09 -3.919494e+09 -5.552249e+02 -3.349903e+03 5.653040e+03
-4.995063e+09 -4.795057e+09 -4.955047e+09 -1.202193e+03 -1.957959e+02 -1.375062e+03
-4.129560e+09 -3.929559e+09 -4.089560e+09 -1.163294e+03 1.673816e+02 1.563539e+02
-4.989217e+09 -4.789217e+09 -4.949191e+09 7.971073e+02 1.223674e+02 1.474913e+03
-4.364910e+09 -4.164909e+09 -4.324909e+09 -7.836842e+00 7.767085e-01 -7.077194e+00
-4.406902e+09 -4.206901e+09 -4.366902e+09 3.377595e+01 2.798424e+00 -1.174834e+01
-4.136672e+09 -3.936674e+09 -4.096673e+09 4.094918e+02 2.004394e+01 -3.243352e+01
-4.644463e+09 -4.444462e+09 -4.604462e+09 7.911352e+02 -5.873309e+00 -1.413858e+02
-4.279635e+09 -4.079632e+09 -4.239634e+09 -3.012534e+02 5.507122e+01 2.521689e+02
-4.820741e+09 -4.620742e+09 -4.780741e+09 7.661807e+02 1.375736e+01 -1.155670e+02
-4.813721e+09 -4.613720e+09 -4.773721e+09 -1.156100e+03 3.363422e+02 2.159016e+02
-3.942121e+09 -3.742118e+09 -3.902120e+09 1.644101e+02 -4.787899e+01 8.157823e+01
-3.944153e+09 -3.744151e+09 -3.904152e+09 -4.320121e+01 -1.297950e+01 -3.892717e+01
-3.932943e+09 -3.732942e+09 -3.892942e+09 1.016747e+02 2.590295e+01 -6.124323e+01
-4.099648e+09 -3.899647e+09 -4.059647e+09 1.314864e+01 1.567990e-01 -1.054968e+00
-4.777195e+09 -4.577195e+09 -4.737195e+09 3.552613e+01 -5.213054e+01 -5.782543e+01
-4.060237e+09 -3.860236e+09 -4.020236e+09 4.587472e+00 1.488981e+00 -2.646949e+00
-4.636548e+09 -4.436547e+09 -4.596547e+09 1.919449e+01 2.650214e+00 -1.208981e+00
-3.673512e+09 -3.473512e+09 -3.633512e+09 4.148850e+01 -2.499956e-01 -1.120905e+01
-3.554618e+09 -3.354619e+09 -3.514618e+09 3.628521e+01 1.282228e+01 -3.224783e+01
-3.969611e+09 -3.769610e+09 -3.929611e+09 -9.101968e+02 -4.917599e+00 2.116021e+02
-4.504934e+09 -4.304935e+09 -4.464934e+09 -1.081286e+03 2.254244e+01 -1.581095e+02
-4.146984e+09 -3.946984e+09 -4.106984e+09 -1.273445e+03 2.261014e+02 -9.597008e+01
-4.136690e+09 -3.936689e+09 -4.096689e+09 -4.767922e+02 -2.021882e+01 -5.082201e+01
-4.821439e+09 -4.621439e+09 -4.781439e+09 -1.041729e+03 7.171736e+01 -8.547498e+01
-2.729065e+09 -2.529066e+09 -2.689066e+09 5.824377e+01 1.059863e+01 1.589912e+01
-2.522028e+09 -2.322029e+09 -2.482029e+09 4.385811e+01 3.799442e+00 3.781673e+01
-4.992105e+09 -4.792104e+09 -4.952105e+09 -6.683455e+02 7.727021e+00 -5.209358e+00
-3.961340e+09 -3.761339e+09 -3.921340e+09 -6.284128e+02 -6.523896e+01 5.049676e+01
-4.487984e+09 -4.287985e+09 -4.447985e+09 4.761819e+01 6.809829e+00 -9.841656e+00
-4.094265e+09 -3.894265e+09 -4.054265e+09 5.591744e+01 -4.480975e+00 -2.631403e+01
-4.143095e+09 -3.943096e+09 -4.103096e+09 7.355018e+01 -8.756013e+00 1.437965e+01
-2.163823e+09 -1.963822e+09 -2.123822e+09 -2.814812e+01 -3.193179e+00 -4.420872e+01
-4.859838e+09 -4.659839e+09 -4.819839e+09 3.947356e+01 -4.540444e+00 -4.867609e-01
-3.447779e+09 -3.247780e+09 -3.407780e+09 8.673453e+00 1.301524e+01 -1.604180e+01
-3.254818e+09 -3.054819e+09 -3.214819e+09 1.223935e+02 1.343930e+01 -7.735501e+00
-4.635891e+09 -4.435892e+09 -4.595890e+09 7.552465e+02 3.715705e+01 -3.109009e+02
-3.944153e+09 -3.744151e+09 -3.904152e+09 -2.209141e+02 4.391894e+01 7.748769e+01
-3.942108e+09 -3.742106e+09 -3.902108e+09 -5.487192e+02 9.419276e+01 1.242603e+02
-2.681150e+09 -2.481150e+09 -2.641150e+09 1.239225e+02 6.169765e+00 2.537461e+01
-4.134277e+09 -3.934275e+09 -4.094275e+09 6.304406e+02 -3.564201e+02 7.769141e+01
-2.217987e+09 -2.017987e+09 -2.177987e+09 1.326226e+02 2.311244e+00 3.294172e+00
-4.654928e+09 -4.454929e+09 -4.614929e+09 5.030570e+02 -1.202500e+00 -1.248274e+01
-2.581740e+09 -2.381740e+09 -2.541740e+09 1.301745e+02 6.576419e+00 5.454853e+00
-3.015521e+09 -2.815522e+09 -2.975522e+09 1.381216e+02 9.250744e+00 -9.591972e+00
-4.977251e+09 -4.777252e+09 -4.937248e+09 2.168116e+02 -6.468834e+01 -6.536905e+02
-1.636097e+09 -1.436096e+09 -1.596097e+09 -3.749454e+01 -9.000487e+00 -4.783443e+01
-1.674084e+09 -1.474084e+09 -1.634083e+09 3.641484e+02 -2.549867e+02 5.101255e+01
-4.457689e+09 -4.257690e+09 -4.417688e+09 7.998080e+02 -6.213528e+01 -4.419047e+02
-2.804037e+09 -2.604036e+09 -2.764037e+09 -1.154988e+02 -1.961097e+01 -2.628412e+01
-2.081636e+09 -1.881635e+09 -2.041635e+09 -1.349238e+02 -2.111824e+01 -2.131457e+01
-2.640673e+09 -2.440673e+09 -2.600673e+09 -1.310476e+01 -6.288588e+00 -8.900595e+00
-4.134275e+09 -3.934276e+09 -4.094275e+09 -1.399228e+03 5.120805e+02 -5.232420e+02
-4.134275e+09 -3.934276e+09 -4.094275e+09 -1.191937e+03 3.228792e+02 -2.040353e+02
-2.140968e+09 -1.940968e+09 -2.100968e+09 1.053314e+02 -6.797515e+01 -3.709807e+01
-3.228985e+09 -3.028984e+09 -3.188984e+09 -1.440963e+02 -1.409521e+01 -1.778529e+01
-2.381554e+09 -2.181553e+09 -2.341554e+09 -1.151523e+02 -8.052879e+00 -2.235264e+01
-3.592483e+09 -3.392483e+09 -3.552483e+09 -4.236274e+01 -4.929035e+00 9.812062e-01
-3.803691e+09 -3.603691e+09 -3.763690e+09 2.737074e+02 5.453821e+01 -4.782714e+00
-3.865371e+09 -3.665372e+09 -3.825370e+09 2.629245e+02 -1.841275e+00 7.462763e+00
-3.979222e+09 -3.779226e+09 -3.939223e+09 -2.918990e+02 1.218771e+02 -1.319489e+01
-1.674128e+09 -1.474131e+09 -1.634128e+09 5.524912e+02 6.864030e+01 1.864021e+01
-2.553027e+09 -2.353028e+09 -2.513026e+09 2.139999e+02 2.110607e+01 3.504614e+01
-4.799846e+09 -4.599846e+09 -4.759845e+09 2.551118e+02 -4.342903e+01 1.421129e+01
-3.859960e+09 -3.659961e+09 -3.819959e+09 3.522637e+02 2.733028e+01 -9.115544e+00
-4.325296e+09 -4.125296e+09 -4.285296e+09 1.182560e+03 2.527988e+02 -1.114240e+02
-4.579124e+09 -4.379125e+09 -4.539123e+09 1.569949e+02 4.373639e+00 -7.014201e+00
-3.025402e+09 -2.825402e+09 -2.985401e+09 1.852596e+02 3.445997e+01 9.559791e+00
-3.956109e+09 -3.756111e+09 -3.916109e+09 5.983250e+01 2.778300e+01 2.305169e+01
-4.851785e+09 -4.651787e+09 -4.811786e+09 1.129234e+03 2.246375e+02 -2.968953e+01
-4.753049e+09 -4.553049e+09 -4.713048e+09 1.046929e+02 1.207347e+01 -1.673037e+01
-2.030292e+09 -1.830294e+09 -1.990291e+09 4.504611e+02 6.924377e+01 2.657666e+01
-2.338817e+09 -2.138819e+09 -2.298817e+09 6.062703e+02 1.201231e+02 -4.019624e+00
-2.186209e+09 -1.986211e+09 -2.146209e+09 -2.530256e+01 1.469733e+01 -1.969168e+01
-2.939474e+09 -2.739476e+09 -2.899474e+09 6.127710e+02 7.627985e+01 1.436697e+01
-1.660510e+09 -1.460513e+09 -1.620510e+09 -6.444299e+01 7.744312e+01 -1.817471e+01
-2.958772e+09 -2.758774e+09 -2.918772e+09 3.497895e+02 -7.229517e+00 3.907660e+01
-2.276862e+09 -2.076865e+09 -2.236862e+09 5.152755e+02 1.358985e+02 4.095618e+00
-4.652108e+09 -4.452109e+09 -4.612108e+09 3.791175e+02 1.307998e+01 3.534337e+01
-2.347340e+09 -2.147342e+09 -2.307340e+09 4.701880e+02 7.139478e+01 -1.199613e+01
-3.862024e+09 -3.662028e+09 -3.822025e+09 2.142125e+02 6.502475e+01 -3.915770e+01
-4.485465e+09 -4.285466e+09 -4.445466e+09 3.098623e+02 -4.217445e-01 -3.246248e+01
-4.153133e+09 -3.953137e+09 -4.113134e+09 -5.075893e+02 2.511802e+02 4.354151e+01
-5.004139e+09 -4.804143e+09 -4.964140e+09 -1.759359e+02 3.157815e+00 2.631831e+01
-4.992952e+09 -4.792953e+09 -4.952953e+09 2.178119e+02 -1.396075e+01 -3.337810e+01
-4.164432e+09 -3.964435e+09 -4.124433e+09 3.841058e+02 2.243182e+02 -1.701691e+01
-3.007292e+09 -2.807295e+09 -2.967292e+09 -1.606924e+02 7.987946e+01 -1.793644e+01
-3.332688e+09 -3.132688e+09 -3.292687e+09 -2.435461e+02 -2.730970e+00 -6.037081e+01
-3.164267e+09 -2.964270e+09 -3.124268e+09 2.780118e+02 5.499021e+01 -2.681640e+01
-4.988092e+09 -4.788095e+09 -4.948093e+09 -8.537849e+01 2.880700e+01 -2.068484e+01
-4.060330e+09 -3.860333e+09 -4.020331e+09 1.136407e+00 8.626781e+00 -6.008281e+00
-4.825712e+09 -4.625713e+09 -4.785713e+09 3.783992e+02 1.170766e+01 3.091077e+01
-4.670790e+09 -4.470791e+09 -4.630790e+09 4.567582e+02 9.073279e+00 -7.545501e-01
-1.984611e+09 -1.784611e+09 -1.944611e+09 1.366288e+02 4.191228e+00 -4.543771e+00
-4.142709e+09 -3.942710e+09 -4.102709e+09 5.579567e+02 1.504563e+01 -1.633194e+01
-3.970022e+09 -3.770023e+09 -3.930022e+09 3.681970e+02 7.180674e+00 -1.189714e+01
-4.139246e+09 -3.939247e+09 -4.099247e+09 3.748023e+02 -2.465139e+00 -7.210193e+01
-3.138054e+09 -2.938053e+09 -3.098053e+09 2.783413e+02 9.015056e+01 -1.414312e+01
-2.040794e+09 -1.840794e+09 -2.000793e+09 2.572656e+02 1.298109e+01 2.935375e+01
-4.601036e+09 -4.401037e+09 -4.561037e+09 2.086572e+01 1.796126e+00 -8.592114e+00
-2.915298e+09 -2.715299e+09 -2.875299e+09 -1.904831e+01 3.261277e+00 1.755433e+01
-2.847090e+09 -2.647090e+09 -2.807089e+09 5.780552e+02 1.366819e+02 -1.744866e+01
-2.756317e+09 -2.556317e+09 -2.716316e+09 1.516566e+02 3.137589e+01 2.919353e+01
-1.900303e+09 -1.700302e+09 -1.860302e+09 1.165711e+02 6.214653e+01 2.398730e+01
-4.127776e+09 -3.927773e+09 -4.087778e+09 -3.801472e+02 -8.748935e+02 -1.052424e+03
-3.991974e+09 -3.791973e+09 -3.951973e+09 7.835177e+02 -5.054532e+01 -1.187663e+02
-4.802168e+09 -4.602167e+09 -4.762169e+09 -5.788474e+02 -3.561094e+02 -4.082630e+02
-4.458935e+09 -4.258934e+09 -4.418936e+09 -6.324596e+02 -5.145755e+02 -3.715900e+02
-1.619755e+09 -1.419756e+09 -1.579756e+09 9.576758e+01 1.436023e+01 -6.973242e+00
-4.292964e+09 -4.092962e+09 -4.252966e+09 -4.812945e+02 -6.241083e+02 -4.224167e+02
-3.985197e+09 -3.785197e+09 -3.945199e+09 -8.424394e+02 -8.752295e+02 -4.124020e+02
-2.622440e+09 -2.422441e+09 -2.582440e+09 1.380066e+02 1.290984e+01 -1.119735e+01
-4.693422e+09 -4.493421e+09 -4.653424e+09 -6.631069e+02 -4.808989e+02 -3.051223e+02
-3.467725e+09 -3.267724e+09 -3.427725e+09 -8.474329e+01 -1.754284e+01 1.627060e+00
-4.981476e+09 -4.781476e+09 -4.941476e+09 -1.760879e+02 5.614027e+00 4.404871e+00
-4.528659e+09 -4.328659e+09 -4.488659e+09 -9.095415e+01 -1.162999e+01 -4.377913e+00
-3.781376e+09 -3.581376e+09 -3.741376e+09 -2.262402e+01 -2.082952e+00 -8.801585e+00
-2.102906e+09 -1.902906e+09 -2.062906e+09 -5.111091e+01 -6.537736e+00 3.175758e+00
-3.370142e+09 -3.170143e+09 -3.330143e+09 -1.217327e+01 -1.215278e+01 -6.939445e-01
-1.676613e+09 -1.476614e+09 -1.636614e+09 -1.278136e+02 -9.957782e+00 2.342358e+01
-2.527933e+09 -2.327933e+09 -2.487933e+09 -2.706587e+01 -1.021056e+01 1.884040e+01
-4.995214e+09 -4.795214e+09 -4.955214e+09 -2.592941e+02 2.824919e+00 -9.867371e+00
-2.926683e+09 -2.726684e+09 -2.886683e+09 -9.817163e+01 -1.195547e+01 2.255722e+01
-3.412134e+09 -3.212134e+09 -3.372134e+09 -3.041961e+01 -3.027726e+00 -1.392962e+00
-2.538026e+09 -2.338025e+09 -2.498025e+09 -7.172999e+01 -1.212324e+01 -1.463496e+01
-1.991751e+09 -1.791751e+09 -1.951751e+09 -1.693198e+02 -2.812336e+01 7.411209e+00
-2.894179e+09 -2.694180e+09 -2.854180e+09 -1.209209e+02 -2.418011e+01 1.038033e+01
-2.549552e+09 -2.349553e+09 -2.509553e+09 -1.414897e+01 -2.990101e+01 2.398441e+00
-2.328229e+09 -2.128229e+09 -2.288229e+09 -2.228113e+02 -1.659512e+01 -2.377008e+01
-1.616457e+09 -1.416457e+09 -1.576457e+09 -8.606075e+01 -2.731818e+01 3.259206e+00
-4.132828e+09 -3.932828e+09 -4.092828e+09 -3.005964e+02 5.025328e+00 -2.167505e+01
-2.880411e+09 -2.680411e+09 -2.840411e+09 -2.414913e+02 -3.109468e+01 1.010870e+01
-4.320763e+09 -4.120764e+09 -4.280764e+09 -2.316175e+02 -1.066221e+01 -1.518125e+01
-3.428803e+09 -3.228803e+09 -3.388803e+09 -2.458768e+02 -1.041906e+01 7.938681e+00
-2.673495e+09 -2.473494e+09 -2.633495e+09 -1.767192e+01 -2.896567e+00 -1.038844e+01
-4.375469e+09 -4.175468e+09 -4.335468e+09 -1.853635e+01 -3.134190e+00 -1.027065e+00
-3.417831e+09 -3.217831e+09 -3.377831e+09 -1.920041e+02 -8.647074e+00 -2.501995e+00
-2.520271e+09 -2.320271e+09 -2.480271e+09 -5.599598e+01 -1.621548e+01 -5.576736e+00
-2.792467e+09 -2.592466e+09 -2.752466e+09 -1.759297e+01 -3.321603e+00 -8.791986e+00
-1.904561e+09 -1.704560e+09 -1.864560e+09 -3.483891e+01 -1.351816e+01 -1.033889e+01
-2.161756e+09 -1.961755e+09 -2.121756e+09 -2.658615e+01 -4.269161e+00 -6.136409e+00
-2.139041e+09 -1.939041e+09 -2.099041e+09 -6.069535e+01 -4.887019e+00 -1.486124e+01
-4.907933e+09 -4.707932e+09 -4.867932e+09 -2.421086e+01 8.964837e-10 -2.073577e+00
-4.130079e+09 -3.930079e+09 -4.090079e+09 -4.356993e+01 -1.781192e+00 -1.618803e+01
-3.424448e+09 -3.224452e+09 -3.384449e+09 6.231175e-01 -9.259137e+01 -3.165330e-01
-4.829523e+09 -4.629525e+09 -4.789527e+09 8.498090e+01 -4.845666e+02 1.423782e+01
-4.709741e+09 -4.509740e+09 -4.669740e+09 -2.983613e+01 -2.103221e+01 -7.125042e+00
-4.055629e+09 -3.855629e+09 -4.015629e+09 -7.471859e+01 -1.803128e+01 -8.053501e+00
-4.737239e+09 -4.537238e+09 -4.697238e+09 -1.241394e+02 -7.226492e+01 -2.497730e+01
-3.988936e+09 -3.788936e+09 -3.948936e+09 -5.448681e+01 -1.459630e+01 -6.541491e+00
-4.786702e+09 -4.586702e+09 -4.746702e+09 -3.294160e+01 1.909720e+01 -1.205152e+00
-4.506634e+09 -4.306634e+09 -4.466634e+09 -4.399805e+01 -4.578382e-01 -1.832514e+01
-4.961879e+09 -4.761879e+09 -4.921879e+09 -3.371831e+02 -1.050488e+02 -1.187485e+01
-4.983598e+09 -4.783598e+09 -4.943597e+09 -5.678447e+01 1.427928e+00 6.373924e+00
-3.771409e+09 -3.571410e+09 -3.731409e+09 3.442665e+01 4.019377e+00 -1.084975e+01
-4.167569e+09 -3.967567e+09 -4.127569e+09 -2.303511e+02 -2.882526e+02 -1.612514e+02
-4.688747e+09 -4.488746e+09 -4.648747e+09 -1.859274e+02 -8.309970e+01 2.155933e+01
-2.191419e+09 -1.991418e+09 -2.151419e+09 1.945509e+01 -4.014085e+02 -9.936093e+01
-4.822022e+09 -4.622022e+09 -4.782024e+09 -9.002618e+02 -4.313217e+02 -1.206287e+02
-4.676360e+09 -4.476361e+09 -4.636359e+09 5.142749e+01 4.444836e+00 -1.211777e+01
-3.553265e+09 -3.353265e+09 -3.513264e+09 3.216208e+01 7.044864e+00 1.458472e+01
-4.045993e+09 -3.845994e+09 -4.005993e+09 1.061799e+02 7.134312e+00 -1.496566e+01
-2.496892e+09 -2.296892e+09 -2.456891e+09 1.689963e+02 6.925493e+00 -1.258990e+01
-3.945762e+09 -3.745765e+09 -3.905765e+09 1.196348e+02 1.123741e+01 3.430429e+01
-3.886819e+09 -3.686820e+09 -3.846819e+09 2.026281e+01 5.220798e+00 -9.736318e+00
-3.764479e+09 -3.564478e+09 -3.724478e+09 9.452539e+01 -8.484126e+01 1.369273e+01
-4.943254e+09 -4.743254e+09 -4.903253e+09 8.321390e+01 -3.278330e+00 3.995503e+00
-2.379082e+09 -2.179083e+09 -2.339081e+09 2.352765e+02 3.768605e+01 -3.696501e+01
-4.917801e+09 -4.717802e+09 -4.877800e+09 9.953716e+01 -6.883464e+00 6.843948e-01
-2.225945e+09 -2.025944e+09 -2.185945e+09 -1.754530e+02 1.640188e+02 1.221933e+02
-3.434915e+09 -3.234915e+09 -3.394914e+09 1.116998e+02 1.584956e+01 9.932733e+00
-4.938272e+09 -4.738273e+09 -4.898272e+09 3.656155e+01 -1.171787e+01 -8.756547e+00
-4.938272e+09 -4.738273e+09 -4.898272e+09 7.729729e+01 -2.153501e+01 -1.659539e+01
-4.550810e+09 -4.350811e+09 -4.510810e+09 1.380734e+02 3.420845e+01 4.867285e+00
-3.369381e+09 -3.169384e+09 -3.329383e+09 -2.967614e+01 2.659281e+01 9.199024e+01
-4.994770e+09 -4.794771e+09 -4.954770e+09 -8.656927e+02 -1.895575e+01 3.452122e+01
-4.322348e+09 -4.122351e+09 -4.282349e+09 -7.544659e+02 1.158551e+02 4.057969e+01
-4.707062e+09 -4.507061e+09 -4.667061e+09 6.408840e+00 3.978691e+00 -3.430429e+00
-1.912140e+09 -1.712139e+09 -1.872139e+09 3.167862e+00 -3.673300e+00 -2.312807e+01
-4.966457e+09 -4.766456e+09 -4.926456e+09 -4.916103e+00 1.345711e+00 -8.080931e+00
-3.717636e+09 -3.517635e+09 -3.677635e+09 2.628056e+01 9.176075e+00 -1.902402e+01
-3.070376e+09 -2.870376e+09 -3.030376e+09 3.719114e+01 7.848978e+00 -1.584432e+01
-4.813838e+09 -4.613840e+09 -4.773838e+09 -5.625944e+02 -6.266997e+01 -3.365679e+01
-4.310420e+09 -4.110422e+09 -4.270420e+09 -6.494830e+02 6.460057e+01 -5.086962e+00
-4.892337e+09 -4.692337e+09 -4.852337e+09 1.847533e+01 -3.139772e-10 -9.516867e-01
-4.311958e+09 -4.111960e+09 -4.271958e+09 -4.730866e+02 3.237881e+01 -1.488368e+01
-2.228661e+09 -2.028660e+09 -2.188661e+09 3.096508e+01 7.974666e+00 -1.112670e+01
-1.623447e+09 -1.423446e+09 -1.583446e+09 2.182145e+01 3.209257e+00 -2.344425e+00
-4.907947e+09 -4.707947e+09 -4.867947e+09 1.337231e+01 1.243452e-04 9.756604e-01
-3.975629e+09 -3.775631e+09 -3.935629e+09 -5.498824e+02 4.104935e+01 -4.019681e+01
-4.146736e+09 -3.946737e+09 -4.106736e+09 -5.880724e+02 8.593593e+01 3.152811e+01
-4.838238e+09 -4.638239e+09 -4.798238e+09 -6.082021e+02 1.193533e+02 3.753233e+01
-4.141214e+09 -3.941216e+09 -4.101214e+09 -8.238727e+02 1.663735e+02 6.580281e+01
-4.484657e+09 -4.284659e+09 -4.444657e+09 -6.643138e+02 6.139781e+01 -2.714511e+00
-4.980624e+09 -4.780623e+09 -4.940623e+09 -1.668744e+01 -2.894353e+00 -4.331781e+00
-4.647075e+09 -4.447075e+09 -4.607075e+09 -1.715170e+01 -8.402886e+00 5.057384e+00
-4.459057e+09 -4.259056e+09 -4.419057e+09 -2.901685e+01 -8.766769e+00 -3.316828e+00
-3.209081e+09 -3.009081e+09 -3.169081e+09 -1.087331e+02 -5.096727e+00 -6.099917e+00
-4.289744e+09 -4.089743e+09 -4.249743e+09 -3.219615e+01 2.963439e+00 5.042088e-01
-2.673337e+09 -2.473337e+09 -2.633337e+09 -8.259762e+01 -4.632025e+00 -5.641569e+00
-2.164111e+09 -1.964111e+09 -2.124111e+09 -1.365765e+01 6.836238e-01 -2.038512e+00
-2.769704e+09 -2.569704e+09 -2.729704e+09 -3.302752e+01 -1.775039e+01 2.440861e+01
-4.148866e+09 -3.948867e+09 -4.108864e+09 2.888049e+03 9.990160e+02 1.897205e+03
-3.356856e+09 -3.156854e+09 -3.316855e+09 -2.789092e+02 -4.581889e+02 -2.543440e+02
-4.837602e+09 -4.637599e+09 -4.797603e+09 3.721855e+02 -1.360273e+02 -4.178837e+01
-3.973874e+09 -3.773872e+09 -3.933876e+09 1.141054e+03 -6.559353e+01 -6.208444e+02
-4.311160e+09 -4.111159e+09 -4.271162e+09 1.278175e+03 -1.060035e+02 -2.643972e+02
-4.814795e+09 -4.614795e+09 -4.774797e+09 1.308915e+03 -2.384584e+01 -3.118652e+01
-4.672442e+09 -4.472441e+09 -4.632441e+09 -5.047232e+01 2.665976e+01 3.262066e-01
-4.967374e+09 -4.767373e+09 -4.927373e+09 -4.132437e+02 -5.012247e+01 -3.785464e+01
-4.785013e+09 -4.585014e+09 -4.745012e+09 2.753968e+02 4.930833e+01 1.799720e+00
-3.833989e+09 -3.633989e+09 -3.793988e+09 1.788159e+02 8.861967e+00 1.764689e+01
-4.149428e+09 -3.949429e+09 -4.109428e+09 2.423843e+03 7.549357e+02 1.257544e+02
-5.001422e+09 -4.801423e+09 -4.961423e+09 1.759933e+03 -4.487595e+01 1.155306e+02
-4.128330e+09 -3.928329e+09 -4.088331e+09 1.398596e+03 9.441352e+00 -3.287225e+02
-3.172155e+09 -2.972154e+09 -3.132154e+09 1.446171e+01 2.869633e-01 -1.395605e+01
-4.661758e+09 -4.461759e+09 -4.621758e+09 7.307938e+01 -2.386444e+01 1.713882e+01
-3.116174e+09 -2.916174e+09 -3.076173e+09 5.229362e+02 6.890547e+01 1.852252e+01
-2.950783e+09 -2.750784e+09 -2.910782e+09 8.343707e+01 1.985456e+01 2.978211e+00
-4.776513e+09 -4.576514e+09 -4.736513e+09 1.832473e+02 -1.664508e+01 2.437472e+01
-3.626612e+09 -3.426612e+09 -3.586611e+09 1.139370e+02 -1.622747e+01 4.944161e+00
-3.251907e+09 -3.051907e+09 -3.211907e+09 2.456248e+00 1.101323e-01 -2.690316e+00
-3.055125e+09 -2.855125e+09 -3.015125e+09 1.002806e+01 1.095167e+01 -1.037089e+01
-3.591250e+09 -3.391251e+09 -3.551249e+09 2.755033e+02 -1.415268e+01 3.038367e+01
-2.899605e+09 -2.699604e+09 -2.859605e+09 -2.914099e+00 -2.685852e-02 -1.280298e+01
-4.145084e+09 -3.945084e+09 -4.105083e+09 -6.913013e+02 1.311176e+01 5.308042e-01
-1.899964e+09 -1.699964e+09 -1.859964e+09 7.586983e+00 1.378986e-02 -1.151969e+01
-2.697936e+09 -2.497936e+09 -2.657936e+09 4.799082e+00 2.998654e+00 -1.019799e+01
-2.870218e+09 -2.670217e+09 -2.830217e+09 2.926914e+01 4.974247e+00 -1.619598e+01
-4.820742e+09 -4.620742e+09 -4.780742e+09 1.723467e+02 -2.317803e+00 2.223537e-01
-2.834156e+09 -2.634156e+09 -2.794156e+09 8.429097e-01 -7.571602e+00 -1.106282e+01
-1.928992e+09 -1.728991e+09 -1.888991e+09 6.285688e+00 1.481446e-01 -1.653132e+01
-4.024200e+09 -3.824200e+09 -3.984200e+09 2.914219e+01 -3.233442e+00 -1.634704e+01
-2.710993e+09 -2.510992e+09 -2.670992e+09 -9.383993e+00 -1.185178e+01 -1.015023e+01
-2.149563e+09 -1.949563e+09 -2.109563e+09 2.627952e+01 6.293174e+00 -5.660184e+00
-4.890118e+09 -4.690118e+09 -4.850118e+09 2.015033e+01 -4.973705e-05 2.609205e+00
-3.911853e+09 -3.711854e+09 -3.871855e+09 6.730123e+02 -4.489243e+01 -1.016357e+02
-2.648425e+09 -2.448426e+09 -2.608427e+09 2.030283e+02 -1.120552e+02 1.463748e+02
-3.798060e+09 -3.598060e+09 -3.758061e+09 3.327906e+02 -1.287177e+02 -1.008318e+02
-1.819114e+09 -1.619115e+09 -1.779113e+09 1.729490e+02 2.764467e+01 4.049095e+01
-4.423639e+09 -4.223640e+09 -4.383638e+09 -1.557129e+01 2.003695e-01 -2.955745e+01
-2.548210e+09 -2.348212e+09 -2.508210e+09 1.996918e+02 3.645867e+01 9.485943e+00
-2.883161e+09 -2.683164e+09 -2.843161e+09 1.881930e+02 7.098700e+01 -8.603242e-01
-4.639916e+09 -4.439915e+09 -4.599915e+09 -2.424528e+00 -2.917382e+00 -5.806911e-01
-1.892038e+09 -1.692040e+09 -1.852038e+09 4.869231e+02 9.539615e+01 -1.394992e+01
-3.063991e+09 -2.863993e+09 -3.023991e+09 3.807465e+02 4.011338e+01 2.379490e+01
-1.902207e+09 -1.702209e+09 -1.862207e+09 4.542076e+02 -1.172811e+01 5.314529e+01
-2.514700e+09 -2.314703e+09 -2.474703e+09 5.672791e+02 4.233591e+01 1.792423e+02
-4.953011e+09 -4.753013e+09 -4.913013e+09 1.012083e+03 -1.724215e+02 -2.781149e+02
-4.910279e+09 -4.710284e+09 -4.870282e+09 4.680073e+01 -7.207781e-01 3.394041e+01
-2.460700e+09 -2.260702e+09 -2.420703e+09 2.721638e+02 -5.955792e+01 -7.609922e+01
-2.152991e+09 -1.952995e+09 -2.112995e+09 1.435197e+03 2.200742e+02 4.780349e+02
-2.582538e+09 -2.382541e+09 -2.542541e+09 9.838753e+02 4.306383e+01 4.143410e+02
-2.557020e+09 -2.357024e+09 -2.517023e+09 1.664535e+03 5.827091e+02 1.262942e+03
-4.976023e+09 -4.776027e+09 -4.936025e+09 -3.538914e+02 -4.366563e+01 1.065757e+02
-3.881045e+09 -3.681046e+09 -3.841046e+09 -5.384032e+02 8.338212e+01 -3.434467e+01
-3.678768e+09 -3.478772e+09 -3.638772e+09 1.228156e+02 3.594628e+01 -2.745532e+01
-1.778109e+09 -1.578113e+09 -1.738114e+09 9.031050e+01 -1.640993e+01 2.372602e+02
-1.552189e+09 -1.352193e+09 -1.512193e+09 8.930687e+02 -3.248723e+00 4.146535e+02
-4.488092e+09 -4.288094e+09 -4.448092e+09 -6.395049e+02 6.064564e+01 1.766961e+01
-4.341312e+09 -4.141315e+09 -4.301313e+09 -4.828520e+02 1.143792e+02 2.634511e+01
-4.465884e+09 -4.265887e+09 -4.425885e+09 -5.358347e+02 3.562120e+01 -5.945832e+00
-4.156712e+09 -3.956715e+09 -4.116713e+09 -5.590919e+02 1.034666e+02 -7.254137e+00
-5.008921e+09 -4.808924e+09 -4.968921e+09 -4.742916e+02 -2.203000e+01 1.257929e+01
-4.809117e+09 -4.609120e+09 -4.769118e+09 -4.488092e+02 9.715929e+01 1.786446e+01
-4.624991e+09 -4.424989e+09 -4.584992e+09 4.840676e+02 -2.301118e+02 -2.944530e+02
-3.403074e+09 -3.203073e+09 -3.363074e+09 -1.123118e+02 -3.118042e+02 -6.794682e+01
-2.868424e+09 -2.668425e+09 -2.828425e+09 -4.434460e+01 -1.195894e+02 -3.365765e+01
-2.951706e+09 -2.751707e+09 -2.911705e+09 7.562736e+01 -1.310810e+01 1.029238e+01
-4.792120e+09 -4.592121e+09 -4.752121e+09 5.565556e+01 1.144326e+01 -5.283468e+00
-2.659261e+09 -2.459263e+09 -2.619261e+09 7.768179e+01 4.502099e+01 4.830081e+00
-3.014509e+09 -2.814510e+09 -2.974508e+09 1.700137e+02 1.222833e+01 6.838775e+00
-4.394750e+09 -4.194751e+09 -4.354749e+09 4.135873e+01 2.156291e+00 2.272148e+01
-4.361030e+09 -4.161034e+09 -4.321033e+09 1.616788e+02 6.484994e+01 5.357326e+01
-3.417204e+09 -3.217208e+09 -3.377207e+09 3.203296e+02 4.953098e+01 3.428484e+02
-3.116529e+09 -2.916533e+09 -3.076532e+09 9.702566e+02 3.668394e+02 2.770869e+02
-1.746515e+09 -1.546516e+09 -1.706514e+09 2.121084e+02 -3.517060e+01 1.646233e+01
-4.544271e+09 -4.344272e+09 -4.504270e+09 2.626950e+02 5.527386e-01 1.651581e-01
-4.951365e+09 -4.751363e+09 -4.911365e+09 1.291517e+02 -1.905411e+01 6.406313e+01
-3.414687e+09 -3.214688e+09 -3.374686e+09 8.646094e+01 -1.633395e-01 9.763456e+00
-4.785224e+09 -4.585223e+09 -4.745225e+09 6.964843e+02 -2.592866e+01 7.150657e+01
-3.647174e+09 -3.447175e+09 -3.607174e+09 2.310145e+02 3.410629e+01 -2.029027e+01
-4.974963e+09 -4.774964e+09 -4.934965e+09 1.135266e+03 -2.830244e+02 -2.747550e+02
-1.597382e+09 -1.397384e+09 -1.557382e+09 6.745140e+02 -5.448327e+02 9.138300e+01
-4.609694e+09 -4.409695e+09 -4.569694e+09 6.232537e+01 6.503908e+00 -1.440910e+01
-4.315042e+09 -4.115039e+09 -4.275008e+09 -2.643954e+01 1.320706e+03 5.845984e+02
-3.396754e+09 -3.196755e+09 -3.356755e+09 -5.339378e+01 -4.102327e+00 6.531842e+00
-4.807109e+09 -4.607106e+09 -4.767080e+09 2.218106e+02 3.716473e+02 3.128751e+02
-4.120646e+09 -3.920639e+09 -4.080605e+09 -8.629351e+02 1.840005e+03 7.164871e+02
-3.817318e+09 -3.617318e+09 -3.777318e+09 8.601266e+00 -5.638423e+00 -5.095011e+00
-3.960422e+09 -3.760422e+09 -3.920422e+09 -1.500822e+01 -3.166476e+01 -2.520341e+01
-4.867708e+09 -4.667704e+09 -4.827694e+09 -1.422868e+03 5.637075e+02 -6.909921e+01
-3.803044e+09 -3.603044e+09 -3.763044e+09 3.561541e+01 -2.739437e+01 5.960414e+00
-4.709597e+09 -4.509596e+09 -4.669596e+09 -6.173007e+00 2.129017e+01 -1.420758e+01
-4.706645e+09 -4.506648e+09 -4.666647e+09 1.004113e+02 2.099229e+01 -4.141494e+01
-2.631660e+09 -2.431663e+09 -2.591661e+09 2.423677e+02 -2.813829e+02 6.647246e+01
-2.767390e+09 -2.567393e+09 -2.727391e+09 3.444090e+02 -4.965692e+02 8.320990e+01
-3.630619e+09 -3.430618e+09 -3.590618e+09 1.970885e+01 -2.052399e+01 -2.854866e+01
-4.179458e+09 -3.979458e+09 -4.139458e+09 2.206601e+01 -6.715791e+00 -7.064255e-01
-1.584032e+09 -1.384032e+09 -1.544032e+09 -3.655745e+01 2.349860e+01 -7.632776e+01
-4.708850e+09 -4.508854e+09 -4.668852e+09 1.775350e+01 -2.111858e+01 -4.273407e+01
-4.691472e+09 -4.491472e+09 -4.651473e+09 2.772140e+02 -5.644566e+01 -1.564085e+02
-3.934178e+09 -3.734182e+09 -3.894181e+09 4.228132e+02 -5.642647e+02 1.185355e+02
-3.930658e+09 -3.730660e+09 -3.890659e+09 6.696348e+02 -3.816098e+02 1.558066e+02
-4.438662e+09 -4.238664e+09 -4.398663e+09 3.350659e+01 -3.020051e+01 1.677585e+01
-3.980877e+09 -3.780877e+09 -3.940878e+09 9.223191e+02 -8.896003e+01 -9.380535e+01
-4.981036e+09 -4.781035e+09 -4.941035e+09 2.453349e+02 -6.927438e+01 3.712837e+01
-4.059836e+09 -3.859836e+09 -4.019837e+09 4.025291e+02 -9.212804e+01 -2.359846e+01
-4.980502e+09 -4.780505e+09 -4.940504e+09 2.284678e+02 -7.148463e+01 1.714330e+01
-3.479969e+09 -3.279972e+09 -3.439971e+09 4.290827e+02 -1.108123e+03 2.110143e+02
-3.992421e+09 -3.792424e+09 -3.952422e+09 3.246705e+02 -3.236464e+02 5.358606e+01
-2.083980e+09 -1.883980e+09 -2.043980e+09 -6.691503e+01 -1.206289e+01 6.588866e+00
-1.616457e+09 -1.416457e+09 -1.576457e+09 -1.488374e+02 -2.356377e+01 1.449299e+01
-4.363371e+09 -4.163371e+09 -4.323372e+09 6.691045e+02 3.081555e+00 5.736841e+01
-4.132074e+09 -3.932074e+09 -4.092074e+09 -3.106288e+00 -2.366074e+00 -3.412215e+01
-3.884918e+09 -3.684918e+09 -3.844918e+09 -4.428124e+00 4.014254e+00 -1.300251e+00
-4.347772e+09 -4.147771e+09 -4.307772e+09 -4.456340e+01 -1.042633e+01 1.988037e+01
-4.477384e+09 -4.277383e+09 -4.437383e+09 7.917288e+01 3.334025e+00 -5.585775e+00
-4.818540e+09 -4.618539e+09 -4.778539e+09 -1.386678e+01 1.451688e+01 8.973306e+00
-2.224180e+09 -2.024180e+09 -2.184180e+09 -4.553702e+01 -5.486896e+00 -9.622561e-01
-4.134284e+09 -3.934283e+09 -4.094284e+09 1.520200e+01 1.838692e+01 -3.260149e+00
-4.106579e+09 -3.906580e+09 -4.066580e+09 -2.560249e+02 -2.203612e+01 1.617549e+01
-2.098354e+09 -1.898356e+09 -2.058354e+09 1.044469e+02 -1.733431e+01 -1.678897e+01
-3.973657e+09 -3.773656e+09 -3.933656e+09 -2.241586e+02 -3.169591e+01 -2.090741e+01
-4.047086e+09 -3.847088e+09 -4.007086e+09 5.405392e+02 8.117074e+01 -1.241241e+01
-2.476612e+09 -2.276613e+09 -2.436611e+09 1.064697e+02 1.406213e+01 3.331636e+01
-5.015537e+09 -4.815536e+09 -4.975536e+09 4.801770e+01 4.044047e+00 -2.497404e+01
-4.580627e+09 -4.380627e+09 -4.540627e+09 2.934372e+01 1.332899e+01 -1.930018e+01
-4.960788e+09 -4.760787e+09 -4.920787e+09 6.004283e+01 -5.112071e+00 -1.086377e+00
-4.496506e+09 -4.296508e+09 -4.456506e+09 2.083680e+02 1.135275e+01 1.108570e+01
-4.789884e+09 -4.589884e+09 -4.749884e+09 7.947767e+01 9.197099e-01 -3.661114e+00
-3.985838e+09 -3.785838e+09 -3.945838e+09 1.067909e+02 2.127806e+01 2.026017e+01
-3.374176e+09 -3.174178e+09 -3.334176e+09 1.448001e+02 -5.362693e+01 1.396031e+01
-2.221366e+09 -2.021365e+09 -2.181365e+09 5.966555e+01 -1.823475e+01 -5.586504e+01
-3.858888e+09 -3.658888e+09 -3.818888e+09 9.611474e+01 1.368283e+01 4.576958e+00
-3.006902e+09 -2.806904e+09 -2.966901e+09 1.519114e+02 -8.767869e+00 2.529574e+01
-4.981063e+09 -4.781063e+09 -4.941063e+09 -3.373735e+01 -2.612811e+00 2.943992e+00
-3.968747e+09 -3.768746e+09 -3.928746e+09 -6.636541e+00 -1.367568e+01 -2.440233e+01
-4.960869e+09 -4.760868e+09 -4.920868e+09 -2.538652e+00 -3.976080e+00 2.894453e+00
-3.268305e+09 -3.068305e+09 -3.228305e+09 -8.438528e+01 1.959175e+01 -1.641075e+01
-5.000460e+09 -4.800460e+09 -4.960460e+09 1.528559e+02 -7.387285e+00 1.168594e-01
-3.880598e+09 -3.680599e+09 -3.840598e+09 -5.010575e+02 1.182603e+02 -1.922553e+01
-3.055183e+09 -2.855182e+09 -3.015182e+09 -8.734454e+01 2.452864e+01 -3.716945e+01
-4.043416e+09 -3.843416e+09 -4.003416e+09 -1.493594e+02 5.811089e+00 -2.695883e+01
-3.679136e+09 -3.479136e+09 -3.639135e+09 -3.959388e+01 -2.541646e+01 -4.318876e+01
-4.646721e+09 -4.446717e+09 -4.606722e+09 -5.227844e+01 2.427712e+02 3.612832e+02
-4.646721e+09 -4.446718e+09 -4.606722e+09 6.836774e+01 9.043216e+02 1.644851e+02
-4.489939e+09 -4.289935e+09 -4.449939e+09 -4.899555e+02 3.911040e+02 4.672849e+02
-4.058673e+09 -3.858673e+09 -4.018674e+09 1.263617e+03 2.027136e+02 -3.781969e+00
-3.912531e+09 -3.712531e+09 -3.872533e+09 1.438115e+03 -3.205228e+01 -4.436065e+02
-4.181769e+09 -3.981773e+09 -4.141772e+09 -7.073472e+02 -3.610136e+01 1.501852e+02
-4.132282e+09 -3.932280e+09 -4.092283e+09 1.412534e+03 9.385459e+02 -4.127426e+02
-4.953662e+09 -4.753660e+09 -4.913662e+09 5.479753e+02 -1.092052e+01 -7.773849e+00
-4.782796e+09 -4.582795e+09 -4.742795e+09 7.840417e+02 -3.316410e+01 5.386537e+01
-4.994574e+09 -4.794573e+09 -4.954574e+09 -7.220417e+01 7.756138e+01 -5.520636e+01
-4.446860e+09 -4.246859e+09 -4.406860e+09 1.546029e+02 7.844399e+01 -2.425458e+01
-3.961006e+09 -3.761007e+09 -3.921008e+09 2.244514e+03 1.185214e+03 -6.542600e+02
-3.967138e+09 -3.767137e+09 -3.927138e+09 1.312538e+03 3.094034e+02 -1.585862e+02
-4.096345e+09 -3.896342e+09 -4.056344e+09 4.411430e+02 1.374630e+02 -8.376850e+01
-3.959707e+09 -3.759705e+09 -3.919708e+09 1.501415e+03 8.592482e+02 -6.061163e+02
-4.277767e+09 -4.077764e+09 -4.237775e+09 1.074239e+03 3.035552e+03 -2.029480e+03
-1.897339e+09 -1.697342e+09 -1.857342e+09 -6.003904e+02 7.481677e+01 1.576206e+02
-4.598997e+09 -4.398997e+09 -4.558998e+09 8.850544e+02 -8.615781e+01 -2.704809e+02
-4.014676e+09 -3.814675e+09 -3.974677e+09 6.699519e+02 -2.479785e+02 -4.013912e+02
-4.572614e+09 -4.372613e+09 -4.532615e+09 7.653880e+02 -5.400238e+01 -1.379153e+02
-4.478839e+09 -4.278838e+09 -4.438838e+09 1.121875e+02 -2.206073e+00 -1.793208e+01
-3.605021e+09 -3.405021e+09 -3.565021e+09 1.150506e+01 3.249134e-01 -1.672297e+01
-4.843403e+09 -4.643402e+09 -4.803405e+09 1.299994e+03 -3.323481e+01 -1.524089e+02
-4.154788e+09 -3.954788e+09 -4.114789e+09 1.836751e+03 2.068546e+02 5.849696e+02
-4.762355e+09 -4.562353e+09 -4.722356e+09 7.683001e+02 -5.675563e+01 -1.044142e+02
-4.812060e+09 -4.612060e+09 -4.772059e+09 -6.782250e+01 1.970179e+01 -9.567113e-02
-2.492366e+09 -2.292369e+09 -2.452367e+09 -1.380775e+02 -1.244509e+01 -3.239426e+01
-1.662267e+09 -1.462267e+09 -1.622266e+09 -2.499829e+01 -1.995259e+01 -7.535163e+01
-4.591097e+09 -4.391096e+09 -4.551096e+09 2.924457e+01 2.685876e+00 -2.850556e+00
-4.965682e+09 -4.765682e+09 -4.925682e+09 -4.992573e+01 -4.537398e+00 3.591680e+00
-4.031164e+09 -3.831167e+09 -3.991164e+09 -1.426117e+02 4.036957e+01 7.207881e+00
-1.862814e+09 -1.662817e+09 -1.822818e+09 8.620447e+02 -5.726092e+01 4.205956e+02
-4.981829e+09 -4.781835e+09 -4.941831e+09 -9.831014e+01 -4.278089e+01 2.246423e+02
-2.511674e+09 -2.311677e+09 -2.471677e+09 -2.327817e+01 1.560295e+02 1.178609e+02
-3.959028e+09 -3.759029e+09 -3.919027e+09 -2.467613e+03 -6.909436e+02 1.041859e+03
-4.138403e+09 -3.938400e+09 -4.098404e+09 1.231450e+03 -1.501467e+02 -6.183080e+02
-4.711744e+09 -4.511746e+09 -4.671744e+09 -8.077695e+01 4.466598e+01 3.765147e+00
-4.724783e+09 -4.524786e+09 -4.684784e+09 -6.745027e+01 -2.883645e+01 -6.972725e+00
-4.818196e+09 -4.618196e+09 -4.778195e+09 -1.232970e+02 2.480168e+01 4.078192e+00
-4.993710e+09 -4.793704e+09 -4.953712e+09 4.758070e+02 -7.532591e+02 -3.943929e+02
-4.985936e+09 -4.785936e+09 -4.945935e+09 -1.142705e+02 3.614231e+01 1.855673e+01
-4.135693e+09 -3.935691e+09 -4.095693e+09 2.011009e+03 1.040026e+02 3.140308e+01
-3.962575e+09 -3.762572e+09 -3.922578e+09 -3.028894e+02 -8.958935e+02 -9.373796e+02
-4.983338e+09 -4.783334e+09 -4.943344e+09 -1.041983e+03 -1.343240e+03 -2.103875e+01
-4.646522e+09 -4.446522e+09 -4.606521e+09 -7.193856e+01 5.448399e+00 -2.986603e+01
-4.138096e+09 -3.938095e+09 -4.098095e+09 -6.654858e+01 4.294811e+01 3.318825e+00
-4.986373e+09 -4.786375e+09 -4.946375e+09 -6.278026e+02 -2.622260e+02 2.340930e+01
-4.990733e+09 -4.790735e+09 -4.950734e+09 -5.309264e+02 -1.904014e+02 1.311884e+01
-1.642319e+09 -1.442322e+09 -1.602319e+09 -4.924100e+02 -3.805904e+02 2.909100e+00
-4.992273e+09 -4.792269e+09 -4.952276e+09 5.998338e+02 -5.401263e+02 -4.712902e+02
-3.667247e+09 -3.467250e+09 -3.627248e+09 -3.080626e+02 -9.633761e+01 -1.166751e+02
-4.326631e+09 -4.126631e+09 -4.286631e+09 2.872088e+01 -2.366210e+00 -2.254499e+00
-3.981766e+09 -3.781765e+09 -3.941770e+09 -9.998988e+02 -1.389765e+03 -6.717532e+02
-4.134151e+09 -3.934150e+09 -4.094151e+09 3.553206e+01 3.063716e+01 4.155418e+00
-4.824561e+09 -4.624561e+09 -4.784561e+09 -3.821537e+01 -2.366966e+01 -2.690636e+01
-3.941432e+09 -3.741431e+09 -3.901433e+09 -7.971864e+02 -5.274069e+02 -3.891609e+02
-4.159468e+09 -3.959467e+09 -4.119470e+09 -8.699691e+02 -9.946926e+02 -5.645242e+02
-5.011464e+09 -4.811463e+09 -4.971468e+09 -4.951659e+02 -7.092855e+02 -4.472984e+02
-4.967724e+09 -4.767725e+09 -4.927724e+09 1.514651e+02 -2.498747e+01 1.302110e+01
-4.995983e+09 -4.795982e+09 -4.955986e+09 2.956723e+02 -4.706620e+02 2.829317e+02
-4.994426e+09 -4.794427e+09 -4.954427e+09 -3.114132e+02 -8.122861e+00 -1.512266e+01
-4.822478e+09 -4.622479e+09 -4.782479e+09 -4.001918e+02 -2.290171e+01 3.301705e+01
-5.007577e+09 -4.807576e+09 -4.967577e+09 -2.468972e+02 -1.960107e+01 2.466885e+01
-3.957953e+09 -3.757954e+09 -3.917954e+09 -3.983751e+02 -1.340762e+00 2.864426e+01
-5.006625e+09 -4.806624e+09 -4.966624e+09 -1.229828e+02 -4.672307e+01 5.160072e+01
-4.280804e+09 -4.080803e+09 -4.240804e+09 -9.448369e+02 -9.302361e+01 2.216888e+02
-4.817153e+09 -4.617153e+09 -4.777153e+09 -4.902094e+02 -1.859920e+01 4.205509e+01
-4.640830e+09 -4.440831e+09 -4.600831e+09 -4.764814e+02 -6.252855e+00 2.675303e+01
-4.123874e+09 -3.923875e+09 -4.083875e+09 -4.779557e+02 -1.031775e+01 4.152212e+01
-4.283444e+09 -4.083443e+09 -4.243444e+09 -4.788291e+02 -1.449752e+02 2.022400e+02
-4.819514e+09 -4.619513e+09 -4.779513e+09 -5.361995e+02 -6.714617e-01 -6.897407e+01
-4.133846e+09 -3.933845e+09 -4.093846e+09 -4.443413e+02 -5.392628e+01 -2.031727e+01
-4.993454e+09 -4.793453e+09 -4.953454e+09 -4.053013e+02 -1.361734e+01 3.056419e+01
-4.134702e+09 -3.934703e+09 -4.094703e+09 -3.851510e+02 4.695267e+00 -7.895086e+01
-4.990832e+09 -4.790832e+09 -4.950832e+09 -4.670179e+02 3.231278e+00 1.292556e+01
-4.825238e+09 -4.625238e+09 -4.785238e+09 -4.549055e+02 6.787311e+00 -2.610414e+01
-3.960712e+09 -3.760713e+09 -3.920713e+09 -5.574290e+02 -1.451233e+01 3.927329e+01
-3.967032e+09 -3.767032e+09 -3.927032e+09 1.869385e+02 3.022354e+00 -2.939485e+01
-4.149720e+09 -3.949719e+09 -4.109720e+09 -9.558609e+01 -1.655464e+02 2.427647e+02
-4.142705e+09 -3.942705e+09 -4.102705e+09 2.214310e+02 1.226743e+01 -3.135433e+00
-4.300147e+09 -4.100147e+09 -4.260147e+09 2.415737e+02 -5.705656e+00 -2.014938e+01
-4.268225e+09 -4.068225e+09 -4.228225e+09 2.048008e+02 1.536282e+00 -8.582564e+00
-4.611457e+09 -4.411457e+09 -4.571458e+09 2.048919e+02 1.390043e+01 1.743486e+01
-4.995327e+09 -4.795326e+09 -4.955327e+09 3.749132e+02 -1.802875e+02 1.297294e+02
-3.956835e+09 -3.756833e+09 -3.916837e+09 4.474186e+00 -5.949065e+02 9.297466e+02
-4.995327e+09 -4.795326e+09 -4.955327e+09 2.615830e+02 -1.911292e+02 1.309941e+02
-4.139538e+09 -3.939535e+09 -4.099538e+09 -2.414489e+03 6.874327e+02 3.105405e+02
-3.950544e+09 -3.750542e+09 -3.910545e+09 -8.814708e+02 -2.161138e+02 7.039868e+02
-4.834898e+09 -4.634892e+09 -4.794900e+09 -1.248862e+03 -9.536800e+02 4.928747e+02
-4.605958e+09 -4.405957e+09 -4.565959e+09 -1.170379e+01 -1.601222e+02 3.171388e+02
-4.649115e+09 -4.449114e+09 -4.609119e+09 -2.139600e+01 -3.849300e+02 5.644916e+02
-4.128628e+09 -3.928628e+09 -4.088628e+09 2.048019e+02 2.316771e+00 -4.201716e+00
-4.132893e+09 -3.932894e+09 -4.092896e+09 -1.121635e+03 -9.495346e+02 -4.389923e+02
-4.647665e+09 -4.447665e+09 -4.607668e+09 -9.014891e+02 -3.724437e+02 -1.130915e+02
-4.659122e+09 -4.459123e+09 -4.619123e+09 3.756104e+02 1.330712e+01 1.626442e+01
-3.963254e+09 -3.763255e+09 -3.923254e+09 2.038526e+02 1.489138e+01 -1.430951e+01
-3.941404e+09 -3.741405e+09 -3.901405e+09 -1.158394e+03 -6.412401e+02 -3.783711e+02
-4.627869e+09 -4.427870e+09 -4.587870e+09 -7.529440e+02 -5.221513e+02 -4.090287e+01
-3.956315e+09 -3.756316e+09 -3.916316e+09 -3.850575e+01 1.134966e+01 -1.997632e+01
-4.989649e+09 -4.789650e+09 -4.949650e+09 1.997469e+02 -1.243904e+01 -4.425915e+01
-4.821233e+09 -4.621233e+09 -4.781234e+09 -8.089693e+02 -2.393612e+02 -1.933482e+02
-4.655094e+09 -4.455095e+09 -4.615094e+09 2.523898e+02 7.847667e+00 5.323998e+00
-3.941404e+09 -3.741404e+09 -3.901405e+09 -9.183812e+02 -6.136333e+02 -2.441018e+02
-4.311861e+09 -4.111862e+09 -4.271862e+09 2.527592e+02 4.145722e-01 -5.208173e+01
-4.501403e+09 -4.301403e+09 -4.461406e+09 -1.037220e+03 -1.012160e+03 -3.060218e+02
-4.128193e+09 -3.928194e+09 -4.088194e+09 3.049377e+01 1.216937e+01 1.208474e+01
-4.976036e+09 -4.776037e+09 -4.936037e+09 6.755815e+02 -3.412626e+01 -7.041318e+01
-4.478789e+09 -4.278789e+09 -4.438791e+09 -7.672596e+02 -5.824942e+02 -2.433402e+02
-3.484949e+09 -3.284948e+09 -3.444948e+09 -9.876234e+01 -8.470765e+01 3.863809e+00
-4.814659e+09 -4.614660e+09 -4.774659e+09 2.748320e+01 2.374107e+00 -4.297427e+01
-3.684418e+09 -3.484417e+09 -3.644417e+09 -1.359668e+01 -3.404988e+00 3.717691e+00
-4.607266e+09 -4.407265e+09 -4.567265e+09 -5.195982e+01 1.312998e+01 -3.310789e+01
-4.163109e+09 -3.963109e+09 -4.123109e+09 9.934813e+01 4.373238e+00 -2.545983e+01
-4.336949e+09 -4.136948e+09 -4.296948e+09 -1.687849e+02 -5.988887e+01 -3.933303e+01
-4.385779e+09 -4.185778e+09 -4.345778e+09 -5.488906e+01 -2.455803e+01 1.060635e+01
-4.939335e+09 -4.739334e+09 -4.899334e+09 -1.168311e+02 -4.132498e+01 -2.881321e-01
-4.939335e+09 -4.739334e+09 -4.899334e+09 -2.620534e+01 -7.653387e+00 -1.432569e+01
-3.142659e+09 -2.942658e+09 -3.102658e+09 -6.409144e+01 -1.928108e+01 -3.623828e+01
-4.984281e+09 -4.784281e+09 -4.944281e+09 -3.666620e+02 4.253494e+01 2.868283e+01
-2.857297e+09 -2.657296e+09 -2.817296e+09 1.735508e+00 -5.253916e+01 -2.766932e+01
-3.086140e+09 -2.886140e+09 -3.046140e+09 2.776756e+01 -1.710115e+01 -3.217346e+01
-3.964348e+09 -3.764347e+09 -3.924347e+09 -3.615554e+02 2.698705e+01 -2.037611e+01
-4.653300e+09 -4.453300e+09 -4.613300e+09 -1.120046e+03 2.254259e+02 2.537825e+02
-5.001250e+09 -4.801249e+09 -4.961250e+09 -7.871102e+02 3.717092e+01 7.839636e+01
-3.493475e+09 -3.293474e+09 -3.453474e+09 3.267343e+01 3.078394e+01 -3.184761e+01
-4.822468e+09 -4.622467e+09 -4.782467e+09 1.784594e+02 1.529699e+01 5.884750e-01
-3.961176e+09 -3.761175e+09 -3.921175e+09 -3.311378e+02 4.974045e-01 -3.691944e+01
-3.947897e+09 -3.747896e+09 -3.907896e+09 -3.617027e+02 6.533922e+01 1.437411e+01
-4.471804e+09 -4.271800e+09 -4.431802e+09 1.818277e+01 -6.964780e+01 1.736561e+02
-4.288748e+09 -4.088747e+09 -4.248747e+09 -6.231297e+02 7.553261e+01 6.161188e+01
-3.965005e+09 -3.765004e+09 -3.925005e+09 1.284453e+02 -2.054787e+02 1.492682e+02
-3.575586e+09 -3.375586e+09 -3.535585e+09 1.654937e+01 4.674610e+01 -1.845404e+01
-4.816662e+09 -4.616661e+09 -4.776662e+09 1.141234e+02 -1.586094e+02 2.897058e+01
-3.897691e+09 -3.697690e+09 -3.857690e+09 1.371479e+02 9.876679e+01 8.726282e-01
-4.465260e+09 -4.265258e+09 -4.425261e+09 2.877083e+02 -5.008029e+02 3.390705e+02
-4.598441e+09 -4.398440e+09 -4.558441e+09 5.674743e+02 9.682699e+01 -1.120893e+01
-3.956236e+09 -3.756235e+09 -3.916237e+09 3.326450e+02 -3.436495e+02 4.556450e+02
-4.836186e+09 -4.636185e+09 -4.796186e+09 -1.545850e+02 -2.587191e+01 -4.239040e+01
-4.303344e+09 -4.103343e+09 -4.263344e+09 -5.863205e+02 -6.066911e+01 7.331623e+01
-3.960024e+09 -3.760023e+09 -3.920023e+09 5.087595e+02 1.465542e+02 -5.498144e+01
-3.867921e+09 -3.667920e+09 -3.827920e+09 1.988254e+02 2.040945e+01 1.210195e+01
-4.802625e+09 -4.602628e+09 -4.762627e+09 -4.535026e+02 -3.082953e+02 -1.910774e+01
-4.700195e+09 -4.500194e+09 -4.660194e+09 2.073297e+02 7.588786e+01 -3.120835e+01
-4.457218e+09 -4.257213e+09 -4.417212e+09 2.979845e+03 1.735918e+03 -3.371803e+02
-4.471009e+09 -4.271006e+09 -4.431011e+09 -6.264668e+02 -6.691904e+02 -7.178761e+02
-4.123392e+09 -3.923391e+09 -4.083398e+09 -1.813618e+02 -2.331333e+03 6.309253e+02
-4.125036e+09 -3.925033e+09 -4.085038e+09 3.546135e+02 -4.010121e+02 -6.466979e+02
-4.785323e+09 -4.585322e+09 -4.745322e+09 6.494111e+02 6.242327e+01 4.833091e+00
-4.496529e+09 -4.296526e+09 -4.456532e+09 1.109906e+02 -7.419990e+02 -4.938411e+02
-4.481175e+09 -4.281173e+09 -4.441179e+09 -2.655659e+02 -1.448470e+03 -4.658377e+02
-2.748044e+09 -2.548046e+09 -2.708044e+09 -2.161315e+02 5.544990e+01 -3.361911e+01
-2.847345e+09 -2.647347e+09 -2.807345e+09 -3.113606e+02 9.313912e+00 -9.144592e+00
-3.773824e+09 -3.573825e+09 -3.733823e+09 -3.544665e+02 2.525837e+01 -2.695518e+01
-1.636097e+09 -1.436096e+09 -1.596097e+09 -1.803885e+02 -4.224088e+02 -1.045018e+02
-5.001421e+09 -4.801424e+09 -4.961423e+09 2.093663e+03 -1.254410e+02 2.426849e+02
-4.986116e+09 -4.786113e+09 -4.946095e+09 7.748686e+02 7.197856e+02 1.355122e+03
-4.294675e+09 -4.094676e+09 -4.254676e+09 -5.622342e+02 1.679354e+01 -4.605524e+01
-4.990716e+09 -4.790717e+09 -4.950717e+09 -4.673824e+02 5.274068e+00 -2.016291e+01
-3.381189e+09 -3.181190e+09 -3.341189e+09 -3.636695e+02 -2.898656e+01 -3.049251e+01
-3.140296e+09 -2.940298e+09 -3.100296e+09 -3.688156e+02 1.491884e+01 -3.125972e+01
-4.457950e+09 -4.257952e+09 -4.417951e+09 -6.488815e+02 6.002994e+01 -2.115299e+02
-3.955780e+09 -3.755781e+09 -3.915780e+09 1.674745e+02 1.483019e+01 -2.807045e+02
-4.789597e+09 -4.589597e+09 -4.749597e+09 2.380507e+02 4.132048e+01 -2.627885e+01
-4.987652e+09 -4.787652e+09 -4.947652e+09 -3.989218e+02 -6.530589e-02 -1.525066e+01
-3.382320e+09 -3.182321e+09 -3.342320e+09 -3.385179e+02 8.771560e+01 -2.388394e+01
-3.941265e+09 -3.741266e+09 -3.901266e+09 -3.739298e+01 1.242698e+01 -1.063680e+02
-2.961056e+09 -2.761058e+09 -2.921057e+09 -3.676756e+02 8.864092e+01 -4.945213e+01
-2.159234e+09 -1.959235e+09 -2.119234e+09 -5.129072e+02 2.017168e+01 -2.376364e+01
-4.002376e+09 -3.802376e+09 -3.962376e+09 -8.369421e+02 -3.246025e+00 1.567856e+01
-1.872728e+09 -1.672729e+09 -1.832728e+09 -3.863863e+02 7.741787e+01 -4.277610e+01
-4.266713e+09 -4.066714e+09 -4.226714e+09 -5.870535e+02 2.380544e+01 -1.192926e+02
-3.933055e+09 -3.733056e+09 -3.893056e+09 -6.878493e+02 -1.096432e+01 -8.966389e-01
-4.991543e+09 -4.791543e+09 -4.951543e+09 -6.853945e+02 -2.454271e+00 -3.934074e+01
-2.432760e+09 -2.232761e+09 -2.392760e+09 -2.790645e+02 4.187702e+01 -7.274584e+01
-4.126741e+09 -3.926740e+09 -4.086740e+09 -1.438243e+02 -3.306741e+01 2.957595e+01
-3.956072e+09 -3.756074e+09 -3.916072e+09 4.131273e+02 -5.585456e+01 -7.628619e+02
-3.921169e+09 -3.721168e+09 -3.881168e+09 -1.439518e+01 -3.972586e+01 4.732795e+00
-4.428935e+09 -4.228935e+09 -4.388935e+09 -4.626031e+01 -1.974175e+00 -7.761514e+00
-2.887987e+09 -2.687986e+09 -2.847986e+09 -1.438689e+02 -3.848713e+01 -1.828548e+01
-4.820740e+09 -4.620742e+09 -4.780739e+09 -1.632845e+02 7.996575e+01 -2.466286e+02
-4.623337e+09 -4.423338e+09 -4.583335e+09 -1.101021e+03 6.591792e+01 -3.774480e+02
-4.797890e+09 -4.597888e+09 -4.757890e+09 -1.047713e+03 -2.797307e+02 3.721979e+02
-3.890179e+09 -3.690178e+09 -3.850178e+09 -4.703859e+01 -2.064372e+01 -4.174364e+01
-4.797064e+09 -4.597063e+09 -4.757063e+09 -5.640825e+01 -1.302673e+01 -3.412599e+01
-3.936872e+09 -3.736872e+09 -3.896871e+09 -1.350783e+03 4.743948e+02 -1.444102e+02
-4.702793e+09 -4.502792e+09 -4.662792e+09 -1.149271e+01 1.620280e+01 -7.990160e+00
-4.433375e+09 -4.233376e+09 -4.393375e+09 -1.536673e+03 4.007606e+02 -2.442857e+02
-4.078392e+09 -3.878392e+09 -4.038392e+09 -5.007409e+00 -7.304584e+00 -5.992508e+00
-4.201735e+09 -4.001735e+09 -4.161735e+09 8.033867e+01 -1.173195e-01 1.515790e+00
-4.848167e+09 -4.648168e+09 -4.808167e+09 -1.067770e+03 1.589025e+01 -2.222424e+01
-3.641650e+09 -3.441650e+09 -3.601650e+09 3.818572e+01 1.512131e+01 8.561102e+00
-4.105194e+09 -3.905193e+09 -4.065194e+09 -1.333255e+03 4.491379e+00 3.464747e+02
-3.961746e+09 -3.761746e+09 -3.921746e+09 -1.416468e+03 1.446594e+02 6.828007e+00
-4.000775e+09 -3.800775e+09 -3.960775e+09 4.214127e+01 1.549935e+00 7.402194e+00
-3.961747e+09 -3.761746e+09 -3.921746e+09 -1.088055e+03 1.144108e+02 8.990032e+01
-4.234265e+09 -4.034265e+09 -4.194265e+09 1.220318e+02 -1.106380e+02 4.642487e+01
-4.288467e+09 -4.088460e+09 -4.248467e+09 3.231928e+03 -3.288468e+03 -1.096143e+02
-4.154772e+09 -3.954769e+09 -4.114766e+09 -2.395575e+03 1.548948e+03 -1.329462e+03
-4.975965e+09 -4.775959e+09 -4.935970e+09 -4.680255e+01 1.525098e+03 -6.078784e+02
-4.985981e+09 -4.785977e+09 -4.945991e+09 7.326202e+02 2.006068e+03 8.082102e+01
-4.820742e+09 -4.620741e+09 -4.780747e+09 -1.380703e+03 8.715647e+02 3.966100e+02
-4.951093e+09 -4.751089e+09 -4.911102e+09 -1.762885e+00 1.920033e+03 4.348235e+02
-3.646084e+09 -3.446084e+09 -3.606084e+09 5.809084e+01 1.335935e+01 -1.182711e+01
-4.962753e+09 -4.762754e+09 -4.922754e+09 -7.776913e+02 1.045065e+01 -6.714388e+01
-4.695449e+09 -4.495449e+09 -4.655449e+09 3.447109e+01 4.841571e+00 1.894632e+01
-4.579127e+09 -4.379126e+09 -4.539128e+09 1.252632e+02 -1.750256e+02 -1.512788e+02
-4.811921e+09 -4.611923e+09 -4.771922e+09 -4.502316e+02 8.911756e+00 -2.438553e+02
-4.125456e+09 -3.925457e+09 -4.085457e+09 -4.163687e+02 5.979294e+01 -1.548443e+01
-4.428563e+09 -4.228562e+09 -4.388564e+09 -6.334636e+01 -9.409692e+01 -3.964546e+01
-4.965125e+09 -4.765127e+09 -4.925126e+09 5.132906e+01 6.350466e+00 -4.816560e+01
-3.826587e+09 -3.626586e+09 -3.786587e+09 1.376370e+02 -2.128167e+02 -1.507982e+02
-3.492339e+09 -3.292339e+09 -3.452340e+09 3.593018e+02 -1.923678e+02 -2.395851e+02
-4.702420e+09 -4.502419e+09 -4.662421e+09 2.467937e+02 -5.346737e+01 -1.916000e+02
-5.006162e+09 -4.806163e+09 -4.966161e+09 -8.610616e+02 1.220869e+01 -3.979475e+02
-3.981689e+09 -3.781688e+09 -3.941689e+09 -3.970875e+02 -1.958795e+01 -2.698162e+01
-3.964951e+09 -3.764953e+09 -3.924952e+09 1.919845e+03 6.467205e+02 -2.849423e+02
-4.500477e+09 -4.300477e+09 -4.460477e+09 -3.927489e+02 -2.100470e+01 1.255668e+01
-3.985555e+09 -3.785555e+09 -3.945563e+09 -1.628839e+03 2.283602e+03 1.670958e+03
-4.137962e+09 -3.937962e+09 -4.097962e+09 -5.472837e+02 -4.908070e+01 7.416450e+01
-3.962407e+09 -3.762406e+09 -3.922407e+09 -6.039175e+02 -5.204215e+01 3.392673e+01
-4.045187e+09 -3.845188e+09 -4.005187e+09 2.485627e+02 -6.567667e+01 2.618886e+01
-4.827060e+09 -4.627060e+09 -4.787060e+09 -3.940181e+02 -6.834945e+00 -3.193517e+01
-4.481195e+09 -4.281195e+09 -4.441195e+09 -5.525071e+02 -1.647307e+01 7.792327e+00
-3.966599e+09 -3.766599e+09 -3.926599e+09 -4.871365e+02 -6.743998e+01 2.442678e+01
-4.986131e+09 -4.786131e+09 -4.946129e+09 1.816247e+03 -4.056699e+02 -6.217952e+02
-4.951095e+09 -4.751089e+09 -4.911103e+09 9.496115e+02 1.936612e+03 5.879362e+02
-3.966600e+09 -3.766599e+09 -3.926599e+09 -4.008701e+02 -6.539061e+01 2.341690e+01
-4.477511e+09 -4.277508e+09 -4.437516e+09 -1.296589e+03 2.176580e+03 1.744211e+03
-4.970614e+09 -4.770614e+09 -4.930612e+09 9.763966e+02 -6.912925e+01 -4.077354e+02
-4.118034e+09 -3.918031e+09 -4.078035e+09 6.304523e+02 -4.951158e+02 -8.736718e+02
-4.907934e+09 -4.707932e+09 -4.867933e+09 -1.179625e+02 -3.207245e+01 6.755976e-08
-4.305037e+09 -4.105035e+09 -4.265039e+09 -4.591798e+01 -7.388118e+02 -5.099599e+02
-4.817232e+09 -4.617230e+09 -4.777234e+09 3.016358e+01 -2.921629e+02 -3.990403e+02
-4.656830e+09 -4.456828e+09 -4.616832e+09 1.760505e+02 -3.032479e+02 -3.383400e+02
-4.468268e+09 -4.268265e+09 -4.428271e+09 1.262784e+02 -6.417988e+02 -6.578796e+02
-4.156037e+09 -3.956035e+09 -4.116039e+09 -6.058645e+02 -9.009208e+02 -4.378437e+02
-4.675217e+09 -4.475216e+09 -4.635216e+09 -1.849552e+02 -2.832544e+01 -1.778120e+01
-4.989514e+09 -4.789512e+09 -4.949513e+09 -5.802126e+01 -6.875293e+01 -2.830788e+01
-3.965315e+09 -3.765313e+09 -3.925316e+09 -5.317118e+02 -1.001299e+03 -6.541987e+02
-4.989514e+09 -4.789512e+09 -4.949513e+09 -2.664796e+02 -1.675613e+01 -3.184763e+01
-3.072102e+09 -2.872103e+09 -3.032103e+09 3.476177e+00 3.075524e+00 3.150715e+00
-3.306825e+09 -3.106825e+09 -3.266825e+09 1.339617e+02 -1.913123e+02 4.013393e+01
-4.918041e+09 -4.718044e+09 -4.878044e+09 9.038110e+01 -1.111821e+01 -2.488694e-05
-4.950299e+09 -4.750299e+09 -4.910300e+09 3.875001e+02 -2.070533e+01 -3.337767e+01
-3.271664e+09 -3.071664e+09 -3.231664e+09 4.215850e+01 5.961067e-01 -7.723113e-01
-2.213374e+09 -2.013375e+09 -2.173374e+09 -2.377787e-01 -2.326271e+00 1.362846e+00
-3.549469e+09 -3.349473e+09 -3.509473e+09 4.393188e+01 -6.589612e+00 8.483053e+01
-2.193689e+09 -1.993689e+09 -2.153690e+09 1.671780e+02 -3.251079e+02 -1.695752e+02
-4.983421e+09 -4.783426e+09 -4.943424e+09 3.773081e+02 -7.586735e+01 7.458568e+01
-2.786389e+09 -2.586390e+09 -2.746390e+09 4.252580e+01 6.198796e+00 4.283001e-01
-4.972530e+09 -4.772529e+09 -4.932529e+09 -2.040397e+02 3.767155e+00 7.856315e+00
-4.712672e+09 -4.512673e+09 -4.672673e+09 2.839568e+01 5.625926e-01 -1.429950e+01
-4.505174e+09 -4.305175e+09 -4.465175e+09 1.587489e+01 6.128205e+00 -6.446006e+00
-4.197672e+09 -3.997672e+09 -4.157672e+09 -1.263641e+01 4.575199e+00 -7.470609e+00
-3.781553e+09 -3.581557e+09 -3.741556e+09 5.156019e+01 -2.066295e+01 -2.706095e+00
-3.892412e+09 -3.692411e+09 -3.852411e+09 -1.118284e+01 -1.166684e+01 -1.926357e+01
-3.301154e+09 -3.101158e+09 -3.261157e+09 1.161038e+03 2.330073e+02 5.558627e+02
-4.651477e+09 -4.451482e+09 -4.611481e+09 1.031993e+02 8.170954e+01 9.278605e+01
-4.379636e+09 -4.179640e+09 -4.339639e+09 2.852807e+01 7.761949e+00 8.604648e+01
-4.778145e+09 -4.578145e+09 -4.738145e+09 1.547834e+01 -4.655377e+00 -1.002410e+01
-4.595233e+09 -4.395233e+09 -4.555233e+09 -1.147715e+01 -2.563061e-01 -1.616079e+01
-3.910613e+09 -3.710613e+09 -3.870613e+09 2.315119e+01 9.662861e+00 -2.806513e+01
-4.795966e+09 -4.595966e+09 -4.755966e+09 2.395265e+01 -3.331724e+00 -1.123990e+01
-4.998445e+09 -4.798444e+09 -4.958444e+09 4.594603e+01 9.981420e+00 6.878663e+00
-4.131430e+09 -3.931429e+09 -4.091430e+09 -5.285733e+02 -7.371971e+01 1.270337e+02
-2.713124e+09 -2.513123e+09 -2.673124e+09 7.419850e+01 -2.959855e+02 -1.989151e+02
-3.963756e+09 -3.763755e+09 -3.923756e+09 -3.661223e+02 -1.104978e+02 1.057331e+02
-1.640733e+09 -1.440732e+09 -1.600733e+09 -3.384504e+02 -6.000513e+02 -3.136177e+02
-1.795252e+09 -1.595256e+09 -1.755257e+09 2.901601e+02 1.935023e+01 2.485690e+02
-4.136550e+09 -3.936549e+09 -4.096550e+09 -3.405673e+02 -9.783990e+01 3.373365e+01
-2.170915e+09 -1.970915e+09 -2.130916e+09 2.615477e+01 -2.201204e+02 -5.869864e+01
-4.320681e+09 -4.120680e+09 -4.280681e+09 -3.356364e+02 -5.681709e+01 5.550085e+01
-3.974106e+09 -3.774106e+09 -3.934108e+09 2.054961e+03 5.393713e+02 -1.897255e+02
-1.677931e+09 -1.477929e+09 -1.637931e+09 3.138150e+02 -4.467698e+02 -3.875690e+02
-2.127545e+09 -1.927546e+09 -2.087547e+09 2.981436e+02 -1.993183e+02 -1.945214e+02
-4.620164e+09 -4.420165e+09 -4.580166e+09 2.047575e+02 -2.731128e+01 1.380028e+02
-3.662420e+09 -3.462421e+09 -3.622422e+09 4.035400e+01 -1.376396e+02 3.841016e+00
-4.837056e+09 -4.637055e+09 -4.797056e+09 -3.017927e+02 -7.416381e+00 -5.220327e+01
-3.977879e+09 -3.777878e+09 -3.937879e+09 -1.678940e+02 -8.604561e+01 5.699519e+01
-4.163761e+09 -3.963760e+09 -4.123761e+09 -1.497738e+02 -8.808849e+01 2.803880e+00
-3.116297e+09 -2.916297e+09 -3.076296e+09 5.060154e+01 2.229926e+01 1.102005e+01
-3.683355e+09 -3.483356e+09 -3.643354e+09 1.444416e+01 -1.004947e+01 8.842719e+00
-4.665665e+09 -4.465664e+09 -4.625664e+09 -2.109042e+02 -5.496560e+01 3.969405e+01
-2.857626e+09 -2.657627e+09 -2.817625e+09 9.324282e+00 8.022738e-01 1.218857e+01
-4.970237e+09 -4.770238e+09 -4.930236e+09 4.634228e+02 3.352992e+01 -7.617871e+00
-2.196557e+09 -1.996558e+09 -2.156557e+09 1.523047e+01 5.553918e+00 3.458382e+00
-4.279344e+09 -4.079342e+09 -4.239344e+09 -3.060024e+02 -2.263715e+02 3.377521e+02
-4.680906e+09 -4.480908e+09 -4.640906e+09 9.275648e+01 -2.136824e+01 1.968630e+01
-1.595487e+09 -1.395488e+09 -1.555487e+09 3.153892e+02 3.546610e+01 3.086628e+01
-4.515759e+09 -4.315761e+09 -4.475760e+09 -3.603616e+02 -7.148876e+01 -3.129116e+01
-3.519065e+09 -3.319067e+09 -3.479065e+09 -2.469175e+02 6.041059e+01 -1.602538e+01
-3.947717e+09 -3.747718e+09 -3.907716e+09 7.215291e+01 2.225051e+01 6.697370e+00
-2.820772e+09 -2.620774e+09 -2.780772e+09 -2.110131e+02 -2.281310e+02 -7.774143e+01
-4.664972e+09 -4.464972e+09 -4.624972e+09 -2.664532e+02 -1.449198e+01 -6.348184e+00
-3.933915e+09 -3.733917e+09 -3.893916e+09 -6.597346e+02 -2.505369e+02 -1.045556e+02
-2.611945e+09 -2.411947e+09 -2.571945e+09 2.624664e+02 4.746566e+01 1.302621e+01
-2.705678e+09 -2.505678e+09 -2.665677e+09 3.222470e+01 9.370140e-01 3.234487e+01
-2.669779e+09 -2.469779e+09 -2.629778e+09 2.090319e+01 7.178336e+00 2.255454e+01
-2.710926e+09 -2.510927e+09 -2.670926e+09 4.705162e+01 7.136062e+00 1.649163e+00
-3.466073e+09 -3.266075e+09 -3.426073e+09 4.769978e+02 1.921913e+01 4.271880e+01
-3.738424e+09 -3.538425e+09 -3.698423e+09 3.669236e+02 -1.632087e+01 3.264590e+00
-3.885254e+09 -3.685255e+09 -3.845253e+09 1.255563e+02 1.788118e+00 4.855099e+00
-1.927822e+09 -1.727822e+09 -1.887821e+09 1.560231e+01 6.068483e+00 3.752135e+00
-4.425090e+09 -4.225090e+09 -4.385089e+09 4.275363e+01 3.845667e+00 2.250560e+01
-4.456912e+09 -4.256911e+09 -4.416912e+09 -3.156713e+02 -2.325685e+02 -2.614773e+01
-4.224953e+09 -4.024955e+09 -4.184954e+09 -4.676950e+02 -2.988993e+02 -8.115857e+01
-2.215009e+09 -2.015010e+09 -2.175009e+09 -5.425629e+02 -3.670805e+02 -9.850710e+01
-2.839101e+09 -2.639102e+09 -2.799101e+09 -3.984469e+02 -2.677715e+02 -2.700686e+01
-4.106798e+09 -3.906790e+09 -4.066805e+09 6.850335e+02 7.891501e+02 -1.307781e+03
-4.653514e+09 -4.453513e+09 -4.613514e+09 -2.835700e+02 -1.172259e+02 -9.993193e+01
-3.495242e+09 -3.295241e+09 -3.455242e+09 1.756181e+02 -2.667996e+02 -1.869347e+02
-4.108023e+09 -3.908010e+09 -4.068017e+09 -6.922628e+02 -3.531468e+03 -2.692339e+03
-4.981478e+09 -4.781477e+09 -4.941479e+09 3.103809e+02 6.100504e+01 1.507705e+02
-2.755906e+09 -2.555905e+09 -2.715906e+09 -8.757587e+01 -3.127379e+02 -3.137975e+01
-4.617707e+09 -4.417701e+09 -4.577713e+09 8.586661e+02 2.739529e+02 -5.079483e+02
-4.112560e+09 -3.912556e+09 -4.072571e+09 1.669754e+03 3.110449e+03 -2.236669e+03
-2.703363e+09 -2.503361e+09 -2.663362e+09 -2.220055e+02 -4.863614e+02 -1.579726e+02
-4.808964e+09 -4.608957e+09 -4.768965e+09 -3.518509e+02 2.620337e+02 -1.099557e+03
-1.662266e+09 -1.462269e+09 -1.622266e+09 8.793577e+00 2.148563e+01 -2.521479e+01
-4.799026e+09 -4.599021e+09 -4.759034e+09 5.629046e+02 5.735055e+02 -5.060338e+02
-4.980927e+09 -4.780929e+09 -4.940928e+09 -4.803852e+02 -6.199816e+00 1.173675e+01
-4.790505e+09 -4.590507e+09 -4.750505e+09 -3.138553e+02 7.466070e+01 1.453505e+01
-4.095152e+09 -3.895155e+09 -4.055152e+09 -2.978928e+02 8.472126e+01 2.948965e-01
-1.677745e+09 -1.477748e+09 -1.637745e+09 -1.100203e+02 -1.220665e+01 -5.000826e+01
-1.648973e+09 -1.448976e+09 -1.608973e+09 -2.928237e+00 1.656247e+01 -4.825109e+01
-4.796804e+09 -4.596806e+09 -4.756804e+09 -2.994374e+02 -5.082044e+01 -2.565050e+01
-4.257995e+09 -4.057998e+09 -4.217996e+09 -2.930441e+02 -1.139724e+01 -2.861625e+00
-3.328936e+09 -3.128938e+09 -3.288936e+09 5.097214e+01 1.393355e+01 3.925322e+01
-4.356329e+09 -4.156332e+09 -4.316329e+09 1.110615e+01 7.320139e+00 -5.874853e+00
-4.435805e+09 -4.235806e+09 -4.395806e+09 -1.407110e+01 -1.193863e+01 1.094335e+00
-3.646179e+09 -3.446179e+09 -3.606179e+09 -8.326789e+01 -1.367518e+01 2.332105e+01
-3.840224e+09 -3.640226e+09 -3.800224e+09 2.542714e+02 5.609640e+01 -1.159574e+01
-3.876983e+09 -3.676984e+09 -3.836984e+09 -1.127298e+02 -9.838871e+00 1.014227e+01
-2.419596e+09 -2.219598e+09 -2.379596e+09 4.837653e+02 2.420803e+01 8.224599e+00
-2.528662e+09 -2.328664e+09 -2.488662e+09 5.341068e+01 1.280082e+01 4.239060e+01
-4.786384e+09 -4.586385e+09 -4.746385e+09 -1.518041e+02 9.458027e+00 5.313311e+00
-4.791062e+09 -4.591063e+09 -4.751063e+09 -1.034123e+02 -1.273596e+01 -1.050277e+01
-2.082487e+09 -1.882489e+09 -2.042487e+09 3.569322e+02 3.789129e+01 1.458415e+01
-1.606913e+09 -1.406916e+09 -1.566914e+09 -1.268922e+02 -4.217072e+00 -5.287027e+01
-4.062846e+09 -3.862846e+09 -4.022846e+09 -9.409543e+01 -3.835309e+00 -4.959860e+00
-4.709663e+09 -4.509663e+09 -4.669663e+09 -5.845144e+01 -2.063455e+00 -2.421559e+01
-2.188173e+09 -1.988175e+09 -2.148173e+09 -7.623940e+01 -8.944407e+00 -2.729336e+01
-4.130781e+09 -3.930784e+09 -4.090782e+09 -1.242355e+02 -6.080693e+00 7.857857e-01
-3.898912e+09 -3.698911e+09 -3.858911e+09 2.679684e+00 -9.942127e-01 9.162733e-01
-4.145618e+09 -3.945619e+09 -4.105628e+09 -6.550789e+02 3.844030e+03 1.065159e+03
-4.848044e+09 -4.648044e+09 -4.808051e+09 -7.487502e+02 1.069932e+03 2.651605e+02
-4.328788e+09 -4.128787e+09 -4.288795e+09 -1.299652e+03 1.820334e+03 1.778655e+03
-4.459138e+09 -4.259135e+09 -4.419149e+09 -1.275604e+03 2.351601e+03 8.898395e+02
-1.588598e+09 -1.388598e+09 -1.548598e+09 9.587694e+00 3.370999e+00 -1.934135e+01
-4.328788e+09 -4.128786e+09 -4.288793e+09 -1.284275e+03 1.305793e+03 1.164102e+03
-4.348729e+09 -4.148729e+09 -4.308729e+09 2.633341e+00 1.022713e+00 -1.891287e-01
-3.083803e+09 -2.883802e+09 -3.043802e+09 6.586802e+00 2.362455e+00 -2.727109e+00
-4.161578e+09 -3.961580e+09 -4.121586e+09 -1.510142e+03 2.731768e+03 9.656540e+02
-2.481056e+09 -2.281060e+09 -2.441057e+09 4.334884e+02 -9.919028e+02 2.675237e+01
-3.497777e+09 -3.297776e+09 -3.457777e+09 1.085959e+01 2.671527e+00 -7.646769e+00
-4.625733e+09 -4.425732e+09 -4.585732e+09 7.389225e+00 -8.197318e-01 -3.995453e-01
-2.862577e+09 -2.662576e+09 -2.822577e+09 2.061590e+00 -1.254641e-01 -1.480576e+00
-4.699929e+09 -4.499928e+09 -4.659928e+09 6.280118e+00 3.744525e-01 -6.388012e+00
-1.873496e+09 -1.673495e+09 -1.833495e+09 9.537508e+00 2.235399e+00 -5.140173e-01
-2.839580e+09 -2.639579e+09 -2.799579e+09 8.628547e+00 9.074697e-01 -6.841535e+00
-1.698361e+09 -1.498364e+09 -1.658361e+09 1.050296e+03 -7.999257e+02 2.843476e+02
-4.598641e+09 -4.398645e+09 -4.558643e+09 -1.350189e+02 -1.839871e+02 8.431239e+00
-4.790242e+09 -4.590246e+09 -4.750244e+09 -2.567589e+02 -2.050577e+02 -1.366141e+02
-2.223538e+09 -2.023537e+09 -2.183537e+09 6.843948e-02 6.415455e-01 -3.401009e+00
-3.506038e+09 -3.306038e+09 -3.466038e+09 -1.104382e+00 6.828678e+00 -2.395655e+00
-4.972373e+09 -4.772377e+09 -4.932375e+09 -2.323013e+00 -6.613322e+01 -1.491493e+00
-3.014412e+09 -2.814416e+09 -2.974414e+09 -1.566697e+01 -1.930476e+02 1.397544e+01
-1.954802e+09 -1.754801e+09 -1.914801e+09 -2.127393e+00 3.175447e+00 -3.270845e+00
-3.580555e+09 -3.380559e+09 -3.540557e+09 2.310394e+02 -9.331693e+02 9.897553e+01
-3.931273e+09 -3.731276e+09 -3.891273e+09 5.320114e+01 2.132434e+01 2.108788e+01
-4.240781e+09 -4.040784e+09 -4.200783e+09 3.229870e+02 -2.883463e+02 4.999721e+01
-4.060088e+09 -3.860092e+09 -4.020090e+09 -8.728698e+01 -1.491372e+02 -1.356106e-01
-4.698516e+09 -4.498520e+09 -4.658518e+09 4.187464e+01 -5.607245e+01 4.596407e+01
-1.674097e+09 -1.474101e+09 -1.634098e+09 2.680250e+02 8.177269e+01 -1.865333e+01
-3.288713e+09 -3.088713e+09 -3.248713e+09 -1.693978e+02 -1.125955e+01 3.829782e+00
-4.701137e+09 -4.501140e+09 -4.661137e+09 3.817865e+01 -1.403931e+01 9.178649e-01
-3.442039e+09 -3.242039e+09 -3.402039e+09 -7.589908e+01 -1.436533e+01 4.315601e+01
-3.396721e+09 -3.196720e+09 -3.356721e+09 -6.081738e+01 -1.467917e+01 3.265598e+01
-3.663568e+09 -3.463568e+09 -3.623568e+09 -9.580925e+01 -1.601584e+01 1.461904e+01
-2.314253e+09 -2.114253e+09 -2.274253e+09 7.506826e+01 7.366980e+00 2.250221e+00
-2.784472e+09 -2.584475e+09 -2.744473e+09 3.163883e+01 1.137523e+01 -4.061878e+00
-3.467447e+09 -3.267449e+09 -3.427448e+09 6.829248e+02 -6.401067e+02 2.561941e+02
-3.627097e+09 -3.427097e+09 -3.587097e+09 1.374624e+01 1.727599e+00 7.670344e+00
-3.978507e+09 -3.778506e+09 -3.938507e+09 -2.880261e+02 -3.019031e+01 3.137025e+00
-2.795967e+09 -2.595966e+09 -2.755967e+09 1.396399e+01 9.735814e+00 -8.039922e+00
-4.277903e+09 -4.077907e+09 -4.237904e+09 1.720849e+02 7.817502e+01 1.817211e+01
-4.729290e+09 -4.529293e+09 -4.689291e+09 -6.571472e+01 4.902594e+01 2.079695e+00
-2.579514e+09 -2.379517e+09 -2.539514e+09 8.678700e+01 2.237685e+01 1.047348e+01
-2.987060e+09 -2.787060e+09 -2.947060e+09 3.694752e+01 3.817938e+00 8.018591e+00
-4.022335e+09 -3.822335e+09 -3.982335e+09 3.973762e+01 5.071933e+00 1.318504e+00
-3.385390e+09 -3.185390e+09 -3.345390e+09 2.994630e+01 9.870256e+00 -1.776973e+01
-4.465480e+09 -4.265480e+09 -4.425480e+09 -1.531659e+02 1.798864e+01 -4.642470e+00
-4.645676e+09 -4.445676e+09 -4.605676e+09 -8.946094e+01 -1.784935e+00 2.077774e-01
-3.514841e+09 -3.314842e+09 -3.474842e+09 -4.797620e+00 1.521079e+00 -1.369380e+00
-2.599551e+09 -2.399552e+09 -2.559552e+09 -1.545762e+01 -1.822497e+01 3.206708e+00
-1.679094e+09 -1.479095e+09 -1.639094e+09 -3.650802e+01 -1.168476e+01 3.657943e+00
-2.947782e+09 -2.747782e+09 -2.907782e+09 -1.464177e+01 9.463399e-01 -1.265857e+00
-1.631382e+09 -1.431382e+09 -1.591382e+09 -6.450627e+01 -2.655102e+01 1.005230e+00
-4.709210e+09 -4.509210e+09 -4.669209e+09 -5.254570e+01 -3.489294e+01 -9.220404e+00
-4.529519e+09 -4.329520e+09 -4.489520e+09 -9.207024e+01 -1.174635e+01 -2.626937e+00
-4.802689e+09 -4.602689e+09 -4.762689e+09 -5.342982e+01 2.405456e+01 -1.364335e+01
-3.745829e+09 -3.545829e+09 -3.705828e+09 -8.379158e+01 -9.426394e+00 -3.299696e+01
-4.983067e+09 -4.783067e+09 -4.943066e+09 -8.009095e+01 -3.444008e+00 1.846622e+00
-4.039862e+09 -3.839862e+09 -3.999862e+09 -1.226515e+02 4.570928e+00 -6.700404e+00
-4.623701e+09 -4.423701e+09 -4.583700e+09 -1.043950e+02 2.203428e+01 -1.245838e+01
-4.500548e+09 -4.300548e+09 -4.460548e+09 -4.511346e+02 -1.887743e+01 1.606756e+01
-4.817979e+09 -4.617980e+09 -4.777980e+09 -5.565484e+02 1.306205e+01 -4.416067e+01
-4.124700e+09 -3.924701e+09 -4.084701e+09 -5.787203e+02 2.990149e+01 -1.220371e+02
-4.960732e+09 -4.760733e+09 -4.920732e+09 -3.468703e+02 -6.732530e+01 -1.416925e+00
-3.426298e+09 -3.226297e+09 -3.386297e+09 -3.010057e+01 -1.770185e+01 4.940249e+00
-4.822067e+09 -4.622067e+09 -4.782067e+09 -5.830923e+02 -3.134568e+01 4.652467e+01
-3.966670e+09 -3.766670e+09 -3.926670e+09 -5.602609e+02 -2.659734e+01 5.921708e+01
-3.964238e+09 -3.764238e+09 -3.924239e+09 -6.870546e+02 -3.696607e+01 3.985301e+01
-4.518804e+09 -4.318804e+09 -4.478804e+09 -6.867071e+02 -1.940546e+01 -1.216486e+00
-3.964238e+09 -3.764238e+09 -3.924239e+09 -5.523460e+02 -5.147425e+01 2.458397e+01
-2.018195e+09 -1.818194e+09 -1.978194e+09 -2.866012e+02 -2.905929e+02 -9.475874e+00
-4.205827e+09 -4.005825e+09 -4.165827e+09 2.236147e+02 -2.878783e+02 -3.709805e+02
-4.207129e+09 -4.007128e+09 -4.167130e+09 1.399505e+02 -3.117212e+02 -3.497589e+02
-4.126806e+09 -3.926808e+09 -4.086808e+09 6.697581e+02 -4.592645e+02 2.345161e+02
-4.120495e+09 -3.920493e+09 -4.080496e+09 -4.330370e+01 -4.112474e+02 -2.604255e+02
-4.281758e+09 -4.081756e+09 -4.241759e+09 4.488381e+02 -4.022433e+02 -4.760059e+02
-4.168169e+09 -3.968167e+09 -4.128170e+09 7.556834e+02 -1.884584e+02 -3.516477e+02
-4.733471e+09 -4.533470e+09 -4.693471e+09 -1.094496e+02 -7.201201e+01 -2.603010e+01
-2.260318e+09 -2.060316e+09 -2.220316e+09 -8.859033e+01 -1.636228e+02 7.602452e+00
-4.258720e+09 -4.058718e+09 -4.218721e+09 6.315634e+02 -1.886688e+02 -2.007669e+02
-3.679291e+09 -3.479291e+09 -3.639291e+09 -4.954302e+01 -1.329724e+01 -2.383786e+01
-4.197813e+09 -3.997813e+09 -4.157812e+09 -6.849118e+01 4.662191e+00 -9.288010e+00
-4.190371e+09 -3.990371e+09 -4.150370e+09 -1.400993e+01 3.529433e+00 -1.461386e+01
-3.463889e+09 -3.263889e+09 -3.423889e+09 -3.195417e+01 -2.908675e+01 -2.505327e+01
-4.413155e+09 -4.213154e+09 -4.373154e+09 2.258990e+01 -5.779555e-01 -1.423011e+01
-4.971353e+09 -4.771354e+09 -4.931353e+09 -3.080450e+02 -7.443007e+01 -1.652703e+01
-4.131607e+09 -3.931607e+09 -4.091606e+09 -4.659782e+02 3.239231e+01 -2.821072e+01
-4.818072e+09 -4.618073e+09 -4.778072e+09 -4.445643e+02 -3.305388e+00 2.981853e+00
-4.608604e+09 -4.408603e+09 -4.568603e+09 -8.472320e+00 1.089605e+01 -1.166923e+01
-4.687012e+09 -4.487011e+09 -4.647011e+09 -7.039070e+00 1.319218e+01 -6.092879e+00
-4.981707e+09 -4.781709e+09 -4.941707e+09 -1.615719e+02 1.464490e+01 2.387741e+01
-3.709788e+09 -3.509790e+09 -3.669788e+09 -1.734646e+02 4.484600e+01 -2.972260e+01
-2.778670e+09 -2.578671e+09 -2.738670e+09 -3.393872e-01 1.553914e+00 -3.154853e+01
-4.801318e+09 -4.601321e+09 -4.761318e+09 -1.828419e+02 -4.236936e+01 -3.209603e+01
-4.610116e+09 -4.410118e+09 -4.570116e+09 -2.084074e+02 -1.297244e+01 -4.814372e+00
-3.746570e+09 -3.546572e+09 -3.706570e+09 -3.282071e+02 5.682019e+01 -1.337128e+01
-4.789086e+09 -4.589088e+09 -4.749086e+09 -2.237404e+02 2.258155e+01 -2.735300e+01
-4.798660e+09 -4.598662e+09 -4.758660e+09 -3.333247e+02 -1.479605e+00 8.639455e+00
-4.642752e+09 -4.442752e+09 -4.602752e+09 8.832344e+02 6.685859e+00 -8.019930e+01
-3.956287e+09 -3.756287e+09 -3.916286e+09 1.105631e+03 1.906413e+02 -3.721402e+01
-3.956287e+09 -3.756287e+09 -3.916286e+09 9.543643e+02 1.231537e+02 -1.996010e+00
-4.803653e+09 -4.603652e+09 -4.763652e+09 9.456197e+02 1.313921e+02 -8.347348e+01
-4.996103e+09 -4.796103e+09 -4.956102e+09 1.030046e+03 4.458757e+01 -7.300092e+01
-4.521341e+09 -4.321340e+09 -4.481340e+09 6.751391e+02 -7.121717e+01 -9.591928e+01
-4.149936e+09 -3.949937e+09 -4.109936e+09 1.125523e+03 1.833310e+02 -8.647646e+00
-4.836401e+09 -4.636402e+09 -4.796401e+09 1.120749e+03 1.149378e+02 -5.573664e+01
-3.966850e+09 -3.766847e+09 -3.926848e+09 -1.723490e+03 -5.633180e+02 -7.233783e+00
-1.878964e+09 -1.678967e+09 -1.838964e+09 1.614843e+02 1.719468e+00 3.718410e+01
-1.847171e+09 -1.647174e+09 -1.807172e+09 -2.453112e+01 -5.404774e-01 -1.963609e+01
-4.143367e+09 -3.943364e+09 -4.103366e+09 -9.243659e+02 1.624921e+02 -1.911768e+02
-4.135692e+09 -3.935691e+09 -4.095691e+09 -2.037753e+03 -5.617113e+02 6.451464e+02
-4.822157e+09 -4.622157e+09 -4.782157e+09 -2.023215e+03 1.814460e+02 -2.416247e+02
-3.456238e+09 -3.256241e+09 -3.416238e+09 -1.507221e+01 8.417538e-01 -1.394735e+01
-3.395689e+09 -3.195690e+09 -3.355689e+09 4.730702e+02 -1.974171e+02 2.098648e+02
-4.826730e+09 -4.626726e+09 -4.786729e+09 -5.166169e+02 1.269813e+02 -3.604777e+02
-2.107864e+09 -1.907863e+09 -2.067863e+09 -3.751500e+02 -2.513240e+02 -1.205931e+02
-2.906562e+09 -2.706564e+09 -2.866562e+09 5.122476e+01 1.391388e+01 8.152554e-01
-3.846654e+09 -3.646656e+09 -3.806654e+09 5.920850e+02 3.622537e+01 -3.903020e+01
-1.582002e+09 -1.382004e+09 -1.542002e+09 -7.705161e+01 7.346283e+01 -2.498598e+01
-2.777495e+09 -2.577498e+09 -2.737496e+09 1.696828e+02 -2.151542e+02 3.906694e+01
-4.798789e+09 -4.598790e+09 -4.758790e+09 4.252027e+02 -2.234149e+02 3.188483e+01
-1.959813e+09 -1.759816e+09 -1.919814e+09 5.378814e+02 9.435979e+01 -1.773286e+01
-1.582002e+09 -1.382005e+09 -1.542002e+09 2.062491e+01 2.138532e+01 -2.289330e+01
-3.201700e+09 -3.001703e+09 -3.161701e+09 1.553740e+02 9.842119e+01 -3.370877e+01
-4.805840e+09 -4.605843e+09 -4.765841e+09 -1.870123e+00 9.289540e+01 8.450604e+00
-3.461539e+09 -3.261537e+09 -3.421538e+09 -8.676057e+01 -2.298380e+02 -5.252525e+01
-4.053221e+09 -3.853220e+09 -4.013221e+09 -6.950121e+01 -1.386279e+02 -1.049525e+01
-3.786212e+09 -3.586211e+09 -3.746211e+09 -5.069177e+01 -1.624672e+02 -1.404173e+01
-3.510863e+09 -3.310861e+09 -3.470862e+09 -3.591190e+02 -2.940727e+02 -1.311743e+02
-4.988022e+09 -4.788022e+09 -4.948022e+09 -6.934894e+01 1.356554e+01 9.351588e+00
-1.636086e+09 -1.436087e+09 -1.596086e+09 -1.214863e+01 -2.445457e+01 -1.430465e+00
-1.699115e+09 -1.499115e+09 -1.659115e+09 -7.001478e+01 -2.255441e+01 -6.385394e+00
-1.616457e+09 -1.416457e+09 -1.576457e+09 -1.382875e+02 -1.887977e+01 -3.235184e+01
-4.820847e+09 -4.620847e+09 -4.780847e+09 -7.325374e+01 1.341190e+01 1.337106e+00
-1.904616e+09 -1.704619e+09 -1.864616e+09 6.017260e+02 -7.169876e+02 1.245209e+02
-3.863263e+09 -3.663262e+09 -3.823262e+09 -6.991426e+01 -4.185303e+00 -2.430730e+01
-4.970425e+09 -4.770424e+09 -4.930425e+09 -1.031812e+02 -2.111228e+00 -2.623659e+01
-1.927158e+09 -1.727158e+09 -1.887159e+09 -8.548631e+01 -2.768788e+01 1.426709e+00
-4.806031e+09 -4.606030e+09 -4.766030e+09 -1.515035e+02 3.229437e+01 -4.099679e+00
-3.486985e+09 -3.286985e+09 -3.446985e+09 -3.606019e+01 -3.737002e+00 -1.877917e+01
-2.698310e+09 -2.498309e+09 -2.658310e+09 -7.022417e+01 -1.575486e+01 -2.374106e+00
-1.586761e+09 -1.386760e+09 -1.546760e+09 -8.489726e+01 -1.465190e+01 -1.497384e+01
-2.074078e+09 -1.874083e+09 -2.034082e+09 -2.309413e+02 1.630786e+01 4.918439e+02
-3.426343e+09 -3.226347e+09 -3.386346e+09 1.270683e+01 1.785979e+01 9.851532e+01
-2.617307e+09 -2.417307e+09 -2.577307e+09 -1.108023e+01 -2.491841e+01 -4.391865e-02
-2.647050e+09 -2.447051e+09 -2.607051e+09 -2.393453e+02 1.707649e+02 2.055472e+01
-2.527112e+09 -2.327115e+09 -2.487114e+09 -1.955196e+02 -8.254840e-01 2.681263e+02
-2.873071e+09 -2.673070e+09 -2.833072e+09 1.378269e+02 -4.226462e+02 -4.968998e+02
-2.872905e+09 -2.672908e+09 -2.832908e+09 -7.583869e+02 -4.250778e+01 3.858627e+02
-4.989619e+09 -4.789619e+09 -4.949621e+09 -8.401629e+02 -4.096904e+02 -4.086103e+01
-4.993715e+09 -4.793715e+09 -4.953719e+09 -8.886013e+02 -6.320687e+02 -1.734350e+02
-1.889236e+09 -1.689240e+09 -1.849239e+09 -4.079728e+02 2.950901e+01 2.961478e+02
-2.088844e+09 -1.888848e+09 -2.048847e+09 -5.557941e+00 5.343501e+01 1.211021e+02
-4.988225e+09 -4.788225e+09 -4.948225e+09 1.182130e+02 -8.086602e+00 6.026877e+00
-1.841172e+09 -1.641176e+09 -1.801175e+09 -2.385596e+01 7.733397e+01 1.233947e+02
-3.360837e+09 -3.160837e+09 -3.320836e+09 -2.179607e+02 -2.045179e+01 -1.713572e+01
-4.967263e+09 -4.767263e+09 -4.927263e+09 5.408253e+01 -4.934399e+00 2.200011e+00
-3.894815e+09 -3.694815e+09 -3.854814e+09 -1.037055e+02 -2.873303e+00 -1.232823e+01
-3.773571e+09 -3.573571e+09 -3.733571e+09 -1.057799e+02 -5.610396e+00 -3.368040e+01
-4.984805e+09 -4.784806e+09 -4.944805e+09 -1.145029e+02 -6.103647e+00 8.505495e+00
-4.804609e+09 -4.604609e+09 -4.764609e+09 -1.842448e+02 -4.398957e+01 -8.572367e+00
-2.655796e+09 -2.455798e+09 -2.615796e+09 -1.010628e+02 -3.091166e+01 -4.021706e+01
-3.169794e+09 -2.969794e+09 -3.129793e+09 2.533794e+02 -1.445195e+02 3.145667e+01
-4.981707e+09 -4.781710e+09 -4.941708e+09 -2.904432e+02 7.006258e+01 -8.027289e+00
-1.674098e+09 -1.474098e+09 -1.634098e+09 6.567468e+00 -9.962808e+01 -2.568788e+01
-2.762244e+09 -2.562244e+09 -2.722244e+09 2.078009e+02 -1.467822e+02 2.125882e+01
-1.844656e+09 -1.644656e+09 -1.804655e+09 -2.235121e+01 -1.295197e+01 -6.336291e+01
-3.232138e+09 -3.032138e+09 -3.192138e+09 1.649568e+02 -5.935281e+01 -2.406914e+01
-4.453211e+09 -4.253210e+09 -4.413210e+09 -1.720736e+01 2.219011e+00 -1.456144e+01
-4.587857e+09 -4.387857e+09 -4.547856e+09 3.342607e+02 -6.607414e+01 2.962083e+01
-1.636086e+09 -1.436091e+09 -1.596087e+09 -1.908651e+01 -1.714165e+02 1.407562e+01
-2.775400e+09 -2.575404e+09 -2.735401e+09 -2.144006e+00 -1.142190e+02 -2.944017e+00
-4.807703e+09 -4.607706e+09 -4.767703e+09 -1.323801e+02 1.191563e+01 -1.905104e+01
-4.103815e+09 -3.903813e+09 -4.063815e+09 -1.052967e+03 -1.015677e+02 5.563025e+02
-4.228720e+09 -4.028722e+09 -4.188720e+09 -2.086184e+02 -2.781958e+01 -1.344062e+01
-4.631735e+09 -4.431737e+09 -4.591735e+09 -1.426366e+02 1.114449e+02 -1.391073e+01
-3.994221e+09 -3.794224e+09 -3.954221e+09 -4.906767e+01 1.709771e+01 -2.485678e+01
-4.833113e+09 -4.633114e+09 -4.793114e+09 6.774332e+02 -2.697453e+02 1.325711e+02
-1.583794e+09 -1.383799e+09 -1.543795e+09 6.174838e+02 -7.741902e+02 9.704930e+01
-2.845036e+09 -2.645035e+09 -2.805035e+09 2.713369e+01 6.503292e+00 5.392717e+00
-4.471570e+09 -4.271570e+09 -4.431570e+09 3.250895e+01 -2.202150e-02 -1.752468e+00
-4.583128e+09 -4.383128e+09 -4.543128e+09 9.554121e+00 3.827861e+00 -6.165422e+00
-4.486996e+09 -4.286997e+09 -4.447001e+09 -1.011476e+03 -1.282325e+03 -2.521751e+02
-4.482212e+09 -4.282212e+09 -4.442212e+09 2.028915e+01 1.041683e+01 9.097800e+00
-1.597615e+09 -1.397618e+09 -1.557616e+09 -7.271864e+02 -7.233685e+02 -1.454258e+02
-3.970789e+09 -3.770791e+09 -3.930794e+09 -8.119423e+02 -1.591941e+03 -2.958715e+02
-1.671024e+09 -1.471028e+09 -1.631025e+09 4.365802e+00 -1.696995e+02 2.610809e+01
-4.375849e+09 -4.175848e+09 -4.335848e+09 2.803547e+01 8.314526e+00 4.955744e+00
-4.700653e+09 -4.500652e+09 -4.660653e+09 1.508424e+01 1.077549e+00 -1.055026e+01
-1.975866e+09 -1.775870e+09 -1.935867e+09 2.959868e+01 -8.022241e+02 1.258088e+01
-4.532891e+09 -4.332891e+09 -4.492892e+09 -4.630057e+02 8.104749e+01 8.673883e+00
-4.779003e+09 -4.579002e+09 -4.739002e+09 2.855303e+01 1.011972e+00 -3.866308e+00
-4.732361e+09 -4.532360e+09 -4.692360e+09 1.019330e+01 2.435620e+00 -4.314970e+00
-4.489689e+09 -4.289687e+09 -4.449677e+09 2.834782e+03 -2.370799e+03 -5.525353e+03
-3.992266e+09 -3.792263e+09 -3.952250e+09 2.687939e+03 -4.355388e+03 -4.414711e+03
-4.873135e+09 -4.673132e+09 -4.833115e+09 -6.385557e+02 -2.026737e+02 -2.568424e+03
-4.678732e+09 -4.478732e+09 -4.638721e+09 7.984468e+02 -3.398809e+01 -2.152222e+03
-1.674083e+09 -1.474086e+09 -1.634083e+09 -2.152471e+01 5.736459e+01 -1.660330e+01
-4.706645e+09 -4.506648e+09 -4.666646e+09 1.739987e+02 -1.236374e+02 6.279819e+01
-4.753497e+09 -4.553500e+09 -4.713498e+09 1.509244e+02 -2.919921e+01 1.911225e+01
-1.777001e+09 -1.577004e+09 -1.737001e+09 -4.928991e+01 2.789130e+01 -1.448543e+01
-2.319573e+09 -2.119576e+09 -2.279573e+09 9.763386e+01 9.837640e+01 -9.013146e+00
-4.953662e+09 -4.753660e+09 -4.913662e+09 1.962315e+02 1.063344e+01 -3.207573e+01
-4.880301e+09 -4.680300e+09 -4.840286e+09 -8.101321e+02 1.777639e+02 -7.732947e+02
-4.209528e+09 -4.009527e+09 -4.169527e+09 5.676396e+02 8.742497e+01 -6.222202e+01
-4.616072e+09 -4.416070e+09 -4.576072e+09 6.005720e+02 2.032059e+02 -1.254405e+02
-4.186672e+09 -3.986669e+09 -4.146652e+09 1.930692e+02 -1.365190e+03 -1.814786e+03
-2.917215e+09 -2.717214e+09 -2.877215e+09 -1.384479e+02 1.944156e+02 -1.548010e+01
-4.193833e+09 -3.993833e+09 -4.153817e+09 -2.893878e+02 -3.020068e+02 -3.940722e+03
-1.872977e+09 -1.672975e+09 -1.832976e+09 6.399818e+02 5.418852e+02 -2.327403e+02
-2.636794e+09 -2.436792e+09 -2.596794e+09 1.149637e+02 1.788829e+02 -2.622459e+02
-4.449036e+09 -4.249036e+09 -4.409035e+09 3.078781e+02 -1.148140e+02 5.087699e+01
-2.590164e+09 -2.390163e+09 -2.550164e+09 -9.244352e+01 -3.521674e+02 -7.649330e+01
-4.257799e+09 -4.057799e+09 -4.217799e+09 4.620715e+02 -1.830734e+02 1.016567e+02
-4.641368e+09 -4.441369e+09 -4.601369e+09 5.109860e+02 -1.923060e+02 7.486000e+01
-3.943041e+09 -3.743041e+09 -3.903041e+09 6.131783e+02 -4.154075e+02 1.522806e+02
-3.981767e+09 -3.781765e+09 -3.941770e+09 -1.017192e+03 -1.276717e+03 -8.878433e+02
-1.640734e+09 -1.440732e+09 -1.600733e+09 -1.923462e+02 -5.552561e+02 -3.071944e+02
-4.770998e+09 -4.570999e+09 -4.730999e+09 4.602168e+02 -1.909204e+02 9.909762e+01
-1.636075e+09 -1.436073e+09 -1.596074e+09 -1.828527e+02 -3.942089e+02 -7.646262e+01
-1.818630e+09 -1.618628e+09 -1.778629e+09 -2.631015e+02 -5.103010e+02 -4.740000e+02
-2.938121e+09 -2.738119e+09 -2.898121e+09 4.781005e+01 -3.773169e+02 -2.140473e+02
-4.082655e+09 -3.882657e+09 -4.042656e+09 6.202066e+02 -3.499067e+02 1.429495e+02
-3.699915e+09 -3.499915e+09 -3.659915e+09 5.434674e+02 -2.614105e+02 7.613347e+01
-3.703867e+09 -3.503867e+09 -3.663867e+09 -6.019729e+01 -3.361771e+01 -3.924942e+01
-3.729380e+09 -3.529381e+09 -3.689380e+09 5.466550e+02 -4.283409e+02 2.323495e+02
-4.650810e+09 -4.450809e+09 -4.610810e+09 -3.845097e+02 -8.061387e+01 -1.313520e+02
-4.961880e+09 -4.761879e+09 -4.921879e+09 -1.681558e+02 -2.835115e+01 -3.107035e+01
-4.476348e+09 -4.276347e+09 -4.436348e+09 -3.472656e+02 -1.923011e+02 -2.456064e+01
-3.369053e+09 -3.169053e+09 -3.329053e+09 -5.603065e+02 -3.489094e+02 -9.545953e+01
-2.219216e+09 -2.019215e+09 -2.179214e+09 -3.962964e+01 -6.267086e+01 1.622205e-01
-4.084532e+09 -3.884531e+09 -4.044532e+09 -6.248052e+01 -9.333618e+01 -2.096829e+00
-1.613005e+09 -1.413003e+09 -1.573004e+09 -5.755891e+02 -5.639943e+02 -1.962959e+02
-1.612503e+09 -1.412502e+09 -1.572503e+09 -1.445498e+02 -3.262953e+01 -1.849429e+01
-1.916484e+09 -1.716484e+09 -1.876484e+09 -6.086611e+01 -1.204090e+01 -3.085770e+01
-1.959814e+09 -1.759814e+09 -1.919814e+09 -1.140555e+02 -2.938948e+01 -3.163662e+01
-4.535566e+09 -4.335565e+09 -4.495565e+09 -1.123586e+02 -4.847506e+01 -7.528213e+01
-2.592675e+09 -2.392674e+09 -2.552674e+09 -1.688871e+01 -4.974223e+01 -3.941216e+01
-2.919628e+09 -2.719628e+09 -2.879628e+09 -1.391265e+02 -3.220393e+01 -1.263204e+01
-4.010259e+09 -3.810258e+09 -3.970259e+09 -2.949855e+02 -2.461619e+02 -6.178262e+01
-3.645764e+09 -3.445764e+09 -3.605764e+09 -5.650087e+00 -2.985560e+00 2.106379e+00
-4.622425e+09 -4.422428e+09 -4.582427e+09 3.264996e+02 -1.279385e+02 5.945820e+01
-4.805898e+09 -4.605900e+09 -4.765899e+09 4.524226e+02 -2.693049e+02 2.610239e+01
-4.489371e+09 -4.289373e+09 -4.449373e+09 7.039131e+02 -3.177256e+02 1.227148e+02
-4.993242e+09 -4.793244e+09 -4.953243e+09 5.930462e+02 -1.407872e+02 4.419051e+01
-3.101311e+09 -2.901311e+09 -3.061311e+09 -1.115096e+01 -2.920565e+00 -7.361198e+00
-3.895074e+09 -3.695078e+09 -3.855076e+09 4.212769e+02 -6.144357e+02 1.516516e+02
-2.673206e+09 -2.473205e+09 -2.633205e+09 -8.524097e+00 -4.661494e+00 -7.508323e-01
-1.547466e+09 -1.347468e+09 -1.507467e+09 -1.306349e+01 4.595169e-01 1.554703e+01
-4.470039e+09 -4.270041e+09 -4.430040e+09 5.028865e+02 -3.356749e+02 1.874885e+02
-4.994046e+09 -4.794045e+09 -4.954045e+09 -1.676251e+02 4.429690e+01 4.024092e+01
-4.808600e+09 -4.608599e+09 -4.768600e+09 -1.424361e+02 6.007049e+01 3.384285e+01
-3.948457e+09 -3.748456e+09 -3.908456e+09 -4.806785e+02 3.610530e+00 -3.179290e+01
-4.651254e+09 -4.451253e+09 -4.611253e+09 -8.330198e+02 -3.028753e+01 -1.792172e+01
-4.621845e+09 -4.421844e+09 -4.581845e+09 -3.362506e+02 -2.894453e+00 -3.241241e+01
-4.983520e+09 -4.783520e+09 -4.943520e+09 -7.193345e+01 1.188872e+01 -5.497267e+00
-1.879054e+09 -1.679054e+09 -1.839054e+09 -3.901600e+01 -1.719763e+01 1.796012e+01
-4.978155e+09 -4.778154e+09 -4.938155e+09 -4.725460e+02 6.445477e+01 4.931678e+01
-4.807666e+09 -4.607665e+09 -4.767665e+09 -2.381359e+02 -5.009628e+01 -5.271378e+01
-4.998445e+09 -4.798446e+09 -4.958439e+09 2.776347e+03 7.607172e+02 5.843000e+02
-4.137218e+09 -3.937218e+09 -4.097212e+09 -3.585735e+03 -2.168837e+03 2.663267e+03
-4.112871e+09 -3.912873e+09 -4.072866e+09 2.817367e+03 2.208811e+03 2.401974e+03
-4.979477e+09 -4.779482e+09 -4.939473e+09 9.676647e+02 -1.541862e+02 4.931092e+02
-3.677092e+09 -3.477092e+09 -3.637092e+09 -6.861624e+01 -6.373096e+00 -1.164690e+01
-2.843028e+09 -2.643027e+09 -2.803027e+09 1.255586e+00 -5.664635e+00 -1.388834e+00
-4.822159e+09 -4.622156e+09 -4.782159e+09 2.133178e+03 4.204951e+02 -3.336545e+02
-4.657629e+09 -4.457628e+09 -4.617624e+09 2.848899e+03 9.712515e+02 1.001198e+03
-1.879054e+09 -1.679055e+09 -1.839055e+09 -3.355606e+01 -1.435346e+01 -1.480594e+01
-3.404956e+09 -3.204955e+09 -3.364955e+09 -1.378390e+02 -2.143854e+01 -1.473120e+01
-1.692396e+09 -1.492395e+09 -1.652396e+09 -7.629683e+00 -7.759431e+00 -4.378774e+01
-4.998443e+09 -4.798445e+09 -4.958439e+09 2.332754e+03 8.534107e+01 7.513845e+02
-4.672782e+09 -4.472783e+09 -4.632783e+09 2.532369e+03 7.257419e+02 8.965479e+01
-4.319448e+09 -4.119451e+09 -4.279447e+09 2.029691e+03 2.024855e+02 1.395787e+03
-1.589036e+09 -1.389036e+09 -1.549035e+09 -6.002203e+02 -2.447342e+02 -7.735557e+01
-4.141743e+09 -3.941747e+09 -4.101744e+09 1.756510e+03 3.709401e+02 1.657890e+03
-4.993242e+09 -4.793243e+09 -4.953243e+09 4.211810e+02 -1.654280e+02 3.510214e+01
-3.368722e+09 -3.168721e+09 -3.328721e+09 -9.517414e+01 -8.531903e+01 -1.243674e+01
-4.907948e+09 -4.707948e+09 -4.867947e+09 -5.122993e+01 1.353701e-08 -1.479745e+01
-2.072029e+09 -1.872031e+09 -2.032029e+09 -2.637106e+02 7.560493e+01 -4.927843e+01
-4.698934e+09 -4.498933e+09 -4.658933e+09 -3.152588e+01 -1.285528e+01 1.943686e+00
-4.960732e+09 -4.760733e+09 -4.920732e+09 -2.403103e+02 -4.431245e+01 -3.758660e+01
-2.147920e+09 -1.947922e+09 -2.107920e+09 -1.143068e+02 1.268190e+01 -2.935726e+01
-3.003141e+09 -2.803142e+09 -2.963141e+09 -2.898439e+02 7.604674e+01 -5.180094e+01
-1.788621e+09 -1.588622e+09 -1.748620e+09 -2.799774e+02 -3.678509e+01 -4.990455e+01
-4.725641e+09 -4.525641e+09 -4.685641e+09 -1.602320e+02 -9.117270e+01 -3.501490e+01
-2.445430e+09 -2.245431e+09 -2.405430e+09 -2.778993e+02 1.647499e+01 -6.797336e+01
-2.975550e+09 -2.775554e+09 -2.935552e+09 -6.902524e+01 -9.935049e+01 -6.320254e+01
-1.899406e+09 -1.699405e+09 -1.859405e+09 1.962287e+02 -9.435993e+01 -1.174999e+01
-1.636026e+09 -1.436028e+09 -1.596026e+09 -6.921415e+01 -1.071123e+02 3.400785e+00
-2.213228e+09 -2.013228e+09 -2.173228e+09 1.649260e+02 -1.350525e+01 -1.292560e+01
-1.836454e+09 -1.636455e+09 -1.796454e+09 8.982572e+01 -9.584954e+01 -4.139396e+01
-1.775387e+09 -1.575387e+09 -1.735387e+09 3.431662e+02 -2.205699e+02 1.984260e+01
-4.358666e+09 -4.158665e+09 -4.318665e+09 -2.262130e+01 -1.378593e+01 -1.779159e+00
-4.952989e+09 -4.752988e+09 -4.912988e+09 -2.051329e+01 2.295409e-02 -1.078459e+01
-3.922601e+09 -3.722600e+09 -3.882600e+09 -4.835020e+01 -5.672456e+00 -7.277228e+00
-4.765288e+09 -4.565287e+09 -4.725287e+09 -6.328294e+01 -1.753016e-01 6.574865e+00
-2.480077e+09 -2.280077e+09 -2.440077e+09 1.883013e+02 -1.500753e+02 -1.247610e+01
-2.356804e+09 -2.156804e+09 -2.316804e+09 1.785086e+02 -1.436300e+02 -1.730285e+01
-2.866272e+09 -2.666271e+09 -2.826271e+09 -2.151735e+01 -3.584816e+00 -2.231776e+01
-2.526286e+09 -2.326285e+09 -2.486285e+09 -6.123169e+01 -9.500516e+00 -1.094087e+01
-3.181688e+09 -2.981688e+09 -3.141688e+09 8.601813e+01 -6.623295e+01 -1.551597e+01
-2.527392e+09 -2.327392e+09 -2.487392e+09 -1.981361e+01 1.998131e+01 -3.657664e+01
-2.117323e+09 -1.917324e+09 -2.077323e+09 4.458381e+02 -1.555095e+02 -5.702722e+00
-4.255905e+09 -4.055908e+09 -4.215907e+09 2.262293e+02 -3.130651e+02 4.413664e+01
-2.439828e+09 -2.239831e+09 -2.399828e+09 -3.769698e+01 -2.993719e+00 -1.920920e+01
-3.319138e+09 -3.119141e+09 -3.279139e+09 -1.716280e+02 1.302669e+01 -1.266051e+01
-2.049097e+09 -1.849100e+09 -2.009097e+09 -4.172815e+01 -3.755130e+01 -1.139589e+01
-3.079875e+09 -2.879878e+09 -3.039875e+09 -1.520833e+02 1.070434e+02 -4.193454e+01
-4.890117e+09 -4.690119e+09 -4.850118e+09 4.104578e+01 1.999796e-08 2.728383e+01
-3.750261e+09 -3.550265e+09 -3.710263e+09 1.826110e+02 -3.457635e+02 5.191571e+01
-2.760039e+09 -2.560042e+09 -2.720039e+09 1.427494e+01 4.527383e+01 -2.708985e+01
-4.813493e+09 -4.613493e+09 -4.773493e+09 2.547901e+02 -7.625282e+00 -6.096336e+00
-4.827569e+09 -4.627569e+09 -4.787569e+09 2.798366e+02 1.244084e+01 6.327419e+00
-4.311039e+09 -4.111039e+09 -4.271039e+09 2.633666e+02 -9.778889e+00 -5.245821e+01
-4.435037e+09 -4.235041e+09 -4.395039e+09 -3.080189e+01 -5.380273e+01 -3.088356e+00
-4.953328e+09 -4.753327e+09 -4.913328e+09 -5.640672e+02 -1.017506e+02 -1.690674e+01
-3.965315e+09 -3.765313e+09 -3.925317e+09 -8.138413e+02 -7.640397e+02 -5.414644e+02
-4.136651e+09 -3.936651e+09 -4.096651e+09 2.934580e+02 1.058075e+01 -1.658921e+01
-4.327641e+09 -4.127640e+09 -4.287642e+09 -9.027679e+02 -4.847816e+02 -1.717825e+02
-4.125736e+09 -3.925736e+09 -4.085736e+09 2.191969e+02 6.007897e+00 -3.212845e+01
-3.406891e+09 -3.206892e+09 -3.366891e+09 -5.274304e+02 -4.093443e+02 -1.275758e+02
-4.971130e+09 -4.771129e+09 -4.931131e+09 -5.608036e+02 -1.595659e+02 -1.146893e+02
-3.692175e+09 -3.492177e+09 -3.652177e+09 5.500042e+02 -7.968795e+01 -7.132005e+01
-4.313995e+09 -4.113994e+09 -4.273994e+09 1.027006e+02 6.765038e+00 -2.013021e+00
-4.814670e+09 -4.614670e+09 -4.774670e+09 1.647658e+02 -1.214105e-01 -9.296379e+00
-4.479884e+09 -4.279884e+09 -4.439884e+09 2.797150e+02 8.688605e-01 -3.915922e+00
-3.209395e+09 -3.009395e+09 -3.169395e+09 2.966285e+01 9.658826e+00 -1.484838e+01
-2.107795e+09 -1.907798e+09 -2.067795e+09 1.392733e+01 1.345360e+01 -5.697997e+00
-3.948486e+09 -3.748486e+09 -3.908486e+09 2.477240e+02 2.966143e+01 -2.053731e+00
-2.227477e+09 -2.027480e+09 -2.187477e+09 3.416610e+01 2.399288e+01 -5.006248e+00
-1.854097e+09 -1.654100e+09 -1.814097e+09 -6.929241e+01 3.229589e+00 -1.769015e+01
-2.884990e+09 -2.684994e+09 -2.844991e+09 4.168480e+00 4.258918e+01 -3.346434e+01
-2.584161e+09 -2.384161e+09 -2.544161e+09 5.497316e+00 1.374105e+01 -1.793577e+01
-3.901363e+09 -3.701364e+09 -3.861364e+09 1.659644e+02 1.521269e+01 2.852713e+01
-2.038972e+09 -1.838973e+09 -1.998973e+09 7.353140e+01 1.346912e+01 5.542706e+01
-2.715075e+09 -2.515076e+09 -2.675076e+09 2.186122e+01 1.610915e+01 1.848427e+01
-2.456254e+09 -2.256257e+09 -2.416254e+09 2.061704e+01 -1.901859e+01 1.567617e+00
-3.789084e+09 -3.589085e+09 -3.749085e+09 1.202757e+02 6.046548e+00 -3.138243e+00
-3.952640e+09 -3.752640e+09 -3.912640e+09 1.873519e+02 2.579997e+01 1.435682e+01
-4.995129e+09 -4.795129e+09 -4.955129e+09 3.448003e+02 -1.274402e+01 -2.037363e+01
-3.052986e+09 -2.852989e+09 -3.012986e+09 1.819034e+01 5.979537e-01 -4.923551e+00
-3.008935e+09 -2.808935e+09 -2.968935e+09 1.709458e+02 1.958272e+01 3.126406e+00
-2.766782e+09 -2.566782e+09 -2.726782e+09 4.890360e+01 -1.942766e-01 6.236236e+00
-4.137433e+09 -3.937433e+09 -4.097434e+09 8.099809e+02 -5.986469e+02 4.413195e+02
-1.868807e+09 -1.668807e+09 -1.828807e+09 3.094585e+01 1.561335e+01 1.369093e+01
-3.967102e+09 -3.767101e+09 -3.927101e+09 -7.356374e+00 9.213839e+00 -3.313202e+01
-3.791187e+09 -3.591188e+09 -3.751188e+09 3.334028e+01 1.327977e+01 -3.053788e+00
-4.645985e+09 -4.445984e+09 -4.605984e+09 -2.382666e+02 3.962624e-01 -3.581852e+01
-1.751381e+09 -1.551381e+09 -1.711381e+09 1.384225e+02 2.714196e+01 1.290402e+01
-3.965071e+09 -3.765072e+09 -3.925071e+09 -6.612583e+02 -3.440878e+01 -4.526279e+01
-1.594955e+09 -1.394955e+09 -1.554955e+09 4.995813e+01 2.311343e+01 3.928176e+00
-4.833441e+09 -4.633441e+09 -4.793441e+09 -2.978448e+02 7.567785e+00 -3.121979e+00
-2.468413e+09 -2.268413e+09 -2.428413e+09 6.314372e+01 1.548918e+01 -1.396175e+01
-3.157642e+09 -2.957642e+09 -3.117642e+09 -2.652953e+01 -7.057819e-02 -1.574240e+01
-3.412847e+09 -3.212847e+09 -3.372846e+09 -4.913305e+01 -3.847632e+01 -3.468844e+01
-4.653574e+09 -4.453574e+09 -4.613574e+09 3.118164e+01 3.242743e+00 -2.242626e+01
-4.969522e+09 -4.769523e+09 -4.929522e+09 4.005926e+02 -1.545088e+02 7.244107e+00
-4.782628e+09 -4.582629e+09 -4.742629e+09 -1.411749e+02 -1.170693e+01 -6.469197e+00
-4.829060e+09 -4.629059e+09 -4.789059e+09 -3.281906e+01 -6.674291e+00 -1.779313e+01
-3.958324e+09 -3.758324e+09 -3.918324e+09 -1.928853e+02 -2.345120e+01 -3.405486e+01
-3.956238e+09 -3.756237e+09 -3.916237e+09 -1.270019e+02 6.988959e+00 -4.725798e+01
-4.639997e+09 -4.439998e+09 -4.599998e+09 5.530569e+00 9.294322e-01 8.377246e-01
-3.965307e+09 -3.765308e+09 -3.925308e+09 -7.539213e+01 4.821452e+00 -1.163025e+01
-1.762328e+09 -1.562329e+09 -1.722328e+09 2.125075e+01 -1.606941e+00 8.743367e+00
-4.445806e+09 -4.245807e+09 -4.405806e+09 -1.127025e+02 -2.684295e+00 -3.957393e+00
-4.995915e+09 -4.795916e+09 -4.955916e+09 7.633675e+01 -5.009440e+00 -3.315661e+01
-4.296765e+09 -4.096766e+09 -4.256765e+09 1.402381e+01 1.046380e+00 5.027827e+00
-4.995005e+09 -4.795007e+09 -4.955006e+09 -3.596729e+01 -3.805727e+00 -7.283408e+00
-4.983230e+09 -4.783231e+09 -4.943231e+09 8.763467e+00 -1.892095e+00 4.754156e+00
-3.061961e+09 -2.861962e+09 -3.021962e+09 -1.801970e+02 -2.114974e+01 1.510299e+01
-4.647769e+09 -4.447769e+09 -4.607769e+09 -3.857300e+02 -8.539246e+00 3.902264e+01
-2.584278e+09 -2.384279e+09 -2.544278e+09 -5.478696e+00 -4.965953e+00 5.368221e+00
-3.965307e+09 -3.765308e+09 -3.925308e+09 -2.278009e+01 4.867708e+00 -9.425722e+00
-2.502342e+09 -2.302343e+09 -2.462343e+09 -5.829013e+00 -1.217094e+01 3.807493e+00
-3.967187e+09 -3.767188e+09 -3.927187e+09 -7.300131e+02 3.477573e+01 -2.400083e+01
-4.655191e+09 -4.455192e+09 -4.615191e+09 -4.751097e+02 7.335260e+00 -2.432503e+01
-3.273814e+09 -3.073814e+09 -3.233813e+09 -3.264278e+02 1.694464e+01 -2.501057e+01
-4.655402e+09 -4.455402e+09 -4.615402e+09 -3.124603e+02 -1.781416e+01 -2.970270e+01
-3.823876e+09 -3.623876e+09 -3.783876e+09 -2.395308e+00 2.025107e+00 -2.807158e+01
-4.302752e+09 -4.102752e+09 -4.262752e+09 -2.398008e+02 4.164676e+01 3.865211e+00
-4.897911e+09 -4.697912e+09 -4.857912e+09 -7.404152e+01 1.463752e+00 1.090287e+01
-4.136708e+09 -3.936709e+09 -4.096708e+09 -1.218059e+02 -1.150063e+01 1.629050e+01
-4.651855e+09 -4.451855e+09 -4.611855e+09 -6.794700e+02 -8.156813e+00 -1.178490e+01
-4.789038e+09 -4.589039e+09 -4.749039e+09 -1.555023e+02 4.790347e+00 -2.724675e+01
-1.636087e+09 -1.436087e+09 -1.596086e+09 1.669908e+01 3.528537e+00 -4.228807e+01
-4.779906e+09 -4.579907e+09 -4.739907e+09 -7.261686e+01 4.003730e+00 -1.299666e+01
-3.538992e+09 -3.338991e+09 -3.498992e+09 -1.509187e+02 1.898445e+02 -1.658904e+02
-1.674920e+09 -1.474922e+09 -1.634920e+09 -4.852245e+02 3.658871e+01 -6.293408e+01
-4.120390e+09 -3.920389e+09 -4.080390e+09 -5.393650e+01 6.148710e+01 1.231833e+01
-4.990874e+09 -4.790874e+09 -4.950874e+09 -3.117350e+02 1.258687e+01 1.839092e+01
-1.636094e+09 -1.436095e+09 -1.596094e+09 4.580571e+00 4.784845e+00 -7.336693e+01
-4.263099e+09 -4.063098e+09 -4.223098e+09 -1.643117e+02 1.337187e+01 2.307602e+01
-3.965281e+09 -3.765283e+09 -3.925282e+09 -9.774204e+02 9.385263e+01 3.048296e+01
-4.484657e+09 -4.284659e+09 -4.444658e+09 -9.507965e+02 6.124592e+01 1.039964e+01
-4.313854e+09 -4.113856e+09 -4.273854e+09 -6.088470e+02 8.540287e+01 3.795901e+01
-4.127759e+09 -3.927760e+09 -4.087759e+09 -9.998066e+02 6.578292e+01 1.684686e+01
-3.040793e+09 -2.840793e+09 -3.000794e+09 4.900655e+01 1.398944e+02 1.524017e+02
-4.822643e+09 -4.622644e+09 -4.782643e+09 -6.526814e+02 4.476598e+01 2.566265e+01
-4.631980e+09 -4.431980e+09 -4.591980e+09 -6.241340e+02 2.104937e+01 -1.255393e+01
-2.648793e+09 -2.448792e+09 -2.608793e+09 -1.692591e+02 2.235970e+02 -2.010557e+02
-1.679141e+09 -1.479139e+09 -1.639141e+09 7.413392e+02 -2.765957e+02 -6.585148e+02
-4.802065e+09 -4.602062e+09 -4.762066e+09 1.447082e+03 -2.939801e+02 -5.269561e+02
-3.950876e+09 -3.750867e+09 -3.910865e+09 1.685849e+03 4.818440e+03 -3.709914e+02
-3.955572e+09 -3.755568e+09 -3.915573e+09 1.818093e+03 4.719109e+02 -4.013148e+02
-2.381192e+09 -2.181191e+09 -2.341192e+09 -6.370975e+02 -8.455596e+02 -5.343794e+02
-2.753276e+09 -2.553279e+09 -2.713279e+09 5.307038e+02 -4.709945e+01 1.134503e+01
-3.775735e+09 -3.575733e+09 -3.735735e+09 9.023548e+01 -3.091743e+02 -2.685499e+02
-3.973875e+09 -3.773872e+09 -3.933876e+09 4.641205e+02 -4.116218e+02 -6.232530e+02
-4.824868e+09 -4.624866e+09 -4.784869e+09 9.850643e+02 -1.742647e+02 -1.343174e+02
-3.004967e+09 -2.804966e+09 -2.964967e+09 -1.069291e+02 -2.903742e+02 -1.225543e+02
-1.588624e+09 -1.388623e+09 -1.548623e+09 4.257971e+00 -1.352029e+01 -4.192072e+01
-2.423054e+09 -2.223054e+09 -2.383055e+09 -3.843623e+02 1.734431e+02 2.111933e+01
-2.580040e+09 -2.380042e+09 -2.540042e+09 -2.216798e+02 1.418982e+02 2.468484e+02
-4.490094e+09 -4.290088e+09 -4.450085e+09 -2.628362e+03 -2.482697e+03 1.692193e+02
-3.409146e+09 -3.209148e+09 -3.369149e+09 -4.539244e+02 6.613776e+01 -2.104158e+02
-2.174348e+09 -1.974348e+09 -2.134349e+09 9.694681e-01 1.211361e+02 -2.998395e+01
-4.460992e+09 -4.260985e+09 -4.420982e+09 -2.839773e+03 -2.347254e+03 8.268642e+00
-1.648974e+09 -1.448974e+09 -1.608974e+09 -5.780475e+00 -3.904297e+01 -6.987087e+01
-1.680550e+09 -1.480549e+09 -1.640551e+09 -1.106422e+03 1.160790e+02 1.110207e+01
-2.877999e+09 -2.678000e+09 -2.837999e+09 4.501040e+02 -3.069972e+02 6.956097e+01
-2.903712e+09 -2.703714e+09 -2.863713e+09 5.136789e+02 -3.466597e+02 1.190629e+02
-2.446199e+09 -2.246201e+09 -2.406199e+09 5.528109e+02 -2.984398e+02 3.202403e+01
-2.113739e+09 -1.913741e+09 -2.073739e+09 6.501777e+02 -6.070567e+02 2.057547e+02
-2.721101e+09 -2.521103e+09 -2.681101e+09 3.988228e+02 -1.492643e+02 1.809244e+01
-1.611328e+09 -1.411330e+09 -1.571328e+09 2.558054e+02 -1.132343e+02 4.636408e+00
-2.806954e+09 -2.606954e+09 -2.766954e+09 -7.047799e+01 -6.601201e+00 -3.493480e+01
-2.217020e+09 -2.017020e+09 -2.177020e+09 -4.023605e+01 -7.609962e+00 -3.673976e+01
-4.464488e+09 -4.264483e+09 -4.424486e+09 -2.230589e+03 -7.262169e+02 -4.017198e+02
-3.966850e+09 -3.766848e+09 -3.926849e+09 -1.017022e+03 2.850263e+02 -3.513722e+02
-3.968892e+09 -3.768893e+09 -3.928894e+09 -1.612044e+03 9.118431e+02 3.942456e+02
-4.296647e+09 -4.096646e+09 -4.256648e+09 -1.555352e+03 6.233716e+02 2.814460e+02
-4.289356e+09 -4.089353e+09 -4.249358e+09 9.546377e+02 1.068131e+03 -8.432717e+02
-3.961601e+09 -3.761604e+09 -3.921603e+09 -1.117121e+03 7.859245e+02 1.418725e+02
-4.992105e+09 -4.792104e+09 -4.952105e+09 -6.004324e+02 1.163372e+01 -2.362643e+01
-4.830854e+09 -4.630854e+09 -4.790854e+09 -8.099869e+02 -2.827839e+01 5.122690e+01
-3.949736e+09 -3.749735e+09 -3.909736e+09 -8.562629e+02 -2.274033e+01 7.165640e+01
-5.006625e+09 -4.806624e+09 -4.966624e+09 -4.360868e+01 -3.565756e+01 5.086311e+01
-4.649075e+09 -4.449074e+09 -4.609075e+09 -4.596061e+02 -5.290347e+01 4.537841e+01
-1.584032e+09 -1.384032e+09 -1.544032e+09 8.043230e+01 -2.913219e+01 -7.371934e+01
-2.697970e+09 -2.497970e+09 -2.657969e+09 -1.169666e+02 1.327502e+01 -4.053206e+01
-3.949735e+09 -3.749735e+09 -3.909736e+09 -1.056903e+03 -1.891752e+01 6.568832e+01
-4.463264e+09 -4.263264e+09 -4.423264e+09 -8.234434e+02 -5.146017e+00 1.563624e+01
-4.996298e+09 -4.796297e+09 -4.956298e+09 -4.016256e+02 2.084024e+01 -2.374367e+01
-3.961340e+09 -3.761339e+09 -3.921340e+09 -7.191987e+02 -7.324122e+01 6.275042e+01
-4.622577e+09 -4.422575e+09 -4.582577e+09 -2.890773e+02 -9.621931e+01 1.133905e+02
-4.800617e+09 -4.600616e+09 -4.760617e+09 -4.091252e+02 -7.230387e+01 -4.701726e+01
-4.981622e+09 -4.781620e+09 -4.941622e+09 -9.895539e+02 -2.277554e+02 2.007535e+02
-4.290522e+09 -4.090521e+09 -4.250521e+09 -7.324373e+01 4.343318e+01 1.422362e+01
-4.982656e+09 -4.782651e+09 -4.942660e+09 5.720417e+02 7.004825e+02 -5.790171e+02
-4.827000e+09 -4.627001e+09 -4.787003e+09 -1.423465e+03 4.391440e+02 2.354049e+02
-2.735719e+09 -2.535719e+09 -2.695719e+09 -4.723736e+01 3.702091e+01 -3.178969e+01
-2.437798e+09 -2.237798e+09 -2.397797e+09 -1.220403e+02 3.629788e+01 -6.590651e+01
-4.502310e+09 -4.302312e+09 -4.462311e+09 1.164468e+03 2.045414e+02 -6.366067e+01
-2.652104e+09 -2.452104e+09 -2.612104e+09 -8.382926e+01 -2.910410e+01 -3.889879e+01
-3.964551e+09 -3.764555e+09 -3.924554e+09 8.284493e+02 9.185089e+02 -1.271372e+02
-3.961104e+09 -3.761108e+09 -3.921106e+09 -5.561935e+01 6.154468e+02 -2.373107e+01
-1.772559e+09 -1.572559e+09 -1.732558e+09 -6.702831e+01 1.036260e+01 -4.202582e+01
-3.981430e+09 -3.781430e+09 -3.941430e+09 -1.060528e+02 -1.592109e+01 -2.451849e+01
-2.613544e+09 -2.413543e+09 -2.573543e+09 -4.518244e+01 -1.164404e+01 -3.451917e+01
-2.212282e+09 -2.012281e+09 -2.172282e+09 -7.150289e+01 -9.776686e+00 -1.950321e+01
-4.559144e+09 -4.359143e+09 -4.519144e+09 -1.112539e+02 -1.011020e+01 -3.323632e+01
-3.108388e+09 -2.908388e+09 -3.068388e+09 -1.377533e+01 -4.682185e+00 -2.420024e+01
-4.459139e+09 -4.259136e+09 -4.419147e+09 2.195109e+02 1.673965e+03 1.014476e+03
-3.180606e+09 -2.980605e+09 -3.140606e+09 -1.407185e+02 -1.960328e+01 -1.163282e+01
-4.491665e+09 -4.291657e+09 -4.451669e+09 -4.759730e+02 -1.020854e+03 2.058033e+02
-4.477507e+09 -4.277509e+09 -4.437504e+09 1.766592e+02 -1.086927e+03 -1.651059e+03
-4.133994e+09 -3.933990e+09 -4.093998e+09 -3.278194e+02 -1.697450e+03 -1.125876e+03
-2.805868e+09 -2.605868e+09 -2.765868e+09 5.529969e+01 1.266523e+01 2.199680e+00
-2.850324e+09 -2.650324e+09 -2.810324e+09 2.429462e+01 1.001387e+01 -6.422269e+00
-1.874653e+09 -1.674653e+09 -1.834653e+09 1.981134e+01 9.609488e+00 -1.229946e+00
-3.956992e+09 -3.756994e+09 -3.916996e+09 7.209590e+02 -1.355790e+03 4.418120e+02
-4.826638e+09 -4.626637e+09 -4.786637e+09 1.682455e+01 3.608556e+01 1.842725e+01
-4.983273e+09 -4.783271e+09 -4.943280e+09 -5.407471e+02 -1.017077e+03 1.110832e+02
-3.956835e+09 -3.756834e+09 -3.916837e+09 6.927347e+02 -7.751969e+02 7.411609e+02
-4.717613e+09 -4.517613e+09 -4.677612e+09 3.543370e+02 -2.732227e+01 2.565874e+01
-4.763099e+09 -4.563098e+09 -4.723098e+09 3.819546e+02 7.615732e+00 -2.869049e+01
-4.645659e+09 -4.445659e+09 -4.605663e+09 4.622314e+02 -5.383367e+02 3.547939e+02
-4.946667e+09 -4.746666e+09 -4.906666e+09 1.541789e+02 1.074440e+01 -7.011564e-01
-3.971552e+09 -3.771550e+09 -3.931551e+09 -5.597535e+02 1.856724e+01 -8.780110e+00
-3.178836e+09 -2.978836e+09 -3.138835e+09 2.729810e+02 7.896117e+01 1.457206e+01
-4.311776e+09 -4.111775e+09 -4.271775e+09 -7.614162e+02 1.580975e+02 5.888679e+01
-4.758030e+09 -4.558031e+09 -4.718029e+09 1.434806e+02 2.005518e+01 1.389600e+01
-4.729042e+09 -4.529042e+09 -4.689041e+09 1.205081e+02 1.460002e+01 -2.150377e+01
-4.606107e+09 -4.406108e+09 -4.566107e+09 2.995643e+02 5.485889e+00 4.392123e+01
-3.971552e+09 -3.771551e+09 -3.931551e+09 -8.519114e+02 1.602425e+02 1.611810e+02
-4.978155e+09 -4.778155e+09 -4.938155e+09 -7.212319e+02 4.935130e+01 4.483658e+01
-4.654324e+09 -4.454326e+09 -4.614327e+09 -1.418587e+03 4.230217e+02 2.296573e+02
-4.619130e+09 -4.419129e+09 -4.579130e+09 -1.434660e+03 1.420086e+02 8.358012e+01
-4.457404e+09 -4.257404e+09 -4.417403e+09 1.085150e+02 6.956430e+00 2.862446e+00
-4.990034e+09 -4.790033e+09 -4.950034e+09 -7.368242e+02 -7.369032e+00 3.877733e+01
-4.974012e+09 -4.774011e+09 -4.934011e+09 -1.305618e+03 4.491821e+01 -1.574475e+02
-4.984544e+09 -4.784542e+09 -4.944547e+09 -1.411817e+03 -5.450820e+02 2.888655e+02
-4.029789e+09 -3.829789e+09 -3.989788e+09 3.744275e+02 4.434711e+01 -1.773485e+01
-3.948422e+09 -3.748425e+09 -3.908425e+09 9.190591e+02 1.131304e+02 2.433390e+02
-3.969610e+09 -3.769609e+09 -3.929610e+09 -1.055176e+03 3.195312e+01 1.416243e+02
-4.275897e+09 -4.075896e+09 -4.235897e+09 -1.434100e+03 1.368579e+02 -3.478852e+01
-3.960336e+09 -3.760335e+09 -3.920336e+09 -6.198265e+02 -1.188365e+02 1.734709e+02
-4.814768e+09 -4.614767e+09 -4.774768e+09 -9.595707e+02 -4.951607e+01 1.107047e+02
-4.722331e+09 -4.522336e+09 -4.682334e+09 -1.481237e+02 6.484170e+01 8.772636e+00
-4.627593e+09 -4.427597e+09 -4.587596e+09 1.613070e+02 1.794398e+01 9.845907e+01
-3.849723e+09 -3.649726e+09 -3.809726e+09 3.086035e+02 -1.337308e+01 1.395235e+02
-4.985979e+09 -4.785974e+09 -4.945950e+09 -1.514669e+02 7.075103e+02 4.546648e+02
-4.116110e+09 -3.916103e+09 -4.076090e+09 5.544370e+02 3.710900e+03 1.757761e+03
-4.629050e+09 -4.429048e+09 -4.589049e+09 -5.973667e+02 -1.250421e+01 7.056514e+00
-1.575895e+09 -1.375895e+09 -1.535895e+09 1.358587e+02 -3.833448e+01 -6.095330e+01
-3.953575e+09 -3.753574e+09 -3.913581e+09 -9.609580e+01 -1.808751e+03 7.058436e+02
-4.966800e+09 -4.766794e+09 -4.926790e+09 -1.984800e+03 5.335200e+02 2.370592e+02
-4.150680e+09 -3.950674e+09 -4.110652e+09 -9.168561e+02 3.364347e+03 -1.418780e+03
-4.275787e+09 -4.075782e+09 -4.235772e+09 -2.584862e+03 -2.527304e+03 7.917814e+02
-4.324131e+09 -4.124127e+09 -4.284096e+09 3.678216e+02 -1.055875e+03 -3.708297e+02
-4.985109e+09 -4.785106e+09 -4.945080e+09 -2.238650e+02 4.274391e+01 7.789814e+02
-2.062852e+09 -1.862856e+09 -2.022853e+09 4.542395e+02 -4.396152e+02 8.321757e+01
-3.992609e+09 -3.792606e+09 -3.952599e+09 -2.317907e+03 2.360846e+03 -3.083872e+03
-2.825754e+09 -2.625757e+09 -2.785754e+09 6.221143e+01 -2.778588e+01 4.513961e+01
-4.134278e+09 -3.934273e+09 -4.094280e+09 -1.235890e+03 6.224476e+02 2.704458e+03
-4.986133e+09 -4.786131e+09 -4.946129e+09 1.219411e+03 -4.392472e+02 -7.014087e+02
-3.977496e+09 -3.777492e+09 -3.937495e+09 -6.871781e+02 3.291924e+02 7.876694e+02
-3.991975e+09 -3.791973e+09 -3.951973e+09 5.713195e+02 -1.362006e+02 -1.112377e+02
-2.620262e+09 -2.420266e+09 -2.580263e+09 7.364215e+02 -6.307448e+02 2.690620e+02
-4.140404e+09 -3.940404e+09 -4.100409e+09 -7.450668e+02 -2.063544e+03 -4.149554e+02
-1.790206e+09 -1.590210e+09 -1.750207e+09 5.378708e+02 -5.951112e+02 1.699927e+02
-2.165691e+09 -1.965696e+09 -2.125692e+09 6.382098e+01 -1.885897e+02 -2.972484e+01
-4.820742e+09 -4.620740e+09 -4.780739e+09 1.829156e+03 -6.161369e+01 -3.932408e+02
-4.890117e+09 -4.690119e+09 -4.850117e+09 -2.601847e+01 -9.948431e-05 1.793418e+01
-4.971807e+09 -4.771805e+09 -4.931806e+09 -6.165172e+02 9.522147e+01 5.755941e+01
-2.714769e+09 -2.514773e+09 -2.674771e+09 4.090697e+02 -9.636173e+02 1.188454e+02
-2.024580e+09 -1.824585e+09 -1.984581e+09 8.190507e+01 -5.662456e+02 2.505709e+01
-3.828704e+09 -3.628702e+09 -3.788704e+09 -4.675069e+02 4.922519e+01 -2.258834e+02
-3.237175e+09 -3.037173e+09 -3.197175e+09 -2.830431e+02 1.601402e+02 -1.094296e+02
-2.185238e+09 -1.985239e+09 -2.145237e+09 -4.697630e+02 -2.571889e+00 -2.707078e+01
-3.717943e+09 -3.517941e+09 -3.677943e+09 2.305439e+02 3.042041e+02 -2.604252e+02
-2.769946e+09 -2.569944e+09 -2.729945e+09 -1.470722e+02 2.020730e+02 -2.264541e+01
-2.333163e+09 -2.133166e+09 -2.293163e+09 3.369871e+02 1.394393e+02 2.916085e+01
-5.008159e+09 -4.808162e+09 -4.968160e+09 5.157152e+02 4.021712e+01 1.345472e+01
-1.582183e+09 -1.382181e+09 -1.542182e+09 6.170139e+02 4.708893e+02 -2.680593e+02
-4.486599e+09 -4.286597e+09 -4.446599e+09 -1.301070e+03 -2.145076e+02 2.054218e+02
-1.674065e+09 -1.474067e+09 -1.634065e+09 -4.069334e+02 4.187647e+01 -5.376172e+01
-3.461706e+09 -3.261709e+09 -3.421706e+09 -2.915000e+02 7.866640e+01 -1.546827e+00
-3.049925e+09 -2.849923e+09 -3.009925e+09 1.534111e+01 3.210771e+02 -2.793919e+02
-3.731502e+09 -3.531504e+09 -3.691503e+09 -3.700859e+02 -3.207090e+02 -7.305051e+01
-3.437874e+09 -3.237876e+09 -3.397874e+09 -4.567812e+02 5.632736e+01 -2.753135e+00
-4.515228e+09 -4.315230e+09 -4.475228e+09 -2.180202e+02 1.070541e+01 -2.357055e+01
-2.910572e+09 -2.710575e+09 -2.870573e+09 -3.868072e+02 7.766995e+01 -2.914441e+01
-3.970621e+09 -3.770623e+09 -3.930622e+09 -7.154103e+02 2.018046e+02 3.889616e+01
-2.914911e+09 -2.714910e+09 -2.874910e+09 7.599925e+01 1.258140e+01 -1.285951e+01
-2.204199e+09 -2.004199e+09 -2.164199e+09 3.447619e+01 5.745577e+00 -8.477841e-01
-2.938373e+09 -2.738373e+09 -2.898373e+09 3.029909e+01 -1.967884e-01 -1.577662e+01
-2.988919e+09 -2.788920e+09 -2.948919e+09 -4.917022e+02 -3.093155e+02 -1.375771e+02
-1.879863e+09 -1.679863e+09 -1.839863e+09 1.002877e+02 1.792167e+01 9.124397e+00
-1.588598e+09 -1.388598e+09 -1.548598e+09 3.241849e+01 1.594023e+01 -2.871639e+01
-4.634770e+09 -4.434769e+09 -4.594769e+09 4.548097e+01 7.362118e+00 -3.075375e+00
-4.084729e+09 -3.884728e+09 -4.044728e+09 5.529271e+01 9.408389e+00 -7.006467e+00
-4.968059e+09 -4.768059e+09 -4.928059e+09 2.576935e+01 2.881347e+00 -5.318483e+00
-4.147813e+09 -3.947812e+09 -4.107812e+09 8.253032e+01 5.460187e+00 -8.639962e+00
-3.227596e+09 -3.027596e+09 -3.187596e+09 9.652428e+01 6.552433e+00 -1.903846e+01
-3.309507e+09 -3.109508e+09 -3.269507e+09 -2.327217e+02 -1.522395e+02 1.821318e+00
-4.307684e+09 -4.107685e+09 -4.267690e+09 -4.481706e+02 -2.007828e+03 1.429133e+01
-2.636775e+09 -2.436775e+09 -2.596775e+09 1.248991e+02 3.401860e+01 -6.144431e+00
-3.661929e+09 -3.461930e+09 -3.621929e+09 -2.673190e+02 -2.193277e+02 -1.087731e+02
-3.774611e+09 -3.574611e+09 -3.734611e+09 1.723648e+02 1.290390e+01 6.299267e+00
-2.744257e+09 -2.544257e+09 -2.704257e+09 7.001000e+01 5.872241e+00 -6.149506e+00
-1.847146e+09 -1.647146e+09 -1.807146e+09 4.159386e+01 1.679541e+01 1.849704e+01
-1.827418e+09 -1.627418e+09 -1.787418e+09 3.465564e+01 1.807872e+01 -1.929752e+01
-4.203886e+09 -4.003886e+09 -4.163886e+09 -1.082997e+02 -6.031900e+00 -4.280881e+00
-4.281552e+09 -4.081551e+09 -4.241551e+09 -1.701061e+02 -2.971425e+01 -4.917695e+00
-4.811909e+09 -4.611909e+09 -4.771909e+09 -2.073106e+02 -7.798171e+00 2.894008e+01
-1.581653e+09 -1.381653e+09 -1.541653e+09 9.353304e+01 2.381083e+01 -1.108614e+01
-3.284921e+09 -3.084920e+09 -3.244921e+09 5.161824e+01 3.623239e+00 -6.595084e+00
-3.942831e+09 -3.742831e+09 -3.902831e+09 -2.159598e+02 -2.565307e+01 -1.141803e+01
-1.891973e+09 -1.691973e+09 -1.851973e+09 1.539853e+02 2.136135e+01 1.242119e+01
-3.140542e+09 -2.940541e+09 -3.100541e+09 -1.423321e+02 -2.547896e+01 -1.740141e+01
-4.349983e+09 -4.149983e+09 -4.309983e+09 -1.540127e+02 -1.232249e+01 2.418858e+00
-4.622285e+09 -4.422284e+09 -4.582284e+09 -1.409475e+00 0.000000e+00 -5.236416e-01
-2.741505e+09 -2.541504e+09 -2.701504e+09 -2.069227e+02 -2.532018e+02 -7.527867e+01
-4.936061e+09 -4.736060e+09 -4.896061e+09 -9.211575e+00 2.460936e+00 1.937257e+00
-4.335502e+09 -4.135500e+09 -4.295496e+09 1.480159e+03 -3.199162e+03 -1.393268e+02
-4.786628e+09 -4.586627e+09 -4.746628e+09 -4.170497e+02 -1.068876e+02 4.249708e+01
-4.622285e+09 -4.422284e+09 -4.582284e+09 -5.940606e+00 5.253327e-01 -4.973799e-05
-4.018441e+09 -3.818439e+09 -3.978441e+09 4.491052e+01 -2.275068e+02 -8.823164e+01
-4.642477e+09 -4.442476e+09 -4.602476e+09 -1.899365e+01 -2.256787e+00 -1.248623e+00
-4.014067e+09 -3.814065e+09 -3.974067e+09 -2.951223e+02 -2.166979e+02 -1.187017e+02
-4.280908e+09 -4.080907e+09 -4.240908e+09 -4.812926e+02 -3.436360e+02 -1.963872e+01
-3.902686e+09 -3.702685e+09 -3.862686e+09 -1.831628e+01 -3.119965e+00 -9.438287e+00
-2.579121e+09 -2.379120e+09 -2.539120e+09 -2.738662e+01 -4.087126e+00 4.623221e+00
-4.107396e+09 -3.907395e+09 -4.067396e+09 -5.236759e+02 -3.480587e+02 -2.613113e+02
-3.841489e+09 -3.641488e+09 -3.801488e+09 -4.402047e+02 -3.151352e+02 -1.233631e+02
-3.525888e+09 -3.325886e+09 -3.485887e+09 -4.803530e+02 -4.453115e+02 -3.110272e+02
-4.678485e+09 -4.478485e+09 -4.638487e+09 2.097472e+02 -4.981732e+01 1.269463e+02
-1.913604e+09 -1.713602e+09 -1.873603e+09 -2.717363e+02 -5.616848e+02 -3.741170e+02
-4.419658e+09 -4.219659e+09 -4.379660e+09 2.212644e+01 -6.869150e+01 -8.639986e+00
-4.115853e+09 -3.915852e+09 -4.075860e+09 1.356217e+03 3.011051e+03 -1.115129e+03
-3.999654e+09 -3.799653e+09 -3.959655e+09 -7.638163e+01 -1.491094e+02 4.888750e+01
-1.581551e+09 -1.381553e+09 -1.541553e+09 6.763272e+02 -9.832415e+01 -2.208400e+02
-4.450629e+09 -4.250628e+09 -4.410629e+09 -2.527954e+02 -2.096107e+02 -2.864573e+01
-4.609690e+09 -4.409688e+09 -4.569690e+09 -8.914914e+01 -2.214700e+02 -1.241833e+02
-4.974234e+09 -4.774233e+09 -4.934235e+09 2.735551e+02 -6.532287e+01 -1.231137e+02
-4.873523e+09 -4.673527e+09 -4.833526e+09 2.819585e+02 -1.643445e+01 8.891263e+00
-4.825378e+09 -4.625379e+09 -4.785379e+09 1.332210e+03 1.542631e+02 -1.192760e+02
-4.969522e+09 -4.769523e+09 -4.929522e+09 2.131130e+02 -1.411778e+01 4.603089e+01
-4.312764e+09 -4.112764e+09 -4.272764e+09 1.421400e+03 3.754752e+02 -2.122761e+02
-4.511546e+09 -4.311547e+09 -4.471546e+09 1.044822e+03 3.811462e+01 -2.219575e+01
-4.981035e+09 -4.781035e+09 -4.941035e+09 9.246909e+01 -4.843108e+01 3.479790e+01
-4.168313e+09 -3.968315e+09 -4.128313e+09 1.136760e+03 2.597190e+02 -9.738763e+01
-1.851176e+09 -1.651175e+09 -1.811175e+09 4.579837e+01 2.160378e+01 6.415206e-01
-4.861815e+09 -4.661816e+09 -4.821815e+09 1.295244e+03 1.418540e+02 -1.640791e+01
-5.014392e+09 -4.814393e+09 -4.974392e+09 1.100608e+03 1.183444e+02 -6.489594e+01
-3.061381e+09 -2.861381e+09 -3.021381e+09 -5.010605e+00 1.101199e-01 -5.247408e+00
-3.233478e+09 -3.033478e+09 -3.193478e+09 -1.645153e+01 -5.655180e+00 -4.973850e+00
-2.777653e+09 -2.577653e+09 -2.737653e+09 -8.533945e+00 -4.773629e+00 2.993108e+00
-3.358224e+09 -3.158224e+09 -3.318224e+09 -3.271043e+01 -3.193275e+00 -3.441219e+00
-1.636074e+09 -1.436073e+09 -1.596073e+09 -1.044896e+00 1.796016e+01 -3.720539e+00
-3.144151e+09 -2.944151e+09 -3.104151e+09 -9.560289e+00 -1.184658e+01 2.287555e+01
-2.863744e+09 -2.663743e+09 -2.823744e+09 -3.197536e+01 -1.244316e+01 2.085415e+00
-3.366110e+09 -3.166109e+09 -3.326110e+09 1.556008e+01 8.692880e-01 -1.851878e+00
-1.777628e+09 -1.577627e+09 -1.737628e+09 -4.428841e+01 -1.798639e+01 -9.155023e+00
-1.667418e+09 -1.467418e+09 -1.627418e+09 2.855617e+01 1.301569e+01 -2.213030e+00
-2.059113e+09 -1.859113e+09 -2.019113e+09 -3.570411e+01 -7.172840e+00 3.771427e+00
-2.867635e+09 -2.667634e+09 -2.827635e+09 -1.231602e+01 -7.533018e+00 -1.284668e+01
-1.975831e+09 -1.775831e+09 -1.935831e+09 -9.506571e+00 -6.306230e+00 2.609243e+00
-3.303095e+09 -3.103094e+09 -3.263094e+09 -1.118757e+00 2.239608e-01 -3.420706e+00
-3.492003e+09 -3.292002e+09 -3.452002e+09 6.596819e+00 2.242288e+00 -2.928963e+00
-1.707035e+09 -1.507034e+09 -1.667035e+09 -2.946150e+01 -1.188091e+01 -4.971996e+00
-3.698755e+09 -3.498754e+09 -3.658754e+09 1.121313e+01 1.536556e+00 -5.407415e+00
-3.264934e+09 -3.064933e+09 -3.224933e+09 -3.607031e+01 -9.122414e+00 -2.247590e+01
-2.786468e+09 -2.586467e+09 -2.746467e+09 -6.388047e+01 -2.023543e+01 -4.223419e+01
-3.015177e+09 -2.815176e+09 -2.975176e+09 -5.555279e+01 -1.991778e+01 -4.129523e+01
-4.996103e+09 -4.796103e+09 -4.956103e+09 1.122782e+03 1.736010e+01 -4.131757e+01
-2.214639e+09 -2.014638e+09 -2.174638e+09 -8.275526e+01 -7.660819e+00 -3.701127e+01
-4.892338e+09 -4.692338e+09 -4.852337e+09 1.230465e+02 1.207822e+01 2.653910e-08
-1.636088e+09 -1.436086e+09 -1.596087e+09 1.891047e+02 2.337393e+02 -3.440910e+01
-3.718385e+09 -3.518384e+09 -3.678384e+09 -8.290450e+01 -6.681280e+00 -1.346943e+01
-4.890119e+09 -4.690117e+09 -4.850118e+09 1.989712e+02 5.095200e+01 -9.929495e-05
-4.845742e+09 -4.645742e+09 -4.805741e+09 5.504756e+02 -4.576044e+00 2.863416e+00
-2.914351e+09 -2.714350e+09 -2.874350e+09 1.274607e+02 6.237358e+01 -7.282811e+00
-3.043463e+09 -2.843463e+09 -3.003463e+09 -3.292018e+01 -3.999469e+00 -2.509936e+01
-4.598965e+09 -4.398965e+09 -4.558975e+09 9.484905e+02 1.454107e+03 -1.914636e+02
-3.420027e+09 -3.220027e+09 -3.380026e+09 9.000536e+02 2.534678e+02 -8.438463e+01
-2.922943e+09 -2.722942e+09 -2.882942e+09 1.440186e+02 1.152158e+02 -3.578547e+01
-4.029010e+09 -3.829009e+09 -3.989010e+09 2.008449e+02 8.283064e+01 -1.104591e+01
-1.532058e+09 -1.332058e+09 -1.492057e+09 5.723844e+02 2.148483e+02 -3.006315e+01
-2.642742e+09 -2.442742e+09 -2.602742e+09 -4.685567e+00 -2.157913e+01 -3.832815e+01
-1.940078e+09 -1.740078e+09 -1.900078e+09 -2.670458e+01 -8.840580e+00 -4.023615e+01
-4.994574e+09 -4.794573e+09 -4.954574e+09 1.629966e+02 -1.127595e+01 -3.560479e+01
-4.776214e+09 -4.576213e+09 -4.736214e+09 8.007332e+01 3.611744e+01 5.769439e+01
-3.391380e+09 -3.191380e+09 -3.351380e+09 1.003186e+02 1.154071e+00 -3.461466e+00
-1.940055e+09 -1.740055e+09 -1.900055e+09 -1.994958e+01 -2.300395e+00 -3.808948e+01
-3.889724e+09 -3.689727e+09 -3.849725e+09 -2.881869e+02 1.077026e+02 -3.794891e+01
-2.030370e+09 -1.830369e+09 -1.990369e+09 2.388881e+01 1.508031e+00 1.380615e+00
-4.453571e+09 -4.253574e+09 -4.413571e+09 -3.128692e+02 3.941659e+01 -1.518394e+01
-4.791263e+09 -4.591266e+09 -4.751263e+09 -1.779886e+02 -3.806244e+01 3.270223e+00
-4.985567e+09 -4.785567e+09 -4.945567e+09 9.651220e+01 -4.100698e+00 -1.826429e+00
-4.779530e+09 -4.579529e+09 -4.739529e+09 1.114973e+02 3.654441e+00 8.589378e+00
-4.253285e+09 -4.053285e+09 -4.213285e+09 1.508948e+02 2.401935e+00 -2.664576e+01
-4.578814e+09 -4.378813e+09 -4.538813e+09 2.785337e+01 7.407227e+00 3.961954e+00
-4.756194e+09 -4.556197e+09 -4.716195e+09 2.539662e+02 7.373463e+01 -2.720618e+00
-4.954763e+09 -4.754765e+09 -4.914763e+09 1.476051e+02 3.365969e+00 -6.153138e+00
-3.943121e+09 -3.743124e+09 -3.903122e+09 -2.910412e+02 9.578891e+01 -9.979157e+00
-4.812124e+09 -4.612127e+09 -4.772124e+09 -2.001555e+02 2.043958e+01 1.187675e+01
-4.976099e+09 -4.776100e+09 -4.936098e+09 3.492480e+02 6.424099e+01 2.358884e+01
-4.318319e+09 -4.118321e+09 -4.278319e+09 8.160781e+02 1.681030e+02 3.058722e+01
-4.615381e+09 -4.415384e+09 -4.575381e+09 -1.768681e+02 1.828799e+01 -7.031211e-01
-3.372204e+09 -3.172206e+09 -3.332204e+09 4.658450e+01 1.532144e+01 1.929580e+01
-3.943045e+09 -3.743048e+09 -3.903046e+09 3.506613e+01 5.112121e+00 3.944322e+00
-4.988006e+09 -4.788009e+09 -4.948006e+09 -2.512687e+02 1.413695e+01 -4.249788e+00
-4.943471e+09 -4.743474e+09 -4.903472e+09 2.119221e+02 2.002653e+01 3.264598e+01
-2.914639e+09 -2.714643e+09 -2.874640e+09 6.140663e+01 2.925262e+01 1.113410e+01
-3.966661e+09 -3.766665e+09 -3.926663e+09 -7.265380e+01 3.579661e+02 -4.147412e+01
-3.962603e+09 -3.762602e+09 -3.922602e+09 -1.149650e+02 7.695997e+00 -3.991459e+01
-4.705717e+09 -4.505720e+09 -4.665717e+09 1.412701e+02 5.468110e+01 -1.559502e+01
-4.990874e+09 -4.790873e+09 -4.950873e+09 -1.539777e+02 3.387881e+01 2.576970e+01
-4.297928e+09 -4.097928e+09 -4.257928e+09 -2.000946e+02 2.586668e+01 7.994244e+00
-4.131731e+09 -3.931730e+09 -4.091730e+09 -1.146054e+02 -1.099956e-01 -2.798341e+01
-4.308132e+09 -4.108131e+09 -4.268131e+09 -4.446531e+01 6.283836e+00 -2.201341e+00
-3.847717e+09 -3.647720e+09 -3.807717e+09 3.242328e+02 2.043060e+01 3.368714e+01
-4.481328e+09 -4.281328e+09 -4.441328e+09 -2.797541e+01 6.573248e-01 -1.258783e+01
-4.979575e+09 -4.779577e+09 -4.939574e+09 3.438526e+02 -6.755414e+01 3.726449e+01
-4.311862e+09 -4.111865e+09 -4.271863e+09 9.222602e+02 1.135378e+02 -5.188851e+01
-4.992301e+09 -4.792301e+09 -4.952301e+09 8.040581e+00 2.020735e+01 1.573845e+01
-2.185945e+09 -1.985949e+09 -2.145946e+09 -1.368896e+02 -1.589010e+02 -6.857486e+01
-1.937835e+09 -1.737840e+09 -1.897837e+09 -2.544583e+02 -1.199764e+03 1.410268e+02
-4.060090e+09 -3.860088e+09 -4.020090e+09 -2.520819e+02 -4.292427e+02 -3.679094e+02
-3.991148e+09 -3.791151e+09 -3.951149e+09 -1.745029e+02 -1.135399e+02 -2.549725e+01
-3.962603e+09 -3.762602e+09 -3.922602e+09 -1.110216e+00 1.167533e+01 -4.453537e+01
-4.991299e+09 -4.791301e+09 -4.951301e+09 -1.331561e+03 1.166058e+02 3.677948e+01
-4.971464e+09 -4.771468e+09 -4.931467e+09 -1.878472e+02 -1.588849e+02 -2.953989e+01
-3.969513e+09 -3.769516e+09 -3.929516e+09 7.314781e+02 -1.024353e+03 3.628707e+02
-4.819066e+09 -4.619066e+09 -4.779066e+09 -1.332279e+03 2.868011e+02 1.821481e+02
-3.961601e+09 -3.761603e+09 -3.921603e+09 -1.536975e+03 7.556798e+02 3.838545e+02
-4.993588e+09 -4.793590e+09 -4.953592e+09 4.249244e+01 -4.555770e+02 5.596117e+01
-4.781211e+09 -4.581213e+09 -4.741220e+09 8.719387e+02 1.353713e+03 -6.056836e+02
-4.812478e+09 -4.612479e+09 -4.772479e+09 -1.157153e+03 1.045406e+02 4.970066e+01
-4.126012e+09 -3.926014e+09 -4.086013e+09 -1.228776e+03 3.698410e+02 9.537327e+01
-4.892337e+09 -4.692338e+09 -4.852337e+09 -6.921618e+01 -4.971596e-05 -1.782192e+01
-3.277891e+09 -3.077894e+09 -3.237892e+09 3.599500e+02 -8.660050e+02 5.133990e+01
-4.990733e+09 -4.790735e+09 -4.950734e+09 -3.756661e+02 -7.741977e+01 -3.835714e+01
-2.212391e+09 -2.012395e+09 -2.172392e+09 -3.663032e+02 -1.197570e+03 -1.657887e+02
-2.642754e+09 -2.442758e+09 -2.602756e+09 -8.962417e+01 -4.113149e+02 8.587650e+00
-4.617961e+09 -4.417961e+09 -4.577961e+09 2.334391e+02 1.185082e+01 2.166674e+01
-4.768868e+09 -4.568867e+09 -4.728869e+09 1.832685e+02 -5.628548e+01 -4.111932e+01
-3.966924e+09 -3.766925e+09 -3.926924e+09 1.930030e+02 1.455990e+01 -7.349945e+00
-4.658202e+09 -4.458202e+09 -4.618202e+09 2.234167e+02 8.205090e+00 3.318787e+01
-3.949186e+09 -3.749186e+09 -3.909186e+09 9.295430e+01 3.060217e+00 -1.549214e+00
-3.954465e+09 -3.754466e+09 -3.914465e+09 1.769418e+02 4.221972e+00 7.462166e+00
-3.832787e+09 -3.632786e+09 -3.792787e+09 -7.060562e+01 -2.021981e+02 -5.597342e+01
-4.737179e+09 -4.537177e+09 -4.697179e+09 -6.687398e+01 -1.069391e+02 -4.488317e+01
-4.707621e+09 -4.507619e+09 -4.667621e+09 9.817290e+01 -7.359194e+01 -1.228162e+02
-4.956476e+09 -4.756477e+09 -4.916477e+09 1.959167e+00 8.956242e-01 2.303864e+00
-4.918044e+09 -4.718044e+09 -4.878044e+09 5.794675e+00 -6.100564e+00 -6.312640e-10
-3.138024e+09 -2.938025e+09 -3.098025e+09 1.396424e+02 1.420370e+01 1.560358e+01
-4.800734e+09 -4.600732e+09 -4.760734e+09 -1.430555e+02 -1.403006e+02 -9.688068e+01
-3.963254e+09 -3.763255e+09 -3.923254e+09 2.035220e+02 3.908043e+00 -6.698091e+00
-2.171256e+09 -1.971257e+09 -2.131257e+09 1.987310e+02 1.234758e+01 -1.608800e+00
-4.971580e+09 -4.771581e+09 -4.931581e+09 5.155709e+01 3.497649e-01 -2.752252e+00
-3.185437e+09 -2.985438e+09 -3.145437e+09 6.055398e+01 6.607860e+00 5.518698e+00
-3.451185e+09 -3.251186e+09 -3.411186e+09 1.680523e+02 4.009566e+00 5.128733e-01
-4.984514e+09 -4.784515e+09 -4.944515e+09 8.265226e+01 -1.793427e-01 2.528563e+01
-4.457689e+09 -4.257689e+09 -4.417688e+09 1.104149e+03 -1.013595e+02 -3.672872e+02
-3.911425e+09 -3.711429e+09 -3.871428e+09 2.707406e+02 -3.654794e+01 5.538128e+01
-3.745767e+09 -3.545772e+09 -3.705770e+09 -3.356127e+02 -6.508035e+01 3.661136e+02
-3.318488e+09 -3.118492e+09 -3.278491e+09 -6.555790e+00 2.813592e+01 1.150057e+02
-2.784252e+09 -2.584252e+09 -2.744253e+09 -6.650662e+02 1.683179e+02 -2.224174e+02
-4.635892e+09 -4.435891e+09 -4.595890e+09 1.103099e+03 -1.125329e+02 -3.219334e+02
-4.270260e+09 -4.070261e+09 -4.230261e+09 -1.356787e+03 2.178915e+02 -1.921454e+02
-4.292659e+09 -4.092658e+09 -4.252658e+09 1.060944e+03 -7.760466e+01 -1.962750e+02
-4.979124e+09 -4.779123e+09 -4.939122e+09 1.215407e+03 1.811966e+02 -1.208655e+02
-4.714397e+09 -4.514397e+09 -4.674397e+09 -2.536145e+01 -2.961102e+00 -1.095360e+01
-3.951574e+09 -3.751570e+09 -3.911583e+09 1.088614e+03 2.607329e+03 -1.890249e+03
-4.803733e+09 -4.603730e+09 -4.763744e+09 7.582887e+02 1.447890e+03 -5.534402e+02
-4.556127e+09 -4.356126e+09 -4.516126e+09 -1.367226e+02 -5.717743e+00 -1.104820e+01
-3.454006e+09 -3.254005e+09 -3.414005e+09 -2.128836e+01 -3.756760e+00 -1.345644e+01
-4.415785e+09 -4.215785e+09 -4.375785e+09 -1.140928e+02 -4.870095e+00 6.401466e-01
-3.291507e+09 -3.091506e+09 -3.251506e+09 -2.307137e+01 -4.178538e+00 -1.558537e+01
-1.917101e+09 -1.717101e+09 -1.877101e+09 -2.892859e+01 -7.645202e+00 -1.310545e+01
-4.698787e+09 -4.498787e+09 -4.658787e+09 -3.552934e+01 -2.676501e+00 1.580246e+01
-4.981728e+09 -4.781726e+09 -4.941737e+09 9.164578e+02 1.357340e+03 -5.205066e+02
-3.942831e+09 -3.742831e+09 -3.902831e+09 -2.074367e+02 -2.418025e+01 -2.552700e+01
-4.493449e+09 -4.293449e+09 -4.453449e+09 -4.451943e+01 -9.106740e+00 -4.775892e+00
-4.647303e+09 -4.447303e+09 -4.607304e+09 -3.003764e+02 -1.861867e+01 7.443465e+00
-4.423153e+09 -4.223153e+09 -4.383153e+09 -1.832815e+02 -1.351093e+01 -1.234174e+01
-4.978122e+09 -4.778121e+09 -4.938121e+09 -1.079372e+02 4.261402e+00 3.818684e+00
-4.308540e+09 -4.108541e+09 -4.268541e+09 -2.308494e+01 -2.352145e+00 -7.408225e+00
-4.782135e+09 -4.582134e+09 -4.742143e+09 1.043116e+03 1.456688e+03 1.765187e+02
-4.799954e+09 -4.599949e+09 -4.759959e+09 1.442851e+02 5.910487e+02 -6.657717e+02
-3.952029e+09 -3.752027e+09 -3.912037e+09 1.520073e+03 3.317911e+03 -1.324450e+03
-4.967504e+09 -4.767505e+09 -4.927504e+09 -6.522941e+01 -4.994764e+00 -1.054620e+01
-3.257898e+09 -3.057898e+09 -3.217898e+09 -1.547097e+02 -8.945993e+00 1.428034e+00
-4.299239e+09 -4.099240e+09 -4.259239e+09 -2.277336e+02 -1.114653e+01 -4.043674e+00
-4.199132e+09 -3.999133e+09 -4.159133e+09 -1.171894e+02 -1.169727e+01 3.400810e+01
-2.184899e+09 -1.984900e+09 -2.144899e+09 -1.105368e+02 3.545275e+00 -4.320164e+01
-3.453007e+09 -3.253008e+09 -3.413007e+09 -4.464781e+00 -1.491150e+01 1.592959e+00
-3.378460e+09 -3.178461e+09 -3.338460e+09 -1.862819e+02 -5.966767e+01 -3.487754e+01
-3.307485e+09 -3.107487e+09 -3.267485e+09 -2.004388e+02 -4.609598e+01 -4.159845e+01
-2.086796e+09 -1.886798e+09 -2.046796e+09 -2.724773e+02 -3.877783e+01 -5.573985e+01
-2.619615e+09 -2.419617e+09 -2.579615e+09 -7.937225e+01 7.627783e+01 -4.563609e+01
-4.971517e+09 -4.771517e+09 -4.931517e+09 -1.367305e+02 -3.536471e+00 1.903175e+01
-3.036258e+09 -2.836259e+09 -2.996258e+09 -8.616794e+00 -1.100720e+02 -5.184250e+01
-4.990716e+09 -4.790717e+09 -4.950717e+09 -4.254165e+02 -2.038014e+00 -3.151113e+01
-4.097945e+09 -3.897944e+09 -4.057945e+09 -1.272308e+02 -1.107579e+02 -3.277734e+00
-3.445250e+09 -3.245249e+09 -3.405250e+09 -2.740167e+02 -2.988666e+02 -1.352148e+02
-4.614923e+09 -4.414923e+09 -4.574923e+09 9.459548e+02 1.244597e+02 3.125881e+00
-1.636084e+09 -1.436083e+09 -1.596083e+09 1.677822e+02 1.664303e+02 -2.108985e+01
-4.975246e+09 -4.775245e+09 -4.935245e+09 8.011230e+02 -2.120092e+01 -2.632622e+01
-2.876989e+09 -2.676989e+09 -2.836988e+09 9.172979e+02 2.425672e+02 -8.297043e+01
-4.461846e+09 -4.261844e+09 -4.421845e+09 -1.206346e+02 -8.806755e+01 -1.486669e+01
-2.868541e+09 -2.668539e+09 -2.828540e+09 -1.761717e+02 -3.629616e+02 -1.513335e+02
-4.832926e+09 -4.632923e+09 -4.792921e+09 1.263597e+03 -1.438395e+03 -1.368460e+03
-4.824864e+09 -4.624861e+09 -4.784864e+09 5.626847e+02 2.955931e+02 -4.653157e+02
-4.307061e+09 -4.107058e+09 -4.267061e+09 7.918718e+02 4.338860e+02 -4.361586e+02
-4.996836e+09 -4.796835e+09 -4.956836e+09 1.138865e+03 3.282339e+01 -7.571157e+01
-4.733443e+09 -4.533443e+09 -4.693443e+09 1.949439e+01 1.976090e+00 -7.448050e+00
-4.966457e+09 -4.766456e+09 -4.926456e+09 2.686906e+01 3.252318e+00 6.881450e+00
-3.906095e+09 -3.706094e+09 -3.866094e+09 -3.366996e+02 -1.562557e+02 -1.017892e+02
-3.425915e+09 -3.225915e+09 -3.385915e+09 1.880976e+01 2.653273e-01 -3.142573e+01
-4.597673e+09 -4.397673e+09 -4.557673e+09 1.692300e+01 7.413647e+00 -1.755456e+01
-4.919676e+09 -4.719674e+09 -4.879675e+09 -1.310579e+01 -8.959772e+01 -1.671970e+01
-2.392435e+09 -2.192437e+09 -2.352435e+09 2.654978e+02 -2.461645e+01 6.910128e+01
-4.037351e+09 -3.837351e+09 -3.997351e+09 -1.983278e+00 -1.217810e+00 -1.944425e+01
-1.875694e+09 -1.675695e+09 -1.835694e+09 7.006208e+01 3.380961e+01 9.643873e+00
-3.968747e+09 -3.768746e+09 -3.928746e+09 4.631729e+01 1.395660e+01 -2.288331e+01
-2.897596e+09 -2.697597e+09 -2.857595e+09 2.193381e+02 -1.108088e+01 -4.519071e-01
-4.493169e+09 -4.293170e+09 -4.453168e+09 1.070794e+03 6.449985e+01 -4.754825e+01
-4.990938e+09 -4.790940e+09 -4.950938e+09 8.374204e+02 5.649204e+01 -7.129642e+00
-2.626768e+09 -2.426769e+09 -2.586767e+09 5.644969e+01 3.985934e+01 1.117757e+01
-3.988091e+09 -3.788092e+09 -3.948090e+09 1.639504e+02 7.103993e+01 5.334979e+01
-3.943884e+09 -3.743885e+09 -3.903885e+09 -1.134753e+02 1.091736e+00 -1.604075e+00
-3.833714e+09 -3.633714e+09 -3.793714e+09 -1.774805e+02 -1.871041e+01 -1.347752e+01
-4.033461e+09 -3.833462e+09 -3.993462e+09 -2.008515e+02 -2.934417e+00 -1.061240e+01
-4.473098e+09 -4.273098e+09 -4.433097e+09 3.821306e+02 3.632908e+01 -1.696314e+00
-4.289796e+09 -4.089798e+09 -4.249796e+09 5.723623e+02 1.079181e+02 -1.439144e+00
-4.146362e+09 -3.946362e+09 -4.106361e+09 2.995917e+02 1.689118e+01 8.642425e+00
-3.842441e+09 -3.642443e+09 -3.802441e+09 2.517555e+02 1.290220e+01 1.272099e+00
-3.958434e+09 -3.758438e+09 -3.918437e+09 -5.013215e+02 1.018789e+03 7.290472e+01
-2.879171e+09 -2.679172e+09 -2.839172e+09 -1.788036e+02 -2.977654e+01 1.275365e+01
-4.597695e+09 -4.397695e+09 -4.557695e+09 -2.115447e+02 -8.532556e+00 1.226668e+01
-4.488093e+09 -4.288094e+09 -4.448093e+09 9.116702e+02 5.662807e+01 -1.290868e+01
-4.974559e+09 -4.774561e+09 -4.934559e+09 4.182895e+02 2.556311e+01 1.152797e+01
-3.875361e+09 -3.675362e+09 -3.835362e+09 -2.450992e+02 -7.020169e+00 2.803269e+01
-1.561107e+09 -1.361112e+09 -1.521108e+09 -1.100340e+03 -1.153654e+03 -2.530091e+02
-3.984408e+09 -3.784408e+09 -3.944408e+09 -8.274829e+02 -4.338246e+02 -2.309612e+02
-3.730221e+09 -3.530222e+09 -3.690221e+09 -1.387522e+02 -8.955577e+00 1.155185e+01
-4.134768e+09 -3.934768e+09 -4.094769e+09 -8.432370e+02 -6.606891e+02 -2.104070e+02
-4.793914e+09 -4.593915e+09 -4.753915e+09 -2.479406e+02 8.708625e+00 -2.203592e+01
-4.971130e+09 -4.771129e+09 -4.931131e+09 -3.770914e+02 -1.979247e+02 -1.618072e+02
-4.669864e+09 -4.469864e+09 -4.629864e+09 2.891272e+01 -8.875496e-01 -1.259003e+01
-4.890118e+09 -4.690119e+09 -4.850118e+09 -2.441133e+01 7.460188e-05 1.171626e+01
-3.390786e+09 -3.190790e+09 -3.350787e+09 -2.245362e+01 -1.196494e+02 -1.534790e+01
-5.014895e+09 -4.814894e+09 -4.974897e+09 -7.646491e+02 -4.329450e+02 -2.108385e+02
-4.764640e+09 -4.564641e+09 -4.724641e+09 -6.780764e+02 -4.906795e+01 -4.876576e+01
-4.986372e+09 -4.786375e+09 -4.946374e+09 -7.082417e+02 -1.823836e+02 -4.945080e+01
-1.561108e+09 -1.361112e+09 -1.521108e+09 -9.138513e+02 -1.109450e+03 -1.240833e+02
-4.508711e+09 -4.308710e+09 -4.468710e+09 7.849132e+01 -1.927198e+00 -1.101125e+00
-4.477384e+09 -4.277383e+09 -4.437383e+09 2.651572e+01 1.041315e+01 -1.281113e+01
-4.153464e+09 -3.953463e+09 -4.113464e+09 -1.433168e+02 -7.883482e+01 7.035138e+01
-4.952989e+09 -4.752988e+09 -4.912988e+09 -6.236502e+01 -1.917922e+00 8.584777e-01
-5.003355e+09 -4.803354e+09 -4.963354e+09 -2.145968e+02 -3.403571e-01 5.217081e+00
-3.978507e+09 -3.778506e+09 -3.938507e+09 -2.818483e+02 -2.041158e+01 -3.647909e+00
-4.986280e+09 -4.786279e+09 -4.946279e+09 6.359559e+01 1.194677e+01 8.474657e+00
-3.966670e+09 -3.766670e+09 -3.926670e+09 -4.343468e+02 -3.605465e+01 3.447455e+01
-3.949904e+09 -3.749903e+09 -3.909904e+09 -2.869610e+02 -3.722466e+01 5.900667e+00
-4.483098e+09 -4.283098e+09 -4.443098e+09 -5.655918e+02 -9.654971e+00 1.142574e+01
-4.994015e+09 -4.794014e+09 -4.954014e+09 -3.099747e+02 -5.479535e+00 1.441897e+01
-4.353718e+09 -4.153718e+09 -4.313718e+09 1.135096e+02 -1.066375e+01 -2.702762e+00
-3.955935e+09 -3.755934e+09 -3.915934e+09 -2.107806e+02 -3.918946e+01 -2.671278e+01
-4.993454e+09 -4.793453e+09 -4.953454e+09 -3.921196e+02 -1.404253e+01 2.749155e+01
-4.506342e+09 -4.306342e+09 -4.466342e+09 9.102990e+01 -1.345301e+00 -5.850854e+00
-4.148929e+09 -3.948929e+09 -4.108929e+09 7.134686e+01 -7.321333e+00 -3.105096e+01
-4.174000e+09 -3.974000e+09 -4.134000e+09 9.061578e+01 1.492015e+01 9.661602e+00
-4.140595e+09 -3.940594e+09 -4.100595e+09 -3.772084e+02 -3.752672e+01 4.347915e+01
-4.639692e+09 -4.439693e+09 -4.599693e+09 1.339219e+02 1.032818e+01 -6.468103e+00
-3.949425e+09 -3.749426e+09 -3.909424e+09 9.059116e+02 -1.181967e+02 -4.926326e+02
-4.475394e+09 -4.275396e+09 -4.435395e+09 2.458838e+02 5.305726e-01 -3.343858e+01
-3.966924e+09 -3.766925e+09 -3.926924e+09 2.516301e+02 1.175102e+01 2.237032e+01
-4.997238e+09 -4.797237e+09 -4.957238e+09 1.075213e+03 2.678883e+01 -7.535395e+01
-4.818747e+09 -4.618745e+09 -4.778749e+09 1.503828e+03 4.282366e+02 -6.260492e+02
-4.284149e+09 -4.084149e+09 -4.244147e+09 1.086428e+03 -2.474497e+02 -2.706376e+02
-2.777675e+09 -2.577676e+09 -2.737676e+09 -1.634175e+03 -7.371036e+02 9.244463e+02
-4.782810e+09 -4.582808e+09 -4.742810e+09 4.806683e+02 2.095586e+02 -2.804689e+02
-4.301550e+09 -4.101551e+09 -4.261553e+09 1.824850e+03 1.243228e+03 -5.119228e+02
-4.991666e+09 -4.791658e+09 -4.951666e+09 -6.752502e+02 1.048386e+02 -1.291894e+02
-2.829278e+09 -2.629283e+09 -2.789282e+09 -2.998962e+02 -2.784066e+01 3.715090e+02
-3.119700e+09 -2.919705e+09 -3.079702e+09 -8.613025e+02 -2.872499e+02 1.139666e+03
-4.658239e+09 -4.458238e+09 -4.618239e+09 1.334744e+03 1.219971e+02 -2.357924e+01
-4.611781e+09 -4.411773e+09 -4.571774e+09 2.192197e+02 -3.106946e+03 -1.260167e+03
-4.994305e+09 -4.794305e+09 -4.954310e+09 1.628970e+03 6.789977e+02 -2.644998e+02
-4.137411e+09 -3.937415e+09 -4.097413e+09 1.040366e+02 7.115567e+02 1.895179e+01
-1.864713e+09 -1.664715e+09 -1.824715e+09 -4.111839e+02 1.867662e+02 8.334968e+01
-4.803248e+09 -4.603244e+09 -4.763249e+09 6.740488e+02 4.901176e+02 -7.237709e+02
-4.821146e+09 -4.621143e+09 -4.781147e+09 9.646988e+02 1.278297e+02 5.756123e+01
-4.810357e+09 -4.610355e+09 -4.770356e+09 9.088377e+02 1.794273e+02 -2.063498e+02
-4.292658e+09 -4.092658e+09 -4.252656e+09 8.415949e+02 -2.210802e+02 -5.035856e+02
-2.576801e+09 -2.376805e+09 -2.536804e+09 -4.782050e+01 3.179287e+01 5.552366e+01
-3.934683e+09 -3.734685e+09 -3.894690e+09 1.447774e+03 2.876813e+03 -9.372258e+02
-4.818115e+09 -4.618110e+09 -4.778114e+09 -9.745320e+02 2.893768e+02 -2.433081e+02
-1.991962e+09 -1.791966e+09 -1.951965e+09 -1.263859e+03 -2.750696e+02 9.516775e+02
-1.991534e+09 -1.791538e+09 -1.951538e+09 -4.930400e+02 5.104611e+01 8.296160e+02
-4.788855e+09 -4.588855e+09 -4.748855e+09 7.177118e+01 6.090765e+00 1.577130e+01
-4.981273e+09 -4.781268e+09 -4.941279e+09 -1.394160e+02 8.772182e+02 -7.792352e+02
-4.200391e+09 -4.000391e+09 -4.160391e+09 9.721139e+01 9.571330e-01 1.187296e+00
-4.310265e+09 -4.110265e+09 -4.270265e+09 1.541056e+02 3.967028e+00 3.846836e+00
-4.974000e+09 -4.774003e+09 -4.934001e+09 5.780415e+01 2.032150e+01 -1.482018e+01
-3.961018e+09 -3.761018e+09 -3.921018e+09 -4.241912e+02 -1.755997e+01 5.719620e+00
-4.998801e+09 -4.798801e+09 -4.958801e+09 -4.463833e+02 8.795667e-01 -1.246705e+01
-4.138772e+09 -3.938773e+09 -4.098773e+09 -4.617517e+02 -2.894424e+01 2.663658e+01
-4.183481e+09 -3.983481e+09 -4.143481e+09 1.186458e+02 -4.399226e+00 -2.035847e+00
-3.959566e+09 -3.759567e+09 -3.919567e+09 -2.625666e+02 -1.484943e+01 1.603988e+01
-4.788157e+09 -4.588156e+09 -4.748157e+09 -2.751857e+02 -5.254035e+00 -1.868584e+01
-3.901067e+09 -3.701067e+09 -3.861067e+09 1.684363e+02 1.496614e+01 2.667526e+01
-4.976636e+09 -4.776637e+09 -4.936637e+09 -1.665174e+02 -4.184044e+00 -6.692247e+00
-3.888911e+09 -3.688910e+09 -3.848910e+09 1.327944e+02 1.500217e+01 4.856992e+01
-4.026371e+09 -3.826371e+09 -3.986371e+09 9.724439e+01 1.290314e+01 -1.680100e+00
-2.280142e+09 -2.080142e+09 -2.240142e+09 -1.584160e+02 -1.489251e+01 -3.472707e-01
-4.439803e+09 -4.239804e+09 -4.399804e+09 1.547029e+01 4.634772e+01 -1.022944e+01
-3.800330e+09 -3.600330e+09 -3.760330e+09 -4.329692e+00 9.697168e-01 -5.875052e-01
-5.011387e+09 -4.811387e+09 -4.971387e+09 -4.455024e+02 1.342926e+00 -1.301270e+00
-3.961844e+09 -3.761845e+09 -3.921845e+09 -5.625260e+02 -3.121614e+01 1.873286e+01
-4.862036e+09 -4.662037e+09 -4.822037e+09 -6.768191e+02 2.628892e+00 -5.006775e+00
-4.990411e+09 -4.790411e+09 -4.950411e+09 -4.557344e+02 5.454144e+00 -4.513434e+01
-4.989219e+09 -4.789217e+09 -4.949192e+09 -3.750086e+02 1.548457e+02 1.901729e+03
-4.825973e+09 -4.625965e+09 -4.785959e+09 -6.394486e+02 4.009645e+02 8.568950e+02
-4.105102e+09 -3.905102e+09 -4.065103e+09 -4.665785e+02 7.040794e+01 5.485067e+01
-4.139507e+09 -3.939499e+09 -4.099493e+09 -5.072276e+02 5.768090e+03 -1.557184e+03
-4.279161e+09 -4.079155e+09 -4.239144e+09 2.259466e+03 3.053632e+03 2.935224e+02
-4.806749e+09 -4.606748e+09 -4.766749e+09 -3.004063e+02 5.470171e+00 1.074648e+02
-3.953638e+09 -3.753637e+09 -3.913645e+09 -7.569564e+02 -1.995076e+03 -2.328844e+02
-4.183381e+09 -3.983382e+09 -4.143382e+09 -6.390439e+02 1.781747e+02 -8.457642e+01
-4.666834e+09 -4.466835e+09 -4.626834e+09 4.733624e+02 2.136515e+01 -8.018330e+00
-3.958508e+09 -3.758508e+09 -3.918509e+09 2.439892e+01 7.894295e+01 1.008950e+02
-3.953782e+09 -3.753782e+09 -3.913782e+09 6.705024e+02 -1.871803e+01 -1.544054e+02
-4.999720e+09 -4.799721e+09 -4.959720e+09 3.538650e+02 -3.061001e+00 -3.416918e+01
-4.793787e+09 -4.593790e+09 -4.753789e+09 -5.951011e+02 2.670824e+01 -1.546036e+02
-4.628034e+09 -4.428035e+09 -4.588035e+09 -2.146584e+01 1.112049e+00 -4.663061e+00
-4.890117e+09 -4.690117e+09 -4.850117e+09 1.264638e+00 -4.930129e+00 -1.113362e-10
-4.285260e+09 -4.085262e+09 -4.245261e+09 -6.231495e+02 6.949552e+01 -2.035058e+02
-4.505855e+09 -4.305856e+09 -4.465856e+09 1.589144e+00 6.553124e-02 3.364508e+00
-5.001633e+09 -4.801634e+09 -4.961634e+09 4.063678e+02 -1.685808e+01 -4.714239e+01
-4.897911e+09 -4.697912e+09 -4.857912e+09 -2.590891e+01 3.252973e-01 1.665228e-01
-3.973856e+09 -3.773856e+09 -3.933856e+09 -1.199534e+03 1.614713e+02 1.313679e+02
-3.960109e+09 -3.760110e+09 -3.920109e+09 -1.191503e+03 2.073805e+02 1.007649e+02
-3.973856e+09 -3.773855e+09 -3.933856e+09 -8.524298e+02 8.032549e+01 3.949404e+00
-3.522449e+09 -3.322450e+09 -3.482450e+09 -6.995057e+01 -4.317544e+00 8.084177e+00
-4.819200e+09 -4.619199e+09 -4.779199e+09 -1.472911e+02 3.481100e+01 1.294314e+01
-4.264021e+09 -4.064020e+09 -4.224020e+09 -3.897794e+01 -5.551024e+00 9.734902e+00
-4.800625e+09 -4.600622e+09 -4.760625e+09 -1.070356e+03 2.380773e+02 2.138543e+02
-3.974227e+09 -3.774228e+09 -3.934227e+09 -3.278354e+01 4.708882e+00 -1.068693e+01
-3.955414e+09 -3.755411e+09 -3.915382e+09 -1.905111e+03 -3.270454e+03 1.965012e+03
-3.556422e+09 -3.356423e+09 -3.516423e+09 -1.880086e+01 -1.317323e+00 3.076693e+00
-4.290785e+09 -4.090787e+09 -4.250784e+09 4.935068e+01 1.392125e+02 -5.986087e+02
-3.256728e+09 -3.056729e+09 -3.216729e+09 -5.351556e+00 1.318703e+00 4.400718e+00
-4.134276e+09 -3.934272e+09 -4.094270e+09 3.322394e+03 2.060317e+03 1.245593e+03
-4.982905e+09 -4.782900e+09 -4.942901e+09 -2.144296e+03 -6.827760e+02 -8.461879e+01
-4.566779e+09 -4.366781e+09 -4.526779e+09 3.175309e+02 2.449410e+01 -9.076487e+00
-4.602399e+09 -4.402402e+09 -4.562400e+09 4.441370e+02 1.558776e+01 -3.519286e+01
-4.985107e+09 -4.785101e+09 -4.945078e+09 9.486108e+02 2.416367e+02 8.319817e+02
-4.790159e+09 -4.590161e+09 -4.750159e+09 3.660461e+02 8.098862e+01 -2.684214e+01
-4.119976e+09 -3.919979e+09 -4.079977e+09 6.522808e+02 1.810428e+01 1.010708e+01
-4.102979e+09 -3.902982e+09 -4.062979e+09 1.882739e+02 8.900888e+00 -5.444524e+00
-4.637933e+09 -4.437931e+09 -4.597934e+09 -1.440170e+03 4.094374e+02 3.002152e+02
-4.305737e+09 -4.105740e+09 -4.265737e+09 5.880088e+02 7.976780e+01 -3.200693e+00
-4.124683e+09 -3.924681e+09 -4.084685e+09 -1.154375e+02 -6.814237e+02 8.836612e+02
-2.660069e+09 -2.460069e+09 -2.620068e+09 3.111535e+02 1.295016e+02 -9.846587e+00
-2.953389e+09 -2.753389e+09 -2.913388e+09 7.602549e+02 1.356417e+02 4.885986e+00
-1.716579e+09 -1.516579e+09 -1.676578e+09 6.339183e+02 1.112790e+02 1.619779e+00
-2.122101e+09 -1.922101e+09 -2.082100e+09 5.030517e+02 4.613435e+01 2.270319e+01
-4.280105e+09 -4.080105e+09 -4.240104e+09 -1.474723e+03 4.144242e+02 -4.979957e+02
-4.612689e+09 -4.412685e+09 -4.572690e+09 -1.417519e+03 9.043269e+02 2.486976e+02
-4.095669e+09 -3.895669e+09 -4.055678e+09 1.901913e+03 3.635179e+03 -1.528076e+03
-4.160067e+09 -3.960070e+09 -4.120067e+09 -8.441921e+01 -6.096180e+01 2.974481e+00
-3.617714e+09 -3.417717e+09 -3.577714e+09 -5.464909e+01 9.833159e+01 -8.342230e+00
-2.668868e+09 -2.468872e+09 -2.628869e+09 6.184118e+01 1.154213e+02 -2.294229e+01
-1.925650e+09 -1.725652e+09 -1.885650e+09 -6.450024e+01 -2.062416e+01 -4.143739e+01
-3.307094e+09 -3.107097e+09 -3.267095e+09 -1.497760e+02 4.838020e+01 -2.897474e+01
-4.975967e+09 -4.775959e+09 -4.935971e+09 1.276705e+03 1.514311e+03 2.504020e+01
-2.232685e+09 -2.032688e+09 -2.192685e+09 -1.428680e+02 1.030482e+02 -4.871849e+00
-4.477509e+09 -4.277503e+09 -4.437515e+09 7.751734e+02 7.409817e+02 1.398960e+03
-2.239841e+09 -2.039844e+09 -2.199841e+09 -5.370907e+00 1.750690e+01 -1.599518e+01
-1.946178e+09 -1.746182e+09 -1.906179e+09 -6.798221e+01 7.301090e+01 -1.045117e+01
-4.595460e+09 -4.395462e+09 -4.555460e+09 3.246326e+02 8.303048e+00 -2.806988e+02
-4.654412e+09 -4.454412e+09 -4.614412e+09 1.433953e+02 -4.457899e+01 4.077128e+01
-3.964311e+09 -3.764310e+09 -3.924311e+09 3.483610e+02 -2.045858e+02 5.666545e+01
-4.801184e+09 -4.601185e+09 -4.761184e+09 -6.268783e+02 3.919775e+01 1.108550e+02
-4.443691e+09 -4.243692e+09 -4.403691e+09 3.405143e+02 -2.107091e+01 -3.330327e+02
-4.128232e+09 -3.928234e+09 -4.088232e+09 -3.708262e+02 9.152570e+01 -6.299680e+02
-4.286044e+09 -4.086046e+09 -4.246044e+09 2.131307e+02 6.659067e+01 -3.695549e+02
-4.762137e+09 -4.562136e+09 -4.722136e+09 4.288779e+00 -3.396239e+01 -2.097101e+01
-4.594489e+09 -4.394489e+09 -4.554489e+09 1.248413e+01 -4.833376e+00 -3.826418e+00
-3.942811e+09 -3.742813e+09 -3.902811e+09 -2.214395e+02 8.030942e+01 -4.978144e+02
-4.979124e+09 -4.779124e+09 -4.939122e+09 8.366559e+02 -5.067062e+01 -4.272115e+02
-3.951825e+09 -3.751825e+09 -3.911825e+09 1.009839e+02 -7.212531e+01 3.637130e+01
-4.820740e+09 -4.620742e+09 -4.780739e+09 -1.040174e+03 8.391060e+01 -3.196977e+02
-4.641233e+09 -4.441232e+09 -4.601233e+09 -1.654131e-01 -2.806645e+01 2.901965e-01
-4.150591e+09 -3.950590e+09 -4.110591e+09 -2.694754e+02 -9.788631e+01 1.426350e+02
-4.336473e+09 -4.136472e+09 -4.296473e+09 -2.518579e+02 -9.984285e+01 8.886618e+01
-4.802777e+09 -4.602778e+09 -4.762778e+09 -1.019300e+03 -2.336845e+00 -1.966961e+02
-3.749202e+09 -3.549200e+09 -3.709201e+09 -8.941518e+01 -1.845932e+02 -2.564789e+01
-4.448433e+09 -4.248431e+09 -4.408432e+09 -6.650168e+01 -7.108076e+01 -1.068638e+01
-4.345052e+09 -4.145051e+09 -4.305052e+09 -6.016233e+01 -1.045725e+02 -6.495901e+01
-2.879213e+09 -2.679212e+09 -2.839212e+09 -1.058840e+02 -2.537248e+02 -3.812014e+01
-3.966629e+09 -3.766629e+09 -3.926629e+09 -8.137294e+01 -6.101596e+01 1.413295e+01
-4.314245e+09 -4.114244e+09 -4.274245e+09 -1.439263e+02 -9.132544e+01 4.532536e+01
-2.177525e+09 -1.977528e+09 -2.137528e+09 2.017030e+02 8.228612e+01 -2.146372e+01
-2.511631e+09 -2.311634e+09 -2.471634e+09 7.041229e+02 9.743177e+01 1.894460e+02
-3.000572e+09 -2.800573e+09 -2.960573e+09 -1.491096e+02 -2.748052e+01 -2.088076e+00
-2.648264e+09 -2.448266e+09 -2.608266e+09 2.682827e+01 -1.995951e+02 7.722221e+00
-1.911335e+09 -1.711336e+09 -1.871336e+09 -1.185341e+02 -1.879873e+01 1.880800e+01
-4.974234e+09 -4.774233e+09 -4.934235e+09 2.135243e+02 -4.531698e+01 -8.567426e+01
-4.169152e+09 -3.969151e+09 -4.129152e+09 -3.865650e+02 -2.440736e+01 6.102578e+00
-3.978507e+09 -3.778506e+09 -3.938507e+09 -3.895588e+02 -2.568453e+01 4.755388e+01
-4.905146e+09 -4.705147e+09 -4.865148e+09 6.396275e+01 -2.342988e+01 -2.489576e-05
-4.817275e+09 -4.617275e+09 -4.777275e+09 -3.189422e+02 7.080569e+00 -1.344423e+01
-4.649129e+09 -4.449129e+09 -4.609129e+09 -3.929065e+02 -1.232371e+01 4.544351e+01
-4.485271e+09 -4.285271e+09 -4.445271e+09 -3.655648e+02 -1.722122e+01 -6.915023e+00
-4.827014e+09 -4.627014e+09 -4.787014e+09 -3.804595e+02 -1.024789e+01 -1.403764e+01
-2.732962e+09 -2.532963e+09 -2.692961e+09 3.398691e+01 -1.600618e+00 -3.345105e+00
-1.785937e+09 -1.585937e+09 -1.745936e+09 3.593559e+02 2.950861e+01 4.906974e+01
-4.361555e+09 -4.161557e+09 -4.321555e+09 2.484431e+02 3.590213e+00 -4.746820e+00
-4.321739e+09 -4.121739e+09 -4.281739e+09 -2.626050e+02 -1.496957e+01 1.229874e+01
-4.010615e+09 -3.810615e+09 -3.970615e+09 2.379465e+00 -3.109321e+00 4.003112e+00
-4.820451e+09 -4.620451e+09 -4.780451e+09 -2.594799e+02 5.293726e+00 1.558590e+00
-3.304379e+09 -3.104383e+09 -3.264381e+09 1.064885e+03 3.119369e+02 1.040855e+03
-3.877550e+09 -3.677553e+09 -3.837553e+09 -5.603100e+02 6.576328e+01 1.320535e+02
-4.729730e+09 -4.529734e+09 -4.689733e+09 2.561724e+02 2.098421e+00 -6.094419e+01
-4.584058e+09 -4.384062e+09 -4.544060e+09 1.323881e+02 8.193770e+01 1.753332e+02
-3.374789e+09 -3.174789e+09 -3.334789e+09 1.222438e+01 3.667207e+00 -4.344250e+01
-4.502045e+09 -4.302050e+09 -4.462048e+09 1.263145e+03 1.546918e+02 5.018118e+02
-4.528832e+09 -4.328832e+09 -4.488832e+09 -6.693237e+01 1.781665e+01 -2.057626e+01
-3.286138e+09 -3.086138e+09 -3.246138e+09 2.409678e+01 1.743205e+01 -1.709477e+01
-3.896426e+09 -3.696427e+09 -3.856426e+09 7.600706e+01 -9.332091e-01 2.281245e+00
-1.588549e+09 -1.388549e+09 -1.548549e+09 1.459778e+01 1.521141e+01 -4.752020e+01
-2.602022e+09 -2.402022e+09 -2.562022e+09 -1.286384e+01 2.506184e+01 -2.617902e+01
-3.309176e+09 -3.109176e+09 -3.269176e+09 1.641685e+02 7.940695e+00 1.394778e+00
-4.784589e+09 -4.584589e+09 -4.744589e+09 1.390948e+02 -1.977707e+00 -2.260042e+01
-3.400961e+09 -3.200964e+09 -3.360962e+09 -9.938757e+00 1.258488e+01 -4.889119e+01
-3.153147e+09 -2.953146e+09 -3.113146e+09 1.249785e+02 1.739101e+01 2.106946e+01
-4.763104e+09 -4.563104e+09 -4.723104e+09 7.747798e+01 9.000798e+00 -1.057151e+01
-3.718679e+09 -3.518679e+09 -3.678678e+09 -1.269110e+02 -3.506980e+01 -5.025392e+01
-3.108155e+09 -2.908155e+09 -3.068155e+09 1.235114e+02 1.542121e+01 -4.744662e+00
-4.707850e+09 -4.507852e+09 -4.667850e+09 -1.294680e+02 6.979700e+01 2.150991e+00
-1.676473e+09 -1.476473e+09 -1.636473e+09 -1.735573e+02 -2.409127e+01 3.527571e+01
-1.537692e+09 -1.337693e+09 -1.497693e+09 -1.412596e+02 3.293782e+02 2.727248e+02
-4.963089e+09 -4.763089e+09 -4.923089e+09 2.590583e+01 -1.298236e+00 6.663299e+00
-2.274892e+09 -2.074892e+09 -2.234892e+09 -1.440278e+02 -4.719427e+00 8.366919e+00
-2.892477e+09 -2.692478e+09 -2.852478e+09 -1.812452e+02 -2.250827e+01 2.399236e+00
-4.968279e+09 -4.768278e+09 -4.928279e+09 1.900538e+01 -2.357680e+00 1.862041e+00
-2.229348e+09 -2.029348e+09 -2.189348e+09 -6.811171e+00 4.171497e+00 -1.403033e+01
-2.963501e+09 -2.763500e+09 -2.923500e+09 1.247896e+01 3.129838e+00 -8.234697e+00
-3.094959e+09 -2.894958e+09 -3.054959e+09 2.832269e+01 1.089038e+00 -1.343510e+01
-4.694726e+09 -4.494726e+09 -4.654726e+09 1.284732e+01 -4.661942e+00 -6.696276e+00
-2.496032e+09 -2.296033e+09 -2.456033e+09 -1.080805e+02 -2.866776e+01 1.096360e+01
-2.044385e+09 -1.844385e+09 -2.004385e+09 -1.312208e+02 -1.878604e+01 -7.321470e+00
-3.392514e+09 -3.192514e+09 -3.352514e+09 -1.798388e+02 -6.562698e+00 7.795877e+00
-4.691451e+09 -4.491451e+09 -4.651451e+09 6.774762e+00 -3.811298e+00 -2.997659e+00
-2.122265e+09 -1.922266e+09 -2.082265e+09 -1.017842e+02 -1.256849e+01 3.585960e+00
-2.404331e+09 -2.204333e+09 -2.364332e+09 -6.934703e+02 -4.806869e+02 -1.386624e+02
-2.620177e+09 -2.420176e+09 -2.580176e+09 1.792726e+01 -4.944762e+01 -4.104949e+01
-2.195682e+09 -1.995682e+09 -2.155682e+09 1.815387e+01 2.159872e+00 -5.122625e+01
-3.739550e+09 -3.539550e+09 -3.699550e+09 -1.076915e+02 -7.442072e+01 -3.965642e+01
-3.097725e+09 -2.897727e+09 -3.057726e+09 -9.052731e+02 -9.163785e+02 -3.184228e+02
-2.307916e+09 -2.107916e+09 -2.267916e+09 -1.074872e+02 -5.014000e+01 -2.528924e+01
-2.022202e+09 -1.822202e+09 -1.982202e+09 -7.872707e+01 -3.268624e+01 -3.784748e+01
-2.039157e+09 -1.839158e+09 -1.999157e+09 -8.203987e+02 -5.671890e+02 -1.621978e+02
-3.134281e+09 -2.934281e+09 -3.094281e+09 -5.925391e+02 -4.126505e+02 -1.293839e+02
-1.583774e+09 -1.383774e+09 -1.543774e+09 6.521504e+01 2.651796e+01 -8.807131e+00
-1.896435e+09 -1.696436e+09 -1.856434e+09 -4.150427e+02 -2.743248e+02 -2.290896e+01
-1.799585e+09 -1.599585e+09 -1.759584e+09 -3.857357e+02 -1.730298e+02 -3.550087e+01
-4.437064e+09 -4.237063e+09 -4.397064e+09 -1.074585e+02 -9.327216e+00 2.372005e+00
-3.482015e+09 -3.282015e+09 -3.442015e+09 7.444982e+00 1.854849e+01 9.239329e-01
-3.166679e+09 -2.966678e+09 -3.126679e+09 -6.463860e+01 -9.690030e+00 -1.261517e+00
-2.034146e+09 -1.834146e+09 -1.994147e+09 -6.764216e+02 1.159544e+02 -1.734635e+01
-3.058249e+09 -2.858249e+09 -3.018249e+09 -7.947275e+00 -8.437604e+00 -2.844117e+01
-4.529686e+09 -4.329686e+09 -4.489686e+09 -5.202022e+01 -3.627230e+00 1.528620e+01
-1.660117e+09 -1.460117e+09 -1.620117e+09 4.272272e+01 2.030731e+01 -3.492596e+00
-4.000868e+09 -3.800868e+09 -3.960868e+09 -5.087062e+01 -8.157503e+00 -2.107690e+01
-4.652607e+09 -4.452606e+09 -4.612606e+09 -1.476492e+01 -1.574755e+00 8.347751e+00
-4.385713e+09 -4.185713e+09 -4.345713e+09 -5.095657e+00 -7.939651e+00 1.478710e+00
-2.645134e+09 -2.445134e+09 -2.605135e+09 1.773197e+02 1.820883e+01 -3.021823e+01
-4.964165e+09 -4.764165e+09 -4.924165e+09 6.904327e+01 -5.664685e+00 1.389456e+00
-3.287388e+09 -3.087387e+09 -3.247388e+09 -1.514059e+01 -5.603097e+00 -2.812279e+00
-1.583774e+09 -1.383774e+09 -1.543774e+09 1.337360e+02 2.094080e+01 2.871333e+01
-3.886732e+09 -3.686731e+09 -3.846731e+09 -1.071884e+01 5.221246e-01 -7.866735e+00
-2.743539e+09 -2.543538e+09 -2.703538e+09 8.890162e+02 2.215907e+02 -5.395555e+01
-2.923053e+09 -2.723052e+09 -2.883052e+09 4.446336e+02 1.952086e+02 -5.055126e+01
-1.833321e+09 -1.633320e+09 -1.793320e+09 4.495065e+02 1.029664e+02 -3.528000e+01
-3.367369e+09 -3.167369e+09 -3.327368e+09 7.625996e+02 1.477956e+02 -2.064373e+01
-4.830597e+09 -4.630596e+09 -4.790597e+09 6.587887e+02 -1.882314e+01 -3.840131e+01
-4.799758e+09 -4.599758e+09 -4.759758e+09 6.563488e+02 -2.052910e+01 -9.384716e+01
-4.463968e+09 -4.263969e+09 -4.423968e+09 8.218723e+02 -1.957552e+01 -1.943523e+02
-4.807201e+09 -4.607202e+09 -4.767201e+09 7.538061e+02 5.321902e+01 1.253391e+01
-1.667957e+09 -1.467956e+09 -1.627956e+09 3.526702e+01 -1.385434e+01 -6.697043e+01
-3.014963e+09 -2.814962e+09 -2.974963e+09 -4.689493e+01 -3.382233e+00 -2.289803e+01
-1.916140e+09 -1.716140e+09 -1.876140e+09 -1.984116e+01 -1.623043e+01 -4.926302e+01
-4.984805e+09 -4.784806e+09 -4.944805e+09 -1.804682e+02 -5.132182e+01 -1.253422e+01
-1.636088e+09 -1.436088e+09 -1.596087e+09 7.142923e+00 3.715726e+00 -6.457460e+01
-4.144131e+09 -3.944131e+09 -4.104131e+09 6.838158e+02 -4.033607e+01 -1.706876e+02
-2.183277e+09 -1.983277e+09 -2.143277e+09 -1.685409e+02 -1.115369e+01 -3.949711e+01
-4.120736e+09 -3.920736e+09 -4.080736e+09 7.393841e+02 -1.146971e+02 -3.173354e+02
-3.478791e+09 -3.278794e+09 -3.438792e+09 1.945450e+02 1.186197e+02 2.201814e+01
-2.623449e+09 -2.423448e+09 -2.583448e+09 -1.995636e+02 -1.854374e+02 -8.983477e+00
-3.272910e+09 -3.072910e+09 -3.232909e+09 -3.003158e+02 -1.619762e+02 -7.583244e+01
-3.307139e+09 -3.107138e+09 -3.267138e+09 -4.141248e+02 -2.104316e+02 -1.385605e+02
-4.352748e+09 -4.152746e+09 -4.312748e+09 -3.056473e+02 -1.508438e+02 -7.946678e+01
-1.669490e+09 -1.469489e+09 -1.629490e+09 -5.186645e+01 -1.768587e+01 2.629299e+00
-4.678504e+09 -4.478503e+09 -4.638503e+09 -2.375499e+02 -6.636016e+01 -3.913957e+01
-4.162125e+09 -3.962124e+09 -4.122124e+09 -2.914102e+02 -1.333083e+02 -4.781778e+01
-4.779573e+09 -4.579573e+09 -4.739572e+09 -2.590208e+02 1.461177e+01 7.447841e+00
-3.858083e+09 -3.658082e+09 -3.818082e+09 -5.591231e+01 -2.269661e+01 -1.806641e+01
-2.735195e+09 -2.535194e+09 -2.695194e+09 -4.389900e+01 -1.229448e+02 -1.633001e+01
-4.708286e+09 -4.508287e+09 -4.668286e+09 -3.563393e+02 -1.417180e+01 9.714054e+00
-3.179045e+09 -2.979046e+09 -3.139046e+09 5.742508e+02 -1.429403e+02 -7.328031e+01
-3.220396e+09 -3.020394e+09 -3.180395e+09 -2.885721e+02 -1.900092e+02 -7.364449e+01
-4.457047e+09 -4.257047e+09 -4.417047e+09 -1.016024e+03 -2.397175e+02 -1.992199e+02
-1.686772e+09 -1.486772e+09 -1.646771e+09 -8.171056e+02 -5.441147e+02 -1.894078e+02
-3.412090e+09 -3.212089e+09 -3.372089e+09 -1.175078e+02 -1.138606e+02 -2.353662e+01
-2.285260e+09 -2.085259e+09 -2.245259e+09 -7.100650e+02 -6.536727e+02 -2.571003e+02
-1.676403e+09 -1.476403e+09 -1.636403e+09 -1.501399e+02 -2.504382e+01 2.500191e+01
-1.950480e+09 -1.750479e+09 -1.910479e+09 -2.640003e+01 -4.259139e+01 -6.617379e+00
-1.686772e+09 -1.486772e+09 -1.646771e+09 -1.024067e+03 -5.010538e+02 -2.387542e+02
-3.236226e+09 -3.036226e+09 -3.196226e+09 -9.571617e+01 -1.101580e+01 -3.863017e+01
-2.981069e+09 -2.781069e+09 -2.941069e+09 -1.256293e+02 -1.892680e+01 1.061160e+01
-1.883281e+09 -1.683281e+09 -1.843281e+09 -1.026251e+02 -1.597995e+01 7.387391e+00
-2.960576e+09 -2.760575e+09 -2.920575e+09 -6.748212e+01 -1.326500e+02 -4.194052e+01
-2.224956e+09 -2.024956e+09 -2.184955e+09 -1.493732e+02 -8.534219e+01 -3.697395e+01
-3.438923e+09 -3.238923e+09 -3.398922e+09 -3.962437e+01 -4.238493e+01 -2.624803e+01
-2.337514e+09 -2.137514e+09 -2.297513e+09 -8.926177e+02 -5.639993e+02 -2.952667e+02
-2.890726e+09 -2.690726e+09 -2.850726e+09 -1.731455e+02 -3.053182e+01 7.615434e+00
-2.187261e+09 -1.987260e+09 -2.147261e+09 1.162278e+02 1.169087e+01 2.490555e+00
-3.228997e+09 -3.028996e+09 -3.188997e+09 2.158992e+01 6.757662e+00 -3.368941e-01
-4.981736e+09 -4.781738e+09 -4.941737e+09 -5.669820e+02 -4.368380e+01 1.466395e+01
-1.636280e+09 -1.436280e+09 -1.596280e+09 4.662191e-01 2.286718e+01 -5.832153e-01
-2.434691e+09 -2.234691e+09 -2.394691e+09 6.623797e+01 1.522855e+01 1.601572e+01
-1.878610e+09 -1.678609e+09 -1.838609e+09 7.588331e+01 1.450014e+01 -1.722218e+01
-1.848012e+09 -1.648010e+09 -1.808011e+09 -4.989102e+02 -5.708039e+02 -2.580484e+02
-4.563677e+09 -4.363678e+09 -4.523678e+09 1.388431e+02 1.224761e+01 8.002569e+00
-2.699575e+09 -2.499574e+09 -2.659574e+09 -3.347887e+02 -3.087203e+02 -4.258952e+01
-2.072612e+09 -1.872611e+09 -2.032612e+09 -7.795937e+02 -6.382061e+02 -3.421584e+02
-3.616264e+09 -3.416268e+09 -3.576267e+09 -7.586934e+00 -2.690823e+01 9.730736e+01
-4.421592e+09 -4.221591e+09 -4.381591e+09 -9.435297e-01 1.209805e+01 -1.308607e-01
-2.601885e+09 -2.401884e+09 -2.561885e+09 1.369586e+02 2.536091e+02 -4.052015e+01
-4.974053e+09 -4.774051e+09 -4.934052e+09 4.682794e+02 -2.859804e+01 -1.049173e+01
-4.944871e+09 -4.744871e+09 -4.904871e+09 -1.316282e+02 3.978542e+00 -6.587797e+00
-4.601639e+09 -4.401638e+09 -4.561638e+09 -1.296301e+02 -8.971242e-01 2.689582e+00
-1.678185e+09 -1.478185e+09 -1.638185e+09 9.727162e+02 3.017218e+02 -2.843297e+01
-3.972168e+09 -3.772167e+09 -3.932167e+09 6.108328e+02 1.137410e+02 -6.572413e+01
-4.981476e+09 -4.781476e+09 -4.941476e+09 -1.137245e+02 2.046377e-01 -3.790304e+01
-3.284660e+09 -3.084660e+09 -3.244660e+09 -1.155884e+02 -1.604033e+01 -1.722741e+00
-3.753047e+09 -3.553050e+09 -3.713048e+09 2.987458e+02 -2.646547e+02 1.568854e+02
-3.091151e+09 -2.891153e+09 -3.051151e+09 7.372750e+02 -5.713664e+02 1.841228e+02
-4.946666e+09 -4.746666e+09 -4.906666e+09 4.021664e+02 -1.105954e+01 -3.607894e+00
-2.789877e+09 -2.589876e+09 -2.749877e+09 -2.548382e+02 1.814282e+02 -1.105965e+02
-4.023556e+09 -3.823556e+09 -3.983555e+09 5.372366e+02 3.396399e+01 -1.808003e+01
-2.726535e+09 -2.526538e+09 -2.686536e+09 5.846945e+02 -7.602024e+02 1.625932e+02
-3.082369e+09 -2.882372e+09 -3.042371e+09 5.923713e+02 -8.314188e+02 1.605236e+02
-1.653293e+09 -1.453293e+09 -1.613292e+09 1.605093e+02 9.332698e+01 7.069553e+00
-2.874065e+09 -2.674068e+09 -2.834066e+09 3.451122e+02 -3.586260e+02 9.115955e+01
-3.323021e+09 -3.123019e+09 -3.283020e+09 8.646827e+02 5.110988e+02 -2.828175e+02
-1.984492e+09 -1.784491e+09 -1.944491e+09 8.567400e+02 2.275261e+02 -5.767675e+01
-2.041063e+09 -1.841065e+09 -2.001063e+09 5.470247e+02 -4.039105e+02 5.052143e+01
-2.269019e+09 -2.069018e+09 -2.229018e+09 8.848759e+02 3.057926e+02 -6.833210e+01
-4.057881e+09 -3.857883e+09 -4.017882e+09 4.895607e+02 -2.712741e+02 7.623823e+01
-3.266243e+09 -3.066246e+09 -3.226245e+09 7.685060e+02 -9.368804e+02 3.073504e+02
-3.524225e+09 -3.324227e+09 -3.484226e+09 6.099733e+02 -5.087726e+02 2.499450e+02
-2.083917e+09 -1.883918e+09 -2.043916e+09 -2.675001e+02 -3.484530e+01 -5.380257e+01
-3.012312e+09 -2.812311e+09 -2.972312e+09 1.030298e+03 4.727163e+02 -1.833579e+02
-1.635743e+09 -1.435742e+09 -1.595742e+09 -1.277658e+01 -9.888036e+01 -3.991054e+01
-3.066027e+09 -2.866027e+09 -3.026026e+09 -2.319739e+02 -3.948412e+01 -4.955301e+01
-4.432013e+09 -4.232016e+09 -4.392016e+09 -6.101725e+01 4.040489e+01 3.420855e+01
-3.536213e+09 -3.336214e+09 -3.496213e+09 -3.155388e+02 -6.479477e+01 -9.910617e+00
-2.867716e+09 -2.667717e+09 -2.827715e+09 -2.708067e+02 1.525917e+01 -3.089149e+01
-1.667957e+09 -1.467956e+09 -1.627956e+09 -4.796191e+01 -4.050969e+01 -5.228478e+01
-2.818562e+09 -2.618562e+09 -2.778562e+09 -1.813917e+01 -5.222526e+01 -3.886166e+01
-2.997430e+09 -2.797434e+09 -2.957431e+09 8.926189e+01 7.877697e+01 -3.576249e+00
-1.913767e+09 -1.713769e+09 -1.873767e+09 7.732604e+01 -8.617524e+01 -1.185340e+01
-2.588539e+09 -2.388544e+09 -2.548541e+09 4.647175e+01 -9.738395e+01 2.782381e+00
-3.284006e+09 -3.084010e+09 -3.244008e+09 3.601038e+02 -5.765062e+02 1.137477e+02
-1.590007e+09 -1.390006e+09 -1.550006e+09 9.048763e+01 -9.047402e+01 -5.031362e+01
-1.869549e+09 -1.669548e+09 -1.829548e+09 -9.585729e+00 -2.283685e+01 -5.441627e+01
-3.099735e+09 -2.899739e+09 -3.059736e+09 4.395542e+02 -9.831559e+02 3.731394e+01
-2.911275e+09 -2.711277e+09 -2.871275e+09 4.937142e+00 1.544638e+01 -1.197173e+01
-1.915823e+09 -1.715822e+09 -1.875822e+09 3.018922e+00 4.358341e+00 -6.135781e+01
-3.474707e+09 -3.274710e+09 -3.434708e+09 4.121933e+02 -5.448610e+02 1.456097e+02
-3.548446e+09 -3.348450e+09 -3.508448e+09 4.365796e+02 -7.276254e+02 1.754429e+02
-2.931796e+09 -2.731799e+09 -2.891797e+09 5.203351e+02 -3.752067e+02 1.446509e+02
-2.619698e+09 -2.419700e+09 -2.579698e+09 9.279487e+02 -3.714263e+02 2.698947e+02
-4.918044e+09 -4.718047e+09 -4.878044e+09 6.993858e+00 1.543910e-10 1.236213e+00
-2.912430e+09 -2.712432e+09 -2.872430e+09 -7.542127e+01 3.781188e+00 -3.803734e+01
-1.584760e+09 -1.384758e+09 -1.544759e+09 6.328490e+00 3.145781e+02 -2.820686e+01
-1.895502e+09 -1.695502e+09 -1.855501e+09 -2.245154e+02 4.952092e+01 -5.623514e+01
-2.960471e+09 -2.760471e+09 -2.920471e+09 -1.763624e+02 1.178844e+01 -6.168476e+01
-3.934683e+09 -3.734685e+09 -3.894690e+09 1.562731e+03 2.405565e+03 -6.180174e+02
-3.022694e+09 -2.822694e+09 -2.982694e+09 -1.760172e+02 -2.680566e+01 -4.687592e+01
-2.029896e+09 -1.829896e+09 -1.989895e+09 -1.776984e+02 2.960356e+00 -5.278359e+01
-2.840475e+09 -2.640476e+09 -2.800475e+09 -6.594136e+01 3.372746e+01 -4.799671e+01
-2.611727e+09 -2.411727e+09 -2.571726e+09 -1.705112e+02 -4.520151e+00 -4.666277e+01
-2.032964e+09 -1.832964e+09 -1.992964e+09 -1.244206e+02 4.597531e+00 -4.973634e+01
-1.989728e+09 -1.789727e+09 -1.949727e+09 3.918752e+01 4.866639e+00 -2.741621e+01
-1.788632e+09 -1.588631e+09 -1.748631e+09 4.443791e+00 -4.724901e+00 -2.445980e+01
-2.906749e+09 -2.706748e+09 -2.866748e+09 3.390286e+01 -3.449404e+00 -6.811969e+00
-3.852720e+09 -3.652719e+09 -3.812719e+09 -8.809495e+01 -1.323433e+01 -1.436940e+01
-2.096248e+09 -1.896248e+09 -2.056248e+09 -2.776086e+01 -7.394976e+00 8.989893e-01
-1.657211e+09 -1.457211e+09 -1.617211e+09 -1.462098e+00 -9.436777e+00 -4.148783e+00
-4.123891e+09 -3.923889e+09 -4.083891e+09 8.722502e+02 1.385713e+02 -5.272011e+01
-3.963553e+09 -3.763553e+09 -3.923553e+09 1.455026e+03 3.254073e+02 -1.025719e+02
-3.966404e+09 -3.766404e+09 -3.926404e+09 1.182764e+03 2.035177e+02 -6.710622e+01
-4.132825e+09 -3.932824e+09 -4.092826e+09 1.641395e+03 7.473814e+02 -6.407929e+02
-4.735302e+09 -4.535300e+09 -4.695302e+09 1.446079e+02 3.175147e+01 -3.966373e+01
-2.577540e+09 -2.377540e+09 -2.537539e+09 7.735919e+01 6.764096e+01 -2.575434e+01
-4.599433e+09 -4.399431e+09 -4.559432e+09 5.870483e+02 1.709051e+02 -8.371886e+01
-1.864611e+09 -1.664610e+09 -1.824610e+09 1.069956e+01 4.079137e+00 -2.305110e+01
-4.713660e+09 -4.513660e+09 -4.673661e+09 -2.435396e+02 2.859586e+01 1.496665e+02
-3.444690e+09 -3.244690e+09 -3.404690e+09 1.800931e+01 4.994613e+00 -1.173126e+01
-2.893642e+09 -2.693641e+09 -2.853641e+09 2.406573e+01 1.039265e+01 -2.516228e+01
-1.591516e+09 -1.391514e+09 -1.551515e+09 3.807696e+02 4.026882e+02 -6.460282e+01
-2.213127e+09 -2.013125e+09 -2.173126e+09 5.747648e+01 2.720557e+02 -2.078784e+01
-2.595410e+09 -2.395410e+09 -2.555411e+09 2.270868e+01 -2.533257e+02 -5.619040e+01
-1.982654e+09 -1.782656e+09 -1.942654e+09 6.298412e+02 6.502491e+01 -2.049180e+01
-2.962066e+09 -2.762066e+09 -2.922067e+09 3.869084e+02 -3.449301e+02 -2.309608e+02
-1.902606e+09 -1.702609e+09 -1.862606e+09 3.147035e+02 1.302717e+01 1.709959e+01
-1.900773e+09 -1.700775e+09 -1.860773e+09 1.997218e+02 1.173866e+01 4.640464e+01
-2.848134e+09 -2.648136e+09 -2.808134e+09 4.803399e+02 7.885096e+01 4.154003e+01
-3.120036e+09 -2.920039e+09 -3.080039e+09 9.596926e+01 -2.577446e+01 7.946248e+01
-1.674128e+09 -1.474130e+09 -1.634128e+09 4.683807e+02 1.232161e-01 9.301708e+00
-1.880909e+09 -1.680909e+09 -1.840908e+09 1.648089e+02 -1.218995e-01 8.216492e+00
-2.281198e+09 -2.081198e+09 -2.241197e+09 4.702381e+02 7.222711e+01 -1.066288e+01
-2.877887e+09 -2.677887e+09 -2.837887e+09 -3.221729e+00 -9.530297e-01 -5.845594e+00
-3.022432e+09 -2.822431e+09 -2.982432e+09 -5.611440e+00 -1.192468e-01 -3.246051e+00
-1.883647e+09 -1.683646e+09 -1.843646e+09 -8.731952e+00 -1.752792e+00 -9.657775e+00
-4.936061e+09 -4.736060e+09 -4.896061e+09 0.000000e+00 1.470056e+00 -6.175867e+00
-1.579282e+09 -1.379282e+09 -1.539282e+09 -4.303475e+01 -1.734045e+01 -4.347990e+00
-1.635424e+09 -1.435424e+09 -1.595424e+09 -6.154878e+00 -1.672171e+01 -7.658905e-01
-1.841600e+09 -1.641600e+09 -1.801599e+09 4.712640e+02 1.210194e+02 1.787343e+01
-2.486261e+09 -2.286261e+09 -2.446260e+09 9.705647e+01 3.134347e+01 8.992628e-01
-1.710271e+09 -1.510272e+09 -1.670270e+09 1.482029e+02 2.183430e+01 -9.663967e-01
-3.761859e+09 -3.561858e+09 -3.721858e+09 -3.641482e+01 -5.630017e+00 -3.853687e+00
-1.833721e+09 -1.633722e+09 -1.793721e+09 2.062304e+02 1.527922e+01 3.292456e+00
-3.104617e+09 -2.904617e+09 -3.064617e+09 -1.363202e+02 -1.737139e+01 6.864974e+00
-1.587170e+09 -1.387170e+09 -1.547170e+09 -6.435975e+01 -1.698044e+01 -2.253429e+01
-4.709663e+09 -4.509663e+09 -4.669663e+09 -5.297198e+01 -1.797332e+00 2.204244e+01
-2.067027e+09 -1.867027e+09 -2.027026e+09 1.528354e+02 3.229142e+01 -2.073081e-01
-1.995500e+09 -1.795500e+09 -1.955499e+09 5.645192e+01 1.599472e+01 1.610036e+01
-1.726704e+09 -1.526704e+09 -1.686703e+09 7.536002e+01 2.583256e+01 2.433431e+00
-2.841481e+09 -2.641481e+09 -2.801481e+09 2.067952e+01 -7.337090e+01 -3.970559e+00
-3.935866e+09 -3.735865e+09 -3.895865e+09 5.744060e+01 -8.685338e+01 -2.131692e-01
-2.782428e+09 -2.582428e+09 -2.742427e+09 3.473910e+01 -3.471706e+01 -2.768015e+01
-2.654535e+09 -2.454535e+09 -2.614534e+09 4.363798e+01 -3.545028e+01 -3.479948e+01
-4.346383e+09 -4.146384e+09 -4.306384e+09 -4.664957e+00 -1.515709e+00 -1.482590e+01
-4.890117e+09 -4.690118e+09 -4.850118e+09 -9.625719e+00 2.688115e+00 -4.620542e-10
-2.729601e+09 -2.529600e+09 -2.689600e+09 -1.105015e+01 -7.404209e+01 -2.107763e+01
-4.890117e+09 -4.690118e+09 -4.850118e+09 -1.540896e+01 -1.648149e+00 6.793364e+00
-2.115494e+09 -1.915493e+09 -2.075493e+09 -2.092040e+01 -3.090118e+01 -4.025666e+01
-3.102383e+09 -2.902384e+09 -3.062384e+09 -3.874763e+01 -5.720451e+00 -4.326247e+00
-1.866971e+09 -1.666972e+09 -1.826971e+09 -5.202709e+01 -1.761466e+01 6.133241e+00
-4.890117e+09 -4.690118e+09 -4.850118e+09 -1.423427e+01 6.525388e+00 -4.973965e-05
-3.964503e+09 -3.764505e+09 -3.924503e+09 7.628700e+02 7.021124e+01 -7.113005e+01
-4.323791e+09 -4.123794e+09 -4.283792e+09 6.840751e+02 1.671837e+02 -4.228661e+00
-3.917631e+09 -3.717632e+09 -3.877631e+09 -8.058996e+01 1.409003e+00 -9.064650e+00
-4.894097e+09 -4.694098e+09 -4.854098e+09 -2.066554e+01 4.994192e-01 1.171330e+00
-4.952989e+09 -4.752988e+09 -4.912988e+09 -6.366379e+01 1.478213e+00 5.713523e+00
-4.949203e+09 -4.749203e+09 -4.909203e+09 -8.040584e+01 -5.147882e-01 8.510568e+00
-1.588624e+09 -1.388623e+09 -1.548623e+09 -7.945383e+01 -4.222638e+01 -6.217976e+01
-4.648970e+09 -4.448972e+09 -4.608970e+09 5.873040e+02 1.656623e+01 -2.547434e+01
-3.961240e+09 -3.761242e+09 -3.921240e+09 8.547929e+02 1.063699e+01 -4.084422e+01
-2.358474e+09 -2.158473e+09 -2.318474e+09 -1.414388e+02 -2.192913e+01 -3.109885e+01
-4.144860e+09 -3.944862e+09 -4.104860e+09 9.342759e+02 2.253544e+01 3.229734e+01
-2.187738e+09 -1.987737e+09 -2.147737e+09 -3.318469e+01 -4.378062e+00 -3.699094e+01
-4.806442e+09 -4.606444e+09 -4.766442e+09 6.256388e+02 8.561664e+01 -2.617754e+01
-4.625559e+09 -4.425558e+09 -4.585558e+09 -2.461364e+01 0.000000e+00 -2.407135e+01
-4.633405e+09 -4.433408e+09 -4.593406e+09 6.989202e+02 -1.522947e+01 -7.623094e+00
-3.964503e+09 -3.764505e+09 -3.924503e+09 6.963716e+02 1.123007e+02 -1.708333e+01
-2.185449e+09 -1.985449e+09 -2.145449e+09 -6.514232e+01 1.732264e+01 -3.283563e+01
-1.772432e+09 -1.572431e+09 -1.732431e+09 -3.868300e+01 -1.499475e+01 -4.018745e+01
-3.610108e+09 -3.410107e+09 -3.570107e+09 -3.634450e+01 2.330635e+01 -2.878562e+00
-3.169147e+09 -2.969146e+09 -3.129146e+09 -4.810660e+01 -1.486429e+01 -3.661534e+01
-3.959211e+09 -3.759211e+09 -3.919210e+09 -1.401165e+02 -1.571183e+01 -3.649162e+01
-3.504933e+09 -3.304933e+09 -3.464932e+09 -1.382028e+02 -2.005242e+01 -2.524010e+01
-1.821780e+09 -1.621779e+09 -1.781779e+09 -5.021121e+02 -4.576564e+02 -1.115162e+02
-3.216614e+09 -3.016614e+09 -3.176614e+09 -1.275064e+02 3.056710e+00 -4.847490e+01
-2.911132e+09 -2.711132e+09 -2.871132e+09 -2.704583e+01 1.222300e+01 -3.904910e+01
-3.120991e+09 -2.920990e+09 -3.080990e+09 -2.157329e+02 -1.566018e+02 -5.340955e+01
-1.784964e+09 -1.584965e+09 -1.744964e+09 -5.395380e+02 -3.647086e+02 -1.317459e+02
-3.886490e+09 -3.686489e+09 -3.846489e+09 -2.861277e+01 -1.728308e+01 -4.278345e+01
-4.681363e+09 -4.481362e+09 -4.641363e+09 -2.717271e+01 -9.578667e-01 -5.550859e+00
-4.128591e+09 -3.928590e+09 -4.088592e+09 -6.292886e+02 3.805989e+01 -2.034960e+02
-3.192513e+09 -2.992511e+09 -3.152512e+09 -1.695678e+01 2.218132e+02 -3.840370e+01
-2.086062e+09 -1.886062e+09 -2.046063e+09 -2.086327e+02 1.821869e+02 -4.388637e+01
-1.682074e+09 -1.482078e+09 -1.642075e+09 -1.374283e+02 -1.683942e+02 -1.513970e+01
-4.981669e+09 -4.781669e+09 -4.941669e+09 -2.603868e+02 -2.802420e+01 -2.405658e+01
-3.804577e+09 -3.604576e+09 -3.764577e+09 -2.866932e+02 1.467456e+02 -1.165276e+02
-3.812698e+09 -3.612697e+09 -3.772698e+09 -3.102510e+02 1.416716e+02 -8.333659e+01
-3.074956e+09 -2.874955e+09 -3.034956e+09 9.413965e+01 1.668233e+02 9.114599e+01
-4.044565e+09 -3.844564e+09 -4.004565e+09 1.545764e+02 7.835994e+01 4.891682e+01
-4.007703e+09 -3.807702e+09 -3.967703e+09 1.080301e+02 8.592772e+01 4.236317e+01
-4.125551e+09 -3.925553e+09 -4.085553e+09 -1.003179e+03 -8.405731e+02 -1.770201e+02
-3.637990e+09 -3.437994e+09 -3.597992e+09 -2.047539e+01 -1.189457e+02 -4.441749e+01
-2.252189e+09 -2.052189e+09 -2.212189e+09 -1.637079e+01 -5.382148e-01 -2.120634e+01
-1.873357e+09 -1.673359e+09 -1.833357e+09 1.355655e+02 -1.280084e+01 -1.349035e+01
-1.577874e+09 -1.377875e+09 -1.537874e+09 5.576833e+02 -2.560992e+02 4.849131e+01
-2.082277e+09 -1.882277e+09 -2.042276e+09 -6.554694e+01 5.218585e+00 -4.383677e+01
-2.593640e+09 -2.393640e+09 -2.553640e+09 8.162800e+00 2.732904e+00 -4.476153e+01
-3.357015e+09 -3.157015e+09 -3.317015e+09 -8.875135e+01 -1.712705e+01 -2.896083e+01
-2.577584e+09 -2.377586e+09 -2.537584e+09 2.145556e+02 -1.244524e+02 1.856472e+01
-3.523241e+09 -3.323244e+09 -3.483242e+09 2.428876e+02 -2.153219e+02 2.528337e+01
-1.907328e+09 -1.707330e+09 -1.867328e+09 6.737638e+02 -5.521748e+02 1.481141e+02
-3.405676e+09 -3.205676e+09 -3.365675e+09 -9.672294e+01 -6.227624e+01 -3.834575e+01
-4.482128e+09 -4.282127e+09 -4.442128e+09 5.155144e+02 -2.613222e+02 1.514343e+02
-2.862863e+09 -2.662863e+09 -2.822863e+09 -4.472326e+01 3.181345e+01 -3.866104e+01
-4.782873e+09 -4.582873e+09 -4.742873e+09 -1.659805e+02 3.476586e+00 1.866853e+01
-4.077706e+09 -3.877705e+09 -4.037705e+09 -1.438819e+02 -7.030453e+00 3.286239e+00
-4.981476e+09 -4.781476e+09 -4.941476e+09 -1.456775e+02 -2.268550e+00 1.818441e+01
-4.705363e+09 -4.505363e+09 -4.665363e+09 3.871710e+01 2.103333e+00 2.166211e+01
-2.168557e+09 -1.968557e+09 -2.128557e+09 -1.103641e+01 -1.421586e+00 -3.312510e+01
-3.274269e+09 -3.074269e+09 -3.234269e+09 -1.312704e+02 -1.499678e+01 -9.633403e+00
-3.689339e+09 -3.489339e+09 -3.649339e+09 2.720944e+01 7.417849e+00 1.833902e+01
-5.028787e+09 -4.828786e+09 -4.988786e+09 -1.401445e+02 4.487362e+00 -2.626007e+01
-4.899360e+09 -4.699359e+09 -4.859359e+09 -1.227610e+02 2.186084e+00 3.254274e+00
-4.431490e+09 -4.231490e+09 -4.391490e+09 -2.140484e+01 -3.299892e+00 -6.461562e+00
-4.401227e+09 -4.201227e+09 -4.361227e+09 4.954802e+01 1.038763e+01 1.422345e+01
-3.445020e+09 -3.245019e+09 -3.405020e+09 -1.426659e+02 -1.293941e+01 -1.081602e+01
-4.092784e+09 -3.892784e+09 -4.052784e+09 -5.506341e+01 -9.688575e+00 -1.694976e+01
-3.999088e+09 -3.799088e+09 -3.959088e+09 -1.563096e+02 -2.016803e+01 -4.010126e+00
-4.578318e+09 -4.378317e+09 -4.538317e+09 -1.465741e+02 -9.229879e+00 -1.321650e+01
-4.478444e+09 -4.278444e+09 -4.438444e+09 -9.003892e+01 -1.037915e+01 -8.400082e+00
-4.718234e+09 -4.518235e+09 -4.678235e+09 3.691400e+01 1.951197e+00 -2.021959e+01
-1.585940e+09 -1.385940e+09 -1.545940e+09 -3.456949e+01 -1.466668e+01 -9.556645e+00
-3.913098e+09 -3.713097e+09 -3.873097e+09 -5.458844e+00 4.152525e+00 1.575152e+00
-4.591686e+09 -4.391686e+09 -4.551686e+09 8.727478e+01 6.701731e+00 2.388801e+01
-3.687482e+09 -3.487483e+09 -3.647483e+09 1.054001e+02 1.353463e+01 6.042277e+00
-4.291587e+09 -4.091587e+09 -4.251587e+09 8.814865e+00 5.763589e+00 3.959343e+00
-1.692443e+09 -1.492442e+09 -1.652442e+09 3.487394e+01 1.116876e+01 -1.827664e+01
-3.179424e+09 -2.979424e+09 -3.139424e+09 2.910169e+00 -2.312655e+00 -2.547928e+01
-4.814703e+09 -4.614704e+09 -4.774703e+09 1.174927e+02 -5.444844e+00 -2.160723e+01
-4.980624e+09 -4.780623e+09 -4.940623e+09 1.759081e+01 8.059296e-01 1.071297e+01
-3.968872e+09 -3.768873e+09 -3.928872e+09 -2.809256e+02 -8.224649e+00 5.860267e+00
-4.127928e+09 -3.927929e+09 -4.087929e+09 -4.189251e+02 -2.138119e+01 4.320351e+01
-4.622309e+09 -4.422310e+09 -4.582309e+09 8.120714e+01 4.714378e+00 3.036037e+01
-2.161430e+09 -1.961431e+09 -2.121431e+09 -8.025971e+00 -2.468835e+00 1.721015e+00
-3.957953e+09 -3.757954e+09 -3.917954e+09 -3.422949e+02 -1.988726e+01 1.392574e+01
-2.156450e+09 -1.956450e+09 -2.116450e+09 -4.786210e+01 -7.803816e+00 1.044520e+01
-4.996368e+09 -4.796368e+09 -4.956368e+09 -5.463460e+02 8.576994e+00 -3.090219e+01
-3.969103e+09 -3.769103e+09 -3.929103e+09 -3.687725e+02 -2.072025e+01 1.230334e+01
-1.634142e+09 -1.434141e+09 -1.594141e+09 -1.214998e+02 -5.910458e+01 1.217397e+01
-1.634142e+09 -1.434141e+09 -1.594141e+09 -3.674101e+01 -6.665780e+01 -1.208852e+01
-2.747548e+09 -2.547548e+09 -2.707547e+09 -2.796334e+02 -7.297978e+01 -8.712042e+01
-4.123615e+09 -3.923616e+09 -4.083616e+09 -2.292959e+02 -1.625268e+01 3.473744e+01
-3.906416e+09 -3.706417e+09 -3.866417e+09 -1.056735e+02 1.707630e+00 3.187335e+00
-4.644181e+09 -4.444182e+09 -4.604182e+09 -2.862707e+02 -7.388231e+00 1.630357e+01
-3.374419e+09 -3.174420e+09 -3.334419e+09 -2.114942e+02 -8.495075e+00 1.602757e+00
-3.966217e+09 -3.766218e+09 -3.926217e+09 8.353087e+01 1.182786e+01 2.505760e+01
-2.692694e+09 -2.492693e+09 -2.652693e+09 -1.712081e+01 -2.846264e+01 1.208582e+01
-4.819348e+09 -4.619349e+09 -4.779348e+09 2.445662e+02 4.937528e+00 -3.410783e-01
-2.261974e+09 -2.061973e+09 -2.221972e+09 -4.098415e+01 -1.280871e+02 -5.523019e+00
-4.992952e+09 -4.792953e+09 -4.952953e+09 2.052472e+02 -1.089619e+01 -1.573086e+01
-4.810625e+09 -4.610624e+09 -4.770624e+09 2.318814e+02 7.495590e+00 2.998952e+00
-4.995129e+09 -4.795129e+09 -4.955129e+09 2.490681e+02 -1.266150e+01 -2.972917e+01
-3.267115e+09 -3.067114e+09 -3.227114e+09 1.055955e+02 1.817349e+01 1.004280e+01
-3.037852e+09 -2.837851e+09 -2.997851e+09 9.245442e+01 2.064781e+01 -1.367250e+01
-4.642659e+09 -4.442659e+09 -4.602659e+09 7.251743e+02 1.607160e+01 4.520140e-01
-2.198838e+09 -1.998838e+09 -2.158838e+09 1.422919e+02 8.325891e+00 -4.383658e+00
-2.085319e+09 -1.885319e+09 -2.045319e+09 1.144434e+02 9.496574e+00 -6.792892e+00
-3.904998e+09 -3.704999e+09 -3.864998e+09 -5.027080e+02 -7.268896e+00 -2.052262e+01
-2.383076e+09 -2.183076e+09 -2.343076e+09 1.184496e+02 2.770968e+01 -3.268196e+00
-4.273316e+09 -4.073318e+09 -4.233316e+09 -1.411644e+02 1.348830e+01 8.468823e+00
-4.997125e+09 -4.797125e+09 -4.957125e+09 -4.539946e+02 1.327112e+01 1.782898e+01
-4.225065e+09 -4.025066e+09 -4.185065e+09 -3.912319e+02 -1.208621e+01 -2.059365e+01
-4.643099e+09 -4.443098e+09 -4.603098e+09 -1.009579e+02 -1.790615e+01 -2.129615e+01
-4.398249e+09 -4.198252e+09 -4.358249e+09 2.276919e+01 1.160278e+01 -4.970601e+00
-4.412285e+09 -4.212288e+09 -4.372286e+09 2.747324e+01 7.199351e+00 -2.418995e+00
-3.965072e+09 -3.765072e+09 -3.925071e+09 -9.141091e+02 1.048309e+02 -4.088494e+00
-3.965573e+09 -3.765573e+09 -3.925572e+09 -5.039013e+02 -3.805635e+01 -2.721504e+01
-3.967187e+09 -3.767188e+09 -3.927187e+09 -7.519554e+02 9.180942e+01 -3.431054e+01
-4.638310e+09 -4.438312e+09 -4.598311e+09 -1.137911e+03 1.579624e+02 3.247084e+01
-2.958705e+09 -2.758707e+09 -2.918705e+09 -5.112883e+02 5.145796e+01 -2.777756e+01
-4.655009e+09 -4.455008e+09 -4.615008e+09 -7.514669e+02 4.178484e+01 3.871924e+01
-4.285988e+09 -4.085986e+09 -4.245995e+09 -4.430597e+02 -2.540370e+03 1.109126e+02
-3.553144e+09 -3.353147e+09 -3.513144e+09 2.541263e+01 1.528356e+01 -1.375298e+01
-4.016244e+09 -3.816247e+09 -3.976244e+09 -2.856112e+01 3.885900e+01 -2.048822e+01
-4.983337e+09 -4.783334e+09 -4.943343e+09 -7.052016e+02 -1.350523e+03 -6.413433e+01
-4.689204e+09 -4.489198e+09 -4.649207e+09 -1.603393e-01 -2.170293e+02 -2.467460e+02
-1.593267e+09 -1.393271e+09 -1.553271e+09 -2.561085e+02 8.022958e+01 2.992450e+02
-4.503745e+09 -4.303748e+09 -4.463748e+09 4.671524e+01 -5.947459e+02 -5.785493e+01
-4.639132e+09 -4.439131e+09 -4.599138e+09 -4.335456e+02 -6.361191e+02 1.045498e+02
-4.966152e+09 -4.766147e+09 -4.926155e+09 -9.810660e+02 -1.322929e+03 -1.275593e+02
-4.660670e+09 -4.460673e+09 -4.620675e+09 3.291185e+00 -4.889012e+02 8.917079e+01
-3.459991e+09 -3.259991e+09 -3.419992e+09 -3.128716e+02 1.300262e+02 -2.291319e+02
-4.826474e+09 -4.626477e+09 -4.786478e+09 -6.772217e+02 -1.761840e+02 -5.841112e+01
-2.812173e+09 -2.612173e+09 -2.772172e+09 2.252530e+02 -1.747090e+02 2.559046e+01
-4.656088e+09 -4.456088e+09 -4.616088e+09 3.714721e+02 -8.827205e+01 6.623415e+01
-3.870186e+09 -3.670186e+09 -3.830186e+09 4.012931e+02 -1.686479e+02 6.749754e+01
-3.958893e+09 -3.758890e+09 -3.918895e+09 -8.837948e+01 -7.529050e+02 1.080083e+03
-4.386917e+09 -4.186917e+09 -4.346917e+09 5.876708e+01 -5.692876e+01 -4.093014e+00
-3.956835e+09 -3.756834e+09 -3.916837e+09 4.707652e+02 -7.818937e+02 7.430759e+02
-3.962792e+09 -3.762792e+09 -3.922797e+09 3.557691e+02 -1.518949e+03 1.049753e+03
-2.806950e+09 -2.606950e+09 -2.766950e+09 4.631675e+01 -7.126863e+01 -2.963285e+01
-4.259596e+09 -4.059595e+09 -4.219595e+09 1.312076e+02 -8.897704e+01 4.845435e+01
-4.440875e+09 -4.240874e+09 -4.400874e+09 2.388337e+02 -1.024653e+02 3.037652e+01
-3.795588e+09 -3.595588e+09 -3.755588e+09 1.483448e+02 -6.508080e+00 -3.119602e+01
-4.802908e+09 -4.602908e+09 -4.762908e+09 1.510429e+02 -2.980708e+01 -9.355391e+00
-5.022307e+09 -4.822305e+09 -4.982295e+09 -1.182138e+03 6.038740e+01 -1.715609e+03
-3.976926e+09 -3.776925e+09 -3.936926e+09 -7.370309e+01 -1.271469e+02 6.197369e+01
-3.966284e+09 -3.766284e+09 -3.926288e+09 6.707093e+02 -1.286478e+03 8.452810e+02
-4.841238e+09 -4.641234e+09 -4.801232e+09 -2.303325e+03 8.951748e+02 -4.994422e+02
-3.992608e+09 -3.792606e+09 -3.952594e+09 -1.456358e+03 -5.378320e+02 -3.750727e+03
-4.651315e+09 -4.451319e+09 -4.611318e+09 1.497485e+02 3.230695e+02 -1.834240e+01
-2.388425e+09 -2.188428e+09 -2.348425e+09 1.138733e+02 2.926092e+01 -2.554891e+00
-3.968421e+09 -3.768424e+09 -3.928423e+09 1.001228e+03 3.981802e+02 -6.525259e+01
-4.965675e+09 -4.765678e+09 -4.925675e+09 1.094641e+02 -2.251410e+01 2.514474e+01
-4.148940e+09 -3.948944e+09 -4.108942e+09 4.879129e+02 1.905573e+02 -6.073848e+00
-3.865200e+09 -3.665202e+09 -3.825200e+09 1.473999e+02 1.736003e+01 1.390167e+01
-3.968421e+09 -3.768424e+09 -3.928423e+09 1.046419e+03 4.219973e+02 -1.642458e+02
-4.134699e+09 -3.934701e+09 -4.094699e+09 7.345110e+02 1.667887e+02 -4.353238e+01
-4.335842e+09 -4.135841e+09 -4.295832e+09 -1.782101e+03 9.435448e+02 -2.801142e+03
-4.679074e+09 -4.479074e+09 -4.639065e+09 -2.510714e+03 1.005092e+02 -2.440935e+03
-3.963756e+09 -3.763755e+09 -3.923756e+09 -3.766310e+02 -1.003464e+02 7.013955e+01
-4.537066e+09 -4.337065e+09 -4.497048e+09 -8.856061e+02 -1.656527e+02 -2.646891e+03
-3.946994e+09 -3.746994e+09 -3.906994e+09 8.492071e+01 -5.336886e+00 3.899468e-02
-3.977879e+09 -3.777878e+09 -3.937879e+09 -2.278223e+02 -7.763929e+01 1.645721e+01
-3.992608e+09 -3.792605e+09 -3.952597e+09 -2.238205e+03 4.099804e+03 -1.310476e+03
-4.646577e+09 -4.446576e+09 -4.606576e+09 -5.860172e+02 -5.479898e+01 4.480363e+01
-2.879175e+09 -2.679175e+09 -2.839175e+09 -7.365063e+01 -5.175648e+00 9.693387e+00
-4.324542e+09 -4.124541e+09 -4.284542e+09 -5.162366e+01 -8.112222e+01 6.215874e+01
-1.636084e+09 -1.436086e+09 -1.596086e+09 3.017994e+01 1.606254e+02 8.100408e+01
-2.211311e+09 -2.011311e+09 -2.171311e+09 -9.902824e+01 -1.442370e+01 -6.449016e+00
-2.253126e+09 -2.053126e+09 -2.213126e+09 -1.121430e+02 -1.299612e+01 -1.785121e+00
-4.481544e+09 -4.281544e+09 -4.441544e+09 -3.826864e+02 -3.014572e+01 4.651045e+00
-2.851720e+09 -2.651719e+09 -2.811720e+09 -7.410588e+01 -1.324615e+01 -1.070955e+01
-2.901112e+09 -2.701112e+09 -2.861112e+09 -1.539576e+02 -2.795676e+01 -7.695512e+00
-5.021964e+09 -4.821962e+09 -4.981948e+09 4.045125e+02 4.356058e+01 -1.171356e+03
-4.981273e+09 -4.781266e+09 -4.941278e+09 -8.839376e+01 1.271847e+03 -5.505770e+02
-3.941809e+09 -3.741804e+09 -3.901811e+09 7.544329e+02 9.937596e+02 -1.343092e+03
-2.024381e+09 -1.824382e+09 -1.984380e+09 2.654994e+02 -3.732597e+01 3.588395e+01
-1.578864e+09 -1.378865e+09 -1.538864e+09 3.178573e+02 1.010651e+02 3.134087e+01
-4.482785e+09 -4.282781e+09 -4.442784e+09 -1.400897e+03 6.150288e+01 -1.467118e+02
-2.729708e+09 -2.529709e+09 -2.689707e+09 1.399027e+02 -1.277282e+00 1.908850e+01
-1.781605e+09 -1.581606e+09 -1.741605e+09 2.941666e+02 6.071362e+01 -2.706602e+01
-2.483032e+09 -2.283033e+09 -2.443031e+09 7.984475e+01 1.438087e+01 1.405969e+01
-4.614857e+09 -4.414851e+09 -4.574858e+09 -1.607830e+01 -3.003606e+01 -8.113337e+02
-5.015253e+09 -4.815252e+09 -4.975262e+09 -5.248712e+02 1.666994e+03 4.665817e+02
-3.962686e+09 -3.762689e+09 -3.922690e+09 -1.194768e+03 1.362054e+03 3.469047e+02
-2.507868e+09 -2.307869e+09 -2.467867e+09 2.688915e+02 3.912203e+01 1.687034e+01
-4.679522e+09 -4.479525e+09 -4.639523e+09 -4.662210e+02 1.470207e+02 1.245842e+01
-3.979222e+09 -3.779225e+09 -3.939223e+09 -5.265855e+02 2.011422e+02 2.269403e+01
-4.843177e+09 -4.643181e+09 -4.803178e+09 -5.018159e+02 7.647415e+01 3.717988e+01
-3.946265e+09 -3.746258e+09 -3.906273e+09 5.972243e+01 8.497485e+01 -5.776130e+02
-4.665581e+09 -4.465584e+09 -4.625582e+09 -7.544708e+02 6.037553e+01 4.288124e+00
-3.954868e+09 -3.754866e+09 -3.914873e+09 2.084643e+03 2.385659e+03 -1.468451e+03
-4.488852e+09 -4.288853e+09 -4.448863e+09 -8.145407e+02 2.942822e+03 5.448727e+02
-4.994979e+09 -4.794982e+09 -4.954980e+09 -7.290322e+02 -8.410868e+01 -9.241493e+00
-4.298352e+09 -4.098355e+09 -4.258353e+09 -9.349967e+02 2.416140e+02 7.713643e+01
-4.131010e+09 -3.931013e+09 -4.091011e+09 -9.247388e+02 3.335479e+02 4.083353e+01
-4.504811e+09 -4.304811e+09 -4.464817e+09 -5.987116e+02 1.408178e+03 7.575052e+02
-3.952029e+09 -3.752029e+09 -3.912038e+09 1.829741e+03 3.383868e+03 -1.437540e+03
-4.097629e+09 -3.897622e+09 -4.057636e+09 -1.761573e+02 -2.556299e+02 -1.957680e+03
-3.956281e+09 -3.756280e+09 -3.916292e+09 -2.482584e+02 3.598264e+03 1.361321e+01
-4.791737e+09 -4.591736e+09 -4.751738e+09 1.869254e+02 -9.690279e+01 -7.335158e+01
-3.937096e+09 -3.737086e+09 -3.897093e+09 -1.305131e+03 -4.118711e+03 -9.274226e+02
-2.667227e+09 -2.467225e+09 -2.627226e+09 -1.100494e+02 -5.544629e+02 -2.238211e+02
-3.951106e+09 -3.751109e+09 -3.911115e+09 1.356149e+00 3.304804e+03 3.075187e+02
-4.475969e+09 -4.275969e+09 -4.435969e+09 1.038451e+02 -1.228901e+00 1.152554e+00
-2.168217e+09 -1.968216e+09 -2.128217e+09 -1.204464e+02 -3.870045e+02 -2.440565e+02
-3.155448e+09 -2.955446e+09 -3.115448e+09 9.628930e+01 -4.746194e+02 -6.538793e+02
-4.284169e+09 -4.084168e+09 -4.244170e+09 -1.620981e+03 -5.061140e+02 5.765395e+02
-3.944313e+09 -3.744312e+09 -3.904313e+09 -1.565194e+03 3.181267e+02 -1.521223e+02
-4.458249e+09 -4.258249e+09 -4.418248e+09 -1.446034e+03 1.328331e+02 -5.718157e+01
-3.953206e+09 -3.753200e+09 -3.913202e+09 -2.852454e+03 1.660561e+03 -9.928989e+02
-4.167104e+09 -3.967104e+09 -4.127105e+09 5.008781e+02 -2.671739e+02 -3.900377e+02
-2.922099e+09 -2.722099e+09 -2.882100e+09 2.196707e+02 -2.612199e+02 -2.883361e+02
-4.293585e+09 -4.093584e+09 -4.253591e+09 -1.541017e+02 -2.277763e+03 5.324533e+02
-4.977251e+09 -4.777252e+09 -4.937248e+09 8.941798e+01 -6.700943e+01 -7.958790e+02
-4.517880e+09 -4.317879e+09 -4.477881e+09 2.187853e+02 -1.246757e+02 -7.175165e+01
-3.968141e+09 -3.768142e+09 -3.928143e+09 1.938217e+01 -1.022649e+02 6.590908e+01
-2.684538e+09 -2.484536e+09 -2.644538e+09 -5.783778e+01 -4.130058e+02 -2.624634e+02
-4.988882e+09 -4.788879e+09 -4.948881e+09 -2.411836e+03 -5.860435e+02 9.615553e+01
-4.305248e+09 -4.105250e+09 -4.265249e+09 -8.572959e+02 1.947599e+02 2.457755e+01
-4.111420e+09 -3.911408e+09 -4.071406e+09 1.012865e+03 -6.699063e+03 -2.891941e+03
-4.814224e+09 -4.614226e+09 -4.774225e+09 -9.525795e+02 2.157346e+02 5.021383e+01
-4.517310e+09 -4.317305e+09 -4.477289e+09 -8.795615e+02 1.834748e+03 -1.737348e+03
-3.953521e+09 -3.753523e+09 -3.913522e+09 -1.018591e+03 1.613148e+02 3.132636e+01
-4.816201e+09 -4.616194e+09 -4.776176e+09 -4.595159e+02 -9.553574e+02 -2.419258e+03
-4.807328e+09 -4.607331e+09 -4.767330e+09 -9.946773e+02 1.005094e+02 -1.511558e-01
-4.150975e+09 -3.950978e+09 -4.110977e+09 1.983855e+02 -6.530024e+02 7.148814e+01
-4.993233e+09 -4.793235e+09 -4.953235e+09 -1.215992e+03 2.473993e+01 -1.669947e+01
-4.974935e+09 -4.774929e+09 -4.934933e+09 1.953817e+03 2.255851e+02 1.467655e+02
-4.134274e+09 -3.934274e+09 -4.094269e+09 -3.222717e+02 5.301874e+02 -3.640809e+03
-4.995066e+09 -4.795062e+09 -4.955048e+09 1.180021e+03 -1.091972e+03 -3.112154e+02
-3.947553e+09 -3.747554e+09 -3.907550e+09 3.540398e+01 3.794443e+02 -6.205853e+02
-4.296569e+09 -4.096571e+09 -4.256571e+09 -1.298824e+03 2.710849e+02 1.380528e+02
-4.511158e+09 -4.311157e+09 -4.471157e+09 3.932716e+01 2.118590e+00 -1.873332e+00
-3.953521e+09 -3.753523e+09 -3.913522e+09 -1.236434e+03 3.181631e+02 8.818521e+01
-3.947552e+09 -3.747554e+09 -3.907550e+09 3.455160e+02 5.015527e+01 -9.523861e+02
-4.120863e+09 -3.920866e+09 -4.080864e+09 -9.894744e+02 3.814417e+02 1.188433e+02
-2.808821e+09 -2.608821e+09 -2.768821e+09 -4.469389e+01 -2.023918e+01 -1.940784e+01
-3.944314e+09 -3.744312e+09 -3.904312e+09 -1.391271e+03 8.789053e+02 1.583423e+02
-3.936871e+09 -3.736872e+09 -3.896869e+09 -1.336007e+03 7.148940e+02 -8.752684e+02
-4.215208e+09 -4.015208e+09 -4.175208e+09 -1.218998e+02 -7.356897e+00 1.497820e+01
-3.164105e+09 -2.964105e+09 -3.124105e+09 -2.005912e+02 -2.415670e+01 2.224330e+01
-4.314630e+09 -4.114630e+09 -4.274629e+09 -1.706533e+03 8.653756e+02 -4.899154e+02
-4.280104e+09 -4.080105e+09 -4.240100e+09 -1.339057e+03 9.374818e+02 -4.054371e+02
-1.676417e+09 -1.476417e+09 -1.636417e+09 -1.680869e+02 -2.382036e+01 3.455862e+01
-4.654762e+09 -4.454766e+09 -4.614765e+09 6.072368e+02 3.085316e+02 -1.020466e+02
-4.336031e+09 -4.136035e+09 -4.296032e+09 1.098287e+02 1.153702e+02 2.446221e+01
-4.656279e+09 -4.456283e+09 -4.616281e+09 -4.737116e+02 1.983526e+02 9.582904e+00
-4.518486e+09 -4.318489e+09 -4.478486e+09 -4.520787e+01 2.847299e+01 -6.325926e+00
-4.188554e+09 -3.988553e+09 -4.148554e+09 5.771518e+01 1.290509e+02 -1.144372e+02
-3.957413e+09 -3.757411e+09 -3.917412e+09 1.990296e+02 8.196671e+01 -2.914505e+01
-1.959766e+09 -1.759769e+09 -1.919767e+09 7.308898e+01 1.051800e+02 -3.849397e+00
-1.674100e+09 -1.474103e+09 -1.634100e+09 4.220821e+02 7.366373e+01 2.037242e+01
-4.985015e+09 -4.785014e+09 -4.945015e+09 -1.113895e+03 2.759158e+02 -2.005862e+02
-4.945616e+09 -4.745614e+09 -4.905615e+09 7.441891e+01 1.960659e+01 -5.375782e+01
-4.819896e+09 -4.619894e+09 -4.779896e+09 -3.652014e+02 1.019513e+02 -1.868005e+02
-4.251654e+09 -4.051653e+09 -4.211654e+09 -2.983162e+02 2.589688e+01 -4.759214e+01
-4.133431e+09 -3.933428e+09 -4.093430e+09 -4.362760e+02 2.343599e+01 -1.131975e+02
-4.849086e+09 -4.649089e+09 -4.809087e+09 -2.125251e+02 -1.978577e+00 -1.614814e+01
-4.465884e+09 -4.265887e+09 -4.425885e+09 -4.014176e+02 4.451599e+01 -5.191179e+00
-3.480549e+09 -3.280551e+09 -3.440549e+09 -1.315614e+02 9.228398e+01 -2.876694e+01
-3.904911e+09 -3.704913e+09 -3.864911e+09 -4.539728e+02 7.919714e+01 -2.367195e+01
-2.298152e+09 -2.098151e+09 -2.258151e+09 -2.624012e+02 -2.837164e+02 -8.632001e+01
-1.918242e+09 -1.718241e+09 -1.878241e+09 5.415002e+01 1.746105e+01 -6.284594e+00
-3.423316e+09 -3.223316e+09 -3.383315e+09 -2.504552e+02 -8.161809e+01 -3.050175e+01
-3.597720e+09 -3.397718e+09 -3.557719e+09 -1.056165e+02 -1.065337e+02 -8.327483e+00
-2.367874e+09 -2.167874e+09 -2.327873e+09 -1.701770e+02 -1.121158e+02 -3.403999e+01
-3.565923e+09 -3.365923e+09 -3.525923e+09 4.522636e+01 1.360635e+01 1.473433e+01
-4.998445e+09 -4.798444e+09 -4.958444e+09 -8.499235e-01 1.261082e+00 8.538919e+00
-2.019969e+09 -1.819968e+09 -1.979968e+09 -2.802383e+02 -1.772645e+02 -1.499133e+01
-3.945317e+09 -3.745318e+09 -3.905318e+09 2.108337e+02 1.949866e+01 9.774100e+00
-1.762154e+09 -1.562154e+09 -1.722154e+09 5.795436e+01 3.021712e+01 -8.840853e+00
-4.791495e+09 -4.591496e+09 -4.751496e+09 1.267622e+02 -3.636593e+00 -1.427431e+01
-4.960339e+09 -4.760339e+09 -4.920339e+09 1.786892e+02 -5.767767e+00 -5.311620e+00
-1.874021e+09 -1.674021e+09 -1.834021e+09 -1.363964e+02 -2.185831e+01 -6.331250e+01
-3.131850e+09 -2.931850e+09 -3.091849e+09 -9.010604e+01 5.465024e+00 -2.072246e+01
-1.882555e+09 -1.682555e+09 -1.842554e+09 -5.354697e+01 1.412707e+01 -5.433931e+01
-4.329778e+09 -4.129777e+09 -4.289777e+09 -1.836894e+01 -4.747243e+00 -9.327614e-01
-4.645127e+09 -4.445128e+09 -4.605130e+09 1.852247e+03 3.398584e+02 -1.363783e+02
-4.987723e+09 -4.787725e+09 -4.947727e+09 1.517246e+03 4.830787e+02 -1.376359e+02
-4.994649e+09 -4.794650e+09 -4.954651e+09 1.462831e+03 3.035693e+02 -1.302248e+02
-2.641523e+09 -2.441523e+09 -2.601523e+09 -2.686510e+01 -1.302014e+01 -2.964129e+00
-4.258406e+09 -4.058405e+09 -4.218406e+09 -1.556460e+02 -1.432704e+01 -1.762939e+01
-3.820651e+09 -3.620650e+09 -3.780650e+09 -1.013034e+02 -7.226109e+00 -1.376711e+01
-4.669053e+09 -4.469052e+09 -4.629052e+09 -7.484871e+00 -8.451977e-01 3.881055e-01
-1.869800e+09 -1.669800e+09 -1.829800e+09 -1.546633e+01 -3.834501e+00 -1.971805e+01
-1.597409e+09 -1.397409e+09 -1.557409e+09 -5.723331e+01 -1.075943e+01 -1.871103e+01
-4.892161e+09 -4.692164e+09 -4.852161e+09 4.747083e+01 -2.487741e-05 -9.930389e+00
-4.943471e+09 -4.743474e+09 -4.903472e+09 1.144523e+02 3.794586e+00 -2.499931e+01
-4.595757e+09 -4.395759e+09 -4.555757e+09 7.461823e+01 2.047024e+01 8.161905e+00
-4.976099e+09 -4.776100e+09 -4.936098e+09 1.426065e+02 -1.826737e+01 -3.079886e+01
-4.498840e+09 -4.298841e+09 -4.458841e+09 1.393054e+03 2.612917e+02 -7.832089e+01
-4.821378e+09 -4.621379e+09 -4.781380e+09 1.727291e+03 2.318325e+02 7.689579e+01
-3.964951e+09 -3.764952e+09 -3.924952e+09 1.585834e+03 4.798741e+02 -1.114734e+02
-3.287562e+09 -3.087565e+09 -3.247562e+09 4.032959e+02 8.711572e+01 -1.294227e+01
-1.991148e+09 -1.791151e+09 -1.951149e+09 3.725366e+02 7.087657e+01 1.102531e+01
-2.124226e+09 -1.924228e+09 -2.084226e+09 1.944828e+02 2.778919e+01 2.469207e+01
-2.601589e+09 -2.401591e+09 -2.561589e+09 1.793354e+02 3.403542e+01 -7.723514e+00
-3.092628e+09 -2.892630e+09 -3.052628e+09 4.733580e+02 3.597391e+01 2.853583e+01
-1.674100e+09 -1.474102e+09 -1.634100e+09 3.941247e+02 3.747921e+01 -9.767839e+00
-3.186938e+09 -2.986938e+09 -3.146937e+09 -1.750524e+02 1.158535e+01 -3.023727e+01
-2.701796e+09 -2.501796e+09 -2.661796e+09 -2.797963e+01 1.019920e+01 -1.954855e+01
-3.145153e+09 -2.945152e+09 -3.105152e+09 -2.631563e+01 1.037134e+01 -2.618317e+01
-4.642517e+09 -4.442517e+09 -4.602516e+09 -1.388344e+02 3.507107e+00 1.627980e+00
-4.777957e+09 -4.577956e+09 -4.737956e+09 -1.813221e+01 -1.101552e+01 -6.072959e+00
-4.425020e+09 -4.225017e+09 -4.385020e+09 -1.310696e+02 1.284300e+02 -2.282424e+02
-4.666913e+09 -4.466912e+09 -4.626913e+09 -7.532155e+01 -5.859822e+01 4.237109e+01
-4.565901e+09 -4.365899e+09 -4.525901e+09 5.626152e+01 1.001456e+02 -6.891255e+01
-1.594826e+09 -1.394829e+09 -1.554826e+09 3.596654e+02 -2.487330e+02 4.802819e+01
-2.352007e+09 -2.152006e+09 -2.312007e+09 -2.263224e+02 2.328997e+02 -5.612381e+01
-3.961246e+09 -3.761248e+09 -3.921247e+09 2.108684e+01 -1.303297e+02 2.154231e+01
-1.860819e+09 -1.660819e+09 -1.820818e+09 3.422948e+02 -2.659564e+02 6.833504e+01
-4.985848e+09 -4.785848e+09 -4.945848e+09 1.987432e+02 -2.217887e+01 7.922018e+00
-4.784261e+09 -4.584259e+09 -4.744260e+09 2.883007e+02 1.472616e+02 -1.255485e+02
-1.674909e+09 -1.474909e+09 -1.634908e+09 6.269389e+02 -3.724421e+02 1.247858e+02
-3.987366e+09 -3.787365e+09 -3.947366e+09 2.767957e+02 2.080603e+02 -1.261722e+02
-4.322432e+09 -4.122431e+09 -4.282432e+09 -2.145700e+02 -1.080528e+02 1.190852e+02
-4.890118e+09 -4.690117e+09 -4.850117e+09 -4.096809e+01 -9.947164e-05 -5.941850e+00
-3.363302e+09 -3.163301e+09 -3.323302e+09 -2.517110e+01 -6.938251e+00 -1.544270e+01
-1.868483e+09 -1.668482e+09 -1.828482e+09 -4.231509e+01 -2.339128e+01 -3.761343e+01
-4.437783e+09 -4.237783e+09 -4.397782e+09 -5.259236e+01 -2.911488e+00 -8.883106e+00
-2.911035e+09 -2.711035e+09 -2.871035e+09 -6.600986e+01 -3.279019e+01 -2.178223e+01
-4.029790e+09 -3.829790e+09 -3.989791e+09 -7.519637e+02 6.443351e+01 -5.492462e+01
-3.370929e+09 -3.170927e+09 -3.330928e+09 2.848645e+02 2.264764e+02 -9.662275e+01
-2.850996e+09 -2.650997e+09 -2.810998e+09 -3.984661e+02 8.667994e+01 8.647743e+01
-1.900086e+09 -1.700084e+09 -1.860086e+09 -6.631977e+02 4.021243e+02 -3.347481e+02
-4.631195e+09 -4.431194e+09 -4.591195e+09 -8.270539e+02 6.792827e+01 -1.767216e+01
-4.293558e+09 -4.093557e+09 -4.253558e+09 -2.214485e+02 -2.208787e+01 1.533994e+01
-1.607949e+09 -1.407948e+09 -1.567949e+09 -5.267003e+01 4.533840e+02 -2.037437e+02
-3.744245e+09 -3.544244e+09 -3.704244e+09 3.890157e+00 1.192394e+00 -5.888729e+00
-1.762271e+09 -1.562270e+09 -1.722270e+09 6.775573e+01 1.637837e+01 -2.054173e+01
-3.191569e+09 -2.991568e+09 -3.151568e+09 1.753175e+01 4.668004e+00 -6.576855e-01
-4.981669e+09 -4.781669e+09 -4.941669e+09 -2.137074e+02 1.347919e+01 -4.286211e+01
-4.492162e+09 -4.292161e+09 -4.452161e+09 9.314715e+01 1.085576e+01 -1.165311e+01
-4.625559e+09 -4.425558e+09 -4.585558e+09 -1.421979e+01 -2.275344e+01 0.000000e+00
-1.700506e+09 -1.500507e+09 -1.660506e+09 -2.993865e+02 -1.040547e+02 -6.222762e+01
-2.917956e+09 -2.717959e+09 -2.877957e+09 -1.092883e+02 -8.116887e+01 -8.729833e+01
-4.103419e+09 -3.903418e+09 -4.063418e+09 9.591842e+01 6.000665e+00 -5.119631e+00
-2.877123e+09 -2.677123e+09 -2.837123e+09 -1.649740e+01 -4.590871e+01 -2.856853e+01
-4.086110e+09 -3.886109e+09 -4.046109e+09 -2.764919e+02 -1.298109e+02 -4.901419e+01
-3.215867e+09 -3.015866e+09 -3.175866e+09 8.081358e+00 -1.785440e-02 -9.509865e+00
-4.976833e+09 -4.776836e+09 -4.936836e+09 -4.600985e+02 -2.012050e+02 -1.408152e+01
-4.028905e+09 -3.828907e+09 -3.988906e+09 -6.358900e+01 -1.379378e+02 -2.800976e+01
-3.317412e+09 -3.117411e+09 -3.277412e+09 1.299114e+01 9.904202e-01 1.958869e-01
-2.151184e+09 -1.951183e+09 -2.111184e+09 1.524678e+01 6.799656e+00 2.054378e+00
-3.537684e+09 -3.337685e+09 -3.497685e+09 -1.044846e+02 -5.488562e+00 -9.096830e+00
-3.414333e+09 -3.214335e+09 -3.374333e+09 -4.820039e+01 -8.509186e+01 -1.507238e+01
-4.586158e+09 -4.386159e+09 -4.546158e+09 -1.225985e+02 -3.744195e+00 -4.922401e+00
-3.966433e+09 -3.766434e+09 -3.926433e+09 -2.686639e+01 7.031709e-01 1.016620e+00
-4.044884e+09 -3.844884e+09 -4.004884e+09 -5.774012e+01 -8.697446e+01 -3.654517e+01
-4.621104e+09 -4.421105e+09 -4.581104e+09 4.589240e+01 1.985609e+00 -6.744596e+00
-3.377529e+09 -3.177530e+09 -3.337530e+09 -6.279441e+01 -1.609041e+00 5.748555e+00
-3.496200e+09 -3.296201e+09 -3.456200e+09 -3.920804e+01 -6.963642e+00 1.929837e+01
-4.890119e+09 -4.690118e+09 -4.850118e+09 1.869782e+02 3.879524e+01 1.295333e-07
-4.984188e+09 -4.784191e+09 -4.944190e+09 2.735760e+02 -2.188786e+02 2.846388e+01
-4.976376e+09 -4.776377e+09 -4.936377e+09 -8.292396e+01 -1.812438e+00 5.137039e+00
-4.457117e+09 -4.257117e+09 -4.417117e+09 5.943849e+01 3.566463e+00 -1.314612e+01
-3.630592e+09 -3.430592e+09 -3.590592e+09 5.077403e+00 -5.684157e+00 -5.553396e+00
-2.960641e+09 -2.760642e+09 -2.920642e+09 -4.962966e+01 -2.295781e+00 -1.273255e+00
-4.983495e+09 -4.783498e+09 -4.943497e+09 5.013396e+02 -1.761710e+02 4.636063e+01
-1.984246e+09 -1.784247e+09 -1.944247e+09 -6.979238e+01 -1.093475e+01 1.181630e+01
-2.835199e+09 -2.635200e+09 -2.795200e+09 -5.895509e+01 6.886200e+00 -7.940397e+00
-2.600941e+09 -2.400941e+09 -2.560940e+09 -2.360185e+01 -7.684719e+00 -4.582338e+01
-1.577892e+09 -1.377891e+09 -1.537891e+09 5.515832e+02 3.768760e+02 -6.759419e+01
-2.735744e+09 -2.535743e+09 -2.695744e+09 -9.658691e+01 -7.025096e+01 -3.557382e+01
-3.969513e+09 -3.769516e+09 -3.929516e+09 4.300670e+02 -9.258595e+02 1.490643e+02
-4.977094e+09 -4.777092e+09 -4.937094e+09 6.535947e+02 2.263526e+00 -3.370358e+01
-2.219938e+09 -2.019937e+09 -2.179937e+09 -5.210253e+00 -2.515462e+00 -4.574818e+01
-3.089073e+09 -2.889073e+09 -3.049073e+09 -1.149589e+02 -4.659313e+01 -1.984426e+01
-3.910126e+09 -3.710125e+09 -3.870125e+09 -6.771653e+01 -2.689249e+01 -6.817891e+00
-3.937872e+09 -3.737871e+09 -3.897872e+09 -8.005071e+01 -1.371709e+01 -3.658794e+01
-3.301861e+09 -3.101862e+09 -3.261861e+09 -3.440648e+02 -8.656783e+01 -1.354526e+02
-2.971192e+09 -2.771194e+09 -2.931193e+09 -6.801983e+02 -4.586035e+02 -1.281599e+02
-4.619421e+09 -4.419422e+09 -4.579422e+09 1.033377e+02 8.220633e-01 -7.253615e+00
-1.897386e+09 -1.697385e+09 -1.857386e+09 -5.917834e+01 -1.923826e+01 -4.030441e+01
-4.801737e+09 -4.601738e+09 -4.761738e+09 1.590132e+02 -4.379479e+00 -2.164856e+01
-4.312940e+09 -4.112944e+09 -4.272942e+09 1.996162e+02 -3.310118e+02 4.245284e+01
-4.810559e+09 -4.610560e+09 -4.770560e+09 1.987107e+02 -1.205909e+01 -4.148546e+00
-4.890117e+09 -4.690121e+09 -4.850119e+09 -2.836309e-01 4.973795e-05 8.696787e+00
-4.698516e+09 -4.498520e+09 -4.658518e+09 -5.757881e+01 -4.782576e+01 -4.431473e+01
-2.516779e+09 -2.316783e+09 -2.476780e+09 5.266980e+02 -7.031033e+02 1.120462e+02
-3.031125e+09 -2.831129e+09 -2.991127e+09 1.281545e+02 -1.112053e+03 1.095190e+02
-4.517293e+09 -4.317297e+09 -4.477295e+09 -8.364766e+01 -6.360611e+01 1.383733e+01
-4.999909e+09 -4.799912e+09 -4.959913e+09 9.756092e+01 -3.664609e+02 2.559144e+01
-4.031052e+09 -3.831056e+09 -3.991054e+09 -3.897733e+02 -7.128957e+02 -9.641943e+01
-4.633149e+09 -4.433152e+09 -4.593152e+09 -5.974999e+02 -3.285801e+02 -3.657453e+01
-4.818532e+09 -4.618536e+09 -4.778535e+09 -1.065142e+02 -1.631847e+02 -3.664750e+01
-4.142026e+09 -3.942030e+09 -4.102030e+09 -2.147880e+02 -1.186630e+03 -3.182488e+01
-4.992557e+09 -4.792559e+09 -4.952561e+09 -4.899048e+02 -4.122130e+02 1.564011e+01
-4.942340e+09 -4.742339e+09 -4.902339e+09 -3.591416e+01 3.059593e+00 -5.535639e+00
-4.961496e+09 -4.761496e+09 -4.921496e+09 -3.386113e+00 -3.284199e-01 6.816293e+00
-4.109501e+09 -3.909500e+09 -4.069500e+09 5.777167e+00 1.222575e+01 7.900879e-01
-3.569661e+09 -3.369662e+09 -3.529661e+09 -1.460182e+02 -7.128079e+00 -3.551168e+00
-3.198021e+09 -2.998022e+09 -3.158022e+09 -8.438210e+01 -1.276266e+01 -3.197156e+01
-3.910148e+09 -3.710148e+09 -3.870148e+09 2.396923e+00 -1.385178e+00 -1.808135e+01
-2.012822e+09 -1.812822e+09 -1.972822e+09 -1.582957e+02 -3.304244e+01 8.692958e-01
-2.546271e+09 -2.346272e+09 -2.506272e+09 -1.037500e+02 -1.537585e+01 -2.227504e+00
-1.570754e+09 -1.370755e+09 -1.530755e+09 -1.376908e+02 -1.396368e+01 -1.949976e+01
-3.143424e+09 -2.943424e+09 -3.103424e+09 -2.047125e+02 -2.224857e+01 2.508793e+01
-4.485214e+09 -4.285216e+09 -4.445214e+09 1.744688e+02 8.264716e-01 6.730470e+00
-1.632486e+09 -1.432485e+09 -1.592485e+09 -1.113344e+02 -2.120413e+02 -2.313042e+01
-4.651459e+09 -4.451459e+09 -4.611464e+09 2.402890e+02 -5.054379e+02 3.256973e+02
-3.961240e+09 -3.761242e+09 -3.921240e+09 6.971191e+02 9.487937e+01 2.805098e+00
-4.994201e+09 -4.794204e+09 -4.954202e+09 7.575320e+02 4.124876e+01 8.138827e+00
-4.412341e+09 -4.212344e+09 -4.372341e+09 -5.522382e+01 6.731043e+00 -9.545055e+00
-3.767735e+09 -3.567738e+09 -3.727735e+09 -1.206257e+02 7.861552e+01 -2.105598e+01
-4.146487e+09 -3.946490e+09 -4.106487e+09 -2.934001e+02 3.785659e+00 -1.237862e+01
-3.977014e+09 -3.777018e+09 -3.937015e+09 2.769743e+02 1.657895e+02 -1.863237e+01
-4.974559e+09 -4.774561e+09 -4.934559e+09 4.465039e+02 2.601971e+01 1.206499e+01
-4.997048e+09 -4.797052e+09 -4.957050e+09 3.819021e+02 1.782823e+02 1.445630e+01
-4.548901e+09 -4.348904e+09 -4.508902e+09 -1.216678e+02 1.426864e+01 -1.320300e+01
-4.993588e+09 -4.793589e+09 -4.953592e+09 2.372968e+02 -5.243821e+02 8.294178e+01
-3.819342e+09 -3.619344e+09 -3.779342e+09 -1.494980e+02 3.163312e+00 -4.051999e+01
-4.998119e+09 -4.798122e+09 -4.958121e+09 1.012066e+03 2.844426e+02 1.126243e+01
-4.988092e+09 -4.788095e+09 -4.948093e+09 -8.244599e+01 1.275660e+01 5.390163e+00
-3.955573e+09 -3.755570e+09 -3.915574e+09 8.968992e+02 -4.362275e+02 -8.836228e+02
-3.284521e+09 -3.084519e+09 -3.244521e+09 2.827590e+02 -6.150826e+02 -8.790985e+02
-4.115600e+09 -3.915596e+09 -4.075600e+09 1.925968e+03 3.484789e+02 -5.294932e+02
-4.122602e+09 -3.922598e+09 -4.082603e+09 3.557408e+02 -1.034972e+03 -8.205764e+02
-4.768932e+09 -4.568935e+09 -4.728932e+09 -4.285065e+01 2.603038e+00 2.634895e+00
-4.459578e+09 -4.259577e+09 -4.419589e+09 1.154944e+03 2.551586e+03 6.667819e+01
-3.951072e+09 -3.751067e+09 -3.911072e+09 1.212726e+03 -1.179180e+02 -9.588012e+02
-4.980804e+09 -4.780804e+09 -4.940814e+09 1.316909e+02 1.581840e+03 -5.947603e+01
-4.496531e+09 -4.296527e+09 -4.456534e+09 -1.049239e+03 -1.161204e+03 -8.313335e+02
-4.811501e+09 -4.611498e+09 -4.771504e+09 3.000388e+02 -5.622763e+02 -6.902719e+02
-4.813596e+09 -4.613598e+09 -4.773604e+09 -4.554624e+01 1.370123e+03 4.913359e+02
-4.664874e+09 -4.464875e+09 -4.624883e+09 -7.294547e+02 1.293118e+03 3.375420e+02
-4.815672e+09 -4.615672e+09 -4.775672e+09 -2.558181e+02 -4.887106e+00 -3.473770e+01
-4.980805e+09 -4.780806e+09 -4.940814e+09 5.100994e+02 1.562064e+03 -6.309542e+01
-4.627644e+09 -4.427637e+09 -4.587646e+09 -4.576912e+02 -8.157579e+02 -7.642382e+02
-4.824173e+09 -4.624172e+09 -4.784172e+09 -3.231466e+01 -2.766840e+01 -3.231429e+01
-4.793003e+09 -4.593004e+09 -4.753004e+09 -4.056842e+01 -2.687449e+00 -1.027863e+02
-4.602726e+09 -4.402725e+09 -4.562732e+09 1.527030e+03 1.091456e+03 -4.920822e+02
-4.125223e+09 -3.925224e+09 -4.085224e+09 8.049822e+01 5.909467e+00 -8.629111e+01
-4.138427e+09 -3.938429e+09 -4.098428e+09 1.556164e+02 3.924896e+00 -4.919577e+01
-4.818743e+09 -4.618746e+09 -4.778744e+09 4.922150e+02 1.137192e+02 -2.077565e+01
-5.006713e+09 -4.806716e+09 -4.966714e+09 3.089594e+02 1.752695e+01 2.830271e+01
-4.819135e+09 -4.619135e+09 -4.779138e+09 -1.563806e+03 6.183577e+02 3.180570e+02
-4.818726e+09 -4.618728e+09 -4.778731e+09 -1.338862e+03 6.982519e+02 1.424300e+02
-4.315660e+09 -4.115663e+09 -4.275661e+09 7.054234e+02 1.722598e+02 2.252962e+01
-4.990802e+09 -4.790806e+09 -4.950804e+09 -3.405564e+02 1.036713e+02 2.496116e+01
-4.475394e+09 -4.275397e+09 -4.435395e+09 9.190420e+02 2.540192e+02 -1.233538e+01
-3.961104e+09 -3.761108e+09 -3.921106e+09 -4.434078e+02 6.231680e+02 6.183951e+01
-4.306329e+09 -4.106327e+09 -4.266329e+09 -1.670236e+03 7.397567e+02 8.560126e+02
-3.975644e+09 -3.775648e+09 -3.935645e+09 -2.596035e+02 3.008224e+02 -1.759756e+00
-4.336290e+09 -4.136293e+09 -4.296290e+09 -4.613677e+02 -1.631946e+01 -8.878094e+00
-4.805265e+09 -4.605264e+09 -4.765266e+09 -1.372131e+03 4.889176e+02 1.147717e+02
-4.492173e+09 -4.292177e+09 -4.452175e+09 6.134088e+02 2.682548e+02 -6.820888e+01
-4.817734e+09 -4.617733e+09 -4.777734e+09 -7.786922e+02 3.921410e+01 6.840036e+01
-3.960619e+09 -3.760619e+09 -3.920624e+09 -1.953192e+03 1.506554e+03 1.354683e+03
-4.827408e+09 -4.627408e+09 -4.787410e+09 -1.604496e+03 -1.104566e+01 4.764391e+01
-4.997495e+09 -4.797495e+09 -4.957494e+09 -8.321578e+02 -4.692173e+01 -3.643625e+01
-4.662906e+09 -4.462906e+09 -4.622906e+09 -9.650809e+02 8.674624e+01 1.451506e+01
-4.128964e+09 -3.928963e+09 -4.088964e+09 -6.882546e+02 9.352804e+01 8.991857e+01
-4.820743e+09 -4.620740e+09 -4.780745e+09 -1.270423e+03 5.084765e+02 1.815144e+02
-4.467392e+09 -4.267392e+09 -4.427392e+09 2.356445e+02 8.431988e+00 -1.231053e+01
-4.976023e+09 -4.776027e+09 -4.936025e+09 -4.098567e+02 4.760541e-01 1.171040e+02
-4.481461e+09 -4.281460e+09 -4.441460e+09 2.627613e+02 5.534191e+00 -1.148878e+01
-3.968293e+09 -3.768293e+09 -3.928293e+09 1.950940e+02 2.571721e+01 -1.645733e+01
-4.997992e+09 -4.797991e+09 -4.957991e+09 2.642749e+02 -1.004484e+01 -1.278746e+01
-4.822761e+09 -4.622762e+09 -4.782762e+09 3.384641e+02 -7.893702e+00 -2.074149e+01
-3.849109e+09 -3.649112e+09 -3.809110e+09 -1.150009e+03 -1.827711e+02 4.197978e+02
-4.996415e+09 -4.796414e+09 -4.956415e+09 2.928012e+02 -1.054062e+01 -1.055251e+01
-4.608940e+09 -4.408944e+09 -4.568943e+09 -9.313271e+02 4.511007e+01 3.007744e+02
-4.138228e+09 -3.938228e+09 -4.098228e+09 2.633331e+02 5.227264e+00 -2.083470e+01
-4.987735e+09 -4.787734e+09 -4.947734e+09 1.084373e+02 -7.007660e+00 5.349819e-01
-4.806072e+09 -4.606076e+09 -4.766073e+09 -8.608887e+02 2.382798e+02 8.766209e+01
-3.400599e+09 -3.200603e+09 -3.360602e+09 -1.987620e+02 4.824598e+00 3.665941e+02
-3.961908e+09 -3.761908e+09 -3.921908e+09 3.342760e+02 3.141148e+01 -6.706795e+00
-4.212083e+09 -4.012088e+09 -4.172086e+09 1.114376e+02 3.485248e+01 2.942345e+02
-3.370714e+09 -3.170718e+09 -3.330717e+09 -3.079132e+01 -2.739513e+01 7.659337e+01
-4.990676e+09 -4.790676e+09 -4.950676e+09 3.718380e+02 -1.988933e+01 -2.067767e+01
-4.816544e+09 -4.616544e+09 -4.776547e+09 5.008711e+02 -5.107944e+02 1.777022e+02
-4.820743e+09 -4.620739e+09 -4.780747e+09 -8.931203e+02 8.872357e+02 4.714443e+02
-4.830098e+09 -4.630097e+09 -4.790098e+09 1.121042e+03 7.429910e+00 7.799016e+01
-4.294443e+09 -4.094440e+09 -4.254446e+09 -5.156942e+02 -9.350196e+02 1.083140e+03
-3.961237e+09 -3.761237e+09 -3.921242e+09 6.383757e+02 -1.889780e+03 9.751553e+02
-4.638751e+09 -4.438750e+09 -4.598756e+09 -1.020900e+02 -5.643860e+02 3.460469e+02
-4.659984e+09 -4.459982e+09 -4.619984e+09 1.348532e+03 1.780423e+02 -7.089258e+01
-3.967138e+09 -3.767137e+09 -3.927138e+09 1.387080e+03 3.980217e+02 -1.958675e+02
-4.819451e+09 -4.619450e+09 -4.779457e+09 9.477113e+00 -5.305766e+02 5.689374e+01
-4.650488e+09 -4.450485e+09 -4.610489e+09 1.286485e+03 4.084587e+02 -3.813720e+02
-4.993124e+09 -4.793121e+09 -4.953124e+09 6.824953e+02 2.892346e+01 -8.935072e+01
-3.961884e+09 -3.761880e+09 -3.921887e+09 -9.802082e+02 -3.938589e+02 9.230755e+02
-4.970963e+09 -4.770965e+09 -4.930964e+09 1.122304e+02 -2.225564e+00 -2.258493e+01
-3.953899e+09 -3.753900e+09 -3.913900e+09 -4.755760e+02 2.543877e+01 -4.199988e+01
-4.996589e+09 -4.796591e+09 -4.956590e+09 -1.843856e+02 -1.444572e+01 1.137150e+01
-4.652553e+09 -4.452552e+09 -4.612553e+09 1.297346e+03 2.368656e+02 -9.590121e+01
-4.996590e+09 -4.796591e+09 -4.956590e+09 2.703744e+01 1.174118e+01 -8.626050e+01
-4.479904e+09 -4.279904e+09 -4.439905e+09 1.814052e+03 3.541726e+02 -2.082736e+02
-4.136202e+09 -3.936200e+09 -4.096202e+09 1.190895e+03 3.797773e+02 -2.161655e+02
-3.967540e+09 -3.767538e+09 -3.927540e+09 1.116623e+03 4.463340e+02 -3.356392e+02
-4.633361e+09 -4.433358e+09 -4.593333e+09 1.080121e+03 1.991488e+03 1.814125e+03
-4.809081e+09 -4.609080e+09 -4.769081e+09 -6.243075e+02 -9.150100e+00 -4.477166e+01
-3.950879e+09 -3.750870e+09 -3.910868e+09 -4.286672e+02 5.652546e+03 6.261690e+02
-3.946748e+09 -3.746748e+09 -3.906749e+09 -1.491089e+03 5.663962e+02 3.627492e+02
-3.946748e+09 -3.746747e+09 -3.906748e+09 -1.066550e+03 5.466644e+01 5.818911e+01
-4.146706e+09 -3.946702e+09 -4.106706e+09 -4.443283e+02 4.250931e+02 9.233737e+02
-4.808118e+09 -4.608113e+09 -4.768093e+09 1.128954e+03 9.871274e+02 2.504397e+03
-4.289116e+09 -4.089112e+09 -4.249075e+09 -1.886951e+01 2.574137e+03 3.560832e+03
-3.985449e+09 -3.785442e+09 -3.945421e+09 -8.185790e+02 3.425745e+03 -2.162356e+03
-4.998869e+09 -4.798870e+09 -4.958856e+09 -1.984517e+03 -5.098080e+02 1.537847e+03
-4.642884e+09 -4.442880e+09 -4.602877e+09 2.633539e+03 -3.634047e+02 4.994805e+03
-4.148432e+09 -3.948426e+09 -4.108434e+09 -8.360328e+02 -2.307065e+02 -3.799160e+02
-3.953960e+09 -3.753953e+09 -3.913955e+09 1.503676e+03 5.099425e+03 6.564409e+02
-4.980573e+09 -4.780567e+09 -4.940563e+09 7.307959e+02 -1.144353e+01 -2.683612e+02
-4.482741e+09 -4.282732e+09 -4.442732e+09 -1.533349e+03 3.392359e+02 4.029195e+02
-5.009373e+09 -4.809367e+09 -4.969359e+09 -5.226447e+02 2.474888e+02 -4.608306e+02
-4.800256e+09 -4.600249e+09 -4.760247e+09 9.279947e+02 -1.651988e+02 1.099802e+03
-4.820743e+09 -4.620738e+09 -4.780744e+09 7.268452e+02 4.057952e+02 1.369080e+02
-4.804225e+09 -4.604218e+09 -4.764208e+09 -1.555007e+03 1.707604e+02 -2.432771e+03
-4.304738e+09 -4.104732e+09 -4.264716e+09 5.669600e+02 3.767938e+03 -1.157012e+02
-4.849319e+09 -4.649311e+09 -4.809314e+09 -1.218913e+02 1.528453e+03 1.626678e+02
-4.624718e+09 -4.424710e+09 -4.584702e+09 4.657917e+02 3.212873e+03 1.833229e+03
-4.985976e+09 -4.785972e+09 -4.945949e+09 1.456149e+03 6.358324e+02 3.029027e+02
-3.778486e+09 -3.578490e+09 -3.738489e+09 1.558488e+02 -1.108692e+01 1.443139e+02
-4.477506e+09 -4.277508e+09 -4.437505e+09 -2.105560e+03 6.126883e+02 -2.301819e+03
-5.022309e+09 -4.822306e+09 -4.982295e+09 -1.813792e+03 2.750558e+02 -1.430591e+03
-4.686637e+09 -4.486631e+09 -4.646628e+09 -2.744085e+03 1.978894e+03 -5.876898e+02
-4.983422e+09 -4.783425e+09 -4.943424e+09 8.144397e+02 -1.322548e+01 -1.143090e+02
-2.889813e+09 -2.689817e+09 -2.849816e+09 -2.184261e+02 9.652346e+01 6.512350e+01
-2.516762e+09 -2.316766e+09 -2.476765e+09 5.015722e+01 -9.541021e+01 -2.856740e+01
-4.339311e+09 -4.139304e+09 -4.299285e+09 -1.436086e+03 2.344617e+03 -1.003567e+03
-4.343405e+09 -4.143399e+09 -4.303396e+09 -2.838400e+03 1.027642e+03 -1.488248e+03
-3.970211e+09 -3.770215e+09 -3.930215e+09 1.348956e+01 -1.104256e+03 4.364926e+01
-3.837671e+09 -3.637670e+09 -3.797670e+09 -1.875057e+01 1.297485e+01 -2.766201e+01
-4.971353e+09 -4.771355e+09 -4.931353e+09 -1.557037e+02 -9.723081e+00 2.200353e+01
-2.065166e+09 -1.865166e+09 -2.025165e+09 -1.779998e+01 -2.957401e+01 -3.716408e+01
-4.653342e+09 -4.453343e+09 -4.613345e+09 -1.456195e+03 7.230780e+02 2.409861e+02
-3.715125e+09 -3.515126e+09 -3.675125e+09 3.571096e+02 -4.954375e+01 3.118688e+01
-4.973852e+09 -4.773850e+09 -4.933851e+09 -1.186301e+02 -8.964950e+00 1.324296e+01
-3.927559e+09 -3.727560e+09 -3.887559e+09 1.456466e+02 -1.499282e+01 -1.136759e+01
-3.946749e+09 -3.746748e+09 -3.906749e+09 -1.506333e+03 3.858836e+02 3.698522e+02
-4.477511e+09 -4.277505e+09 -4.437511e+09 -7.442409e+02 -4.825934e+02 1.480988e+03
-4.967724e+09 -4.767725e+09 -4.927724e+09 2.496094e+02 2.133399e+01 -1.556565e+01
-4.114718e+09 -3.914720e+09 -4.074719e+09 -6.334493e+02 7.918127e+01 -4.316719e+02
-3.656575e+09 -3.456575e+09 -3.616574e+09 3.515708e+01 -2.168799e+01 -3.153556e+01
-2.973823e+09 -2.773823e+09 -2.933823e+09 8.441495e+01 -1.636709e+01 -1.933729e+01
-4.631710e+09 -4.431714e+09 -4.591715e+09 -2.757793e+02 6.244681e+02 7.348080e+00
-4.645818e+09 -4.445817e+09 -4.605818e+09 -7.315519e+01 -5.563060e+01 -4.055208e+01
-4.892350e+09 -4.692349e+09 -4.852350e+09 -1.338033e+02 -6.039525e+01 1.443050e-07
-4.639069e+09 -4.439073e+09 -4.599072e+09 -5.375277e+02 3.112525e+02 7.720131e+00
-4.130076e+09 -3.930080e+09 -4.090080e+09 -1.039208e+03 9.172898e+02 2.343904e+02
-2.860728e+09 -2.660727e+09 -2.820730e+09 7.999397e+02 -4.201553e+02 -6.380964e+02
-2.670077e+09 -2.470078e+09 -2.630079e+09 2.947632e+02 -1.938062e+02 1.347830e+01
-4.289448e+09 -4.089451e+09 -4.249452e+09 -7.232829e+02 1.059285e+03 2.744593e+02
-3.782962e+09 -3.582962e+09 -3.742962e+09 -7.918373e+01 -2.033488e+01 7.672011e+00
-2.882886e+09 -2.682886e+09 -2.842886e+09 -4.478458e+01 -1.999624e+01 -2.612416e+01
-2.647004e+09 -2.447004e+09 -2.607004e+09 -3.915285e+01 -1.368479e+01 -3.164406e+01
-4.802516e+09 -4.602516e+09 -4.762516e+09 -9.800155e+01 -1.522055e+01 -1.457393e+01
-1.567475e+09 -1.367479e+09 -1.527479e+09 1.505434e+02 1.297470e+02 2.969772e+02
-4.571549e+09 -4.371549e+09 -4.531550e+09 4.965693e+02 -7.304560e+01 -1.747479e+02
-4.587523e+09 -4.387523e+09 -4.547523e+09 -1.956566e+02 -8.927248e+00 1.214438e+01
-2.670035e+09 -2.470036e+09 -2.630035e+09 2.864891e+01 -8.834972e+00 9.996839e+00
-3.427187e+09 -3.227187e+09 -3.387187e+09 -1.792496e+02 -7.627947e+00 6.533670e+00
-3.524497e+09 -3.324497e+09 -3.484496e+09 4.455582e+01 -6.508436e+00 9.153283e+00
-3.154979e+09 -2.954979e+09 -3.114979e+09 -1.984505e+02 -1.733538e+01 -1.106394e+01
-1.578864e+09 -1.378865e+09 -1.538864e+09 2.706959e+02 3.127234e+01 1.236092e+01
-4.938272e+09 -4.738273e+09 -4.898272e+09 0.000000e+00 1.719074e+01 -9.119560e+00
-2.917244e+09 -2.717242e+09 -2.877243e+09 -6.125132e+01 -3.050956e+02 -8.722114e+01
-2.122131e+09 -1.922130e+09 -2.082130e+09 -2.082921e+02 -3.516212e+02 -1.636323e+02
-2.202338e+09 -2.002336e+09 -2.162337e+09 -3.491682e+02 -3.209633e+02 -1.180043e+02
-3.470498e+09 -3.270497e+09 -3.430497e+09 -4.450476e+01 -4.877601e+01 4.126288e+00
-2.398474e+09 -2.198473e+09 -2.358473e+09 -4.148301e+02 -3.615925e+02 -9.575915e+01
-1.698714e+09 -1.498713e+09 -1.658713e+09 -8.929890e+02 -7.631165e+02 -3.816447e+02
-1.613005e+09 -1.413003e+09 -1.573003e+09 -8.751017e+02 -3.685172e+02 -2.653069e+02
-1.923237e+09 -1.723240e+09 -1.883240e+09 6.939759e+02 7.561265e+01 -1.744028e+01
-1.911361e+09 -1.711360e+09 -1.871360e+09 -8.092785e+02 -5.991089e+02 -2.840315e+02
-3.290502e+09 -3.090500e+09 -3.250501e+09 -4.886893e+02 -5.249466e+02 -3.711770e+02
-2.182119e+09 -1.982118e+09 -2.142119e+09 -4.696127e+01 -4.161563e+02 -7.274029e+01
-2.971626e+09 -2.771625e+09 -2.931626e+09 -7.931974e+02 -6.879222e+02 -3.626165e+02
-4.939335e+09 -4.739334e+09 -4.899334e+09 0.000000e+00 -2.214146e+01 -1.353261e+01
-3.495977e+09 -3.295976e+09 -3.455977e+09 -5.248036e+02 -4.675908e+02 -2.185353e+02
-3.548045e+09 -3.348043e+09 -3.508044e+09 -5.326879e+01 -1.820719e+02 -5.751403e+00
-2.120136e+09 -1.920135e+09 -2.080135e+09 -6.273735e+02 -4.065541e+02 -1.677826e+02
-2.878965e+09 -2.678967e+09 -2.838965e+09 -1.375629e+02 4.445235e+01 -4.579496e+01
-3.979658e+09 -3.779660e+09 -3.939658e+09 -2.852474e+02 -1.699711e+02 -3.626203e+01
-4.407881e+09 -4.207882e+09 -4.367880e+09 2.091959e+02 -4.802326e-01 1.934204e+01
-2.234570e+09 -2.034571e+09 -2.194569e+09 4.589006e+01 2.765184e+00 1.549612e+00
-3.756729e+09 -3.556730e+09 -3.716729e+09 2.995102e+01 1.822701e+01 -1.201098e+00
-3.492154e+09 -3.292155e+09 -3.452154e+09 3.222176e+01 1.714866e+00 1.062127e+01
-4.485754e+09 -4.285756e+09 -4.445756e+09 4.762950e+02 -5.168354e+02 1.598126e+02
-2.119765e+09 -1.919766e+09 -2.079764e+09 4.453381e+01 1.281325e+00 3.249085e+00
-4.770363e+09 -4.570365e+09 -4.730363e+09 2.713298e+02 1.370481e+01 2.903301e+01
-3.801720e+09 -3.601724e+09 -3.761722e+09 -1.834311e+01 -3.549284e+02 4.375879e+01
-4.601983e+09 -4.401984e+09 -4.561983e+09 -4.675889e+02 -2.983393e+02 -1.004972e+02
-2.150601e+09 -1.950601e+09 -2.110600e+09 -1.204213e+02 -1.809466e+01 -4.035979e+01
-3.842435e+09 -3.642437e+09 -3.802435e+09 -3.831874e+02 1.316672e+02 -2.562108e+01
-2.651934e+09 -2.451935e+09 -2.611934e+09 -1.234599e+02 -5.239325e+00 -5.636537e+01
-4.998030e+09 -4.798030e+09 -4.958029e+09 -6.885721e+02 5.031647e+01 2.623848e+01
-4.436092e+09 -4.236093e+09 -4.396093e+09 -8.633615e+02 1.430294e+01 -3.977423e+01
-1.636026e+09 -1.436026e+09 -1.596026e+09 -9.401102e+00 -1.960131e+01 -1.736254e+00
-3.428357e+09 -3.228357e+09 -3.388357e+09 -2.356566e+02 -1.202819e+01 5.276778e+00
-3.231929e+09 -3.031930e+09 -3.191930e+09 -2.089747e+01 -6.419807e-01 5.460672e+00
-2.122501e+09 -1.922502e+09 -2.082502e+09 -1.413541e+01 5.173248e-01 1.916007e+00
-4.697626e+09 -4.497627e+09 -4.657627e+09 -3.624000e+01 -7.207632e+00 1.329641e+01
-3.071344e+09 -2.871343e+09 -3.031343e+09 -7.446854e+01 -6.120224e+01 -2.270626e+01
-4.986433e+09 -4.786432e+09 -4.946432e+09 -1.130948e+02 -1.673783e+01 1.320547e+01
-4.976041e+09 -4.776040e+09 -4.936040e+09 2.219936e+01 -3.267861e+00 -6.013721e+00
-4.464931e+09 -4.264931e+09 -4.424931e+09 1.580524e+01 2.491507e+00 -5.253507e+00
-2.148025e+09 -1.948024e+09 -2.108024e+09 -3.090286e+01 -1.983730e+01 -3.701000e+01
-1.602276e+09 -1.402276e+09 -1.562276e+09 9.421868e+00 9.151591e+00 -4.999452e+00
-3.674482e+09 -3.474481e+09 -3.634481e+09 5.153353e-01 2.550315e-01 5.102496e-01
-2.243889e+09 -2.043888e+09 -2.203888e+09 1.321240e+01 3.512870e+00 4.201741e+00
-1.934676e+09 -1.734675e+09 -1.894676e+09 1.234276e+01 7.584825e+00 -3.713811e+00
-4.790691e+09 -4.590690e+09 -4.750690e+09 -7.468468e+01 -5.070792e-02 1.490068e+01
-4.779055e+09 -4.579054e+09 -4.739054e+09 -4.840561e+01 -3.499366e+00 1.129669e+01
-3.332900e+09 -3.132900e+09 -3.292900e+09 -1.336863e+02 -7.219308e+00 -3.013622e+01
-4.640443e+09 -4.440442e+09 -4.600442e+09 -9.711968e+01 -1.032610e+00 -1.214787e+01
-3.756262e+09 -3.556261e+09 -3.716261e+09 -1.356351e+02 -3.424681e+01 -2.230817e+01
-3.074064e+09 -2.874064e+09 -3.034064e+09 3.382323e+01 5.050296e+00 2.002831e+00
-4.854754e+09 -4.654753e+09 -4.814754e+09 3.156890e+01 -3.667679e-01 9.603411e-01
-3.113315e+09 -2.913314e+09 -3.073315e+09 6.554348e+01 8.624021e+00 -1.672722e+01
-4.682619e+09 -4.482620e+09 -4.642620e+09 2.217404e+00 -1.647768e+00 1.973852e+00
-1.747706e+09 -1.547709e+09 -1.707706e+09 7.421080e+01 -5.664037e+00 1.309832e+01
-4.408536e+09 -4.208537e+09 -4.368537e+09 3.951714e+01 6.251506e+00 -8.364886e+00
-2.758782e+09 -2.558785e+09 -2.718783e+09 9.371968e+00 1.519078e+01 -1.701512e+01
-3.526886e+09 -3.326886e+09 -3.486886e+09 6.498112e+01 8.287039e+00 -1.142519e+01
-4.962235e+09 -4.762235e+09 -4.922235e+09 3.627932e+02 -4.221987e+01 3.218650e+01
-3.482118e+09 -3.282122e+09 -3.442120e+09 1.550378e+01 -1.216059e+03 1.038852e+02
-2.121029e+09 -1.921032e+09 -2.081030e+09 4.640039e+01 -8.448257e+01 3.128288e+01
-4.467634e+09 -4.267635e+09 -4.427635e+09 6.341054e+01 8.326401e+00 9.134171e+00
-3.591923e+09 -3.391924e+09 -3.551924e+09 2.376143e+01 3.999793e+00 9.508462e+00
-3.897613e+09 -3.697614e+09 -3.857614e+09 6.322810e+01 6.698713e-01 -9.028030e+00
-4.329195e+09 -4.129195e+09 -4.289195e+09 8.652645e+00 7.749453e+00 -1.318057e-02
-2.156413e+09 -1.956416e+09 -2.116413e+09 5.769224e+01 -7.720940e+01 5.725512e+01
-4.036403e+09 -3.836403e+09 -3.996403e+09 7.471082e+00 -4.921922e+00 -2.050697e-01
-2.909854e+09 -2.709854e+09 -2.869854e+09 6.913673e+01 1.001002e+01 -9.007720e+00
-2.529735e+09 -2.329736e+09 -2.489735e+09 4.021598e+01 -1.567530e+01 -2.866585e+01
-2.120047e+09 -1.920048e+09 -2.080047e+09 3.561234e+02 -1.689540e+02 5.310716e+01
-1.859000e+09 -1.659002e+09 -1.819000e+09 1.543233e+02 -1.557418e+02 5.566520e+01
-2.735130e+09 -2.535131e+09 -2.695130e+09 1.084785e+02 2.462578e+01 1.639442e+01
-3.127271e+09 -2.927272e+09 -3.087272e+09 1.333590e+02 1.214538e+01 -3.437743e+01
-3.438619e+09 -3.238622e+09 -3.398620e+09 5.051005e+02 -4.696383e+02 2.082748e+02
-1.800787e+09 -1.600789e+09 -1.760787e+09 2.857628e+02 -2.296187e+02 -6.928015e+00
-3.366868e+09 -3.166869e+09 -3.326869e+09 6.081131e+01 1.079803e+01 9.601335e+00
-3.436893e+09 -3.236894e+09 -3.396893e+09 1.350736e+02 1.324057e+01 -2.117446e+01
-4.503928e+09 -4.303928e+09 -4.463928e+09 1.845027e+02 1.006148e+01 -3.335131e+00
-4.070895e+09 -3.870896e+09 -4.030896e+09 1.009075e+02 1.025473e+01 4.957212e+00
-5.014512e+09 -4.814513e+09 -4.974513e+09 1.219063e+02 -1.882846e+00 -2.067708e+00
-4.594888e+09 -4.394887e+09 -4.554887e+09 9.134014e+01 1.151246e+01 3.274190e+00
-4.428768e+09 -4.228767e+09 -4.388767e+09 3.186017e+00 1.274429e+01 -1.184908e+00
-1.962891e+09 -1.762890e+09 -1.922890e+09 1.123141e+03 4.602140e+02 -1.983265e+02
-4.613105e+09 -4.413105e+09 -4.573105e+09 9.525082e+01 1.113290e+01 -9.003049e+00
-4.601363e+09 -4.401362e+09 -4.561362e+09 4.024579e+01 1.238308e+01 -4.580670e+00
-4.645648e+09 -4.445646e+09 -4.605644e+09 -2.600829e+03 3.423667e+02 -1.460415e+02
-4.702625e+09 -4.502625e+09 -4.662625e+09 2.729452e+01 3.770140e+00 1.338586e+01
-4.985935e+09 -4.785933e+09 -4.945935e+09 -5.455794e+01 -1.178269e+02 1.650375e+02
-4.138895e+09 -3.938895e+09 -4.098895e+09 4.544982e+02 -2.569059e+02 2.735897e+02
-2.184328e+09 -1.984328e+09 -2.144328e+09 2.008428e+02 -7.821647e+01 1.020453e+01
-3.375081e+09 -3.175084e+09 -3.335084e+09 9.660261e+02 1.060553e+02 3.487766e+02
-4.985848e+09 -4.785848e+09 -4.945848e+09 2.128507e+02 -3.922239e+01 3.235707e+01
-3.960049e+09 -3.760054e+09 -3.920052e+09 1.092177e+03 3.147477e+02 5.867285e+02
-4.170962e+09 -3.970963e+09 -4.130962e+09 4.392038e+02 -2.324812e+02 9.498872e+01
-4.966881e+09 -4.766884e+09 -4.926883e+09 1.013472e+03 -8.765552e+01 -6.625648e+01
-2.004473e+09 -1.804472e+09 -1.964472e+09 6.720463e+01 -8.823293e+01 -2.362070e+01
-2.559511e+09 -2.359512e+09 -2.519511e+09 1.024451e+02 -1.367192e+02 3.182840e+00
-3.645119e+09 -3.445120e+09 -3.605120e+09 2.083995e+02 -9.547718e+01 1.929976e+01
-3.452254e+09 -3.252256e+09 -3.412254e+09 2.268331e+02 8.218323e+01 1.386761e+01
-1.577874e+09 -1.377876e+09 -1.537874e+09 3.134833e+02 -3.351791e+02 1.642426e+01
-3.908609e+09 -3.708609e+09 -3.868609e+09 2.607602e+02 -9.194054e+01 2.575155e+01
-4.132320e+09 -3.932319e+09 -4.092319e+09 -8.500640e+01 -4.585032e+01 3.704428e+01
-2.750399e+09 -2.550399e+09 -2.710398e+09 8.498307e+01 -6.521357e+01 -1.126958e+01
-3.914973e+09 -3.714974e+09 -3.874974e+09 -9.062166e+02 -5.176218e+02 -2.406962e+02
-4.383802e+09 -4.183802e+09 -4.343802e+09 1.632923e+02 -4.590262e+01 1.133311e+01
-5.011465e+09 -4.811462e+09 -4.971468e+09 -4.406634e+02 -8.074416e+02 -3.891362e+02
-4.989766e+09 -4.789769e+09 -4.949767e+09 -3.247195e+02 -9.714407e+01 -1.651172e+01
-2.195127e+09 -1.995128e+09 -2.155127e+09 -8.629601e+01 -1.902478e+01 -8.492939e+01
-2.339692e+09 -2.139693e+09 -2.299692e+09 4.489705e+02 -1.837190e+02 6.827049e+01
-3.357687e+09 -3.157689e+09 -3.317688e+09 3.282851e+02 -5.551993e+02 1.194585e+02
-4.266453e+09 -4.066454e+09 -4.226454e+09 -6.290238e+02 4.900769e+01 -1.222099e+02
-2.163298e+09 -1.963296e+09 -2.123297e+09 8.173321e+02 6.108047e+02 -3.770788e+02
-4.253520e+09 -4.053523e+09 -4.213522e+09 5.390649e+02 -1.921062e+02 5.173585e+01
-2.981707e+09 -2.781708e+09 -2.941707e+09 6.461595e+02 -4.614998e+02 2.027652e+02
-1.886336e+09 -1.686335e+09 -1.846335e+09 1.099641e+03 5.604503e+02 -2.132678e+02
-4.009823e+09 -3.809826e+09 -3.969824e+09 3.666200e+01 -1.608475e+02 2.829468e+01
-4.480692e+09 -4.280693e+09 -4.440694e+09 1.638062e+03 4.014682e+02 -1.260809e+02
-4.974053e+09 -4.774052e+09 -4.934052e+09 4.760030e+02 -1.057730e+02 3.578892e+01
-4.668528e+09 -4.468529e+09 -4.628528e+09 1.160451e+03 7.708543e+01 -1.211304e+01
-4.571530e+09 -4.371531e+09 -4.531530e+09 2.081450e+02 -7.315344e+01 1.942034e+01
-4.635664e+09 -4.435663e+09 -4.595663e+09 -1.656079e+02 -1.597748e+01 -2.572376e+01
-4.986433e+09 -4.786432e+09 -4.946432e+09 -4.328747e+01 -5.123138e+00 1.330974e+01
-3.966629e+09 -3.766629e+09 -3.926629e+09 -1.628425e+02 -5.821165e+01 -1.452745e+01
-1.575150e+09 -1.375150e+09 -1.535149e+09 2.964774e+02 -2.485036e+02 -1.702316e+01
-4.609686e+09 -4.409687e+09 -4.569687e+09 -6.179931e+02 1.121112e+01 1.034584e+01
-3.955935e+09 -3.755934e+09 -3.915934e+09 -1.726285e+02 -5.174788e+01 5.755432e-01
-3.993097e+09 -3.793096e+09 -3.953097e+09 -1.346247e+02 -2.749447e+01 -2.378013e+01
-3.155809e+09 -2.955809e+09 -3.115808e+09 4.282197e+02 -3.191626e+02 1.829465e+02
-4.962234e+09 -4.762235e+09 -4.922235e+09 3.119107e+02 -1.987470e+01 9.575707e+00
-1.636093e+09 -1.436094e+09 -1.596094e+09 -6.306118e+00 -9.580246e+00 3.009609e+00
-4.601032e+09 -4.401032e+09 -4.561032e+09 4.565490e+02 -1.380234e+02 5.170537e+01
-3.401519e+09 -3.201519e+09 -3.361519e+09 -1.468605e+02 -1.012495e+01 -1.897838e+01
-1.674100e+09 -1.474100e+09 -1.634100e+09 -1.321864e+02 -3.048206e+01 -4.865496e+01
-4.042491e+09 -3.842491e+09 -4.002491e+09 -1.774020e+02 -1.100453e+00 -1.021917e+00
-4.897081e+09 -4.697081e+09 -4.857081e+09 -2.000760e+00 1.156955e+00 -4.116794e-11
-3.519392e+09 -3.319391e+09 -3.479391e+09 -2.702263e-01 1.125407e+01 -3.640483e+01
-4.706202e+09 -4.506201e+09 -4.666202e+09 -3.130835e+01 -6.429730e+00 -8.628646e+00
-4.618264e+09 -4.418263e+09 -4.578263e+09 -1.090745e+02 4.617178e+00 -2.384780e+01
-4.980059e+09 -4.780059e+09 -4.940059e+09 -1.551497e+01 5.327735e+00 -1.888949e+01
-4.845933e+09 -4.645932e+09 -4.805935e+09 -7.777303e+02 -2.645476e+02 -9.232251e+01
-4.995013e+09 -4.795012e+09 -4.955015e+09 -6.828664e+02 -2.539233e+02 -1.378663e+02
-4.978122e+09 -4.778121e+09 -4.938121e+09 -1.008259e+02 4.294677e+00 4.584276e+00
-3.430632e+09 -3.230631e+09 -3.390632e+09 -7.499664e+00 -6.416240e+00 -3.811323e+00
-4.636197e+09 -4.436195e+09 -4.596198e+09 -4.500061e+02 -3.384850e+02 -2.263481e+02
-4.355391e+09 -4.155391e+09 -4.315391e+09 -2.649058e+00 -3.038059e+00 -1.328303e+00
-4.118694e+09 -3.918692e+09 -4.078694e+09 -5.018623e+02 -5.979973e+02 -6.322019e+02
-4.103920e+09 -3.903918e+09 -4.063920e+09 -4.841412e+02 -2.707189e+02 -1.563306e+02
-4.270883e+09 -4.070881e+09 -4.230883e+09 -1.386676e+02 -3.085115e+02 -3.277734e+02
-3.856017e+09 -3.656019e+09 -3.816017e+09 -1.004155e+02 1.564469e+01 -2.099306e+01
-1.900429e+09 -1.700432e+09 -1.860430e+09 -6.186116e+01 8.804222e+00 -3.414073e+01
-2.569344e+09 -2.369346e+09 -2.529344e+09 -1.920684e+01 7.294325e+00 -9.204649e+01
-2.074126e+09 -1.874128e+09 -2.034126e+09 -2.856314e+02 1.293798e+00 -5.098477e+01
-3.015779e+09 -2.815782e+09 -2.975779e+09 -2.578953e+02 5.326329e+01 -2.930094e+01
-4.829326e+09 -4.629326e+09 -4.789325e+09 -4.764015e+02 1.843718e+01 8.112633e+00
-4.146976e+09 -3.946976e+09 -4.106975e+09 -3.297433e+02 9.518509e+00 -2.296500e+01
-4.321505e+09 -4.121504e+09 -4.281504e+09 -2.811736e+02 7.216801e+01 4.115918e+00
-3.336088e+09 -3.136088e+09 -3.296088e+09 -7.411558e+00 -2.174376e+01 6.160050e-02
-4.133976e+09 -3.933977e+09 -4.093976e+09 -9.033359e+01 -1.802611e+00 1.919479e+01
-2.774727e+09 -2.574728e+09 -2.734728e+09 -5.989648e+00 -1.787409e+00 1.466773e+00
-4.995271e+09 -4.795271e+09 -4.955271e+09 -2.916380e+02 1.860489e+01 9.334463e+00
-3.840461e+09 -3.640462e+09 -3.800462e+09 -1.529358e+02 -1.702333e+00 1.503244e+01
-4.517205e+09 -4.317206e+09 -4.477206e+09 -9.503452e+01 -8.699834e+00 -1.607544e+00
-3.024986e+09 -2.824987e+09 -2.984987e+09 -1.062262e+02 -4.117870e-01 -4.740155e+00
-4.419790e+09 -4.219790e+09 -4.379790e+09 -1.099083e+01 -9.048136e+00 4.297362e-01
-4.808489e+09 -4.608489e+09 -4.768488e+09 -3.129791e+02 -1.833233e+01 -8.030138e+00
-4.303067e+09 -4.103066e+09 -4.263066e+09 -1.428958e+02 5.613442e+01 1.143551e+00
-3.965515e+09 -3.765516e+09 -3.925516e+09 -2.316508e+02 -1.462663e+01 9.947163e+00
-1.929051e+09 -1.729052e+09 -1.889051e+09 -1.940809e+01 -1.187039e+01 -4.085193e+00
-4.309874e+09 -4.109874e+09 -4.269874e+09 -3.569067e+01 4.224193e+01 7.006790e+00
-3.932718e+09 -3.732719e+09 -3.892719e+09 -7.814970e+01 3.457338e+00 -7.042340e+00
-5.000291e+09 -4.800291e+09 -4.960291e+09 -1.637163e+02 6.303097e+00 1.224241e+01
-4.820095e+09 -4.620095e+09 -4.780095e+09 -1.913982e+02 -2.528769e+01 -9.265129e+00
-3.498833e+09 -3.298833e+09 -3.458832e+09 4.110771e+02 5.175472e+01 -4.874883e+00
-4.991849e+09 -4.791850e+09 -4.951848e+09 -6.389785e+02 5.075016e+00 1.817369e+01
-2.776700e+09 -2.576699e+09 -2.736700e+09 -5.000725e+01 -6.575462e+00 -2.928003e+01
-3.975362e+09 -3.775362e+09 -3.935361e+09 1.573688e+02 -6.816268e+00 -3.173865e+01
-3.414539e+09 -3.214539e+09 -3.374538e+09 2.935517e+02 9.224346e+01 -3.507485e+01
-4.570648e+09 -4.370648e+09 -4.530648e+09 5.433554e+02 1.988930e+02 -5.211739e+01
-2.315627e+09 -2.115627e+09 -2.275626e+09 5.721810e+02 1.349078e+02 -1.783994e+01
-1.851742e+09 -1.651742e+09 -1.811741e+09 3.119373e+02 3.113685e+01 -9.374344e+00
-2.982211e+09 -2.782211e+09 -2.942211e+09 -1.207226e+02 -1.998376e+01 -6.137009e+00
-2.014936e+09 -1.814936e+09 -1.974935e+09 6.053417e+02 9.126059e+01 -9.737083e+00
-3.543551e+09 -3.343551e+09 -3.503550e+09 6.559222e+02 8.803851e+01 -4.192359e+01
-4.653292e+09 -4.453292e+09 -4.613291e+09 6.932706e+02 3.306425e+01 4.238045e+01
-3.391889e+09 -3.191889e+09 -3.351889e+09 -4.001178e+01 -3.573675e+00 -2.424192e+01
-2.716439e+09 -2.516439e+09 -2.676439e+09 -4.275647e+01 -5.391449e+00 -2.654096e+01
-3.474440e+09 -3.274439e+09 -3.434439e+09 -1.662408e+01 4.717325e+00 -2.857836e+01
-2.700012e+09 -2.500011e+09 -2.660011e+09 -6.521710e+01 -1.429717e+01 -4.372280e+01
-1.588624e+09 -1.388623e+09 -1.548623e+09 -3.682307e+01 -4.885379e+01 -5.766318e+01
-4.310059e+09 -4.110059e+09 -4.270059e+09 6.589654e+02 8.272274e+00 2.104133e+01
-3.974418e+09 -3.774419e+09 -3.934418e+09 -1.970919e+02 1.698391e+01 -1.639097e+01
-4.995271e+09 -4.795271e+09 -4.955271e+09 -4.792323e+02 3.999969e+01 1.044622e+01
-3.234693e+09 -3.034695e+09 -3.194693e+09 -4.005531e+02 8.292852e+01 -3.486599e+00
-4.890117e+09 -4.690120e+09 -4.850118e+09 5.273226e+01 1.313583e-08 1.394984e+01
-2.053951e+09 -1.853953e+09 -2.013951e+09 -3.677527e+02 8.276117e+00 -2.379084e+01
-3.244033e+09 -3.044035e+09 -3.204033e+09 -2.855804e+02 3.103039e+01 -4.930753e+01
-2.659069e+09 -2.459069e+09 -2.619069e+09 -3.331117e+01 -6.859516e+00 -6.626381e+00
-1.934262e+09 -1.734263e+09 -1.894262e+09 -3.769315e+01 2.001771e+01 -3.998058e+01
-3.382424e+09 -3.182426e+09 -3.342424e+09 -3.274361e+02 3.962758e+01 -3.331575e+00
-2.825444e+09 -2.625443e+09 -2.785443e+09 -1.229652e+01 -2.289763e+00 -1.628099e+01
-2.196785e+09 -1.996787e+09 -2.156785e+09 -9.558753e+01 -1.532641e+01 -2.571291e+01
-3.856988e+09 -3.656988e+09 -3.816988e+09 -1.351267e+02 -1.324676e+01 -5.143356e+00
-3.967382e+09 -3.767381e+09 -3.927382e+09 -3.064034e+01 -1.303658e+00 -2.514956e+00
-4.028641e+09 -3.828642e+09 -3.988640e+09 5.919870e+01 -2.895423e+01 2.683788e+01
-4.432345e+09 -4.232344e+09 -4.392344e+09 -4.712058e+01 -2.044455e+00 -9.157535e+00
-2.235853e+09 -2.035852e+09 -2.195853e+09 -1.228424e+01 6.483720e-01 -3.612679e+01
-3.843218e+09 -3.643219e+09 -3.803217e+09 1.250712e+02 3.101748e+01 -6.696475e-01
-2.137599e+09 -1.937602e+09 -2.097599e+09 -8.759368e+01 -8.783344e+01 -6.410623e+01
-3.769186e+09 -3.569187e+09 -3.729185e+09 6.792812e+01 2.512134e+01 9.835439e-01
-2.906797e+09 -2.706798e+09 -2.866797e+09 8.890385e+01 -1.110732e+01 2.681052e+01
-4.732147e+09 -4.532148e+09 -4.692147e+09 3.016468e+02 3.875950e+01 -1.567162e+01
-4.773861e+09 -4.573862e+09 -4.733860e+09 2.241049e+02 -2.075549e+01 3.983498e+01
-2.676562e+09 -2.476563e+09 -2.636562e+09 1.329909e+02 1.357153e+01 2.560168e+01
-4.140009e+09 -3.940012e+09 -4.100013e+09 -6.439747e+02 -1.409682e+03 -1.177112e+02
-4.892133e+09 -4.692134e+09 -4.852133e+09 1.767213e+01 4.974470e-05 2.124749e+01
-3.543020e+09 -3.343019e+09 -3.503019e+09 -2.387113e+02 -1.163457e+02 -6.948803e+01
-2.565883e+09 -2.365884e+09 -2.525883e+09 1.475059e+02 -2.092045e+02 -1.897981e+01
-2.073563e+09 -1.873562e+09 -2.033562e+09 -2.519893e+02 -2.656998e+02 -7.880517e+01
-3.247739e+09 -3.047739e+09 -3.207739e+09 8.007251e+02 1.363696e+02 -3.093362e+01
-3.921968e+09 -3.721969e+09 -3.881967e+09 4.450317e+01 2.340720e+00 -1.385455e+01
-3.458990e+09 -3.258991e+09 -3.418990e+09 1.479525e+02 1.639029e+01 1.220629e+01
-4.442869e+09 -4.242870e+09 -4.402869e+09 5.604658e+02 6.284557e+00 1.131380e+01
-4.156189e+09 -3.956191e+09 -4.116189e+09 7.680980e+02 1.514353e+02 -6.824406e+01
-3.286248e+09 -3.086246e+09 -3.246247e+09 -5.777073e+01 -2.711657e+02 -6.004654e+01
-2.858336e+09 -2.658334e+09 -2.818335e+09 -4.015823e+02 -3.790380e+02 -1.808234e+02
-4.329226e+09 -4.129227e+09 -4.289226e+09 9.237275e+02 8.562510e+01 2.459245e+00
-3.888276e+09 -3.688276e+09 -3.848275e+09 3.291567e+02 3.764159e+01 -2.456062e+01
-4.831325e+09 -4.631327e+09 -4.791325e+09 8.911011e+02 1.255620e+02 -6.095382e+01
-4.329226e+09 -4.129227e+09 -4.289226e+09 7.027665e+02 6.252411e+01 -1.552390e+01
-4.993825e+09 -4.793827e+09 -4.953825e+09 4.571550e+02 8.397877e+01 2.430255e+01
-2.848611e+09 -2.648612e+09 -2.808610e+09 2.715925e+02 -8.094659e+00 4.137735e+01
-2.158150e+09 -1.958151e+09 -2.118149e+09 5.724365e+01 -1.051436e+01 1.893896e+01
-4.480666e+09 -4.280666e+09 -4.440666e+09 6.305683e+02 -3.512696e+02 2.245423e+02
-4.647132e+09 -4.447133e+09 -4.607138e+09 5.066625e+01 -6.628161e+02 2.290399e+02
-3.941358e+09 -3.741356e+09 -3.901358e+09 -4.916356e+02 -2.197100e+02 3.139558e+02
-2.055313e+09 -1.855317e+09 -2.015314e+09 7.241640e+01 -1.098873e+03 1.050616e+02
-4.320913e+09 -4.120915e+09 -4.280917e+09 -9.015753e+02 -1.276139e+03 -3.238151e+02
-4.308470e+09 -4.108472e+09 -4.268473e+09 5.108073e+02 -8.788938e+02 2.566660e+02
-4.984536e+09 -4.784536e+09 -4.944538e+09 6.501540e+02 -3.223416e+02 2.532486e+02
-4.124604e+09 -3.924603e+09 -4.084604e+09 3.165862e+02 -2.309708e+02 7.074137e+01
-4.986376e+09 -4.786379e+09 -4.946377e+09 2.546223e+02 -4.833140e+01 2.379938e+01
-4.371527e+09 -4.171526e+09 -4.331526e+09 -5.446549e+01 -7.138113e+01 -2.521408e+01
-4.129422e+09 -3.929422e+09 -4.089423e+09 5.814773e+02 -5.115992e+02 2.929515e+02
-2.436726e+09 -2.236727e+09 -2.396726e+09 4.501081e+02 -2.415601e+02 3.975821e+01
-3.966216e+09 -3.766218e+09 -3.926217e+09 8.748521e+01 1.034422e+01 -1.612381e+01
-4.989649e+09 -4.789650e+09 -4.949650e+09 1.842756e+02 -1.561877e+01 -6.539076e+01
-3.878194e+09 -3.678192e+09 -3.838193e+09 -2.288032e+02 -2.388816e+02 -3.012107e+01
-3.954155e+09 -3.754158e+09 -3.914158e+09 5.974492e+02 3.085427e+01 6.352284e+01
-3.959951e+09 -3.759952e+09 -3.919952e+09 1.820718e+02 2.268552e+01 -4.807388e+00
-3.116547e+09 -2.916551e+09 -3.076550e+09 1.776096e+02 3.181446e+01 3.797214e+00
-4.985478e+09 -4.785480e+09 -4.945479e+09 4.245760e+02 -6.524765e-01 -8.645793e+01
-3.956315e+09 -3.756316e+09 -3.916316e+09 4.641775e+01 7.700172e-01 -5.260213e+01
-4.635442e+09 -4.435442e+09 -4.595442e+09 4.851786e+02 2.899775e+01 1.135230e+01
-4.479905e+09 -4.279907e+09 -4.439906e+09 3.634195e+02 2.185145e+01 -1.025671e+02
-2.822161e+09 -2.622166e+09 -2.782165e+09 -1.420457e+01 3.383694e+01 1.222444e+02
-4.784631e+09 -4.584633e+09 -4.744632e+09 4.580105e+02 1.863318e+00 -1.085672e+02
-2.020237e+09 -1.820240e+09 -1.980240e+09 -1.161448e+02 2.165822e+01 6.397112e+01
-3.949779e+09 -3.749785e+09 -3.909775e+09 -3.937540e+02 -3.027252e+02 3.576433e+03
-2.671947e+09 -2.471951e+09 -2.631950e+09 1.952315e+01 4.512534e+01 1.498111e+02
-3.227760e+09 -3.027765e+09 -3.187763e+09 2.874032e+02 3.377751e+02 1.109656e+03
-1.603958e+09 -1.403958e+09 -1.563960e+09 4.373729e+02 -4.595410e+02 -5.190644e+02
-1.748397e+09 -1.548401e+09 -1.708401e+09 6.793537e+02 1.411119e+02 2.888103e+02
-3.949776e+09 -3.749783e+09 -3.909774e+09 1.073412e+03 6.738002e+02 4.123844e+03
-2.073448e+09 -1.873453e+09 -2.033452e+09 8.046368e+02 1.632138e+02 6.996535e+02
-2.837737e+09 -2.637743e+09 -2.797741e+09 1.333010e+02 1.247937e+02 1.166842e+03
-1.926306e+09 -1.726309e+09 -1.886309e+09 4.849374e+02 -5.857844e+01 -8.939848e+00
-4.462472e+09 -4.262472e+09 -4.422472e+09 -1.153530e+03 2.581649e+02 1.439000e+02
-4.661990e+09 -4.461988e+09 -4.621991e+09 2.067046e+03 3.163021e+02 -2.624927e+02
-4.974965e+09 -4.774964e+09 -4.934966e+09 6.723235e+02 -6.918951e+00 1.136254e+02
-4.985270e+09 -4.785267e+09 -4.945271e+09 1.472864e+03 -2.802026e+02 -2.180751e+02
-3.971163e+09 -3.771162e+09 -3.931163e+09 3.061757e+03 1.631853e+03 5.340678e+02
-4.118207e+09 -3.918211e+09 -4.078207e+09 -1.053003e+03 -4.212585e+01 1.162129e+03
-5.003554e+09 -4.803554e+09 -4.963554e+09 -1.081499e+03 6.744004e+01 8.109961e+01
-4.640320e+09 -4.440321e+09 -4.600322e+09 -1.494845e+03 2.882799e+02 2.126395e+02
-4.784094e+09 -4.584085e+09 -4.744089e+09 -1.177043e+03 -2.096042e+03 1.055550e+03
-4.988645e+09 -4.788638e+09 -4.948644e+09 -1.275111e+03 3.206656e+02 -1.862245e+02
-4.117268e+09 -3.917266e+09 -4.077279e+09 5.089017e+02 4.288494e+03 -3.707715e+02
-3.966199e+09 -3.766198e+09 -3.926190e+09 -3.739399e+03 -2.333549e+03 2.826048e+03
-4.480357e+09 -4.280349e+09 -4.440348e+09 -1.766989e+03 -2.015900e+03 1.699096e+02
-3.961968e+09 -3.761960e+09 -3.921968e+09 -2.867583e+02 -4.847933e+02 -2.833319e+03
-3.960109e+09 -3.760110e+09 -3.920109e+09 -8.883531e+02 -2.128908e+01 -9.853558e+00
-4.310889e+09 -4.110889e+09 -4.270889e+09 -9.873786e+02 2.096309e+02 4.956906e+01
-4.993234e+09 -4.793235e+09 -4.953235e+09 -1.433975e+03 1.073444e+02 4.517752e+01
-4.475935e+09 -4.275935e+09 -4.435935e+09 -7.558643e+02 -7.743335e+00 1.225596e+01
-4.809052e+09 -4.609053e+09 -4.769052e+09 -1.096310e+03 -3.054263e+01 -1.703018e+01
-4.820987e+09 -4.620988e+09 -4.780988e+09 -1.254096e+02 -3.901104e+00 -4.925683e+01
-4.002376e+09 -3.802376e+09 -3.962376e+09 -8.762514e+02 -3.314493e+01 3.236747e+01
-4.122586e+09 -3.922588e+09 -4.082587e+09 -1.117115e+03 3.346470e+02 1.170434e+02
-4.981622e+09 -4.781621e+09 -4.941622e+09 -1.173220e+03 -8.346301e+01 1.154479e+02
-2.972746e+09 -2.772748e+09 -2.932749e+09 1.994489e+03 6.767863e+02 4.953580e+02
-4.128510e+09 -3.928505e+09 -4.088505e+09 -3.089645e+03 -1.500822e+03 -3.417886e+02
-3.952958e+09 -3.752951e+09 -3.912962e+09 1.363564e+03 1.032231e+03 -1.868947e+03
-1.759458e+09 -1.559461e+09 -1.719461e+09 4.592471e+02 4.791410e+00 2.088263e+02
-3.601191e+09 -3.401192e+09 -3.561192e+09 6.304098e+02 -7.978802e+01 -1.335134e+02
-2.444020e+09 -2.244022e+09 -2.404022e+09 8.265603e+02 1.386678e+02 -1.328733e+02
-3.961967e+09 -3.761957e+09 -3.921967e+09 -8.573740e+02 -3.424982e+03 -1.342030e+03
-3.967066e+09 -3.767070e+09 -3.927074e+09 -1.000044e+02 2.511606e+03 2.953845e+02
-3.968893e+09 -3.768893e+09 -3.928894e+09 -1.819882e+03 9.026509e+02 7.085915e+02
-4.259493e+09 -4.059492e+09 -4.219500e+09 1.499239e+03 3.172410e+03 -1.279690e+03
-4.988132e+09 -4.788135e+09 -4.948135e+09 -8.025351e+02 2.359095e+02 4.842396e+01
-4.454354e+09 -4.254356e+09 -4.414357e+09 5.916326e+02 -6.048749e+01 -1.506688e+00
-3.985181e+09 -3.785179e+09 -3.945181e+09 4.221987e+02 -2.028130e+02 -1.189890e+02
-3.851320e+09 -3.651319e+09 -3.811321e+09 6.407205e+02 -2.751752e+02 -4.426263e+02
-4.134276e+09 -3.934275e+09 -4.094280e+09 -2.001811e+03 1.086295e+03 1.224660e+03
-4.777872e+09 -4.577873e+09 -4.737874e+09 1.402631e+03 -4.385488e+01 1.618162e+02
-4.471563e+09 -4.271563e+09 -4.431564e+09 1.452216e+03 8.149089e+01 -1.125094e+02
-4.992793e+09 -4.792792e+09 -4.952795e+09 -1.466719e+03 2.189633e+02 1.192257e+02
-4.990317e+09 -4.790317e+09 -4.950321e+09 -1.453934e+03 4.821084e+02 1.286943e+02
-4.992794e+09 -4.792792e+09 -4.952795e+09 -1.183684e+03 3.454018e+02 2.126787e+02
-1.904772e+09 -1.704775e+09 -1.864773e+09 9.876241e+02 -8.412184e+02 3.361691e+02
-4.482770e+09 -4.282769e+09 -4.442768e+09 -2.027424e+03 2.937545e+02 1.245317e+02
-3.996131e+09 -3.796133e+09 -3.956131e+09 -1.257291e+01 -7.520822e+01 -2.117411e+01
-2.732345e+09 -2.532347e+09 -2.692346e+09 7.112163e+02 -6.442902e+02 2.463210e+02
-4.966153e+09 -4.766147e+09 -4.926155e+09 -1.542287e+03 -1.309245e+03 3.123316e+01
-5.021966e+09 -4.821965e+09 -4.981949e+09 -5.212593e+02 -2.910932e+02 -1.211322e+03
-4.642900e+09 -4.442898e+09 -4.602897e+09 1.535957e+03 -5.287586e+02 -3.953314e+02
-4.134274e+09 -3.934275e+09 -4.094270e+09 3.072307e+02 -6.306729e+02 -1.549049e+03
-3.287630e+09 -3.087633e+09 -3.247631e+09 5.275530e+02 -4.302514e+02 1.490398e+02
-3.956285e+09 -3.756275e+09 -3.916251e+09 -1.473577e+03 3.816126e+03 -1.078583e+03
-4.820740e+09 -4.620742e+09 -4.780734e+09 -5.017976e+02 -5.545817e+02 -5.841847e+02
-4.642901e+09 -4.442899e+09 -4.602899e+09 1.224346e+03 1.214488e+02 8.150221e+02
-2.076758e+09 -1.876763e+09 -2.036760e+09 4.713838e+02 -8.474061e+02 1.434329e+02
-4.989954e+09 -4.789950e+09 -4.949953e+09 3.115019e+02 7.648005e+01 4.009942e+01
-5.032014e+09 -4.832013e+09 -4.992013e+09 3.084618e+02 -3.277077e+01 7.378384e-01
-4.615270e+09 -4.415264e+09 -4.575279e+09 9.147069e+02 1.528113e+02 2.405030e+01
-4.134275e+09 -3.934268e+09 -4.094273e+09 1.174878e+03 -5.078814e+03 9.159562e+02
-4.477507e+09 -4.277507e+09 -4.437498e+09 -1.104842e+03 1.510564e+03 -2.299228e+03
-1.594826e+09 -1.394829e+09 -1.554826e+09 7.492337e+02 -6.542417e+02 1.186392e+02
-1.832096e+09 -1.632099e+09 -1.792096e+09 2.985389e+02 -2.520634e+02 -1.538046e+01
-4.120592e+09 -3.920585e+09 -4.080595e+09 -4.109237e+02 -2.212259e+03 -4.764031e+02
-4.820741e+09 -4.620741e+09 -4.780729e+09 2.720427e+02 3.694740e+01 -1.032422e+03
-4.134275e+09 -3.934275e+09 -4.094269e+09 1.246756e+03 -3.522507e+03 -2.248344e+03
-4.335843e+09 -4.135840e+09 -4.295838e+09 -2.526897e+03 1.181345e+03 -9.341138e+02
-2.603090e+09 -2.403090e+09 -2.563090e+09 -2.849948e+01 -4.751508e+00 5.134279e+00
-1.889620e+09 -1.689621e+09 -1.849621e+09 4.429261e+00 2.335181e+00 3.820400e+00
-3.992269e+09 -3.792268e+09 -3.952253e+09 8.591930e+02 -1.336672e+03 -2.860801e+03
-5.021964e+09 -4.821964e+09 -4.981948e+09 5.327666e+02 -3.355229e+02 -1.298605e+03
-3.766006e+09 -3.566007e+09 -3.726007e+09 -8.955152e+00 -3.708064e+00 1.065059e+01
-4.408761e+09 -4.208762e+09 -4.368762e+09 1.098168e+00 -2.026327e-01 -1.005702e+00
-1.674097e+09 -1.474100e+09 -1.634098e+09 2.102685e+02 7.350495e+01 5.002411e+00
-3.372368e+09 -3.172369e+09 -3.332369e+09 -1.516808e+02 -5.204807e+00 7.865442e+00
-2.111271e+09 -1.911272e+09 -2.071272e+09 -1.083236e+01 -3.284899e+00 3.107754e+00
-2.828497e+09 -2.628498e+09 -2.788498e+09 3.969712e+00 2.408722e+00 1.072560e+01
-4.431564e+09 -4.231565e+09 -4.391564e+09 -3.459041e+01 -5.306186e+00 -1.468850e+00
-4.529477e+09 -4.329479e+09 -4.489477e+09 -1.675602e+02 -6.692259e+00 -2.509209e+01
-2.538271e+09 -2.338273e+09 -2.498271e+09 -4.958430e+02 -5.082151e+00 8.836899e+00
-1.854288e+09 -1.654291e+09 -1.814288e+09 -3.682594e+02 4.699285e+00 -4.731567e+01
-2.597294e+09 -2.397295e+09 -2.557295e+09 -8.789499e+00 -1.864444e+01 4.822795e+00
-3.934807e+09 -3.734808e+09 -3.894808e+09 2.239922e+01 3.884926e+00 -4.789172e+00
-2.690541e+09 -2.490542e+09 -2.650541e+09 3.919901e+01 5.457117e+00 -1.519471e+00
-2.400254e+09 -2.200255e+09 -2.360254e+09 3.874201e-01 1.824141e+00 1.016029e+00
-1.589813e+09 -1.389814e+09 -1.549813e+09 -2.930240e+02 -7.981213e+00 -8.530613e+01
-2.900611e+09 -2.700611e+09 -2.860610e+09 -5.891854e+01 -2.677073e+01 -2.497420e+01
-4.659425e+09 -4.459426e+09 -4.619424e+09 -4.881156e+02 4.432694e+00 -1.209398e+01
-4.462139e+09 -4.262139e+09 -4.422139e+09 -6.176113e+01 1.732387e+01 -6.070074e+00
-1.899732e+09 -1.699733e+09 -1.859731e+09 -3.260794e+02 5.663824e+01 -3.774079e+01
-3.138349e+09 -2.938350e+09 -3.098350e+09 -9.612420e+00 -1.508734e+00 1.103870e+01
-2.309361e+09 -2.109362e+09 -2.269362e+09 4.877022e+00 -3.688190e+00 -1.038119e+01
-3.774139e+09 -3.574142e+09 -3.734140e+09 4.908072e+02 4.614231e+01 -1.108846e+01
-4.679506e+09 -4.479508e+09 -4.639506e+09 2.692758e+02 -5.978457e+00 2.420867e+01
-1.696840e+09 -1.496840e+09 -1.656840e+09 1.804202e+02 2.883295e+01 2.144727e+00
-4.498223e+09 -4.298221e+09 -4.458222e+09 3.236306e+02 -3.114573e+01 -5.037777e+01
-3.137655e+09 -2.937656e+09 -3.097655e+09 3.706164e+01 -6.243274e+01 3.028071e+01
-3.969237e+09 -3.769238e+09 -3.929237e+09 3.847176e+02 1.304264e+01 4.687221e+00
-3.767264e+09 -3.567265e+09 -3.727264e+09 5.829285e+02 3.357240e+00 -1.072891e+01
-4.980242e+09 -4.780240e+09 -4.940243e+09 -9.616883e+02 -4.832518e+02 2.738245e+02
-4.467619e+09 -4.267621e+09 -4.427619e+09 4.349330e+02 -2.014736e+00 7.694218e+00
-3.891613e+09 -3.691615e+09 -3.851613e+09 5.972720e+02 1.144571e+01 -1.774279e+00
-4.764236e+09 -4.564237e+09 -4.724235e+09 5.096264e+02 -1.039795e+01 3.041292e+01
-4.421003e+09 -4.221004e+09 -4.381003e+09 5.468735e+02 7.012681e+01 1.420038e-02
-2.708229e+09 -2.508232e+09 -2.668233e+09 1.434301e+03 2.057538e+02 3.040804e+02
-3.586772e+09 -3.386774e+09 -3.546774e+09 1.080956e+03 8.559296e+01 5.134879e+01
-4.377581e+09 -4.177584e+09 -4.337584e+09 3.295918e+02 3.572908e+01 -4.917975e+01
-3.019416e+09 -2.819419e+09 -2.979418e+09 9.937725e+02 6.044754e+01 4.292935e+02
-2.648027e+09 -2.448029e+09 -2.608030e+09 8.002671e+02 1.420705e+02 2.478789e+01
-3.499626e+09 -3.299629e+09 -3.459629e+09 7.926494e+01 1.405914e+01 2.986580e+01
-3.480126e+09 -3.280128e+09 -3.440128e+09 4.322712e+02 -1.018670e+01 -4.722496e+01
-4.878990e+09 -4.678992e+09 -4.838993e+09 4.207717e+02 -4.309518e+01 2.594224e+01
-4.374233e+09 -4.174235e+09 -4.334235e+09 1.241661e+02 -5.435390e+01 -1.086114e+01
-1.777487e+09 -1.577487e+09 -1.737486e+09 8.962351e+01 -4.408529e+01 -4.108022e+01
-4.999417e+09 -4.799417e+09 -4.959417e+09 5.804397e+01 -4.101992e+00 -7.410911e+00
-3.632082e+09 -3.432082e+09 -3.592082e+09 2.548077e-01 2.961599e+00 -3.047258e+01
-2.147312e+09 -1.947312e+09 -2.107311e+09 4.385895e+02 -2.317822e+02 1.185848e+02
-2.617374e+09 -2.417373e+09 -2.577373e+09 -6.136593e+02 -3.664202e+02 -1.956307e+02
-2.901468e+09 -2.701468e+09 -2.861468e+09 -2.374596e+02 -3.285804e+01 6.994828e+00
-4.709866e+09 -4.509868e+09 -4.669866e+09 -1.061198e+02 -4.626593e+01 -1.424792e+01
-2.741384e+09 -2.541384e+09 -2.701384e+09 -9.276206e+01 -1.608285e+01 2.097190e+00
-3.581452e+09 -3.381452e+09 -3.541452e+09 -1.071273e+02 -1.079735e+01 4.512417e+00
-1.741131e+09 -1.541130e+09 -1.701130e+09 -1.691215e+02 -7.892180e+01 -1.614202e+01
-4.890117e+09 -4.690118e+09 -4.850118e+09 -1.925208e+01 6.394018e+00 4.973579e-05
-4.788169e+09 -4.588170e+09 -4.748170e+09 -1.688387e+02 8.060887e+00 1.711253e+01
-4.982659e+09 -4.782659e+09 -4.942659e+09 -8.340857e+01 5.143505e+00 -7.337349e-01
-2.216535e+09 -2.016534e+09 -2.176535e+09 8.231737e+00 2.592046e+00 -4.915506e+00
-4.709974e+09 -4.509974e+09 -4.669974e+09 -5.093795e+01 -1.203212e+00 2.118147e+01
-4.892244e+09 -4.692244e+09 -4.852244e+09 -1.148913e+01 5.255167e+00 -1.078166e-09
-2.096365e+09 -1.896365e+09 -2.056365e+09 1.399125e+01 6.316936e+00 -5.460038e+00
-3.628521e+09 -3.428521e+09 -3.588521e+09 -6.673349e+00 8.217352e-02 3.658229e-02
-3.432611e+09 -3.232611e+09 -3.392611e+09 1.194653e+01 6.208804e+00 -1.722550e+01
-2.799323e+09 -2.599323e+09 -2.759323e+09 -3.882766e+01 -1.441740e+01 -2.994358e+01
-4.968624e+09 -4.768624e+09 -4.928624e+09 -1.746607e+02 4.328349e+00 1.463590e+00
-4.973283e+09 -4.773283e+09 -4.933283e+09 -2.157979e+02 -1.512383e+00 2.974332e-01
-4.983831e+09 -4.783831e+09 -4.943831e+09 -1.480038e+02 -1.445784e+01 3.614296e+01
-4.983831e+09 -4.783831e+09 -4.943831e+09 -9.326647e+01 1.428774e+00 -3.174900e+00
-1.947739e+09 -1.747738e+09 -1.907738e+09 8.269637e+00 1.552186e+00 -8.892954e+00
-3.120707e+09 -2.920706e+09 -3.080706e+09 7.667211e+00 3.120935e-01 -5.027466e+00
-3.923906e+09 -3.723910e+09 -3.883908e+09 -1.237689e+02 -4.367299e+02 -3.504775e+01
-3.366196e+09 -3.166195e+09 -3.326195e+09 -1.842395e+00 2.366285e-01 -4.511161e+00
-4.799409e+09 -4.599410e+09 -4.759407e+09 1.056329e+03 -1.002227e+02 8.830665e+01
-4.290786e+09 -4.090786e+09 -4.250782e+09 4.936784e+02 -1.798619e+02 -4.636901e+02
-4.634019e+09 -4.434020e+09 -4.594015e+09 3.150211e+02 -3.509704e+02 -5.848394e+02
-4.449893e+09 -4.249894e+09 -4.409892e+09 3.872165e+02 6.286857e+00 8.352426e+00
-4.601512e+09 -4.401512e+09 -4.561512e+09 -8.728417e+01 5.807408e+00 -3.093904e+01
-2.666275e+09 -2.466274e+09 -2.626274e+09 7.544969e+01 -4.933434e+01 -1.617582e+01
-3.397911e+09 -3.197915e+09 -3.357913e+09 -5.461843e+01 -1.171064e+02 -7.811028e+00
-4.051274e+09 -3.851274e+09 -4.011274e+09 1.528077e+02 -2.473901e+01 -3.222639e+01
-4.504787e+09 -4.304790e+09 -4.464789e+09 -3.701166e+02 -2.159368e+02 -2.728954e+02
-1.642319e+09 -1.442321e+09 -1.602319e+09 -8.095313e+02 -5.424620e+02 -1.216075e+02
-3.948831e+09 -3.748830e+09 -3.908831e+09 2.109807e+01 3.434351e+01 -4.980546e+01
-3.907931e+09 -3.707930e+09 -3.867931e+09 -2.506627e+01 -1.639092e+01 -2.170444e+01
-3.248176e+09 -3.048176e+09 -3.208176e+09 1.085927e+02 -1.601335e+01 8.194061e+00
-4.671264e+09 -4.471265e+09 -4.631263e+09 4.135251e+01 -1.344316e+01 9.997237e+00
-4.687226e+09 -4.487227e+09 -4.647225e+09 8.621355e+01 -6.631069e+00 2.252785e+01
-2.289627e+09 -2.089627e+09 -2.249627e+09 2.629857e+01 -9.194063e+01 -2.099914e+01
-3.354380e+09 -3.154380e+09 -3.314380e+09 1.030161e+02 -1.109116e+02 2.407258e+01
-2.695843e+09 -2.495846e+09 -2.655843e+09 4.331637e+01 -9.281482e+00 1.248424e-01
-4.420333e+09 -4.220333e+09 -4.380332e+09 6.592413e+01 -5.865750e+00 7.146454e+00
-3.543917e+09 -3.343920e+09 -3.503917e+09 1.395486e+02 4.122471e+01 -6.720803e+00
-1.595650e+09 -1.395649e+09 -1.555649e+09 2.000436e+01 9.742236e+00 5.696579e+00
-3.823728e+09 -3.623731e+09 -3.783728e+09 1.741552e+02 7.091272e+01 -1.940611e+01
-4.588223e+09 -4.388226e+09 -4.548223e+09 1.614844e+00 2.628911e+01 3.849969e-01
-3.772345e+09 -3.572344e+09 -3.732344e+09 2.605129e+01 7.044790e+00 -1.422245e+01
-2.704332e+09 -2.504331e+09 -2.664331e+09 3.225633e-01 -3.140799e-01 -4.022255e+00
-1.632485e+09 -1.432485e+09 -1.592485e+09 -2.209958e+00 9.982937e+00 -3.557709e+00
-4.481684e+09 -4.281687e+09 -4.441684e+09 1.095631e+02 2.106131e+00 2.756019e+00
-3.678062e+09 -3.478061e+09 -3.638061e+09 -2.250955e-01 -3.803931e-01 -1.113683e+00
-3.405923e+09 -3.205926e+09 -3.365924e+09 5.994171e+01 -1.211747e+01 -1.101992e+01
-3.927854e+09 -3.727857e+09 -3.887855e+09 -6.213203e+01 7.774430e+01 -2.362949e+01
-1.582002e+09 -1.382005e+09 -1.542002e+09 5.635969e+01 2.864073e+01 -1.357424e+01
-4.397414e+09 -4.197415e+09 -4.357414e+09 4.445836e+02 4.990662e+01 7.262567e+00
-4.962641e+09 -4.762640e+09 -4.922640e+09 1.140625e+02 -2.539811e+01 3.489071e+00
-3.441396e+09 -3.241396e+09 -3.401395e+09 8.354570e+01 2.502803e+01 8.043678e+00
-3.017170e+09 -2.817170e+09 -2.977170e+09 1.464704e+02 2.300561e+01 -6.541963e+00
-4.113489e+09 -3.913482e+09 -4.073494e+09 3.648639e+02 1.895838e+03 -1.556559e+03
-3.284888e+09 -3.084889e+09 -3.244889e+09 1.602413e+02 1.489246e+01 2.667447e+01
-3.940809e+09 -3.740809e+09 -3.900809e+09 2.410405e+01 2.759961e+00 -7.747923e+00
-4.790109e+09 -4.590110e+09 -4.750091e+09 9.217725e+02 -1.075495e+01 3.522244e+03
-3.934328e+09 -3.734328e+09 -3.894328e+09 6.980786e+01 1.039820e+01 1.476515e+01
-3.272470e+09 -3.072470e+09 -3.232470e+09 1.406589e+01 4.687004e+00 4.988107e-01
-4.978926e+09 -4.778926e+09 -4.938926e+09 2.425075e+01 -4.973302e+00 -1.212214e+00
-3.557441e+09 -3.357441e+09 -3.517441e+09 1.092766e+02 1.084758e+01 5.462550e+00
-2.690646e+09 -2.490646e+09 -2.650646e+09 4.761381e+01 1.256241e+01 -4.451656e+00
-2.939466e+09 -2.739466e+09 -2.899466e+09 1.531269e+01 1.969687e+00 -5.166161e+00
-4.956695e+09 -4.756695e+09 -4.916695e+09 1.744038e+01 -4.605440e+00 2.773390e-01
-4.978926e+09 -4.778926e+09 -4.938926e+09 7.019824e+01 -1.768335e+00 -1.900904e+01
-3.298306e+09 -3.098306e+09 -3.258306e+09 1.949417e+02 1.756572e+00 -8.982010e+00
-4.472465e+09 -4.272466e+09 -4.432466e+09 6.793911e+01 9.733675e+00 -2.051145e+00
-1.705430e+09 -1.505432e+09 -1.665430e+09 -5.857239e+01 -8.440555e+00 -3.323088e+01
-2.320671e+09 -2.120673e+09 -2.280671e+09 4.007722e+02 -1.131811e+00 -2.203449e+00
-3.800909e+09 -3.600910e+09 -3.760908e+09 4.535438e+01 4.626330e+00 -8.393455e-01
-3.727673e+09 -3.527673e+09 -3.687673e+09 1.499977e+02 9.546598e+00 3.522942e-01
-4.961737e+09 -4.761738e+09 -4.921736e+09 2.778754e+02 5.096391e+01 8.175981e+00
-4.704473e+09 -4.504475e+09 -4.664473e+09 1.345154e+02 -4.211221e+01 9.616095e+00
-1.763683e+09 -1.563687e+09 -1.723687e+09 1.370755e+02 -3.633233e+01 2.255336e+02
-1.677930e+09 -1.477930e+09 -1.637931e+09 4.037457e+01 -4.656731e+02 -1.373427e+02
-2.259378e+09 -2.059381e+09 -2.219381e+09 6.700755e+02 3.928916e+01 2.221271e+02
-2.364528e+09 -2.164531e+09 -2.324528e+09 3.439178e+02 9.138907e+01 -1.058810e+01
-1.598015e+09 -1.398017e+09 -1.558015e+09 2.318585e+02 5.255376e+01 2.408383e+01
-3.619432e+09 -3.419435e+09 -3.579432e+09 3.971398e+01 1.566433e+01 -3.642185e+00
-4.431860e+09 -4.231862e+09 -4.391860e+09 6.217622e+01 8.260809e+00 1.345405e+01
-4.760558e+09 -4.560558e+09 -4.720560e+09 4.817342e+02 -9.260239e+01 -1.197134e+02
-3.665429e+09 -3.465428e+09 -3.625430e+09 2.886375e+02 -1.184255e+02 -2.140126e+02
-4.950299e+09 -4.750299e+09 -4.910300e+09 4.734598e+02 -2.755903e+01 -2.752351e+01
-2.906896e+09 -2.706898e+09 -2.866896e+09 3.547734e+02 1.391594e+01 3.099577e-01
-4.273793e+09 -4.073796e+09 -4.233794e+09 5.474316e+02 1.252671e+02 4.227088e+01
-4.976099e+09 -4.776100e+09 -4.936098e+09 2.184170e+02 -6.150102e-02 4.068468e+00
-3.951223e+09 -3.751225e+09 -3.911225e+09 9.031847e+01 1.186292e+02 -5.190607e+00
-3.964311e+09 -3.764311e+09 -3.924311e+09 5.810487e+02 -2.323579e+02 1.593585e+02
-4.951364e+09 -4.751363e+09 -4.911365e+09 6.468780e+02 -8.015745e+01 -7.288533e+01
-4.029573e+09 -3.829571e+09 -3.989573e+09 9.616050e+00 -2.440741e+02 -1.584049e+02
-3.724386e+09 -3.524384e+09 -3.684387e+09 6.022759e+02 -2.772156e+02 -5.064586e+02
-3.668309e+09 -3.468308e+09 -3.628309e+09 -2.712665e+01 -2.108458e+02 -3.610734e+01
-4.997125e+09 -4.797125e+09 -4.957125e+09 -2.675035e+02 5.787105e+01 2.724841e+01
-4.105803e+09 -3.905803e+09 -4.065803e+09 3.875403e+02 -2.069020e+02 8.364023e+01
-3.951337e+09 -3.751337e+09 -3.911337e+09 3.367683e+02 -1.187753e+02 1.022648e+02
-4.811763e+09 -4.611762e+09 -4.771763e+09 1.740388e+02 -9.073734e+01 -1.682722e+01
-3.976926e+09 -3.776925e+09 -3.936926e+09 2.829242e+01 -1.500467e+02 1.322530e+02
-4.304781e+09 -4.104780e+09 -4.264781e+09 1.975739e+02 -3.778945e+02 2.573061e+02
-3.985499e+09 -3.785500e+09 -3.945499e+09 -1.170805e+01 2.144046e+01 -1.810534e+01
-3.968332e+09 -3.768332e+09 -3.928331e+09 -7.091499e+02 -2.142806e+01 -1.512843e+01
-4.825360e+09 -4.625360e+09 -4.785361e+09 3.802072e+02 -1.747071e+02 1.740637e+01
-3.162213e+09 -2.962214e+09 -3.122212e+09 -4.784977e+02 1.845707e+01 -4.314757e+01
-4.618091e+09 -4.418091e+09 -4.578090e+09 -1.581570e+02 -3.235953e-01 -2.040956e+01
-3.965005e+09 -3.765004e+09 -3.925005e+09 2.819780e+02 -2.182979e+02 2.331482e+02
-3.648019e+09 -3.448020e+09 -3.608019e+09 1.723731e+00 2.638551e+00 -1.777973e+01
-4.646223e+09 -4.446222e+09 -4.606223e+09 2.583330e+01 -8.677511e+01 1.024790e+02
-4.985935e+09 -4.785933e+09 -4.945935e+09 -6.184738e+01 -1.201359e+02 1.658088e+02
-4.890118e+09 -4.690118e+09 -4.850118e+09 2.441078e+00 -4.973754e-05 1.035077e+01
-4.659639e+09 -4.459642e+09 -4.619644e+09 -1.839018e+02 -5.297980e+02 1.691303e+01
-4.143057e+09 -3.943060e+09 -4.103061e+09 2.191987e+02 -1.320052e+03 2.723029e+02
-5.000291e+09 -4.800291e+09 -4.960291e+09 -3.181290e+02 3.881675e+01 1.536397e+01
-4.977193e+09 -4.777193e+09 -4.937192e+09 -2.665162e+02 -4.894129e+01 -2.342228e+01
-1.698333e+09 -1.498334e+09 -1.658333e+09 -3.996658e+02 1.620709e+01 -6.762229e+01
-4.990198e+09 -4.790199e+09 -4.950198e+09 -3.210087e+02 -2.247530e+01 3.053529e+00
-4.476862e+09 -4.276862e+09 -4.436862e+09 -2.758454e+02 1.628420e+01 -1.516490e+01
-3.974107e+09 -3.774106e+09 -3.934108e+09 1.239681e+03 -9.433309e+01 -3.703160e+02
-4.964865e+09 -4.764868e+09 -4.924852e+09 8.477886e+02 -4.986585e+01 1.216639e+03
-4.148680e+09 -3.948684e+09 -4.108684e+09 2.209209e+02 -9.883729e+02 1.128706e+02
-4.995122e+09 -4.795124e+09 -4.955127e+09 -4.401406e+02 -5.788701e+02 1.299425e+01
-4.137238e+09 -3.937241e+09 -4.097243e+09 -3.163212e+02 -1.281037e+03 3.559688e+01
-4.999211e+09 -4.799214e+09 -4.959214e+09 2.665795e+02 -3.519161e+02 6.453604e+01
-4.308308e+09 -4.108310e+09 -4.268311e+09 4.906024e+02 -1.195305e+03 3.116354e+02
-4.999909e+09 -4.799912e+09 -4.959913e+09 -6.954470e+01 -4.010852e+02 2.606174e+01
-4.342321e+09 -4.142321e+09 -4.302321e+09 -2.170994e+02 -2.127105e+01 -8.906110e+00
-4.310219e+09 -4.110219e+09 -4.270219e+09 -2.598728e+02 -8.080459e+00 -4.475032e+01
-4.793722e+09 -4.593722e+09 -4.753722e+09 -1.741200e+02 4.483117e+00 1.934858e+00
-4.978841e+09 -4.778842e+09 -4.938842e+09 -2.056391e+02 -9.150497e+00 -1.755008e+01
-4.828492e+09 -4.628495e+09 -4.788496e+09 -2.162562e+02 -3.518476e+02 9.280458e+01
-3.424531e+09 -3.224531e+09 -3.384531e+09 -6.745459e+01 -6.664269e+00 3.867164e+01
-3.607774e+09 -3.407775e+09 -3.567775e+09 6.311025e+01 1.407784e+00 -5.804250e+00
-4.767666e+09 -4.567666e+09 -4.727666e+09 -2.033499e+02 -1.332881e+01 2.345315e+01
-4.810081e+09 -4.610081e+09 -4.770081e+09 -2.222000e+02 6.652796e+00 -2.823745e+01
-2.744929e+09 -2.544930e+09 -2.704930e+09 1.064475e+02 1.671404e+01 1.773577e+01
-2.991787e+09 -2.791788e+09 -2.951788e+09 6.551240e+01 4.942968e+00 1.934503e+00
-4.310887e+09 -4.110888e+09 -4.270888e+09 -3.132136e+02 -6.075297e+00 -3.238886e+01
-3.342250e+09 -3.142250e+09 -3.302250e+09 1.222684e+02 7.928099e+00 -1.461999e+01
-4.608781e+09 -4.408782e+09 -4.568782e+09 -2.099530e+02 -2.280406e+00 1.134648e+01
-3.249376e+09 -3.049377e+09 -3.209377e+09 1.253923e+02 9.064976e+00 -1.727635e+01
-3.215643e+09 -3.015644e+09 -3.175644e+09 4.946078e+01 1.170214e+00 -2.152275e+00
-4.968624e+09 -4.768624e+09 -4.928624e+09 -2.368447e+02 1.912924e-01 -1.311830e+01
-4.981548e+09 -4.781549e+09 -4.941548e+09 9.110149e+01 -2.732216e-01 1.680866e+01
-4.986611e+09 -4.786610e+09 -4.946612e+09 -5.158675e+02 1.349804e+02 -1.109500e+02
-4.798881e+09 -4.598882e+09 -4.758882e+09 1.056938e+02 6.768203e+00 -1.288960e-01
-4.129158e+09 -3.929154e+09 -4.089157e+09 -2.352254e+03 -4.048876e+02 -4.218737e+02
-4.991607e+09 -4.791607e+09 -4.951607e+09 3.247359e+02 -2.025947e+01 -4.287415e+01
-1.584759e+09 -1.384759e+09 -1.544759e+09 2.080072e+02 4.155220e+02 -1.053750e+02
-3.420245e+09 -3.220244e+09 -3.380245e+09 7.142485e+01 1.991645e+02 -2.827341e+01
-4.983205e+09 -4.783204e+09 -4.943206e+09 -7.777027e+01 3.186447e+00 -3.894147e+01
-4.476663e+09 -4.276661e+09 -4.436663e+09 -3.155787e+02 1.128494e+02 -2.084781e+02
-4.464420e+09 -4.264418e+09 -4.424420e+09 -6.522755e+02 8.365694e+01 -9.113135e+01
-4.986611e+09 -4.786609e+09 -4.946611e+09 -4.997050e+02 2.495718e+01 -5.726168e+01
-4.301903e+09 -4.101903e+09 -4.261903e+09 3.304510e+02 -2.290459e+01 -7.674209e+01
-3.960978e+09 -3.760978e+09 -3.920978e+09 3.924795e+02 3.340040e+01 1.653842e+01
-4.990677e+09 -4.790676e+09 -4.950677e+09 2.486515e+02 -2.395586e+01 -4.327016e+01
-4.468969e+09 -4.268968e+09 -4.428968e+09 1.750132e+02 4.769500e-01 -3.131193e+00
-4.223567e+09 -4.023566e+09 -4.183567e+09 2.773930e+01 -3.819256e-01 4.601137e+00
-3.974441e+09 -3.774445e+09 -3.934442e+09 -1.698107e+01 1.672691e+02 -2.521587e+01
-4.823116e+09 -4.623116e+09 -4.783116e+09 2.774745e+02 4.466223e-01 -4.489600e+00
-4.996415e+09 -4.796415e+09 -4.956415e+09 1.999017e+02 -1.180103e+01 -3.269268e+01
-4.141104e+09 -3.941104e+09 -4.101104e+09 2.759735e+02 2.573194e-01 -1.857980e+01
-3.967350e+09 -3.767354e+09 -3.927352e+09 2.385729e+02 6.217952e+02 -6.913377e+01
-3.960978e+09 -3.760978e+09 -3.920978e+09 2.581018e+02 3.428746e+01 -4.459285e+00
-4.052990e+09 -3.852989e+09 -4.012989e+09 -2.028987e+01 2.828600e+00 -6.792469e-01
-4.830793e+09 -4.630792e+09 -4.790784e+09 -3.166460e+03 -1.051082e+03 -3.087713e+02
-4.981728e+09 -4.781724e+09 -4.941737e+09 7.637675e+02 1.444490e+03 -4.868758e+02
-4.809617e+09 -4.609622e+09 -4.769616e+09 -1.237413e+03 -1.810236e+02 1.164814e+03
-4.472655e+09 -4.272655e+09 -4.432657e+09 5.864571e+02 -3.450141e+02 3.075469e+02
-3.980838e+09 -3.780839e+09 -3.940838e+09 -1.464323e+01 -1.345571e+02 1.052166e+01
-4.137653e+09 -3.937652e+09 -4.097653e+09 -1.626262e+02 5.448740e+01 1.401987e+01
-3.176074e+09 -2.976073e+09 -3.136074e+09 9.344097e+01 1.836962e+02 -1.855338e+01
-2.588328e+09 -2.388327e+09 -2.548327e+09 1.567270e+02 1.807371e+02 -3.568191e+01
-3.772810e+09 -3.572808e+09 -3.732809e+09 2.828730e+02 2.447133e+02 -1.261543e+02
-4.512457e+09 -4.312456e+09 -4.472456e+09 1.606967e+02 7.960802e+01 -6.395535e+00
-3.564365e+09 -3.364364e+09 -3.524364e+09 8.551478e+01 1.732728e+02 -2.768528e+01
-5.011387e+09 -4.811387e+09 -4.971387e+09 -3.489408e+02 1.364000e+01 -6.203521e+01
-4.996976e+09 -4.796976e+09 -4.956976e+09 -2.263955e+02 8.501491e-01 -3.383526e+01
-4.596523e+09 -4.396521e+09 -4.556522e+09 3.814939e+02 1.090273e+02 -2.761841e+01
-4.766781e+09 -4.566779e+09 -4.726780e+09 5.834960e+02 8.374833e+00 6.087251e+01
-1.678185e+09 -1.478185e+09 -1.638184e+09 1.014693e+03 3.787412e+02 -1.209661e+02
-5.003355e+09 -4.803354e+09 -4.963354e+09 -2.093893e+02 1.433449e-01 5.828099e+00
-5.008205e+09 -4.808205e+09 -4.968205e+09 -2.480855e+02 1.311228e+01 -3.949992e+01
-4.494109e+09 -4.294108e+09 -4.454108e+09 -2.382140e+02 -1.204490e+01 -1.701974e+01
-4.996368e+09 -4.796368e+09 -4.956368e+09 -4.109669e+02 8.848394e+00 -5.198495e+01
-4.328012e+09 -4.128011e+09 -4.288012e+09 -3.835184e+02 -1.292059e+00 9.103047e-01
-2.183037e+09 -1.983036e+09 -2.143037e+09 6.299342e+01 1.843854e+02 -2.174411e+01
-4.159085e+09 -3.959083e+09 -4.119085e+09 3.864092e+02 1.482241e+02 -1.099266e+02
-4.639565e+09 -4.439569e+09 -4.599568e+09 -9.663700e+02 3.743985e+02 8.137133e+01
-4.816542e+09 -4.616545e+09 -4.776546e+09 -8.490885e+02 5.261475e+02 6.618971e+01
-2.635955e+09 -2.435953e+09 -2.595954e+09 4.966097e+01 2.587669e+02 3.739061e+01
-4.988083e+09 -4.788086e+09 -4.948085e+09 -8.918920e+02 8.878701e+01 1.463826e+01
-4.814911e+09 -4.614915e+09 -4.774913e+09 -5.059180e+02 4.525381e+01 -2.170370e+01
-3.995405e+09 -3.795409e+09 -3.955411e+09 3.613993e+02 2.154678e+03 -1.217799e+02
-4.806836e+09 -4.606835e+09 -4.766836e+09 2.729395e+02 -8.388611e+00 8.129749e+00
-4.814960e+09 -4.614964e+09 -4.774963e+09 -3.682080e+02 3.624989e+02 4.479578e+01
-4.989966e+09 -4.789967e+09 -4.949967e+09 3.535029e+02 -1.620523e+01 -3.142814e+01
-4.539947e+09 -4.339946e+09 -4.499947e+09 -1.506463e+02 9.824419e+01 -4.258442e+00
-4.818627e+09 -4.618628e+09 -4.778628e+09 2.168657e+02 -1.582891e+01 -4.925002e+01
-3.782635e+09 -3.582633e+09 -3.742634e+09 3.644583e+02 2.165292e+02 -7.824307e+01
-4.997384e+09 -4.797385e+09 -4.957385e+09 5.362547e+02 -1.502833e+01 -6.038757e+01
-4.494147e+09 -4.294148e+09 -4.454147e+09 3.372724e+02 9.620520e+00 -4.657805e+01
-3.960268e+09 -3.760268e+09 -3.920268e+09 3.577956e+02 3.099455e+01 -1.277299e+01
-4.981548e+09 -4.781549e+09 -4.941548e+09 1.582366e+02 -3.847656e+00 -6.182432e-01
-2.153283e+09 -1.953281e+09 -2.113282e+09 4.561999e+02 1.584339e+02 -1.154595e+02
-4.164314e+09 -3.964315e+09 -4.124315e+09 1.366905e+02 3.412076e+00 -1.767802e+00
-4.810339e+09 -4.610340e+09 -4.770340e+09 -4.766543e+02 1.186594e+01 -7.843985e+01
-4.981651e+09 -4.781652e+09 -4.941651e+09 -1.897937e+02 -2.567152e+00 -1.248381e+01
-1.978266e+09 -1.778265e+09 -1.938266e+09 -4.290139e+01 2.419561e+02 -2.812620e+01
-2.947405e+09 -2.747404e+09 -2.907404e+09 -5.961727e+01 2.165403e+02 -3.437107e+01
-4.531016e+09 -4.331017e+09 -4.491016e+09 -1.774356e+02 1.191939e+01 -2.876277e+01
-4.517564e+09 -4.317565e+09 -4.477564e+09 -1.908427e+02 9.766328e+00 -2.668549e+01
-4.820945e+09 -4.620944e+09 -4.780944e+09 -2.414318e+02 -2.336149e+01 -3.212846e+01
-4.798461e+09 -4.598461e+09 -4.758461e+09 -5.472745e+02 3.911595e+00 -1.039536e+01
-3.964348e+09 -3.764347e+09 -3.924347e+09 -1.831610e+02 1.115173e+01 -5.374912e+01
-4.292267e+09 -4.092266e+09 -4.252266e+09 -2.128602e+02 2.670418e+01 1.427152e+01
-4.976251e+09 -4.776250e+09 -4.936251e+09 3.566527e+02 -5.063328e+01 -8.502683e+01
-4.810352e+09 -4.610349e+09 -4.770323e+09 -3.727215e+02 1.561173e+02 1.384163e+03
-3.500732e+09 -3.300733e+09 -3.460732e+09 -1.396233e+02 -7.631255e+01 -3.591332e+01
-3.971703e+09 -3.771700e+09 -3.931683e+09 -3.215800e+03 -3.169043e+03 4.342064e+03
-4.612250e+09 -4.412251e+09 -4.572235e+09 1.240645e+03 1.781425e+03 2.015808e+03
-4.480453e+09 -4.280452e+09 -4.440448e+09 -2.340817e+03 -9.101299e+02 1.058065e+03
-4.144327e+09 -3.944326e+09 -4.104317e+09 -3.201975e+03 -1.659898e+03 2.929309e+03
-4.625003e+09 -4.425005e+09 -4.584987e+09 -1.770261e+02 6.407779e+01 2.903614e+03
-2.231173e+09 -2.031174e+09 -2.191173e+09 -9.280848e+01 -1.444085e+01 -3.658410e+01
-4.463824e+09 -4.263818e+09 -4.423828e+09 -1.255398e+02 -1.800790e+03 -3.919716e+02
-4.123885e+09 -3.923884e+09 -4.083854e+09 -1.254976e+03 -2.836327e+03 4.098022e+03
-4.529903e+09 -4.329900e+09 -4.489882e+09 -4.764280e+02 -1.161496e+02 -2.786684e+03
-1.882518e+09 -1.682519e+09 -1.842518e+09 -1.255527e+02 2.378550e+01 -7.504490e+01
-4.124668e+09 -3.924666e+09 -4.084668e+09 -2.046290e+03 5.108143e+02 8.264308e+01
-4.974012e+09 -4.774011e+09 -4.934011e+09 -1.525146e+03 -9.561388e+01 9.946902e+01
-3.950544e+09 -3.750542e+09 -3.910545e+09 -1.049914e+03 -8.462818e+01 5.540589e+02
-4.461624e+09 -4.261622e+09 -4.421626e+09 -1.015795e+03 -2.572246e+02 6.090441e+02
-4.820743e+09 -4.620740e+09 -4.780747e+09 -1.261554e+03 9.296158e+02 5.075982e+02
-4.134277e+09 -3.934270e+09 -4.094279e+09 -5.694083e+02 -1.755415e+02 2.419080e+03
-2.672938e+09 -2.472939e+09 -2.632938e+09 -2.901461e+02 7.059332e+00 -7.042559e+01
-3.471047e+09 -3.271048e+09 -3.431047e+09 -1.465336e+02 -8.729157e+01 -4.156948e+01
-3.960256e+09 -3.760251e+09 -3.920254e+09 1.427400e+02 2.221486e+02 9.732826e+02
-4.134276e+09 -3.934275e+09 -4.094275e+09 9.913001e+02 -2.237118e+02 -1.745481e+02
-4.281513e+09 -4.081511e+09 -4.241512e+09 -3.415286e+02 3.725631e+01 1.123097e+02
-3.977495e+09 -3.777492e+09 -3.937495e+09 -4.745244e+02 6.230542e+01 3.210017e+02
-4.134276e+09 -3.934275e+09 -4.094275e+09 1.073558e+03 -1.943149e+02 -3.474716e+02
-3.511683e+09 -3.311685e+09 -3.471683e+09 -1.575914e+02 1.030377e+02 -2.830975e+01
-4.684356e+09 -4.484355e+09 -4.644356e+09 5.086882e+02 -4.478633e+00 -1.959479e+01
-4.973851e+09 -4.773849e+09 -4.933850e+09 -2.289241e+01 -3.009994e+00 2.605297e+01
-4.607254e+09 -4.407252e+09 -4.567253e+09 -3.785572e+01 3.027021e+01 -1.379304e+01
-2.653998e+09 -2.453999e+09 -2.613998e+09 -8.764681e+01 8.645190e+01 -5.332884e+01
-4.978530e+09 -4.778529e+09 -4.938529e+09 -5.388358e+01 -7.859100e+00 6.539551e+00
-2.954426e+09 -2.754426e+09 -2.914425e+09 -4.459362e+02 6.983950e+01 -1.822465e+01
-4.477509e+09 -4.277508e+09 -4.437508e+09 1.022257e+03 -1.942312e+02 -3.818396e+02
-4.477511e+09 -4.277508e+09 -4.437509e+09 4.022377e+02 2.962954e+02 2.227396e+02
-4.303488e+09 -4.103485e+09 -4.263486e+09 7.239282e+02 -4.464216e+02 -1.491063e+02
-4.477510e+09 -4.277508e+09 -4.437508e+09 8.523734e+02 -4.850548e+01 1.107363e+02
-3.840127e+09 -3.640129e+09 -3.800127e+09 -1.750764e+02 2.278970e+01 -3.334281e+01
-4.985772e+09 -4.785772e+09 -4.945771e+09 8.001300e+02 -4.805691e+01 -3.820793e+02
-4.825511e+09 -4.625513e+09 -4.785517e+09 1.013654e+03 1.356892e+03 -1.345998e+02
-1.677931e+09 -1.477930e+09 -1.637931e+09 -1.517079e+02 -4.131321e+02 -6.099287e+02
-2.578108e+09 -2.378109e+09 -2.538108e+09 -4.721636e+02 -1.187708e+02 -5.181661e+01
-2.127384e+09 -1.927386e+09 -2.087386e+09 1.956195e+00 -1.195619e+02 1.386750e+01
-2.626823e+09 -2.426824e+09 -2.586823e+09 -2.874733e+02 5.459770e+01 -3.130891e+01
-4.479912e+09 -4.279912e+09 -4.439912e+09 -4.445862e+02 2.200975e+00 -8.027132e+00
-4.657199e+09 -4.457199e+09 -4.617199e+09 -4.856573e+02 -1.293847e+00 -3.667101e+01
-2.766977e+09 -2.566976e+09 -2.726977e+09 -1.114148e+02 -2.204879e+02 -4.381270e+01
-4.329071e+09 -4.129071e+09 -4.289071e+09 8.607801e+01 1.259266e+01 -1.362547e+01
-4.167925e+09 -3.967924e+09 -4.127924e+09 6.292520e+01 4.333087e+00 -2.120490e+01
-4.298213e+09 -4.098213e+09 -4.258213e+09 9.713204e+01 -4.751731e+00 -5.400302e+00
-1.648970e+09 -1.448973e+09 -1.608973e+09 1.216241e+01 -2.468191e+01 1.211920e+02
-4.982717e+09 -4.782716e+09 -4.942716e+09 7.386231e+01 -3.096339e+00 -2.091244e+01
-3.615834e+09 -3.415836e+09 -3.575836e+09 4.367800e+02 -4.719328e+01 -5.894589e+01
-2.937339e+09 -2.737344e+09 -2.897342e+09 1.475581e+02 1.589474e+02 5.017305e+02
-3.961257e+09 -3.761256e+09 -3.921256e+09 -3.402656e+01 -5.049237e+01 -2.812982e+00
-1.634142e+09 -1.434141e+09 -1.594141e+09 5.289128e-09 -1.470780e+01 2.310963e+01
-4.624827e+09 -4.424826e+09 -4.584826e+09 2.670711e+01 3.225708e+00 -7.659079e+00
-4.329071e+09 -4.129070e+09 -4.289071e+09 5.699297e+01 6.172534e+00 -1.006571e+01
-5.013090e+09 -4.813089e+09 -4.973089e+09 1.011549e+02 2.333309e+00 1.291776e+00
-2.883374e+09 -2.683372e+09 -2.843372e+09 -5.212770e+01 -1.829015e+02 -2.387334e+01
-4.754665e+09 -4.554664e+09 -4.714664e+09 -1.092933e+02 -5.002941e+01 -3.680284e+01
-2.096168e+09 -1.896167e+09 -2.056167e+09 -6.167390e+02 -4.059529e+02 -1.023844e+02
-2.731425e+09 -2.531424e+09 -2.691424e+09 -8.099686e+01 -1.459128e+02 -2.051652e+01
-4.659596e+09 -4.459596e+09 -4.619596e+09 6.416002e+01 -3.043629e+00 5.710761e-01
-4.827602e+09 -4.627602e+09 -4.787602e+09 4.625786e+01 2.975479e+00 -2.141942e+00
-3.053578e+09 -2.853581e+09 -3.013579e+09 3.681189e+02 -3.156616e+02 1.405676e+02
-1.902878e+09 -1.702877e+09 -1.862877e+09 -3.017534e+01 -1.078173e+02 -1.571908e+01
-2.912348e+09 -2.712348e+09 -2.872347e+09 -3.854864e+02 -1.956155e+02 -7.884718e+01
-3.090478e+09 -2.890481e+09 -3.050479e+09 2.245134e+02 -1.579015e+02 -2.868897e+01
-3.903434e+09 -3.703432e+09 -3.863433e+09 -1.958287e+02 -2.942289e+02 -2.197476e+02
-3.883104e+09 -3.683103e+09 -3.843103e+09 -7.922705e+01 -1.337594e+02 -4.685468e+00
-4.311091e+09 -4.111093e+09 -4.271094e+09 -1.412333e+03 7.790580e+02 3.363120e+02
-2.016247e+09 -1.816246e+09 -1.976246e+09 -7.413184e+01 -1.343605e+02 6.370156e+00
-2.565909e+09 -2.365908e+09 -2.525908e+09 -2.864340e+02 -4.005308e+02 -1.047494e+02
-4.986377e+09 -4.786379e+09 -4.946377e+09 2.117585e+02 -1.189830e+01 4.266500e+01
-4.635165e+09 -4.435167e+09 -4.595166e+09 5.420821e+02 -9.324046e+01 5.337798e+01
-4.802904e+09 -4.602907e+09 -4.762905e+09 2.821982e+02 2.184366e+01 1.560407e+01
-3.953229e+09 -3.753231e+09 -3.913229e+09 2.964351e+02 -2.497792e+02 4.451517e+01
-4.231435e+09 -4.031436e+09 -4.191435e+09 5.332884e+02 -1.534209e+02 4.766817e+01
-4.607553e+09 -4.407554e+09 -4.567553e+09 5.249470e+02 -5.853731e+01 4.866244e+01
-4.291420e+09 -4.091423e+09 -4.251421e+09 -1.036111e+03 3.494555e+02 7.958687e+01
-4.313046e+09 -4.113050e+09 -4.273048e+09 -4.716652e+02 3.082081e+02 6.360245e+01
-4.988083e+09 -4.788087e+09 -4.948085e+09 -5.209209e+02 -5.294783e+00 8.136389e+00
-3.975644e+09 -3.775647e+09 -3.935645e+09 -5.631933e+02 3.542625e+02 4.701474e+01
-4.142986e+09 -3.942989e+09 -4.102987e+09 -5.859288e+02 2.854206e+02 2.529532e+01
-4.815408e+09 -4.615411e+09 -4.775410e+09 -9.393053e+02 2.447181e+02 4.588646e+01
-1.912197e+09 -1.712196e+09 -1.872196e+09 4.898844e+00 6.322557e+00 -2.529498e+01
-4.991299e+09 -4.791302e+09 -4.951301e+09 -9.605850e+02 8.998453e+01 2.746224e+01
-4.687012e+09 -4.487011e+09 -4.647011e+09 -1.681457e+01 -1.874811e+01 -5.869754e+00
-3.388048e+09 -3.188048e+09 -3.348048e+09 1.542465e+01 2.306226e+00 -2.107165e+01
-4.128942e+09 -3.928945e+09 -4.088944e+09 -1.077372e+03 4.819200e+02 1.143096e+02
-4.823876e+09 -4.623880e+09 -4.783879e+09 1.343640e+02 -3.979412e+00 -1.238200e+01
-4.128494e+09 -3.928498e+09 -4.088497e+09 -4.636540e+02 5.497446e+02 4.333265e+01
-4.825914e+09 -4.625916e+09 -4.785916e+09 -1.357209e+03 1.915882e+02 5.672442e+01
-1.907200e+09 -1.707199e+09 -1.867199e+09 3.928804e+00 3.598071e+00 -4.184631e+00
-3.841312e+09 -3.641312e+09 -3.801312e+09 1.680371e+01 2.510463e+00 7.424738e+00
-4.686064e+09 -4.486064e+09 -4.646064e+09 1.323836e+01 -7.932215e-01 -1.836112e+00
-4.436008e+09 -4.236010e+09 -4.396008e+09 -1.153889e+01 8.524594e+00 -2.783455e+01
-4.881761e+09 -4.681760e+09 -4.841760e+09 7.854095e-01 -1.288861e+00 1.826480e+00
-2.215136e+09 -2.015136e+09 -2.175136e+09 1.242256e+00 -1.986423e+00 -1.163603e+01
-3.318436e+09 -3.118436e+09 -3.278436e+09 2.425448e+00 6.804655e-01 -1.711497e+00
-1.588598e+09 -1.388598e+09 -1.548598e+09 3.470456e+01 8.225967e+00 -1.498780e+01
-4.968279e+09 -4.768278e+09 -4.928279e+09 1.149313e+01 4.600764e-01 -1.933036e-01
-3.433810e+09 -3.233810e+09 -3.393810e+09 1.061041e+01 1.785594e-02 -1.128010e+01
-1.681982e+09 -1.481982e+09 -1.641982e+09 -9.257757e+00 1.279385e+00 -2.417081e+01
-1.657211e+09 -1.457211e+09 -1.617211e+09 8.140617e+00 3.840022e+00 -5.674272e+00
-2.146974e+09 -1.946973e+09 -2.106973e+09 1.070103e+01 3.665541e+00 -9.645714e+00
-2.687810e+09 -2.487809e+09 -2.647809e+09 8.402065e+00 1.684377e+00 -5.203741e+00
-4.007159e+09 -3.807158e+09 -3.967158e+09 1.336851e+01 1.251060e+00 -8.469603e-01
-3.666519e+09 -3.466519e+09 -3.626519e+09 8.793775e+00 7.281555e+00 6.348487e+00
-4.815571e+09 -4.615574e+09 -4.775574e+09 -2.683000e+02 1.260318e+02 1.725184e+00
-2.023370e+09 -1.823371e+09 -1.983371e+09 -2.582900e+01 -8.440338e+00 6.088328e+00
-3.730042e+09 -3.530041e+09 -3.690041e+09 2.181558e+00 1.435264e+00 -2.845361e+00
-4.990802e+09 -4.790806e+09 -4.950805e+09 2.337263e+01 5.395401e+01 4.106742e+01
-2.251824e+09 -2.051825e+09 -2.211824e+09 7.440148e+01 3.997358e+00 1.911854e+00
-3.356334e+09 -3.156335e+09 -3.316335e+09 2.393410e+01 -1.197716e+00 -5.490527e+00
-4.295837e+09 -4.095840e+09 -4.255839e+09 -5.390322e+02 5.228883e+02 7.894915e+01
-1.931248e+09 -1.731248e+09 -1.891248e+09 -4.630408e+00 -3.840544e+00 -4.078888e+00
-4.634653e+09 -4.434655e+09 -4.594654e+09 -1.033668e+03 2.486288e+02 2.460719e+01
-2.200045e+09 -2.000044e+09 -2.160045e+09 -2.520672e+00 -7.960938e-01 -4.460951e+00
-3.972633e+09 -3.772637e+09 -3.932635e+09 4.413662e+02 2.961223e+02 -5.070634e+01
-4.677893e+09 -4.477897e+09 -4.637894e+09 -1.175520e+02 1.093659e+02 -2.543747e+01
-4.664556e+09 -4.464560e+09 -4.624558e+09 -1.122442e+02 1.900424e+02 -3.062371e+01
-4.152633e+09 -3.952637e+09 -4.112634e+09 1.669142e+02 8.556287e+01 -2.705660e+01
-1.614911e+09 -1.414910e+09 -1.574910e+09 2.892073e-10 -4.068182e+00 3.758451e-01
-3.977014e+09 -3.777018e+09 -3.937015e+09 1.341830e+02 1.929800e+02 -5.381275e+01
-4.839098e+09 -4.639102e+09 -4.799100e+09 1.979867e+02 1.681967e+02 1.561350e+00
-4.834718e+09 -4.634721e+09 -4.794719e+09 3.384571e+02 -4.949462e+01 -5.560608e+00
-3.964305e+09 -3.764305e+09 -3.924305e+09 -3.450392e+02 -1.686998e+01 2.447692e+01
-4.654120e+09 -4.454120e+09 -4.614120e+09 -3.137848e+02 -1.397133e+01 1.527032e+01
-3.913273e+09 -3.713272e+09 -3.873272e+09 -5.179812e+01 -2.964073e+00 -4.869499e+00
-1.614911e+09 -1.414910e+09 -1.574910e+09 -5.325596e+00 -2.107548e+00 -4.210881e+00
-2.830430e+09 -2.630429e+09 -2.790429e+09 -6.351328e+01 -7.144589e+00 -1.306962e+01
-4.989265e+09 -4.789265e+09 -4.949265e+09 -2.600664e+02 -2.651980e+00 -2.857885e+01
-4.292139e+09 -4.092139e+09 -4.252139e+09 -2.658164e+02 -2.574152e+00 6.747207e+00
-1.594826e+09 -1.394829e+09 -1.554826e+09 6.756105e+02 -4.727106e+02 1.516178e+02
-4.827004e+09 -4.627004e+09 -4.787004e+09 -2.940431e+02 -2.358568e+01 9.055274e+00
-3.985269e+09 -3.785272e+09 -3.945270e+09 1.542382e+01 -1.091907e+02 3.339367e+01
-4.969522e+09 -4.769523e+09 -4.929522e+09 2.274205e+02 -4.226645e+01 4.018112e+01
-1.674675e+09 -1.474676e+09 -1.634674e+09 5.488833e+02 -3.086489e+02 8.365725e+01
-4.793045e+09 -4.593045e+09 -4.753045e+09 -2.443123e+02 7.629800e+00 -1.440164e+01
-4.828830e+09 -4.628830e+09 -4.788830e+09 -3.432284e+02 9.983658e+00 -1.378001e+01
-3.969627e+09 -3.769627e+09 -3.929627e+09 3.227351e+02 -1.372011e+02 8.956171e+01
-4.489880e+09 -4.289881e+09 -4.449881e+09 6.471442e+02 -3.955940e+02 1.785757e+02
-3.973639e+09 -3.773640e+09 -3.933640e+09 7.047380e+02 -6.135762e+02 2.346404e+02
-4.999211e+09 -4.799214e+09 -4.959214e+09 4.832450e+02 -2.811472e+02 3.918980e+01
-4.993750e+09 -4.793752e+09 -4.953753e+09 5.156151e+02 -2.260821e+02 7.697473e+01
-3.964052e+09 -3.764054e+09 -3.924054e+09 6.999993e+02 -7.245384e+02 2.526829e+02
-4.150887e+09 -3.950886e+09 -4.110886e+09 4.308641e+01 -1.899211e+02 6.583733e+01
-1.669285e+09 -1.469285e+09 -1.629285e+09 4.877934e+01 2.401366e+01 2.275140e-01
-3.982121e+09 -3.782121e+09 -3.942121e+09 3.423360e+00 6.531836e+00 7.002811e+00
-1.583793e+09 -1.383792e+09 -1.543793e+09 5.131716e+01 2.568210e+01 1.948324e+00
-3.964052e+09 -3.764054e+09 -3.924055e+09 8.656718e+02 -7.582305e+02 4.030834e+02
-4.984536e+09 -4.784536e+09 -4.944538e+09 5.707435e+02 -2.236016e+02 1.521147e+02
-4.132233e+09 -3.932234e+09 -4.092237e+09 6.792631e+02 -1.441497e+03 8.525973e+02
-4.986690e+09 -4.786691e+09 -4.946694e+09 4.275861e+02 -3.524497e+02 8.341041e+01
-2.165502e+09 -1.965501e+09 -2.125501e+09 1.690528e+02 2.478225e+02 -3.347765e+01
-4.135461e+09 -3.935464e+09 -4.095465e+09 6.828317e+02 -1.166679e+03 4.126436e+02
-4.512146e+09 -4.312150e+09 -4.472150e+09 9.741748e+02 8.203084e+02 -3.906150e+00
-2.696181e+09 -2.496180e+09 -2.656181e+09 1.035662e+03 4.658512e+02 -2.677156e+02
-4.135223e+09 -3.935227e+09 -4.095226e+09 5.927163e+02 1.177573e+03 -3.920985e+01
-4.129105e+09 -3.929109e+09 -4.089109e+09 -3.129176e+02 1.095463e+03 1.077596e+02
-2.973278e+09 -2.773277e+09 -2.933277e+09 5.128739e+02 6.724069e+01 1.794168e+01
-1.682064e+09 -1.482063e+09 -1.642063e+09 1.613904e+02 2.566527e+02 -1.431714e+01
-1.577892e+09 -1.377891e+09 -1.537891e+09 5.972734e+02 3.013938e+02 -9.138252e+01
-1.862419e+09 -1.662418e+09 -1.822418e+09 6.082201e+02 3.170031e+02 -9.709878e+01
-4.121086e+09 -3.921090e+09 -4.081090e+09 -8.847179e+01 9.160098e+02 3.533117e+01
-4.821688e+09 -4.621692e+09 -4.781692e+09 6.453506e+02 1.285903e+02 -7.438545e+01
-2.253212e+09 -2.053211e+09 -2.213211e+09 1.036949e+03 5.204650e+02 -2.224963e+02
-4.428523e+09 -4.228522e+09 -4.388523e+09 1.994491e+02 7.702915e+01 -1.591491e+01
-4.991413e+09 -4.791417e+09 -4.951416e+09 4.334233e+02 3.258090e+02 3.546234e+01
-2.167360e+09 -1.967359e+09 -2.127360e+09 -9.130204e+01 -3.470349e+02 -7.488582e+01
-4.988132e+09 -4.788136e+09 -4.948135e+09 -3.585847e+02 1.337685e+02 5.369714e+01
-2.932844e+09 -2.732846e+09 -2.892846e+09 8.914920e+02 -9.925295e+00 -5.878118e+01
-3.422771e+09 -3.222770e+09 -3.382772e+09 -3.990031e+00 -2.497505e+02 -3.987574e+01
-1.649037e+09 -1.449037e+09 -1.609038e+09 -7.941789e+01 -2.695859e+02 -3.164757e+01
-4.134092e+09 -3.934094e+09 -4.094094e+09 -1.348058e+03 4.378056e+02 1.942572e+02
-3.893566e+09 -3.693566e+09 -3.853566e+09 -2.353377e+02 -1.360488e+01 1.963338e+01
-1.826878e+09 -1.626881e+09 -1.786881e+09 8.067681e+01 8.368629e+00 1.242144e+02
-4.436117e+09 -4.236117e+09 -4.396117e+09 -1.232657e+01 -1.201419e+01 4.510987e-01
-4.608026e+09 -4.408027e+09 -4.568027e+09 -1.213128e+02 2.725426e+00 -3.961238e+01
-4.978841e+09 -4.778842e+09 -4.938842e+09 -1.669851e+02 1.377842e+00 4.913019e+00
-4.603037e+09 -4.403037e+09 -4.563037e+09 -1.829974e+02 -6.167635e+00 9.897462e+00
-3.833566e+09 -3.633566e+09 -3.793566e+09 -5.357896e+01 -1.528150e+00 -7.442694e+00
-4.212274e+09 -4.012278e+09 -4.172277e+09 3.146767e+02 2.580482e+00 2.721524e+02
-1.853532e+09 -1.653533e+09 -1.813534e+09 2.818972e+02 -1.869439e+02 -1.947030e+02
-3.969444e+09 -3.769444e+09 -3.929444e+09 -1.296308e+01 -9.516401e+00 -1.656797e+01
-1.948118e+09 -1.748119e+09 -1.908118e+09 -1.719558e+02 -1.641713e+02 -9.840843e+01
-1.584344e+09 -1.384345e+09 -1.544343e+09 -7.285072e+02 -3.312988e+02 -8.845020e+01
-4.709974e+09 -4.509974e+09 -4.669974e+09 -5.882863e+01 -9.866276e-01 -2.529172e+01
-4.978467e+09 -4.778468e+09 -4.938468e+09 -6.126906e+02 -2.002278e+02 -1.814158e+01
-4.990733e+09 -4.790735e+09 -4.950734e+09 -5.305575e+02 6.391232e+01 3.681825e+01
-1.568971e+09 -1.368974e+09 -1.528971e+09 1.065271e+02 2.926391e+01 -3.631255e+00
-2.655066e+09 -2.455068e+09 -2.615066e+09 7.001363e+01 5.479271e+01 8.660852e+00
-2.191455e+09 -1.991454e+09 -2.151456e+09 -7.876290e+02 2.375687e+02 -3.415758e+02
-1.537693e+09 -1.337692e+09 -1.497693e+09 -5.247567e+02 1.205290e+02 1.477514e+02
-2.387205e+09 -2.187207e+09 -2.347206e+09 -2.937556e+02 4.109007e+01 -4.139348e+01
-2.140794e+09 -1.940796e+09 -2.100794e+09 -4.856406e+02 5.654864e+01 -1.262373e+01
-2.451427e+09 -2.251429e+09 -2.411428e+09 -3.492135e+02 6.536560e+01 -5.067652e+01
-2.255320e+09 -2.055323e+09 -2.215320e+09 -6.174141e+01 -8.748663e+00 -1.964419e+01
-2.600173e+09 -2.400176e+09 -2.560173e+09 4.129427e+01 9.046893e+00 3.098109e+01
-3.426753e+09 -3.226755e+09 -3.386753e+09 1.034180e+02 -3.623221e+01 -4.776091e-01
-4.419140e+09 -4.219139e+09 -4.379140e+09 -1.409568e+02 -5.296648e+00 -1.295252e+01
-1.986326e+09 -1.786325e+09 -1.946325e+09 -1.461053e+02 -2.033871e+01 5.150904e+00
-4.709348e+09 -4.509347e+09 -4.669348e+09 -5.111558e+01 7.488271e+01 7.947756e+01
-4.945615e+09 -4.745614e+09 -4.905615e+09 -1.723249e+02 7.633931e+01 -1.020027e+02
-4.987518e+09 -4.787517e+09 -4.947518e+09 -6.151076e+02 9.095050e+01 -1.529451e+02
-2.072955e+09 -1.872954e+09 -2.032954e+09 -1.226452e+02 -1.426307e+01 -1.958530e+01
-2.919610e+09 -2.719609e+09 -2.879609e+09 -1.872346e+01 -6.837186e-01 -1.311214e+01
-3.599660e+09 -3.399659e+09 -3.559660e+09 -1.430461e+02 -1.243613e+01 -1.837280e+01
-2.600229e+09 -2.400228e+09 -2.560228e+09 1.269215e+02 1.190113e+02 -1.133235e+01
-4.972772e+09 -4.772775e+09 -4.932773e+09 -3.427385e+02 3.985585e+01 -4.076277e+00
-2.576042e+09 -2.376044e+09 -2.536042e+09 -2.658237e+02 -2.547442e+01 -6.238971e+01
-4.803166e+09 -4.603166e+09 -4.763166e+09 1.508854e+02 -7.152505e+01 -1.002521e+01
-2.290156e+09 -2.090155e+09 -2.250155e+09 6.723114e+01 -8.231016e+01 -6.715225e+00
-4.988092e+09 -4.788095e+09 -4.948093e+09 -1.905768e+02 -6.176409e+01 4.517704e-01
-2.890813e+09 -2.690813e+09 -2.850813e+09 6.119953e+01 -1.284064e+02 1.817877e+01
-2.660720e+09 -2.460721e+09 -2.620720e+09 7.234422e+01 1.723489e+01 2.121608e+00
-2.540523e+09 -2.340524e+09 -2.500524e+09 5.998557e+00 1.757594e+01 -1.649424e+00
-2.137292e+09 -1.937293e+09 -2.097293e+09 7.933290e+00 -5.841556e-01 3.404466e+00
-1.560005e+09 -1.360006e+09 -1.520006e+09 5.625441e+00 -1.192039e+00 3.303753e+00
-1.570754e+09 -1.370755e+09 -1.530755e+09 -7.675070e+01 -1.661854e+01 7.297471e+00
-3.281505e+09 -3.081505e+09 -3.241505e+09 -9.947604e-05 1.564583e+00 -1.928765e+00
-4.990370e+09 -4.790371e+09 -4.950370e+09 3.036181e+02 -1.322103e+01 -1.329188e+01
-2.132846e+09 -1.932847e+09 -2.092847e+09 5.032432e+01 7.745623e+00 1.005496e+01
-2.137206e+09 -1.937206e+09 -2.097206e+09 5.582268e+01 9.177235e+00 8.171703e+00
-4.134277e+09 -3.934270e+09 -4.094274e+09 2.493429e+02 -1.729007e+03 2.687554e+03
-2.696759e+09 -2.496758e+09 -2.656759e+09 5.972538e-01 3.640722e+00 -3.804907e+00
-1.838975e+09 -1.638976e+09 -1.798976e+09 1.151643e+02 2.301012e+01 7.713815e+00
-3.658861e+09 -3.458862e+09 -3.618862e+09 2.285571e+01 8.647609e+00 -1.315120e+01
-3.441937e+09 -3.241938e+09 -3.401938e+09 2.170871e+00 1.174322e+01 -1.791065e-01
-4.826116e+09 -4.626117e+09 -4.786116e+09 3.090488e+02 -1.628401e+01 -4.045663e+01
-4.991606e+09 -4.791607e+09 -4.951607e+09 4.418302e+02 -1.860947e+01 -2.583421e+01
-4.131136e+09 -3.931136e+09 -4.091136e+09 4.412553e+02 2.123507e+01 -1.301285e+01
-2.116098e+09 -1.916098e+09 -2.076098e+09 4.363464e+00 2.298654e+00 -1.429893e+00
-4.644428e+09 -4.444428e+09 -4.604428e+09 4.737643e+02 3.029449e+01 3.105859e+01
-4.306139e+09 -4.106139e+09 -4.266139e+09 5.066900e+02 -1.109089e+01 -5.414127e+01
-1.696669e+09 -1.496669e+09 -1.656669e+09 2.049012e+02 3.417106e+01 5.652685e+00
-3.844457e+09 -3.644458e+09 -3.804458e+09 1.228403e+01 5.538052e+00 -9.282688e+00
-2.865995e+09 -2.665996e+09 -2.825996e+09 1.123354e+00 -1.678865e+00 5.350067e-01
-3.040982e+09 -2.840982e+09 -3.000982e+09 1.334591e+02 2.176751e+01 -3.486960e+00
-3.721331e+09 -3.521331e+09 -3.681331e+09 1.029958e+02 9.877020e+00 -1.018276e+01
-4.136911e+09 -3.936911e+09 -4.096911e+09 4.485884e+02 2.330297e+01 2.154053e+00
-4.302070e+09 -4.102071e+09 -4.262071e+09 4.075694e+02 -6.904168e+00 -2.887758e+01
-2.074734e+09 -1.874734e+09 -2.034734e+09 3.939485e+01 1.720870e+01 2.204428e+01
-4.794712e+09 -4.594712e+09 -4.754718e+09 1.704196e+03 7.373386e+02 -6.384233e+02
-4.964165e+09 -4.764165e+09 -4.924165e+09 1.090349e+02 3.668152e+00 -2.578107e+01
-4.371833e+09 -4.171833e+09 -4.331833e+09 4.464929e+01 1.364789e+01 7.748993e+00
-1.588411e+09 -1.388411e+09 -1.548411e+09 5.955816e+01 1.993799e+01 8.355000e+00
-4.817671e+09 -4.617671e+09 -4.777671e+09 3.588013e+02 -1.193568e+01 -3.329794e+01
-4.300834e+09 -4.100835e+09 -4.260834e+09 3.173185e+02 -3.404230e+00 -5.551709e+01
-1.916500e+09 -1.716499e+09 -1.876499e+09 -1.772458e+01 -1.039860e+01 5.296711e+00
-3.962681e+09 -3.762681e+09 -3.922680e+09 1.430430e+01 2.218899e+01 -2.238118e+01
-1.684213e+09 -1.484212e+09 -1.644212e+09 -1.455503e+01 -4.118542e+00 -3.682950e+01
-2.888486e+09 -2.688486e+09 -2.848485e+09 -1.073186e+02 -1.703414e+01 -4.085493e+01
-2.634436e+09 -2.434436e+09 -2.594436e+09 -5.343294e+01 6.304556e+01 -3.528113e+01
-2.813536e+09 -2.613536e+09 -2.773535e+09 -1.163161e+02 -8.455999e+00 -1.876308e+01
-2.601800e+09 -2.401800e+09 -2.561800e+09 -2.609590e+01 -2.237911e+00 -2.493309e+01
-4.803897e+09 -4.603897e+09 -4.763896e+09 -1.010636e+02 2.674509e+01 -1.538269e+01
-3.431699e+09 -3.231699e+09 -3.391698e+09 -1.004254e+02 -6.263298e+01 -4.237699e+01
-1.635445e+09 -1.435444e+09 -1.595444e+09 -2.837881e+01 -5.550337e+00 -2.690749e+01
-2.178902e+09 -1.978901e+09 -2.138901e+09 -2.743000e+01 -2.969607e+00 -2.981178e+01
-4.890118e+09 -4.690117e+09 -4.850117e+09 -4.392253e+01 -9.947157e-05 -5.630788e+00
-3.628524e+09 -3.428524e+09 -3.588523e+09 -8.423757e+01 -1.842788e+01 -3.976912e+01
-3.269577e+09 -3.069578e+09 -3.229577e+09 -3.771949e+02 3.758270e+01 -4.710045e+00
-3.881092e+09 -3.681092e+09 -3.841091e+09 -1.354390e+02 -1.610259e+01 -4.509772e+01
-1.873459e+09 -1.673463e+09 -1.833460e+09 -2.003302e+02 -3.923833e+02 9.306925e+00
-4.011783e+09 -3.811784e+09 -3.971783e+09 -2.233435e+02 9.097004e+00 -4.411760e+01
-3.403785e+09 -3.203788e+09 -3.363788e+09 3.130958e+02 3.108199e+01 -3.227240e+01
-4.890117e+09 -4.690121e+09 -4.850119e+09 -4.859476e+01 -4.972063e-05 -2.000758e+01
-3.975890e+09 -3.775894e+09 -3.935893e+09 -3.006503e+02 1.604758e+01 8.622949e+01
-4.992384e+09 -4.792386e+09 -4.952388e+09 -1.285011e+03 3.571284e+02 1.027960e+02
-3.950829e+09 -3.750830e+09 -3.910830e+09 -5.912310e+02 -5.084920e+02 -1.859824e+02
-3.586890e+09 -3.386893e+09 -3.546892e+09 -3.451022e+02 7.283497e-01 2.111722e+02
-3.681168e+09 -3.481170e+09 -3.641169e+09 -5.345153e+01 -7.795508e+01 -4.973976e+01
-3.321621e+09 -3.121623e+09 -3.281622e+09 -9.741556e+02 -8.546177e+02 -2.630550e+02
-3.994555e+09 -3.794554e+09 -3.954554e+09 -1.253712e+02 -5.659686e+00 -1.610178e+01
-4.197083e+09 -3.997083e+09 -4.157083e+09 3.267729e+02 -1.622342e+02 7.963178e+01
-4.967724e+09 -4.767725e+09 -4.927724e+09 1.653470e+02 -4.821974e+00 6.491927e+00
-1.859233e+09 -1.659234e+09 -1.819233e+09 8.853416e+01 4.334093e+00 -3.527755e+01
-3.634639e+09 -3.434641e+09 -3.594639e+09 2.378017e+01 -6.785336e+01 1.915853e+01
-4.792451e+09 -4.592453e+09 -4.752452e+09 -1.514284e+03 1.488594e+02 -1.444995e+02
-4.165389e+09 -3.965392e+09 -4.125391e+09 -7.700198e+02 6.662613e+01 1.494655e+02
-3.348903e+09 -3.148904e+09 -3.308903e+09 3.647062e+02 -1.641348e-01 3.631544e+01
-4.284792e+09 -4.084791e+09 -4.244791e+09 7.227218e+01 -2.958342e+01 1.906161e+01
-2.206722e+09 -2.006724e+09 -2.166722e+09 5.884705e+02 -2.242291e+02 1.467068e+02
-4.994703e+09 -4.794702e+09 -4.954703e+09 6.406622e+01 -9.338639e+01 7.933580e+01
-4.989966e+09 -4.789967e+09 -4.949967e+09 4.372244e+02 -1.576155e+01 -3.680430e+01
-3.368631e+09 -3.168631e+09 -3.328630e+09 7.972485e+01 -5.315529e+01 -1.729029e+00
-2.251801e+09 -2.051800e+09 -2.211800e+09 2.152463e+01 -9.179805e+01 -2.282372e+01
-2.688036e+09 -2.488038e+09 -2.648036e+09 5.352853e+02 -3.637355e+02 1.125489e+02
-4.981524e+09 -4.781523e+09 -4.941523e+09 -6.710119e+01 -4.157698e+01 3.050973e+01
-4.978752e+09 -4.778752e+09 -4.938751e+09 2.467504e+02 1.404477e+01 -3.096904e+01
-1.575150e+09 -1.375150e+09 -1.535149e+09 3.477919e+02 -2.037838e+02 -3.637700e+00
-4.137707e+09 -3.937706e+09 -4.097707e+09 2.523301e+01 -1.256722e+02 1.209712e+02
-3.512362e+09 -3.312362e+09 -3.472361e+09 6.079349e+02 5.581693e+01 -2.795574e+01
-3.981653e+09 -3.781652e+09 -3.941652e+09 1.305569e+02 1.153791e+01 -4.742453e+01
-3.983392e+09 -3.783391e+09 -3.943391e+09 6.403030e+01 -1.543594e+00 -1.554198e+01
-4.934386e+09 -4.734387e+09 -4.894385e+09 5.125013e+02 1.301412e+01 5.777466e+00
-4.672459e+09 -4.472460e+09 -4.632458e+09 6.855122e+02 -4.419565e+01 -2.350155e+01
-4.582775e+09 -4.382776e+09 -4.542774e+09 2.186430e+02 5.262404e+00 -1.388486e+00
-4.644067e+09 -4.444067e+09 -4.604067e+09 3.176283e+02 1.902913e+01 1.645576e+01
-4.298018e+09 -4.098017e+09 -4.258017e+09 -2.845912e+02 6.977947e+01 2.408622e+01
-4.473578e+09 -4.273579e+09 -4.433579e+09 1.895757e+02 3.995372e+00 -1.839317e+00
-4.991679e+09 -4.791679e+09 -4.951679e+09 2.710822e+02 -6.496777e+00 -2.372776e+01
-4.998312e+09 -4.798311e+09 -4.958311e+09 5.118280e+01 -1.673733e+01 -1.779153e+00
-4.035593e+09 -3.835595e+09 -3.995594e+09 -3.061557e+02 -1.560340e+02 -3.002270e+01
-4.487621e+09 -4.287621e+09 -4.447621e+09 -8.146452e+02 -1.703111e+01 -4.693103e+01
-4.502455e+09 -4.302454e+09 -4.462455e+09 1.456398e+02 4.666642e+00 -1.948955e+01
-3.961103e+09 -3.761103e+09 -3.921103e+09 3.395158e+02 2.983208e+01 -1.886000e+01
-4.136002e+09 -3.936002e+09 -4.096002e+09 1.861887e+02 -5.564463e+00 -4.425448e+01
-3.968293e+09 -3.768293e+09 -3.928293e+09 2.745683e+02 2.491035e+01 -3.294558e+00
-3.987528e+09 -3.787532e+09 -3.947530e+09 1.665476e+01 -6.180990e+02 5.026820e+01
-4.316192e+09 -4.116193e+09 -4.276192e+09 -4.899170e+02 2.716688e+01 -5.832781e+00
-4.198923e+09 -3.998923e+09 -4.158922e+09 -2.451714e+02 3.016954e+01 -1.441870e+01
-3.954583e+09 -3.754582e+09 -3.914582e+09 -3.851176e+02 1.888169e+01 -5.655555e+01
-4.984281e+09 -4.784281e+09 -4.944281e+09 -5.960282e+02 2.968095e+01 2.548540e+01
-4.972373e+09 -4.772377e+09 -4.932375e+09 -5.045348e+00 -6.798626e+01 -1.339892e+00
-4.708894e+09 -4.508898e+09 -4.668896e+09 -5.761465e+01 -9.078427e+00 4.997002e+01
-4.819086e+09 -4.619086e+09 -4.779086e+09 -2.874436e+02 2.512159e+01 -3.466490e+00
-4.226062e+09 -4.026064e+09 -4.186062e+09 -4.049773e+02 -3.150060e+01 -2.330062e+00
-4.982751e+09 -4.782755e+09 -4.942753e+09 -1.289181e+02 -5.956179e+01 -2.967896e+01
-4.989765e+09 -4.789769e+09 -4.949767e+09 -4.008842e+02 -1.475161e+02 2.435127e+01
-4.983049e+09 -4.783047e+09 -4.943046e+09 -2.451840e+03 -2.268506e+00 1.243351e+02
-4.650293e+09 -4.450291e+09 -4.610294e+09 7.871449e+02 2.973044e+02 -2.264567e+02
-3.966018e+09 -3.766015e+09 -3.926019e+09 1.175102e+03 6.385399e+02 -8.971960e+02
-3.935427e+09 -3.735429e+09 -3.895427e+09 3.662999e+01 3.791702e+01 -4.156227e+02
-4.603101e+09 -4.403105e+09 -4.563103e+09 -3.988721e+02 -1.972642e+02 -3.537192e+00
-3.959951e+09 -3.759952e+09 -3.919952e+09 1.959336e+02 2.230851e+01 -5.177984e+01
-4.985478e+09 -4.785480e+09 -4.945479e+09 3.869050e+02 -1.281200e+01 -1.003762e+02
-3.059804e+09 -2.859803e+09 -3.019803e+09 4.945482e+01 -1.471760e+01 -1.337972e+01
-4.625084e+09 -4.425086e+09 -4.585085e+09 1.560647e+02 -1.751658e+01 -6.431989e+01
-2.203579e+09 -2.003580e+09 -2.163579e+09 3.581810e+02 -2.571574e+02 1.641494e+01
-3.645847e+09 -3.445847e+09 -3.605847e+09 -2.969249e+01 -7.400018e+00 -2.890230e+01
-4.110173e+09 -3.910175e+09 -4.070174e+09 1.206020e+02 1.658584e+01 -8.688630e+01
-4.267447e+09 -4.067449e+09 -4.227448e+09 -1.179512e+02 -3.858740e+00 -4.747881e+01
-4.278023e+09 -4.078025e+09 -4.238024e+09 -9.829951e+01 2.884766e+00 -9.689859e+01
-4.083176e+09 -3.883176e+09 -4.043175e+09 -1.513888e+01 -4.984456e+00 -9.870703e+00
-4.620237e+09 -4.420240e+09 -4.580239e+09 4.369347e+02 -1.443324e+02 7.204891e+01
-5.003554e+09 -4.803554e+09 -4.963554e+09 -7.712871e+02 1.271861e+02 9.642402e+01
-4.285817e+09 -4.085816e+09 -4.245816e+09 -6.065002e+02 8.334258e+01 9.979091e+01
-4.475902e+09 -4.275902e+09 -4.435905e+09 -1.741008e+03 6.094238e+02 5.407931e+02
-4.132669e+09 -3.932669e+09 -4.092672e+09 -1.619986e+03 7.499211e+02 6.688850e+02
-3.718843e+09 -3.518845e+09 -3.678844e+09 2.920528e+02 -2.300240e+02 4.074646e+01
-4.140943e+09 -3.940943e+09 -4.100945e+09 -1.858675e+03 1.133327e+03 6.712610e+02
-3.477637e+09 -3.277639e+09 -3.437637e+09 2.101755e+02 6.063344e+01 5.107380e+01
-3.148619e+09 -2.948624e+09 -3.108622e+09 -7.107413e+02 -1.303175e+03 -2.964187e+02
-4.275148e+09 -4.075150e+09 -4.235149e+09 -5.254257e+01 3.560098e+01 -2.129929e+02
-4.965125e+09 -4.765127e+09 -4.925126e+09 3.616828e+02 3.469280e+00 -1.380590e+02
-4.972510e+09 -4.772511e+09 -4.932510e+09 7.691116e+01 5.141895e+01 -2.486101e+02
-4.985771e+09 -4.785773e+09 -4.945771e+09 4.006634e+02 6.043784e+01 -7.076450e+01
-1.635408e+09 -1.435413e+09 -1.595409e+09 2.131747e+02 -5.198828e+02 3.397411e+01
-3.966891e+09 -3.766893e+09 -3.926892e+09 -1.933188e+02 3.072199e+01 -2.257061e+02
-4.474861e+09 -4.274863e+09 -4.434862e+09 2.241506e+02 1.868075e+01 -1.497231e+02
-2.874196e+09 -2.674201e+09 -2.834198e+09 -4.523655e+01 -2.093740e+02 3.115921e+01
-4.991679e+09 -4.791679e+09 -4.951679e+09 3.512398e+02 -5.833023e+00 -2.923216e+01
-4.106683e+09 -3.906685e+09 -4.066684e+09 -2.102906e+02 6.101124e+01 -1.770728e+02
-3.966891e+09 -3.766893e+09 -3.926892e+09 1.049647e+01 1.815174e+01 -1.671180e+02
-3.951952e+09 -3.751954e+09 -3.911953e+09 -2.722553e+02 5.302642e+00 -9.070961e+01
-4.441398e+09 -4.241400e+09 -4.401399e+09 4.565755e+02 1.369247e+01 -2.623916e+02
-4.297014e+09 -4.097015e+09 -4.257014e+09 7.910649e+02 -7.478032e+01 -2.150341e+02
-4.793148e+09 -4.593150e+09 -4.753149e+09 -2.519463e+02 1.887160e+01 -3.578682e+02
-1.856441e+09 -1.656444e+09 -1.816441e+09 2.658925e+02 -3.507357e+02 1.457205e+01
-4.454509e+09 -4.254510e+09 -4.414509e+09 1.273762e+02 -2.049469e+01 -1.977548e+02
-2.146004e+09 -1.946007e+09 -2.106004e+09 1.627904e+02 -1.353236e+02 4.663949e+01
-2.568829e+09 -2.368832e+09 -2.528829e+09 1.408785e+02 3.580486e+01 3.484817e+01
-2.479636e+09 -2.279639e+09 -2.439637e+09 4.508826e+02 -4.025904e+02 9.252232e+01
-4.134274e+09 -3.934274e+09 -4.094270e+09 -1.867162e+03 1.596385e+03 -1.683483e+03
-4.537068e+09 -4.337067e+09 -4.497056e+09 -3.668280e+02 4.123559e+02 -1.533401e+03
-4.983496e+09 -4.783498e+09 -4.943497e+09 4.488446e+02 -1.966402e+02 2.874126e+01
-4.820740e+09 -4.620741e+09 -4.780733e+09 -1.675864e+03 -4.736028e+02 -6.663153e+02
-3.742015e+09 -3.542018e+09 -3.702016e+09 2.396276e+02 8.243234e+01 -1.050156e+01
-4.470039e+09 -4.270041e+09 -4.430041e+09 6.564228e+02 -4.678985e+02 1.279384e+02
-3.967187e+09 -3.767189e+09 -3.927187e+09 -5.681847e+02 1.580895e+02 5.390140e+00
-4.074454e+09 -3.874455e+09 -4.034454e+09 -4.352492e+02 -4.663384e+01 -2.758895e+01
-3.091109e+09 -2.891111e+09 -3.051109e+09 -5.085660e+02 2.685650e+01 -2.033043e+01
-4.623338e+09 -4.423338e+09 -4.583335e+09 -1.138241e+03 1.694365e+01 4.911726e+01
-4.980502e+09 -4.780505e+09 -4.940504e+09 2.883077e+02 -1.299521e+02 -2.928939e+01
-3.736442e+09 -3.536441e+09 -3.696441e+09 1.742234e+02 8.075920e+01 -2.067225e+01
-2.792696e+09 -2.592695e+09 -2.752695e+09 1.469524e+02 6.823665e+01 -4.916170e+01
-2.607870e+09 -2.407869e+09 -2.567869e+09 1.411307e+02 5.732761e+01 -1.059559e+01
-3.622635e+09 -3.422634e+09 -3.582635e+09 5.150441e+02 1.731675e+02 -5.667134e+01
-4.890117e+09 -4.690118e+09 -4.850118e+09 -1.775030e+01 8.498283e+00 4.973530e-05
-4.210520e+09 -4.010518e+09 -4.170519e+09 5.867385e+02 8.094815e+01 -8.752166e+01
-3.432773e+09 -3.232772e+09 -3.392772e+09 1.676117e+02 7.471542e+01 2.637379e+01
-2.672599e+09 -2.472598e+09 -2.632599e+09 -4.587545e+02 2.475927e+02 -4.003864e+01
-2.766886e+09 -2.566887e+09 -2.726887e+09 -8.597404e+01 -3.003042e+00 7.322032e+00
-4.448431e+09 -4.248432e+09 -4.408430e+09 5.899627e+01 3.937334e+00 1.978657e+01
-4.620240e+09 -4.420241e+09 -4.580241e+09 -1.731420e+01 2.528387e-01 -2.401848e-01
-3.887130e+09 -3.687130e+09 -3.847129e+09 2.444662e+01 4.697107e+00 5.534346e-01
-4.671379e+09 -4.471379e+09 -4.631378e+09 4.149367e+01 -6.032373e+00 1.079817e+01
-4.777016e+09 -4.577017e+09 -4.737017e+09 2.044704e+01 1.651390e+00 6.833652e+00
-4.163734e+09 -3.963735e+09 -4.123735e+09 2.714625e+01 -1.725863e+00 8.835556e+00
-4.014752e+09 -3.814753e+09 -3.974753e+09 -7.997191e+00 -2.083400e-01 8.710241e+00
-2.113902e+09 -1.913903e+09 -2.073902e+09 1.317857e+02 -6.683034e+01 -2.420645e+01
-3.449098e+09 -3.249098e+09 -3.409098e+09 5.436926e+01 -2.153654e+01 -2.325405e+01
-4.620722e+09 -4.420722e+09 -4.580721e+09 2.044386e+02 -5.079219e+01 1.971154e+00
-4.907933e+09 -4.707934e+09 -4.867932e+09 4.766720e+01 -2.343521e-09 -2.753197e+00
-3.733434e+09 -3.533435e+09 -3.693434e+09 -1.539355e+02 -1.720202e+01 -3.082818e+01
-3.781849e+09 -3.581849e+09 -3.741849e+09 -2.496271e+01 3.629332e+00 -2.227759e+01
-3.420922e+09 -3.220922e+09 -3.380922e+09 -5.430966e+00 -8.419430e+00 -1.924817e+01
-4.897082e+09 -4.697082e+09 -4.857081e+09 4.088871e+01 2.961400e+00 2.162282e-09
-3.673087e+09 -3.473086e+09 -3.633086e+09 7.577794e+00 5.589120e-01 -2.664349e+01
-4.139650e+09 -3.939651e+09 -4.099651e+09 3.181793e+02 2.477820e+01 1.623896e+00
-3.357988e+09 -3.157988e+09 -3.317987e+09 -1.630554e+02 -3.508656e+01 -2.966023e+01
-1.588676e+09 -1.388676e+09 -1.548676e+09 -1.767675e+01 -3.960399e+01 -6.554921e+01
-3.410985e+09 -3.210985e+09 -3.370985e+09 3.358782e+01 2.773092e+00 -5.858551e+00
-4.963089e+09 -4.763089e+09 -4.923089e+09 -6.151596e-01 -1.808075e+00 -2.800746e+00
-2.817020e+09 -2.617019e+09 -2.777019e+09 7.194327e+00 4.158158e+00 -1.507833e+01
-4.571478e+09 -4.371477e+09 -4.531477e+09 3.123576e+01 -1.298758e+00 -4.263149e+00
-4.980624e+09 -4.780623e+09 -4.940623e+09 -5.826796e+00 -9.885326e+00 1.248672e+01
-1.874550e+09 -1.674550e+09 -1.834549e+09 -2.365440e+02 -3.218789e+01 -7.004957e+01
-4.594606e+09 -4.394605e+09 -4.554605e+09 6.066816e+00 4.477364e+00 -6.704035e+00
-2.876086e+09 -2.676085e+09 -2.836085e+09 -1.282051e+01 5.814197e+00 -2.545230e+01
-4.970237e+09 -4.770237e+09 -4.930236e+09 3.846474e+02 7.322011e+00 1.556690e+01
-4.151236e+09 -3.951236e+09 -4.111235e+09 9.056384e+02 1.741675e+02 -4.872065e+01
-4.993825e+09 -4.793827e+09 -4.953825e+09 5.872280e+02 -8.517308e+00 6.441069e-01
-3.810322e+09 -3.610322e+09 -3.770322e+09 -7.393242e+00 3.606502e+00 -5.587569e+00
-3.188569e+09 -2.988569e+09 -3.148568e+09 4.401071e+02 7.796560e+01 -3.204777e+01
-4.845742e+09 -4.645743e+09 -4.805742e+09 6.587790e+02 4.085478e-01 -1.068892e+01
-4.697209e+09 -4.497211e+09 -4.657209e+09 4.142057e+02 4.572401e+01 -7.934384e+00
-3.872633e+09 -3.672633e+09 -3.832632e+09 7.706818e+02 1.970872e+02 -4.417701e+01
-3.060858e+09 -2.860858e+09 -3.020858e+09 -2.902230e+01 -2.504588e+00 -1.453841e+01
-4.989618e+09 -4.789619e+09 -4.949621e+09 -9.713184e+02 -2.869990e+02 -1.074866e+02
-2.816696e+09 -2.616695e+09 -2.776695e+09 -2.648051e-01 1.121741e+01 -1.334450e+01
-3.085399e+09 -2.885403e+09 -3.045400e+09 -1.564352e+02 -2.146824e+02 -2.751649e+01
-4.797712e+09 -4.597711e+09 -4.757711e+09 -4.677262e+00 1.583449e+01 8.713101e-01
-3.455976e+09 -3.255979e+09 -3.415978e+09 -7.594653e+02 -1.092372e+03 -2.228514e+02
-4.978467e+09 -4.778469e+09 -4.938468e+09 -8.316708e+02 -1.947082e+02 -1.981770e+01
-3.486862e+09 -3.286861e+09 -3.446861e+09 -1.240580e+01 -1.356606e+01 -1.723319e+01
-3.281151e+09 -3.081150e+09 -3.241150e+09 -5.094354e+01 -1.899548e+01 -2.441128e+01
-3.811429e+09 -3.611428e+09 -3.771428e+09 -2.491475e+01 -8.834350e+00 -2.507254e+01
-4.981063e+09 -4.781063e+09 -4.941063e+09 1.229609e+01 -5.338876e+00 -2.949875e+00
-4.443693e+09 -4.243686e+09 -4.403691e+09 -3.104588e+02 -9.577736e+02 1.203043e+01
-5.011042e+09 -4.811046e+09 -4.971045e+09 -4.499055e+01 -1.907882e+02 -1.584095e+01
-4.800865e+09 -4.600867e+09 -4.760866e+09 -7.601559e+02 -3.575668e+01 -4.038491e+01
-3.998679e+09 -3.798683e+09 -3.958681e+09 -3.643910e+02 -4.458948e+02 -2.169064e+00
-3.033678e+09 -2.833681e+09 -2.993679e+09 -5.206312e+02 -4.960073e+02 -8.609901e+01
-3.945232e+09 -3.745223e+09 -3.905233e+09 3.783917e+02 -3.172928e+03 6.644889e+02
-4.465760e+09 -4.265760e+09 -4.425760e+09 -8.916251e+01 -1.298301e+01 -2.163404e+00
-3.982445e+09 -3.782445e+09 -3.942445e+09 -7.316966e+01 -1.241276e+01 -8.383438e+00
-4.204408e+09 -4.004408e+09 -4.164408e+09 -1.761941e+02 -3.191686e-01 -1.297199e+01
-4.607861e+09 -4.407856e+09 -4.567868e+09 6.788830e+02 1.641096e+03 1.561071e+03
-4.710928e+09 -4.510928e+09 -4.670928e+09 -5.002873e+01 8.325394e-01 -2.141459e+01
-3.958249e+09 -3.758248e+09 -3.918248e+09 -6.093165e+01 -3.711946e+00 -2.445011e+01
-4.907947e+09 -4.707947e+09 -4.867947e+09 -4.085280e+00 3.560444e+00 -2.597395e-10
-4.820742e+09 -4.620737e+09 -4.780749e+09 5.780871e+02 1.701345e+03 8.714681e+02
-3.688863e+09 -3.488864e+09 -3.648863e+09 -1.292688e+02 2.574031e+01 -2.349287e+01
-4.823536e+09 -4.623537e+09 -4.783539e+09 -9.123503e+02 -1.616361e+02 -1.059229e+02
-4.786925e+09 -4.586917e+09 -4.746927e+09 4.881124e+02 1.009546e+03 1.253487e+03
-4.264627e+09 -4.064622e+09 -4.224633e+09 8.756452e+02 7.322311e+02 1.247504e+03
-3.420140e+09 -3.220144e+09 -3.380142e+09 -4.019748e+02 -9.409014e+02 -5.473006e+01
-4.648989e+09 -4.448990e+09 -4.608990e+09 -3.539039e+02 -6.966196e+00 1.205037e+01
-3.921394e+09 -3.721390e+09 -3.881403e+09 -9.849862e+02 2.259817e+03 1.416844e+03
-3.967277e+09 -3.767277e+09 -3.927277e+09 -3.246150e+02 -1.742183e+01 2.999890e+01
-4.989265e+09 -4.789265e+09 -4.949265e+09 -3.177851e+02 4.113183e+00 -7.383505e+00
-4.576545e+09 -4.376546e+09 -4.536545e+09 4.324332e+02 -5.953518e+01 4.914196e+01
-2.567540e+09 -2.367540e+09 -2.527540e+09 1.083369e+01 3.233765e+00 -1.073277e+01
-3.950678e+09 -3.750678e+09 -3.910678e+09 -3.705729e+00 6.795739e+00 -2.912906e+00
-4.994009e+09 -4.794009e+09 -4.954009e+09 4.749487e+02 -1.234446e+02 8.519526e+01
-4.485179e+09 -4.285178e+09 -4.445178e+09 5.346685e+00 2.073776e+00 -4.855485e+00
-3.294417e+09 -3.094416e+09 -3.254416e+09 2.092278e+00 7.963674e-01 -5.985843e-01
-4.972739e+09 -4.772739e+09 -4.932739e+09 4.942934e+02 -3.664474e+01 3.234631e+01
-4.529047e+09 -4.329050e+09 -4.489048e+09 2.826382e+02 -5.744798e+01 1.624656e+01
-3.395366e+09 -3.195367e+09 -3.355366e+09 2.020805e+01 -3.691340e+01 -2.850203e+01
-4.130197e+09 -3.930195e+09 -4.090197e+09 1.540574e+02 -2.514583e+02 3.533319e+02
-2.283277e+09 -2.083276e+09 -2.243276e+09 2.057574e+02 -1.248707e+02 3.929973e+01
-3.070211e+09 -2.870211e+09 -3.030210e+09 -2.831882e+01 -7.056876e+00 -3.793402e+01
-2.860772e+09 -2.660772e+09 -2.820772e+09 -1.354032e+01 -2.327166e+01 -2.708484e+01
-1.959767e+09 -1.759766e+09 -1.919766e+09 1.901830e+02 -1.341877e+02 2.427884e+01
-2.639388e+09 -2.439388e+09 -2.599387e+09 -1.727803e+01 4.591314e-01 -5.546839e+01
-3.968533e+09 -3.768536e+09 -3.928534e+09 -5.788028e+02 2.369245e+02 4.291244e+00
-5.005342e+09 -4.805345e+09 -4.965343e+09 -4.766081e+02 4.002167e+00 2.756688e+01
-4.817476e+09 -4.617478e+09 -4.777477e+09 -8.686148e+02 1.738145e+00 3.691460e+01
-4.829451e+09 -4.629454e+09 -4.789453e+09 -4.885729e+02 1.471431e+02 3.833355e+01
-4.966937e+09 -4.766936e+09 -4.926936e+09 1.523226e+01 -1.828816e+00 4.738066e+00
-1.581477e+09 -1.381476e+09 -1.541476e+09 3.506628e+01 1.075620e+01 -1.500877e+01
-4.998231e+09 -4.798234e+09 -4.958232e+09 -5.324744e+02 -4.391865e+00 1.151497e+01
-4.997495e+09 -4.797495e+09 -4.957494e+09 -6.403113e+02 1.373859e+02 6.605744e+01
-4.997495e+09 -4.797495e+09 -4.957495e+09 -8.647284e+02 1.687976e+01 4.607368e+01
-4.472693e+09 -4.272692e+09 -4.432693e+09 3.474114e+01 1.903535e+00 -2.260803e+00
-4.484447e+09 -4.284448e+09 -4.444447e+09 -6.715517e+02 4.150966e+01 -1.819155e+00
-4.831549e+09 -4.631549e+09 -4.791549e+09 -6.808914e+02 6.244839e+01 2.059456e+01
-4.641161e+09 -4.441161e+09 -4.601160e+09 -1.994502e+02 -2.197172e+01 -3.399113e+01
-4.998708e+09 -4.798708e+09 -4.958708e+09 1.827895e+02 -3.359505e+01 -3.051137e+01
-2.856677e+09 -2.656676e+09 -2.816676e+09 -4.814638e+00 4.528893e-01 -3.088232e+00
-3.120568e+09 -2.920567e+09 -3.080567e+09 4.722234e+01 8.852940e+00 -2.072054e+00
-3.413869e+09 -3.213869e+09 -3.373869e+09 1.189279e+01 7.531886e-01 -4.786756e+00
-2.108422e+09 -1.908425e+09 -2.068422e+09 4.984587e+01 -1.742379e+01 -8.514174e+00
-3.037988e+09 -2.837991e+09 -2.997988e+09 2.087324e+01 1.785211e+01 -3.878370e+00
-4.978530e+09 -4.778529e+09 -4.938529e+09 3.310881e+01 3.789911e+00 1.159174e+01
-4.630615e+09 -4.430615e+09 -4.590615e+09 1.106225e+01 8.698864e+00 -1.998418e+01
-2.079863e+09 -1.879864e+09 -2.039863e+09 1.691245e+02 -1.840424e+01 2.676823e+01
-4.816490e+09 -4.616486e+09 -4.776491e+09 -1.879492e+03 5.047493e+02 2.509805e+01
-4.954763e+09 -4.754765e+09 -4.914763e+09 2.443573e+02 3.542539e+00 2.213450e+01
-4.477510e+09 -4.277507e+09 -4.437503e+09 2.317268e+03 -3.346237e+02 7.626812e+01
-4.159277e+09 -3.959277e+09 -4.119276e+09 6.578384e+02 6.697206e+01 -2.358367e+01
-3.979677e+09 -3.779668e+09 -3.939662e+09 -5.977974e+02 5.722553e+03 -1.647403e+03
-4.720057e+09 -4.520058e+09 -4.680056e+09 1.101468e+02 3.901509e+01 -5.125102e+00
-4.458832e+09 -4.258828e+09 -4.418834e+09 1.328514e+03 -4.460161e+02 -6.190307e+02
-4.461098e+09 -4.261099e+09 -4.421100e+09 1.777807e+03 4.158368e+01 9.156959e+00
-1.593682e+09 -1.393683e+09 -1.553681e+09 2.411114e+02 7.921053e+01 2.107026e-01
-4.980769e+09 -4.780765e+09 -4.940770e+09 2.035160e+03 -2.078080e+02 -2.285522e+02
-4.983658e+09 -4.783652e+09 -4.943652e+09 1.093911e+03 -4.129184e+01 -3.711660e+01
-3.374172e+09 -3.174174e+09 -3.334172e+09 4.881704e+02 5.622396e+01 -1.212115e+01
-3.961908e+09 -3.761908e+09 -3.921908e+09 4.493155e+02 2.851208e+01 1.042740e+01
-3.181904e+09 -2.981906e+09 -3.141904e+09 5.492790e+02 1.149501e+01 3.593485e+01
-4.477509e+09 -4.277508e+09 -4.437503e+09 1.767228e+03 -3.103815e+03 -3.006300e+03
-3.261645e+09 -3.061647e+09 -3.221645e+09 1.241018e+02 2.068965e+01 1.729385e+01
-4.489693e+09 -4.289689e+09 -4.449687e+09 9.282223e+02 -2.293950e+03 -9.548727e+02
-1.843276e+09 -1.643279e+09 -1.803276e+09 2.832298e+02 1.393920e+01 6.643155e+00
-4.966570e+09 -4.766571e+09 -4.926568e+09 -1.272677e+03 1.036682e+02 -3.803710e+02
-4.100459e+09 -3.900449e+09 -4.060461e+09 1.347789e+03 -1.970646e+03 -8.471426e+02
-3.945238e+09 -3.745230e+09 -3.905241e+09 1.446292e+03 -6.112111e+03 -2.187606e+03
-2.609327e+09 -2.409330e+09 -2.569327e+09 4.639249e+01 1.114424e+01 4.043210e+01
-3.514851e+09 -3.314850e+09 -3.474851e+09 -1.407167e+02 -1.106445e+01 8.215423e+00
-4.971819e+09 -4.771817e+09 -4.931818e+09 2.307058e+02 -4.071637e+01 -2.501219e+01
-4.793634e+09 -4.593633e+09 -4.753633e+09 9.134020e+01 8.842736e+01 9.331634e+01
-4.471792e+09 -4.271788e+09 -4.431792e+09 -8.560999e+02 2.485472e+02 3.253057e+02
-3.174490e+09 -2.974490e+09 -3.134490e+09 -1.590006e+02 -1.227158e+01 -1.450412e+01
-4.122616e+09 -3.922614e+09 -4.082615e+09 -7.058614e+02 2.473892e+02 2.762363e+02
-2.286244e+09 -2.086243e+09 -2.246244e+09 -1.541157e+02 -9.701495e+00 -2.690079e-01
-4.477511e+09 -4.277506e+09 -4.437512e+09 9.939083e+01 7.486237e+02 1.862942e+03
-4.970614e+09 -4.770614e+09 -4.930612e+09 9.293725e+02 5.711746e+01 -2.652661e+02
-1.784286e+09 -1.584286e+09 -1.744286e+09 -5.519691e+01 -3.940492e+00 -1.054826e+00
-2.868021e+09 -2.668020e+09 -2.828020e+09 -4.407303e+01 -8.643816e+00 -1.615131e+01
-4.662362e+09 -4.462360e+09 -4.622359e+09 1.326669e+03 -7.012883e+01 -5.006779e+02
-4.646721e+09 -4.446718e+09 -4.606720e+09 4.634075e+02 2.289759e+02 1.077436e+02
-3.014431e+09 -2.814430e+09 -2.974430e+09 -8.530762e+01 -1.450422e+01 -1.052044e+01
-3.960255e+09 -3.760252e+09 -3.920254e+09 8.281328e+02 -3.698109e+02 9.159653e+01
-5.005594e+09 -4.805592e+09 -4.965592e+09 1.569764e+03 -3.045821e+02 -5.607983e+02
-4.700377e+09 -4.500376e+09 -4.660377e+09 6.862356e+01 -1.081349e+02 5.535863e+01
-4.892160e+09 -4.692160e+09 -4.852161e+09 8.663861e+00 -3.273133e+01 -2.487406e-05
-3.056389e+09 -2.856388e+09 -3.016388e+09 -5.528053e+01 -9.208274e+00 -6.438033e+00
-4.342612e+09 -4.142615e+09 -4.302614e+09 1.924131e+02 -1.503686e+01 -8.596764e+00
-4.488745e+09 -4.288745e+09 -4.448746e+09 4.065978e+02 -8.287844e+01 -8.413134e+01
-3.550861e+09 -3.350861e+09 -3.510861e+09 -4.571120e+00 -8.512906e-01 -5.708678e-01
-4.422050e+09 -4.222050e+09 -4.382050e+09 -8.890417e+01 -4.974794e+00 -9.223911e-01
-4.944871e+09 -4.744871e+09 -4.904871e+09 -7.721344e+01 5.859714e+00 3.696975e+00
-4.406490e+09 -4.206491e+09 -4.366491e+09 3.487186e+02 -7.907214e+01 -5.674220e+01
-4.991282e+09 -4.791284e+09 -4.951283e+09 -5.251807e+02 -5.907421e+00 -7.270386e+01
-4.790062e+09 -4.590063e+09 -4.750063e+09 -6.370637e+02 -1.894247e+00 8.128001e+01
-2.221910e+09 -2.021909e+09 -2.181909e+09 -5.667477e+02 -5.320451e+02 -2.288125e+02
-2.604933e+09 -2.404931e+09 -2.564932e+09 -4.067598e+01 -3.626592e+02 5.038856e+00
-2.753640e+09 -2.553639e+09 -2.713640e+09 -9.955298e+01 -2.995925e+02 -4.100504e+01
-1.689678e+09 -1.489677e+09 -1.649677e+09 1.819468e+02 1.705723e+02 -1.138936e+01
-4.802720e+09 -4.602721e+09 -4.762721e+09 2.649673e+02 -1.142280e+01 -2.160310e+01
-4.814266e+09 -4.614268e+09 -4.774267e+09 -1.795148e+02 -9.524116e+00 -1.143614e+02
-2.299710e+09 -2.099709e+09 -2.259709e+09 5.164171e+02 -4.100173e+01 -1.631578e+01
-1.929733e+09 -1.729731e+09 -1.889731e+09 1.494871e+02 1.869938e+02 1.165847e+01
-3.961584e+09 -3.761586e+09 -3.921585e+09 -4.271473e+02 5.060182e+01 -1.137795e+02
-4.263401e+09 -4.063402e+09 -4.223402e+09 -6.831349e+02 2.194447e+01 -1.946367e+02
-4.103597e+09 -3.903598e+09 -4.063597e+09 -6.377545e+02 5.877887e+01 -2.371837e+02
-1.683712e+09 -1.483710e+09 -1.643711e+09 7.969259e+00 3.119932e+02 -1.816646e+01
-3.420976e+09 -3.220975e+09 -3.380975e+09 1.531087e+02 1.036111e+02 -2.181043e+01
-4.991283e+09 -4.791284e+09 -4.951283e+09 -4.551941e+02 1.237713e+01 -7.838021e+01
-1.532058e+09 -1.332057e+09 -1.492057e+09 6.089974e+02 2.574483e+02 -9.578418e+01
-4.066735e+09 -3.866736e+09 -4.026734e+09 -1.931830e+02 2.005591e+01 -1.451513e+01
-1.985282e+09 -1.785282e+09 -1.945281e+09 -7.059313e+01 -7.130160e+01 -4.491219e+01
-4.982338e+09 -4.782338e+09 -4.942338e+09 2.558849e+02 -8.232732e+00 -2.981270e+00
-2.692437e+09 -2.492436e+09 -2.652436e+09 -3.997044e+01 -5.360415e+01 9.601223e+00
-2.637474e+09 -2.437475e+09 -2.597474e+09 -7.081652e+01 7.412971e+01 -4.959282e+01
-3.989892e+09 -3.789892e+09 -3.949891e+09 3.776770e+00 3.993396e+01 -1.426696e+01
-3.459604e+09 -3.259605e+09 -3.419605e+09 6.152408e+01 8.316254e+00 7.768179e+00
-4.290785e+09 -4.090786e+09 -4.250783e+09 3.803403e+02 3.341441e+01 -1.013631e+03
-4.530040e+09 -4.330040e+09 -4.490039e+09 -1.180377e+02 1.057261e+01 -2.400905e+01
-3.617347e+09 -3.417347e+09 -3.577347e+09 -5.154945e+00 5.990270e+00 3.208099e-03
-2.763692e+09 -2.563692e+09 -2.723693e+09 -1.593887e+02 -1.340725e+01 -3.232223e-01
-2.988677e+09 -2.788677e+09 -2.948677e+09 -1.046912e+01 -1.269955e+01 4.800338e+00
-3.993656e+09 -3.793656e+09 -3.953656e+09 -1.673456e+02 -1.167768e+01 -8.832348e+00
-4.634019e+09 -4.434020e+09 -4.594016e+09 4.581793e+02 -3.676564e+02 -4.795943e+02
-4.435353e+09 -4.235353e+09 -4.395352e+09 1.505688e+01 -2.521965e-01 -2.180863e+01
-4.436329e+09 -4.236330e+09 -4.396328e+09 -9.716938e+00 2.854463e-01 -2.576425e+01
-4.031614e+09 -3.831615e+09 -3.991615e+09 -2.020831e+02 -1.916206e+00 -2.415937e+01
-1.556066e+09 -1.356066e+09 -1.516065e+09 9.088026e+01 8.045705e+00 4.704208e+01
-1.867503e+09 -1.667503e+09 -1.827502e+09 1.265817e+02 -3.548554e-01 1.438453e+01
-4.984043e+09 -4.784044e+09 -4.944042e+09 -1.500772e+02 1.731976e+01 1.641093e+01
-4.474206e+09 -4.274206e+09 -4.434206e+09 5.176879e+01 1.429122e+01 -3.011635e-01
-3.924135e+09 -3.724136e+09 -3.884136e+09 1.067571e+01 -1.063846e+00 -2.677595e+00
-4.896967e+09 -4.696968e+09 -4.856966e+09 2.018308e+01 -1.470879e-09 -4.081102e+00
-2.886073e+09 -2.686074e+09 -2.846073e+09 1.430433e+02 2.106561e+01 -6.809032e+00
-4.451032e+09 -4.251032e+09 -4.411032e+09 6.283997e+01 1.246199e+01 -1.423079e+00
-3.737979e+09 -3.537979e+09 -3.697979e+09 1.415171e+02 1.029064e+01 6.313192e+00
-3.299894e+09 -3.099894e+09 -3.259894e+09 1.648767e+02 1.250654e+01 -2.382065e+01
-4.473882e+09 -4.273883e+09 -4.433881e+09 1.161169e+02 2.470665e+01 1.757671e+01
-4.961737e+09 -4.761738e+09 -4.921736e+09 1.690968e+02 4.831548e-01 -1.407570e-01
-4.357603e+09 -4.157603e+09 -4.317602e+09 2.272877e+01 -1.883503e+00 4.525162e-01
-3.871227e+09 -3.671226e+09 -3.831226e+09 1.980263e+01 1.039549e+01 -3.001700e+01
-3.932507e+09 -3.732508e+09 -3.892508e+09 1.075141e+02 9.199576e+00 -4.346802e+00
-3.973280e+09 -3.773280e+09 -3.933280e+09 1.224723e+02 9.393568e+00 -4.936545e+00
-1.636027e+09 -1.436026e+09 -1.596026e+09 1.921254e+01 4.527351e+00 -2.523754e+01
-4.424847e+09 -4.224846e+09 -4.384846e+09 1.108063e+00 3.325855e+00 -4.475773e+00
-3.773093e+09 -3.573092e+09 -3.733092e+09 1.865622e+01 1.127486e+00 -5.987559e+00
-2.897400e+09 -2.697399e+09 -2.857399e+09 2.941838e+01 1.063963e+01 -1.177724e+01
-1.662264e+09 -1.462266e+09 -1.622266e+09 -8.331884e+00 -1.415167e+02 5.109751e+01
-4.803770e+09 -4.603771e+09 -4.763771e+09 3.514164e+01 1.689693e-01 -1.206002e+01
-2.999411e+09 -2.799411e+09 -2.959411e+09 1.661447e+02 1.446754e+01 -2.527391e+01
-4.778702e+09 -4.578702e+09 -4.738702e+09 1.766728e+02 -4.807627e+00 -1.218949e+01
-1.951187e+09 -1.751186e+09 -1.911186e+09 -1.395852e+01 -6.606921e+00 -5.814508e+00
-1.883707e+09 -1.683707e+09 -1.843707e+09 -8.525191e+00 -4.803223e+00 -6.304502e+00
-1.931248e+09 -1.731248e+09 -1.891248e+09 -1.063398e-01 -3.970509e+00 -4.215245e+00
-2.109311e+09 -1.909311e+09 -2.069311e+09 -9.396432e+01 -1.163309e+01 -8.662965e+00
-2.233027e+09 -2.033026e+09 -2.193027e+09 -1.798307e+01 -5.899485e+00 -3.008291e+00
-1.585940e+09 -1.385940e+09 -1.545940e+09 -2.926335e+01 -5.146931e+00 -7.351449e+00
-4.113132e+09 -3.913132e+09 -4.073132e+09 2.143880e+02 1.757320e+01 1.755040e+01
-4.802088e+09 -4.602089e+09 -4.762088e+09 8.652116e+01 -4.046501e+00 7.076697e+00
-2.732649e+09 -2.532647e+09 -2.692648e+09 -1.030834e+02 -2.965492e+02 -5.092606e+01
-4.385322e+09 -4.185322e+09 -4.345324e+09 9.492249e+02 7.977842e+01 -1.234769e+02
-1.995927e+09 -1.795926e+09 -1.955927e+09 -4.108285e+02 -6.264899e+02 -2.716889e+02
-3.275015e+09 -3.075016e+09 -3.235015e+09 -9.501163e+02 -6.993712e+02 -2.861493e+02
-2.071219e+09 -1.871217e+09 -2.031218e+09 -9.188290e+02 -7.877694e+02 -5.012574e+02
-4.415619e+09 -4.215620e+09 -4.375619e+09 -2.033946e+02 5.759416e+01 -8.038704e+00
-1.589813e+09 -1.389814e+09 -1.549813e+09 -2.921224e+02 2.018825e+01 -8.488314e+01
-2.181935e+09 -1.981936e+09 -2.141935e+09 -3.047681e+01 -3.843976e+00 -2.441058e+01
-3.990338e+09 -3.790339e+09 -3.950338e+09 -1.710598e+02 2.305207e+00 -6.057248e+00
-4.467392e+09 -4.267392e+09 -4.427393e+09 -1.677439e+03 -6.564289e+01 1.396859e+02
-4.646720e+09 -4.446717e+09 -4.606718e+09 1.036215e+03 -3.562243e+02 -1.248282e+02
-4.996547e+09 -4.796545e+09 -4.956547e+09 -1.890468e+03 2.149781e+01 -7.643396e+01
-4.811568e+09 -4.611570e+09 -4.771568e+09 -2.089538e+03 3.638125e+02 -8.385331e+01
-3.959886e+09 -3.759886e+09 -3.919886e+09 -1.862939e+03 -1.643963e+02 4.423485e+02
-4.607458e+09 -4.407460e+09 -4.567458e+09 -4.038661e+02 -2.531627e-02 8.024460e+00
-4.985014e+09 -4.785015e+09 -4.945015e+09 -1.053036e+03 1.357201e+01 -2.525188e+01
-4.280105e+09 -4.080105e+09 -4.240104e+09 -1.446306e+03 7.697437e+02 -6.557581e+00
-3.107991e+09 -2.907990e+09 -3.067991e+09 -7.297832e+02 1.367786e+02 -1.018025e+02
-1.564656e+09 -1.364656e+09 -1.524656e+09 -1.612912e+02 1.386726e+01 -7.226053e+01
-3.357836e+09 -3.157836e+09 -3.317836e+09 6.838899e+00 2.701942e+00 -5.047394e+01
-4.105985e+09 -3.905987e+09 -4.065986e+09 -1.879186e+03 -1.685522e+02 4.801406e+02
-1.585608e+09 -1.385609e+09 -1.545608e+09 -2.374686e+02 2.248099e+01 -8.460641e+01
-4.615292e+09 -4.415294e+09 -4.575293e+09 -1.612443e+03 -1.505157e+02 1.738654e+02
-3.403167e+09 -3.203166e+09 -3.363166e+09 -7.077612e+01 -6.533458e+00 -2.093437e+01
-2.971208e+09 -2.771208e+09 -2.931207e+09 -1.685465e+02 1.461571e+01 -4.658480e+01
-3.767576e+09 -3.567576e+09 -3.727577e+09 -1.005039e+03 -1.066907e+01 1.837226e+02
-2.564754e+09 -2.364754e+09 -2.524754e+09 -8.950508e+01 -1.647093e+01 -1.042426e+01
-2.193982e+09 -1.993982e+09 -2.153982e+09 -9.990736e+01 -1.320879e+01 -1.163446e+01
-1.586760e+09 -1.386760e+09 -1.546760e+09 -5.172680e+01 -1.332754e+01 -1.829279e+01
-2.749579e+09 -2.549578e+09 -2.709578e+09 -9.218230e+01 -5.827378e+00 -4.121762e+00
-1.596015e+09 -1.396014e+09 -1.556014e+09 9.879252e+02 5.006796e+02 -2.986048e+02
-4.016990e+09 -3.816989e+09 -3.976989e+09 -1.113987e+02 -1.041220e+01 -3.962394e+01
-3.675024e+09 -3.475023e+09 -3.635023e+09 -6.914844e+01 -6.234334e+00 -3.566550e+00
-3.282269e+09 -3.082269e+09 -3.242269e+09 -4.105767e+01 -4.758319e+00 -1.350387e-02
-2.587029e+09 -2.387029e+09 -2.547029e+09 -9.684951e+00 -2.207791e+01 -1.553492e+00
-4.823376e+09 -4.623377e+09 -4.783377e+09 4.361700e+02 -1.491376e+01 -5.529930e+01
-4.649371e+09 -4.449372e+09 -4.609372e+09 5.042031e+02 1.973602e+01 1.966631e+01
-4.614308e+09 -4.414308e+09 -4.574308e+09 5.891323e+02 3.712128e+01 3.582543e+01
-4.817601e+09 -4.617602e+09 -4.777602e+09 4.282839e+02 -8.797076e+00 -3.054624e+01
-4.816796e+09 -4.616796e+09 -4.776796e+09 4.569022e+02 1.462566e+01 4.344937e+00
-4.116612e+09 -3.916612e+09 -4.076612e+09 4.479065e+02 -1.191901e+01 -5.490472e+01
-3.785739e+09 -3.585742e+09 -3.745741e+09 1.037467e+03 1.983135e+02 5.668726e+02
-3.961103e+09 -3.761103e+09 -3.921103e+09 4.899460e+02 2.237066e+01 -1.203336e+00
-4.974233e+09 -4.774233e+09 -4.934235e+09 7.027098e+02 -1.900667e+01 1.764963e+02
-2.933283e+09 -2.733284e+09 -2.893283e+09 -1.618188e+02 -4.701123e+01 -2.771035e+01
-4.557194e+09 -4.357194e+09 -4.517194e+09 -5.587615e+02 -9.959145e+01 -7.262791e+01
-4.055203e+09 -3.855204e+09 -4.015203e+09 -4.010248e+02 -7.250786e+01 -9.554121e+00
-4.184368e+09 -3.984369e+09 -4.144369e+09 -6.224545e+02 -2.540860e+02 -7.736267e+01
-2.882319e+09 -2.682321e+09 -2.842319e+09 -7.983571e+02 -8.873005e+02 -2.091961e+02
-3.565987e+09 -3.365987e+09 -3.525987e+09 -6.584836e+02 -3.290549e+02 -1.070435e+02
-4.272035e+09 -4.072039e+09 -4.232026e+09 -2.557119e+01 -2.816236e+02 3.893909e+03
-4.421408e+09 -4.221408e+09 -4.381409e+09 -7.364625e+02 -1.976105e+02 -7.139282e+01
-1.937076e+09 -1.737074e+09 -1.897075e+09 -9.877637e+01 -2.306592e+02 -6.601748e+00
-4.979479e+09 -4.779483e+09 -4.939474e+09 -9.536898e+01 -5.875067e+01 7.253618e+02
-2.559586e+09 -2.359586e+09 -2.519585e+09 -6.136034e+02 -3.701958e+02 -1.193899e+02
-3.859911e+09 -3.659911e+09 -3.819911e+09 -3.143198e+02 -1.260549e+02 -5.206158e+01
-3.942811e+09 -3.742813e+09 -3.902811e+09 2.088559e+02 5.542165e+01 -5.362585e+02
-4.020386e+09 -3.820385e+09 -3.980385e+09 -2.224017e+02 -1.612941e+02 -7.467151e+01
-4.786924e+09 -4.586925e+09 -4.746924e+09 3.554072e+02 1.453752e+01 -2.762892e+02
-1.950480e+09 -1.750479e+09 -1.910479e+09 -2.878895e+01 -4.475959e+01 -4.278512e+00
-4.299306e+09 -4.099307e+09 -4.259306e+09 9.444836e+02 -1.296584e+02 -4.014305e+02
-4.800921e+09 -4.600922e+09 -4.760921e+09 9.140002e+02 -1.117357e+02 -5.586216e+02
-3.941259e+09 -3.741258e+09 -3.901258e+09 -2.263219e+02 -2.427781e+02 -5.068724e+01
-2.604790e+09 -2.404788e+09 -2.564789e+09 -1.014140e+02 -2.104923e+02 -2.162921e+01
-1.991582e+09 -1.791581e+09 -1.951581e+09 -8.550622e+01 -2.095589e+02 -2.505795e+01
-3.697016e+09 -3.497016e+09 -3.657016e+09 -4.898254e+02 -2.934118e+02 -1.201651e+02
-1.518531e+09 -1.318530e+09 -1.478530e+09 -2.915822e+02 -1.754028e+02 -1.028483e+00
-4.670874e+09 -4.470873e+09 -4.630874e+09 -6.349120e+02 -3.486713e+01 -1.590882e+02
-4.417122e+09 -4.217120e+09 -4.377121e+09 -5.140369e+01 -1.099000e+02 -4.280595e+01
-4.029696e+09 -3.829694e+09 -3.989695e+09 -3.612430e+02 -1.223167e+02 -4.848017e+01
-1.568637e+09 -1.368640e+09 -1.528638e+09 -3.087382e+02 4.135722e+01 -6.906033e+01
-4.434669e+09 -4.234668e+09 -4.394668e+09 -3.372840e+02 -1.005737e+02 -4.390504e+01
-4.413493e+09 -4.213493e+09 -4.373493e+09 -5.905561e+02 -1.809828e+02 -1.319112e+02
-1.772982e+09 -1.572982e+09 -1.732981e+09 3.646761e+02 3.191185e+01 3.736664e+01
-1.686590e+09 -1.486591e+09 -1.646590e+09 -1.350853e+02 4.723878e+00 -6.912056e+01
-3.174975e+09 -2.974974e+09 -3.134974e+09 5.230853e+02 9.992805e+01 -4.705591e+00
-2.808360e+09 -2.608359e+09 -2.768359e+09 5.297378e+02 4.470492e+02 -1.211764e+02
-2.880380e+09 -2.680379e+09 -2.840380e+09 1.015718e+03 4.050030e+02 -2.337093e+02
-2.779917e+09 -2.579918e+09 -2.739916e+09 3.744606e+00 2.855682e+00 -3.322634e+01
-2.893700e+09 -2.693699e+09 -2.853699e+09 3.721742e+02 1.155126e+02 3.358080e+01
-1.821846e+09 -1.621845e+09 -1.781845e+09 3.790383e+01 8.118620e+00 -9.228051e+00
-3.283504e+09 -3.083504e+09 -3.243504e+09 5.446970e+02 1.413896e+02 -2.176618e+01
-3.443474e+09 -3.243474e+09 -3.403473e+09 4.805752e+02 6.082434e+01 -2.072706e+01
-3.437438e+09 -3.237438e+09 -3.397438e+09 -1.188181e+01 5.303065e-01 -1.373679e+01
-4.989809e+09 -4.789808e+09 -4.949808e+09 -7.745133e+01 -1.212073e+01 7.990906e-01
-2.088056e+09 -1.888055e+09 -2.048055e+09 4.139077e+02 1.380588e+02 -5.412023e+01
-4.599399e+09 -4.399398e+09 -4.559398e+09 -9.886875e+01 -1.428953e+01 -2.231572e+01
-3.185139e+09 -2.985139e+09 -3.145138e+09 1.761053e+02 7.453111e+01 -8.458480e+00
-4.621344e+09 -4.421344e+09 -4.581344e+09 7.326645e+01 2.705851e+01 -1.606954e+01
-3.125676e+09 -2.925676e+09 -3.085676e+09 9.275497e+02 2.924583e+02 -1.095918e+02
-3.532004e+09 -3.332003e+09 -3.492003e+09 7.834737e+01 -1.211402e+02 -5.118860e+00
-4.602828e+09 -4.402828e+09 -4.562828e+09 1.223729e+02 -3.404334e+01 -2.432088e+00
-3.441054e+09 -3.241055e+09 -3.401055e+09 2.993352e+01 1.288659e+01 3.838629e+00
-4.971525e+09 -4.771525e+09 -4.931525e+09 6.910338e+02 -6.740503e-01 -2.106056e+01
-2.636199e+09 -2.436200e+09 -2.596199e+09 -3.471586e-01 -1.985475e+00 1.319624e+00
-1.965702e+09 -1.765703e+09 -1.925702e+09 -4.432765e+00 4.212559e-01 3.279711e+00
-4.502509e+09 -4.302510e+09 -4.462509e+09 6.928848e+02 2.558791e+01 -1.789813e+01
-4.985070e+09 -4.785070e+09 -4.945069e+09 3.744877e+02 -8.328577e+00 -3.965230e+01
-3.128935e+09 -2.928935e+09 -3.088935e+09 -3.041349e+01 2.290932e+00 -3.283623e+01
-2.697016e+09 -2.497015e+09 -2.657015e+09 4.216215e+00 3.802072e+00 -4.705152e-01
-1.954802e+09 -1.754801e+09 -1.914801e+09 5.546383e+00 3.521897e+00 -3.626695e+00
-4.408541e+09 -4.208541e+09 -4.368541e+09 3.159457e+00 6.299317e-01 -1.891436e+00
-4.348614e+09 -4.148614e+09 -4.308614e+09 -3.121556e-01 1.570825e+00 -1.152131e+00
-4.966937e+09 -4.766936e+09 -4.926936e+09 3.209816e+01 -2.246168e+00 -6.776254e+00
-3.090383e+09 -2.890382e+09 -3.050382e+09 -1.326318e+01 9.378832e+00 -2.171016e+01
-4.593076e+09 -4.393076e+09 -4.553076e+09 2.439374e+01 3.064979e+00 -1.396694e+01
-3.365765e+09 -3.165764e+09 -3.325764e+09 -2.569751e+01 -2.132945e+00 -1.772542e+01
-2.753417e+09 -2.553417e+09 -2.713417e+09 -4.681141e+00 1.963208e+00 -2.253032e+00
-3.731088e+09 -3.531088e+09 -3.691088e+09 -1.742148e+02 -1.366587e+01 1.545563e+01
-2.767921e+09 -2.567922e+09 -2.727922e+09 -3.025219e+01 -1.255683e+01 1.883573e+01
-1.841012e+09 -1.641012e+09 -1.801012e+09 -7.056975e+01 -2.781976e+01 8.676420e+00
-4.983831e+09 -4.783831e+09 -4.943831e+09 -7.154375e+01 1.282191e+01 -6.890925e+00
-4.890117e+09 -4.690117e+09 -4.850118e+09 -1.648993e+01 9.555315e+00 -4.974081e-05
-3.582485e+09 -3.382485e+09 -3.542485e+09 -1.283141e+00 1.115274e+01 -7.554231e+00
-4.247864e+09 -4.047863e+09 -4.207863e+09 4.591871e+01 4.618459e+00 -1.117172e+01
-2.582720e+09 -2.382719e+09 -2.542719e+09 1.314197e+01 2.494186e+00 -1.779250e+01
-1.632485e+09 -1.432485e+09 -1.592485e+09 -1.966660e+01 -4.008683e+00 -1.626931e+01
-2.913810e+09 -2.713810e+09 -2.873809e+09 1.727453e+01 9.322230e+00 -7.631064e+00
-2.082248e+09 -1.882248e+09 -2.042248e+09 5.714646e+00 -5.647077e+00 -7.871423e+00
-1.958317e+09 -1.758316e+09 -1.918317e+09 -1.187325e+01 -3.157989e+00 -1.011691e+01
-3.712984e+09 -3.512982e+09 -3.672983e+09 6.394199e+02 3.075110e+02 -2.080870e+02
-1.933652e+09 -1.733651e+09 -1.893651e+09 -1.793995e+01 -8.738965e-01 -1.489531e+01
-1.872760e+09 -1.672759e+09 -1.832759e+09 -2.091532e+01 -4.154627e+00 -2.599666e+01
-2.793169e+09 -2.593169e+09 -2.753169e+09 -1.100493e+02 -1.415690e+01 -2.705703e+01
-1.597409e+09 -1.397409e+09 -1.557409e+09 -7.636971e+01 -1.320074e+01 -4.663171e+01
-1.636086e+09 -1.436088e+09 -1.596086e+09 3.456794e+01 -9.312271e+01 -3.218755e+01
-4.783106e+09 -4.583105e+09 -4.743105e+09 6.546166e+00 1.873481e+00 8.576321e-01
-4.961496e+09 -4.761496e+09 -4.921496e+09 3.822554e+01 3.867353e+00 6.177359e+00
-4.667792e+09 -4.467796e+09 -4.627794e+09 3.663513e+02 1.780513e+02 -3.279417e+01
-4.846516e+09 -4.646520e+09 -4.806517e+09 5.640878e+02 1.887229e+02 -2.558211e+01
-4.984481e+09 -4.784484e+09 -4.944483e+09 8.886409e+02 1.009024e+02 -3.642959e+00
-4.165319e+09 -3.965322e+09 -4.125320e+09 1.218903e+03 1.141811e+02 -4.369670e+01
-4.138403e+09 -3.938406e+09 -4.098404e+09 9.718973e+02 3.365337e+02 -6.195663e+01
-4.824869e+09 -4.624871e+09 -4.784869e+09 1.011932e+03 -4.651213e+01 2.217270e+00
-2.579261e+09 -2.379264e+09 -2.539262e+09 5.348816e+01 -8.666639e+01 2.441212e+01
-4.984482e+09 -4.784484e+09 -4.944483e+09 8.842861e+02 1.286269e+02 4.420549e+01
-3.954784e+09 -3.754786e+09 -3.914784e+09 8.801781e+02 2.352563e+02 -5.012918e+01
-3.025411e+09 -2.825411e+09 -2.985411e+09 1.122872e+00 1.084253e+01 -3.760068e-01
-2.610551e+09 -2.410550e+09 -2.570550e+09 -3.145666e+01 -4.345409e+00 -3.078062e+01
-2.075284e+09 -1.875284e+09 -2.035284e+09 8.570851e+00 5.095160e+00 -5.804424e-02
-4.624637e+09 -4.424637e+09 -4.584637e+09 -4.429044e+01 -1.202590e+01 -2.104121e+01
-3.952785e+09 -3.752784e+09 -3.912784e+09 -1.409626e+02 -1.233788e+01 -2.776939e+01
-4.974606e+09 -4.774606e+09 -4.934606e+09 -1.831059e+01 -2.727107e+01 1.118627e+01
-4.532092e+09 -4.332091e+09 -4.492091e+09 5.317499e+01 -1.907629e+01 -1.559236e+01
-4.980059e+09 -4.780059e+09 -4.940059e+09 -5.407783e+01 -1.317574e+01 9.337015e+00
-4.892244e+09 -4.692246e+09 -4.852244e+09 -7.098343e+01 -4.969098e-05 -3.709109e+01
-4.364533e+09 -4.164536e+09 -4.324534e+09 -2.254651e+02 -6.931844e+01 -9.265062e+00
-3.167953e+09 -2.967952e+09 -3.127952e+09 9.782796e+01 2.149988e+01 -7.024571e+00
-4.570270e+09 -4.370270e+09 -4.530270e+09 5.982624e+01 1.440441e+01 -7.012326e-01
-2.830615e+09 -2.630616e+09 -2.790616e+09 2.810824e+01 1.189355e+01 9.828563e+00
-2.188670e+09 -1.988670e+09 -2.148670e+09 2.680035e+01 6.483969e+00 6.082185e+00
-3.255182e+09 -3.055182e+09 -3.215182e+09 1.341521e+02 4.444836e-01 1.538558e+00
-3.958324e+09 -3.758324e+09 -3.918324e+09 -7.620636e+01 1.500986e+01 -3.146460e+01
-1.572297e+09 -1.372297e+09 -1.532297e+09 -2.274280e+01 1.503980e+01 -5.176179e+01
-4.986227e+09 -4.786226e+09 -4.946226e+09 -1.246043e+02 -8.517233e+00 7.528740e+00
-4.635371e+09 -4.435372e+09 -4.595372e+09 -2.657460e+02 -3.998019e+00 7.624424e+00
-3.527770e+09 -3.327771e+09 -3.487771e+09 -2.216427e+01 1.444876e+00 4.022262e+00
-3.968872e+09 -3.768873e+09 -3.928872e+09 -2.822207e+02 -1.087074e+00 5.104449e+00
-1.814660e+09 -1.614660e+09 -1.774660e+09 2.812723e+01 1.812099e+01 1.594487e+01
-4.998948e+09 -4.798949e+09 -4.958948e+09 -1.733320e+02 -3.065177e+00 -1.481595e+00
-5.014895e+09 -4.814895e+09 -4.974897e+09 -8.185605e+02 -4.173903e+02 -2.247723e+02
-4.991759e+09 -4.791761e+09 -4.951754e+09 -2.421228e+03 -3.493315e+02 7.392408e+02
-2.305269e+09 -2.105270e+09 -2.265270e+09 1.953077e+02 2.742545e+01 5.264699e+01
-4.971102e+09 -4.771102e+09 -4.931104e+09 -9.004808e+02 -2.697739e+02 -9.315518e+01
-4.842502e+09 -4.642500e+09 -4.802505e+09 -5.529640e+02 -5.203772e+02 -5.550825e+02
-3.340321e+09 -3.140324e+09 -3.300322e+09 -1.007316e+02 -8.804226e+01 7.493278e+00
-1.997015e+09 -1.797015e+09 -1.957015e+09 1.210608e+02 2.527449e+01 -7.953552e+00
-4.442362e+09 -4.242362e+09 -4.402363e+09 -6.517208e+02 -2.969238e+02 -1.599962e+02
-4.478001e+09 -4.278000e+09 -4.438002e+09 -8.805378e+02 -5.690167e+02 -2.095274e+02
-3.492521e+09 -3.292526e+09 -3.452525e+09 2.084609e+02 1.334286e+02 7.148431e+02
-4.804111e+09 -4.604112e+09 -4.764112e+09 -8.505653e+02 -4.154616e+02 -3.998515e+01
-3.524864e+09 -3.324867e+09 -3.484865e+09 -2.435391e+02 -2.225402e+02 -4.743846e+01
-4.950148e+09 -4.750148e+09 -4.910148e+09 -5.407813e+02 -1.077061e+02 -4.033124e+01
-3.849108e+09 -3.649110e+09 -3.809110e+09 -1.728231e+03 -3.877054e+02 5.150842e+02
-2.938171e+09 -2.738172e+09 -2.898171e+09 -9.005000e+02 -6.261452e+02 -2.687403e+02
-4.135556e+09 -3.935556e+09 -4.095558e+09 -1.126924e+03 -6.568178e+02 -4.265253e+02
-4.820290e+09 -4.620293e+09 -4.780293e+09 -7.370997e+02 -4.471893e+02 -6.642545e+01
-4.137071e+09 -3.937073e+09 -4.097073e+09 -1.026134e+03 -1.268691e+03 -2.680707e+02
-3.409497e+09 -3.209501e+09 -3.369500e+09 -2.695087e+02 8.865427e+00 -6.397361e+01
-4.787490e+09 -4.587491e+09 -4.747491e+09 -3.944596e+02 -1.144217e+02 -2.719032e+01
-4.820504e+09 -4.620505e+09 -4.780505e+09 -2.763469e+02 -1.371804e+01 2.814902e+01
-4.466848e+09 -4.266849e+09 -4.426849e+09 -1.978207e+02 -8.256970e+00 -7.675380e-01
-4.642641e+09 -4.442642e+09 -4.602642e+09 -1.285097e+02 -1.044697e+00 5.365983e+00
-3.700658e+09 -3.500662e+09 -3.660661e+09 2.223773e+01 -1.549198e+01 7.203822e+01
-3.042219e+09 -2.842221e+09 -3.002221e+09 -3.225329e+02 1.850348e+02 4.753635e+00
-2.225961e+09 -2.025962e+09 -2.185962e+09 -6.686437e+01 -1.419864e+01 1.251027e+01
-4.423770e+09 -4.223770e+09 -4.383770e+09 -2.708002e+01 -5.213748e+00 7.880164e+00
-2.075939e+09 -1.875943e+09 -2.035943e+09 1.647571e+01 5.500809e+01 1.631946e+02
-1.736245e+09 -1.536246e+09 -1.696246e+09 -1.061535e+02 -5.653469e+00 1.498615e+01
-4.302973e+09 -4.102974e+09 -4.262974e+09 -2.158252e+02 -4.046537e+00 -4.419270e+00
-2.696026e+09 -2.496026e+09 -2.656026e+09 -1.657285e+02 -4.721876e+00 5.072651e+01
-3.880383e+09 -3.680388e+09 -3.840386e+09 -2.349578e+02 8.668294e+01 7.042891e+02
-4.598151e+09 -4.398155e+09 -4.558153e+09 -7.085551e+02 -7.694747e+01 1.621361e+02
-4.667775e+09 -4.467774e+09 -4.627774e+09 -5.649363e+01 -2.420688e+01 5.575875e+00
-2.745081e+09 -2.545083e+09 -2.705083e+09 7.818886e+01 4.171079e+01 4.242695e+01
-4.641797e+09 -4.441796e+09 -4.601797e+09 2.161541e+02 -7.325314e+01 2.920885e+01
-4.994703e+09 -4.794702e+09 -4.954703e+09 1.797339e+02 -9.382458e+01 7.929549e+01
-4.994009e+09 -4.794009e+09 -4.954009e+09 2.817303e+02 -1.379601e+02 8.664385e+01
-4.472655e+09 -4.272655e+09 -4.432656e+09 5.440417e+02 -3.160077e+02 2.772422e+02
-4.469530e+09 -4.269533e+09 -4.429532e+09 6.244136e+02 -2.754281e+02 1.065859e+02
-5.009375e+09 -4.809370e+09 -4.969360e+09 -1.920007e+03 5.443227e+01 -5.867537e+02
-4.116307e+09 -3.916308e+09 -4.076308e+09 5.241092e+02 -3.455191e+02 2.197135e+02
-5.015143e+09 -4.815141e+09 -4.975118e+09 -3.824777e+02 4.026513e+02 -9.854981e+02
-4.811069e+09 -4.611069e+09 -4.771069e+09 2.856259e+02 -4.895914e+01 8.374440e+01
-4.459540e+09 -4.259540e+09 -4.419541e+09 5.170999e+02 -2.705287e+02 1.108745e+02
-4.641237e+09 -4.441237e+09 -4.601237e+09 6.272666e+02 1.915008e+01 3.073858e+00
-3.946552e+09 -3.746552e+09 -3.906552e+09 5.929689e+02 1.504649e+01 -2.905567e+01
-4.174079e+09 -3.974072e+09 -4.134053e+09 -1.274324e+03 2.455655e+03 -1.823648e+03
-4.288468e+09 -4.088461e+09 -4.248467e+09 9.516928e+02 -6.725532e+03 2.890708e+01
-4.667367e+09 -4.467362e+09 -4.627339e+09 3.142901e+02 -1.942845e+03 -1.174563e+03
-4.181242e+09 -3.981237e+09 -4.141230e+09 -2.768870e+03 3.644641e+03 -2.737301e+03
-3.965373e+09 -3.765367e+09 -3.925355e+09 -2.212437e+03 -6.486243e+03 -1.744621e+03
-3.935166e+09 -3.735170e+09 -3.895156e+09 8.674346e+02 1.985810e+03 5.022394e+03
-4.640740e+09 -4.440745e+09 -4.600739e+09 1.361051e+03 7.546085e+02 8.652314e+02
-3.616584e+09 -3.416587e+09 -3.576586e+09 -2.899610e+01 4.506378e+00 9.224823e+01
-3.985448e+09 -3.785443e+09 -3.945419e+09 -6.165207e+02 -1.129188e+03 -4.633186e+03
-3.726319e+09 -3.526318e+09 -3.686319e+09 2.946710e+01 1.312911e+01 -1.136047e+01
-4.492099e+09 -4.292100e+09 -4.452096e+09 3.052140e+03 8.533485e+02 1.194484e+03
-3.448377e+09 -3.248377e+09 -3.408379e+09 1.412206e+03 -2.807749e+02 -4.959996e+02
-4.806267e+09 -4.606272e+09 -4.766265e+09 8.370848e+02 -4.053376e+01 1.573243e+03
-4.440862e+09 -4.240854e+09 -4.400864e+09 7.252064e+02 -8.242009e+02 -3.373165e+03
-3.718974e+09 -3.518974e+09 -3.678974e+09 2.484045e+01 1.234955e+01 -1.179114e+00
-3.946266e+09 -3.746258e+09 -3.906271e+09 1.313190e+03 -1.946345e+03 -2.223656e+02
-4.574045e+09 -4.374037e+09 -4.534052e+09 1.363055e+03 -4.923411e+02 1.000418e+03
-4.621031e+09 -4.421027e+09 -4.581040e+09 6.102258e+02 5.406676e+02 -6.540672e+02
-4.982656e+09 -4.782650e+09 -4.942660e+09 5.371050e+02 8.370100e+02 -5.177822e+02
-2.551870e+09 -2.351870e+09 -2.511870e+09 2.891870e+01 1.857880e+01 -1.799403e+00
-4.227694e+09 -4.027694e+09 -4.187694e+09 9.591390e+01 5.657299e+00 1.188770e+01
-4.208147e+09 -4.008147e+09 -4.168147e+09 1.438929e+02 5.817483e+00 1.355768e+01
-5.002332e+09 -4.802335e+09 -4.962333e+09 5.418091e+02 1.095673e+02 2.999263e-02
-3.413198e+09 -3.213198e+09 -3.373198e+09 8.367064e+01 1.800391e+00 -1.107593e+01
-1.974285e+09 -1.774285e+09 -1.934285e+09 7.402862e+01 4.205592e+00 -3.155876e-01
-4.996360e+09 -4.796364e+09 -4.956362e+09 2.328830e+02 2.332702e+01 3.104703e+01
-4.996360e+09 -4.796363e+09 -4.956361e+09 1.543424e+00 3.660363e+01 2.227382e+01
-4.996836e+09 -4.796835e+09 -4.956836e+09 1.157766e+03 4.154963e+01 -6.514851e+01
-2.520026e+09 -2.320026e+09 -2.480026e+09 1.987911e+01 1.364410e+01 -1.874200e+01
-3.522488e+09 -3.322488e+09 -3.482488e+09 9.890027e+01 -5.571752e+00 -6.870570e+00
-4.811790e+09 -4.611788e+09 -4.771796e+09 -3.421252e+02 -8.523834e+02 6.122527e+02
-4.808493e+09 -4.608491e+09 -4.768494e+09 2.292432e+02 -4.150749e+02 4.090862e+02
-2.584998e+09 -2.384998e+09 -2.544998e+09 5.332308e+01 1.929582e+01 -5.195553e+00
-4.802372e+09 -4.602369e+09 -4.762381e+09 -2.713230e+01 1.451658e+03 5.451641e+02
-2.578272e+09 -2.378271e+09 -2.538271e+09 2.666323e+00 1.339323e+01 -1.395698e+00
-3.951574e+09 -3.751566e+09 -3.911581e+09 1.182901e+03 4.075835e+02 -1.270670e+03
-3.956281e+09 -3.756278e+09 -3.916292e+09 -1.080169e+02 3.017806e+03 2.651825e+02
-4.134279e+09 -3.934275e+09 -4.094279e+09 -1.656703e+03 8.894129e+02 1.499152e+03
-3.305385e+09 -3.105385e+09 -3.265385e+09 7.020920e+01 4.423573e+00 -6.467164e+01
-4.585803e+09 -4.385803e+09 -4.545803e+09 9.954360e+01 1.336759e+01 -1.925756e+01
-4.985567e+09 -4.785567e+09 -4.945567e+09 9.018596e+01 -1.926736e+00 1.950127e+00
-3.960619e+09 -3.760620e+09 -3.920623e+09 -1.645513e+03 1.436466e+03 7.292543e+02
-4.467901e+09 -4.267901e+09 -4.427900e+09 -1.592506e+03 3.406179e+02 -5.928906e+01
-4.635420e+09 -4.435415e+09 -4.595420e+09 -1.829603e+03 6.756051e+02 -5.028838e+01
-3.976463e+09 -3.776464e+09 -3.936463e+09 -1.134372e+03 3.017004e+02 -4.633274e+02
-4.637059e+09 -4.437056e+09 -4.597060e+09 -1.456581e+03 8.082786e+02 4.564188e+02
-3.971397e+09 -3.771396e+09 -3.931397e+09 -1.989211e+03 6.311881e+02 -2.009995e+02
-1.875319e+09 -1.675320e+09 -1.835319e+09 -3.708426e+02 -4.791805e+01 -8.210896e+01
-1.587222e+09 -1.387223e+09 -1.547222e+09 -3.313241e+02 3.255621e+01 -7.910272e+01
-4.821666e+09 -4.621663e+09 -4.781667e+09 -1.706672e+03 3.301544e+02 4.719727e+01
-4.638929e+09 -4.438931e+09 -4.598929e+09 -3.925087e+02 3.943004e+00 -1.019347e+01
-4.657862e+09 -4.457862e+09 -4.617861e+09 -2.124138e+03 3.162836e+02 1.113708e+02
-3.959182e+09 -3.759180e+09 -3.919182e+09 -2.274057e+03 7.712928e+02 -2.928934e+02
-4.135201e+09 -3.935199e+09 -4.095202e+09 -1.218949e+03 -3.786262e+02 9.475741e+02
-1.889987e+09 -1.689990e+09 -1.849988e+09 -2.102388e+02 -2.145441e+02 -6.580291e+01
-1.673920e+09 -1.473922e+09 -1.633920e+09 -4.685544e+02 2.152902e+01 -7.397872e+01
-4.997238e+09 -4.797236e+09 -4.957238e+09 9.215144e+02 5.276808e+01 -8.775719e+01
-4.611238e+09 -4.411239e+09 -4.571239e+09 -9.413603e+02 -2.063486e+02 -1.122475e+02
-3.195539e+09 -2.995542e+09 -3.155541e+09 -4.347249e+02 -9.686065e+02 7.308200e+01
-4.316070e+09 -4.116067e+09 -4.276069e+09 -8.894671e+02 5.367158e+01 -3.014338e+02
-2.603525e+09 -2.403526e+09 -2.563525e+09 -1.101718e+01 -1.958036e+00 -7.764619e+01
-4.993123e+09 -4.793120e+09 -4.953123e+09 2.483091e+02 6.846917e+01 -1.275352e+02
-4.654027e+09 -4.454025e+09 -4.614026e+09 -7.429160e+02 1.359651e+02 -1.650660e+02
-2.600879e+09 -2.400880e+09 -2.560880e+09 2.013687e+02 8.551115e+00 -2.456982e+00
-3.967561e+09 -3.767558e+09 -3.927561e+09 -7.801734e+02 7.813560e+00 -3.474984e+02
-2.650226e+09 -2.450227e+09 -2.610226e+09 1.279893e+01 2.055701e+01 -2.266759e+00
-4.826018e+09 -4.626014e+09 -4.786017e+09 -1.461723e+03 4.266676e+01 -2.758302e+02
-4.658470e+09 -4.458466e+09 -4.618470e+09 -2.718598e+02 1.772581e+02 -3.008296e+02
-4.314916e+09 -4.114912e+09 -4.274915e+09 3.028270e+02 2.008174e+02 -5.436229e+02
-4.967504e+09 -4.767504e+09 -4.927504e+09 -4.596096e+01 7.942834e+00 -5.432607e+00
-3.642589e+09 -3.442590e+09 -3.602590e+09 -3.987053e+00 -7.651310e-02 7.860095e-01
-4.997260e+09 -4.797257e+09 -4.957260e+09 -1.099635e+02 -1.806175e+02 1.308969e+02
-4.138398e+09 -3.938395e+09 -4.098398e+09 5.500405e+02 2.431465e+02 -2.958342e+02
-3.395404e+09 -3.195405e+09 -3.355405e+09 -2.622460e+00 -6.193922e+00 6.513190e-01
-3.637881e+09 -3.437882e+09 -3.597882e+09 -1.937066e+00 4.573339e+00 8.436558e-01
-4.998004e+09 -4.798002e+09 -4.958005e+09 -2.274022e+02 -9.238065e+01 -6.830230e+01
-4.986471e+09 -4.786470e+09 -4.946470e+09 4.954997e+01 2.636216e+01 8.168172e+00
-4.805159e+09 -4.605157e+09 -4.765160e+09 -2.612402e+02 -1.737760e+02 1.308823e+01
-4.313597e+09 -4.113595e+09 -4.273599e+09 1.817169e+02 -4.436956e+02 -4.888824e+02
-2.094557e+09 -1.894558e+09 -2.054557e+09 5.464555e+02 -4.686143e+02 8.132049e+01
-4.131737e+09 -3.931736e+09 -4.091736e+09 7.000441e+01 2.850534e+00 -5.649589e+00
-5.003573e+09 -4.803571e+09 -4.963574e+09 4.483311e+02 -3.235108e+01 -1.978843e+01
-4.967504e+09 -4.767504e+09 -4.927504e+09 -6.231863e+01 5.037936e+00 -3.332147e+00
-4.501189e+09 -4.301190e+09 -4.461190e+09 -6.379815e+01 -7.838024e+00 5.469637e+00
-3.968305e+09 -3.768303e+09 -3.928307e+09 1.633161e+02 -6.330073e+02 -6.287290e+02
-3.700192e+09 -3.500193e+09 -3.660192e+09 -9.461247e+00 3.815967e-01 6.932979e-01
-3.845054e+09 -3.645054e+09 -3.805054e+09 -2.159529e+02 1.647795e+00 3.084611e+01
-4.130767e+09 -3.930764e+09 -4.090768e+09 8.205759e+01 -5.541749e+02 -4.729397e+02
-4.594350e+09 -4.394348e+09 -4.554351e+09 -1.465305e+00 -2.137094e+02 -2.510121e+02
-4.814241e+09 -4.614239e+09 -4.774243e+09 -1.044157e+02 -3.575787e+02 -3.330831e+01
-4.432788e+09 -4.232791e+09 -4.392789e+09 3.174052e+01 -5.074461e+01 2.049197e+01
-3.678246e+09 -3.478249e+09 -3.638247e+09 4.524313e+01 -7.137571e+01 4.067657e+01
-4.983204e+09 -4.783201e+09 -4.943206e+09 -3.870604e+00 -2.662773e+02 -2.032463e+02
-3.269219e+09 -3.069217e+09 -3.229218e+09 -5.610815e+02 -4.225081e+02 -2.182555e+02
-2.169467e+09 -1.969466e+09 -2.129466e+09 -3.223437e+02 -3.069741e+02 -2.041239e+02
-4.282910e+09 -4.082908e+09 -4.242910e+09 -2.738041e+02 -1.668133e+02 -7.659123e+01
-4.976237e+09 -4.776236e+09 -4.936237e+09 9.032101e+01 1.124702e+02 -3.645442e+01
-3.682547e+09 -3.482545e+09 -3.642547e+09 -2.269593e+02 -3.487970e+02 -1.828305e+02
-2.672347e+09 -2.472346e+09 -2.632346e+09 -2.596199e+02 -4.335382e+02 -1.186198e+02
-4.720717e+09 -4.520716e+09 -4.680717e+09 7.553759e+01 8.275126e+01 2.091575e+01
-4.392070e+09 -4.192068e+09 -4.352069e+09 2.750834e+02 1.883623e+02 -1.831515e+02
-4.531423e+09 -4.331424e+09 -4.491424e+09 -6.189534e+02 2.134894e+01 3.725955e+01
-3.047375e+09 -2.847374e+09 -3.007374e+09 -2.056554e+02 -2.808829e+02 -9.400113e+01
-4.994574e+09 -4.794573e+09 -4.954574e+09 1.857003e+02 -1.358723e+01 -2.479339e+01
-4.317727e+09 -4.117725e+09 -4.277726e+09 -1.267996e+02 -1.257395e+02 -3.336810e+01
-4.433764e+09 -4.233762e+09 -4.393764e+09 -1.255799e+02 -1.340483e+02 -3.869680e+01
-3.988883e+09 -3.788881e+09 -3.948883e+09 -1.453814e+02 -2.162024e+02 2.634376e-01
-3.013788e+09 -2.813786e+09 -2.973787e+09 4.504655e+01 -3.247976e+02 -1.085460e+02
-4.979574e+09 -4.779577e+09 -4.939574e+09 2.481167e+02 8.582042e+00 3.135483e+00
-4.976215e+09 -4.776218e+09 -4.936216e+09 5.664124e+02 5.109857e+00 4.299302e+00
-3.691282e+09 -3.491283e+09 -3.651283e+09 4.998648e+01 1.212921e+00 8.397265e-01
-3.991640e+09 -3.791641e+09 -3.951641e+09 6.487393e+01 4.168393e-01 -9.936084e+00
-4.983520e+09 -4.783520e+09 -4.943520e+09 -1.494873e+02 -1.165759e+01 3.816177e+01
-4.483360e+09 -4.283363e+09 -4.443360e+09 2.885500e+00 9.625271e+00 -1.358353e+01
-4.457331e+09 -4.257332e+09 -4.417331e+09 7.801437e+01 -4.405385e-02 7.250295e+00
-4.983230e+09 -4.783231e+09 -4.943231e+09 3.156548e+01 -2.155017e+00 4.353268e+00
-4.892133e+09 -4.692135e+09 -4.852133e+09 -2.080558e+01 -9.948202e-05 1.625822e+01
-2.756579e+09 -2.556583e+09 -2.716580e+09 8.610808e+01 8.754130e+01 -2.813204e+01
-4.470605e+09 -4.270607e+09 -4.430605e+09 -5.882925e+02 -1.900491e+01 -4.802989e+01
-4.003400e+09 -3.803402e+09 -3.963400e+09 -3.533733e+02 1.441526e+01 -3.870407e+01
-4.956476e+09 -4.756477e+09 -4.916477e+09 2.718275e+00 -1.564711e-01 3.018574e+00
-3.970621e+09 -3.770624e+09 -3.930622e+09 -4.775850e+02 8.240129e+01 -2.436261e+01
-3.267029e+09 -3.067030e+09 -3.227029e+09 3.064238e+01 -5.692983e+00 -1.252267e+01
-4.122652e+09 -3.922654e+09 -4.082652e+09 -4.612870e+02 -2.180133e+01 -3.268956e+01
-4.471426e+09 -4.271427e+09 -4.431427e+09 4.948116e+01 2.102004e+00 -1.404781e+01
-4.464643e+09 -4.264644e+09 -4.424643e+09 -2.098480e+02 -3.824043e-01 2.828910e+00
-4.710313e+09 -4.510314e+09 -4.670314e+09 -7.773495e+01 -8.013748e+00 8.901733e+00
-4.995915e+09 -4.795916e+09 -4.955916e+09 7.794684e+01 -4.046512e+00 5.398313e+00
-4.121255e+09 -3.921250e+09 -4.081252e+09 -2.025178e+03 -1.214851e+03 -1.287337e+02
-2.230995e+09 -2.030994e+09 -2.190994e+09 1.436412e+02 1.799013e+02 2.401978e+00
-2.783082e+09 -2.583081e+09 -2.743081e+09 1.248695e+02 1.322865e+02 -7.084481e+00
-3.966203e+09 -3.766196e+09 -3.926192e+09 -3.758323e+03 -3.868050e+03 5.049341e+02
-1.937290e+09 -1.737289e+09 -1.897289e+09 1.724108e+02 1.403245e+02 1.900135e+01
-4.436892e+09 -4.236892e+09 -4.396892e+09 3.228528e+01 3.906198e+00 -7.687454e+00
-4.934329e+09 -4.734329e+09 -4.894329e+09 4.270882e+01 3.504439e+00 1.734811e+00
-4.242936e+09 -4.042934e+09 -4.202937e+09 -7.346388e+02 -1.779802e+02 4.819070e+02
-4.264694e+09 -4.064693e+09 -4.224694e+09 -1.284826e+03 8.470643e+01 3.401431e+02
-4.133597e+09 -3.933597e+09 -4.093597e+09 3.128656e+01 3.786653e+00 -1.249505e+00
-4.434476e+09 -4.234473e+09 -4.394477e+09 -6.357392e+02 -2.574993e+02 6.615896e+02
-3.951924e+09 -3.751923e+09 -3.911924e+09 -9.782872e+02 -1.347804e+02 4.268433e+02
-4.335207e+09 -4.135205e+09 -4.295206e+09 7.357584e+02 -1.120261e+02 6.464288e+01
-4.140194e+09 -3.940193e+09 -4.100193e+09 3.760921e+02 -7.891146e+01 -1.374290e+02
-3.947897e+09 -3.747895e+09 -3.907896e+09 -1.610957e+02 2.165505e+01 -6.243570e+01
-4.310067e+09 -4.110067e+09 -4.270067e+09 -1.122247e+03 2.527993e+02 1.627458e+02
-4.772363e+09 -4.572363e+09 -4.732363e+09 2.135654e+01 -6.259029e-01 -7.951516e+00
-4.672304e+09 -4.472303e+09 -4.632303e+09 6.977223e+01 -3.159233e+00 3.093678e+00
-3.957997e+09 -3.757997e+09 -3.917997e+09 6.489150e+02 -5.764683e+00 -1.253605e+02
-4.095959e+09 -3.895957e+09 -4.055958e+09 1.162453e+02 8.472688e+01 5.556062e+01
-4.450401e+09 -4.250399e+09 -4.410400e+09 2.432949e+02 -6.323598e+01 -2.524072e+01
-4.731851e+09 -4.531850e+09 -4.691850e+09 3.261469e+01 5.286850e+00 -7.552217e-01
-4.618957e+09 -4.418955e+09 -4.578956e+09 -5.324348e+02 4.210142e+01 3.640111e+01
-4.040735e+09 -3.840734e+09 -4.000734e+09 3.124993e+01 -5.548646e-01 -2.904972e+00
-4.246399e+09 -4.046398e+09 -4.206399e+09 -5.635934e+02 -1.759767e+02 -8.667149e+01
-4.477509e+09 -4.277508e+09 -4.437508e+09 9.564175e+02 4.099479e+01 -9.051404e+01
-4.438462e+09 -4.238460e+09 -4.398461e+09 1.249168e+02 -5.311751e+01 -6.542248e-01
-4.971819e+09 -4.771817e+09 -4.931818e+09 2.206290e+02 -5.470741e+01 -1.059593e+01
-1.613005e+09 -1.413003e+09 -1.573004e+09 -4.990141e+02 -5.738421e+02 -1.318394e+02
-3.991974e+09 -3.791973e+09 -3.951973e+09 4.393174e+02 6.615221e+01 5.068137e-02
-3.356956e+09 -3.156954e+09 -3.316955e+09 -3.614332e+02 -2.460919e+02 -8.680600e+01
-4.820742e+09 -4.620741e+09 -4.780741e+09 1.012608e+03 -1.857515e+01 -1.367299e+02
-2.771995e+09 -2.571994e+09 -2.731994e+09 -2.109610e+02 -1.833735e+02 -4.034564e+01
-4.635890e+09 -4.435891e+09 -4.595888e+09 7.883410e+02 -4.495522e+01 -8.746025e+02
-4.662362e+09 -4.462361e+09 -4.622361e+09 1.279832e+03 1.744433e+02 -5.354729e+02
-2.743787e+09 -2.543787e+09 -2.703786e+09 7.713915e+01 7.008237e+01 -1.090784e+01
-4.299306e+09 -4.099307e+09 -4.259306e+09 8.579283e+02 -7.244967e+01 -3.326385e+02
-4.820742e+09 -4.620741e+09 -4.780741e+09 1.005996e+03 -1.624618e+01 -1.553761e+02
-1.931384e+09 -1.731383e+09 -1.891384e+09 1.098491e+02 2.723141e+02 -4.573238e+01
-4.983230e+09 -4.783229e+09 -4.943230e+09 -4.433209e+02 -3.849141e+01 -3.529010e+01
-1.687684e+09 -1.487683e+09 -1.647684e+09 -1.597730e+02 2.846567e+02 -5.998721e+01
-1.597191e+09 -1.397190e+09 -1.557190e+09 -4.901596e+02 -4.681452e+02 -1.168779e+02
-1.597191e+09 -1.397190e+09 -1.557190e+09 -4.019079e+02 -3.459087e+02 -6.471973e+01
-1.672942e+09 -1.472941e+09 -1.632941e+09 1.086978e+03 4.093819e+02 -2.158286e+02
-2.921355e+09 -2.721354e+09 -2.881354e+09 3.321711e+02 1.772400e+02 -3.931134e+01
-3.723686e+09 -3.523685e+09 -3.683685e+09 -4.095268e+02 -1.489595e+02 -2.382042e+01
-2.370969e+09 -2.170968e+09 -2.330968e+09 -7.950987e+02 -6.694471e+02 -3.756064e+02
-3.461765e+09 -3.261767e+09 -3.421766e+09 7.039408e+02 -9.305531e+02 2.962475e+02
-4.712519e+09 -4.512522e+09 -4.672520e+09 1.551932e+02 5.499913e+01 -4.024532e+01
-4.284304e+09 -4.084303e+09 -4.244303e+09 -2.750218e+02 -1.778690e+01 9.527642e+00
-1.583794e+09 -1.383798e+09 -1.543795e+09 3.515516e+02 -4.462473e+02 1.083416e+02
-1.873357e+09 -1.673360e+09 -1.833358e+09 1.520248e+02 -1.758851e+02 3.130943e+01
-2.580123e+09 -2.380121e+09 -2.540122e+09 -1.324896e+02 -2.891211e+02 -5.525573e+01
-2.057565e+09 -1.857567e+09 -2.017565e+09 2.880384e+02 -2.314045e+02 3.831199e+01
-4.982707e+09 -4.782711e+09 -4.942709e+09 1.218595e+02 -8.223557e+01 1.335689e+01
-3.044875e+09 -2.844877e+09 -3.004875e+09 2.197976e+02 -1.574708e+02 4.431528e+01
-4.702380e+09 -4.502379e+09 -4.662380e+09 1.147091e+02 6.251901e+01 -3.387306e+01
-1.694722e+09 -1.494722e+09 -1.654721e+09 8.370861e+02 1.589939e+02 -2.448665e+01
-4.976238e+09 -4.776236e+09 -4.936237e+09 3.879321e+02 -2.181086e+01 -1.485535e+01
-2.963055e+09 -2.763057e+09 -2.923055e+09 3.946817e+01 -5.430100e+01 5.471213e+01
-2.634304e+09 -2.434303e+09 -2.594303e+09 9.278617e+01 2.292053e+02 -2.166383e+01
-1.915029e+09 -1.715029e+09 -1.875028e+09 4.608328e+02 7.368912e+01 -1.533870e+01
-3.442812e+09 -3.242811e+09 -3.402811e+09 1.434304e+02 1.718035e+02 -2.754007e+01
-1.913479e+09 -1.713479e+09 -1.873479e+09 -3.287559e+01 -1.686103e+01 1.282805e+01
-3.086288e+09 -2.886288e+09 -3.046289e+09 -1.677674e+02 -3.058700e+01 4.841732e+00
-1.567475e+09 -1.367479e+09 -1.527479e+09 8.667267e+01 7.593278e+01 2.472743e+02
-2.620854e+09 -2.420859e+09 -2.580858e+09 5.828390e+02 3.676193e+02 7.375345e+02
-3.919602e+09 -3.719605e+09 -3.879604e+09 1.814186e+02 1.432044e+01 1.884784e+02
-1.563616e+09 -1.363616e+09 -1.523616e+09 -1.561916e+02 -2.254563e+01 1.593616e+01
-1.665810e+09 -1.465810e+09 -1.625810e+09 -5.843597e+01 -2.348787e+01 -2.121083e+00
-4.767393e+09 -4.567393e+09 -4.727393e+09 2.110970e+01 -7.165006e-01 4.824535e+00
-3.738886e+09 -3.538885e+09 -3.698885e+09 2.160320e+00 2.991666e+00 -5.096627e+00
-2.599522e+09 -2.399521e+09 -2.559521e+09 1.160990e+01 2.695103e+00 -1.489659e+01
-4.118519e+09 -3.918520e+09 -4.078519e+09 4.315871e+02 -1.419856e+01 -1.294937e+02
-2.179198e+09 -1.979198e+09 -2.139198e+09 -1.416772e+01 -7.851963e+00 -2.360486e+01
-1.929594e+09 -1.729593e+09 -1.889593e+09 6.713783e+00 6.359064e+00 -1.919424e+01
-4.989953e+09 -4.789950e+09 -4.949953e+09 2.083781e+02 2.026745e+02 -6.583786e+01
-3.953781e+09 -3.753782e+09 -3.913782e+09 4.478052e+02 -2.371265e+01 -3.481363e+02
-4.301230e+09 -4.101230e+09 -4.261229e+09 8.234543e+02 -7.793055e+01 -7.061249e+01
-4.620758e+09 -4.420758e+09 -4.580758e+09 -3.065616e+01 3.237346e+00 -2.249248e+01
-4.983480e+09 -4.783481e+09 -4.943480e+09 6.809272e+02 -2.066516e+01 -1.666461e+02
-3.281506e+09 -3.081506e+09 -3.241505e+09 -4.973767e-05 5.353487e+00 3.313744e+00
-4.804984e+09 -4.604986e+09 -4.764985e+09 3.994647e+02 -2.018644e+01 -1.577068e+02
-3.953781e+09 -3.753782e+09 -3.913782e+09 8.019362e+02 -6.219768e+01 -2.393800e+02
-4.983480e+09 -4.783481e+09 -4.943480e+09 7.793666e+02 -2.113214e+01 -1.198604e+02
-2.047477e+09 -1.847480e+09 -2.007478e+09 1.276170e+02 8.404689e+01 -8.503260e+00
-3.056471e+09 -2.856474e+09 -3.016471e+09 4.706810e+01 2.457718e+01 4.093101e+00
-3.312404e+09 -3.112408e+09 -3.272405e+09 -1.641751e+01 1.256788e+02 -9.935437e+00
-4.089611e+09 -3.889614e+09 -4.049612e+09 -1.815077e+02 1.242195e+02 -1.144384e+01
-4.891111e+09 -4.691114e+09 -4.851111e+09 1.613828e+01 -1.244345e+00 6.403592e+00
-3.613624e+09 -3.413627e+09 -3.573624e+09 1.766582e+01 1.808986e+01 -1.560542e+01
-4.967232e+09 -4.767235e+09 -4.927232e+09 -7.850821e+01 3.011635e+00 -8.701662e-01
-1.611484e+09 -1.411484e+09 -1.571483e+09 7.930415e-10 -1.450126e+01 2.042113e+01
-1.657151e+09 -1.457151e+09 -1.617150e+09 2.240373e+01 1.327633e+01 2.392023e+01
-4.679264e+09 -4.479268e+09 -4.639265e+09 1.079832e+02 1.068584e+02 -3.591431e+01
-4.648578e+09 -4.448582e+09 -4.608579e+09 5.983150e+01 6.346874e+01 -3.533602e+01
-4.778398e+09 -4.578401e+09 -4.738398e+09 1.412883e+02 -5.004828e+01 2.373149e+00
-4.963089e+09 -4.763089e+09 -4.923089e+09 7.939756e+00 7.059064e+00 3.577144e+00
-4.843710e+09 -4.643710e+09 -4.803710e+09 -4.275396e+02 -2.338928e+01 5.554809e+01
-4.892244e+09 -4.692244e+09 -4.852244e+09 2.116483e+01 -1.243446e-04 9.586500e-01
-4.706767e+09 -4.506766e+09 -4.666766e+09 -4.173963e+00 -1.251284e+01 -6.530971e+00
-4.410270e+09 -4.210269e+09 -4.370269e+09 3.209530e+01 3.082997e+00 -9.129533e+00
-4.302243e+09 -4.102242e+09 -4.262245e+09 1.622148e+03 8.771333e+02 -6.176217e+02
-4.803246e+09 -4.603242e+09 -4.763251e+09 9.822547e+02 5.402262e+02 -2.409893e+02
-4.511375e+09 -4.311374e+09 -4.471374e+09 -1.882677e+01 2.835414e+00 -1.057032e+01
-4.274475e+09 -4.074469e+09 -4.234482e+09 8.481507e+02 2.576614e+03 -1.678911e+03
-4.103722e+09 -3.903717e+09 -4.063724e+09 6.351409e+02 1.091864e+03 -1.333562e+03
-4.988645e+09 -4.788640e+09 -4.948645e+09 -7.280757e+02 1.821243e+01 -5.710135e+01
-4.993317e+09 -4.793315e+09 -4.953320e+09 1.299087e+03 4.117112e+02 -2.781088e+02
-4.278207e+09 -4.078204e+09 -4.238211e+09 1.401985e+03 1.731918e+03 -1.490714e+03
-1.936783e+09 -1.736783e+09 -1.896784e+09 -3.038703e+02 1.988768e+02 -8.373166e+01
-4.971508e+09 -4.771504e+09 -4.931510e+09 7.433228e+02 4.226803e+02 -3.498129e+02
-4.116782e+09 -3.916778e+09 -4.076783e+09 7.157722e+02 7.374155e+02 -7.786416e+02
-2.886485e+09 -2.686486e+09 -2.846485e+09 -7.858466e+01 4.713152e+01 -6.253859e+01
-2.849086e+09 -2.649087e+09 -2.809086e+09 -5.187626e+02 6.853005e+01 -3.035859e+01
-2.517867e+09 -2.317869e+09 -2.477867e+09 -5.147477e+02 -7.949609e+01 -1.538449e+01
-2.205420e+09 -2.005421e+09 -2.165420e+09 -3.705609e+02 -9.918613e+00 -4.244873e+01
-1.797811e+09 -1.597811e+09 -1.757811e+09 -6.427850e+02 -3.630134e+02 -1.306362e+02
-3.966018e+09 -3.766014e+09 -3.926018e+09 8.332867e+02 6.259357e+02 -8.627858e+02
-3.255482e+09 -3.055481e+09 -3.215481e+09 -4.943190e+02 -4.136244e+02 -1.522277e+02
-2.176604e+09 -1.976603e+09 -2.136603e+09 1.094584e+01 3.922686e+00 -1.236439e+01
-1.635425e+09 -1.435424e+09 -1.595424e+09 1.671137e+01 4.035579e+00 -1.654259e+01
-2.326570e+09 -2.126569e+09 -2.286569e+09 -2.052027e+02 -1.191397e+02 -3.306513e+01
-2.748739e+09 -2.548738e+09 -2.708738e+09 1.859853e+01 4.758633e+00 -1.975944e+01
-2.150757e+09 -1.950757e+09 -2.110757e+09 1.234527e+01 1.143377e+00 -2.124911e+01
-3.385152e+09 -3.185155e+09 -3.345153e+09 3.200729e+01 1.382254e+01 5.806065e+00
-1.636083e+09 -1.436083e+09 -1.596083e+09 1.862049e+01 3.811808e+00 -3.314316e+01
-3.029869e+09 -2.829868e+09 -2.989868e+09 -5.106911e+01 -8.714724e+00 -2.277350e+01
-1.855551e+09 -1.655551e+09 -1.815550e+09 -1.227784e+01 6.796274e+00 -3.259104e+01
-2.518875e+09 -2.318877e+09 -2.478875e+09 6.038137e+02 -5.223167e+02 1.305641e+02
-4.021192e+09 -3.821192e+09 -3.981192e+09 1.605006e+01 1.804469e+00 1.050424e+00
-4.146139e+09 -3.946140e+09 -4.106140e+09 6.373239e+02 -4.015479e+02 1.884084e+02
-2.959889e+09 -2.759890e+09 -2.919889e+09 -1.093183e+03 -7.993183e+02 -3.164117e+02
-1.770308e+09 -1.570313e+09 -1.730309e+09 -1.153814e+03 -1.046271e+03 -2.556966e+02
-3.725239e+09 -3.525242e+09 -3.685240e+09 -3.776169e+02 -2.435741e+02 -4.136218e+01
-1.903089e+09 -1.703088e+09 -1.863088e+09 4.335661e+00 6.136499e+00 -3.077501e+01
-2.050707e+09 -1.850709e+09 -2.010707e+09 -8.638057e+02 -7.226558e+02 -1.504980e+02
-3.399287e+09 -3.199286e+09 -3.359286e+09 1.087332e+01 1.102129e+00 -1.097528e+01
-1.982471e+09 -1.782473e+09 -1.942471e+09 -1.237919e+03 -9.144567e+02 -3.894900e+02
-5.032723e+09 -4.832715e+09 -4.992723e+09 -7.841857e+02 -6.669886e+02 -1.850348e+02
-2.232261e+09 -2.032264e+09 -2.192261e+09 7.664125e+01 -1.938980e+01 -2.065619e+00
-3.945235e+09 -3.745227e+09 -3.905234e+09 2.494227e+03 -2.780021e+03 -1.145592e+02
-2.196390e+09 -1.996389e+09 -2.156389e+09 -4.913617e-01 -1.387068e-01 -1.522199e+01
-1.585557e+09 -1.385560e+09 -1.545558e+09 3.005339e+02 1.098133e+02 2.976471e+00
-1.899427e+09 -1.699429e+09 -1.859429e+09 -1.105486e+02 1.627839e+02 -8.931101e+01
-2.569924e+09 -2.369926e+09 -2.529926e+09 -5.068655e+01 2.305981e+02 2.425727e+01
-3.085604e+09 -2.885608e+09 -3.045607e+09 -2.260343e+02 5.799945e+01 1.914634e+02
-2.185529e+09 -1.985527e+09 -2.145528e+09 -5.054554e+01 -3.468527e+02 -3.155009e+02
-3.745637e+09 -3.545638e+09 -3.705639e+09 2.491685e+02 -2.429331e+01 -2.866570e+02
-5.028787e+09 -4.828786e+09 -4.988786e+09 -1.879765e+02 2.692417e+00 1.132135e+01
-1.607634e+09 -1.407635e+09 -1.567634e+09 1.070388e+02 1.348281e+01 -2.126985e+01
-1.635445e+09 -1.435444e+09 -1.595444e+09 -1.550113e+02 -3.122715e+02 -4.274905e+01
-2.697980e+09 -2.497982e+09 -2.657980e+09 1.362882e+02 3.636081e+01 -2.976764e+00
-1.657151e+09 -1.457150e+09 -1.617150e+09 -6.280357e+01 -1.219130e+02 -5.973893e+00
-2.177369e+09 -1.977372e+09 -2.137369e+09 5.212024e+01 8.193787e+00 -9.321695e+00
-2.161151e+09 -1.961151e+09 -2.121151e+09 -1.924582e+01 -7.106440e+00 2.202249e+00
-4.272070e+09 -4.072070e+09 -4.232077e+09 1.556091e+03 2.860160e+03 -1.095907e+03
-1.691173e+09 -1.491175e+09 -1.651173e+09 1.257268e+02 1.553013e+00 1.901240e+01
-1.997594e+09 -1.797593e+09 -1.957593e+09 1.531220e+02 -1.311035e+02 -4.000617e+00
-1.844692e+09 -1.644691e+09 -1.804691e+09 -1.802452e+02 -9.145272e+01 -2.000054e+01
-3.999088e+09 -3.799088e+09 -3.959088e+09 -2.073545e+02 -2.378165e+01 -2.663731e+01
-3.881776e+09 -3.681776e+09 -3.841775e+09 -4.118982e+01 -1.882285e+00 -4.979885e+01
-1.951680e+09 -1.751680e+09 -1.911679e+09 -2.316811e+02 -1.506521e+02 5.665816e+00
-3.414530e+09 -3.214530e+09 -3.374530e+09 4.133727e+02 -2.682993e+02 1.150403e+02
-2.254079e+09 -2.054078e+09 -2.214078e+09 -4.927443e+01 -2.462210e+01 -3.405309e+01
-1.657212e+09 -1.457211e+09 -1.617211e+09 -1.531562e+01 -4.796181e+01 1.089181e+01
-2.630314e+09 -2.430314e+09 -2.590314e+09 7.584285e+01 -9.222526e+01 -1.704518e+01
-3.039392e+09 -2.839391e+09 -2.999391e+09 1.869780e+02 -1.492633e+02 4.913458e+01
-2.597196e+09 -2.397196e+09 -2.557197e+09 2.928356e+01 2.338983e+02 -1.360339e+01
-1.926675e+09 -1.726675e+09 -1.886676e+09 3.318777e+01 2.421347e+02 -5.472174e+00
-4.984514e+09 -4.784515e+09 -4.944515e+09 3.081508e+01 -5.441398e+00 -9.800225e+00
-3.809730e+09 -3.609731e+09 -3.769731e+09 6.978035e+00 -1.016455e+00 -3.879564e-03
-3.607927e+09 -3.407928e+09 -3.567928e+09 1.925851e+02 4.621020e+00 -9.127767e+00
-4.988092e+09 -4.788095e+09 -4.948093e+09 -7.652523e+01 2.381174e+01 7.558683e+00
-4.929399e+09 -4.729398e+09 -4.889399e+09 6.212275e-01 -1.712305e+00 1.070362e+00
-4.256962e+09 -4.056965e+09 -4.216962e+09 -1.761774e+02 2.859290e+01 -1.711614e+01
-3.616799e+09 -3.416802e+09 -3.576800e+09 6.390179e+01 6.319380e+01 -7.711391e+00
-3.662010e+09 -3.462010e+09 -3.622010e+09 -7.956196e+02 -4.084418e+02 -1.908289e+02
-1.730633e+09 -1.530634e+09 -1.690632e+09 -8.325666e+02 -5.781021e+02 -1.541557e+02
-4.615623e+09 -4.415622e+09 -4.575622e+09 1.478512e+00 -2.084022e-01 0.000000e+00
-2.200564e+09 -2.000565e+09 -2.160563e+09 5.545827e+02 2.690894e+01 -1.337747e+01
-4.138251e+09 -3.938255e+09 -4.098254e+09 -7.993544e+01 -6.328563e+02 3.702855e+01
-2.600244e+09 -2.400248e+09 -2.560245e+09 -3.292088e+01 -1.166154e+02 3.345236e+01
-2.177418e+09 -1.977422e+09 -2.137419e+09 -4.671094e+01 -8.531513e+01 -1.501147e+01
-1.636086e+09 -1.436090e+09 -1.596087e+09 -5.229447e+01 -1.505656e+02 1.530820e+01
-2.992563e+09 -2.792563e+09 -2.952563e+09 1.742919e+01 4.926337e+00 -1.090901e+01
-4.966937e+09 -4.766936e+09 -4.926936e+09 1.015600e+01 -4.609220e+00 1.284235e+00
-1.872180e+09 -1.672180e+09 -1.832180e+09 8.069541e+00 1.295978e+01 3.894845e+00
-2.562778e+09 -2.362781e+09 -2.522779e+09 -7.595290e+01 -9.662771e+01 -2.511453e+01
-2.983660e+09 -2.783659e+09 -2.943659e+09 -4.492462e+01 -2.037940e+00 -2.112629e+01
-4.890118e+09 -4.690118e+09 -4.850118e+09 8.486420e+00 6.236868e-10 4.115570e+00
-2.962690e+09 -2.762693e+09 -2.922693e+09 -1.132333e+01 1.240485e+02 -4.099202e+00
-2.199984e+09 -1.999984e+09 -2.159984e+09 -6.749644e+00 -3.489344e+00 -6.994579e+00
-3.168825e+09 -2.968824e+09 -3.128824e+09 -3.016883e+01 -1.794269e+01 -3.855900e+01
-1.646201e+09 -1.446202e+09 -1.606202e+09 -3.235019e+02 2.247665e+02 -6.361043e+01
-4.123836e+09 -3.923835e+09 -4.083835e+09 -8.621384e+01 -6.909428e+00 -1.836255e+00
-3.244759e+09 -3.044761e+09 -3.204760e+09 -3.630026e+02 -2.246244e+02 -6.017109e+01
-1.935357e+09 -1.735356e+09 -1.895357e+09 2.138527e+01 2.698543e+02 -6.120117e+01
-2.605885e+09 -2.405884e+09 -2.565885e+09 7.302646e+01 2.185146e+02 -2.132109e+01
-4.123808e+09 -3.923808e+09 -4.083808e+09 -1.113379e+02 3.077295e+01 -8.684850e+00
-3.438113e+09 -3.238114e+09 -3.398114e+09 -5.931926e+02 -4.177750e+02 -1.352525e+02
-4.481106e+09 -4.281106e+09 -4.441105e+09 -1.725594e+02 -4.706308e+00 -1.385507e+01
-2.146187e+09 -1.946190e+09 -2.106187e+09 -2.482613e+02 -1.487094e+02 -4.597365e+01
-2.577583e+09 -2.377583e+09 -2.537582e+09 -7.659780e+01 -4.960238e+01 2.203497e+01
-4.981669e+09 -4.781669e+09 -4.941669e+09 -4.944089e+02 -1.679348e+02 1.042170e+01
-3.230304e+09 -3.030304e+09 -3.190304e+09 -8.393585e+02 -5.032670e+02 -2.288314e+02
-4.890117e+09 -4.690120e+09 -4.850118e+09 -6.849195e+01 -4.969072e-05 -3.865124e+01
-4.719002e+09 -4.519004e+09 -4.679003e+09 -2.471871e+02 -1.464344e+02 -7.115229e+01
-5.011042e+09 -4.811046e+09 -4.971045e+09 1.014964e+02 -2.005503e+02 -8.922318e+00
-4.165478e+09 -3.965478e+09 -4.125478e+09 5.980524e+01 1.648257e+01 -1.601753e+00
-4.814708e+09 -4.614711e+09 -4.774709e+09 8.061350e+02 1.817849e+02 -2.622778e+01
-4.316985e+09 -4.116987e+09 -4.276989e+09 -5.658779e+02 -1.455912e+03 -1.485164e+02
-5.004362e+09 -4.804364e+09 -4.964362e+09 1.065285e+03 6.350544e+01 -1.440770e+01
-4.976833e+09 -4.776836e+09 -4.936836e+09 -4.297049e+02 -2.020362e+02 -1.131480e+01
-3.959920e+09 -3.759922e+09 -3.919922e+09 -1.012907e+03 -8.817257e+02 -1.857459e+02
-4.625022e+09 -4.425025e+09 -4.585024e+09 -5.983678e+02 -1.941741e+02 -3.256872e+01
-1.673946e+09 -1.473949e+09 -1.633947e+09 -1.383008e+03 -1.146375e+03 -3.598068e+02
-1.597615e+09 -1.397619e+09 -1.557616e+09 -3.822971e+02 -5.469316e+02 -4.384119e+01
-5.011398e+09 -4.811400e+09 -4.971399e+09 1.181474e+03 3.158388e+02 -4.924081e+01
-4.497849e+09 -4.297851e+09 -4.457850e+09 -6.774889e+02 -1.279997e+02 8.066557e+00
-3.968194e+09 -3.768197e+09 -3.928197e+09 -8.454361e+02 -1.146284e+03 -1.812021e+02
-3.093870e+09 -2.893872e+09 -3.053871e+09 -3.715973e+02 -2.672863e+02 3.297388e+01
-3.974663e+09 -3.774666e+09 -3.934664e+09 1.154976e+03 1.035050e+02 -1.173878e+02
-4.658893e+09 -4.458896e+09 -4.618893e+09 6.985649e+02 7.790562e+01 -1.938694e+01
-3.981700e+09 -3.781703e+09 -3.941701e+09 1.243857e+03 5.194464e+02 -6.511940e+01
-4.993186e+09 -4.793185e+09 -4.953192e+09 -7.015085e+02 -9.321841e+02 -1.112428e+02
-4.474882e+09 -4.274878e+09 -4.434880e+09 -1.527346e+03 -1.449284e+02 -4.254244e+02
-3.951337e+09 -3.751337e+09 -3.911337e+09 1.525399e+02 -1.474421e+02 4.060237e+01
-4.620456e+09 -4.420456e+09 -4.580456e+09 1.477505e+02 -3.146831e+01 1.059975e+01
-4.802773e+09 -4.602773e+09 -4.762773e+09 4.523481e+02 -5.525997e+01 -1.444482e+01
-3.963425e+09 -3.763422e+09 -3.923425e+09 4.019997e+02 3.790259e+02 -3.956263e+02
-4.659303e+09 -4.459300e+09 -4.619302e+09 -8.882090e+02 -3.256966e+01 -2.311863e+02
-4.995005e+09 -4.795006e+09 -4.955006e+09 -8.548205e+01 -9.117048e+00 3.709012e+00
-1.929746e+09 -1.729750e+09 -1.889747e+09 -8.438826e+01 -1.741541e+02 -4.753261e+01
-3.946938e+09 -3.746939e+09 -3.906938e+09 -1.661538e+02 -2.487496e+00 5.845681e+00
-4.807875e+09 -4.607876e+09 -4.767876e+09 -2.197846e+02 -7.492233e+00 2.851198e+01
-1.630128e+09 -1.430129e+09 -1.590129e+09 -6.077203e+01 -1.005603e+01 8.386108e+00
-1.644613e+09 -1.444617e+09 -1.604614e+09 -2.544868e+02 -1.524631e+02 -2.352975e-01
-4.894097e+09 -4.694098e+09 -4.854098e+09 -2.696419e+01 -2.165127e+00 1.150639e+00
-4.459675e+09 -4.259675e+09 -4.419675e+09 2.741582e+02 -1.002937e+02 3.703447e+01
-3.951825e+09 -3.751825e+09 -3.911825e+09 -3.566000e+01 -8.459724e+01 3.520405e+00
-3.428515e+09 -3.228515e+09 -3.388515e+09 2.679427e+02 -1.541676e+02 6.953498e+01
-1.673962e+09 -1.473968e+09 -1.633964e+09 1.464337e+02 -1.497819e+03 1.475018e+02
-1.673890e+09 -1.473896e+09 -1.633892e+09 -5.434645e+02 -1.496757e+03 -9.481303e+01
-3.953959e+09 -3.753951e+09 -3.913954e+09 2.099826e+03 2.101453e+03 -9.535461e+02
-4.295899e+09 -4.095898e+09 -4.255906e+09 -4.089984e+02 -2.540062e+03 -3.517821e+01
-4.131053e+09 -3.931054e+09 -4.091059e+09 -1.939712e+01 -2.003884e+03 3.312794e+02
-3.965423e+09 -3.765426e+09 -3.925429e+09 -2.740800e+02 -1.766303e+03 6.257023e+01
-1.892282e+09 -1.692285e+09 -1.852283e+09 -6.960892e+01 -9.863866e+01 3.535879e+01
-3.276711e+09 -3.076712e+09 -3.236712e+09 1.469157e+01 2.156049e+00 -1.032342e+01
-2.272446e+09 -2.072447e+09 -2.232447e+09 -9.157904e+01 -1.114977e+01 -2.945667e+00
-4.660218e+09 -4.460220e+09 -4.620222e+09 -5.818777e+02 -4.798750e+02 -3.868244e+01
-4.972932e+09 -4.772930e+09 -4.932932e+09 1.004869e+02 -1.007142e+02 -8.610730e+01
-4.626509e+09 -4.426510e+09 -4.586511e+09 -8.023754e+02 -2.744480e+02 -4.742127e+01
-2.124174e+09 -1.924175e+09 -2.084175e+09 -1.692560e+01 5.606316e+00 9.996839e-01
-4.476192e+09 -4.276195e+09 -4.436195e+09 3.853785e+02 -5.804649e+02 4.621740e+01
-1.628664e+09 -1.428666e+09 -1.588664e+09 1.297271e+02 9.351569e+00 2.457420e+01
-3.913014e+09 -3.713017e+09 -3.873016e+09 -7.448990e+02 -6.000934e+02 -1.247458e+02
-4.118950e+09 -3.918953e+09 -4.078953e+09 -4.513879e+02 -7.276867e+02 -8.612133e+01
-2.105764e+09 -1.905766e+09 -2.065763e+09 4.906792e+01 1.199991e+01 1.355634e+00
-4.316407e+09 -4.116409e+09 -4.276411e+09 -2.101305e+02 -1.341971e+03 6.751515e+01
-4.990558e+09 -4.790558e+09 -4.950564e+09 -2.941238e+02 -8.414810e+02 7.071623e+01
-1.816342e+09 -1.616344e+09 -1.776342e+09 1.987218e+02 2.144267e+01 4.332241e+01
-3.376236e+09 -3.176239e+09 -3.336237e+09 5.867398e+02 8.307314e+01 -2.500590e+01
-3.965629e+09 -3.765628e+09 -3.925629e+09 3.752118e+02 -3.066697e+02 2.160485e+02
-2.847093e+09 -2.647096e+09 -2.807093e+09 2.601121e+02 3.409644e+01 2.013359e+01
-3.956236e+09 -3.756235e+09 -3.916237e+09 2.648824e+01 -2.989924e+02 2.723652e+02
-4.622395e+09 -4.422389e+09 -4.582381e+09 2.270263e+03 2.483597e+03 6.137535e+02
-3.935163e+09 -3.735166e+09 -3.895155e+09 3.177871e+03 2.562147e+03 5.228403e+03
-1.684378e+09 -1.484382e+09 -1.644383e+09 -6.339699e+02 5.243626e+01 8.282810e+02
-1.944849e+09 -1.744852e+09 -1.904849e+09 1.135283e+02 2.744027e+01 2.483502e+01
-4.298548e+09 -4.098548e+09 -4.258549e+09 -1.405109e+03 -1.535946e+02 1.415603e+02
-1.929687e+09 -1.729689e+09 -1.889687e+09 2.767879e+01 1.322878e+01 6.017054e-01
-4.119330e+09 -3.919326e+09 -4.079318e+09 2.244016e+03 2.693615e+03 2.684003e+03
-4.672021e+09 -4.472019e+09 -4.632027e+09 -1.186085e+03 9.396353e+02 1.434904e+03
-4.832083e+09 -4.632082e+09 -4.792092e+09 -2.145553e+02 1.323249e+03 -9.300321e+00
-1.636096e+09 -1.436099e+09 -1.596097e+09 4.304754e+01 1.865377e+01 2.184700e+01
-4.647085e+09 -4.447085e+09 -4.607090e+09 -1.602828e+03 1.220375e+03 2.897398e+02
-4.461098e+09 -4.261100e+09 -4.421099e+09 1.669591e+03 2.814201e+02 2.611612e+02
-4.841254e+09 -4.641254e+09 -4.801255e+09 1.962183e+03 2.520482e+01 -3.692058e+02
-4.453764e+09 -4.253764e+09 -4.413764e+09 -2.260100e+02 2.265408e+01 -1.614441e+01
-4.986227e+09 -4.786226e+09 -4.946226e+09 -9.283042e+01 -2.566908e+01 -2.649841e+00
-4.076757e+09 -3.876758e+09 -4.036757e+09 -2.984311e+02 -5.290132e-01 -2.814813e+01
-4.983067e+09 -4.783067e+09 -4.943066e+09 -1.285616e+02 -4.263961e+01 -9.646086e+00
-3.965362e+09 -3.765353e+09 -3.925349e+09 -1.210132e+03 -7.795494e+03 -5.568945e+02
-4.984805e+09 -4.784806e+09 -4.944805e+09 -1.098271e+02 1.613103e+00 1.075639e+01
-3.921396e+09 -3.721391e+09 -3.881404e+09 2.911388e+02 1.597934e+03 2.046257e+03
-4.704227e+09 -4.504225e+09 -4.664208e+09 6.504335e+01 -2.032750e+03 -1.266957e+03
-4.995068e+09 -4.795064e+09 -4.955050e+09 -2.570463e+02 -1.081243e+03 -2.986487e+02
-4.463825e+09 -4.263817e+09 -4.423823e+09 7.954976e+01 -2.128540e+03 -1.779258e+03
-4.006147e+09 -3.806148e+09 -3.966147e+09 -1.588053e+01 1.996637e+01 -2.809229e+01
-3.937098e+09 -3.737087e+09 -3.897089e+09 6.754377e+02 -6.373549e+03 -6.382127e+02
-4.807057e+09 -4.607050e+09 -4.767055e+09 3.867948e+02 -1.828580e+03 -1.592867e+03
-3.965367e+09 -3.765356e+09 -3.925351e+09 1.978226e+03 -7.318129e+03 -2.237245e+03
-4.606039e+09 -4.406041e+09 -4.566039e+09 -2.580849e+02 1.210631e+02 -1.377567e+00
-4.302415e+09 -4.102414e+09 -4.262413e+09 -2.120241e+03 1.142822e+03 -5.741644e+02
-3.959183e+09 -3.759180e+09 -3.919183e+09 -1.992633e+03 1.051818e+03 5.660040e+02
-3.971398e+09 -3.771396e+09 -3.931398e+09 -1.783155e+03 9.842699e+02 6.363363e+02
-4.607927e+09 -4.407926e+09 -4.567927e+09 -1.282206e+03 2.072315e+02 2.508760e+02
-4.820741e+09 -4.620742e+09 -4.780739e+09 -1.596445e+03 -6.014509e+02 7.015315e+01
-4.710186e+09 -4.510186e+09 -4.670185e+09 -1.099663e+02 5.661104e+01 -5.535840e-01
-3.677703e+09 -3.477705e+09 -3.637703e+09 -6.242519e+00 6.951655e+00 -4.658060e+00
-1.586865e+09 -1.386864e+09 -1.546864e+09 4.302456e+02 1.394061e+02 -2.063220e+01
-4.134796e+09 -3.934795e+09 -4.094797e+09 -8.423915e+02 -5.730678e+02 -4.806015e+02
-4.827680e+09 -4.627681e+09 -4.787680e+09 -8.030815e+02 -7.509372e+01 -4.909452e+01
-1.588676e+09 -1.388676e+09 -1.548676e+09 -4.459946e+01 5.725230e+01 -6.376643e+01
-3.400060e+09 -3.200060e+09 -3.360060e+09 -2.518143e+02 -1.324876e+01 -3.611428e+01
-3.644390e+09 -3.444391e+09 -3.604389e+09 -3.816764e+00 1.421760e-01 -6.965519e+00
-4.710186e+09 -4.510187e+09 -4.670185e+09 -9.601070e+01 -4.601520e+01 -1.086970e+01
-3.144453e+09 -2.944453e+09 -3.104453e+09 -1.769845e+02 -2.347066e+01 5.384211e+00
-1.964595e+09 -1.764596e+09 -1.924596e+09 -2.293976e+02 -1.030738e+01 2.779384e+00
-2.605281e+09 -2.405281e+09 -2.565281e+09 -1.215822e+02 -2.394422e+01 -8.994758e+00
-3.580297e+09 -3.380297e+09 -3.540297e+09 -5.382126e+01 -8.096922e+00 -2.935344e+00
-2.893612e+09 -2.693612e+09 -2.853612e+09 -2.086692e+02 -3.005595e+01 -5.486100e+00
-1.965675e+09 -1.765675e+09 -1.925675e+09 -2.095136e+02 -1.521440e+01 -5.300652e+00
-4.477509e+09 -4.277508e+09 -4.437508e+09 1.524552e+03 5.207582e+02 -1.944023e+03
-4.820741e+09 -4.620740e+09 -4.780737e+09 1.980385e+03 6.043349e+02 -3.246909e+02
-4.477510e+09 -4.277505e+09 -4.437509e+09 1.317801e+03 -3.994259e+02 1.061831e+03
-1.603275e+09 -1.403276e+09 -1.563275e+09 4.026208e+01 8.740867e+00 1.237607e+01
-4.134275e+09 -3.934273e+09 -4.094270e+09 1.747518e+03 -1.586860e+03 -1.222385e+03
-1.972380e+09 -1.772381e+09 -1.932381e+09 4.785408e+00 -1.806730e+00 9.132728e+00
-4.131843e+09 -3.931843e+09 -4.091843e+09 3.562737e+02 8.373887e-01 -3.496521e+01
-3.969010e+09 -3.769009e+09 -3.929009e+09 1.956455e+02 3.881312e+01 -2.199464e+01
-1.676613e+09 -1.476614e+09 -1.636614e+09 -1.286348e+02 -1.666581e+01 1.528113e+01
-4.523514e+09 -4.323514e+09 -4.483514e+09 3.054265e+02 -5.348028e+00 -3.691990e+01
-4.285840e+09 -4.085840e+09 -4.245840e+09 4.130305e+02 -4.038801e+01 -1.115790e+02
-4.629072e+09 -4.429072e+09 -4.589072e+09 4.175068e+02 4.537494e+01 1.711855e+01
-4.227384e+09 -4.027385e+09 -4.187385e+09 4.584434e+01 6.885466e+00 1.827737e+01
-4.104497e+09 -3.904495e+09 -4.064498e+09 6.324829e+02 -3.152264e+02 -3.787727e+02
-2.326025e+09 -2.126026e+09 -2.286026e+09 -9.446192e+01 -3.482691e+00 -4.328697e-01
-5.003572e+09 -4.803570e+09 -4.963573e+09 1.126877e+03 -5.382482e+01 -5.879170e+01
-4.601953e+09 -4.401951e+09 -4.561954e+09 6.342949e+02 -1.456666e+02 -2.715015e+02
-4.375036e+09 -4.175035e+09 -4.335036e+09 -3.415789e+01 -2.271857e+00 -3.134737e-01
-2.483200e+09 -2.283200e+09 -2.443200e+09 -1.072795e+02 -2.377150e+01 7.393845e+00
-4.942340e+09 -4.742339e+09 -4.902339e+09 -7.210581e+01 2.652527e+00 -7.461718e+00
-4.427690e+09 -4.227689e+09 -4.387689e+09 -1.736323e+01 -1.777288e+00 -3.781679e+00
-4.970425e+09 -4.770424e+09 -4.930425e+09 -5.145982e+01 5.380556e+00 6.358704e+00
-4.475394e+09 -4.275397e+09 -4.435395e+09 9.924547e+02 2.355836e+02 -5.492015e+01
-3.974664e+09 -3.774666e+09 -3.934664e+09 9.936611e+02 1.697208e+02 3.892495e+00
-4.357488e+09 -4.157488e+09 -4.317487e+09 1.524320e+01 4.333074e+00 1.020054e+01
-1.598965e+09 -1.398964e+09 -1.558964e+09 -2.170051e+02 -1.487077e+02 2.149571e+01
-4.624496e+09 -4.424497e+09 -4.584495e+09 1.635514e+01 0.000000e+00 -4.354213e+00
-4.971102e+09 -4.771102e+09 -4.931104e+09 -7.317809e+02 -3.967808e+02 -7.076328e+01
-2.359231e+09 -2.159233e+09 -2.319231e+09 -1.121412e+03 -6.929322e+02 -2.767988e+02
-4.739501e+09 -4.539500e+09 -4.699501e+09 -5.464893e+02 -3.662052e+01 -6.524590e+01
-4.450657e+09 -4.250658e+09 -4.410656e+09 3.539932e+01 -1.650558e+01 3.914628e-01
-4.606915e+09 -4.406916e+09 -4.566916e+09 -7.942821e+02 -3.377395e+02 -3.953913e+01
-3.662757e+09 -3.462757e+09 -3.622757e+09 -6.102650e+02 -4.007870e+02 -1.646404e+02
-4.013605e+09 -3.813604e+09 -3.973604e+09 -1.601880e+02 -4.460921e+01 3.550049e+00
-4.027529e+09 -3.827530e+09 -3.987529e+09 -2.994067e+02 -1.728157e+02 -5.345678e+01
-3.272533e+09 -3.072531e+09 -3.232533e+09 -5.254571e+02 -6.772953e+02 -3.882034e+02
-4.963407e+09 -4.763407e+09 -4.923407e+09 4.793028e+01 -1.851755e+01 1.793668e+01
-3.018098e+09 -2.818097e+09 -2.978097e+09 -1.691291e+01 -2.870961e+01 -4.395660e+01
-5.014106e+09 -4.814106e+09 -4.974107e+09 -6.006998e+02 -1.533054e+02 -1.113811e+02
-3.984408e+09 -3.784408e+09 -3.944409e+09 -1.095116e+03 -1.889374e+02 -2.146556e+02
-4.566516e+09 -4.366516e+09 -4.526515e+09 1.215813e+02 -1.149129e+01 2.404534e+00
-3.350268e+09 -3.150267e+09 -3.310268e+09 2.523286e+01 -6.281450e+01 1.661135e+01
-3.165799e+09 -2.965797e+09 -3.125798e+09 -5.447561e+02 -3.935228e+02 -1.558534e+02
-4.892350e+09 -4.692351e+09 -4.852349e+09 6.224073e+01 -2.487450e-05 -4.955794e+00
-4.327641e+09 -4.127640e+09 -4.287641e+09 -6.410348e+02 -3.276920e+02 -1.769409e+02
-4.979574e+09 -4.779577e+09 -4.939574e+09 1.571003e+02 1.068847e+01 -4.281009e+01
-2.785517e+09 -2.585518e+09 -2.745520e+09 1.939716e+03 4.934461e+02 1.058949e+02
-4.321900e+09 -4.121902e+09 -4.281900e+09 4.785760e+01 4.843386e+00 2.662689e+01
-4.929399e+09 -4.729398e+09 -4.889399e+09 9.527026e+00 -1.708500e+00 -1.275686e+00
-5.000862e+09 -4.800861e+09 -4.960861e+09 2.038551e+03 -1.334960e+01 4.335857e+02
-4.966937e+09 -4.766936e+09 -4.926936e+09 9.640003e+00 -4.619755e+00 9.023466e-01
-5.003806e+09 -4.803805e+09 -4.963806e+09 1.311333e+03 -2.618620e+01 9.507447e+01
-4.804330e+09 -4.604332e+09 -4.764332e+09 1.669311e+03 2.330871e+01 1.413112e+02
-1.636086e+09 -1.436087e+09 -1.596087e+09 -9.901491e+00 -2.241292e+01 1.226327e+00
-4.763863e+09 -4.563862e+09 -4.723862e+09 5.202836e+01 4.393938e-02 -7.196689e+00
-4.027051e+09 -3.827050e+09 -3.987051e+09 2.010056e+01 3.230159e+00 3.968072e+00
-4.956695e+09 -4.756695e+09 -4.916695e+09 2.637317e+01 -2.141370e+00 3.094225e+00
-3.686041e+09 -3.486043e+09 -3.646041e+09 1.490535e+02 1.445839e+01 9.703562e+00
-4.006057e+09 -3.806056e+09 -3.966057e+09 3.391057e+01 4.395844e+00 -1.139898e+01
-1.918697e+09 -1.718701e+09 -1.878698e+09 -1.754274e+01 -1.364419e+02 -2.421168e+01
-1.632567e+09 -1.432566e+09 -1.592566e+09 1.383044e+01 3.774243e+00 -1.106297e+01
-4.956695e+09 -4.756695e+09 -4.916695e+09 5.448051e+01 -2.488690e+00 -8.753563e+00
-4.709741e+09 -4.509740e+09 -4.669740e+09 -2.812977e+01 2.013486e+01 -5.390827e+00
-2.772371e+09 -2.572371e+09 -2.732372e+09 2.905761e+01 1.656645e+02 -1.367049e+01
-4.967374e+09 -4.767373e+09 -4.927373e+09 -3.682379e+02 -4.831036e+01 -4.680037e+01
-4.709210e+09 -4.509210e+09 -4.669209e+09 -4.525854e+01 3.091982e+01 -8.708252e+00
-1.601372e+09 -1.401373e+09 -1.561373e+09 -7.151630e+02 -2.192267e+01 3.253529e+02
-4.810154e+09 -4.610154e+09 -4.770155e+09 -5.467780e+02 1.652473e+02 -2.992680e+02
-2.781033e+09 -2.581032e+09 -2.741033e+09 8.246917e+01 1.834123e+02 -1.954390e+01
-1.585557e+09 -1.385560e+09 -1.545558e+09 1.872680e+02 2.923282e+01 2.266553e+01
-3.698298e+09 -3.498299e+09 -3.658298e+09 1.124159e+00 -3.479519e-01 3.705480e-02
-3.239140e+09 -3.039141e+09 -3.199141e+09 -6.969668e+01 -4.999452e+00 4.575398e+00
-3.050127e+09 -2.850130e+09 -3.010127e+09 1.039492e+02 1.269565e-01 6.961059e+00
-3.013944e+09 -2.813946e+09 -2.973945e+09 9.112301e+02 -8.237872e+02 3.228401e+02
-1.611075e+09 -1.411077e+09 -1.571075e+09 1.335183e+02 -4.071458e+00 3.059445e+01
-1.567149e+09 -1.367152e+09 -1.527150e+09 4.576216e+01 -8.974729e+00 -1.762267e+00
-2.500133e+09 -2.300136e+09 -2.460134e+09 3.569004e+01 7.903243e+00 1.975646e+01
-4.144388e+09 -3.944389e+09 -4.104389e+09 -7.716049e+02 2.064537e+01 -1.004272e+02
-4.367081e+09 -4.167082e+09 -4.327081e+09 -8.411149e+01 -2.067316e+00 -3.690472e+00
-4.651773e+09 -4.451774e+09 -4.611773e+09 -7.730285e+01 2.170948e+00 -2.492259e+00
-4.890117e+09 -4.690121e+09 -4.850119e+09 -2.178186e+01 -4.973442e-05 -9.170815e+00
-2.607354e+09 -2.407359e+09 -2.567355e+09 1.354142e+02 -1.125196e+03 1.542102e+02
-5.011351e+09 -4.811351e+09 -4.971351e+09 1.464269e+02 -1.050529e+01 3.098204e+00
-4.972739e+09 -4.772740e+09 -4.932740e+09 5.371366e+02 -8.244691e+01 4.001525e+01
-4.984043e+09 -4.784043e+09 -4.944042e+09 -2.574328e+02 -6.247455e+01 -1.914522e+01
-2.071743e+09 -1.871744e+09 -2.031743e+09 -2.142347e+02 3.060777e+01 -3.301081e+01
-4.970226e+09 -4.770227e+09 -4.930226e+09 -1.378656e+02 -6.960334e-01 -2.852673e+00
-3.119131e+09 -2.919131e+09 -3.079131e+09 -5.003523e+01 -6.285079e+00 -1.042086e+00
-4.983598e+09 -4.783598e+09 -4.943597e+09 -2.717383e+01 2.797265e-01 3.916767e+00
-4.971517e+09 -4.771518e+09 -4.931517e+09 -8.028261e+01 2.239553e+00 2.036671e+00
-3.621994e+09 -3.421994e+09 -3.581994e+09 1.677846e+01 -2.047464e-01 -1.849137e+01
-4.976697e+09 -4.776701e+09 -4.936698e+09 2.296319e+02 9.569689e+00 1.901459e+01
-4.204796e+09 -4.004797e+09 -4.164796e+09 -1.043423e+02 1.250811e+01 -1.235377e+01
-3.462427e+09 -3.262430e+09 -3.422428e+09 2.071771e+01 1.792236e+01 -9.935537e+00
-4.710948e+09 -4.510949e+09 -4.670948e+09 -7.130222e+01 4.266634e+01 -3.914952e+00
-4.055556e+09 -3.855556e+09 -4.015555e+09 -6.640032e+01 1.243445e+01 -1.977917e+01
-4.308771e+09 -4.108771e+09 -4.268770e+09 5.203007e+02 -1.041454e+01 3.791012e+01
-4.890118e+09 -4.690118e+09 -4.850118e+09 1.539719e+01 2.487081e-05 6.581629e+00
-2.211588e+09 -2.011588e+09 -2.171588e+09 -5.750876e+01 -1.324789e+01 -2.657651e+01
-4.615156e+09 -4.415159e+09 -4.575156e+09 -5.117765e+00 8.941647e+00 1.109704e+00
-4.983585e+09 -4.783588e+09 -4.943585e+09 -1.301573e+02 -2.239005e+00 2.662641e+00
-2.709021e+09 -2.509022e+09 -2.669020e+09 2.442223e+02 7.256683e+01 1.652548e+01
-5.015692e+09 -4.815693e+09 -4.975691e+09 7.294420e+02 -1.087847e+01 1.627248e+01
-4.997259e+09 -4.797256e+09 -4.957259e+09 -7.621808e+02 -8.204454e+00 -7.498281e+01
-3.967562e+09 -3.767559e+09 -3.927562e+09 -2.106001e+00 3.902388e+02 -6.068012e+02
-3.411428e+09 -3.211431e+09 -3.371428e+09 1.344176e+00 3.368231e+01 -1.510060e+01
-4.983585e+09 -4.783588e+09 -4.943585e+09 -1.015934e+02 9.102052e+00 1.650093e+01
-4.632589e+09 -4.432586e+09 -4.592591e+09 1.012870e+03 3.996322e+02 -3.716484e+02
-3.969103e+09 -3.769103e+09 -3.929103e+09 -4.442134e+02 -1.341466e+01 2.611833e+01
-3.954846e+09 -3.754843e+09 -3.914848e+09 -1.187403e+03 -2.357849e+02 9.155843e+02
-4.140539e+09 -3.940539e+09 -4.100539e+09 -2.858762e+02 3.238316e+00 -1.279485e+01
-3.385415e+09 -3.185417e+09 -3.345416e+09 3.010891e+01 -6.463957e+01 1.155740e+01
-4.832604e+09 -4.632605e+09 -4.792605e+09 5.769632e+02 -1.477020e+02 3.113312e+01
-4.512541e+09 -4.312540e+09 -4.472541e+09 1.403237e+02 1.355008e+01 -2.432193e+01
-4.639102e+09 -4.439101e+09 -4.599104e+09 4.850946e+02 -2.766897e+02 3.271020e+02
-3.963890e+09 -3.763892e+09 -3.923894e+09 5.115921e+02 -1.576348e+03 5.131773e+02
-3.966285e+09 -3.766284e+09 -3.926288e+09 5.963755e+02 -1.139497e+03 9.323044e+02
-4.002316e+09 -3.802315e+09 -3.962315e+09 4.216883e+02 7.530359e+01 8.077054e+01
-4.468868e+09 -4.268869e+09 -4.428869e+09 6.707318e+02 -2.679169e+02 1.737750e+02
-4.139069e+09 -3.939069e+09 -4.099069e+09 3.340119e+02 7.360153e+00 -2.381547e+01
-3.959920e+09 -3.759922e+09 -3.919922e+09 -1.213194e+03 -9.876441e+02 -3.716436e+02
-4.639333e+09 -4.439336e+09 -4.599336e+09 -6.266659e+02 -3.370695e+02 -8.407922e+01
-4.123621e+09 -3.923619e+09 -4.083627e+09 -8.361420e+02 -2.200619e+03 -4.984424e+02
-4.998708e+09 -4.798707e+09 -4.958708e+09 3.160503e+02 -3.028069e+01 -2.197912e+01
-4.823704e+09 -4.623707e+09 -4.783709e+09 -4.008517e+02 -6.937654e+02 -2.100925e+01
-4.671244e+09 -4.471244e+09 -4.631244e+09 -3.804074e+02 -1.533649e+01 3.609203e+01
-4.823155e+09 -4.623155e+09 -4.783155e+09 -4.419676e+02 -3.260053e+01 7.881982e+01
-4.151151e+09 -3.951151e+09 -4.111151e+09 -2.747301e+02 -4.789567e+01 -2.821773e+01
-5.000488e+09 -4.800489e+09 -4.960492e+09 -8.492841e+02 -6.829946e+02 -5.941197e+01
-4.834406e+09 -4.634407e+09 -4.794410e+09 -7.781220e+02 -6.159326e+02 -5.651668e+01
-4.820047e+09 -4.620045e+09 -4.780049e+09 1.661964e+03 3.950836e+02 9.981191e+01
-4.479922e+09 -4.279922e+09 -4.439922e+09 -3.812261e+02 -2.503394e+01 2.080602e+01
-3.953354e+09 -3.753348e+09 -3.913349e+09 -2.715101e+03 -1.536201e+03 -6.320172e+01
-3.958948e+09 -3.758942e+09 -3.918948e+09 -4.667596e+02 3.665136e+02 -1.621734e+03
-4.642398e+09 -4.442402e+09 -4.602402e+09 -2.676011e+02 3.604687e+02 -2.653132e+00
-3.950415e+09 -3.750420e+09 -3.910420e+09 -1.269438e+02 1.640784e+03 1.105190e+01
-4.148252e+09 -3.948256e+09 -4.108254e+09 3.173953e+02 3.973297e+02 -1.158045e+01
-4.300634e+09 -4.100637e+09 -4.260637e+09 -1.013067e+03 7.644010e+02 1.557772e+02
-4.656262e+09 -4.456266e+09 -4.616264e+09 1.118887e+02 1.905049e+02 -3.514592e+01
-4.964381e+09 -4.764382e+09 -4.924389e+09 9.223399e+02 1.312381e+03 -2.865383e+02
-4.151920e+09 -3.951923e+09 -4.111921e+09 6.367294e+02 2.196030e+02 -3.327151e+01
-3.965431e+09 -3.765431e+09 -3.925431e+09 2.605461e+02 2.739327e+01 -6.426397e-01
-4.818309e+09 -4.618309e+09 -4.778309e+09 3.593266e+02 9.249003e+00 2.618705e+00
-3.954783e+09 -3.754786e+09 -3.914784e+09 8.684559e+02 2.456500e+02 -9.792831e+01
-4.710031e+09 -4.510031e+09 -4.670031e+09 -1.789423e+02 6.494178e+01 2.783069e+01
-2.212356e+09 -2.012360e+09 -2.172357e+09 -3.777939e+01 -1.530413e+02 -6.397027e+00
-2.323360e+09 -2.123364e+09 -2.283362e+09 -7.151871e+02 -1.471887e+03 -2.842602e+02
-1.926773e+09 -1.726774e+09 -1.886774e+09 -1.247349e+01 -5.894027e+00 -1.311889e+00
-4.975015e+09 -4.775016e+09 -4.935016e+09 2.650279e+02 -1.147316e+01 -1.299010e+01
-1.623135e+09 -1.423136e+09 -1.583136e+09 -7.431975e+01 -1.302691e+01 1.490347e+01
-4.826655e+09 -4.626657e+09 -4.786647e+09 -2.679457e+03 -5.147043e+02 1.980400e+03
-4.801090e+09 -4.601095e+09 -4.761091e+09 -2.155980e+02 4.085176e+01 7.215687e+02
-1.911335e+09 -1.711336e+09 -1.871336e+09 -1.302155e+02 -1.241970e+01 1.763097e+01
-1.983304e+09 -1.783303e+09 -1.943303e+09 7.464354e+00 1.579219e+00 -2.122191e+01
-4.983779e+09 -4.783779e+09 -4.943779e+09 -1.641043e+02 -1.570029e+01 7.107261e+00
-1.674853e+09 -1.474852e+09 -1.634853e+09 3.865683e+01 -5.053678e+00 -2.692598e+01
-4.996235e+09 -4.796235e+09 -4.956235e+09 -2.308242e+00 2.257267e+01 1.252020e+01
-3.966537e+09 -3.766536e+09 -3.926536e+09 -1.683176e+01 1.337511e+01 -3.596348e+01
-3.968614e+09 -3.768613e+09 -3.928613e+09 5.786035e+01 1.830341e+01 -2.484072e+01
-4.012878e+09 -3.812877e+09 -3.972877e+09 2.351273e+01 1.196890e+01 -5.073560e+00
-4.802032e+09 -4.602032e+09 -4.762032e+09 5.325420e+02 -1.140363e+01 -5.502623e+01
-4.479235e+09 -4.279234e+09 -4.439235e+09 1.663009e+02 -1.131975e-01 -1.381964e+01
-2.158178e+09 -1.958178e+09 -2.118178e+09 2.685125e+01 -2.429278e+00 -7.768340e+00
-1.882166e+09 -1.682165e+09 -1.842165e+09 1.325455e+01 1.946869e+00 -1.640480e+01
-1.696865e+09 -1.496865e+09 -1.656865e+09 2.131969e+01 1.371270e+01 -2.130958e+01
-4.154990e+09 -3.954989e+09 -4.114989e+09 3.763093e+02 6.486565e+01 4.518481e+01
-3.513354e+09 -3.313354e+09 -3.473354e+09 3.243768e+01 1.592971e+00 -6.875705e+00
-4.855774e+09 -4.655773e+09 -4.815773e+09 1.796271e+02 -3.610140e+01 -5.586364e+01
-3.946338e+09 -3.746338e+09 -3.906338e+09 6.990022e+02 1.988500e+00 -3.728655e+01
-4.090730e+09 -3.890729e+09 -4.050729e+09 6.621394e+00 8.504689e+01 3.185961e+01
-5.005979e+09 -4.805979e+09 -4.965979e+09 -1.150858e+03 5.897974e+01 -1.457655e+02
-4.134973e+09 -3.934973e+09 -4.094973e+09 -1.001507e+03 -1.255193e+01 1.028624e+01
-3.976281e+09 -3.776281e+09 -3.936281e+09 -1.009169e+03 5.707024e+01 1.110861e+01
-3.976281e+09 -3.776281e+09 -3.936281e+09 -9.866195e+02 5.179481e+01 -1.437558e+02
-3.944314e+09 -3.744313e+09 -3.904314e+09 -1.320718e+03 7.166304e+01 3.612214e+02
-4.978752e+09 -4.778752e+09 -4.938751e+09 1.528810e+02 -3.960823e+01 -1.040146e+00
-4.822733e+09 -4.622735e+09 -4.782734e+09 -8.235145e+02 1.787471e+01 -3.592271e+02
-4.662928e+09 -4.462930e+09 -4.622928e+09 -8.500291e+02 5.152303e+01 -5.741503e+02
-4.477508e+09 -4.277509e+09 -4.437508e+09 -1.262159e+03 5.072973e+02 -8.437489e+01
-3.976464e+09 -3.776465e+09 -3.936464e+09 -8.430865e+02 5.774443e+01 -6.397216e+01
-4.471465e+09 -4.271467e+09 -4.431466e+09 -3.685820e+02 8.307005e+01 -2.887776e+02
-1.965834e+09 -1.765835e+09 -1.925834e+09 3.784046e+01 1.108289e+01 1.288299e+01
-4.910279e+09 -4.710284e+09 -4.870282e+09 3.583754e+01 1.779675e+00 6.508438e+01
-4.368791e+09 -4.168795e+09 -4.328794e+09 1.251957e+02 -1.392184e+01 2.823462e+01
-1.635444e+09 -1.435446e+09 -1.595444e+09 4.548166e+01 1.381867e+01 3.986498e+01
-1.573319e+09 -1.373322e+09 -1.533320e+09 2.169208e+01 -2.416159e+00 -1.365373e+01
-2.532917e+09 -2.332919e+09 -2.492917e+09 3.325462e+01 2.550174e+01 3.883356e+00
-4.633060e+09 -4.433062e+09 -4.593062e+09 1.561495e+02 -1.883632e+01 -1.062198e+02
-4.905169e+09 -4.705173e+09 -4.865172e+09 5.744515e+01 -1.259441e+00 -1.291942e-09
-3.448480e+09 -3.248478e+09 -3.408479e+09 1.562911e+02 1.957971e+02 -3.829691e+01
-4.991412e+09 -4.791416e+09 -4.951416e+09 1.231315e+02 3.659190e+02 1.697010e+00
-4.311529e+09 -4.111533e+09 -4.271532e+09 6.043727e+02 7.024061e+02 -5.917925e+01
-4.335895e+09 -4.135899e+09 -4.295899e+09 1.217517e+03 9.361082e+02 -1.130169e+02
-2.763412e+09 -2.563412e+09 -2.723412e+09 7.709687e+00 6.020635e+00 -2.494475e+01
-3.968194e+09 -3.768197e+09 -3.928197e+09 -8.723958e+02 -1.120025e+03 -2.515353e+02
-4.992556e+09 -4.792559e+09 -4.952560e+09 -3.905296e+02 -4.317206e+02 -1.447629e+01
-2.685673e+09 -2.485674e+09 -2.645673e+09 -6.354815e+01 2.189827e+01 -4.813441e+01
-5.005328e+09 -4.805329e+09 -4.965327e+09 -4.818968e+02 1.785136e+01 1.623112e+00
-3.766759e+09 -3.566762e+09 -3.726759e+09 -6.214810e+00 -9.089513e-02 1.483896e+00
-3.072454e+09 -2.872457e+09 -3.032454e+09 3.996749e+02 1.435914e+02 -2.530487e+01
-4.905147e+09 -4.705150e+09 -4.865148e+09 2.520802e+01 1.243454e-04 8.952341e-01
-4.983421e+09 -4.783425e+09 -4.943424e+09 4.179997e+02 3.361527e+01 3.803328e+01
-3.400834e+09 -3.200835e+09 -3.360834e+09 -2.103793e+00 3.903214e+00 -5.462287e+01
-3.812157e+09 -3.612158e+09 -3.772157e+09 -1.427897e+02 -2.912480e+01 -4.592761e+01
-4.002837e+09 -3.802839e+09 -3.962840e+09 6.062642e+02 -3.421243e+01 -7.519377e+01
-4.627381e+09 -4.427381e+09 -4.587379e+09 1.170263e+03 -1.587586e+02 -5.397061e+02
-1.578864e+09 -1.378865e+09 -1.538864e+09 2.201443e+02 6.162337e+01 2.251269e-02
-2.630715e+09 -2.430715e+09 -2.590714e+09 3.235477e+02 3.348470e+01 1.054314e+01
-4.112513e+09 -3.912513e+09 -4.072512e+09 1.386503e+02 5.926841e+00 -6.602606e+00
-4.469002e+09 -4.269001e+09 -4.429000e+09 1.356344e+03 -8.454299e+01 -3.439754e+02
-2.898836e+09 -2.698835e+09 -2.858835e+09 1.135901e+01 1.164048e+01 -2.368158e+01
-1.960354e+09 -1.760354e+09 -1.920354e+09 -2.256337e+01 3.176579e+00 -2.982273e+01
-4.031548e+09 -3.831547e+09 -3.991547e+09 3.915325e+00 -1.405994e+00 -1.407795e+01
-4.319130e+09 -4.119128e+09 -4.279129e+09 9.564315e+02 8.575087e+01 1.940401e+02
-1.917710e+09 -1.717710e+09 -1.877709e+09 -4.521210e+01 -2.625947e+01 -4.740647e+01
-3.956435e+09 -3.756432e+09 -3.916430e+09 1.572241e+03 -1.271960e+03 -2.513057e+01
-1.632567e+09 -1.432567e+09 -1.592566e+09 7.112090e+01 2.473021e+01 7.471560e+00
-4.623484e+09 -4.423485e+09 -4.583483e+09 -3.375968e+02 -4.376893e+00 -3.556987e+01
-4.003024e+09 -3.803016e+09 -3.963029e+09 -9.896928e+02 3.165813e+03 -1.172231e+02
-4.269457e+09 -4.069453e+09 -4.229460e+09 -1.538432e+03 -7.809253e+02 3.728965e+02
-1.585608e+09 -1.385609e+09 -1.545608e+09 -1.250118e+02 5.845585e+01 -7.564069e+01
-3.923392e+09 -3.723393e+09 -3.883392e+09 -3.476859e+02 -3.714859e+01 -5.440968e+01
-4.498005e+09 -4.298002e+09 -4.458000e+09 -2.273616e+03 1.133769e+03 -9.321717e+02
-1.585608e+09 -1.385609e+09 -1.545608e+09 -9.817061e+01 -9.767659e+01 -7.857095e+01
-3.540475e+09 -3.340476e+09 -3.500475e+09 -3.517897e+02 1.127744e+02 4.211557e-01
-3.397181e+09 -3.197182e+09 -3.357181e+09 -4.923713e+00 6.467431e-01 -4.785591e+01
-3.228721e+09 -3.028722e+09 -3.188721e+09 -2.345432e+02 -2.990340e+00 -6.079557e+01
-2.116830e+09 -1.916829e+09 -2.076830e+09 -2.089155e+01 -3.461540e+00 -2.183607e+01
-4.802575e+09 -4.602569e+09 -4.762556e+09 3.921583e+02 3.388472e+03 -1.405902e+03
-2.537514e+09 -2.337514e+09 -2.497514e+09 -2.122074e+01 -3.606800e+00 -1.494679e+01
-4.506087e+09 -4.306078e+09 -4.466079e+09 -5.949264e+02 1.030723e+03 4.335011e+02
-2.120998e+09 -1.920998e+09 -2.080998e+09 3.582901e+00 7.896341e+00 -1.837993e+00
-1.855514e+09 -1.655514e+09 -1.815514e+09 -1.237034e+00 2.100184e+01 9.785701e-01
-2.129366e+09 -1.929366e+09 -2.089366e+09 8.787161e+00 8.959578e+00 -1.158224e+00
-1.781882e+09 -1.581882e+09 -1.741882e+09 8.490805e+01 9.899303e+00 -1.637978e+01
-4.113790e+09 -3.913782e+09 -4.073781e+09 1.634840e+03 4.726699e+03 -7.881070e+02
-4.485070e+09 -4.285063e+09 -4.445068e+09 -8.949686e+02 7.027702e+02 -1.323441e+02
-4.977595e+09 -4.777594e+09 -4.937594e+09 -1.343327e+02 2.727179e+01 3.832720e+01
-4.994046e+09 -4.794045e+09 -4.954045e+09 -3.421283e+02 4.149044e+00 1.979219e+01
-2.192817e+09 -1.992818e+09 -2.152818e+09 1.519720e+02 1.719563e+01 3.190618e+00
-3.948831e+09 -3.748831e+09 -3.908831e+09 -7.302490e+01 2.945072e+01 -4.246366e+01
-1.636319e+09 -1.436321e+09 -1.596319e+09 1.511227e+01 -5.294418e+01 -4.466385e+01
-3.017376e+09 -2.817377e+09 -2.977376e+09 4.501619e+02 -3.195508e+02 1.481291e+02
-4.466854e+09 -4.266853e+09 -4.426860e+09 -1.036513e+03 -1.844152e+03 -3.070482e+02
-4.519221e+09 -4.319216e+09 -4.479220e+09 5.608499e+02 3.753613e+01 -6.106050e+02
-3.106215e+09 -2.906218e+09 -3.066216e+09 -7.780033e+02 -8.333239e+02 -1.361738e+02
-1.673946e+09 -1.473948e+09 -1.633946e+09 -9.765289e+02 -8.389209e+02 -2.594786e+02
-4.126927e+09 -3.926920e+09 -4.086927e+09 1.267048e+03 -1.519328e+02 -8.040282e+02
-3.956279e+09 -3.756270e+09 -3.916251e+09 2.352863e+03 8.443935e+03 9.353483e+02
-4.475868e+09 -4.275868e+09 -4.435868e+09 -4.280841e+02 -1.597162e+01 -8.747865e+00
-4.621136e+09 -4.421139e+09 -4.581137e+09 1.776217e+02 4.406622e+01 -1.339946e+01
-3.978461e+09 -3.778464e+09 -3.938461e+09 5.222508e+02 1.400529e+02 -1.704583e+01
-4.509825e+09 -4.309820e+09 -4.469806e+09 1.561314e+03 -6.514945e+02 -3.291351e+02
-4.103537e+09 -3.903539e+09 -4.063537e+09 3.167247e+02 1.865109e+01 -1.654264e+00
-2.933820e+09 -2.733823e+09 -2.893821e+09 3.226863e+02 9.092975e+01 -1.154894e+01
-4.160412e+09 -3.960416e+09 -4.120413e+09 7.448083e+01 2.242759e+02 -1.643177e+01
-4.230813e+09 -4.030806e+09 -4.190824e+09 1.305708e+03 2.086409e+03 3.892821e+02
-1.665331e+09 -1.465332e+09 -1.625333e+09 -6.104952e+02 1.461589e+02 4.052615e+02
-4.450032e+09 -4.250029e+09 -4.410036e+09 -8.566746e+02 1.194232e+03 -6.833557e+02
-4.617026e+09 -4.417029e+09 -4.577026e+09 5.518386e+02 2.537991e+01 -2.713978e+01
-1.586694e+09 -1.386699e+09 -1.546695e+09 -1.222715e+02 -7.258040e+02 1.778340e+01
-3.928571e+09 -3.728572e+09 -3.888573e+09 -1.108050e+03 -7.946988e+00 1.601040e+02
-3.992531e+09 -3.792533e+09 -3.952533e+09 -9.225498e+02 -7.268663e+02 -2.451276e+02
-1.597191e+09 -1.397190e+09 -1.557190e+09 -4.531080e+02 -3.476178e+02 -5.723179e+01
-2.981850e+09 -2.781848e+09 -2.941850e+09 -6.252876e+02 -8.846770e+02 -4.961252e+02
-2.924018e+09 -2.724022e+09 -2.884020e+09 -7.349661e+02 -1.341745e+03 -1.800199e+02
-1.872242e+09 -1.672248e+09 -1.832244e+09 3.372316e+02 -1.345918e+03 1.791773e+02
-3.409056e+09 -3.209060e+09 -3.369059e+09 -4.488640e+02 -1.284874e+03 -6.133390e+01
-2.068511e+09 -1.868516e+09 -2.028512e+09 -8.396877e+01 -4.255709e+02 3.093581e+01
-1.579473e+09 -1.379473e+09 -1.539473e+09 3.932377e+01 2.501996e+01 -2.524216e+00
-4.966840e+09 -4.766843e+09 -4.926841e+09 -1.046772e+03 -4.964847e+01 1.763098e+02
-3.608002e+09 -3.408001e+09 -3.568001e+09 4.605094e+01 1.921304e+00 -1.091510e+01
-3.409933e+09 -3.209936e+09 -3.369935e+09 -1.137089e+03 -1.386033e+02 5.643879e+02
-3.409933e+09 -3.209935e+09 -3.369934e+09 -1.685950e+03 -2.431639e+02 5.354009e+02
-2.184861e+09 -1.984861e+09 -2.144863e+09 1.810771e+03 1.789028e+02 -3.976995e+02
-2.079081e+09 -1.879081e+09 -2.039081e+09 1.388047e+02 1.962634e+01 -1.138882e+00
-4.905148e+09 -4.705148e+09 -4.865148e+09 4.009678e+00 -7.360800e+00 -4.973852e-05
-2.499778e+09 -2.299779e+09 -2.459779e+09 2.090356e+01 3.472735e+01 -1.595097e-01
-2.880174e+09 -2.680175e+09 -2.840176e+09 3.380339e+02 -1.805269e+02 5.128219e+01
-2.979101e+09 -2.779101e+09 -2.939101e+09 3.869279e+01 8.171305e+00 1.227729e+00
-2.196055e+09 -1.996054e+09 -2.156055e+09 -6.763806e+01 -3.732640e+02 -2.608362e+02
-4.995067e+09 -4.795066e+09 -4.955066e+09 -2.148275e+02 -2.817458e+01 -3.319113e+01
-1.910194e+09 -1.710193e+09 -1.870193e+09 -1.541123e+02 -3.981291e+02 -6.625529e+01
-1.693005e+09 -1.493004e+09 -1.653004e+09 -1.156248e+02 -3.086623e+02 -3.163712e+01
-1.887124e+09 -1.687123e+09 -1.847123e+09 -3.044211e+02 -3.433224e+02 -1.258772e+02
-3.093864e+09 -2.893862e+09 -3.053863e+09 -6.593421e+01 -2.611570e+02 -1.961104e+01
-1.636086e+09 -1.436088e+09 -1.596086e+09 -1.249031e+01 9.917681e+00 -6.745396e+01
-1.898842e+09 -1.698844e+09 -1.858842e+09 -3.183030e+01 2.831144e+01 -4.597969e+01
-3.660820e+09 -3.460819e+09 -3.620819e+09 5.086693e+02 1.939056e+02 -7.513341e+01
-3.830626e+09 -3.630625e+09 -3.790625e+09 -3.359113e+01 -2.140077e+00 -1.700449e+01
-4.017736e+09 -3.817735e+09 -3.977735e+09 -4.529377e+01 -2.877467e+00 -4.070372e+00
-3.043311e+09 -2.843311e+09 -3.003311e+09 1.030204e+03 3.703033e+02 -1.203500e+02
-2.944353e+09 -2.744355e+09 -2.904355e+09 2.066614e+00 1.119865e+02 2.933114e+01
-3.422432e+09 -3.222432e+09 -3.382431e+09 2.676840e+02 -1.377629e+02 8.052056e+01
-2.104282e+09 -1.904285e+09 -2.064285e+09 -2.691395e+02 4.871899e+01 -8.984263e+01
-4.716876e+09 -4.516878e+09 -4.676877e+09 -2.023374e+02 6.484546e+01 2.605204e+01
-3.445318e+09 -3.245317e+09 -3.405318e+09 3.628835e+02 1.847816e+02 -7.888809e+01
-4.890118e+09 -4.690117e+09 -4.850118e+09 9.641657e+01 4.157942e+01 7.158831e-08
-4.709348e+09 -4.509347e+09 -4.669348e+09 -1.796368e+02 7.285872e+01 -1.582373e+02
-1.785624e+09 -1.585624e+09 -1.745623e+09 3.836534e+01 -5.961295e+01 -5.269683e+01
-3.657625e+09 -3.457626e+09 -3.617624e+09 6.833627e+00 -4.141225e+01 -8.656252e+00
-4.695883e+09 -4.495883e+09 -4.655883e+09 1.117358e+02 7.058943e+01 -2.174281e+01
-3.747975e+09 -3.547977e+09 -3.707977e+09 -4.617577e+02 5.798962e+01 -6.762872e+01
-4.656698e+09 -4.456699e+09 -4.616698e+09 -6.930644e+02 -4.845570e+01 -2.232518e+01
-3.667430e+09 -3.467429e+09 -3.627430e+09 6.627074e+01 1.528121e+02 -2.832514e+01
-1.587222e+09 -1.387223e+09 -1.547222e+09 -3.194398e+02 -2.952527e+00 -7.530787e+01
-4.311940e+09 -4.111942e+09 -4.271942e+09 -1.354333e+03 4.436236e+02 1.636002e+02
-4.138021e+09 -3.938025e+09 -4.098024e+09 2.793025e+02 4.887206e+02 -2.953520e+01
-4.992384e+09 -4.792387e+09 -4.952388e+09 -8.399282e+02 3.311790e+02 9.542634e+01
-4.812904e+09 -4.612907e+09 -4.772911e+09 -2.349915e+02 1.146506e+03 4.898764e+01
-3.961018e+09 -3.761019e+09 -3.921018e+09 -4.637039e+02 2.629250e+00 7.636535e+00
-4.829022e+09 -4.629023e+09 -4.789023e+09 -2.958671e+02 5.560768e+00 -5.726250e+01
-4.845688e+09 -4.645687e+09 -4.805687e+09 1.048738e+02 1.964109e+01 2.068897e+01
-4.986280e+09 -4.786279e+09 -4.946279e+09 1.179427e+01 -7.366992e+00 8.598107e+00
-4.464319e+09 -4.264323e+09 -4.424324e+09 2.714578e+01 9.120293e+02 -1.584695e+02
-3.956582e+09 -3.756581e+09 -3.916581e+09 -2.354200e+00 6.546378e+00 -3.041185e+01
-4.483405e+09 -4.283405e+09 -4.443405e+09 -1.575846e+01 -1.128443e+00 -1.155190e+01
-3.984693e+09 -3.784694e+09 -3.944694e+09 1.194691e+03 2.139396e+02 -3.005225e+01
-3.970789e+09 -3.770791e+09 -3.930794e+09 -8.650434e+02 -1.584968e+03 -2.590708e+02
-4.143763e+09 -3.943764e+09 -4.103767e+09 -9.087882e+02 -1.672120e+03 -3.375180e+02
-3.984694e+09 -3.784695e+09 -3.944694e+09 1.340834e+03 2.255722e+02 -4.307416e+01
-3.984694e+09 -3.784695e+09 -3.944694e+09 1.086949e+03 2.638195e+02 -4.019844e+01
-4.322909e+09 -4.122900e+09 -4.282903e+09 -2.635019e+03 1.552282e+03 -2.843355e+03
-3.963487e+09 -3.763488e+09 -3.923493e+09 -7.920740e+02 -1.951963e+03 -1.203117e+02
-4.997658e+09 -4.797657e+09 -4.957663e+09 -7.755722e+02 -9.761115e+02 -2.717421e+02
-1.835767e+09 -1.635769e+09 -1.795768e+09 -2.384211e+01 -3.352493e+00 6.855611e+00
-4.158682e+09 -3.958681e+09 -4.118686e+09 -8.384055e+02 -1.528234e+03 -5.059493e+02
-4.815888e+09 -4.615887e+09 -4.775889e+09 5.430510e+02 -1.746646e+02 2.948358e+02
-4.655095e+09 -4.455098e+09 -4.615096e+09 9.283235e+02 1.509140e+01 -5.922482e+01
-4.634952e+09 -4.434952e+09 -4.594952e+09 1.557836e+02 -3.996895e+00 6.485337e-01
-3.005160e+09 -2.805161e+09 -2.965161e+09 7.859946e+02 -4.389919e+02 3.390779e+02
-4.696951e+09 -4.496950e+09 -4.656951e+09 1.127425e+02 7.095796e+00 -3.939100e+00
-4.474054e+09 -4.274053e+09 -4.434055e+09 4.416230e+02 -3.990651e+02 3.012437e+02
-5.003337e+09 -4.803338e+09 -4.963338e+09 6.721324e+02 -1.242438e+02 6.399448e+01
-5.003337e+09 -4.803338e+09 -4.963338e+09 5.618084e+02 -1.031766e+02 4.629006e+01
-4.984536e+09 -4.784536e+09 -4.944538e+09 5.452858e+02 -3.905557e+02 2.356451e+02
-3.954838e+09 -3.754838e+09 -3.914840e+09 9.137473e+02 -7.720302e+02 5.442273e+02
-4.860466e+09 -4.660465e+09 -4.820465e+09 1.071711e+02 -1.370849e+01 -2.541358e+01
-3.358455e+09 -3.158455e+09 -3.318456e+09 -7.259348e+02 4.754522e+01 4.744844e+01
-3.953351e+09 -3.753348e+09 -3.913348e+09 -2.725966e+03 -1.535749e+03 5.578777e+02
-4.472391e+09 -4.272386e+09 -4.432390e+09 -2.316297e+03 -7.067312e+02 -2.721114e+02
-4.314969e+09 -4.114970e+09 -4.274969e+09 2.289003e+02 -9.086376e+00 -2.907404e+01
-5.014513e+09 -4.814513e+09 -4.974513e+09 1.862135e+02 1.804594e+00 9.867595e+00
-3.966200e+09 -3.766195e+09 -3.926193e+09 -3.686792e+03 -3.904805e+03 1.220726e+03
-3.129608e+09 -2.929608e+09 -3.089608e+09 2.247970e+01 -2.970476e+01 -3.089883e+01
-4.647375e+09 -4.447374e+09 -4.607374e+09 -5.220740e+02 -4.709352e+01 2.894311e+01
-4.981707e+09 -4.781709e+09 -4.941707e+09 -1.864007e+02 1.423959e+01 1.045292e+01
-4.616414e+09 -4.416417e+09 -4.576415e+09 -2.944614e+02 7.321358e+00 -2.180089e+01
-4.504301e+09 -4.304301e+09 -4.464301e+09 -7.651708e+02 -2.028388e+01 -1.581177e+00
-4.134276e+09 -3.934271e+09 -4.094274e+09 1.902660e+03 -1.407046e+03 4.108970e+02
-3.961134e+09 -3.761133e+09 -3.921134e+09 -4.320170e+02 -6.973244e+01 2.757411e+01
-4.135601e+09 -3.935601e+09 -4.095601e+09 -5.858097e+02 -8.709022e+00 -5.630249e+01
-3.428617e+09 -3.228618e+09 -3.388617e+09 -3.047093e+02 -9.787019e+00 9.966096e-01
-4.646025e+09 -4.446025e+09 -4.606025e+09 -5.880541e+02 -4.417786e+01 3.088500e+01
-4.690167e+09 -4.490167e+09 -4.650167e+09 -6.990445e+02 -3.138388e+01 3.586929e+01
-4.478834e+09 -4.278834e+09 -4.438834e+09 -5.574482e+02 -6.686574e+00 9.388702e+00
-4.843781e+09 -4.643781e+09 -4.803781e+09 -4.552556e+02 -2.384981e+01 -3.100940e+00
-1.674853e+09 -1.474853e+09 -1.634853e+09 -4.916402e+00 1.791377e+01 -3.512019e+01
-1.692443e+09 -1.492442e+09 -1.652442e+09 5.050406e+01 1.430062e+01 -2.307401e+01
-2.179188e+09 -1.979189e+09 -2.139189e+09 4.742808e+01 -9.823630e-01 1.657180e+01
-4.453406e+09 -4.253407e+09 -4.413407e+09 1.300858e+02 1.066810e+01 -6.284413e+01
-4.106003e+09 -3.906004e+09 -4.066003e+09 1.536644e+02 2.799172e+01 -8.982385e+01
-2.016559e+09 -1.816559e+09 -1.976559e+09 1.128062e+01 1.316535e+01 -3.593239e+01
-2.756634e+09 -2.556637e+09 -2.716634e+09 2.147159e+02 4.388351e+01 1.870186e+01
-3.955410e+09 -3.755402e+09 -3.915377e+09 3.752457e+02 -7.534282e+03 -9.134284e+01
-4.658277e+09 -4.458274e+09 -4.618249e+09 -1.617053e+02 3.365650e+01 -2.743907e+02
-4.129734e+09 -3.929728e+09 -4.089711e+09 -1.139822e+03 -5.957205e+03 3.081968e+03
-4.976698e+09 -4.776701e+09 -4.936698e+09 2.919516e+02 9.048236e+00 2.167258e+01
-4.457392e+09 -4.257390e+09 -4.417392e+09 -1.075252e+03 3.249710e+02 2.607080e+02
-4.786800e+09 -4.586802e+09 -4.746800e+09 4.988493e+02 -4.700434e+01 1.691122e+01
-4.128243e+09 -3.928245e+09 -4.088243e+09 8.287945e+02 2.889952e+01 -7.005746e+00
-4.663961e+09 -4.463957e+09 -4.623961e+09 -9.297241e+02 3.348557e+02 4.974886e+02
-4.649562e+09 -4.449560e+09 -4.609564e+09 -1.438548e+03 8.985740e+02 1.638848e+02
-3.977495e+09 -3.777492e+09 -3.937495e+09 -1.236717e+03 8.628960e+01 8.519941e+02
-4.622867e+09 -4.422865e+09 -4.582866e+09 -2.884291e+02 8.260726e-01 9.961341e+01
-3.960255e+09 -3.760251e+09 -3.920255e+09 -2.026259e+01 -1.395944e+02 6.674582e+02
-3.956433e+09 -3.756433e+09 -3.916430e+09 1.468730e+03 -5.084453e+02 -7.195122e+02
-4.118800e+09 -3.918798e+09 -4.078800e+09 -1.428349e+03 3.834237e+02 4.313823e+02
-3.963096e+09 -3.763094e+09 -3.923096e+09 -1.235474e+03 3.383513e+02 3.530253e+02
-4.320728e+09 -4.120724e+09 -4.280729e+09 -8.878720e+02 3.411143e+02 4.822492e+02
-4.974933e+09 -4.774929e+09 -4.934933e+09 9.647482e+02 -2.737940e+02 4.492466e+02
-4.631701e+09 -4.431693e+09 -4.591706e+09 2.123206e+03 -4.795771e+02 -4.628874e+02
-4.983067e+09 -4.783067e+09 -4.943066e+09 -6.508042e+01 -7.958074e-03 8.124452e+00
-3.945175e+09 -3.745175e+09 -3.905174e+09 1.315655e+01 2.049670e+01 -1.467541e+01
-4.820743e+09 -4.620738e+09 -4.780748e+09 1.582674e+03 1.624193e+03 7.435022e+02
-3.946553e+09 -3.746552e+09 -3.906552e+09 3.888869e+02 3.686867e+01 -3.411651e+01
-3.477364e+09 -3.277365e+09 -3.437364e+09 -4.582890e+02 9.098969e+00 -1.922581e+01
-4.495005e+09 -4.295006e+09 -4.455005e+09 -7.009767e+02 2.140683e+01 -5.634955e+00
-4.002316e+09 -3.802315e+09 -3.962315e+09 2.329916e+02 3.128594e+01 -4.385382e+01
-3.303689e+09 -3.103689e+09 -3.263689e+09 -4.985623e+01 6.402915e+01 -3.018178e+01
-4.483427e+09 -4.283426e+09 -4.443426e+09 3.079263e+02 -2.289076e+01 -4.869751e+01
-3.002143e+09 -2.802144e+09 -2.962142e+09 -2.165740e+02 4.593455e+01 -3.547780e+01
-4.817503e+09 -4.617503e+09 -4.777503e+09 3.437308e+02 2.474341e-01 -1.095937e+01
-4.830680e+09 -4.630679e+09 -4.790679e+09 2.000347e+02 7.223960e+01 6.279277e+01
-1.698308e+09 -1.498309e+09 -1.658308e+09 -3.047616e+02 7.807312e-01 -8.165344e+01
-5.032014e+09 -4.832013e+09 -4.992014e+09 1.967714e+02 -5.748493e+01 -3.517076e+01
-4.157824e+09 -3.957824e+09 -4.117824e+09 3.715052e+02 -1.168930e+01 -5.279474e+01
-2.489795e+09 -2.289796e+09 -2.449795e+09 -2.313991e+02 1.593994e+01 -7.781470e+01
-2.958501e+09 -2.758502e+09 -2.918501e+09 -3.111776e+02 2.203368e+01 -5.058277e+01
-5.006876e+09 -4.806875e+09 -4.966876e+09 4.019101e+02 -7.690667e+01 -6.613628e+01
-1.895527e+09 -1.695527e+09 -1.855526e+09 -3.328556e+02 -2.586398e+01 -7.121431e+01
-4.130809e+09 -3.930809e+09 -4.090809e+09 -3.367005e+02 -2.889444e+01 1.270669e+01
-4.653452e+09 -4.453452e+09 -4.613452e+09 -2.553084e+02 -1.654772e+01 7.834219e+00
-4.994003e+09 -4.794003e+09 -4.954003e+09 -2.542696e+02 -2.165670e+00 -3.833546e+01
-4.772325e+09 -4.572324e+09 -4.732325e+09 -1.915518e+02 -1.546852e+01 1.610066e+01
-4.963016e+09 -4.763016e+09 -4.923016e+09 -2.380017e+02 3.455895e+00 -5.990618e+00
-4.989405e+09 -4.789403e+09 -4.949406e+09 1.158051e+03 1.967402e+02 -1.579961e+02
-4.995716e+09 -4.795712e+09 -4.955717e+09 2.291723e+02 1.400938e+02 -1.712410e+02
-3.959707e+09 -3.759706e+09 -3.919708e+09 1.526654e+03 6.309914e+02 -4.845647e+02
-4.995717e+09 -4.795713e+09 -4.955717e+09 7.439379e+02 1.388917e+02 -1.706315e+02
-4.139921e+09 -3.939918e+09 -4.099921e+09 1.025991e+03 4.529423e+02 -5.243598e+02
-4.993861e+09 -4.793860e+09 -4.953862e+09 1.511487e+03 1.465681e+02 -1.206238e+02
-4.989406e+09 -4.789404e+09 -4.949407e+09 1.368796e+03 1.360799e+02 -1.381330e+02
-1.964736e+09 -1.764737e+09 -1.924737e+09 -1.752952e+02 -8.942717e+00 3.203699e+00
-4.140256e+09 -3.940255e+09 -4.100256e+09 1.404018e+03 3.833743e+02 -1.071612e+02
-3.964163e+09 -3.764162e+09 -3.924163e+09 1.619190e+03 5.317998e+02 -2.664924e+02
-4.131588e+09 -3.931590e+09 -4.091592e+09 1.979523e+03 1.334158e+03 -8.291914e+02
-1.676536e+09 -1.476537e+09 -1.636537e+09 -1.918130e+02 -2.803320e+01 1.268162e+01
-4.818112e+09 -4.618112e+09 -4.778112e+09 1.026660e+03 -1.182118e+01 3.601841e+01
-4.715229e+09 -4.515232e+09 -4.675229e+09 -3.616736e+01 -4.209115e+00 -1.233502e+00
-5.002332e+09 -4.802335e+09 -4.962333e+09 6.249276e+02 1.098522e+02 3.343399e+01
-4.305345e+09 -4.105349e+09 -4.265346e+09 5.303622e+01 8.708031e+01 7.465778e+00
-4.297598e+09 -4.097598e+09 -4.257598e+09 -4.765847e+02 2.453954e-02 -1.348685e+01
-5.004140e+09 -4.804143e+09 -4.964141e+09 2.601580e+01 -1.224947e+00 2.780337e+01
-4.119374e+09 -3.919378e+09 -4.079375e+09 -2.678157e+01 2.409512e+01 -2.118212e+01
-3.966662e+09 -3.766666e+09 -3.926663e+09 1.825170e+02 3.152937e+02 -3.654877e+01
-3.960713e+09 -3.760713e+09 -3.920713e+09 -4.544108e+02 -3.406853e+01 2.656576e+01
-5.006712e+09 -4.806716e+09 -4.966713e+09 1.794376e+02 2.672880e+01 1.538943e+01
-2.798398e+09 -2.598401e+09 -2.758399e+09 -2.622186e+00 7.366868e+00 -2.045152e+00
-4.777016e+09 -4.577017e+09 -4.737017e+09 1.974684e+01 2.192413e+00 5.722978e+00
-1.868246e+09 -1.668245e+09 -1.828246e+09 -6.058777e+01 -2.029033e+01 -3.853525e+00
-4.603030e+09 -4.403030e+09 -4.563030e+09 -1.815605e+02 -1.690211e+01 -1.681890e-01
-2.911540e+09 -2.711540e+09 -2.871540e+09 -7.775640e+00 -4.729163e+00 -3.009150e-03
-4.575929e+09 -4.375928e+09 -4.535928e+09 6.446894e+01 5.113482e+00 3.352975e+00
-2.691473e+09 -2.491473e+09 -2.651473e+09 1.348936e+02 8.915070e+00 1.447969e+01
-4.693405e+09 -4.493405e+09 -4.653405e+09 2.689609e+01 2.483592e+00 -1.516290e+01
-3.428830e+09 -3.228830e+09 -3.388830e+09 4.693003e+01 9.383246e+00 2.934763e+01
-4.892161e+09 -4.692161e+09 -4.852161e+09 3.315733e+00 -6.119315e+00 -4.973835e-05
-4.892132e+09 -4.692133e+09 -4.852133e+09 4.988099e+00 -4.841714e+00 -4.973842e-05
-2.707859e+09 -2.507863e+09 -2.667860e+09 5.049616e+01 -5.566146e+02 3.651667e+01
-4.829775e+09 -4.629779e+09 -4.789778e+09 1.072919e+02 -2.652158e+02 -1.315312e+01
-1.586694e+09 -1.386700e+09 -1.546695e+09 -1.297202e+02 -1.113564e+03 1.886737e+01
-1.818478e+09 -1.618483e+09 -1.778479e+09 8.515439e+01 -5.578794e+02 8.858987e+01
-3.781748e+09 -3.581749e+09 -3.741749e+09 1.133375e+03 2.359092e+01 -1.765002e+02
-4.679210e+09 -4.479210e+09 -4.639209e+09 1.599287e+02 2.579507e+01 -1.613983e+01
-1.584619e+09 -1.384622e+09 -1.544622e+09 3.533959e+02 1.885566e+01 -7.666121e+01
-1.581552e+09 -1.381552e+09 -1.541553e+09 7.383788e+02 6.773212e+01 -2.485589e+01
-2.775386e+09 -2.575385e+09 -2.735385e+09 8.535805e+01 1.809434e+02 -3.590536e+00
-2.511523e+09 -2.311521e+09 -2.471523e+09 1.042203e+02 -5.034381e+02 -6.243799e+02
-1.636027e+09 -1.436027e+09 -1.596026e+09 1.501442e+02 1.208546e+02 -7.943872e+00
-3.511224e+09 -3.311225e+09 -3.471226e+09 5.132697e+01 -1.157183e+02 -5.768314e+00
-2.057911e+09 -1.857914e+09 -2.017915e+09 1.378821e+03 -5.434991e+01 5.695905e+02
-4.674936e+09 -4.474935e+09 -4.634935e+09 1.389672e+02 1.633694e+00 1.438084e+01
-4.980408e+09 -4.780407e+09 -4.940407e+09 1.818227e+02 7.818514e+01 -8.796238e+00
-2.070894e+09 -1.870892e+09 -2.030893e+09 -6.271396e+02 -7.245179e+02 -5.411034e+02
-3.487363e+09 -3.287363e+09 -3.447362e+09 7.462919e+02 8.018573e+01 -5.168461e+01
-4.007722e+09 -3.807721e+09 -3.967721e+09 1.745394e+02 5.227336e+01 -2.440365e+01
-2.218569e+09 -2.018569e+09 -2.178568e+09 3.233218e+01 3.004795e+01 5.529037e+00
-4.463322e+09 -4.263320e+09 -4.423322e+09 7.147155e+01 -1.592196e+02 -3.316586e+01
-3.907900e+09 -3.707899e+09 -3.867900e+09 -3.240085e+02 -4.088651e+02 -2.307243e+02
-2.997713e+09 -2.797712e+09 -2.957712e+09 5.251451e+02 1.528986e+02 -6.584828e+01
-3.704610e+09 -3.504610e+09 -3.664610e+09 4.957491e+02 1.034821e+02 -3.724692e+01
-3.812502e+09 -3.612502e+09 -3.772502e+09 7.688353e+02 1.761176e+02 -3.378804e+01
-4.980408e+09 -4.780407e+09 -4.940407e+09 4.726019e+02 -2.116044e+01 -1.223933e+01
-3.933319e+09 -3.733322e+09 -3.893319e+09 8.638594e+00 1.012322e+01 -1.475040e+01
-1.610698e+09 -1.410700e+09 -1.570698e+09 -1.499740e+02 -9.690688e+00 -7.253480e+01
-1.623423e+09 -1.423421e+09 -1.583422e+09 -4.413296e+02 -6.088635e+02 -2.396020e+02
-2.237902e+09 -2.037905e+09 -2.197903e+09 -2.582622e+01 -1.201170e+01 -2.658905e+01
-4.965674e+09 -4.765678e+09 -4.925675e+09 2.903109e+00 7.027207e+00 5.953737e+00
-2.757932e+09 -2.557932e+09 -2.717932e+09 1.380528e+01 3.809209e+00 -1.465868e+01
-4.347221e+09 -4.147224e+09 -4.307222e+09 -2.155599e+02 3.905910e+01 1.482650e+01
-4.329885e+09 -4.129888e+09 -4.289885e+09 -2.427968e+02 5.723799e+01 2.523927e+01
-5.000319e+09 -4.800322e+09 -4.960320e+09 -4.545064e+02 3.035201e+01 1.343659e+01
-2.628675e+09 -2.428678e+09 -2.588675e+09 1.117379e+01 1.258486e+01 -1.193206e+01
-4.440162e+09 -4.240162e+09 -4.400162e+09 -3.884010e+02 -1.188526e+02 -3.362378e+01
-3.248085e+09 -3.048084e+09 -3.208084e+09 -5.565973e+02 -3.979301e+02 -1.701439e+02
-3.533351e+09 -3.333352e+09 -3.493351e+09 -9.043738e+02 -5.206356e+02 -2.238057e+02
-2.376187e+09 -2.176190e+09 -2.336187e+09 5.055193e+01 1.178400e+01 -8.452431e+00
-1.573319e+09 -1.373322e+09 -1.533320e+09 -6.467704e+00 -8.514062e+00 -1.997025e+01
-4.897082e+09 -4.697081e+09 -4.857081e+09 -1.403248e+01 3.116534e-09 -1.243728e+01
-4.298644e+09 -4.098643e+09 -4.258643e+09 -1.477476e+02 -6.682320e+01 -1.943343e+01
-4.122153e+09 -3.922159e+09 -4.082154e+09 3.713966e+02 1.670401e+02 1.887059e+03
-2.258184e+09 -2.058183e+09 -2.218183e+09 -2.119990e+02 -1.732971e+02 -2.450623e+01
-4.621285e+09 -4.421285e+09 -4.581284e+09 -7.547024e+01 4.042885e+01 -7.268810e+00
-2.012678e+09 -1.812681e+09 -1.972678e+09 2.009601e+01 1.773627e+01 -1.639215e+00
-3.954973e+09 -3.754974e+09 -3.914974e+09 3.481203e+02 -2.097612e+01 -4.189633e+01
-1.636280e+09 -1.436283e+09 -1.596280e+09 3.252912e+01 1.607981e+01 9.995247e+00
-4.790962e+09 -4.590960e+09 -4.750963e+09 5.619876e+02 -1.316352e+02 -2.730219e+02
-3.093342e+09 -2.893345e+09 -3.053344e+09 9.420643e+02 -1.016492e+02 3.470586e+02
-2.604760e+09 -2.404761e+09 -2.564760e+09 -1.396295e+01 -1.679975e+00 -8.578218e+01
-1.934263e+09 -1.734264e+09 -1.894263e+09 -6.698301e+01 -3.142066e+01 -5.641715e+01
-3.170449e+09 -2.970451e+09 -3.130449e+09 -1.750387e+02 -1.733452e+00 -2.370377e+01
-4.990198e+09 -4.790199e+09 -4.950198e+09 -4.255794e+02 -5.989372e+01 -1.469690e+01
-3.001754e+09 -2.801755e+09 -2.961754e+09 -3.864516e+02 3.343241e+01 -5.727852e+01
-3.962150e+09 -3.762151e+09 -3.922150e+09 -4.498982e+02 -3.750034e+01 -4.200993e+01
-4.831551e+09 -4.631552e+09 -4.791551e+09 -4.297598e+02 7.225361e+01 1.032246e+00
-1.678996e+09 -1.478996e+09 -1.638996e+09 1.166705e+02 2.912224e+02 -7.604591e+01
-4.627004e+09 -4.427005e+09 -4.587003e+09 4.567523e+02 1.257342e+01 -4.142255e+00
-4.128805e+09 -3.928805e+09 -4.088805e+09 6.584168e+02 -1.162815e+01 -4.617727e+01
-3.957997e+09 -3.757997e+09 -3.917997e+09 8.721372e+02 -3.522803e+01 -3.688267e+01
-4.820742e+09 -4.620741e+09 -4.780741e+09 7.044301e+02 -4.439751e+01 -2.139003e+02
-4.477509e+09 -4.277509e+09 -4.437509e+09 7.473586e+02 -6.713117e+00 -2.274810e+02
-4.475165e+09 -4.275167e+09 -4.435167e+09 1.637662e+03 4.887969e+02 -1.833891e+02
-4.934386e+09 -4.734386e+09 -4.894385e+09 3.563372e+02 3.017475e+01 8.480937e+00
-3.967540e+09 -3.767538e+09 -3.927540e+09 1.274628e+03 4.065222e+02 -3.153373e+02
-4.679128e+09 -4.479131e+09 -4.639132e+09 1.181834e+03 5.143537e+02 -1.318380e+02
-4.994249e+09 -4.794252e+09 -4.954253e+09 8.645441e+02 3.298736e+02 -5.415442e+01
-4.483174e+09 -4.283172e+09 -4.443174e+09 -1.492190e+02 1.008564e+02 -2.164432e+02
-4.309353e+09 -4.109352e+09 -4.269353e+09 -1.483133e+02 -1.187360e+01 8.943326e+00
-4.110746e+09 -3.910745e+09 -4.070745e+09 -1.505692e+02 -2.271544e+01 1.572564e+01
-4.980113e+09 -4.780116e+09 -4.940119e+09 1.877636e+02 6.341073e+02 6.020383e+01
-4.125444e+09 -3.925443e+09 -4.085444e+09 -2.240475e+02 -2.062587e+01 -4.113879e+01
-4.629297e+09 -4.429296e+09 -4.589297e+09 -1.937158e+02 -3.786988e+00 -5.517149e+00
-4.817999e+09 -4.618002e+09 -4.778002e+09 1.295003e+03 2.505343e+02 6.580284e+01
-4.478146e+09 -4.278146e+09 -4.438147e+09 1.474039e+03 4.915538e+02 -1.849915e+02
-4.991549e+09 -4.791548e+09 -4.951548e+09 -1.024994e+02 -7.722321e+00 1.014725e+01
-4.605766e+09 -4.405765e+09 -4.565765e+09 -1.648861e+02 -1.222935e+01 -9.360416e+00
-4.624785e+09 -4.424784e+09 -4.584784e+09 -1.728236e+02 -1.154536e+01 -1.129361e+01
-2.299118e+09 -2.099121e+09 -2.259120e+09 -1.068543e+03 -2.338198e+02 9.575747e+02
-4.831193e+09 -4.631197e+09 -4.791195e+09 8.060236e+02 -2.152200e+01 -4.878600e+00
-4.979602e+09 -4.779602e+09 -4.939602e+09 -3.018761e+02 -8.142359e-01 1.872058e+01
-4.127846e+09 -3.927847e+09 -4.087848e+09 7.914457e+02 -9.764664e+02 4.767744e+02
-4.814312e+09 -4.614313e+09 -4.774314e+09 6.744682e+02 -1.283733e+02 4.399278e+01
-3.956992e+09 -3.756994e+09 -3.916996e+09 8.811934e+02 -1.239996e+03 6.704204e+02
-4.818627e+09 -4.618630e+09 -4.778628e+09 9.539981e+02 3.011017e+02 -4.190737e+01
-4.132959e+09 -3.932962e+09 -4.092962e+09 4.061600e+02 -5.401607e+02 1.365943e+02
-4.155607e+09 -3.955608e+09 -4.115608e+09 1.588014e+03 4.432315e+02 -1.303395e+02
-4.643207e+09 -4.443208e+09 -4.603208e+09 2.142663e+02 7.121703e+00 -1.225121e+00
-4.988023e+09 -4.788022e+09 -4.948022e+09 -1.772175e+02 7.046058e+00 8.752444e+00
-3.954465e+09 -3.754466e+09 -3.914465e+09 1.921517e+02 1.159604e+01 -4.499908e+00
-4.308875e+09 -4.108876e+09 -4.268876e+09 3.830686e+02 -6.965606e+00 -5.782914e+01
-4.990370e+09 -4.790371e+09 -4.950370e+09 2.107028e+02 3.704254e-01 4.274503e+01
-2.200441e+09 -2.000441e+09 -2.160441e+09 -2.496188e+01 1.869489e+00 -3.302909e+01
-4.989584e+09 -4.789585e+09 -4.949584e+09 -1.828710e+03 8.094044e+01 1.537047e+02
-4.502033e+09 -4.302036e+09 -4.462033e+09 -4.063625e+02 5.366450e+01 7.741233e+00
-4.998231e+09 -4.798234e+09 -4.958232e+09 -8.263300e+02 -5.490950e+01 1.425715e+00
-4.255733e+09 -4.055733e+09 -4.215744e+09 1.077045e+03 4.439795e+03 -6.781293e+02
-4.154777e+09 -3.954781e+09 -4.114783e+09 3.027715e+02 1.798508e+03 -8.771898e+01
-4.310082e+09 -4.110080e+09 -4.270081e+09 -1.382144e+03 -1.559658e+02 9.445153e+01
-3.940916e+09 -3.740916e+09 -3.900914e+09 9.188456e+02 -1.507405e+01 -4.858274e+01
-3.947553e+09 -3.747553e+09 -3.907549e+09 2.757246e+02 -3.739670e+02 -5.572957e+02
-4.112944e+09 -3.912945e+09 -4.072940e+09 8.280031e+02 -2.435085e+02 -1.197319e+03
-1.972913e+09 -1.772915e+09 -1.932916e+09 -1.098897e+03 8.872366e+01 1.889657e+02
-4.649463e+09 -4.449463e+09 -4.609463e+09 3.728948e+02 2.147471e+01 2.449689e+01
-4.436614e+09 -4.236616e+09 -4.396611e+09 -5.124080e+02 1.287515e+02 -1.000482e+03
-4.131205e+09 -3.931206e+09 -4.091206e+09 3.701644e+02 2.320203e+01 9.212819e+00
-4.989969e+09 -4.789969e+09 -4.949969e+09 5.507420e+02 -2.279751e+01 -4.065434e+01
-3.960268e+09 -3.760268e+09 -3.920268e+09 4.453558e+02 2.003382e+01 1.223133e+01
-4.449539e+09 -4.249538e+09 -4.409537e+09 1.389007e+03 -4.623279e+02 -4.635889e+02
-4.308605e+09 -4.108594e+09 -4.268600e+09 1.472066e+03 -6.743670e+03 3.172491e+03
-3.969166e+09 -3.769171e+09 -3.929153e+09 -6.946040e+02 -3.820172e+02 6.884632e+03
-5.001401e+09 -4.801399e+09 -4.961382e+09 -2.383042e+03 -1.364549e+01 1.223182e+03
-3.935162e+09 -3.735161e+09 -3.895148e+09 4.079458e+03 5.912286e+03 5.356827e+03
-4.100537e+09 -3.900534e+09 -4.060521e+09 4.898253e+03 5.136858e+03 5.820373e+03
-4.418819e+09 -4.218811e+09 -4.378824e+09 1.698136e+03 -6.018408e+02 -2.542043e+02
-4.655212e+09 -4.455212e+09 -4.615207e+09 2.456116e+03 1.469060e+02 3.553310e+02
-3.960271e+09 -3.760271e+09 -3.920271e+09 5.641560e+02 2.001007e+01 -1.020238e+01
-4.292209e+09 -4.092209e+09 -4.252209e+09 4.848888e+02 -2.682795e+01 -1.313933e+02
-4.803077e+09 -4.603077e+09 -4.763077e+09 4.332206e+02 1.514800e+01 -1.266195e+01
-4.341124e+09 -4.141123e+09 -4.301123e+09 5.146715e+02 -4.344216e+01 -7.852964e+01
-4.826659e+09 -4.626658e+09 -4.786659e+09 3.596090e+02 3.355422e+01 2.438109e+01
-4.631548e+09 -4.431548e+09 -4.591548e+09 5.766180e+02 3.326335e+01 9.156528e+00
-4.987696e+09 -4.787696e+09 -4.947695e+09 6.117642e+02 -4.865671e+01 -1.177497e+02
-5.006876e+09 -4.806875e+09 -4.966875e+09 6.466899e+02 -8.993082e+01 -9.209506e+01
-4.335207e+09 -4.135206e+09 -4.295206e+09 8.631769e+02 -1.659778e+02 -1.268077e+02
-4.976251e+09 -4.776250e+09 -4.936250e+09 5.424443e+02 -2.342222e+01 -2.958349e+01
-4.486284e+09 -4.286282e+09 -4.446282e+09 1.864415e+02 -2.069301e+01 -1.608238e+01
-5.021673e+09 -4.821671e+09 -4.981672e+09 4.111654e+02 -2.632485e+02 -1.941443e+02
-2.157224e+09 -1.957222e+09 -2.117223e+09 -1.392422e+02 -3.321273e+02 -4.593821e+01
-4.115566e+09 -3.915566e+09 -4.075566e+09 5.491266e+02 6.939358e+00 -3.924477e+01
-4.822805e+09 -4.622805e+09 -4.782805e+09 -5.109148e+02 -3.357854e+01 3.016622e+01
-4.500548e+09 -4.300548e+09 -4.460548e+09 -4.620176e+02 -1.622455e+01 -1.753978e+00
-4.516972e+09 -4.316972e+09 -4.476972e+09 -6.996276e+02 -2.489421e+01 -6.559104e+00
-1.607634e+09 -1.407635e+09 -1.567634e+09 5.396202e+01 1.975686e+01 6.775856e+00
-4.437091e+09 -4.237092e+09 -4.397091e+09 7.251327e+00 1.212090e+00 -2.745837e+01
-4.661505e+09 -4.461505e+09 -4.621505e+09 -3.557227e+02 -1.344299e+01 3.189558e+01
-3.954576e+09 -3.754576e+09 -3.914576e+09 -3.314321e+02 -3.342105e+01 2.091277e+01
-3.139826e+09 -2.939828e+09 -3.099826e+09 -1.584563e+02 -1.761973e+01 -3.562523e+01
-2.775642e+09 -2.575642e+09 -2.735642e+09 1.446709e+01 4.203855e+00 -1.817802e+01
-4.998801e+09 -4.798801e+09 -4.958801e+09 -3.580447e+02 -4.563461e+00 -4.011339e+01
-3.753891e+09 -3.553891e+09 -3.713890e+09 -9.062431e+01 -2.545226e+01 -2.562790e+01
-3.878409e+09 -3.678409e+09 -3.838409e+09 -2.501281e+02 6.497896e+00 -4.162776e+01
-1.883642e+09 -1.683643e+09 -1.843642e+09 8.360081e+02 -6.336544e+02 2.398188e+02
-4.989809e+09 -4.789808e+09 -4.949808e+09 -3.124615e+01 -1.094216e+01 2.346638e+00
-2.570812e+09 -2.370812e+09 -2.530812e+09 -1.624451e+02 5.526367e+01 -3.936760e+01
-4.980576e+09 -4.780569e+09 -4.940564e+09 -9.092028e+02 4.388562e+01 -1.081218e+02
-3.203893e+09 -3.003893e+09 -3.163893e+09 -1.311675e+01 -8.669581e-01 -2.888260e+00
-3.735573e+09 -3.535573e+09 -3.695573e+09 5.048831e+01 1.307515e+01 -7.109194e+00
-3.961026e+09 -3.761023e+09 -3.921031e+09 -1.113644e+03 -1.660413e+03 -4.876749e+02
-4.360903e+09 -4.160902e+09 -4.320902e+09 3.088431e+00 6.455991e-01 -3.035609e+00
-3.886224e+09 -3.686223e+09 -3.846223e+09 1.032879e+01 1.535611e+00 -1.437403e+00
-4.346254e+09 -4.146247e+09 -4.306250e+09 -1.784592e+03 2.350287e+03 -2.048264e+03
-3.878256e+09 -3.678256e+09 -3.838256e+09 2.834767e+00 1.344766e+00 -8.656649e-01
-3.981700e+09 -3.781702e+09 -3.941701e+09 1.545788e+03 4.938642e+02 -1.624670e+02
-4.137460e+09 -3.937461e+09 -4.097461e+09 1.575931e+03 4.833442e+02 -9.994178e+01
-4.136671e+09 -3.936671e+09 -4.096672e+09 1.638389e+03 5.235733e+02 -3.717422e+02
-4.984347e+09 -4.784347e+09 -4.944347e+09 1.185447e+02 7.290993e+00 3.549283e+01
-4.990705e+09 -4.790704e+09 -4.950707e+09 1.752567e+03 3.200881e+02 -2.056464e+02
-1.881553e+09 -1.681553e+09 -1.841552e+09 -6.597660e+01 -1.325208e+01 -5.226344e+01
-4.994649e+09 -4.794651e+09 -4.954651e+09 1.640456e+03 2.688205e+02 -1.155637e+02
-1.863816e+09 -1.663815e+09 -1.823815e+09 2.227324e+01 4.313911e+00 -1.112549e+01
-2.935350e+09 -2.735349e+09 -2.895349e+09 -5.704999e+01 1.953596e+00 -4.158221e+01
-1.697671e+09 -1.497670e+09 -1.657670e+09 -1.126962e+02 8.672354e+00 -5.818562e+01
-4.637695e+09 -4.437697e+09 -4.597695e+09 -5.121925e+02 2.656881e+01 4.002234e+00
-2.768796e+09 -2.568796e+09 -2.728796e+09 1.351312e+01 4.860595e+00 -2.286498e+01
-5.005342e+09 -4.805346e+09 -4.965343e+09 -1.811538e+02 2.856652e+00 2.772411e+01
-3.289203e+09 -3.089203e+09 -3.249202e+09 -1.215488e+02 -9.002141e+00 -4.321201e+01
-2.302997e+09 -2.102997e+09 -2.262997e+09 -2.643011e+01 2.863043e+01 -2.598082e+01
-2.713075e+09 -2.513075e+09 -2.673075e+09 -1.433640e+01 1.640478e+01 -3.894778e+01
-1.585608e+09 -1.385609e+09 -1.545608e+09 -2.238223e+02 4.767160e+01 -7.843254e+01
-4.151262e+09 -3.951266e+09 -4.111264e+09 -1.256530e+02 3.612622e+02 1.649772e+01
-2.725354e+09 -2.525353e+09 -2.685353e+09 -2.617950e+01 -4.557696e+01 9.849919e+00
-3.924965e+09 -3.724965e+09 -3.884965e+09 -3.650171e+02 -2.156168e+02 -8.680824e+01
-4.256149e+09 -4.056149e+09 -4.216148e+09 -3.397619e+02 4.758219e+01 9.740829e+00
-4.587996e+09 -4.387997e+09 -4.547997e+09 1.612408e+01 8.219825e-01 6.190714e+00
-2.975955e+09 -2.775959e+09 -2.935956e+09 4.921515e+01 -5.830158e+01 7.524906e+01
-4.905172e+09 -4.705173e+09 -4.865173e+09 6.755688e+00 -6.263480e+00 -7.556092e-10
-2.203478e+09 -2.003483e+09 -2.163480e+09 7.530454e+02 -1.127590e+03 3.219253e+02
-1.636093e+09 -1.436097e+09 -1.596094e+09 3.069864e+01 -1.331477e+02 4.394538e+00
-1.778925e+09 -1.578925e+09 -1.738925e+09 9.140167e+01 1.902396e+01 1.894271e+01
-2.800065e+09 -2.600066e+09 -2.760064e+09 4.367898e+02 4.657735e+01 -2.073276e+00
-3.507732e+09 -3.307732e+09 -3.467732e+09 4.356327e+01 1.240789e+01 2.932935e+01
-4.616077e+09 -4.416078e+09 -4.576077e+09 1.593902e+02 6.038391e+00 7.570570e+00
-1.586522e+09 -1.386523e+09 -1.546522e+09 1.324427e+02 2.077990e+01 3.285419e+01
-2.570832e+09 -2.370832e+09 -2.530831e+09 1.163992e+02 2.091654e+01 4.104976e+00
-2.282667e+09 -2.082668e+09 -2.242668e+09 9.194416e+01 1.684245e-01 -3.044494e+01
-3.048500e+09 -2.848501e+09 -3.008501e+09 6.491852e+00 2.968326e+00 2.031797e-02
-2.437820e+09 -2.237821e+09 -2.397820e+09 7.933087e+01 1.364696e+01 -1.922570e+01
-1.980055e+09 -1.780055e+09 -1.940054e+09 3.209688e+02 1.069158e+02 1.350718e+01
-1.635425e+09 -1.435425e+09 -1.595424e+09 1.032917e+02 4.903702e+01 4.118480e+00
-2.219276e+09 -2.019275e+09 -2.179275e+09 -1.501162e+01 -3.287768e+01 -5.114719e+00
-1.635425e+09 -1.435426e+09 -1.595424e+09 -5.542832e+01 -6.834800e+01 -1.292564e+01
-1.900905e+09 -1.700904e+09 -1.860904e+09 1.558744e+02 1.230420e+02 -3.089496e+01
-3.759933e+09 -3.559933e+09 -3.719933e+09 5.473566e+00 1.791356e+01 -1.801460e+00
-1.988712e+09 -1.788713e+09 -1.948713e+09 5.017865e+02 -2.466061e+02 -3.219397e+02
-2.968372e+09 -2.768372e+09 -2.928372e+09 4.976904e+01 8.388272e+00 2.225819e+00
-4.974964e+09 -4.774963e+09 -4.934965e+09 1.297106e+03 -3.174856e+01 -4.496414e+01
-4.125209e+09 -3.925214e+09 -4.085212e+09 -1.673051e+02 6.702060e+01 3.900554e+02
-2.108146e+09 -1.908144e+09 -2.068145e+09 9.308091e+01 -3.280016e+02 -5.980623e+02
-3.927205e+09 -3.727205e+09 -3.887206e+09 3.258950e+02 -1.372594e+02 -1.768651e+02
-1.961168e+09 -1.761169e+09 -1.921168e+09 6.770847e+02 -3.564712e+02 1.823106e+02
-1.861643e+09 -1.661643e+09 -1.821643e+09 3.704969e+02 -2.106005e+02 2.476853e+01
-3.915386e+09 -3.715388e+09 -3.875387e+09 6.918040e+02 -4.866890e+02 2.104686e+02
-2.192147e+09 -1.992147e+09 -2.152147e+09 1.268973e+02 1.545354e+01 -8.611786e+00
-2.903171e+09 -2.703171e+09 -2.863170e+09 4.531450e+02 -3.056727e+02 1.501916e+02
-2.761023e+09 -2.561024e+09 -2.721023e+09 9.502742e+00 -3.461431e+01 2.687377e+01
-2.082057e+09 -1.882057e+09 -2.042057e+09 9.186045e+01 1.744737e+01 -3.357154e+01
-4.670918e+09 -4.470918e+09 -4.630918e+09 3.358282e+01 2.232241e+00 -1.719972e+01
-1.636097e+09 -1.436096e+09 -1.596097e+09 -5.950156e-01 2.175521e+01 -1.915609e+00
-4.039143e+09 -3.839143e+09 -3.999143e+09 5.530740e+01 -2.199644e+00 -4.415440e+00
-4.976482e+09 -4.776482e+09 -4.936482e+09 4.500010e+01 -6.978141e+00 3.392380e+00
-2.005095e+09 -1.805095e+09 -1.965095e+09 2.126950e+02 1.172699e+01 4.383919e+00
-2.835903e+09 -2.635903e+09 -2.795903e+09 1.270487e+01 1.214898e+01 -2.887514e+00
-4.093684e+09 -3.893688e+09 -4.053685e+09 5.928528e+01 -1.429803e+02 1.087148e+00
-2.988811e+09 -2.788815e+09 -2.948813e+09 3.269960e+02 -1.261087e+03 2.047749e+02
-4.970425e+09 -4.770424e+09 -4.930425e+09 -4.383842e+01 6.132943e+00 7.699914e+00
-4.044144e+09 -3.844144e+09 -4.004144e+09 -8.720158e+00 -2.150173e+00 -2.182702e+00
-3.513393e+09 -3.313393e+09 -3.473393e+09 -5.520818e+00 -9.480260e+00 -1.426486e+00
-2.781039e+09 -2.581039e+09 -2.741039e+09 -4.117788e+01 -1.384797e+01 -3.037107e+00
-4.964165e+09 -4.764165e+09 -4.924165e+09 5.738599e+01 -9.101580e+00 2.040949e+00
-3.743841e+09 -3.543840e+09 -3.703841e+09 -2.477381e+00 2.345083e+00 -1.723222e+00
-1.698308e+09 -1.498313e+09 -1.658310e+09 7.416300e+02 -1.302887e+03 2.950906e+02
-2.906120e+09 -2.706125e+09 -2.866123e+09 -1.664749e+02 -1.373255e+03 6.276097e+01
-1.571484e+09 -1.371489e+09 -1.531485e+09 2.232872e+02 -7.122391e+02 7.647638e+01
-2.418156e+09 -2.218160e+09 -2.378158e+09 3.528993e+02 -7.193205e+02 1.891866e+02
-2.589198e+09 -2.389202e+09 -2.549199e+09 1.670401e+00 -1.135206e+02 3.157795e+01
-4.092859e+09 -3.892860e+09 -4.052860e+09 -8.076961e+02 6.690446e+00 3.447728e+01
-4.710895e+09 -4.510894e+09 -4.670894e+09 1.039061e+01 9.751133e-01 7.714163e+00
-3.487643e+09 -3.287643e+09 -3.447643e+09 -2.317393e+00 7.781583e+00 -1.906432e+00
-1.989550e+09 -1.789550e+09 -1.949550e+09 3.437442e+00 3.669943e+00 6.946408e-01
-3.620601e+09 -3.420601e+09 -3.580601e+09 8.969909e+01 1.901705e+01 -3.918956e+00
-1.556065e+09 -1.356066e+09 -1.516065e+09 1.518332e+02 2.031790e+01 2.806672e+01
-4.309271e+09 -4.109271e+09 -4.269271e+09 1.177796e+00 9.657402e+00 -1.583061e+00
-4.685070e+09 -4.485069e+09 -4.645069e+09 1.580420e+01 4.077570e+00 8.435613e+00
-4.580897e+09 -4.380896e+09 -4.540896e+09 1.089108e+01 5.505349e+00 6.050900e+00
-4.423803e+09 -4.223803e+09 -4.383803e+09 -1.521950e+01 -9.417416e+00 1.150116e+00
-4.971517e+09 -4.771518e+09 -4.931517e+09 -6.183246e+01 1.262062e+01 -4.904688e+00
-3.383721e+09 -3.183722e+09 -3.343720e+09 5.446106e+01 2.328820e+01 5.811238e+00
-1.611484e+09 -1.411484e+09 -1.571483e+09 7.518662e+01 -1.628023e+01 6.552558e+00
-1.887989e+09 -1.687990e+09 -1.847988e+09 -1.480091e+02 2.314391e+01 -7.295074e+01
-1.933004e+09 -1.733005e+09 -1.893004e+09 -5.055853e+01 -2.837688e+01 -5.868947e+01
-2.184054e+09 -1.984053e+09 -2.144053e+09 -1.984707e+01 -2.741374e+01 -3.613951e+01
-2.872270e+09 -2.672270e+09 -2.832269e+09 -1.512211e+02 -1.056159e+01 -4.197106e+01
-4.892162e+09 -4.692161e+09 -4.852161e+09 -4.417460e+01 1.894753e-09 -2.401972e+00
-4.980408e+09 -4.780408e+09 -4.940407e+09 4.807658e+02 -1.150481e+02 4.415540e+01
-4.507241e+09 -4.307241e+09 -4.467241e+09 2.102509e+01 -7.291639e+00 -1.244323e+01
-4.700749e+09 -4.500748e+09 -4.660748e+09 -2.185569e+01 -1.191023e+01 -5.725713e+00
-2.214155e+09 -2.014153e+09 -2.174154e+09 -8.024350e+01 -3.483046e+02 -2.471872e+01
-4.950148e+09 -4.750148e+09 -4.910148e+09 -7.565751e+02 -2.034098e+02 -8.472068e+00
-3.193012e+09 -2.993012e+09 -3.153011e+09 6.953656e+02 7.900311e+01 -1.277665e+01
-3.695684e+09 -3.495683e+09 -3.655684e+09 1.565439e+02 1.709730e+02 -3.788177e+01
-2.202022e+09 -2.002024e+09 -2.162022e+09 -2.376415e+02 -5.698805e+01 -1.192120e+02
-3.338899e+09 -3.138898e+09 -3.298898e+09 1.278588e+02 7.301972e+01 -7.987673e+00
-2.155640e+09 -1.955640e+09 -2.115639e+09 2.533727e+02 4.162216e+01 6.123604e+00
-4.961441e+09 -4.761439e+09 -4.921442e+09 -6.205291e+02 -2.311804e+02 1.999334e+02
-4.482278e+09 -4.282280e+09 -4.442285e+09 1.577889e+03 1.840348e+03 -4.359102e+02
-4.981622e+09 -4.781621e+09 -4.941622e+09 -9.486265e+02 -4.431009e+00 3.963233e+01
-3.952131e+09 -3.752136e+09 -3.912132e+09 -1.775583e+02 1.755825e+02 1.570259e+03
-4.629576e+09 -4.429579e+09 -4.589577e+09 -1.649387e+02 -1.009290e+02 -5.167842e+01
-2.155734e+09 -1.955738e+09 -2.115735e+09 1.448728e+02 -1.581219e+02 9.891076e+01
-4.503745e+09 -4.303748e+09 -4.463748e+09 -1.008173e+02 -5.205532e+02 1.268385e+02
-2.579203e+09 -2.379202e+09 -2.539203e+09 2.150989e+00 1.370194e+01 -8.563390e-01
-4.315347e+09 -4.115347e+09 -4.275339e+09 -3.083961e+03 -1.413382e+03 2.547738e+03
-4.638174e+09 -4.438178e+09 -4.598177e+09 4.108360e+01 -2.036380e+02 2.749501e+01
-4.982707e+09 -4.782711e+09 -4.942709e+09 1.010630e+02 -8.906684e+01 -1.993608e+01
-1.594516e+09 -1.394521e+09 -1.554517e+09 -2.352298e+00 -6.412034e+02 3.294426e+01
-4.807804e+09 -4.607802e+09 -4.767801e+09 -2.564335e+03 1.446997e+02 -3.646593e+01
-4.986812e+09 -4.786816e+09 -4.946813e+09 -1.352533e+03 -5.797911e+00 2.731957e+02
-4.664737e+09 -4.464737e+09 -4.624737e+09 -2.826689e+02 -2.169039e+01 -3.659003e+01
-4.299011e+09 -4.099010e+09 -4.259010e+09 -1.581441e+02 1.634201e+01 5.130635e+00
-3.966537e+09 -3.766536e+09 -3.926536e+09 -1.097283e+02 5.178197e+00 -3.241626e+01
-3.963749e+09 -3.763744e+09 -3.923748e+09 -3.354665e+01 4.585530e+02 -1.131520e+03
-4.658149e+09 -4.458145e+09 -4.618148e+09 2.994210e+02 1.391262e+02 -2.796857e+02
-4.985936e+09 -4.785936e+09 -4.945936e+09 -2.524413e+02 4.991431e+00 1.212075e+01
-3.965573e+09 -3.765573e+09 -3.925572e+09 -2.913802e+02 2.666266e+01 -4.247043e+01
-4.319243e+09 -4.119243e+09 -4.279242e+09 -5.035579e+02 3.580106e+01 1.068705e+01
-4.809983e+09 -4.609983e+09 -4.769983e+09 -1.487914e+02 -6.805202e+00 -1.264402e+01
-4.139552e+09 -3.939549e+09 -4.099551e+09 -1.230832e+03 -2.032442e+02 -5.151237e+01
-3.430538e+09 -3.230536e+09 -3.390537e+09 3.073039e+02 2.057063e+02 -1.063643e+02
-3.970593e+09 -3.770593e+09 -3.930593e+09 -3.401749e+02 -3.717915e+01 -3.365287e+01
-3.964305e+09 -3.764305e+09 -3.924305e+09 -2.598229e+02 -1.914773e+01 1.528936e+01
-4.984274e+09 -4.784274e+09 -4.944274e+09 -4.261570e+02 -5.858141e-01 4.677361e-01
-3.387734e+09 -3.187734e+09 -3.347734e+09 -9.348952e+00 -2.310168e+01 -7.516157e-01
-4.984274e+09 -4.784274e+09 -4.944274e+09 -3.269684e+02 -6.981965e-01 -4.320978e+01
-4.305682e+09 -4.105683e+09 -4.265683e+09 -4.062621e+02 -1.456137e+01 -3.187623e+01
-4.312170e+09 -4.112169e+09 -4.272169e+09 -3.125084e+02 9.440917e+00 -1.498198e+00
-4.655775e+09 -4.455774e+09 -4.615775e+09 -2.583957e+02 -2.431730e+01 -9.471904e+00
-3.962859e+09 -3.762862e+09 -3.922862e+09 -4.797294e+02 -1.251915e+03 -1.079630e+02
-4.818698e+09 -4.618698e+09 -4.778702e+09 4.396756e+02 -2.594762e+02 6.419121e+01
-4.127027e+09 -3.927027e+09 -4.087027e+09 2.699905e+02 2.122914e+01 -2.172406e+00
-4.135782e+09 -3.935783e+09 -4.095783e+09 -3.342807e+02 7.085873e+00 -4.349596e+01
-4.644238e+09 -4.444237e+09 -4.604241e+09 1.714956e+03 6.479872e+02 -3.201394e+02
-4.984566e+09 -4.784564e+09 -4.944572e+09 1.489478e+03 7.560630e+02 -4.718843e+02
-4.988556e+09 -4.788556e+09 -4.948556e+09 1.967560e+02 -7.021711e+00 -1.266757e+01
-4.299974e+09 -4.099975e+09 -4.259975e+09 2.141203e+02 -3.412026e-01 -7.198157e+00
-4.807633e+09 -4.607632e+09 -4.767632e+09 -8.859339e+01 -7.299349e+00 -2.563636e+01
-4.995764e+09 -4.795765e+09 -4.955764e+09 6.523390e+02 -2.742332e+01 -1.046210e+02
-3.955780e+09 -3.755781e+09 -3.915781e+09 4.265551e+02 -1.798141e+01 -1.283509e+02
-4.980059e+09 -4.780059e+09 -4.940059e+09 -8.224401e+01 3.042771e+00 1.298291e+01
-2.777584e+09 -2.577583e+09 -2.737583e+09 -2.113666e+01 -3.741491e+00 -3.062642e+01
-4.148578e+09 -3.948579e+09 -4.108579e+09 4.534894e+02 -6.323502e+00 -1.316617e+02
-4.957832e+09 -4.757831e+09 -4.917831e+09 -1.415256e+02 6.399290e-01 4.154717e+00
-3.966066e+09 -3.766067e+09 -3.926066e+09 6.694925e+02 -1.267921e+00 -6.435542e+01
-4.295759e+09 -4.095759e+09 -4.255759e+09 6.900132e+02 -8.598255e+01 -1.783339e+02
-4.103215e+09 -3.903219e+09 -4.063217e+09 -1.244229e+03 -4.598480e+01 8.068895e+01
-1.588676e+09 -1.388676e+09 -1.548676e+09 -7.948019e+01 3.082735e+01 -5.577153e+01
-4.988727e+09 -4.788728e+09 -4.948725e+09 -2.210667e+03 -1.750249e+02 8.021306e+01
-4.468334e+09 -4.268337e+09 -4.428333e+09 -2.746059e+03 -5.629686e+02 8.562760e+02
-2.968230e+09 -2.768231e+09 -2.928230e+09 -1.688325e+02 -6.613771e+01 -4.652147e+01
-2.488689e+09 -2.288689e+09 -2.448689e+09 5.781503e+01 2.053041e+01 -7.463204e+00
-1.850001e+09 -1.650001e+09 -1.810001e+09 -1.838913e+02 3.230495e+01 -4.844759e+01
-4.646911e+09 -4.446911e+09 -4.606911e+09 -2.251682e+03 -2.488261e+02 4.135148e+02
-2.159895e+09 -1.959895e+09 -2.119894e+09 -2.874459e+02 -9.792739e+00 -4.085353e+01
-2.947163e+09 -2.747163e+09 -2.907163e+09 8.402836e+00 1.134175e+00 -5.644267e-01
-4.040664e+09 -3.840664e+09 -4.000664e+09 1.489782e+02 5.566179e-01 1.971668e+00
-2.764450e+09 -2.564450e+09 -2.724450e+09 -2.138435e+00 7.154512e+00 -1.201670e+00
-4.890117e+09 -4.690120e+09 -4.850117e+09 6.303256e+01 -1.470273e-08 -1.306234e+01
-4.443886e+09 -4.243886e+09 -4.403886e+09 -3.994508e+00 3.092907e+00 -9.636238e-01
-4.896967e+09 -4.696966e+09 -4.856966e+09 -2.216723e+00 -2.242686e+00 8.877524e-11
-4.465352e+09 -4.265352e+09 -4.425352e+09 8.466799e+00 3.265125e+00 -5.252954e+00
-2.704729e+09 -2.504728e+09 -2.664728e+09 -7.810730e-01 3.394767e+00 -2.900670e+00
-3.946550e+09 -3.746550e+09 -3.906550e+09 2.757474e+00 -9.933423e-01 2.692268e+00
-3.895274e+09 -3.695277e+09 -3.855275e+09 1.706245e+02 8.752718e+00 1.072740e+01
-4.503615e+09 -4.303614e+09 -4.463614e+09 2.768476e+01 5.156735e+00 6.879262e-01
-4.993825e+09 -4.793827e+09 -4.953825e+09 4.654817e+02 -3.826324e+01 1.658653e+01
-4.994201e+09 -4.794203e+09 -4.954202e+09 6.862986e+02 6.425164e+01 2.617861e+01
-3.645119e+09 -3.445122e+09 -3.605120e+09 -5.757008e+01 -1.165976e+02 -2.993916e+01
-3.411224e+09 -3.211227e+09 -3.371225e+09 -1.665642e+02 -3.152954e+01 -4.213529e+01
-4.355719e+09 -4.155722e+09 -4.315720e+09 -6.070054e+01 -3.998890e+01 -7.039293e+00
-4.708894e+09 -4.508898e+09 -4.668896e+09 -1.429962e+02 -1.027178e+02 -6.521260e+01
-4.982751e+09 -4.782755e+09 -4.942753e+09 -2.190512e+02 -7.552316e+01 -8.460283e+00
-4.126082e+09 -3.926081e+09 -4.086089e+09 -6.724794e+02 -2.169395e+03 -1.688508e+02
-3.961025e+09 -3.761022e+09 -3.921031e+09 -7.210489e+02 -1.625089e+03 -4.343117e+02
-4.494468e+09 -4.294469e+09 -4.454468e+09 7.700814e+02 5.271088e+01 1.314718e+01
-4.505913e+09 -4.305913e+09 -4.465913e+09 3.617101e+01 1.265902e+01 -7.399471e+00
-4.651365e+09 -4.451364e+09 -4.611364e+09 -4.421890e+01 -1.260688e+01 -2.076048e+01
-4.996800e+09 -4.796799e+09 -4.956799e+09 5.680774e+00 1.613978e+01 1.209996e+01
-4.686413e+09 -4.486413e+09 -4.646413e+09 6.933585e+01 8.495709e+00 -1.211446e+01
-3.963487e+09 -3.763488e+09 -3.923493e+09 -7.123288e+02 -1.981150e+03 -1.458929e+02
-4.990725e+09 -4.790721e+09 -4.950730e+09 -3.357579e+02 -1.046751e+03 -3.370597e+02
-4.996235e+09 -4.796235e+09 -4.956235e+09 -8.985516e+01 -3.328939e+00 8.149968e+00
-3.970762e+09 -3.770761e+09 -3.930762e+09 1.725220e+02 1.457845e+01 7.982438e+00
-3.970762e+09 -3.770761e+09 -3.930762e+09 1.102541e+02 1.984339e+01 -1.891844e+01
-3.936452e+09 -3.736449e+09 -3.896456e+09 -8.797935e+02 2.304422e+01 4.490981e+02
-3.683968e+09 -3.483968e+09 -3.643968e+09 -2.870324e+00 -3.340326e+00 2.295408e-02
-4.819202e+09 -4.619202e+09 -4.779202e+09 9.989789e+01 6.959340e+00 4.396341e-01
-3.667029e+09 -3.467030e+09 -3.627029e+09 5.612604e+02 -2.345217e+02 1.564330e+02
-3.953639e+09 -3.753637e+09 -3.913645e+09 -5.986829e+02 -1.883866e+03 1.377639e+02
-4.087272e+09 -3.887272e+09 -4.047272e+09 1.805417e+02 -7.586630e+01 2.397147e+01
-1.803793e+09 -1.603795e+09 -1.763793e+09 6.090003e+02 -4.602423e+02 1.479971e+02
-4.820459e+09 -4.620455e+09 -4.780463e+09 -2.873081e+02 -4.066873e+02 -3.835953e+02
-4.107069e+09 -3.907070e+09 -4.067069e+09 8.828363e+02 6.168638e+01 -8.284497e+01
-4.985985e+09 -4.785986e+09 -4.945985e+09 9.594744e+02 4.521805e+00 -2.014595e+01
-4.813271e+09 -4.613274e+09 -4.773273e+09 5.276790e+02 -3.129887e+02 6.709761e+01
-4.993751e+09 -4.793752e+09 -4.953753e+09 6.861018e+02 -1.926364e+02 5.335412e+01
-3.962858e+09 -3.762862e+09 -3.922862e+09 -2.594324e+02 -1.206984e+03 -1.184423e+01
-5.003805e+09 -4.803804e+09 -4.963806e+09 1.977721e+03 -4.160683e+01 -2.578845e+01
-3.968744e+09 -3.768746e+09 -3.928742e+09 2.746210e+03 1.043928e+03 1.561048e+03
-3.971164e+09 -3.771163e+09 -3.931164e+09 2.188195e+03 2.899256e+02 -1.851838e+02
-4.518582e+09 -4.318584e+09 -4.478583e+09 1.382124e+03 2.282285e+02 -4.164290e+01
-4.809067e+09 -4.609063e+09 -4.769069e+09 9.094042e+02 -9.749443e+01 -3.997937e+02
-4.500435e+09 -4.300436e+09 -4.460436e+09 1.508535e+03 2.142968e+02 -1.027284e+02
-4.993861e+09 -4.793860e+09 -4.953862e+09 1.479418e+03 1.411234e+02 -1.288773e+02
-4.271609e+09 -4.071613e+09 -4.231601e+09 1.159005e+03 6.199523e+02 4.425442e+03
-5.000862e+09 -4.800861e+09 -4.960861e+09 2.369893e+03 5.541072e+01 2.492236e+02
-4.327926e+09 -4.127927e+09 -4.287926e+09 9.908873e+02 5.486595e+01 1.438962e+01
-4.131647e+09 -3.931647e+09 -4.091646e+09 1.161931e+03 2.711744e+02 -1.295750e+02
-4.609946e+09 -4.409947e+09 -4.569946e+09 -5.931760e+02 -1.722581e+01 1.217597e+01
-4.983219e+09 -4.783221e+09 -4.943220e+09 -1.177970e+03 8.679297e+01 6.366805e+01
-2.279753e+09 -2.079754e+09 -2.239754e+09 -2.402467e+02 -1.814054e+01 -2.083321e+01
-4.991582e+09 -4.791579e+09 -4.951586e+09 -1.088141e+03 -8.262437e+02 1.183477e+02
-1.676473e+09 -1.476473e+09 -1.636473e+09 -2.268980e+02 -3.440667e+01 2.482653e+00
-3.979675e+09 -3.779665e+09 -3.939664e+09 -2.460437e+03 3.788579e+03 -1.453966e+03
-3.953204e+09 -3.753199e+09 -3.913201e+09 -1.983507e+03 2.063709e+03 -2.487543e+02
-2.328100e+09 -2.128100e+09 -2.288100e+09 -1.757315e+02 -1.037221e+01 8.313855e+00
-3.049402e+09 -2.849402e+09 -3.009402e+09 -7.567032e+01 -1.073428e+01 3.227256e+00
-2.545349e+09 -2.345350e+09 -2.505350e+09 -1.123594e+01 -8.329224e+00 -6.766543e+00
-4.101847e+09 -3.901847e+09 -4.061847e+09 5.585129e+02 -2.937600e+01 -1.117653e+02
-1.906199e+09 -1.706204e+09 -1.866203e+09 -1.236037e+02 6.482514e+01 9.335298e+02
-4.652236e+09 -4.452236e+09 -4.612236e+09 3.600666e+02 2.459427e+01 1.613132e+01
-2.216824e+09 -2.016829e+09 -2.176828e+09 5.919229e+02 3.906012e+02 8.994938e+02
-2.100730e+09 -1.900734e+09 -2.060733e+09 1.893689e+01 -2.524043e+01 8.449012e+01
-4.892129e+09 -4.692134e+09 -4.852132e+09 -1.753558e+01 -1.145154e+01 3.585881e-09
-4.466385e+09 -4.266389e+09 -4.426384e+09 -1.401514e+03 -4.225994e+02 1.511170e+03
-2.797648e+09 -2.597650e+09 -2.757651e+09 -4.585733e+02 1.275216e+02 -5.681966e+01
-3.668108e+09 -3.468109e+09 -3.628107e+09 4.154627e+02 3.709539e+01 1.810682e+01
-3.123900e+09 -2.923900e+09 -3.083899e+09 4.236106e+02 8.180390e+01 -2.014353e+01
-1.974317e+09 -1.774322e+09 -1.934321e+09 2.981308e+02 1.633682e+02 2.841660e+02
-1.686772e+09 -1.486772e+09 -1.646771e+09 5.814071e+02 6.826332e+01 1.181539e+01
-2.657031e+09 -2.457031e+09 -2.617030e+09 4.762757e+02 7.387668e+01 2.266913e+01
-2.306775e+09 -2.106776e+09 -2.266775e+09 6.207685e+02 1.012068e+02 -4.593578e+00
-3.566920e+09 -3.366920e+09 -3.526919e+09 4.574729e+02 7.561960e+01 -2.646787e+01
-4.890118e+09 -4.690119e+09 -4.850118e+09 -1.198172e+01 -4.974092e-05 1.370990e+01
-1.883088e+09 -1.683092e+09 -1.843089e+09 5.471991e+01 -1.046505e+02 3.805946e+01
-4.525378e+09 -4.325382e+09 -4.485380e+09 1.725277e+02 -7.152975e+01 6.286409e+00
-4.779863e+09 -4.579867e+09 -4.739866e+09 -6.070626e+01 -1.456684e+02 1.500996e+02
-4.023630e+09 -3.823630e+09 -3.983629e+09 -4.608576e+01 -1.084164e+00 -9.719077e+00
-4.102328e+09 -3.902331e+09 -4.062330e+09 2.134262e+02 -3.314062e+02 5.641471e+01
-1.542621e+09 -1.342621e+09 -1.502620e+09 1.292982e+02 2.824011e+01 3.051672e+01
-2.190143e+09 -1.990143e+09 -2.150143e+09 -2.439012e+01 -1.206809e+01 -2.398592e+01
-3.173594e+09 -2.973594e+09 -3.133593e+09 -2.228857e+02 -2.609453e+01 -7.259730e+01
-4.617827e+09 -4.417827e+09 -4.577827e+09 -2.462872e+02 -5.716139e+00 -2.410477e+01
-1.970855e+09 -1.770855e+09 -1.930854e+09 4.611304e+01 3.045584e+01 1.529282e+00
-1.655813e+09 -1.455812e+09 -1.615812e+09 1.213598e-02 1.382555e+00 -1.652266e+01
-1.972383e+09 -1.772383e+09 -1.932383e+09 5.084864e+00 9.319407e-01 -5.782141e+00
-2.239652e+09 -2.039652e+09 -2.199651e+09 5.637344e+01 2.641542e+01 4.703971e+00
-1.880280e+09 -1.680281e+09 -1.840280e+09 2.340799e+01 1.529734e+01 -2.848868e+00
-2.298178e+09 -2.098178e+09 -2.258178e+09 1.183916e+01 1.791418e+01 -2.332635e+01
-2.082150e+09 -1.882150e+09 -2.042149e+09 -1.655604e+01 2.262681e+00 -3.645240e+01
-1.923142e+09 -1.723142e+09 -1.883141e+09 -1.226539e+00 8.705927e+00 -4.133115e+01
-2.594428e+09 -2.394428e+09 -2.554428e+09 -2.004190e+02 -1.041363e+01 -4.227642e+01
-1.542621e+09 -1.342621e+09 -1.502620e+09 1.581502e+02 -8.364101e+00 3.031691e+01
-2.853465e+09 -2.653466e+09 -2.813464e+09 3.890327e+01 -1.283091e+01 1.673544e+01
-2.196618e+09 -1.996619e+09 -2.156617e+09 2.379177e+01 7.402219e+00 9.628778e+00
-1.657212e+09 -1.457212e+09 -1.617211e+09 3.308551e+01 1.102410e+01 5.992582e+00
-2.679759e+09 -2.479763e+09 -2.639760e+09 -1.236305e+02 -1.893161e+02 2.365629e+01
-1.880220e+09 -1.680220e+09 -1.840219e+09 2.661370e+01 1.789998e+01 4.715298e+00
-1.927822e+09 -1.727822e+09 -1.887821e+09 2.662027e+01 1.183570e+01 9.979978e+00
-2.600467e+09 -2.400467e+09 -2.560466e+09 1.751225e+00 -1.701935e+00 -5.004415e+01
-1.682293e+09 -1.482293e+09 -1.642293e+09 -7.261205e+01 2.500770e+00 -6.034051e+01
-2.588237e+09 -2.388238e+09 -2.548237e+09 -5.909769e+00 1.648814e+00 -6.537397e+01
-1.685325e+09 -1.485326e+09 -1.645324e+09 -1.159200e+02 1.019869e+01 -7.185344e+01
-2.576978e+09 -2.376979e+09 -2.536977e+09 -2.671386e+02 -4.783052e-01 -5.150243e+01
-2.231961e+09 -2.031961e+09 -2.191961e+09 -6.243027e+01 4.143399e+00 -2.758467e+01
-1.670037e+09 -1.470037e+09 -1.630036e+09 -1.075021e+02 6.756334e+00 -6.955090e+01
-4.516628e+09 -4.316627e+09 -4.476627e+09 2.112578e+02 5.724838e+01 -5.832128e+00
-1.821543e+09 -1.621543e+09 -1.781542e+09 1.099064e+02 4.909687e+01 -2.496363e+01
-2.260071e+09 -2.060070e+09 -2.220072e+09 7.994126e+02 -6.218545e+02 -8.574814e+02
-4.706551e+09 -4.506550e+09 -4.666550e+09 1.920194e+02 2.181391e+01 2.646603e+01
-4.360977e+09 -4.160976e+09 -4.320976e+09 3.685622e+02 3.095519e+00 2.751537e+01
-4.892245e+09 -4.692244e+09 -4.852244e+09 1.461089e+02 2.413879e+01 6.298023e-08
-3.690019e+09 -3.490018e+09 -3.650018e+09 1.391472e+02 1.363141e+02 -3.409500e+01
-2.193588e+09 -1.993590e+09 -2.153588e+09 8.806679e+02 -6.287975e+02 3.040833e+02
-3.818341e+09 -3.618344e+09 -3.778343e+09 3.828159e+02 -2.832824e+02 9.614899e+01
-4.021162e+09 -3.821161e+09 -3.981161e+09 2.034574e+02 4.693054e+01 -2.955349e+01
-2.130761e+09 -1.930765e+09 -2.090762e+09 2.400656e+01 -1.513158e+02 3.274460e+01
-1.881379e+09 -1.681384e+09 -1.841380e+09 6.870770e+02 -1.354049e+03 2.469380e+02
-1.607634e+09 -1.407635e+09 -1.567634e+09 8.843956e+01 9.641822e+00 3.023880e+01
-3.160504e+09 -2.960503e+09 -3.120503e+09 4.460344e+02 1.611966e+02 -5.799166e+01
-2.328133e+09 -2.128134e+09 -2.288134e+09 1.403674e+02 3.771980e+00 4.787978e+00
-4.700195e+09 -4.500194e+09 -4.660195e+09 1.885973e+02 4.998800e+01 5.399532e+00
-1.636319e+09 -1.436319e+09 -1.596319e+09 3.787100e+00 1.423769e+01 1.569277e+00
-1.603275e+09 -1.403276e+09 -1.563275e+09 4.203797e+01 9.154894e+00 2.179166e+01
-4.967263e+09 -4.767263e+09 -4.927263e+09 5.242842e+01 -4.905957e+00 2.079595e+00
-2.578495e+09 -2.378494e+09 -2.538495e+09 -1.241907e+02 -3.270335e+02 -7.505117e+01
-4.629386e+09 -4.429385e+09 -4.589386e+09 -2.192155e+02 8.992989e+01 -7.184996e+01
-2.812111e+09 -2.612111e+09 -2.772112e+09 -1.124111e+02 1.887025e+02 -1.292968e+02
-2.614224e+09 -2.414222e+09 -2.574224e+09 3.756593e+01 -3.482631e+02 9.012662e+01
-1.923049e+09 -1.723050e+09 -1.883050e+09 -5.883780e+00 -2.700771e+02 -2.270315e+00
-3.277670e+09 -3.077670e+09 -3.237672e+09 8.149851e+02 -2.609287e+02 -3.547493e+02
-2.126726e+09 -1.926727e+09 -2.086727e+09 -1.364413e+01 -4.437275e+00 2.322491e+00
-3.075938e+09 -2.875939e+09 -3.035938e+09 -9.854479e+00 -6.664212e+00 8.240590e-01
-4.713660e+09 -4.513661e+09 -4.673661e+09 -3.291632e+02 4.858449e+01 -2.041849e+02
-4.532979e+09 -4.332977e+09 -4.492978e+09 1.566705e+01 9.222306e+01 -9.910916e+00
-4.983205e+09 -4.783204e+09 -4.943205e+09 -2.292653e+02 7.223856e+01 -8.901864e+01
-4.890117e+09 -4.690117e+09 -4.850118e+09 2.605410e+01 1.415561e+01 6.585922e-09
-4.987517e+09 -4.787518e+09 -4.947518e+09 -3.993319e+02 -2.628882e+01 4.848062e+00
-3.955413e+09 -3.755415e+09 -3.915415e+09 -6.807186e+01 4.753591e+01 1.513579e+02
-1.676417e+09 -1.476417e+09 -1.636417e+09 -2.343024e+02 -3.577873e+01 -3.861906e+00
-2.593170e+09 -2.393170e+09 -2.553169e+09 2.418935e+02 1.364301e+01 2.619501e+00
-2.862696e+09 -2.662697e+09 -2.822695e+09 3.719815e+01 3.615452e+01 4.730083e-01
-4.890116e+09 -4.690117e+09 -4.850117e+09 -7.468810e+01 -2.121664e+01 -9.944769e-05
-3.366714e+09 -3.166715e+09 -3.326715e+09 6.455295e+00 1.356475e+02 2.148627e+01
-4.434021e+09 -4.234023e+09 -4.394023e+09 -7.054620e+01 3.750367e+01 3.156311e+01
-1.611484e+09 -1.411484e+09 -1.571483e+09 2.626270e+01 -1.603689e+00 2.008221e+00
-2.073102e+09 -1.873101e+09 -2.033101e+09 9.384400e+01 5.798928e+00 -3.379448e+00
-1.593682e+09 -1.393683e+09 -1.553681e+09 4.397870e+02 2.486322e+01 6.961411e+01
-1.696940e+09 -1.496942e+09 -1.656940e+09 5.886895e+02 6.717287e+01 2.128833e+01
-4.836297e+09 -4.636296e+09 -4.796281e+09 -1.960163e+03 -4.972969e+02 1.992793e+03
-4.471741e+09 -4.271738e+09 -4.431736e+09 -3.061240e+03 -9.813915e+02 1.058068e+03
-4.305026e+09 -4.105020e+09 -4.265021e+09 -2.202212e+03 -1.463480e+03 -1.347022e+03
-3.941358e+09 -3.741356e+09 -3.901358e+09 -5.865496e+02 -2.269819e+02 3.315988e+02
-4.825368e+09 -4.625367e+09 -4.785368e+09 -8.844410e+02 3.448360e+01 -7.427260e+01
-4.999308e+09 -4.799308e+09 -4.959309e+09 -1.135359e+03 2.085783e+01 4.575647e-01
-3.553420e+09 -3.353422e+09 -3.513420e+09 1.029334e+02 5.305355e+01 2.375238e+00
-4.407479e+09 -4.207479e+09 -4.367478e+09 1.732556e+02 4.396789e+00 2.954506e+01
-4.890118e+09 -4.690117e+09 -4.850117e+09 -1.120398e+00 -2.092627e+00 9.947602e-05
-4.759657e+09 -4.559657e+09 -4.719657e+09 1.937543e+01 1.547647e+00 1.504326e+00
-4.976482e+09 -4.776482e+09 -4.936482e+09 4.146490e+01 -5.464813e+00 6.876377e+00
-2.164833e+09 -1.964833e+09 -2.124833e+09 1.015152e+01 5.492417e+00 1.854929e+00
-4.702625e+09 -4.502625e+09 -4.662625e+09 2.197245e+01 2.079197e+00 -1.159025e+01
-4.301194e+09 -4.101193e+09 -4.261193e+09 -1.072256e+03 -3.540515e+01 6.975194e+01
-4.986691e+09 -4.786691e+09 -4.946694e+09 5.530275e+02 -4.095601e+02 1.384310e+02
-3.662155e+09 -3.462155e+09 -3.622155e+09 -1.348888e+00 -1.857488e+00 -5.216023e-01
-4.821927e+09 -4.621929e+09 -4.781930e+09 4.796206e+02 -3.247008e+02 3.593824e+01
-2.672612e+09 -2.472611e+09 -2.632611e+09 8.743826e+01 5.462938e+00 -1.328819e+00
-3.788280e+09 -3.588279e+09 -3.748280e+09 -1.900806e+00 -5.661293e+00 -1.448669e+00
-4.998444e+09 -4.798446e+09 -4.958439e+09 2.038644e+03 3.874284e+02 7.653827e+02
-4.140887e+09 -3.940887e+09 -4.100887e+09 1.598775e+01 -1.915130e-01 -3.605880e+00
-4.892349e+09 -4.692349e+09 -4.852349e+09 -1.017639e+00 -1.124377e+00 2.043233e-11
-2.712821e+09 -2.512821e+09 -2.672821e+09 5.846601e+00 1.939421e+00 5.129218e+00
-2.792843e+09 -2.592842e+09 -2.752842e+09 3.019835e+01 9.229531e+00 -6.414796e+00
-2.758031e+09 -2.558031e+09 -2.718031e+09 -2.360068e+00 7.062198e+00 -1.151335e+00
-4.638802e+09 -4.438798e+09 -4.598804e+09 6.653418e+02 -2.664228e+02 -5.960223e+02
-4.835892e+09 -4.635895e+09 -4.795891e+09 2.325305e+03 9.407614e+01 1.244060e+03
-3.968744e+09 -3.768748e+09 -3.928742e+09 2.808040e+03 2.214971e+03 2.372212e+03
-1.665855e+09 -1.465855e+09 -1.625854e+09 -2.596009e+02 -7.087843e+01 -1.041460e+01
-3.961060e+09 -3.761065e+09 -3.921061e+09 1.449220e+03 4.004152e+02 1.298397e+03
-4.281893e+09 -4.081898e+09 -4.241892e+09 -8.705916e+02 -2.123094e+02 1.819806e+03
-1.632567e+09 -1.432567e+09 -1.592566e+09 -4.553861e+01 -6.017402e+01 5.269019e+00
-4.987723e+09 -4.787725e+09 -4.947727e+09 1.480917e+03 4.851165e+02 -1.378117e+02
-4.994305e+09 -4.794305e+09 -4.954310e+09 1.648835e+03 6.695269e+02 -2.676226e+02
-4.849575e+09 -4.649574e+09 -4.809575e+09 9.745100e+01 7.681113e+00 7.779519e-01
-4.820750e+09 -4.620749e+09 -4.780749e+09 3.452833e+01 -7.842537e+00 -1.972980e+01
-5.013090e+09 -4.813089e+09 -4.973089e+09 6.740010e+01 -4.166054e+00 3.764370e+00
-4.854390e+09 -4.654390e+09 -4.814390e+09 5.238323e+01 5.212772e+00 1.397369e+01
-1.584344e+09 -1.384345e+09 -1.544343e+09 -3.790289e+02 -1.769378e+02 -2.321299e+01
-1.902939e+09 -1.702938e+09 -1.862938e+09 -6.234314e+01 -7.771866e+01 -9.901143e+00
-3.207975e+09 -3.007975e+09 -3.167974e+09 -2.489138e+00 4.284431e-01 -7.247198e+00
-4.986470e+09 -4.786470e+09 -4.946470e+09 1.606132e+01 3.029839e+00 2.091662e+01
-4.837299e+09 -4.637298e+09 -4.797298e+09 3.442764e+01 7.498127e+00 1.123472e+01
-4.905173e+09 -4.705174e+09 -4.865173e+09 -3.414762e-01 4.449290e-12 -7.296563e-01
-4.986471e+09 -4.786470e+09 -4.946470e+09 7.045669e+01 2.751884e+01 -9.129259e+00
-4.030201e+09 -3.830200e+09 -3.990200e+09 -1.468246e+01 6.247589e+00 -5.798679e+00
-3.210610e+09 -3.010608e+09 -3.170610e+09 3.046099e+02 4.837267e+02 -3.951374e+02
-4.987517e+09 -4.787517e+09 -4.947518e+09 -4.143563e+02 -1.927847e+01 -3.266294e+01
-2.811375e+09 -2.611376e+09 -2.771375e+09 -3.586544e-01 -3.902381e+00 1.382492e+00
-3.043365e+09 -2.843365e+09 -3.003365e+09 3.382549e+01 5.474922e+00 -3.832856e+00
-3.826252e+09 -3.626252e+09 -3.786251e+09 -5.000533e+01 -3.688967e+01 -6.210952e+01
-4.454003e+09 -4.254004e+09 -4.414003e+09 -5.282473e+01 -2.247841e+01 1.307438e+00
-4.689001e+09 -4.489003e+09 -4.649002e+09 -1.141547e+02 2.071704e+01 3.525389e+01
-2.791000e+09 -2.591001e+09 -2.751000e+09 -3.360189e+01 -5.012276e+01 -5.877951e+01
-3.404403e+09 -3.204403e+09 -3.364403e+09 -1.296640e+02 -3.685859e+01 -4.882127e+01
-3.836800e+09 -3.636802e+09 -3.796801e+09 -2.545644e+02 -1.720545e+02 -3.975210e+01
-4.388618e+09 -4.188617e+09 -4.348617e+09 3.386604e+01 3.814214e+00 -2.186681e+00
-1.673916e+09 -1.473916e+09 -1.633915e+09 -4.893917e+01 2.164267e+01 -4.766368e+01
-3.967427e+09 -3.767427e+09 -3.927426e+09 -2.883248e+02 -6.680844e+00 -5.401397e+01
-4.479410e+09 -4.279411e+09 -4.439410e+09 -6.836849e+02 4.116447e+01 -1.217328e+01
-1.588549e+09 -1.388549e+09 -1.548549e+09 -3.495801e+01 3.167437e+01 -4.099747e+01
-1.588676e+09 -1.388676e+09 -1.548676e+09 -1.187691e+02 1.079911e+01 -7.435664e+01
-2.838168e+09 -2.638168e+09 -2.798168e+09 -1.327698e+01 2.023864e+00 -2.169304e+01
-4.465256e+09 -4.265256e+09 -4.425256e+09 -3.601270e+02 1.152593e+01 -2.140332e+01
-4.468881e+09 -4.268881e+09 -4.428880e+09 -9.493852e+01 2.950408e+00 -1.933114e+01
-3.611437e+09 -3.411436e+09 -3.571436e+09 -2.343554e+01 6.742787e+00 -2.991247e+01
-3.274946e+09 -3.074946e+09 -3.234946e+09 1.113925e+01 2.119496e+01 -2.945199e+01
-1.588498e+09 -1.388497e+09 -1.548497e+09 2.709598e+01 1.413273e+01 -3.255697e+01
-2.337716e+09 -2.137716e+09 -2.297716e+09 3.056454e+01 3.185693e+00 -1.450340e+01
-4.594300e+09 -4.394302e+09 -4.554301e+09 -2.837301e+01 2.375970e+01 -2.298421e+02
-4.972509e+09 -4.772511e+09 -4.932509e+09 -2.013505e+02 5.205355e+01 -1.879125e+02
-4.477507e+09 -4.277509e+09 -4.437507e+09 3.368726e+02 7.067758e+01 -2.827044e+02
-4.483828e+09 -4.283827e+09 -4.443827e+09 -3.766624e+02 -2.574508e+01 8.294101e+00
-4.994737e+09 -4.794737e+09 -4.954737e+09 -3.300571e+02 1.548965e+00 1.623170e+01
-4.134274e+09 -3.934276e+09 -4.094273e+09 2.892487e+02 9.575425e+01 -9.027142e+02
-4.983758e+09 -4.783757e+09 -4.943757e+09 3.102664e+02 -3.015535e+01 -1.125716e+01
-3.954060e+09 -3.754059e+09 -3.914059e+09 2.490229e+02 2.363564e+01 -5.050530e+01
-4.962641e+09 -4.762640e+09 -4.922640e+09 6.771034e+01 -3.116210e+01 -4.211838e+00
-4.135040e+09 -3.935040e+09 -4.095040e+09 -6.230137e+02 -1.085133e+00 -4.515436e+01
-3.977178e+09 -3.777177e+09 -3.937177e+09 4.724943e+02 3.632148e+01 -5.381375e+01
-4.990801e+09 -4.790801e+09 -4.950801e+09 4.765062e+02 -1.863374e+01 -2.785487e+01
-4.107295e+09 -3.907291e+09 -4.067298e+09 -1.313874e+03 -6.321442e+02 1.437546e+02
-3.967686e+09 -3.767687e+09 -3.927686e+09 4.466168e+02 2.452371e+01 -4.142629e+01
-4.984544e+09 -4.784541e+09 -4.944547e+09 -1.038415e+03 -5.189267e+02 3.056726e+02
-4.125325e+09 -3.925323e+09 -4.085330e+09 -2.595630e+02 -1.779256e+03 5.876256e+02
-3.962794e+09 -3.762792e+09 -3.922798e+09 3.267004e+02 -1.490082e+03 1.337518e+03
-3.936454e+09 -3.736449e+09 -3.896456e+09 -1.271936e+03 -3.678950e+02 8.325908e+00
-3.970022e+09 -3.770023e+09 -3.930022e+09 3.229938e+02 2.193699e+01 -2.987908e+01
-4.989970e+09 -4.789970e+09 -4.949970e+09 4.101764e+02 -2.576862e+01 -5.892957e+01
-4.136914e+09 -3.936914e+09 -4.096914e+09 5.049829e+02 -1.197550e+01 -9.564061e+01
-4.997384e+09 -4.797385e+09 -4.957385e+09 4.351610e+02 -1.576553e+01 -4.800696e+01
-4.131628e+09 -3.931630e+09 -4.091629e+09 1.834581e+02 -1.354028e+01 -2.459247e+02
-3.971935e+09 -3.771936e+09 -3.931936e+09 4.050823e+02 1.734916e+01 -7.034282e+01
-3.967686e+09 -3.767687e+09 -3.927686e+09 5.445004e+02 2.121773e+00 -1.735884e+01
-3.961885e+09 -3.761881e+09 -3.921887e+09 -1.034222e+03 -4.867724e+02 7.240790e+02
-4.631214e+09 -4.431214e+09 -4.591214e+09 4.971115e+02 3.724244e+01 2.104437e+01
-3.977177e+09 -3.777177e+09 -3.937177e+09 7.460581e+02 3.252220e+00 -9.658186e+00
-4.810882e+09 -4.610879e+09 -4.770887e+09 -9.772021e+02 -2.044538e+02 4.079002e+01
-4.983274e+09 -4.783271e+09 -4.943280e+09 -6.818527e+02 -1.032696e+03 2.142953e+02
-4.269828e+09 -4.069824e+09 -4.229834e+09 -1.058636e+03 -2.101746e+03 3.049246e+02
-3.613922e+09 -3.413923e+09 -3.573923e+09 3.439788e+01 6.861079e+01 2.162737e+01
-3.960271e+09 -3.760271e+09 -3.920271e+09 4.220873e+02 3.606038e+01 -2.129895e+01
-4.820740e+09 -4.620742e+09 -4.780740e+09 1.361386e+02 3.734172e+01 -3.735087e+02
-4.107842e+09 -3.907844e+09 -4.067842e+09 4.227365e+02 -1.186960e+02 -7.516621e+02
-4.640247e+09 -4.440248e+09 -4.600247e+09 7.445273e+02 1.168746e+01 -1.614904e+02
-4.794308e+09 -4.594309e+09 -4.754307e+09 3.981494e+02 8.517842e+01 -6.224901e+01
-4.981735e+09 -4.781738e+09 -4.941737e+09 -8.523846e+02 5.283171e+01 2.547713e+02
-4.114456e+09 -3.914457e+09 -4.074455e+09 1.004934e+03 -6.985578e+01 -2.600615e+02
-2.573581e+09 -2.373581e+09 -2.533581e+09 1.372948e+01 1.080309e+00 -3.394807e+01
-3.578894e+09 -3.378894e+09 -3.538895e+09 -3.565128e+02 1.181569e+02 -1.546405e+02
-3.496519e+09 -3.296518e+09 -3.456519e+09 -7.612627e+02 5.046601e+01 -2.025815e+02
-4.687350e+09 -4.487350e+09 -4.647350e+09 -2.630343e+02 -6.283913e+01 -4.413162e+01
-4.456175e+09 -4.256177e+09 -4.416172e+09 1.146655e+03 -1.645567e+02 -6.528844e+02
-3.502890e+09 -3.302890e+09 -3.462889e+09 -3.038932e+01 -2.595348e+01 -2.115909e+01
-2.262722e+09 -2.062722e+09 -2.222721e+09 -1.686297e+02 -4.090622e+01 -3.776447e+01
-4.284148e+09 -4.084148e+09 -4.244145e+09 1.133844e+03 -2.583211e+02 -9.594882e+02
-1.636083e+09 -1.436086e+09 -1.596083e+09 -6.935167e+01 -1.395841e+02 3.527033e+00
-4.134274e+09 -3.934276e+09 -4.094273e+09 -1.831915e+02 2.272705e+02 -8.094989e+02
-3.949425e+09 -3.749425e+09 -3.909423e+09 1.306737e+03 -5.371856e+02 -6.615992e+02
-3.728615e+09 -3.528618e+09 -3.688616e+09 -3.276242e+02 -3.858365e+02 -6.514567e+01
-2.167054e+09 -1.967054e+09 -2.127053e+09 -9.713148e+01 -2.848520e+00 -3.629242e+01
-2.166369e+09 -1.966374e+09 -2.126370e+09 -2.654566e+00 -9.456520e+01 1.147421e+01
-3.882746e+09 -3.682746e+09 -3.842746e+09 1.059624e+02 4.373919e+00 1.142996e+01
-1.897932e+09 -1.697932e+09 -1.857932e+09 -8.158799e+01 2.595847e+01 -4.121800e+01
-2.611474e+09 -2.411474e+09 -2.571474e+09 2.708885e+01 1.129154e+01 -2.976411e+01
-3.151656e+09 -2.951655e+09 -3.111655e+09 1.454120e+01 1.051988e+01 -1.582553e+01
-1.572297e+09 -1.372297e+09 -1.532297e+09 -7.028048e+01 1.028620e+01 -4.473007e+01
-1.632351e+09 -1.432349e+09 -1.592350e+09 -7.771594e+02 -8.823070e+02 -8.632081e+02
-1.810247e+09 -1.610245e+09 -1.770246e+09 -6.128986e+02 -7.552573e+02 -7.603093e+02
-2.031273e+09 -1.831271e+09 -1.991272e+09 -7.118637e+02 -8.856785e+02 -9.055204e+02
-1.876286e+09 -1.676284e+09 -1.836285e+09 -6.582718e+02 -7.547365e+02 -6.713510e+02
-1.623071e+09 -1.423069e+09 -1.583070e+09 -4.149940e+02 -7.483914e+02 -7.989414e+02
-1.800967e+09 -1.600965e+09 -1.760966e+09 -4.012323e+02 -6.801862e+02 -7.263590e+02
-1.712018e+09 -1.512016e+09 -1.672018e+09 -5.379683e+01 -6.848274e+02 -9.009821e+02
-2.003433e+09 -1.803431e+09 -1.963433e+09 -3.624629e+01 -7.293103e+02 -8.905279e+02
-1.477364e+09 -1.277362e+09 -1.437363e+09 -8.098531e+02 -9.228441e+02 -9.096941e+02
-1.655260e+09 -1.455258e+09 -1.615259e+09 -6.482153e+02 -8.278603e+02 -8.249347e+02
-1.566312e+09 -1.366310e+09 -1.526311e+09 -6.867139e+02 -7.599235e+02 -7.359688e+02
-1.566312e+09 -1.366310e+09 -1.526311e+09 -6.884151e+02 -8.202698e+02 -7.936723e+02
-1.543403e+09 -1.343401e+09 -1.503402e+09 -8.099956e+02 -8.999823e+02 -6.953418e+02
-1.853376e+09 -1.653375e+09 -1.813376e+09 -7.528000e+02 -9.895507e+02 -7.594147e+02
-1.698390e+09 -1.498388e+09 -1.658389e+09 -8.633933e+02 -8.763064e+02 -5.965389e+02
-1.698389e+09 -1.498388e+09 -1.658389e+09 -6.940770e+02 -7.257594e+02 -6.290086e+02
-1.477364e+09 -1.277361e+09 -1.437363e+09 -4.722095e+02 -6.935001e+02 -8.185347e+02
-1.655260e+09 -1.455258e+09 -1.615259e+09 -4.861283e+02 -5.987386e+02 -7.303212e+02
-1.566311e+09 -1.366310e+09 -1.526311e+09 -5.127473e+02 -6.246582e+02 -7.128677e+02
-1.566311e+09 -1.366309e+09 -1.526311e+09 -1.976702e+02 -5.467985e+02 -8.665400e+02
-1.778058e+09 -1.578055e+09 -1.738057e+09 -5.085621e+02 -8.691677e+02 -8.262252e+02
-1.955954e+09 -1.755952e+09 -1.915953e+09 -4.125053e+02 -7.220151e+02 -7.105305e+02
-2.158420e+09 -1.958418e+09 -2.118420e+09 -3.227814e+02 -1.086373e+03 -9.966745e+02
-2.322686e+09 -2.122684e+09 -2.282686e+09 -1.255399e+02 -8.069323e+02 -8.072685e+02
-1.625708e+09 -1.425708e+09 -1.585708e+09 1.915245e+02 3.093716e+01 5.010606e-01
-1.790566e+09 -1.590567e+09 -1.750567e+09 1.692503e+02 2.490312e+01 1.423472e+01
-2.017867e+09 -1.817867e+09 -1.977867e+09 1.897369e+02 2.914870e+01 1.980840e+00
-1.863002e+09 -1.663002e+09 -1.823002e+09 1.906680e+02 2.240074e+01 3.684516e+00
-1.470843e+09 -1.270844e+09 -1.430844e+09 1.842825e+02 2.168646e+01 1.455243e+01
-1.635702e+09 -1.435702e+09 -1.595702e+09 1.655587e+02 2.018721e+01 6.176862e+00
-1.553272e+09 -1.353273e+09 -1.513273e+09 1.915803e+02 2.356598e+01 3.129912e+01
-1.553273e+09 -1.353273e+09 -1.513273e+09 1.767882e+02 2.093589e+01 2.074122e+01
-1.586514e+09 -1.386515e+09 -1.546514e+09 1.473084e+02 8.068935e+00 -1.143939e+01
-1.751373e+09 -1.551373e+09 -1.711373e+09 1.519233e+02 6.104704e+00 -5.971991e+00
-1.668943e+09 -1.468944e+09 -1.628944e+09 1.481176e+02 4.621530e+00 -2.302471e+00
-1.900285e+09 -1.700285e+09 -1.860285e+09 1.369572e+02 4.167770e+00 -1.064644e+01
-1.504085e+09 -1.304085e+09 -1.464085e+09 1.701709e+02 2.625472e+01 6.123045e+00
-1.504085e+09 -1.304085e+09 -1.464085e+09 1.526920e+02 2.023749e+01 -7.617622e-01
-1.735426e+09 -1.535427e+09 -1.695427e+09 1.519961e+02 2.306937e+01 6.914793e+00
-1.619755e+09 -1.419756e+09 -1.579756e+09 1.483633e+02 2.528471e+01 9.567961e+00
-1.504085e+09 -1.304085e+09 -1.464085e+09 1.321511e+02 2.281286e+01 7.056503e+00
-1.677591e+09 -1.477591e+09 -1.637591e+09 1.181178e+02 2.200515e+01 1.351894e+01
-1.561920e+09 -1.361921e+09 -1.521921e+09 1.333386e+02 2.231755e+01 8.305499e+00
-1.793262e+09 -1.593262e+09 -1.753262e+09 1.279107e+02 2.017240e+01 7.754874e+00
-1.677591e+09 -1.477591e+09 -1.637591e+09 1.239056e+02 2.242873e+01 1.044590e+01
-1.446249e+09 -1.246250e+09 -1.406250e+09 1.379075e+02 2.624567e+01 2.657687e+01
-1.446249e+09 -1.246250e+09 -1.406250e+09 1.162329e+02 2.525916e+01 3.317591e+01
-1.561920e+09 -1.361921e+09 -1.521921e+09 1.154262e+02 1.695847e+01 3.183430e+01
-1.793262e+09 -1.593262e+09 -1.753262e+09 1.137730e+02 1.928292e+01 1.456092e+01
-1.814592e+09 -1.614593e+09 -1.774593e+09 1.745164e+02 1.357531e+01 8.502213e-01
-2.045934e+09 -1.845935e+09 -2.005935e+09 1.747421e+02 1.316300e+01 -4.543802e+00
-2.241550e+09 -2.041550e+09 -2.201550e+09 1.738274e+02 1.082217e+01 -1.120783e+01
-2.395636e+09 -2.195637e+09 -2.355636e+09 1.640286e+02 8.993823e+00 2.528829e+00
-1.741379e+09 -1.541379e+09 -1.701379e+09 1.582877e+02 2.009091e+01 -4.895114e+00
-1.906237e+09 -1.706238e+09 -1.866238e+09 1.579162e+02 1.554139e+01 1.172896e+01
-2.055149e+09 -1.855150e+09 -2.015150e+09 1.504903e+02 1.789426e+01 -1.513227e+01
-2.249208e+09 -2.049209e+09 -2.209209e+09 1.482088e+02 1.635337e+01 -3.768188e+00
-1.659728e+09 -1.459729e+09 -1.619728e+09 1.683617e+02 2.479490e+01 4.076762e+00
-1.659728e+09 -1.459729e+09 -1.619728e+09 1.513331e+02 1.914131e+01 -1.969786e+00
-2.086685e+09 -1.886686e+09 -2.046685e+09 1.498514e+02 2.269397e+01 4.396211e+00
-1.891069e+09 -1.691070e+09 -1.851070e+09 1.539841e+02 2.467332e+01 8.865982e+00
-3.407847e+09 -3.207847e+09 -3.367847e+09 -3.226741e+02 -3.911152e+01 -9.738773e+00
-3.196120e+09 -2.996120e+09 -3.156120e+09 -3.488604e+02 -2.261625e+01 -2.491053e+01
-2.404963e+09 -2.204963e+09 -2.364963e+09 -3.176293e+02 -4.891031e+01 -7.202866e+00
-2.541572e+09 -2.341572e+09 -2.501572e+09 -3.444747e+02 -3.949976e+01 -3.137985e+01
-2.733133e+09 -2.533133e+09 -2.693133e+09 -4.181217e+02 -3.867044e+01 1.639459e+01
-2.800374e+09 -2.600374e+09 -2.760374e+09 -3.485762e+02 -2.200051e+01 -1.405496e+00
-2.981617e+09 -2.781620e+09 -2.941619e+09 -6.232993e+02 1.725201e+02 -7.325295e+02
-2.179109e+09 -1.979111e+09 -2.139111e+09 -7.895156e+02 3.851636e+02 -1.328012e+03
-2.969750e+09 -2.769752e+09 -2.929751e+09 -6.528521e+02 3.726608e+02 -1.660775e+03
-2.588400e+09 -2.388402e+09 -2.548400e+09 -1.367241e+03 1.018661e+03 -2.283900e+03
-2.572103e+09 -2.372106e+09 -2.532105e+09 -8.291232e+02 4.248326e+02 -1.249036e+03
-1.870448e+09 -1.670448e+09 -1.830449e+09 -1.551821e+03 2.731876e+02 -3.247209e+02
-2.455884e+09 -2.255883e+09 -2.415884e+09 -1.597830e+03 7.944840e+02 -1.732402e+02
-1.873455e+09 -1.673455e+09 -1.833456e+09 -1.704717e+03 7.140422e+02 -5.953125e+02
-2.586531e+09 -2.386533e+09 -2.546533e+09 -1.439490e+03 5.293708e+02 -9.580015e+02
-2.399107e+09 -2.199103e+09 -2.359107e+09 4.579087e+02 -2.562297e+03 2.548690e+03
-2.125158e+09 -1.925144e+09 -2.085158e+09 2.433362e+03 -1.231012e+03 5.230428e+03
-3.094994e+09 -2.894998e+09 -3.054995e+09 1.838901e+02 5.070489e+02 -2.210177e+01
-3.437043e+09 -3.237046e+09 -3.397044e+09 -2.292509e+02 4.078181e+02 5.871726e+01
-1.767584e+09 -1.567588e+09 -1.727585e+09 1.743748e+03 1.116147e+03 -3.374863e+02
-3.218181e+09 -3.018186e+09 -3.178183e+09 -2.511257e+02 6.691822e+02 1.056721e+02
-2.733692e+09 -2.533696e+09 -2.693693e+09 -5.613841e+01 3.231730e+02 2.795976e+01
-2.840148e+09 -2.640152e+09 -2.800149e+09 -2.365596e+02 3.785318e+02 -1.317749e-01
-2.595097e+09 -2.395099e+09 -2.555097e+09 -1.334231e+03 9.707245e+02 -2.705970e+03
-2.508855e+09 -2.308858e+09 -2.468855e+09 -1.564946e+03 1.660698e+03 -3.616528e+03
-3.074230e+09 -2.874231e+09 -3.034231e+09 -3.267068e+02 3.520523e+00 -4.184452e+01
-2.996096e+09 -2.796098e+09 -2.956096e+09 -1.017977e+03 6.620528e+02 -1.248200e+03
-2.562053e+09 -2.362056e+09 -2.522054e+09 -5.300885e+02 3.579157e+02 -2.373083e+03
-2.194145e+09 -1.994146e+09 -2.154146e+09 -1.863215e+03 1.004839e+03 -1.606113e+03
-2.536815e+09 -2.336816e+09 -2.496815e+09 -7.718114e+02 1.633208e+02 5.821196e+01
-2.462967e+09 -2.262968e+09 -2.422967e+09 -5.862035e+02 6.111927e+01 -1.334218e+01
-2.311622e+09 -2.111622e+09 -2.271622e+09 -5.313759e+02 3.609971e+01 -7.550237e+01
-1.930339e+09 -1.730339e+09 -1.890338e+09 -5.302780e+02 5.753941e+01 -2.923044e+01
-1.764302e+09 -1.564303e+09 -1.724302e+09 -6.867001e+02 1.658554e+01 -7.936148e+01
-3.344007e+09 -3.144009e+09 -3.304010e+09 -1.202945e+03 -1.751481e+03 -5.642184e+02
-1.761820e+09 -1.561820e+09 -1.721819e+09 -5.467046e+02 1.995364e+00 -5.581599e+01
-2.080201e+09 -1.880199e+09 -2.040206e+09 -2.645804e+03 -6.097694e+03 -3.452333e+03
-2.179541e+09 -1.979542e+09 -2.139547e+09 -2.887366e+03 -7.255983e+03 -1.204840e+03
-1.873578e+09 -1.673585e+09 -1.833584e+09 -4.321821e+03 -6.423544e+03 -2.161252e+03
-2.405115e+09 -2.205118e+09 -2.365120e+09 -2.510181e+03 -5.853341e+03 -2.316188e+03
-2.086877e+09 -1.886880e+09 -2.046881e+09 -3.186134e+03 -5.250903e+03 -2.771747e+03
-2.671191e+09 -2.471188e+09 -2.631191e+09 1.979961e+03 1.513428e+03 -1.401769e+03
-3.215992e+09 -3.015990e+09 -3.175991e+09 2.145226e+03 6.729552e+02 -9.634612e+02
-2.793003e+09 -2.593000e+09 -2.753002e+09 5.474753e+02 7.760355e+02 -1.102048e+03
-3.389270e+09 -3.189267e+09 -3.349270e+09 1.421866e+03 8.806048e+02 -9.955127e+02
-2.913172e+09 -2.713172e+09 -2.873173e+09 -1.670681e+03 -3.251365e+02 6.717518e+02
-3.221692e+09 -3.021693e+09 -3.181692e+09 -1.430775e+03 -2.431639e+02 5.912051e+02
-2.493835e+09 -2.293838e+09 -2.453836e+09 1.716069e+03 1.025587e+03 -3.348059e+02
-2.775973e+09 -2.575970e+09 -2.735972e+09 -1.583081e+03 -2.087831e+02 -4.458654e+02
-3.146807e+09 -2.946803e+09 -3.106805e+09 -1.584809e+03 -4.948102e+02 -4.567755e+02
-3.611971e+09 -3.411972e+09 -3.571972e+09 -4.755760e+02 1.532276e+01 -8.182976e+01
-2.167737e+09 -1.967726e+09 -2.127731e+09 -2.753671e+01 -1.486505e+03 1.929798e+03
-1.888167e+09 -1.688154e+09 -1.848159e+09 1.896618e+03 -2.083655e+03 7.231634e+02
-1.592031e+09 -1.392032e+09 -1.552030e+09 -2.457541e+03 -1.806571e+03 -1.052814e+03
-3.221558e+09 -3.021556e+09 -3.181552e+09 2.587842e+03 -2.206739e+03 -2.596565e+03
-3.611055e+09 -3.411054e+09 -3.571056e+09 -8.424395e+02 -1.244764e+03 -6.119816e+02
-2.919751e+09 -2.719741e+09 -2.879751e+09 3.165284e+03 -3.442334e+03 2.406332e+02
-2.195993e+09 -1.995986e+09 -2.155988e+09 8.728657e+02 -2.893230e+03 -5.495664e+02
-2.183976e+09 -1.983954e+09 -2.143964e+09 -8.198773e+02 -6.364424e+03 1.781595e+03
-2.831588e+09 -2.631591e+09 -2.791590e+09 4.010582e+02 -2.564182e+01 -8.706709e+02
-3.048608e+09 -2.848610e+09 -3.008609e+09 2.887299e+02 5.335957e+01 -1.080216e+03
-3.256272e+09 -3.056273e+09 -3.216272e+09 9.166964e+02 -2.373488e+02 -1.232880e+03
-2.952116e+09 -2.752117e+09 -2.912116e+09 1.282361e+03 -3.568544e+02 -1.115286e+03
-2.849650e+09 -2.649652e+09 -2.809651e+09 -8.551174e+01 9.236170e+00 -6.153873e+01
-3.441384e+09 -3.241385e+09 -3.401385e+09 -2.431277e+02 5.677579e+00 -9.036304e+01
-3.088990e+09 -2.888990e+09 -3.048992e+09 -1.921216e+03 -2.259980e+03 -1.129532e+03
-3.233902e+09 -3.033904e+09 -3.193903e+09 1.322656e+01 1.255588e+01 -1.162535e+02
-2.730443e+09 -2.530445e+09 -2.690444e+09 -1.569324e+02 -6.133751e+00 -3.580969e+01
-3.086451e+09 -2.886452e+09 -3.046452e+09 -2.018851e+02 4.285657e+00 -2.619981e+01
-2.629023e+09 -2.429024e+09 -2.589024e+09 -1.501263e+02 -2.180826e+00 -3.711684e+01
-2.861689e+09 -2.661690e+09 -2.821690e+09 -5.560819e+00 -1.036308e+01 -6.641713e+01
-2.262829e+09 -2.062829e+09 -2.222829e+09 1.454287e+02 2.704777e+01 -3.543242e+01
-2.099314e+09 -1.899313e+09 -2.059313e+09 2.691678e+01 2.257559e+01 -2.622463e+01
-2.581353e+09 -2.381353e+09 -2.541353e+09 1.881097e+02 7.888128e-01 -1.063187e+02
-2.654101e+09 -2.454110e+09 -2.614124e+09 1.440091e+03 2.386450e+04 -1.094783e+03
-2.434636e+09 -2.234637e+09 -2.394636e+09 1.360481e+03 6.263315e+02 -1.101910e+02
-1.750509e+09 -1.550508e+09 -1.710508e+09 8.590227e+01 2.679131e+01 -2.162955e+01
-1.933747e+09 -1.733746e+09 -1.893746e+09 6.856713e+01 2.605504e+01 -2.490075e+01
-3.320341e+09 -3.120339e+09 -3.280341e+09 -9.746938e+02 1.577415e+01 -3.160580e+01
-2.621989e+09 -2.421987e+09 -2.581989e+09 -3.041466e+02 3.046297e+02 -4.426932e+02
-3.301343e+09 -3.101340e+09 -3.261342e+09 3.613411e+01 3.650429e+02 -5.500251e+02
-3.419798e+09 -3.219794e+09 -3.379797e+09 9.818608e+01 4.930274e+02 -6.558495e+02
-2.836047e+09 -2.636043e+09 -2.796046e+09 -3.034645e+02 2.572118e+02 -1.082720e+03
-2.810681e+09 -2.610676e+09 -2.770680e+09 -1.192603e+03 -4.948984e+02 -5.340715e+02
-2.343405e+09 -2.143400e+09 -2.303403e+09 6.552563e+02 1.217923e+03 -1.421774e+03
-2.613003e+09 -2.412999e+09 -2.573001e+09 5.894167e+01 3.351529e+02 -8.261553e+02
-2.054517e+09 -1.854511e+09 -2.014513e+09 3.675523e+03 3.749780e+03 -3.410910e+03
-1.825566e+09 -1.625555e+09 -1.785564e+09 1.663471e+03 9.725163e+02 -3.703364e+03
-2.041919e+09 -1.841913e+09 -2.001917e+09 3.590290e+03 3.854815e+03 -3.987667e+03
-2.689583e+09 -2.489577e+09 -2.649581e+09 1.786369e+03 1.199573e+03 -2.684801e+03
-2.002194e+09 -1.802186e+09 -1.962193e+09 -1.431697e+03 -8.134327e+02 -1.391547e+03
-2.279131e+09 -2.079126e+09 -2.239130e+09 1.779293e+03 7.938372e+02 -2.021260e+03
-2.273386e+09 -2.073378e+09 -2.233383e+09 9.292318e+02 4.361029e+02 -2.408562e+03
-3.224604e+09 -3.024604e+09 -3.184604e+09 -3.223198e+02 5.228945e+01 -4.380655e+01
-1.703987e+09 -1.503990e+09 -1.663989e+09 -1.218218e+03 3.835289e+02 -1.444120e+03
-2.767631e+09 -2.567630e+09 -2.727631e+09 -8.823173e+01 2.251036e+01 -1.172586e+01
-3.444918e+09 -3.244918e+09 -3.404918e+09 -2.241179e+02 6.074068e+01 -1.924537e+00
-3.389655e+09 -3.189654e+09 -3.349654e+09 -1.084136e+02 3.544995e+01 -1.003138e+01
-3.109708e+09 -2.909706e+09 -3.069708e+09 1.262450e+03 8.380398e+02 -7.920339e+02
-2.725283e+09 -2.525279e+09 -2.685282e+09 3.800870e+02 6.405192e+02 -8.140074e+02
-2.437832e+09 -2.237833e+09 -2.397833e+09 2.959185e+03 2.545370e+03 -1.466964e+03
-2.370766e+09 -2.170764e+09 -2.330766e+09 2.978368e+03 1.942312e+03 -1.568876e+03
-3.406825e+09 -3.206823e+09 -3.366825e+09 1.839797e+03 1.511596e+03 -1.005188e+03
-3.390910e+09 -3.190908e+09 -3.350911e+09 1.992356e+03 1.639181e+03 -1.435218e+03
-2.768597e+09 -2.568592e+09 -2.728595e+09 1.232270e+03 5.798602e+02 -1.653028e+03
-2.595834e+09 -2.395831e+09 -2.555833e+09 8.186234e+02 8.632112e+02 -9.094150e+02
-2.973124e+09 -2.773121e+09 -2.933123e+09 1.098449e+03 8.516425e+02 -7.149371e+02
-1.584480e+09 -1.384480e+09 -1.544480e+09 3.581818e+02 3.999102e+01 -9.027174e+01
-1.580517e+09 -1.380520e+09 -1.540520e+09 -7.141800e+02 1.580934e+02 -6.795261e+02
-3.583378e+09 -3.383380e+09 -3.543379e+09 -2.214395e+02 7.450940e+01 -9.285739e+02
-2.849257e+09 -2.649257e+09 -2.809257e+09 4.864730e+02 -2.618457e+00 -8.339472e+01
-2.621125e+09 -2.421125e+09 -2.581125e+09 4.125177e+02 -2.053032e+01 -9.915097e+01
-3.546663e+09 -3.346665e+09 -3.506664e+09 -4.187489e+02 4.262887e+01 -3.086007e+02
-3.025716e+09 -2.825716e+09 -2.985716e+09 4.320543e+02 1.985814e+01 -9.543144e+01
-2.829953e+09 -2.629953e+09 -2.789953e+09 4.290301e+02 1.592471e+01 -3.639600e+01
-3.430504e+09 -3.230504e+09 -3.390504e+09 4.046688e+02 -2.152016e+01 -1.061741e+02
-2.770542e+09 -2.570542e+09 -2.730542e+09 5.120674e+02 4.327490e+01 -3.638277e+01
-3.589212e+09 -3.389212e+09 -3.549212e+09 -4.461058e+02 -5.124117e+01 5.511929e+01
-2.327197e+09 -2.127197e+09 -2.287197e+09 -3.469023e+02 -5.936852e+01 8.768457e+00
-2.614907e+09 -2.414906e+09 -2.574906e+09 -3.078298e+02 -3.033515e+01 2.543004e+00
-2.780063e+09 -2.580063e+09 -2.740063e+09 -2.997500e+02 -2.900625e+01 1.041071e+01
-3.165449e+09 -2.965448e+09 -3.125448e+09 -3.249196e+02 -5.070556e+01 -3.448347e+00
-2.793038e+09 -2.593037e+09 -2.753037e+09 -3.340129e+02 -3.400504e+01 1.596487e+01
-2.634674e+09 -2.434660e+09 -2.594703e+09 -4.198891e+03 3.235493e+03 1.789930e+03
-2.774238e+09 -2.574226e+09 -2.734258e+09 2.363523e+03 2.335729e+03 -2.263411e+03
-1.992634e+09 -1.792634e+09 -1.952657e+09 -9.940693e+03 2.498170e+04 4.226652e+03
-2.381922e+09 -2.181922e+09 -2.341939e+09 -7.300494e+03 1.341815e+04 3.526969e+03
-2.353946e+09 -2.153947e+09 -2.313947e+09 -7.637048e+02 9.678273e+00 -1.860942e+02
-1.997667e+09 -1.797669e+09 -1.957669e+09 -6.775251e+02 2.201708e+01 -1.359752e+02
-2.250113e+09 -2.050115e+09 -2.210114e+09 -7.039732e+02 3.361559e+01 -1.117720e+02
-3.065050e+09 -2.865052e+09 -3.025051e+09 -6.070034e+02 1.105531e+02 -3.153284e+02
-3.198982e+09 -2.998983e+09 -3.158983e+09 -7.099929e+02 2.494500e+01 -7.609435e+01
-3.495328e+09 -3.295329e+09 -3.455329e+09 -7.645873e+02 4.310598e+01 -1.184066e+02
-1.553067e+09 -1.353069e+09 -1.513068e+09 -7.084836e+02 6.543775e+01 -5.650319e+02
-2.850771e+09 -2.650772e+09 -2.810772e+09 -7.041315e+02 4.403100e+01 -6.021250e+01
-3.196001e+09 -2.995998e+09 -3.156004e+09 -8.888533e+02 -1.747878e+03 -2.149533e+03
-1.579161e+09 -1.379156e+09 -1.539159e+09 3.976959e+03 -2.984190e+03 4.099916e+03
-2.252689e+09 -2.052685e+09 -2.212691e+09 -1.877098e+03 -3.853817e+03 -2.458156e+03
-2.598555e+09 -2.398555e+09 -2.558558e+09 -2.150672e+03 -4.049448e+03 -1.507412e+03
-2.454141e+09 -2.254138e+09 -2.414139e+09 1.247023e+03 -7.068975e+02 -3.354996e+02
-3.098389e+09 -2.898387e+09 -3.058388e+09 9.363813e+02 -3.759023e+02 -4.693025e+02
-3.404515e+09 -3.204513e+09 -3.364513e+09 1.241409e+03 -4.940783e+02 -4.488730e+02
-2.701409e+09 -2.501406e+09 -2.661408e+09 8.167644e+02 -4.220155e+02 -4.439895e+02
-3.319253e+09 -3.119250e+09 -3.279252e+09 5.994251e+02 -4.248423e+02 -1.813690e+02
-2.196806e+09 -1.996801e+09 -2.156806e+09 1.716656e+01 -6.600784e+02 -2.141144e+03
-3.363458e+09 -3.163460e+09 -3.323459e+09 -3.896165e+02 9.635987e+01 -3.306504e+02
-2.454227e+09 -2.254223e+09 -2.414227e+09 -3.062409e+02 -1.070688e+03 -2.094446e+03
-2.375798e+09 -2.175801e+09 -2.335800e+09 -3.334157e+02 1.334565e+02 -8.550037e+02
-2.065033e+09 -1.865035e+09 -2.025034e+09 -1.462464e+02 -2.356002e+00 -3.456160e+01
-3.376425e+09 -3.176424e+09 -3.336425e+09 -4.222088e+02 -8.589856e+01 8.622665e+01
-3.546664e+09 -3.346665e+09 -3.506664e+09 -8.433740e+02 1.486074e+02 -3.243512e+02
-2.554523e+09 -2.354523e+09 -2.514523e+09 -3.469357e+02 -8.772291e+01 3.006475e+01
-3.106592e+09 -2.906591e+09 -3.066591e+09 -2.724472e+02 -8.881481e+01 -5.639231e+00
-2.797215e+09 -2.597214e+09 -2.757214e+09 -2.784887e+02 -5.326969e+01 3.504469e+01
-1.863067e+09 -1.663068e+09 -1.823068e+09 -9.656121e+02 7.649705e+01 -1.170508e+02
-2.385430e+09 -2.185431e+09 -2.345431e+09 -8.172928e+02 1.068513e+02 -3.612057e+02
-1.909346e+09 -1.709348e+09 -1.869347e+09 -6.774271e+02 4.088130e+01 -2.172408e+02
-2.131232e+09 -1.931234e+09 -2.091234e+09 -1.099241e+03 2.053884e+02 -5.293816e+02
-1.847255e+09 -1.647256e+09 -1.807256e+09 -1.220357e+03 1.827597e+02 -4.651798e+02
-2.513533e+09 -2.313534e+09 -2.473534e+09 -9.134005e+02 1.571269e+02 -4.235499e+02
-1.586426e+09 -1.386429e+09 -1.546428e+09 -3.249069e+02 1.039807e+02 -6.585329e+02
-1.778532e+09 -1.578535e+09 -1.738534e+09 -4.006098e+02 5.403053e+01 -6.892447e+02
-2.588979e+09 -2.388982e+09 -2.548981e+09 -2.852970e+02 1.073458e+02 -5.858446e+02
-2.068767e+09 -1.868770e+09 -2.028769e+09 -6.571949e+02 1.849977e+02 -1.060922e+03
-1.588735e+09 -1.388740e+09 -1.548736e+09 -1.399176e+03 1.216763e+03 3.576977e+02
-2.029151e+09 -1.829153e+09 -1.989153e+09 -8.690923e+02 1.531068e+02 -5.570541e+02
-2.101452e+09 -1.901454e+09 -2.061454e+09 -7.622591e+02 1.387042e+02 -3.478040e+02
-3.616035e+09 -3.416035e+09 -3.576036e+09 5.854721e+02 -7.386306e+02 5.832713e+02
-1.784789e+09 -1.584792e+09 -1.744792e+09 -2.641340e+02 -3.097404e+01 -8.833534e+02
-2.644029e+09 -2.444029e+09 -2.604028e+09 -2.345016e+02 -8.549973e+00 -8.089658e+01
-3.600708e+09 -3.400711e+09 -3.560709e+09 4.702378e+02 2.334372e+02 -4.201438e+01
-2.390659e+09 -2.190659e+09 -2.350659e+09 -3.626689e+02 7.148227e+01 -4.585643e+01
-3.579709e+09 -3.379711e+09 -3.539710e+09 -3.739296e+01 4.739693e+00 -1.160095e+02
-2.744866e+09 -2.544866e+09 -2.704865e+09 -2.456848e+02 3.995363e+01 -3.851344e+01
-1.553067e+09 -1.353068e+09 -1.513069e+09 -1.061679e+03 1.117178e+02 -3.239609e+02
-2.824145e+09 -2.624144e+09 -2.784144e+09 -3.445817e+02 4.234145e+00 -3.975122e+01
-2.740219e+09 -2.540219e+09 -2.700219e+09 -4.243510e+02 3.959794e+01 -2.096678e+01
-3.425373e+09 -3.225373e+09 -3.385372e+09 -2.324407e+02 4.708534e+01 -1.679170e+01
-3.413026e+09 -3.213025e+09 -3.373025e+09 -3.299632e+02 6.843234e+01 1.696687e+00
-3.424213e+09 -3.224213e+09 -3.384213e+09 1.231722e+02 1.330799e+01 -4.238348e+00
-3.602681e+09 -3.402681e+09 -3.562681e+09 1.027717e+02 -3.875634e+00 -1.065363e+01
-3.409224e+09 -3.209224e+09 -3.369224e+09 1.601724e+02 1.159655e+01 -1.676606e+01
-3.216386e+09 -3.016385e+09 -3.176385e+09 1.414223e+02 2.390764e+01 -5.677231e+00
-2.825599e+09 -2.625598e+09 -2.785599e+09 1.408835e+02 5.790018e+00 -3.069678e+01
-3.049463e+09 -2.849462e+09 -3.009463e+09 1.231416e+02 1.196572e+01 -6.148241e+00
-2.724199e+09 -2.524196e+09 -2.684198e+09 -2.615407e+03 -1.659746e+03 8.750316e+02
-3.423082e+09 -3.223079e+09 -3.383082e+09 -1.379582e+03 -1.911450e+02 -5.605140e+02
-3.352584e+09 -3.152582e+09 -3.312583e+09 -2.166920e+03 -5.784022e+02 1.819595e+02
-2.863280e+09 -2.663277e+09 -2.823285e+09 -2.327806e+02 -3.159710e+03 -1.295335e+03
-2.226116e+09 -2.026118e+09 -2.186118e+09 -2.179969e+03 -7.003788e+02 1.645863e+03
-3.448447e+09 -3.248444e+09 -3.408446e+09 -1.087742e+03 -6.703230e+01 -5.382093e+02
-3.393151e+09 -3.193152e+09 -3.353154e+09 9.475126e+02 -2.115733e+03 9.106848e+02
-3.174200e+09 -2.974200e+09 -3.134202e+09 1.388278e+03 -1.865599e+03 1.181992e+03
-1.826511e+09 -1.626509e+09 -1.786510e+09 -1.785362e+03 -1.595871e+03 -1.086223e+03
-2.604878e+09 -2.404879e+09 -2.564879e+09 1.824197e+03 -1.763914e+03 1.174483e+03
-2.828265e+09 -2.628268e+09 -2.788268e+09 1.197633e+03 -2.591584e+03 1.062073e+03
-2.761616e+09 -2.561617e+09 -2.721617e+09 1.195711e+03 -1.433999e+03 6.744586e+02
-2.569300e+09 -2.369300e+09 -2.529300e+09 1.374594e+03 -1.025302e+03 7.476011e+02
-2.273880e+09 -2.073881e+09 -2.233880e+09 9.609676e+02 -7.391350e+02 3.466731e+02
-3.344248e+09 -3.144249e+09 -3.304249e+09 8.671146e+02 -1.047193e+03 4.620750e+02
-3.198179e+09 -2.998181e+09 -3.158180e+09 7.657624e+02 -7.558649e+02 2.133859e+02
-2.874538e+09 -2.674538e+09 -2.834537e+09 9.230296e+02 -5.122780e+02 3.244880e+02
-3.169239e+09 -2.969240e+09 -3.129240e+09 9.625879e+02 -7.707711e+02 5.604604e+02
-1.674675e+09 -1.474676e+09 -1.634675e+09 9.157691e+02 -6.339459e+02 2.285218e+02
-3.400173e+09 -3.200176e+09 -3.360174e+09 -2.108375e+02 9.240349e+01 -9.218779e+02
-2.040647e+09 -1.840649e+09 -2.000647e+09 2.189122e+03 1.185909e+03 -4.255441e+02
-1.773778e+09 -1.573780e+09 -1.733778e+09 2.095288e+03 9.904113e+02 -4.870211e+02
-2.063680e+09 -1.863683e+09 -2.023681e+09 2.292933e+03 1.432656e+03 -5.838424e+02
-3.083284e+09 -2.883292e+09 -3.043286e+09 5.664993e+02 1.882177e+03 1.014817e+04
-3.389813e+09 -3.189816e+09 -3.349814e+09 1.633914e+03 1.127927e+03 -2.736097e+02
-3.408999e+09 -3.209000e+09 -3.369000e+09 1.897390e+03 9.492961e+02 -4.007546e+02
-3.280161e+09 -3.080162e+09 -3.240162e+09 1.968161e+03 1.364056e+03 -5.126657e+02
-2.606722e+09 -2.406725e+09 -2.566723e+09 2.523454e+03 1.490196e+03 -6.401588e+02
-2.734635e+09 -2.534638e+09 -2.694636e+09 1.590255e+03 1.285316e+03 -2.711671e+02
-2.353578e+09 -2.153581e+09 -2.313579e+09 1.789519e+03 1.126118e+03 -3.130139e+02
-3.138885e+09 -2.938887e+09 -3.098886e+09 1.604378e+03 1.014955e+03 -3.501859e+02
-2.628492e+09 -2.428496e+09 -2.588494e+09 1.551778e+03 1.438824e+03 -3.857335e+02
-2.487243e+09 -2.287245e+09 -2.447244e+09 2.246400e+03 1.435832e+03 -4.302993e+02
-3.105069e+09 -2.905074e+09 -3.065071e+09 8.147776e+02 1.173045e+03 -2.992027e+02
-2.876394e+09 -2.676398e+09 -2.836395e+09 9.171811e+02 8.067464e+02 -1.061675e+02
-2.958133e+09 -2.758137e+09 -2.918135e+09 8.210182e+02 6.392465e+02 1.779875e+01
-2.505324e+09 -2.305328e+09 -2.465325e+09 8.586747e+02 1.105895e+03 -1.777167e+02
-3.304838e+09 -3.104842e+09 -3.264840e+09 5.591996e+02 7.584218e+02 8.164592e+00
-3.064310e+09 -2.864314e+09 -3.024312e+09 1.062503e+03 1.079216e+03 -1.349597e+02
-3.071898e+09 -2.871899e+09 -3.031898e+09 1.204853e+03 4.134924e+02 -4.615821e+01
-3.046774e+09 -2.846776e+09 -3.006774e+09 1.121595e+03 3.489648e+02 -5.142474e+01
-3.083329e+09 -2.883331e+09 -3.043329e+09 1.373394e+03 4.271324e+02 -1.960998e+02
-3.063748e+09 -2.863750e+09 -3.023749e+09 1.562112e+03 6.162072e+02 -2.478500e+02
-3.358409e+09 -3.158410e+09 -3.318409e+09 1.591410e+03 6.003915e+02 -3.223040e+02
-2.115585e+09 -1.915585e+09 -2.075585e+09 -2.263967e+02 -6.222626e+01 1.434777e+01
-3.274701e+09 -3.074700e+09 -3.234701e+09 -2.424833e+02 -1.202816e+01 2.866475e+00
-2.611362e+09 -2.411362e+09 -2.571362e+09 -2.302350e+02 -8.117015e+01 -1.698809e+01
-3.326015e+09 -3.126015e+09 -3.286015e+09 -2.489028e+02 -4.500239e+01 -2.153620e+01
-3.510435e+09 -3.310434e+09 -3.470435e+09 -2.107805e+02 -4.492217e+01 -1.372868e+00
-3.195463e+09 -2.995463e+09 -3.155463e+09 -1.903935e+02 -4.084250e+01 -1.639068e+01
-3.144401e+09 -2.944400e+09 -3.104401e+09 -2.374507e+02 -6.728804e+01 -1.513591e+01
-1.949886e+09 -1.749885e+09 -1.909885e+09 9.271111e+00 1.972360e+01 -3.362644e+01
-3.152137e+09 -2.952137e+09 -3.112137e+09 2.714655e+01 1.099997e+01 -1.833867e+01
-2.612595e+09 -2.412595e+09 -2.572595e+09 6.792961e+01 7.917132e+00 -2.147246e+01
-2.319884e+09 -2.119884e+09 -2.279884e+09 6.747058e+01 2.014606e+01 -3.479538e+01
-1.664385e+09 -1.464384e+09 -1.624384e+09 -3.349115e-01 2.146071e+01 -3.749047e+01
-2.530373e+09 -2.330372e+09 -2.490372e+09 2.061510e+01 2.477064e+01 -1.978786e+01
-3.566411e+09 -3.366411e+09 -3.526411e+09 2.108337e+02 9.563049e+00 -2.818932e+01
-3.566410e+09 -3.366411e+09 -3.526411e+09 2.709140e+02 6.726839e+00 -1.965853e+01
-2.627345e+09 -2.427346e+09 -2.587346e+09 2.593880e+02 1.334232e+01 -2.276959e+01
-2.756803e+09 -2.556803e+09 -2.716803e+09 3.374977e+02 1.308371e+01 -4.595432e+01
-2.143939e+09 -1.943940e+09 -2.103940e+09 2.937402e+02 1.524587e+01 -2.307246e+01
-3.264571e+09 -3.064570e+09 -3.224571e+09 -2.261522e+02 -2.332937e+01 -1.260009e+01
-2.064618e+09 -1.864617e+09 -2.024618e+09 -2.468338e+02 -4.269168e+01 1.207883e+01
-2.972513e+09 -2.772512e+09 -2.932512e+09 -2.190785e+02 -2.506863e+01 -1.205266e+01
-2.562272e+09 -2.362271e+09 -2.522272e+09 -2.702324e+02 -4.874986e+01 -2.261159e+01
-2.248752e+09 -2.048751e+09 -2.208751e+09 -1.902408e+02 -1.826835e+01 -1.836232e+01
-1.934116e+09 -1.734115e+09 -1.894115e+09 -2.017637e+02 -3.747015e+01 -1.797516e+01
-2.242715e+09 -2.042714e+09 -2.202714e+09 -2.152961e+02 -2.131875e+01 -2.405001e+01
-2.496906e+09 -2.296903e+09 -2.456905e+09 1.936392e+03 1.167587e+03 -1.418565e+03
-3.600212e+09 -3.400209e+09 -3.560213e+09 4.019998e+02 9.252049e+02 -7.389229e+02
-1.984315e+09 -1.784310e+09 -1.944313e+09 9.852917e+02 3.609021e+02 -1.419394e+03
-1.676536e+09 -1.476537e+09 -1.636537e+09 -2.103497e+02 -2.803320e+01 1.302797e+01
-2.981061e+09 -2.781058e+09 -2.941060e+09 6.169823e+02 3.687883e+02 -6.786934e+02
-2.313382e+09 -2.113378e+09 -2.273381e+09 1.094356e+03 1.304078e+03 -1.295861e+03
-2.349334e+09 -2.149336e+09 -2.309334e+09 1.442131e+03 -5.160137e+02 -3.028016e+03
-1.878055e+09 -1.678060e+09 -1.838057e+09 2.042095e+03 -1.525192e+03 -5.609192e+03
-3.174656e+09 -2.974656e+09 -3.134656e+09 1.510788e+03 6.572547e+02 -3.447794e+02
-2.864320e+09 -2.664319e+09 -2.824319e+09 1.488283e+03 4.727163e+02 -3.660147e+02
-2.165741e+09 -1.965739e+09 -2.125740e+09 2.163603e+03 8.291742e+02 -8.876373e+02
-1.808442e+09 -1.608443e+09 -1.768442e+09 -2.688159e+02 -8.244930e+00 -4.026564e+00
-1.869832e+09 -1.669832e+09 -1.829831e+09 1.971562e+03 7.707940e+02 -4.835287e+02
-2.880671e+09 -2.680670e+09 -2.840671e+09 -8.871029e+02 -7.812604e+01 3.256842e+02
-2.635418e+09 -2.435407e+09 -2.595422e+09 -3.688049e+03 5.901264e+02 -1.882637e+03
-2.529903e+09 -2.329896e+09 -2.489909e+09 -4.352670e+02 -2.310983e+03 2.386691e+03
-2.585558e+09 -2.385547e+09 -2.545561e+09 -1.531375e+03 -1.861614e+03 3.662591e+03
-3.240870e+09 -3.040864e+09 -3.200865e+09 -4.002752e+03 3.288466e+03 -1.636937e+03
-2.877925e+09 -2.677917e+09 -2.837917e+09 -1.116758e+03 1.306503e+03 -1.702210e+03
-3.553724e+09 -3.353721e+09 -3.513727e+09 -1.992633e+03 -5.851853e+02 1.342621e+03
-3.347996e+09 -3.147993e+09 -3.307997e+09 -2.510443e+03 7.525840e+02 -1.592279e+03
-2.624359e+09 -2.424358e+09 -2.584358e+09 8.181433e+01 -1.667363e+02 7.421775e+01
-2.917788e+09 -2.717788e+09 -2.877787e+09 2.725958e+02 -1.767498e+02 1.156742e+02
-3.150806e+09 -2.950806e+09 -3.110806e+09 2.994803e+01 -1.914452e+02 1.066829e+02
-3.333372e+09 -3.133372e+09 -3.293372e+09 2.384457e+01 -2.243140e+02 6.129790e+01
-3.198759e+09 -2.998759e+09 -3.158759e+09 -6.729897e+00 -1.761226e+02 2.407257e+01
-3.513733e+09 -3.313733e+09 -3.473733e+09 -3.566002e+01 -1.921941e+02 4.705109e+01
-1.838056e+09 -1.638064e+09 -1.798060e+09 -3.177671e+03 -6.040362e+03 -1.650148e+03
-2.450471e+09 -2.250478e+09 -2.410477e+09 -6.673925e+02 -5.609968e+03 3.257258e+02
-3.056852e+09 -2.856856e+09 -3.016858e+09 -4.805253e+02 -3.782707e+03 -1.444711e+02
-3.270572e+09 -3.070576e+09 -3.230578e+09 -1.139565e+03 -4.151557e+03 -4.225296e+02
-2.531925e+09 -2.331927e+09 -2.491929e+09 -1.602861e+03 -4.132168e+03 -1.423630e+03
-2.637343e+09 -2.437347e+09 -2.597346e+09 -2.195161e+03 -3.129177e+03 -1.283933e+03
-3.083544e+09 -2.883548e+09 -3.043550e+09 -1.244345e+03 -4.176173e+03 -6.186952e+02
-3.299347e+09 -3.099347e+09 -3.259348e+09 -1.046531e+03 4.941391e+01 -4.992300e+01
-2.966317e+09 -2.766316e+09 -2.926317e+09 -9.006205e+02 -9.542265e+01 9.432459e+01
-1.676613e+09 -1.476614e+09 -1.636614e+09 -1.426987e+02 -1.666580e+01 1.127565e+01
-2.962854e+09 -2.762853e+09 -2.922854e+09 -9.800037e+02 1.987535e+01 1.372999e+02
-1.846087e+09 -1.646087e+09 -1.806087e+09 -8.842581e+02 -5.501256e+01 1.138843e+02
-1.962578e+09 -1.762576e+09 -1.922577e+09 -6.163959e+02 -1.254877e+02 2.805509e+02
-2.156086e+09 -1.956086e+09 -2.116086e+09 -8.881267e+02 1.958151e+01 -3.899085e+01
-2.180656e+09 -1.980655e+09 -2.140656e+09 -7.454181e+02 -1.692156e+02 2.796856e+02
-2.138074e+09 -1.938074e+09 -2.098075e+09 -1.360284e+03 3.793159e+01 -1.528550e+02
-2.260227e+09 -2.060227e+09 -2.220227e+09 -1.234399e+03 2.336707e+02 -5.314840e+01
-3.179526e+09 -2.979518e+09 -3.139523e+09 2.032569e+03 4.197268e+03 6.179301e+01
-2.660762e+09 -2.460756e+09 -2.620763e+09 3.576604e+02 -1.271336e+03 -1.888883e+03
-3.381149e+09 -3.181140e+09 -3.341145e+09 3.531785e+03 3.545308e+03 4.689356e+02
-2.917278e+09 -2.717276e+09 -2.877283e+09 -2.014571e+03 -3.956203e+03 -2.225788e+03
-3.079656e+09 -2.879652e+09 -3.039659e+09 -8.161548e+02 -1.490733e+03 -1.978725e+03
-2.483546e+09 -2.283544e+09 -2.443550e+09 -1.704783e+03 -4.371027e+03 -2.911600e+03
-3.057720e+09 -2.857705e+09 -3.017713e+09 2.759069e+03 -1.118171e+04 5.504628e+02
-2.514759e+09 -2.314750e+09 -2.474754e+09 -7.452510e+02 -4.048373e+02 2.231261e+03
-3.615728e+09 -3.415724e+09 -3.575725e+09 6.296140e+02 -7.644997e+02 8.016664e+02
-3.418181e+09 -3.218176e+09 -3.378177e+09 9.346322e+02 -1.387844e+03 3.627222e+02
-2.599105e+09 -2.399098e+09 -2.559101e+09 2.986052e+02 -2.281378e+03 1.640790e+03
-3.185454e+09 -2.985450e+09 -3.145451e+09 1.386417e+03 -7.256328e+02 1.123718e+02
-2.892340e+09 -2.692339e+09 -2.852339e+09 7.743760e+01 1.720457e+01 -1.177725e+01
-3.004153e+09 -2.804150e+09 -2.964152e+09 3.186210e+03 -2.144580e+03 -7.226381e+02
-3.300668e+09 -3.100664e+09 -3.260665e+09 2.884264e+03 -2.233978e+03 -4.049076e+02
-3.593650e+09 -3.393649e+09 -3.553650e+09 -3.895589e+02 -1.932779e+01 -1.123044e+01
-2.967078e+09 -2.767077e+09 -2.927077e+09 -2.458628e+02 -3.229327e+01 -2.238356e+01
-2.113809e+09 -1.913811e+09 -2.073810e+09 1.104727e+03 -2.412817e+02 -2.250203e+03
-2.052350e+09 -1.852353e+09 -2.012352e+09 8.010138e+02 -1.133126e+02 -1.250968e+03
-2.326047e+09 -2.126049e+09 -2.286048e+09 1.161355e+03 -4.352354e+02 -1.337730e+03
-2.781313e+09 -2.581308e+09 -2.741312e+09 3.220069e+03 2.125958e+03 1.618958e+03
-3.413841e+09 -3.213842e+09 -3.373841e+09 9.477091e+02 -2.137503e+02 -8.348081e+02
-2.514676e+09 -2.314679e+09 -2.474677e+09 4.316876e+02 -1.186780e+02 -1.453412e+03
-2.656249e+09 -2.456252e+09 -2.616250e+09 2.645237e+02 1.497593e+00 -1.141786e+03
-2.516725e+09 -2.316727e+09 -2.476725e+09 1.144047e+03 -5.645720e+02 -2.323825e+03
-3.081433e+09 -2.881431e+09 -3.041429e+09 -1.713770e+03 2.167626e+02 -1.554458e+03
-3.408139e+09 -3.208140e+09 -3.368135e+09 -2.612098e+03 1.341520e+03 -2.650099e+03
-2.683287e+09 -2.483285e+09 -2.643287e+09 -1.856507e+03 2.625922e+02 8.792509e+01
-3.179235e+09 -2.979234e+09 -3.139234e+09 -1.892309e+03 1.785027e+03 -3.738543e+02
-3.335759e+09 -3.135759e+09 -3.295757e+09 -2.315826e+03 1.425749e+03 -2.171075e+03
-3.358370e+09 -3.158371e+09 -3.318370e+09 -1.313926e+03 6.463629e+02 -1.246012e+03
-1.784307e+09 -1.584324e+09 -1.744316e+09 -3.395873e+03 1.127768e+04 2.015208e+03
-2.469774e+09 -2.269786e+09 -2.429788e+09 -2.223459e+03 1.623215e+04 4.618317e+02
-2.543962e+09 -2.343970e+09 -2.503970e+09 -4.180571e+03 8.107318e+03 2.076423e+03
-2.884317e+09 -2.684318e+09 -2.844317e+09 -2.583962e+02 -2.965215e+01 1.736884e+01
-1.930914e+09 -1.730930e+09 -1.890922e+09 -5.356906e+03 1.089919e+04 3.282511e+03
-3.605241e+09 -3.405241e+09 -3.565241e+09 -2.818486e+02 -2.109950e+01 1.779489e+01
-2.004744e+09 -1.804754e+09 -1.964749e+09 -2.429643e+03 6.888101e+03 1.767057e+03
-3.278021e+09 -3.078015e+09 -3.238023e+09 -8.780139e+02 2.888906e+03 4.870079e+03
-2.139542e+09 -1.939531e+09 -2.099536e+09 -1.440134e+03 -2.555929e+02 3.816988e+03
-2.319090e+09 -2.119080e+09 -2.279084e+09 3.635151e+03 -5.786843e+03 -4.702232e+03
-2.519398e+09 -2.319368e+09 -2.479410e+09 -5.649236e+03 -4.770477e+03 1.331226e+04
-2.246202e+09 -2.046189e+09 -2.206212e+09 5.735685e+03 -4.441446e+03 -5.143087e+03
-2.110674e+09 -1.910636e+09 -2.070686e+09 -3.165290e+02 -1.102982e+04 9.196178e+03
-1.885125e+09 -1.685103e+09 -1.845117e+09 1.416929e+03 -6.583485e+03 2.238343e+03
-2.250233e+09 -2.050233e+09 -2.210233e+09 -2.610495e+02 -1.364895e+01 -2.510202e+00
-2.804625e+09 -2.604624e+09 -2.764625e+09 -3.135558e+02 -2.449440e+01 -2.579212e+01
-2.512443e+09 -2.312443e+09 -2.472442e+09 8.842139e+02 -6.136330e+02 4.660414e+02
-2.198563e+09 -1.998563e+09 -2.158562e+09 8.826832e+02 -7.500114e+02 3.571018e+02
-2.238183e+09 -2.038184e+09 -2.198183e+09 6.299739e+02 -4.174634e+02 1.823105e+02
-1.951924e+09 -1.751924e+09 -1.911923e+09 5.795538e+02 -4.057317e+02 1.520246e+02
-3.167469e+09 -2.967469e+09 -3.127469e+09 1.120839e+01 2.976507e+01 -2.673027e+01
-2.787086e+09 -2.587086e+09 -2.747086e+09 7.367629e+01 7.871189e+00 -3.153583e+01
-3.388232e+09 -3.188232e+09 -3.348232e+09 1.696193e+02 1.273494e+01 -3.220040e+01
-3.180312e+09 -2.980312e+09 -3.140312e+09 9.712141e+01 5.951312e+01 2.187887e+00
-3.380438e+09 -3.180437e+09 -3.340437e+09 8.002537e+01 3.068803e+00 -2.904321e+01
-2.574727e+09 -2.374727e+09 -2.534727e+09 1.103056e+02 1.366529e+01 -2.818534e+01
-2.774837e+09 -2.574836e+09 -2.734837e+09 1.554038e+01 1.387317e+00 -5.689427e+01
-2.588617e+09 -2.388616e+09 -2.548616e+09 1.430268e+02 2.858733e+01 -3.114785e+01
-3.182894e+09 -2.982893e+09 -3.142893e+09 1.181314e+02 3.394903e+01 -2.439387e+01
-3.103717e+09 -2.903720e+09 -3.063718e+09 7.137165e+02 3.321114e+02 -3.725908e+01
-3.294052e+09 -3.094055e+09 -3.254053e+09 8.284107e+02 4.039661e+02 -5.867944e+01
-3.183152e+09 -2.983155e+09 -3.143153e+09 6.634417e+02 2.088570e+02 -2.500585e+01
-2.666131e+09 -2.466129e+09 -2.626128e+09 -1.142668e+03 1.190390e+03 -1.767591e+03
-2.106997e+09 -1.906997e+09 -2.066996e+09 -1.827349e+03 1.292864e+03 -2.389386e+03
-1.962230e+09 -1.762230e+09 -1.922230e+09 -2.779962e+02 -2.473955e+01 -1.628230e+01
-2.099996e+09 -1.899994e+09 -2.059994e+09 -2.716316e+03 2.844462e+03 -2.686663e+03
-1.777725e+09 -1.577721e+09 -1.737724e+09 -1.220519e+03 4.752468e+02 -2.823879e+02
-2.475431e+09 -2.275429e+09 -2.435429e+09 -2.368302e+03 2.122851e+03 -1.800589e+03
-3.179026e+09 -2.979027e+09 -3.139026e+09 -8.498584e+02 2.022686e+02 5.877125e+00
-1.900554e+09 -1.700555e+09 -1.860554e+09 -1.413160e+03 -1.064196e+03 -4.839985e+02
-3.107116e+09 -2.907118e+09 -3.067119e+09 -1.418901e+03 -1.716167e+03 -5.976078e+02
-2.981702e+09 -2.781704e+09 -2.941703e+09 -1.493692e+03 -1.611678e+03 -5.513922e+02
-3.374163e+09 -3.174163e+09 -3.334165e+09 -1.114652e+03 -1.193168e+03 -5.130897e+02
-3.239026e+09 -3.039028e+09 -3.199028e+09 -1.086197e+03 -1.246918e+03 -2.630550e+02
-3.082031e+09 -2.882031e+09 -3.042032e+09 -1.543889e+03 -1.162627e+03 -6.207366e+02
-1.568736e+09 -1.368735e+09 -1.528735e+09 -5.818371e+02 1.017422e+02 -3.441871e+01
-2.683645e+09 -2.483643e+09 -2.643642e+09 1.911111e+03 -1.550006e+03 -2.306492e+03
-2.689524e+09 -2.489526e+09 -2.649524e+09 1.122834e+03 -4.973278e+02 -2.248161e+03
-3.592953e+09 -3.392953e+09 -3.552953e+09 -9.406382e+02 1.221738e+02 8.835781e+01
-3.186839e+09 -2.986837e+09 -3.146836e+09 1.490137e+03 -1.388259e+03 -1.206345e+03
-3.320792e+09 -3.120792e+09 -3.280788e+09 1.333906e+03 -1.062858e+03 -2.381051e+03
-3.616035e+09 -3.416035e+09 -3.576036e+09 5.810488e+02 -5.008794e+02 2.735380e+02
-2.880935e+09 -2.680934e+09 -2.840934e+09 3.623144e+02 -2.959190e+02 1.501915e+02
-3.320792e+09 -3.120792e+09 -3.280789e+09 1.484392e+03 -1.044401e+03 -2.389156e+03
-3.064257e+09 -2.864253e+09 -3.024253e+09 1.893937e+03 -1.428244e+03 -8.260016e+01
-3.006216e+09 -2.806218e+09 -2.966217e+09 1.489606e+02 2.848689e+01 -3.225952e+02
-1.888594e+09 -1.688591e+09 -1.848593e+09 3.617867e+02 -3.069955e+02 -2.770210e+01
-3.392385e+09 -3.192386e+09 -3.352386e+09 4.449551e+02 -3.864716e+01 -4.986045e+02
-2.677840e+09 -2.477842e+09 -2.637842e+09 3.625398e+02 -3.845278e+00 -3.244825e+02
-2.414982e+09 -2.214984e+09 -2.374983e+09 2.475962e+02 -3.000827e+01 -5.193213e+02
-2.656625e+09 -2.456627e+09 -2.616626e+09 2.263598e+02 -4.789896e+01 -5.139434e+02
-2.536049e+09 -2.336024e+09 -2.496056e+09 -3.701144e+00 -1.003648e+04 2.297060e+03
-2.478565e+09 -2.278527e+09 -2.438548e+09 -3.992585e+02 -2.460010e+04 -2.726553e+03
-3.164099e+09 -2.964081e+09 -3.124104e+09 1.459347e+03 -5.974696e+03 1.890488e+03
-2.126732e+09 -1.926694e+09 -2.086729e+09 -8.763546e+02 -2.035166e+04 -1.883384e+04
-2.548257e+09 -2.348246e+09 -2.508254e+09 5.436011e+01 1.262010e+03 3.841953e+03
-2.545059e+09 -2.345048e+09 -2.505071e+09 1.580137e+03 1.397539e+03 -5.641349e+02
-3.297295e+09 -3.097281e+09 -3.257293e+09 2.366458e+03 -6.851150e+03 2.387500e+03
-2.409156e+09 -2.209156e+09 -2.369156e+09 1.476278e+02 3.375950e+01 -1.097674e+01
-2.001337e+09 -1.801337e+09 -1.961337e+09 1.493273e+02 1.551490e+01 -7.328846e+00
-3.085388e+09 -2.885388e+09 -3.045388e+09 2.340884e+02 2.242432e+01 -1.068554e+01
-1.565560e+09 -1.365559e+09 -1.525560e+09 2.162115e+02 3.175347e+01 4.463226e+00
-2.320185e+09 -2.120185e+09 -2.280185e+09 2.262768e+02 2.229479e+01 -2.056768e+01
-1.963921e+09 -1.763920e+09 -1.923920e+09 7.941043e+01 8.223841e+00 -5.288648e+01
-1.781814e+09 -1.581813e+09 -1.741813e+09 2.230455e+01 3.537979e+01 -4.232696e+01
-2.637039e+09 -2.437038e+09 -2.597038e+09 -9.461994e+02 3.551591e+02 2.079810e+02
-2.378107e+09 -2.178106e+09 -2.338106e+09 -3.760516e+02 8.558912e+00 -9.715159e+01
-2.788571e+09 -2.588570e+09 -2.748570e+09 -5.678740e+02 1.267299e+02 3.548532e+01
-2.772976e+09 -2.572975e+09 -2.732975e+09 -7.501046e+02 1.102208e+02 7.498409e+01
-3.487061e+09 -3.287062e+09 -3.447062e+09 -3.187817e+02 -1.100359e+01 5.336712e+00
-2.145918e+09 -1.945919e+09 -2.105919e+09 -3.560305e+02 -2.251015e+01 3.095029e+01
-2.556163e+09 -2.356164e+09 -2.516163e+09 -3.655935e+02 -3.562191e+01 2.547835e+00
-3.174527e+09 -2.974527e+09 -3.134527e+09 -2.633727e+02 -1.676630e+01 2.082965e+01
-3.163489e+09 -2.963489e+09 -3.123489e+09 -2.980383e+02 -2.036674e+01 -9.157274e+00
-2.548423e+09 -2.348423e+09 -2.508423e+09 -3.231003e+02 -3.988205e+01 -2.532560e+01
-2.068929e+09 -1.868929e+09 -2.028929e+09 -3.797466e+02 -3.524432e+01 3.054850e+01
-2.894753e+09 -2.694753e+09 -2.854753e+09 -3.799530e+02 -2.351840e+01 -7.734457e+00
-3.282289e+09 -3.082289e+09 -3.242289e+09 -3.477693e+02 -1.159129e+01 1.017147e+01
-2.850890e+09 -2.650891e+09 -2.810891e+09 -2.612243e+02 -3.109470e+01 8.703029e+00
-2.786347e+09 -2.586347e+09 -2.746347e+09 2.822044e+01 -2.700506e+00 -7.339596e+01
-3.284412e+09 -3.084411e+09 -3.244412e+09 2.528751e+02 2.250830e+01 -3.829829e+01
-3.076491e+09 -2.876491e+09 -3.036491e+09 2.411151e+02 3.190381e+01 -4.614131e+01
-2.566892e+09 -2.366892e+09 -2.526892e+09 2.684397e+02 3.086522e+01 -7.715942e+01
-2.592596e+09 -2.392596e+09 -2.552596e+09 3.578492e+02 -2.708082e+01 -1.152197e+02
-2.058178e+09 -1.858178e+09 -2.018178e+09 2.336463e+02 4.426276e+01 -1.896520e+01
-2.310587e+09 -2.110591e+09 -2.270589e+09 -8.658933e+02 -1.799870e+03 -2.842602e+02
-3.330805e+09 -3.130808e+09 -3.290808e+09 -1.049516e+03 -2.370415e+03 -2.918311e+02
-3.053780e+09 -2.853785e+09 -3.013784e+09 -5.549196e+02 -2.754269e+03 -6.929968e+01
-3.039397e+09 -2.839401e+09 -2.999401e+09 -1.368721e+03 -2.199057e+03 -3.454345e+02
-2.526814e+09 -2.326819e+09 -2.486818e+09 -1.137615e+03 -3.233677e+03 -4.833839e+02
-2.549118e+09 -2.349117e+09 -2.509118e+09 3.645456e+02 -3.592852e+02 2.772852e+02
-2.128822e+09 -1.928821e+09 -2.088821e+09 3.755284e+02 -3.714410e+02 2.537245e+02
-1.994609e+09 -1.794609e+09 -1.954609e+09 5.917012e+02 -3.939297e+02 2.185872e+02
-3.150445e+09 -2.950444e+09 -3.110444e+09 2.674632e+02 -2.684671e+02 2.211498e+02
-3.007164e+09 -2.807163e+09 -2.967164e+09 4.528843e+02 -4.454825e+02 2.614907e+02
-2.280277e+09 -2.080277e+09 -2.240277e+09 3.574047e+02 -2.176707e+02 1.185848e+02
-2.199825e+09 -1.999824e+09 -2.159824e+09 4.896921e+02 -4.154675e+02 2.581915e+02
-2.476986e+09 -2.276987e+09 -2.436987e+09 2.166676e+02 7.788099e+00 -3.046280e+01
-2.611908e+09 -2.411908e+09 -2.571908e+09 2.228470e+02 2.002009e+01 -7.994400e+00
-2.647908e+09 -2.447909e+09 -2.607908e+09 8.351768e+01 1.572650e+01 -2.517380e+01
-2.200874e+09 -2.000875e+09 -2.160875e+09 1.410095e+02 5.223215e+00 -8.201459e+00
-2.581597e+09 -2.381598e+09 -2.541597e+09 2.142802e+02 4.032177e+00 -3.247066e+01
-2.623582e+09 -2.423582e+09 -2.583582e+09 4.728872e+02 2.548429e+01 -6.848859e+01
-2.540991e+09 -2.340989e+09 -2.500988e+09 1.973237e+03 -1.474012e+03 -1.402136e+03
-2.590751e+09 -2.390752e+09 -2.550750e+09 1.165840e+03 -9.747660e+02 -2.562275e+03
-3.582577e+09 -3.382580e+09 -3.542578e+09 -9.550753e+02 4.714443e+02 1.244983e+02
-3.045756e+09 -2.845754e+09 -3.005755e+09 1.542579e+03 -8.271605e+02 -5.906044e+02
-2.664499e+09 -2.464496e+09 -2.624494e+09 1.560052e+03 -1.548048e+03 -1.575791e+03
-1.880528e+09 -1.680529e+09 -1.840529e+09 -2.799601e+02 -1.323113e+01 -2.713532e+01
-2.132974e+09 -1.932975e+09 -2.092975e+09 -3.016263e+02 -3.176916e+01 -4.292359e+01
-2.520797e+09 -2.320798e+09 -2.480798e+09 -3.123643e+02 1.221351e+00 -9.567833e+01
-3.091901e+09 -2.891903e+09 -3.051902e+09 -3.117813e+02 -9.018157e+00 -5.813952e+01
-3.300374e+09 -3.100375e+09 -3.260374e+09 -2.127771e+02 6.339667e-01 -5.081455e+01
-3.013553e+09 -2.813555e+09 -2.973553e+09 3.380387e+03 1.719948e+03 4.348688e+03
-2.624967e+09 -2.424966e+09 -2.584973e+09 3.916577e+03 7.776752e+02 2.912922e+02
-1.896441e+09 -1.696441e+09 -1.856444e+09 3.431364e+03 2.728226e+03 1.623461e+03
-2.229736e+09 -2.029735e+09 -2.189738e+09 4.444001e+03 1.713467e+03 1.513215e+03
-2.539563e+09 -2.339559e+09 -2.499562e+09 4.109860e+03 2.054200e+03 1.557311e+03
-2.631070e+09 -2.431075e+09 -2.591072e+09 3.088045e+03 1.259953e+03 4.061602e+03
-2.534876e+09 -2.334875e+09 -2.494882e+09 7.796523e+03 7.152826e+03 5.731183e+03
-2.759848e+09 -2.559851e+09 -2.719842e+09 4.836125e+03 6.473894e+03 8.168357e+03
-2.856015e+09 -2.656016e+09 -2.816020e+09 3.574526e+03 7.470462e+03 -4.221197e+03
-2.851019e+09 -2.651020e+09 -2.811025e+09 3.367406e+03 6.521419e+03 -3.457736e+03
-1.985656e+09 -1.785660e+09 -1.945659e+09 5.895048e+03 6.036132e+03 -4.018982e+03
-2.721980e+09 -2.521976e+09 -2.681982e+09 5.900657e+03 5.632351e+03 -4.515979e+03
-2.420967e+09 -2.220962e+09 -2.380967e+09 8.023648e+01 -4.421417e+02 2.187807e+03
-2.079479e+09 -1.879476e+09 -2.039478e+09 7.324079e+02 -1.185791e+03 2.393572e+03
-1.878311e+09 -1.678304e+09 -1.838309e+09 2.366884e+02 -3.997123e+02 2.051083e+03
-2.469351e+09 -2.269348e+09 -2.429350e+09 -1.382599e+03 3.001628e+02 5.986461e+02
-2.365415e+09 -2.165412e+09 -2.325414e+09 -9.028965e+02 1.429023e+02 8.544286e+02
-2.115861e+09 -1.915859e+09 -2.075860e+09 -3.333835e+02 -2.823937e+02 7.393718e+02
-1.897784e+09 -1.697779e+09 -1.857782e+09 7.720725e+02 -7.887111e+02 1.626596e+03
-3.597188e+09 -3.397189e+09 -3.557189e+09 -4.479662e+02 -3.761635e+00 5.385132e+00
-1.790030e+09 -1.590031e+09 -1.750031e+09 1.688898e+02 6.166246e+00 -1.007838e+02
-2.511997e+09 -2.311998e+09 -2.471998e+09 1.796781e+02 1.011632e+01 -6.007280e+01
-3.207162e+09 -3.007166e+09 -3.167164e+09 2.487457e+02 1.475553e+03 4.592485e+01
-3.407583e+09 -3.207588e+09 -3.367586e+09 2.649936e+02 1.454999e+03 -1.560013e+01
-3.403364e+09 -3.203368e+09 -3.363366e+09 -3.588208e+01 9.593388e+02 -7.670245e+01
-2.807676e+09 -2.607681e+09 -2.767678e+09 -5.232708e+01 1.108870e+03 1.273687e+02
-2.297025e+09 -2.097026e+09 -2.257026e+09 3.196944e+02 -1.231463e+01 -2.917055e+02
-2.768784e+09 -2.568786e+09 -2.728785e+09 3.368258e+02 7.489332e+00 -4.365020e+02
-3.090704e+09 -2.890706e+09 -3.050705e+09 -8.908284e+01 1.207387e+01 -2.112793e+02
-3.043977e+09 -2.843978e+09 -3.003978e+09 1.299335e+02 -5.500926e+00 -2.341262e+02
-3.491567e+09 -3.291568e+09 -3.451568e+09 1.049649e+01 1.732454e+01 -2.475458e+02
-3.308361e+09 -3.108363e+09 -3.268362e+09 1.982108e+01 1.227466e+01 -5.886935e+02
-3.588039e+09 -3.388041e+09 -3.548040e+09 4.265552e+02 -2.871517e+01 -2.965769e+02
-3.351782e+09 -3.151784e+09 -3.311783e+09 3.043560e+02 1.829529e+01 -2.065174e+02
-2.780323e+09 -2.580323e+09 -2.740323e+09 2.858028e+02 5.733977e+01 4.844903e+01
-2.557642e+09 -2.357641e+09 -2.517641e+09 2.448828e+02 3.152802e+01 -3.100117e+01
-1.864504e+09 -1.664504e+09 -1.824504e+09 2.892272e+02 3.786148e+01 -6.083872e+01
-2.669142e+09 -2.469142e+09 -2.629142e+09 2.528003e+02 3.117187e+01 -3.899848e+01
-2.686827e+09 -2.486826e+09 -2.646826e+09 -1.572854e+03 5.972716e+02 6.658592e+02
-2.474724e+09 -2.274723e+09 -2.434724e+09 -1.893024e+03 1.517847e+03 1.020546e+03
-2.083929e+09 -1.883928e+09 -2.043927e+09 -2.053286e+03 4.403897e+02 7.153882e+02
-1.557371e+09 -1.357370e+09 -1.517370e+09 -1.341890e+03 1.993185e+02 3.046093e+02
-2.646423e+09 -2.446421e+09 -2.606422e+09 -9.200570e+02 8.653174e+01 2.594921e+02
-2.470010e+09 -2.270007e+09 -2.430009e+09 -1.505571e+03 5.574293e+02 9.384145e+02
-2.309521e+09 -2.109522e+09 -2.269522e+09 -5.160000e+02 -3.337778e+01 -8.900962e+00
-2.951627e+09 -2.751627e+09 -2.911627e+09 -4.382135e+02 -3.942651e+01 5.915116e+00
-2.605969e+09 -2.405970e+09 -2.565970e+09 -4.666329e+02 -3.819664e+01 -1.372688e+01
-3.006208e+09 -2.806208e+09 -2.966208e+09 -4.502492e+02 -2.086379e+01 2.465699e+00
-2.024709e+09 -1.824709e+09 -1.984709e+09 -4.076661e+02 -3.705424e+01 8.655480e+00
-2.532606e+09 -2.332606e+09 -2.492606e+09 -4.267640e+02 -2.832645e+01 -1.044582e+01
-2.540175e+09 -2.340175e+09 -2.500175e+09 2.456599e+02 2.508221e+01 -1.205479e+01
-2.490874e+09 -2.290875e+09 -2.450874e+09 3.125875e+02 1.525177e+01 -3.552489e+01
-2.843483e+09 -2.643484e+09 -2.803484e+09 3.058466e+02 2.317099e+01 -5.411813e+01
-2.331558e+09 -2.131558e+09 -2.291557e+09 -5.476517e+02 4.643482e+01 -8.817820e+01
-2.729259e+09 -2.529258e+09 -2.689258e+09 -5.066506e+02 8.435430e+01 -1.890444e+01
-1.757190e+09 -1.557190e+09 -1.717189e+09 -4.963537e+02 1.935110e+01 -6.305108e+01
-1.757793e+09 -1.557793e+09 -1.717793e+09 -7.180849e+02 6.283414e+01 -5.968996e+01
-2.341807e+09 -2.141807e+09 -2.301806e+09 -7.512887e+02 5.360028e+01 1.062482e+01
-1.823344e+09 -1.623344e+09 -1.783344e+09 6.593885e+01 2.845967e+01 -3.409697e+01
-2.412616e+09 -2.212615e+09 -2.372615e+09 6.375508e+01 1.765587e+01 -4.021344e+01
-2.007683e+09 -1.807683e+09 -1.967684e+09 -6.218637e+02 -7.765156e+01 5.835142e+01
-2.482705e+09 -2.282704e+09 -2.442704e+09 1.184111e+02 9.530098e+00 -3.622275e+01
-2.669053e+09 -2.469053e+09 -2.629053e+09 1.039666e+02 9.756604e+00 -1.581519e+01
-2.525441e+09 -2.325441e+09 -2.485441e+09 1.372421e+02 1.943081e+01 -2.985670e+01
-2.458095e+09 -2.258095e+09 -2.418095e+09 1.055968e+02 2.039041e+01 -9.320601e+00
-2.527980e+09 -2.327980e+09 -2.487980e+09 1.548296e+02 2.667916e+01 -1.729700e+01
-2.747774e+09 -2.547773e+09 -2.707773e+09 1.009714e+02 1.254576e+01 -1.735784e+01
-3.058022e+09 -2.858020e+09 -3.018022e+09 -1.375277e+03 1.348849e+03 1.255510e+03
-3.109947e+09 -2.909946e+09 -3.069946e+09 6.923528e+01 1.337333e+01 -2.596353e+01
-2.655027e+09 -2.455026e+09 -2.615027e+09 1.585522e+02 -9.544764e+01 -9.133724e+01
-2.072416e+09 -1.872414e+09 -2.032415e+09 -5.568498e+01 1.988544e+01 3.030813e+01
-3.399185e+09 -3.199187e+09 -3.359183e+09 4.111242e+02 -3.869284e+02 -2.704743e+03
-3.102671e+09 -2.902673e+09 -3.062669e+09 6.422276e+02 -4.870301e+02 -2.571877e+03
-1.770148e+09 -1.570154e+09 -1.730152e+09 1.152670e+03 -7.237607e+02 -4.300962e+03
-2.431981e+09 -2.231984e+09 -2.391982e+09 -6.069143e+02 5.298246e+02 -2.499682e+03
-2.200842e+09 -2.000843e+09 -2.160843e+09 -1.645405e+03 4.758109e+02 -1.532541e+03
-3.002792e+09 -2.802795e+09 -2.962792e+09 -1.096676e+03 5.780044e+02 -1.989250e+03
-3.299558e+09 -3.099561e+09 -3.259559e+09 -6.299320e+02 4.299781e+02 -1.524140e+03
-3.254831e+09 -3.054833e+09 -3.214831e+09 5.440007e+02 -6.069189e+02 -1.699210e+03
-2.970440e+09 -2.770440e+09 -2.930441e+09 2.862061e+03 1.553760e+03 5.456087e+02
-2.175814e+09 -1.975815e+09 -2.135815e+09 -1.504307e+03 5.405325e+02 -8.410658e+02
-2.387220e+09 -2.187224e+09 -2.347226e+09 5.708225e+03 8.320808e+03 -4.120847e+03
-2.367576e+09 -2.167577e+09 -2.327577e+09 5.268831e+03 4.592627e+03 -2.811823e+03
-2.727087e+09 -2.527082e+09 -2.687089e+09 4.581759e+03 3.824599e+03 -3.949985e+03
-3.438892e+09 -3.238891e+09 -3.398899e+09 2.515934e+03 4.905559e+03 -2.510117e+03
-3.423217e+09 -3.223216e+09 -3.383221e+09 2.487400e+03 3.670955e+03 -2.223462e+03
-3.025187e+09 -2.825188e+09 -2.985187e+09 -1.174446e+03 3.098062e+02 1.437022e+02
-3.612537e+09 -3.412535e+09 -3.572536e+09 -8.591375e+02 2.204509e+02 3.566384e+02
-2.938583e+09 -2.738578e+09 -2.898584e+09 2.297518e+03 1.547115e+03 -3.003873e+03
-3.428326e+09 -3.228320e+09 -3.388328e+09 6.753368e+02 2.766686e+03 -2.825801e+03
-3.218552e+09 -3.018546e+09 -3.178560e+09 3.075022e+03 5.308892e+03 -5.292405e+03
-2.428204e+09 -2.228205e+09 -2.388205e+09 2.431113e+02 2.682288e+01 -1.683740e+02
-2.393383e+09 -2.193385e+09 -2.353384e+09 1.152249e+02 7.882781e+00 -2.978030e+02
-2.028983e+09 -1.828985e+09 -1.988984e+09 6.960563e+01 4.085650e+01 -2.276175e+02
-2.339950e+09 -2.139952e+09 -2.299951e+09 3.664789e+02 -1.753821e+01 -4.925710e+02
-1.865404e+09 -1.665406e+09 -1.825405e+09 1.151140e+02 9.431724e+00 -3.096009e+02
-1.943447e+09 -1.743464e+09 -1.903463e+09 6.593953e+03 2.318474e+04 -5.517515e+03
-1.743141e+09 -1.543165e+09 -1.703153e+09 1.040133e+04 2.207267e+04 -6.873155e+03
-3.244476e+09 -3.044472e+09 -3.204476e+09 -1.866725e+03 1.208634e+03 1.823048e+03
-2.032325e+09 -1.832343e+09 -1.992329e+09 4.702726e+03 8.742502e+03 -1.918213e+03
-2.505624e+09 -2.305625e+09 -2.465625e+09 -2.737719e+02 -1.113323e+01 1.018113e+01
-2.548272e+09 -2.348279e+09 -2.508283e+09 4.609727e+03 1.351317e+04 -4.937208e+03
-2.260313e+09 -2.060319e+09 -2.220316e+09 1.564669e+03 3.445236e+03 -4.382940e+02
-1.990147e+09 -1.790158e+09 -1.950151e+09 3.011503e+03 5.779982e+03 -1.026392e+03
-2.587254e+09 -2.387260e+09 -2.547260e+09 2.515008e+03 5.923609e+03 -1.571350e+03
-2.185692e+09 -1.985698e+09 -2.145697e+09 2.552238e+03 6.346069e+03 -1.561435e+03
-2.943763e+09 -2.743770e+09 -2.903767e+09 5.214830e+02 3.028447e+03 -2.449636e+02
-2.536645e+09 -2.336652e+09 -2.496648e+09 4.995554e+02 3.062451e+03 -2.538149e+02
-3.401252e+09 -3.201255e+09 -3.361254e+09 9.154748e+02 1.309471e+03 -2.098849e+02
-3.389854e+09 -3.189858e+09 -3.349857e+09 4.032050e+02 1.812255e+03 -1.479943e+02
-2.584249e+09 -2.384254e+09 -2.544251e+09 3.770569e+01 1.747229e+03 6.771539e+01
-2.992823e+09 -2.792820e+09 -2.952822e+09 -5.482493e+02 -3.858357e+01 -4.753881e+02
-2.234757e+09 -2.034754e+09 -2.194757e+09 -1.469840e+03 -1.432300e+02 -2.742029e+02
-3.181514e+09 -2.981509e+09 -3.141514e+09 -1.214087e+03 -2.551218e+02 -6.702252e+02
-2.514133e+09 -2.314129e+09 -2.474132e+09 -1.213923e+03 3.952682e+02 -5.946494e+02
-3.103090e+09 -2.903072e+09 -3.063081e+09 -2.414411e+03 -9.602028e+03 -3.837935e+03
-3.331185e+09 -3.131165e+09 -3.291171e+09 7.359355e+02 -1.436060e+04 -6.344962e+03
-3.135747e+09 -2.935730e+09 -3.095735e+09 -1.259599e+03 -1.516226e+04 -4.615827e+03
-2.496239e+09 -2.296223e+09 -2.456238e+09 -4.932694e+03 -1.777633e+03 -3.655079e+03
-1.897913e+09 -1.697913e+09 -1.857913e+09 5.328186e+02 2.634082e+01 -9.857857e+01
-2.553711e+09 -2.353711e+09 -2.513712e+09 5.709052e+02 1.727251e+01 -1.481716e+02
-2.540087e+09 -2.340087e+09 -2.500087e+09 3.872304e+02 3.672554e+01 -7.673454e+01
-2.093979e+09 -1.893979e+09 -2.053979e+09 4.284435e+02 3.203348e+01 -5.304981e+01
-2.943699e+09 -2.743700e+09 -2.903700e+09 -3.573008e+02 -1.746608e+01 -1.658583e+01
-3.247681e+09 -3.047682e+09 -3.207681e+09 -3.771007e+02 -1.207093e+01 1.148836e+00
-2.459906e+09 -2.259907e+09 -2.419907e+09 -3.719140e+02 -3.269270e+01 -8.858374e+00
-2.049662e+09 -1.849662e+09 -2.009662e+09 -3.673601e+02 -2.861635e+01 1.755044e+01
-2.417174e+09 -2.217175e+09 -2.377175e+09 -2.954342e+02 -7.680491e+00 -8.925085e+00
-1.836541e+09 -1.636541e+09 -1.796541e+09 -3.701908e+02 -3.632650e+01 1.007376e+01
-2.118889e+09 -1.918890e+09 -2.078890e+09 -2.746869e+02 -8.771133e+00 1.893826e+01
-3.581183e+09 -3.381181e+09 -3.541183e+09 -1.701853e+03 1.055854e+03 1.014011e+03
-3.045698e+09 -2.845697e+09 -3.005697e+09 -1.193494e+03 2.362934e+02 3.287587e+02
-1.593325e+09 -1.393325e+09 -1.553325e+09 -3.571614e+02 -5.240445e+01 -6.399626e+00
-2.582714e+09 -2.382712e+09 -2.542713e+09 -4.049224e+02 -9.654358e+00 2.347070e+01
-2.481233e+09 -2.281232e+09 -2.441232e+09 -2.973587e+02 4.495696e+01 4.700633e+01
-1.971852e+09 -1.771850e+09 -1.931851e+09 -3.692382e+02 1.158326e+02 1.006675e+02
-3.581182e+09 -3.381179e+09 -3.541182e+09 -1.236717e+03 4.333043e+02 8.553991e+02
-2.354781e+09 -2.154779e+09 -2.314780e+09 -5.927114e+02 1.263576e+02 1.351227e+02
-1.745393e+09 -1.545392e+09 -1.705392e+09 -5.636883e+02 6.563094e+01 5.604620e+01
-1.962483e+09 -1.762481e+09 -1.922482e+09 -5.814258e+02 2.150067e+02 1.434826e+02
-2.074294e+09 -1.874298e+09 -2.034296e+09 1.437082e+03 -7.763929e+02 -4.062834e+03
-2.089692e+09 -1.889691e+09 -2.049689e+09 2.715213e+03 -2.248099e+03 -4.347969e+03
-1.785547e+09 -1.585547e+09 -1.745546e+09 3.552958e+03 -2.593339e+03 -3.986598e+03
-2.024264e+09 -1.824266e+09 -1.984265e+09 1.662262e+03 -6.472771e+02 -2.284946e+03
-1.589042e+09 -1.389050e+09 -1.549044e+09 -3.481486e+03 4.096713e+03 1.275746e+03
-3.613242e+09 -3.413235e+09 -3.573236e+09 -3.758323e+03 -3.836650e+03 5.184440e+02
-2.336801e+09 -2.136806e+09 -2.296804e+09 -2.189544e+03 2.499010e+03 5.644324e+02
-2.768371e+09 -2.568371e+09 -2.728371e+09 -2.383932e+03 1.520389e+03 9.404083e+02
-2.314905e+09 -2.114909e+09 -2.274907e+09 -2.697582e+03 2.594405e+03 9.583500e+02
-2.341073e+09 -2.141076e+09 -2.301076e+09 -3.826886e+03 3.479261e+03 2.144524e+03
-1.801426e+09 -1.601408e+09 -1.761442e+09 8.211302e+03 -2.143418e+04 -2.613792e+04
-3.514386e+09 -3.314387e+09 -3.474386e+09 -3.222716e+02 -9.381184e+02 -4.749993e+03
-2.874275e+09 -2.674267e+09 -2.834257e+09 -3.346496e+03 3.721701e+03 -7.090289e+03
-2.743489e+09 -2.543488e+09 -2.703481e+09 -3.527177e+03 2.301234e+03 -4.828204e+03
-3.308383e+09 -3.108382e+09 -3.268377e+09 6.024642e+02 -1.911783e+03 -2.357249e+03
-2.814838e+09 -2.614837e+09 -2.774838e+09 -5.418862e+02 -1.470200e+02 2.267879e+02
-2.454041e+09 -2.254041e+09 -2.414041e+09 -4.063157e+02 -1.266267e+02 1.165936e+02
-1.570050e+09 -1.370050e+09 -1.530050e+09 -3.229041e+02 -2.973305e+01 -5.040965e+01
-3.200736e+09 -3.000735e+09 -3.160736e+09 -3.828003e+02 -1.845660e+02 1.464798e+02
-3.585316e+09 -3.385315e+09 -3.545316e+09 -7.191987e+02 -1.258817e+02 1.232244e+02
-3.275984e+09 -3.075984e+09 -3.235984e+09 -2.507366e+02 -1.647504e+01 -2.594306e+01
-2.389048e+09 -2.189047e+09 -2.349048e+09 -3.800888e+02 -1.460156e+02 1.843891e+02
-2.455578e+09 -2.255577e+09 -2.415578e+09 -5.788596e+02 -1.102032e+02 2.136881e+01
-2.783817e+09 -2.583816e+09 -2.743817e+09 -4.571463e+02 -1.068876e+02 1.156383e+02
-3.556734e+09 -3.356732e+09 -3.516733e+09 -2.209141e+02 4.948990e+00 8.138245e+01
-2.161846e+09 -1.961847e+09 -2.121845e+09 1.236840e+03 2.114259e+02 -4.990164e+01
-1.964397e+09 -1.764397e+09 -1.924396e+09 1.044329e+03 1.704237e+02 5.637664e-01
-2.669830e+09 -2.469832e+09 -2.629830e+09 1.336546e+03 3.633492e+02 -9.237276e+01
-2.553474e+09 -2.353475e+09 -2.513474e+09 1.508012e+03 6.105963e+02 -1.502068e+02
-2.971369e+09 -2.771370e+09 -2.931369e+09 1.421621e+03 4.295069e+02 -1.966871e+02
-1.672557e+09 -1.472558e+09 -1.632557e+09 1.170802e+03 3.634964e+02 -6.181157e+01
-1.978554e+09 -1.778554e+09 -1.938553e+09 1.695255e+03 4.006073e+02 -2.827381e+02
-3.341297e+09 -3.141299e+09 -3.301299e+09 1.036642e+03 -1.263600e+03 4.703417e+02
-3.353856e+09 -3.153859e+09 -3.313859e+09 8.526467e+02 -2.263605e+03 5.289048e+02
-3.527199e+09 -3.327201e+09 -3.487201e+09 6.999993e+02 -1.538553e+03 3.808602e+02
-2.364092e+09 -2.164091e+09 -2.324093e+09 1.708174e+03 -1.857528e+03 1.404370e+03
-3.384724e+09 -3.184723e+09 -3.344725e+09 8.860930e+02 -1.351128e+03 1.249844e+03
-2.813238e+09 -2.613239e+09 -2.773239e+09 1.325342e+03 -1.500323e+03 1.045385e+03
-3.191792e+09 -2.991793e+09 -3.151794e+09 1.298801e+03 -1.654454e+03 1.003264e+03
-3.219828e+09 -3.019830e+09 -3.179830e+09 1.156952e+03 -1.661692e+03 7.177024e+02
-3.216396e+09 -3.016396e+09 -3.176397e+09 1.294770e+03 -1.274613e+03 9.971715e+02
-2.240242e+09 -2.040240e+09 -2.200242e+09 -8.832588e+02 3.219603e+01 5.210958e+02
-3.137571e+09 -2.937570e+09 -3.097570e+09 -1.515791e+03 7.647183e+02 -4.165402e+02
-2.352766e+09 -2.152766e+09 -2.312766e+09 -2.301786e+03 1.252726e+03 -1.472703e+03
-2.612921e+09 -2.412921e+09 -2.572921e+09 -1.848492e+03 5.992068e+02 -2.281558e+02
-2.604395e+09 -2.404393e+09 -2.564391e+09 2.566629e+03 -2.505200e+03 -2.906845e+03
-3.630284e+09 -3.430285e+09 -3.590285e+09 2.038526e+02 3.840929e+00 -1.502225e+01
-3.106756e+09 -2.906755e+09 -3.066751e+09 9.490859e+02 -1.479404e+03 -2.664048e+03
-2.703884e+09 -2.503872e+09 -2.663900e+09 -7.675758e+02 3.541384e+03 -4.900580e+03
-1.754799e+09 -1.554790e+09 -1.714817e+09 -1.205427e+04 3.083032e+04 1.279397e+03
-2.091645e+09 -1.891628e+09 -2.051667e+09 4.977029e+03 7.585114e+02 -1.236700e+04
-2.262670e+09 -2.062668e+09 -2.222669e+09 1.410138e+02 -3.448077e+01 -1.716313e+02
-2.564860e+09 -2.364859e+09 -2.524860e+09 6.337530e+02 -9.498274e+01 -3.652671e+02
-2.976988e+09 -2.776986e+09 -2.936987e+09 6.213923e+02 -1.641480e+02 -2.646866e+02
-3.269691e+09 -3.069690e+09 -3.229691e+09 2.390593e+02 7.307018e-02 -6.051354e+01
-2.554291e+09 -2.354290e+09 -2.514290e+09 3.107218e+02 -1.422008e+02 -1.347084e+02
-2.965186e+09 -2.765184e+09 -2.925185e+09 3.376921e+02 -6.684260e+01 -9.752925e+01
-3.065922e+09 -2.865921e+09 -3.025921e+09 1.848392e+02 9.942710e+00 -8.551671e+01
-2.194162e+09 -1.994163e+09 -2.154163e+09 2.345667e+03 -3.910685e+03 2.935401e+03
-2.310915e+09 -2.110915e+09 -2.270919e+09 1.348695e+03 -5.513651e+03 3.600204e+03
-2.524301e+09 -2.324302e+09 -2.484308e+09 2.256031e+03 -6.150641e+03 1.632662e+03
-2.952476e+09 -2.752477e+09 -2.912482e+09 1.433593e+03 -4.260389e+03 2.290684e+03
-2.806541e+09 -2.606540e+09 -2.766540e+09 -4.464764e+02 1.376018e+02 9.573300e+01
-3.404779e+09 -3.204778e+09 -3.364778e+09 -2.323169e+02 -1.796342e+01 -6.660698e+01
-2.881093e+09 -2.681093e+09 -2.841093e+09 -2.856672e+02 3.349157e+01 -7.691287e+00
-2.862356e+09 -2.662356e+09 -2.822356e+09 -3.598977e+02 6.613143e+01 -1.956822e+01
-3.368970e+09 -3.168969e+09 -3.328969e+09 -4.830050e+02 8.850503e+01 1.851274e+01
-2.746743e+09 -2.546743e+09 -2.706743e+09 -8.362836e+02 9.007094e+01 2.588433e+01
-3.356434e+09 -3.156434e+09 -3.316433e+09 -6.361110e+02 2.666977e+01 -2.463373e+01
-2.564053e+09 -2.364052e+09 -2.524052e+09 -8.021821e+02 6.586939e+01 8.377608e+00
-3.190635e+09 -2.990635e+09 -3.150635e+09 -5.748822e+02 7.876580e+01 4.349638e+01
-3.326991e+09 -3.126995e+09 -3.286995e+09 -3.342279e+02 -2.850343e+03 9.702111e+01
-3.513760e+09 -3.313764e+09 -3.473764e+09 1.348954e+01 -1.943904e+03 1.103126e+02
-1.997337e+09 -1.797343e+09 -1.957339e+09 -7.287513e+02 -2.354260e+03 -2.091973e+02
-2.925369e+09 -2.725374e+09 -2.885373e+09 -5.829638e+02 -2.445336e+03 -7.503901e+01
-2.657478e+09 -2.457484e+09 -2.617482e+09 -5.782785e+02 -3.600424e+03 -1.480881e+02
-2.028071e+09 -1.828076e+09 -1.988073e+09 1.096206e+02 -2.068932e+03 5.746434e+01
-3.082961e+09 -2.882965e+09 -3.042964e+09 8.617964e+02 -2.239103e+03 5.108996e+02
-3.520148e+09 -3.320152e+09 -3.480152e+09 4.300671e+02 -1.817329e+03 2.800542e+02
-2.965540e+09 -2.765545e+09 -2.925543e+09 8.477547e+02 -1.569179e+03 4.426318e+02
-3.344774e+09 -3.144778e+09 -3.304778e+09 2.497706e+02 -2.707544e+03 3.686548e+02
-2.327099e+09 -2.127105e+09 -2.287102e+09 2.131754e+02 -2.544421e+03 2.097720e+02
-3.067491e+09 -2.867496e+09 -3.027495e+09 1.560879e+02 -2.649182e+03 2.487154e+02
-3.159334e+09 -2.959337e+09 -3.119340e+09 1.021361e+03 -4.661935e+03 1.474183e+03
-2.619764e+09 -2.419768e+09 -2.579768e+09 1.162532e+03 -3.137877e+03 9.134328e+02
-2.795575e+09 -2.595580e+09 -2.755580e+09 1.182265e+02 -3.699491e+03 5.896265e+02
-2.378907e+09 -2.178912e+09 -2.338911e+09 1.474727e+03 -4.386451e+03 1.242851e+03
-2.542863e+09 -2.342867e+09 -2.502869e+09 1.289495e+03 -4.529267e+03 1.380530e+03
-2.551926e+09 -2.351927e+09 -2.511927e+09 -1.060892e+03 1.545236e+02 -2.879439e+02
-2.986125e+09 -2.786126e+09 -2.946126e+09 -1.426412e+03 5.425143e+02 -5.259161e+02
-3.393345e+09 -3.193344e+09 -3.353345e+09 -1.264929e+03 3.237978e+02 2.546560e+02
-3.189281e+09 -2.989283e+09 -3.149282e+09 -1.189566e+03 5.216284e+02 -9.233216e+02
-1.979267e+09 -1.779266e+09 -1.939267e+09 -1.107148e+03 2.598399e+02 1.130683e+01
-2.595036e+09 -2.395035e+09 -2.555035e+09 -1.271213e+03 1.716542e+02 1.667301e+02
-2.948385e+09 -2.748385e+09 -2.908386e+09 -1.272726e+03 1.797791e+02 -9.374579e+01
-3.281416e+09 -3.081416e+09 -3.241416e+09 -1.113291e+03 1.071155e+02 -3.060852e+02
-2.530909e+09 -2.330910e+09 -2.490910e+09 -1.200991e+02 -2.941035e+00 4.110432e+00
-2.629343e+09 -2.429344e+09 -2.589344e+09 -1.394798e+02 -5.018452e+00 1.746898e+00
-2.836008e+09 -2.636010e+09 -2.796009e+09 -1.154583e+02 -1.195545e+01 1.511488e+01
-2.017417e+09 -1.817418e+09 -1.977418e+09 -1.402767e+02 1.467588e+00 1.559560e+01
-2.540461e+09 -2.340462e+09 -2.500462e+09 -2.741705e+00 -5.678469e+00 1.745662e+01
-2.353255e+09 -2.153256e+09 -2.313256e+09 -5.841661e+02 -1.351939e+01 -1.850534e+01
-2.453736e+09 -2.253737e+09 -2.413737e+09 -4.531672e+02 -2.634166e+01 -2.512950e+01
-3.365327e+09 -3.165328e+09 -3.325328e+09 -4.490969e+02 -2.153533e+01 2.159176e+00
-3.185362e+09 -2.985362e+09 -3.145362e+09 -4.924062e+02 -1.976881e+01 -1.024207e+01
-3.269298e+09 -3.069298e+09 -3.229298e+09 -5.241708e+02 -3.969937e+01 2.338818e+01
-2.953913e+09 -2.753913e+09 -2.913913e+09 -5.865753e+02 -2.465219e+01 8.131963e+00
-3.228919e+09 -3.028919e+09 -3.188919e+09 -3.854752e+01 7.824569e+01 -4.111766e+00
-3.181734e+09 -2.981734e+09 -3.141734e+09 -8.202519e+01 -3.449929e+01 -7.323958e+01
-3.100362e+09 -2.900363e+09 -3.060363e+09 1.761364e+02 8.247708e-01 -1.159414e+02
-2.780038e+09 -2.580032e+09 -2.740036e+09 3.287739e+02 1.438465e+03 -2.508232e+03
-2.870543e+09 -2.670538e+09 -2.830545e+09 1.713807e+03 2.940821e+03 -2.826349e+03
-2.879863e+09 -2.679850e+09 -2.839864e+09 -1.994698e+02 -4.823510e+02 -4.308120e+03
-3.089521e+09 -2.889514e+09 -3.049520e+09 -3.003038e+03 -1.715180e+03 -2.471551e+02
-3.476386e+09 -3.276379e+09 -3.436388e+09 2.247493e+03 3.053418e+03 -3.513952e+03
-2.659490e+09 -2.459483e+09 -2.619489e+09 -2.304248e+03 -1.272478e+03 -1.239498e+03
-3.419779e+09 -3.219770e+09 -3.379781e+09 1.335872e+03 1.251636e+03 -3.669994e+03
-3.163956e+09 -2.963953e+09 -3.123956e+09 9.829648e+02 5.313190e+02 -5.456133e+02
-2.687857e+09 -2.487856e+09 -2.647857e+09 1.940839e+03 1.221612e+03 -9.334116e+02
-2.257146e+09 -2.057145e+09 -2.217146e+09 1.432392e+03 8.954731e+02 -4.876078e+02
-1.870764e+09 -1.670762e+09 -1.830763e+09 2.076828e+03 8.562386e+02 -8.129229e+02
-2.070566e+09 -1.870564e+09 -2.030564e+09 2.108642e+03 1.012137e+03 -8.652702e+02
-3.314330e+09 -3.114335e+09 -3.274332e+09 2.066350e+03 1.561472e+03 2.419714e+03
-2.963315e+09 -2.763315e+09 -2.923315e+09 -2.225755e+02 -3.005595e+01 -6.610701e+00
-2.749988e+09 -2.549995e+09 -2.709992e+09 2.921871e+03 3.061816e+03 6.718612e+03
-1.610519e+09 -1.410520e+09 -1.570519e+09 1.494545e+03 -1.247921e+03 5.427654e+02
-2.598047e+09 -2.398053e+09 -2.558049e+09 -4.868485e+02 -4.163614e+02 3.167771e+03
-2.970951e+09 -2.770961e+09 -2.930952e+09 -1.286425e+03 -2.863708e+02 7.151036e+03
-2.695522e+09 -2.495528e+09 -2.655525e+09 1.309194e+03 5.338489e+02 6.005502e+03
-3.282530e+09 -3.082539e+09 -3.242529e+09 1.617680e+01 -4.305234e+01 6.932928e+03
-2.594330e+09 -2.394330e+09 -2.554331e+09 -6.149018e+02 -1.717435e+01 -6.832631e+01
-1.875865e+09 -1.675865e+09 -1.835865e+09 -5.709989e+02 -8.045212e+01 5.942176e+01
-1.905691e+09 -1.705691e+09 -1.865691e+09 -4.827279e+02 -5.379922e+01 1.867060e+01
-2.559291e+09 -2.359291e+09 -2.519291e+09 -4.448148e+02 -6.563594e+01 2.754722e+01
-1.962162e+09 -1.762161e+09 -1.922161e+09 -4.011113e+02 -6.777637e+01 3.990406e+01
-2.665634e+09 -2.465634e+09 -2.625634e+09 -4.964561e+02 -6.928448e+01 3.072515e+00
-3.078670e+09 -2.878670e+09 -3.038670e+09 -3.182966e+02 -2.560670e+01 -1.762571e+01
-2.967445e+09 -2.767445e+09 -2.927445e+09 -3.283663e+02 -3.115880e+01 3.622045e+00
-1.678185e+09 -1.478185e+09 -1.638184e+09 1.239973e+03 3.017218e+02 -6.439551e+01
-2.477231e+09 -2.277231e+09 -2.437231e+09 -3.075087e+02 -4.492194e+01 -1.757641e+00
-2.060774e+09 -1.860774e+09 -2.020774e+09 -3.950046e+02 -4.215343e+01 3.642400e+01
-2.467576e+09 -2.267576e+09 -2.427577e+09 -3.954843e+02 -4.641617e+01 -2.880711e+01
-2.080248e+09 -1.880248e+09 -2.040248e+09 -2.996000e+02 -2.024287e+01 1.624269e+00
-1.879138e+09 -1.679138e+09 -1.839138e+09 -3.114948e+02 -4.004804e+01 -4.445656e+00
-2.809642e+09 -2.609642e+09 -2.769643e+09 -1.505141e+03 -1.619190e+03 -8.181252e+02
-3.078623e+09 -2.878623e+09 -3.038626e+09 -1.926556e+03 -2.834849e+03 -1.333574e+03
-3.184452e+09 -2.984453e+09 -3.144454e+09 -1.532904e+03 -1.736839e+03 -7.628100e+02
-2.795902e+09 -2.595905e+09 -2.755905e+09 -1.618504e+03 -2.812458e+03 -9.993357e+02
-2.763602e+09 -2.563604e+09 -2.723604e+09 -1.586333e+03 -2.526411e+03 -9.565527e+02
-2.115552e+09 -1.915548e+09 -2.075554e+09 -1.873069e+03 -1.499629e+03 1.664886e+03
-2.654333e+09 -2.454328e+09 -2.614337e+09 -4.626907e+02 -1.716753e+03 3.191834e+03
-2.255425e+09 -2.055419e+09 -2.215428e+09 4.594972e+03 -6.854097e+03 5.110368e+03
-1.761820e+09 -1.561806e+09 -1.721824e+09 3.316483e+03 -1.730688e+03 5.281299e+03
-1.892090e+09 -1.692089e+09 -1.852090e+09 6.535209e+03 -5.691740e+03 5.274364e+03
-2.217822e+09 -2.017827e+09 -2.177824e+09 -6.210620e+02 -2.324966e+03 5.412702e+01
-1.881225e+09 -1.681228e+09 -1.841226e+09 -1.372939e+03 -1.638139e+03 -5.759379e+02
-3.499636e+09 -3.299638e+09 -3.459638e+09 -8.454361e+02 -1.360915e+03 -2.228514e+02
-3.242311e+09 -3.042314e+09 -3.202313e+09 -7.368147e+02 -1.557672e+03 -3.398450e+01
-2.588324e+09 -2.388327e+09 -2.548326e+09 -1.473407e+03 -2.207840e+03 -6.752021e+02
-2.713739e+09 -2.513741e+09 -2.673741e+09 -1.379227e+03 -2.494411e+03 -7.761492e+02
-3.055284e+09 -2.855287e+09 -3.015287e+09 -1.161282e+03 -2.200441e+03 -5.023875e+02
-2.927185e+09 -2.727188e+09 -2.887187e+09 -1.282037e+03 -1.553378e+03 -3.318729e+02
-3.308467e+09 -3.108466e+09 -3.268467e+09 -1.228108e+03 -1.264737e+03 -6.908522e+02
-3.016334e+09 -2.816334e+09 -2.976335e+09 -1.168524e+03 -1.170060e+03 -6.171102e+02
-1.686484e+09 -1.486484e+09 -1.646484e+09 -1.650640e+03 -1.117739e+03 -4.096019e+02
-2.545967e+09 -2.345966e+09 -2.505967e+09 -1.520519e+03 -1.468138e+03 -7.503961e+02
-2.684988e+09 -2.484989e+09 -2.644989e+09 -1.563043e+03 -1.677490e+03 -7.434689e+02
-1.890098e+09 -1.690099e+09 -1.850098e+09 -1.694140e+03 -1.084196e+03 -5.983513e+02
-2.943010e+09 -2.743009e+09 -2.903010e+09 -1.247470e+03 -1.034566e+03 -7.422653e+02
-1.995009e+09 -1.795009e+09 -1.955008e+09 -1.532952e+03 -1.026531e+03 -4.564691e+02
-1.988765e+09 -1.788764e+09 -1.948764e+09 -1.888444e+02 -2.560549e+01 -1.869387e+01
-2.503394e+09 -2.303394e+09 -2.463394e+09 -2.340796e+02 -4.132379e+01 -3.028831e+01
-2.147417e+09 -1.947417e+09 -2.107417e+09 -2.704186e+02 -2.740305e+01 -1.134740e+01
-2.693112e+09 -2.493112e+09 -2.653112e+09 -2.433849e+02 -2.883194e+01 -1.884571e+01
-2.567530e+09 -2.367530e+09 -2.527530e+09 -2.452200e+02 -2.981365e+01 -1.633090e+01
-3.004276e+09 -2.804276e+09 -2.964276e+09 -2.181011e+02 -3.352676e+01 -2.533061e+01
-2.170547e+09 -1.970547e+09 -2.130547e+09 -2.489309e+02 -2.492726e+01 3.023100e+00
-2.976220e+09 -2.776222e+09 -2.936221e+09 -3.946527e+02 -1.166042e+01 -2.621763e+02
-2.954603e+09 -2.754604e+09 -2.914604e+09 -7.772301e+02 6.308817e+01 -3.216761e+02
-3.116770e+09 -2.916772e+09 -3.076771e+09 -2.080053e+02 2.655533e+01 -2.340601e+02
-3.306299e+09 -3.106301e+09 -3.266300e+09 -2.390279e+02 2.091959e+01 -2.143228e+02
-2.576042e+09 -2.376043e+09 -2.536043e+09 -5.105694e+02 9.769786e+01 -2.287935e+02
-2.666069e+09 -2.466071e+09 -2.626070e+09 -3.265930e+02 5.364019e+00 -1.202890e+02
-2.217423e+09 -2.017406e+09 -2.177393e+09 -1.622655e+03 -3.565596e+03 -1.442287e+04
-2.525023e+09 -2.325012e+09 -2.485022e+09 -1.310065e+03 1.490569e+03 -2.696354e+03
-2.930041e+09 -2.730028e+09 -2.890035e+09 -6.191648e+03 7.806738e+03 -4.198195e+03
-3.292986e+09 -3.092979e+09 -3.252963e+09 -3.106501e+03 2.500474e+03 7.476218e+02
-3.138747e+09 -2.938741e+09 -3.098727e+09 -2.853237e+03 2.852842e+03 -9.733118e+03
-2.114564e+09 -1.914551e+09 -2.074539e+09 -2.196549e+03 7.460961e+03 -5.554818e+03
-2.315737e+09 -2.115728e+09 -2.275707e+09 -8.402703e+03 -4.976651e+03 -1.603354e+04
-2.622156e+09 -2.422142e+09 -2.582128e+09 -5.160731e+03 2.635106e+03 -1.536154e+04
-2.608453e+09 -2.408452e+09 -2.568453e+09 -3.204974e+02 -6.330628e+01 2.565841e+01
-2.347261e+09 -2.147260e+09 -2.307260e+09 -3.380392e+02 -5.809383e+01 -1.108048e+01
-2.587134e+09 -2.387134e+09 -2.547134e+09 -3.219224e+02 -4.753340e+01 2.750240e+00
-1.960931e+09 -1.760931e+09 -1.920931e+09 -3.474093e+02 -5.681857e+01 1.310995e+01
-2.513676e+09 -2.313640e+09 -2.473628e+09 -3.847423e+02 -2.524216e+04 -1.245431e+03
-1.804631e+09 -1.604630e+09 -1.764630e+09 -2.737366e+02 -5.445119e+01 -1.060056e+01
-1.980995e+09 -1.780994e+09 -1.940994e+09 -3.416145e+02 -4.092975e+01 2.088322e+01
-3.076097e+09 -2.876102e+09 -3.036107e+09 2.113960e+03 7.731098e+03 -1.374589e+03
-2.959140e+09 -2.759148e+09 -2.919145e+09 -3.331284e+02 4.451893e+03 2.346178e+02
-3.299646e+09 -3.099650e+09 -3.259654e+09 -3.906827e+02 5.583991e+03 -1.707223e+02
-3.117873e+09 -2.917874e+09 -3.077874e+09 1.806318e+02 7.652871e+00 2.008961e+01
-1.853571e+09 -1.653582e+09 -1.813575e+09 -8.294794e+01 5.036764e+03 -2.154757e+02
-3.307737e+09 -3.107742e+09 -3.267744e+09 2.190187e+03 5.286475e+03 -1.568545e+03
-3.004575e+09 -2.804581e+09 -2.964583e+09 2.629886e+03 5.668810e+03 -1.168196e+03
-3.288786e+09 -3.088789e+09 -3.248794e+09 1.663890e+03 5.707826e+03 -7.361166e+02
-2.538355e+09 -2.338363e+09 -2.498361e+09 2.417485e+02 6.119445e+03 6.154982e+02
-2.665384e+09 -2.465383e+09 -2.625393e+09 -1.541930e+03 -7.090038e+03 1.066759e+03
-2.615042e+09 -2.415043e+09 -2.575051e+09 6.356606e+02 -8.924907e+03 2.399653e+03
-3.015137e+09 -2.815132e+09 -2.975141e+09 -2.320836e+02 -1.143861e+03 1.551156e+03
-3.201990e+09 -3.001986e+09 -3.161996e+09 -3.149992e+01 -2.649131e+03 2.148169e+03
-2.553868e+09 -2.353869e+09 -2.513876e+09 8.729453e+02 -6.406319e+03 1.991030e+03
-2.885022e+09 -2.685021e+09 -2.845026e+09 1.458284e+03 -3.376265e+03 2.556318e+03
-2.411423e+09 -2.211429e+09 -2.371429e+09 2.326751e+03 -7.316519e+03 1.934268e+03
-2.030766e+09 -1.830770e+09 -1.990768e+09 -2.054068e+03 -4.601248e+03 -1.148960e+03
-2.456985e+09 -2.256987e+09 -2.416988e+09 -2.583411e+03 -4.221444e+03 -1.512070e+03
-1.874072e+09 -1.674077e+09 -1.834074e+09 -3.111188e+03 -4.116987e+03 -1.984297e+03
-2.663054e+09 -2.463062e+09 -2.623052e+09 -4.755995e+03 -5.416791e+03 1.285081e+04
-3.292787e+09 -3.092793e+09 -3.252788e+09 -1.015908e+03 8.783382e+01 3.579195e+03
-3.096757e+09 -2.896763e+09 -3.056754e+09 8.854929e+02 -9.611824e+02 6.303483e+03
-2.155733e+09 -1.955742e+09 -2.115739e+09 -3.152911e+02 5.179303e+02 6.381625e+03
-2.158824e+09 -1.958831e+09 -2.118828e+09 -3.645028e+03 -7.569716e+02 5.200495e+03
-2.569608e+09 -2.369614e+09 -2.529609e+09 -3.429255e+03 -2.931803e+03 5.328240e+03
-2.488923e+09 -2.288931e+09 -2.448921e+09 1.539650e+03 5.648202e+02 8.832629e+03
-3.076899e+09 -2.876898e+09 -3.036898e+09 5.641634e+02 -6.967938e+01 -2.349438e+02
-2.670672e+09 -2.470673e+09 -2.630673e+09 7.038261e+02 -4.177476e+01 -3.455644e+02
-3.389295e+09 -3.189295e+09 -3.349295e+09 6.693724e+02 -6.832825e+01 -3.042883e+02
-3.282040e+09 -3.082040e+09 -3.242040e+09 7.660355e+02 -8.439327e+01 -2.320093e+02
-2.563418e+09 -2.363418e+09 -2.523418e+09 9.125618e+02 -1.302727e+02 -2.233101e+02
-2.614175e+09 -2.414170e+09 -2.574173e+09 -9.406815e+02 7.206100e+02 1.112019e+03
-2.599058e+09 -2.399055e+09 -2.559056e+09 2.109317e+02 -4.002962e+02 3.872310e+01
-2.644009e+09 -2.444004e+09 -2.604007e+09 -5.583369e+02 5.208450e+02 1.370973e+03
-3.017191e+09 -2.817188e+09 -2.977189e+09 2.243344e+02 -4.675498e+01 1.863282e+02
-3.095631e+09 -2.895625e+09 -3.055630e+09 -1.444970e+03 5.597807e+02 1.404799e+03
-3.440283e+09 -3.240279e+09 -3.400282e+09 -5.717484e+02 1.483009e+02 8.293065e+02
-2.571315e+09 -2.371310e+09 -2.531313e+09 -1.314465e+03 5.491486e+01 1.410212e+03
-3.412357e+09 -3.212357e+09 -3.372357e+09 2.810372e+02 -5.406404e+02 3.493796e+02
-2.794020e+09 -2.594019e+09 -2.754020e+09 5.317338e+02 -9.444807e+02 9.699050e+02
-2.994399e+09 -2.794397e+09 -2.954399e+09 -6.152588e+01 -4.646894e+02 5.019633e+02
-2.980414e+09 -2.780412e+09 -2.940413e+09 1.007832e+02 -4.081354e+02 5.512517e+02
-3.351583e+09 -3.151581e+09 -3.311583e+09 4.692528e+01 -3.720669e+02 5.152276e+02
-3.202307e+09 -3.002305e+09 -3.162307e+09 5.294305e+02 -7.935823e+02 8.294046e+02
-3.389675e+09 -3.189674e+09 -3.349675e+09 1.572341e+02 -7.046298e+02 5.944753e+02
-2.077960e+09 -1.877967e+09 -2.037969e+09 -3.435398e+02 -8.940551e+03 -2.367366e+02
-2.458342e+09 -2.258348e+09 -2.418351e+09 -1.059828e+03 -7.437948e+03 5.784729e+02
-2.615369e+09 -2.415372e+09 -2.575380e+09 5.257050e+02 -8.674668e+03 2.488486e+03
-3.065481e+09 -2.865477e+09 -3.025487e+09 -1.560696e+03 -2.016741e+03 -7.582663e+02
-3.283365e+09 -3.083366e+09 -3.243374e+09 8.330601e+02 -5.215176e+03 1.738282e+03
-3.252333e+09 -3.052330e+09 -3.212340e+09 -1.345909e+03 -2.437931e+03 -9.304167e+02
-3.070127e+09 -2.870132e+09 -3.030134e+09 -3.994841e+02 -4.834057e+03 4.660508e+02
-2.957637e+09 -2.757636e+09 -2.917646e+09 -1.410963e+03 -1.873249e+03 -5.640220e+02
-3.578353e+09 -3.378350e+09 -3.538365e+09 -1.080169e+02 6.592328e+03 -5.218111e+02
-2.435491e+09 -2.235504e+09 -2.395509e+09 -4.353638e+03 1.277246e+04 3.340125e+03
-2.058039e+09 -1.858045e+09 -2.018055e+09 -6.061397e+03 1.866760e+04 1.458293e+03
-2.910288e+09 -2.710297e+09 -2.870301e+09 -8.567512e+01 1.138687e+04 9.541150e+02
-2.651887e+09 -2.451873e+09 -2.611887e+09 6.855514e+02 7.718137e+03 -3.561099e+02
-1.777091e+09 -1.577088e+09 -1.737089e+09 -4.522093e+02 -6.125170e+01 4.471763e+02
-2.397072e+09 -2.197063e+09 -2.357070e+09 -1.676579e+03 -2.116499e+03 -1.015171e+03
-2.211014e+09 -2.011005e+09 -2.171026e+09 -7.563623e+02 -8.468657e+03 3.764900e+02
-3.024920e+09 -2.824915e+09 -2.984923e+09 -2.229862e+02 -2.349623e+03 -1.745176e+03
-3.211773e+09 -3.011767e+09 -3.171774e+09 -1.807867e+01 -1.899863e+03 -2.831513e+02
-2.010450e+09 -1.810447e+09 -1.970464e+09 -1.842674e+03 -7.778614e+03 -2.382843e+03
-3.151221e+09 -2.951229e+09 -3.111218e+09 3.396545e+03 4.689722e+03 8.260552e+03
-2.624819e+09 -2.424815e+09 -2.584826e+09 -1.993701e+03 -4.749135e+03 1.536950e+01
-3.279700e+09 -3.079683e+09 -3.239695e+09 8.422880e+02 4.970138e+03 -3.739090e+03
-2.571376e+09 -2.371376e+09 -2.531376e+09 -4.843174e+02 -6.609753e+01 1.064209e+01
-3.606262e+09 -3.406261e+09 -3.566259e+09 4.079458e+03 3.599497e+03 2.821645e+03
-2.082055e+09 -1.882055e+09 -2.042055e+09 -4.420598e+02 -5.181502e+01 2.363625e+01
-2.571778e+09 -2.371778e+09 -2.531778e+09 -3.923193e+02 -4.106428e+01 2.848296e+01
-2.752695e+09 -2.552694e+09 -2.712695e+09 -2.350920e+02 -5.498418e+01 -9.494249e+00
-3.080151e+09 -2.880151e+09 -3.040151e+09 -2.651812e+02 -4.020958e+01 -2.413503e+01
-1.773730e+09 -1.573730e+09 -1.733730e+09 -3.376573e+02 -5.225342e+01 -9.206720e-01
-2.544706e+09 -2.344706e+09 -2.504706e+09 -3.678962e+02 -7.279577e+01 -2.342341e+01
-2.168010e+09 -1.968011e+09 -2.128011e+09 -1.062630e+03 1.827910e+02 -1.479917e+02
-2.003356e+09 -1.803356e+09 -1.963356e+09 -8.941575e+02 1.561262e+01 -1.393949e+02
-2.960291e+09 -2.760292e+09 -2.920292e+09 -8.642901e+02 4.359600e+01 -1.511437e+02
-2.969129e+09 -2.769128e+09 -2.929129e+09 -8.117010e+02 2.724856e+01 2.586546e+02
-2.860884e+09 -2.660884e+09 -2.820884e+09 -1.241257e+03 1.583540e+02 -2.243907e+01
-2.157255e+09 -1.957255e+09 -2.117256e+09 -1.020212e+03 5.481560e+01 -1.355371e+02
-1.984644e+09 -1.784650e+09 -1.944649e+09 -1.601346e+03 -3.782795e+02 2.986625e+03
-3.479463e+09 -3.279468e+09 -3.439463e+09 -1.290201e+03 -1.397287e+02 2.448274e+03
-2.184065e+09 -1.984071e+09 -2.144069e+09 -6.492121e+02 -2.202748e+02 2.990970e+03
-2.879468e+09 -2.679469e+09 -2.839469e+09 -4.093432e+02 -5.932462e+00 -2.385859e+01
-2.546620e+09 -2.346621e+09 -2.506620e+09 -4.372514e+02 -2.460339e+01 -3.834961e+00
-2.177955e+09 -1.977956e+09 -2.137955e+09 -5.504151e+02 6.625847e+00 -6.664067e+01
-2.554559e+09 -2.354561e+09 -2.514560e+09 -3.112453e+02 -1.339147e+01 -9.567176e+01
-1.857223e+09 -1.657224e+09 -1.817224e+09 -2.192380e+02 -5.202240e+00 -2.309683e+01
-2.716827e+09 -2.516828e+09 -2.676828e+09 -1.562154e+02 -3.966002e+00 -1.040894e+01
-3.193915e+09 -2.993915e+09 -3.153915e+09 -1.102689e+03 1.734223e+02 -3.176296e+02
-2.589648e+09 -2.389647e+09 -2.549648e+09 -5.366281e+02 -1.460968e+02 2.495114e+02
-1.795099e+09 -1.595098e+09 -1.755099e+09 -4.305459e+02 -1.336615e+02 8.888492e+01
-2.624181e+09 -2.424181e+09 -2.584181e+09 -9.581428e+02 2.515232e+01 -4.300335e+00
-2.656178e+09 -2.456177e+09 -2.616178e+09 -6.847681e+02 -1.172641e+02 1.678791e+02
-2.597350e+09 -2.397350e+09 -2.557350e+09 -6.247366e+02 -1.436764e+02 1.464309e+02
-3.325450e+09 -3.125450e+09 -3.285450e+09 -8.212344e+02 -3.313648e+01 1.379721e+02
-2.715532e+09 -2.515513e+09 -2.675499e+09 6.627831e+03 9.071326e+03 1.411495e+03
-3.089497e+09 -2.889474e+09 -3.049486e+09 1.222014e+03 6.802556e+03 -2.461520e+03
-3.103875e+09 -2.903855e+09 -3.063840e+09 -8.772166e+02 1.688243e+04 -1.239725e+03
-3.417463e+09 -3.217449e+09 -3.377442e+09 -8.885171e+02 5.127508e+03 -1.917950e+03
-2.646019e+09 -2.446004e+09 -2.606019e+09 -1.447098e+03 -8.359509e+02 -1.571164e+03
-3.446597e+09 -3.246593e+09 -3.406589e+09 -2.238205e+03 2.172222e+03 -2.579229e+03
-1.790292e+09 -1.590280e+09 -1.750293e+09 -1.918945e+03 -8.271668e+02 -4.130626e+03
-1.975723e+09 -1.775712e+09 -1.935728e+09 1.909692e+03 -3.676212e+03 -2.323331e+03
-2.610698e+09 -2.410689e+09 -2.570703e+09 -6.248485e+01 -5.598384e+02 -2.388444e+03
-3.049456e+09 -2.849450e+09 -3.009457e+09 4.637390e+02 -1.208880e+03 -1.898810e+03
-3.421343e+09 -3.221343e+09 -3.381345e+09 -1.508484e+03 -1.915310e+03 -9.108582e+02
-1.874119e+09 -1.674118e+09 -1.834119e+09 -8.986787e+02 1.678670e+01 1.393337e+02
-2.696682e+09 -2.496681e+09 -2.656682e+09 -4.918356e+02 -3.371022e+02 5.030788e+02
-2.872277e+09 -2.672276e+09 -2.832277e+09 -1.235783e+03 2.313683e+02 1.550194e+02
-3.196095e+09 -2.996095e+09 -3.156095e+09 8.903270e+01 1.226949e+01 -3.600123e+00
-2.575384e+09 -2.375383e+09 -2.535383e+09 5.106311e+01 8.111321e+00 -2.232552e+00
-2.642877e+09 -2.442876e+09 -2.602877e+09 1.148724e+02 1.837167e+01 -1.678647e+01
-3.122524e+09 -2.922524e+09 -3.082524e+09 1.027864e+02 1.599850e+01 -1.925146e+01
-1.976986e+09 -1.776992e+09 -1.936988e+09 2.359178e+03 3.001557e+03 -6.506285e+02
-1.943867e+09 -1.743875e+09 -1.903870e+09 5.044808e+02 3.319706e+03 -1.814558e+02
-2.460618e+09 -2.260624e+09 -2.420621e+09 1.128265e+03 1.867546e+03 -3.846949e+02
-2.652246e+09 -2.452251e+09 -2.612249e+09 2.656936e+02 1.846736e+03 -3.690980e+01
-3.288258e+09 -3.088259e+09 -3.248259e+09 2.206857e+02 1.559604e+01 -5.856798e+00
-3.145183e+09 -2.945188e+09 -3.105187e+09 1.636324e+03 3.219560e+03 -7.148916e+02
-2.597093e+09 -2.397098e+09 -2.557095e+09 2.016673e+03 1.969329e+03 -2.784092e+02
-2.860971e+09 -2.660978e+09 -2.820977e+09 1.593137e+03 3.827299e+03 -7.517563e+02
-3.301246e+09 -3.101249e+09 -3.261246e+09 -3.413105e+01 2.286318e+02 -9.935425e+00
-3.227739e+09 -3.027744e+09 -3.187741e+09 1.591540e+02 7.045743e+02 -7.372415e+01
-2.917427e+09 -2.717427e+09 -2.877427e+09 4.809189e+01 2.074039e+01 -2.446915e+01
-2.984810e+09 -2.784814e+09 -2.944811e+09 -3.562819e+01 2.707359e+02 1.105479e+01
-3.428161e+09 -3.228166e+09 -3.388163e+09 -7.064426e+01 8.439334e+02 3.528592e+01
-2.701025e+09 -2.501029e+09 -2.661026e+09 1.895584e+02 5.914958e+02 1.394636e+01
-2.827979e+09 -2.627983e+09 -2.787980e+09 -3.857410e+02 3.989769e+02 3.869583e+01
-3.406254e+09 -3.206258e+09 -3.366256e+09 -2.680553e+02 4.204587e+02 -4.347847e+01
-2.344556e+09 -2.144557e+09 -2.304557e+09 -7.883237e+02 2.480547e+01 -7.962152e+01
-2.945213e+09 -2.745214e+09 -2.905214e+09 -7.802892e+02 6.454763e+01 -1.598763e+02
-3.230772e+09 -3.030773e+09 -3.190773e+09 -8.521459e+02 1.760173e+01 -1.049056e+02
-2.197730e+09 -1.997730e+09 -2.157730e+09 -6.028927e+02 -7.640869e+01 9.182296e+01
-3.235829e+09 -3.035830e+09 -3.195830e+09 -8.598578e+02 3.760628e+01 -1.413607e+02
-3.013812e+09 -2.813813e+09 -2.973813e+09 -6.652860e+02 -2.874091e+01 -3.286248e+01
-3.210220e+09 -3.010220e+09 -3.170220e+09 -6.784293e+02 -1.861181e+01 -3.967637e+01
-3.034792e+09 -2.834792e+09 -2.994792e+09 -9.549693e+02 5.285365e+01 -2.933080e+01
-2.696323e+09 -2.496323e+09 -2.656323e+09 -7.223542e+02 -1.320204e+02 2.279114e+02
-1.576437e+09 -1.376436e+09 -1.536437e+09 -5.712943e+02 1.000842e+02 -9.523523e+00
-2.422495e+09 -2.222494e+09 -2.382494e+09 -8.182217e+02 1.385700e+02 1.049479e+02
-3.202103e+09 -3.002101e+09 -3.162102e+09 -4.538452e+02 7.358233e+01 4.330101e+01
-3.405872e+09 -3.205871e+09 -3.365871e+09 -5.780696e+02 1.717901e+02 9.539711e+01
-3.390277e+09 -3.190276e+09 -3.350276e+09 -7.890764e+02 1.192713e+02 1.742558e+01
-3.116845e+09 -2.916843e+09 -3.076846e+09 1.707482e+03 -1.792715e+03 1.915134e+03
-2.734562e+09 -2.534559e+09 -2.694563e+09 5.863584e+02 -1.898097e+03 2.625791e+03
-2.120900e+09 -1.920897e+09 -2.080900e+09 1.939128e+03 -2.802493e+03 3.007902e+03
-2.706916e+09 -2.506916e+09 -2.666918e+09 1.291554e+03 -2.750423e+03 1.498311e+03
-2.627310e+09 -2.427308e+09 -2.587312e+09 1.477235e+03 -2.405614e+03 3.148185e+03
-2.721615e+09 -2.521614e+09 -2.681615e+09 1.599121e+03 -2.090406e+03 2.217086e+03
-3.081550e+09 -2.881552e+09 -3.041551e+09 1.149773e+01 1.001086e+01 -8.305893e+01
-2.906399e+09 -2.706401e+09 -2.866400e+09 2.228081e+02 -2.937712e+00 -1.091641e+02
-2.705959e+09 -2.505960e+09 -2.665960e+09 1.554957e+02 9.872636e+00 -5.985845e+01
-2.060903e+09 -1.860904e+09 -2.020904e+09 -1.358401e+01 1.107074e+01 -4.225392e+01
-2.884903e+09 -2.684904e+09 -2.844904e+09 3.173439e+02 2.296014e+01 -1.074965e+02
-2.851522e+09 -2.651524e+09 -2.811523e+09 1.916379e+02 3.123095e+00 -5.987571e+01
-2.172413e+09 -1.972412e+09 -2.132412e+09 6.840955e+02 -1.638970e+02 -3.007520e+02
-2.573359e+09 -2.373358e+09 -2.533358e+09 7.131952e+02 -1.051144e+02 -3.528097e+02
-3.300737e+09 -3.100737e+09 -3.260736e+09 8.879176e+02 -2.442832e+02 -5.443662e+02
-2.670676e+09 -2.470677e+09 -2.630677e+09 8.596370e+02 -7.994710e+01 -3.459312e+02
-3.103485e+09 -2.903485e+09 -3.063485e+09 9.590860e+02 -1.956752e+02 -5.326658e+02
-2.564328e+09 -2.364329e+09 -2.524329e+09 4.094725e+02 1.598554e+01 -6.946877e+01
-2.406217e+09 -2.206218e+09 -2.366218e+09 4.481253e+02 4.916319e+01 -7.783608e+01
-2.047542e+09 -1.847542e+09 -2.007542e+09 5.975131e+02 1.195864e+01 -9.475314e+01
-2.458293e+09 -2.258294e+09 -2.418294e+09 4.836837e+02 -8.396271e+00 -2.057813e+02
-2.622839e+09 -2.422838e+09 -2.582839e+09 -1.180383e+02 -1.541135e+02 2.026170e+02
-3.228958e+09 -3.028957e+09 -3.188958e+09 -1.370125e+02 -1.873662e+02 1.334057e+02
-3.405534e+09 -3.205533e+09 -3.365534e+09 -2.303591e+02 -1.094484e+02 9.186517e+01
-2.713806e+09 -2.513805e+09 -2.673805e+09 -1.260499e+02 -1.304766e+02 4.446054e+01
-2.816782e+09 -2.616781e+09 -2.776781e+09 -2.252727e+02 -1.429227e+02 1.185859e+02
-3.409319e+09 -3.209318e+09 -3.369319e+09 -2.372025e+02 -1.474044e+02 5.272033e+01
-2.596949e+09 -2.396933e+09 -2.556941e+09 -4.553871e+03 -6.494954e+03 -2.749961e+03
-2.592826e+09 -2.392820e+09 -2.552826e+09 3.750714e+03 4.052398e+03 -6.031441e+03
-2.760506e+09 -2.560498e+09 -2.720510e+09 2.617747e+03 2.799113e+03 -5.296882e+03
-2.356785e+09 -2.156781e+09 -2.316791e+09 8.463619e+03 7.843076e+03 -8.225413e+03
-3.031793e+09 -2.831794e+09 -2.991798e+09 -2.056638e+03 -3.451653e+03 -1.714202e+03
-3.523678e+09 -3.323681e+09 -3.483676e+09 2.808040e+03 2.497898e+03 3.367000e+03
-2.222921e+09 -2.022923e+09 -2.182925e+09 -1.990006e+03 -4.978009e+03 -2.108188e+03
-2.903532e+09 -2.703525e+09 -2.863532e+09 -1.110558e+03 -3.906534e+02 -2.744945e+03
-2.645927e+09 -2.445923e+09 -2.605932e+09 -2.452533e+03 -4.506026e+03 -3.038072e+03
-2.502052e+09 -2.302048e+09 -2.462055e+09 -1.203194e+03 -2.975220e+03 -3.683101e+03
-2.861557e+09 -2.661558e+09 -2.821558e+09 -5.559368e+02 -2.469288e+01 -4.352410e+01
-3.090215e+09 -2.890216e+09 -3.050215e+09 -5.249739e+02 -1.129816e+01 -5.944303e+01
-3.173481e+09 -2.973480e+09 -3.133480e+09 -3.508449e+02 -8.065373e+01 4.044741e+01
-2.756308e+09 -2.556307e+09 -2.716307e+09 -3.503541e+02 -9.083667e+01 4.030856e+01
-2.641762e+09 -2.441761e+09 -2.601762e+09 -5.180421e+02 -5.358056e+01 1.505890e+01
-3.173936e+09 -2.973935e+09 -3.133936e+09 -4.603529e+02 -1.562811e+01 -5.586551e+01
-3.593791e+09 -3.393792e+09 -3.553792e+09 6.694925e+02 -5.451183e+01 -2.828984e+02
-2.617044e+09 -2.417049e+09 -2.577045e+09 8.941956e+01 1.085020e+03 -7.288980e+00
-1.994454e+09 -1.794459e+09 -1.954456e+09 -1.727678e+02 1.016710e+03 9.197601e+01
-2.022561e+09 -1.822566e+09 -1.982562e+09 3.237535e+02 8.826989e+02 -2.708917e+01
-1.808845e+09 -1.608849e+09 -1.768846e+09 -1.840574e+02 3.759841e+02 4.786685e+01
-1.789715e+09 -1.589720e+09 -1.749716e+09 -4.616860e+02 8.719043e+02 4.551847e+01
-2.689976e+09 -2.489977e+09 -2.649977e+09 -5.199901e+02 -1.787427e+01 -2.344766e+01
-3.325518e+09 -3.125519e+09 -3.285519e+09 -5.692675e+02 -1.475756e+01 -1.898740e+01
-2.924660e+09 -2.724660e+09 -2.884660e+09 -5.714877e+02 -4.146540e+01 2.092241e+01
-2.269285e+09 -2.069285e+09 -2.229285e+09 -5.257333e+02 -3.163476e+01 1.155066e+00
-2.594710e+09 -2.394711e+09 -2.554711e+09 4.831087e+02 3.625979e+01 -5.290231e+01
-3.330081e+09 -3.130081e+09 -3.290081e+09 -7.198748e+02 -1.335191e+00 -2.779812e+01
-2.190080e+09 -1.990080e+09 -2.150080e+09 -5.892063e+02 -6.788758e+01 5.240586e+01
-3.188333e+09 -2.988333e+09 -3.148334e+09 -5.949776e+02 -2.278962e+01 -3.784995e+01
-3.283977e+09 -3.083977e+09 -3.243978e+09 2.003995e+03 1.300547e+03 -6.623510e+02
-1.890375e+09 -1.690380e+09 -1.850377e+09 -9.072949e+02 -2.144238e+03 -4.836945e+02
-3.175003e+09 -2.975004e+09 -3.135004e+09 2.450176e+03 2.139561e+03 -1.101179e+03
-1.849201e+09 -1.649202e+09 -1.809200e+09 3.159477e+03 1.889022e+03 -9.542935e+02
-3.297848e+09 -3.097848e+09 -3.257850e+09 2.414453e+03 1.644015e+03 -9.741848e+02
-2.372085e+09 -2.172089e+09 -2.332087e+09 -1.545605e+02 1.690775e+02 -3.229118e+03
-2.789078e+09 -2.589081e+09 -2.749080e+09 5.698563e+02 5.158303e+00 -1.681352e+03
-2.615654e+09 -2.415655e+09 -2.575655e+09 7.335972e+02 -1.003379e+02 -6.118666e+02
-2.395050e+09 -2.195052e+09 -2.355058e+09 -1.350527e+03 -7.639972e+03 -1.235754e+03
-2.001009e+09 -1.801022e+09 -1.961017e+09 2.774966e+03 -1.223173e+04 2.509226e+03
-2.680997e+09 -2.480988e+09 -2.641000e+09 -2.928585e+03 -7.195279e+02 -4.936806e+02
-2.471107e+09 -2.271102e+09 -2.431114e+09 -3.380675e+03 1.674348e+03 5.022412e+02
-2.262623e+09 -2.062618e+09 -2.222634e+09 -3.277414e+03 -9.997394e+03 -1.268142e+03
-3.487508e+09 -3.287509e+09 -3.447508e+09 1.769418e+02 1.397262e+01 2.987572e+01
-3.381405e+09 -3.181404e+09 -3.341404e+09 5.519107e+02 -5.439514e+01 -1.833699e+02
-1.993784e+09 -1.793784e+09 -1.953784e+09 2.831358e+02 -2.566300e+02 6.684932e+01
-2.499523e+09 -2.299522e+09 -2.459523e+09 -7.221007e+02 -1.571625e+02 2.890460e+02
-2.015140e+09 -1.815138e+09 -1.975139e+09 -1.616839e+02 -1.228498e+02 3.053348e+02
-2.940115e+09 -2.740115e+09 -2.900115e+09 -7.500941e+02 -9.556558e+00 -9.285761e+01
-1.989714e+09 -1.789712e+09 -1.949714e+09 -1.743441e+02 -4.770116e+02 8.713820e+02
-1.785652e+09 -1.585651e+09 -1.745651e+09 -2.624349e+02 -1.762907e+02 2.941348e+02
-1.771636e+09 -1.571635e+09 -1.731635e+09 3.856573e+02 -6.410680e+02 6.736912e+02
-2.628486e+09 -2.428482e+09 -2.588487e+09 4.189555e+02 -9.313646e+02 -1.577829e+03
-2.884965e+09 -2.684961e+09 -2.844965e+09 -7.295852e+02 -1.225114e+03 -1.898920e+03
-3.539237e+09 -3.339234e+09 -3.499241e+09 -3.028894e+02 -2.291393e+03 -1.773977e+03
-3.260847e+09 -3.060845e+09 -3.220848e+09 -7.126875e+02 -1.911558e+03 -1.698856e+03
-2.693976e+09 -2.493975e+09 -2.653977e+09 -1.443236e+03 -1.751433e+03 -1.641489e+03
-3.091739e+09 -2.891738e+09 -3.051741e+09 -1.226394e+03 -2.446425e+03 -1.536867e+03
-2.060629e+09 -1.860629e+09 -2.020629e+09 -4.490117e+02 -6.440339e+01 1.746252e+01
-1.796789e+09 -1.596788e+09 -1.756789e+09 -2.831666e+02 -3.499050e+01 -2.434293e+01
-1.887430e+09 -1.687430e+09 -1.847430e+09 -2.442597e+02 -3.710769e+01 1.334595e+00
-2.517071e+09 -2.317071e+09 -2.477071e+09 -3.732976e+02 -4.232201e+01 2.501202e+01
-2.686759e+09 -2.486758e+09 -2.646758e+09 -2.534663e+02 -4.468230e+01 -1.211252e+01
-2.480856e+09 -2.280855e+09 -2.440855e+09 -2.409310e+02 -5.831270e+01 -1.341435e+01
-2.594681e+09 -2.394681e+09 -2.554681e+09 -3.123692e+02 -3.958816e+01 -2.569480e+01
-3.157427e+09 -2.957426e+09 -3.117426e+09 -4.186629e+02 -4.816175e+01 2.336736e+01
-2.380217e+09 -2.180217e+09 -2.340217e+09 -3.394585e+02 -5.149528e+01 1.370350e+00
-3.389975e+09 -3.189975e+09 -3.349975e+09 -2.719131e+02 -7.233332e+00 8.683731e+00
-1.951325e+09 -1.751325e+09 -1.911325e+09 -3.787446e+02 -2.987276e+01 -3.225111e+00
-2.560309e+09 -2.360308e+09 -2.520309e+09 -2.978687e+02 -4.220692e+01 -6.794272e+00
-2.190753e+09 -1.990746e+09 -2.150749e+09 -2.442092e+03 1.365447e+03 3.211979e+03
-2.497347e+09 -2.297343e+09 -2.457357e+09 -6.989106e+03 1.082863e+04 7.661507e+03
-2.146993e+09 -1.946996e+09 -2.106995e+09 -7.634399e+03 1.105192e+04 6.346555e+03
-2.553529e+09 -2.353527e+09 -2.513530e+09 -4.881821e+03 2.388579e+03 3.976198e+03
-2.953195e+09 -2.753193e+09 -2.913200e+09 -4.946170e+03 5.743536e+03 4.929410e+03
-2.652001e+09 -2.451997e+09 -2.612001e+09 -2.870322e+02 -1.160299e+03 2.308087e+03
-1.757465e+09 -1.557462e+09 -1.717462e+09 1.429270e+03 -1.359137e+03 2.088367e+03
-3.058691e+09 -2.858689e+09 -3.018691e+09 -1.014750e+03 1.680196e+02 5.018693e+02
-2.625912e+09 -2.425910e+09 -2.585912e+09 -1.068752e+03 -3.369793e+01 7.128942e+02
-1.918227e+09 -1.718222e+09 -1.878225e+09 -1.873969e+03 1.202255e+03 1.626994e+02
-1.984283e+09 -1.784277e+09 -1.944282e+09 1.252164e+03 -1.334609e+03 3.691616e+03
-1.888791e+09 -1.688792e+09 -1.848791e+09 1.291255e+03 -8.742544e+02 -3.537188e+03
-2.217562e+09 -2.017563e+09 -2.177555e+09 2.881074e+02 -3.004226e+03 -7.338609e+03
-2.201285e+09 -2.001283e+09 -2.161282e+09 3.066924e+03 -2.125616e+03 -4.428732e+03
-3.016246e+09 -2.816247e+09 -2.976243e+09 6.459151e+02 -7.528042e+02 -2.019721e+03
-3.201700e+09 -3.001700e+09 -3.161696e+09 1.403672e+03 -1.078531e+03 -2.334858e+03
-3.288126e+09 -3.088127e+09 -3.248124e+09 1.024722e+02 9.140015e+01 -1.785042e+03
-3.291686e+09 -3.091688e+09 -3.251685e+09 1.022829e+03 -4.228243e+02 -1.869991e+03
-3.384579e+09 -3.184578e+09 -3.344577e+09 2.005400e+03 -1.038490e+03 -1.096625e+03
-2.138073e+09 -1.938072e+09 -2.098071e+09 1.538616e+03 -1.424900e+03 -2.012902e+03
-2.785696e+09 -2.585692e+09 -2.745691e+09 1.000167e+03 -7.432987e+02 -1.525783e+03
-2.630592e+09 -2.430589e+09 -2.590590e+09 1.763248e+03 -1.379616e+03 -1.375125e+03
-2.243083e+09 -2.043080e+09 -2.203080e+09 1.744810e+03 -1.223508e+03 -1.757788e+03
-1.971138e+09 -1.771129e+09 -1.931121e+09 5.212274e+03 7.427997e+03 6.820302e+03
-2.363797e+09 -2.163787e+09 -2.323797e+09 1.621814e+03 6.735518e+02 -2.160983e+02
-1.785695e+09 -1.585698e+09 -1.745701e+09 5.607482e+03 5.449044e+03 1.044238e+04
-1.790392e+09 -1.590383e+09 -1.750393e+09 4.417546e+03 1.318093e+03 -8.777246e+01
-1.871143e+09 -1.671104e+09 -1.831103e+09 -5.239466e+02 8.241359e+03 -1.185924e+04
-2.079739e+09 -1.879706e+09 -2.039694e+09 8.018910e+03 7.128214e+03 -2.450485e+02
-3.202652e+09 -3.002656e+09 -3.162655e+09 -5.664994e+01 -1.978528e+03 3.041888e+02
-2.717709e+09 -2.517683e+09 -2.677681e+09 2.520484e+02 1.306132e+04 -2.127728e+03
-1.637899e+09 -1.437899e+09 -1.597898e+09 -1.283722e+03 4.539681e+02 1.266254e+02
-2.620930e+09 -2.420905e+09 -2.580841e+09 5.022954e+03 1.031708e+04 3.999188e+03
-1.792685e+09 -1.592632e+09 -1.752599e+09 -6.900409e+03 1.477113e+04 -9.158867e+03
-2.761049e+09 -2.561044e+09 -2.721056e+09 -8.712445e+02 -4.318933e+03 2.070884e+03
-2.404273e+09 -2.204262e+09 -2.364276e+09 -2.371104e+03 1.676313e+03 -9.055470e+02
-1.901899e+09 -1.701907e+09 -1.861908e+09 7.964532e+02 -8.894478e+03 3.514396e+03
-2.882566e+09 -2.682563e+09 -2.842563e+09 -2.372184e+03 3.166629e+03 -2.503517e+03
-2.492165e+09 -2.292163e+09 -2.452166e+09 1.034033e+03 -1.008226e+03 2.962215e+03
-3.079140e+09 -2.879135e+09 -3.039143e+09 -1.300226e+03 -9.811814e+02 1.429458e+03
-3.064248e+09 -2.864241e+09 -3.024249e+09 -1.770564e+02 4.746661e+02 2.466511e+03
-1.974837e+09 -1.774840e+09 -1.934839e+09 -5.383627e+02 2.594945e+02 -1.474006e+03
-2.061966e+09 -1.861965e+09 -2.021966e+09 -1.191821e+03 3.068640e+02 1.160112e+02
-2.376768e+09 -2.176767e+09 -2.336768e+09 -1.115123e+03 2.429895e+02 8.695189e+01
-2.953422e+09 -2.753423e+09 -2.913421e+09 -2.289082e+03 1.616274e+03 -2.183226e+03
-1.870534e+09 -1.670534e+09 -1.830535e+09 -1.860889e+03 9.229524e+02 -1.578319e+03
-2.114600e+09 -1.914602e+09 -2.074601e+09 -2.181110e+03 1.338563e+03 -2.627798e+03
-1.891835e+09 -1.691837e+09 -1.851837e+09 -1.590612e+03 6.355579e+02 -1.430796e+03
-2.464825e+09 -2.264828e+09 -2.424827e+09 -1.682781e+00 1.136356e+02 -1.099100e+03
-2.109669e+09 -1.909670e+09 -2.069670e+09 -3.194997e+02 -6.993550e-01 -7.181184e+01
-2.470422e+09 -2.270424e+09 -2.430423e+09 -3.343684e+02 1.861878e+01 -2.471738e+02
-1.658531e+09 -1.458532e+09 -1.618532e+09 -2.243320e+02 -4.272332e+00 -2.360044e+01
-2.519158e+09 -2.319160e+09 -2.479159e+09 -2.191825e+02 4.997886e+01 -2.911305e+02
-1.970941e+09 -1.770943e+09 -1.930942e+09 -1.238706e+01 4.663268e+00 -7.394715e+01
-1.750684e+09 -1.550686e+09 -1.710686e+09 -3.102534e+00 4.310943e+00 -1.968635e+02
-2.051866e+09 -1.851868e+09 -2.011867e+09 -2.852435e+00 5.789460e+00 -1.914000e+02
-3.287437e+09 -3.087434e+09 -3.247435e+09 1.056318e+03 -5.170590e+02 -3.435110e+02
-2.155373e+09 -1.955368e+09 -2.115371e+09 3.559664e+02 -1.255204e+02 2.080977e+02
-1.856778e+09 -1.656773e+09 -1.816776e+09 9.047230e+02 -8.691625e+02 -4.177327e+02
-2.117911e+09 -1.917903e+09 -2.077907e+09 1.037352e+03 -2.256599e+03 -8.777466e+01
-2.864830e+09 -2.664829e+09 -2.824829e+09 -2.354004e+02 5.455883e+01 -5.034211e+01
-2.610094e+09 -2.410093e+09 -2.570093e+09 -2.931672e+01 1.922248e+01 -1.015358e+02
-2.392491e+09 -2.192490e+09 -2.352490e+09 -5.350987e+01 -2.723345e+01 -8.574046e+01
-2.563420e+09 -2.363419e+09 -2.523419e+09 1.379286e+01 7.411893e+01 -3.387179e+00
-3.254344e+09 -3.054343e+09 -3.214343e+09 -2.815734e+02 9.520669e+01 1.073000e+01
-2.583951e+09 -2.383950e+09 -2.543950e+09 -1.152985e+02 -1.191101e+00 -7.665532e+01
-3.431442e+09 -3.231442e+09 -3.391442e+09 -2.280484e+02 -9.079173e+00 -6.203985e+01
-2.643237e+09 -2.443236e+09 -2.603236e+09 -2.670302e+02 4.254164e+01 -2.803805e+01
-3.436840e+09 -3.236839e+09 -3.396839e+09 -1.098443e+02 3.255528e+01 -5.321785e+01
-3.426501e+09 -3.226501e+09 -3.386501e+09 -3.615386e+02 8.573051e+00 -4.651937e+01
-2.711596e+09 -2.511596e+09 -2.671596e+09 -1.555344e+03 1.110574e+03 -1.045376e+03
-1.845903e+09 -1.645941e+09 -1.805917e+09 -4.954447e+03 1.987347e+04 2.533646e+03
-2.331412e+09 -2.131426e+09 -2.291425e+09 6.409065e+03 1.527208e+04 -3.916241e+03
-2.474464e+09 -2.274459e+09 -2.434465e+09 4.994815e+03 3.420850e+03 -4.652867e+03
-2.457162e+09 -2.257173e+09 -2.417169e+09 4.098892e+03 9.659933e+03 -2.619885e+03
-1.769420e+09 -1.569428e+09 -1.729423e+09 8.253785e+03 1.187089e+04 -5.377904e+03
-3.112111e+09 -2.912105e+09 -3.072112e+09 2.347168e+03 2.458622e+03 -2.841438e+03
-2.638365e+09 -2.438361e+09 -2.598363e+09 -1.803124e+03 -1.446054e+03 3.012868e+02
-3.119115e+09 -2.919112e+09 -3.079114e+09 -2.747342e+03 -2.079765e+03 7.696541e+02
-3.182096e+09 -2.982089e+09 -3.142095e+09 6.047947e+01 3.041781e+02 -2.757082e+03
-2.673231e+09 -2.473228e+09 -2.633231e+09 -1.571505e+03 -2.266572e+02 1.829147e+01
-2.996518e+09 -2.796520e+09 -2.956517e+09 -3.186300e+03 -1.110563e+03 2.314485e+03
-1.595694e+09 -1.395698e+09 -1.555695e+09 -1.980424e+03 -2.133984e+03 -6.091682e+02
-3.343697e+09 -3.143692e+09 -3.303697e+09 -1.089915e+03 -3.539423e+02 -7.147683e+02
-2.712968e+09 -2.512969e+09 -2.672965e+09 8.486287e+02 -6.919204e+02 -3.105378e+03
-2.000385e+09 -1.800382e+09 -1.960380e+09 3.150407e+03 -2.716533e+03 -4.412584e+03
-3.253569e+09 -3.053572e+09 -3.213570e+09 1.996940e+02 3.918455e+01 -1.416409e+03
-2.547353e+09 -2.347355e+09 -2.507351e+09 9.517528e+02 -2.429387e+02 -3.702314e+03
-3.281177e+09 -3.081179e+09 -3.241177e+09 -1.249826e+03 6.563740e+02 -1.053523e+03
-2.968488e+09 -2.768491e+09 -2.928489e+09 -8.057859e+02 3.424168e+02 -1.292153e+03
-2.317131e+09 -2.117130e+09 -2.277130e+09 2.698119e+02 -2.518238e+02 1.056130e+02
-2.999341e+09 -2.799343e+09 -2.959342e+09 -1.310243e+03 5.467632e+02 -1.218738e+03
-3.605230e+09 -3.405229e+09 -3.565231e+09 -1.066551e+03 5.807010e+02 3.528620e+02
-2.058383e+09 -1.858382e+09 -2.018383e+09 -1.740031e+03 7.682300e+02 -5.798128e+02
-3.010766e+09 -2.810765e+09 -2.970766e+09 -1.344307e+03 2.177358e+02 2.959284e+02
-2.459467e+09 -2.259465e+09 -2.419467e+09 -1.213834e+03 2.403427e+02 1.957882e+02
-2.154426e+09 -1.954426e+09 -2.114426e+09 -1.014124e+03 2.431765e+02 -5.664314e+02
-2.441190e+09 -2.241192e+09 -2.401192e+09 -1.866720e+01 1.104792e+01 -9.896214e+01
-2.688739e+09 -2.488741e+09 -2.648741e+09 -1.003495e+02 1.143741e+00 -1.983191e+02
-2.714805e+09 -2.514807e+09 -2.674806e+09 -2.477461e+02 5.076736e+01 -1.562416e+02
-2.923185e+09 -2.723187e+09 -2.883186e+09 -2.182633e+02 1.025228e+02 -4.183684e+02
-2.921123e+09 -2.721125e+09 -2.881124e+09 -2.381581e+02 3.565532e+01 -2.120226e+02
-2.575420e+09 -2.375422e+09 -2.535420e+09 -1.040928e+03 4.214650e+02 7.908588e+01
-2.525347e+09 -2.325351e+09 -2.485348e+09 -1.072923e+03 4.199169e+02 1.319161e+02
-2.712460e+09 -2.512464e+09 -2.672462e+09 -7.838866e+02 7.436763e+02 1.252350e+02
-3.175969e+09 -2.975972e+09 -3.135970e+09 -1.055128e+03 3.019519e+02 1.280160e+02
-3.328635e+09 -3.128638e+09 -3.288636e+09 -1.211584e+03 7.465335e+02 3.532504e+02
-3.600607e+09 -3.400606e+09 -3.560607e+09 1.751928e+02 -3.286234e+01 -7.904710e+01
-2.616200e+09 -2.416199e+09 -2.576200e+09 -7.701430e+02 2.033921e+02 9.029666e+01
-1.806854e+09 -1.606853e+09 -1.766853e+09 -1.289810e+03 3.445514e+02 2.479493e+02
-1.994876e+09 -1.794875e+09 -1.954875e+09 -7.789817e+02 5.341781e+01 7.436610e+01
-2.017718e+09 -1.817717e+09 -1.977717e+09 -1.541333e+03 3.317449e+02 3.357893e+02
-2.961069e+09 -2.761070e+09 -2.921070e+09 9.636848e+01 1.060440e+01 2.109774e+00
-2.936149e+09 -2.736151e+09 -2.896150e+09 1.192060e+02 4.721042e+00 -4.270902e+01
-3.267229e+09 -3.067230e+09 -3.227230e+09 2.653695e+01 7.386623e+00 -1.832964e+01
-2.684203e+09 -2.484204e+09 -2.644204e+09 6.605952e+01 2.515649e+01 -2.362440e+01
-3.082487e+09 -2.882488e+09 -3.042488e+09 2.086902e+02 1.523132e+01 -1.904674e+01
-3.281737e+09 -3.081738e+09 -3.241738e+09 2.054936e+02 7.613871e-01 -1.808207e+01
-1.928020e+09 -1.728021e+09 -1.888021e+09 1.391326e+02 5.809102e+00 2.166943e+01
-3.630284e+09 -3.430285e+09 -3.590285e+09 8.353096e+01 7.117152e+00 -1.000510e+01
-3.004872e+09 -2.804873e+09 -2.964872e+09 7.741681e+01 6.283915e+00 2.638551e+00
-2.695508e+09 -2.495509e+09 -2.655509e+09 1.963642e+02 1.499862e+00 -1.238496e+01
-2.559929e+09 -2.359929e+09 -2.519928e+09 -5.463373e+02 2.629382e+01 -4.098699e+01
-2.631681e+09 -2.431681e+09 -2.591681e+09 -3.173837e+02 5.206374e+00 -6.175807e+01
-1.787784e+09 -1.587784e+09 -1.747783e+09 -3.626037e+02 2.732953e+00 -7.917945e+01
-1.777125e+09 -1.577125e+09 -1.737125e+09 -4.332703e+02 7.627796e+01 -3.835739e+01
-2.389559e+09 -2.189559e+09 -2.349559e+09 -3.781705e+02 2.608965e+01 -6.883992e+01
-2.626833e+09 -2.426836e+09 -2.586834e+09 1.012975e+03 -1.516460e+03 4.277479e+02
-3.436813e+09 -3.236814e+09 -3.396815e+09 8.203812e+02 -1.107925e+03 6.052546e+02
-2.819587e+09 -2.619590e+09 -2.779590e+09 1.345427e+03 -3.057219e+03 1.209784e+03
-3.405729e+09 -3.205731e+09 -3.365732e+09 9.610553e+02 -1.961589e+03 8.064091e+02
-2.828112e+09 -2.628114e+09 -2.788113e+09 1.288533e+03 -1.745975e+03 9.149008e+02
-3.378054e+09 -3.178053e+09 -3.338055e+09 -1.579361e+03 9.745770e+02 6.756932e+02
-2.603957e+09 -2.403958e+09 -2.563957e+09 -1.680754e+03 7.267130e+02 4.371072e+02
-2.817244e+09 -2.617244e+09 -2.777244e+09 -1.847523e+03 9.035777e+02 6.233299e+02
-2.802446e+09 -2.602445e+09 -2.762446e+09 -1.688399e+03 7.697692e+02 5.954514e+02
-1.859722e+09 -1.659730e+09 -1.819726e+09 -1.009254e+03 -4.904015e+03 -2.324288e+02
-1.973608e+09 -1.773616e+09 -1.933614e+09 -3.861046e+03 -6.699134e+03 -2.070568e+03
-2.608779e+09 -2.408781e+09 -2.568785e+09 -1.582077e+03 -5.443620e+03 -1.743878e+03
-2.961684e+09 -2.761685e+09 -2.921689e+09 -1.176749e+03 -3.770650e+03 -8.969222e+02
-3.085397e+09 -2.885395e+09 -3.045401e+09 -2.026980e+03 -3.079636e+03 -1.567742e+03
-1.589971e+09 -1.389972e+09 -1.549971e+09 -1.679774e+03 7.498988e+02 2.206595e+02
-2.400035e+09 -2.200036e+09 -2.360041e+09 -2.491210e+03 -7.554677e+03 -9.657400e+02
-2.435586e+09 -2.235582e+09 -2.395589e+09 -2.034353e+03 -4.052805e+03 -2.656124e+03
-2.853346e+09 -2.653344e+09 -2.813348e+09 -1.510241e+03 -2.021677e+03 -2.269568e+03
-2.346724e+09 -2.146728e+09 -2.306727e+09 -1.855375e+03 -4.130788e+03 -1.063445e+03
-2.651667e+09 -2.451670e+09 -2.611673e+09 -2.501474e+03 -5.781835e+03 -2.029355e+03
-2.367828e+09 -2.167829e+09 -2.327829e+09 1.668326e+01 1.441600e+01 -7.166207e+01
-1.589971e+09 -1.389973e+09 -1.549971e+09 -1.679659e+03 6.790572e+02 2.206470e+02
-2.360266e+09 -2.160267e+09 -2.320267e+09 -1.026604e+01 1.432338e+01 -6.996884e+01
-1.772249e+09 -1.572250e+09 -1.732250e+09 2.871522e+01 1.513512e+01 -5.753382e+01
-1.684374e+09 -1.484375e+09 -1.644379e+09 2.900197e+03 8.814277e+02 4.937801e+02
-3.486347e+09 -3.286350e+09 -3.446348e+09 2.276894e+03 8.624925e+02 1.083940e+03
-1.883795e+09 -1.683797e+09 -1.843799e+09 1.566122e+03 1.149141e+03 2.102275e+03
-1.974553e+09 -1.774552e+09 -1.934556e+09 2.156095e+03 2.558130e+02 -6.369649e+01
-3.280921e+09 -3.080921e+09 -3.240922e+09 3.109818e+03 1.508902e+03 6.887504e+02
-3.196314e+09 -2.996317e+09 -3.156316e+09 1.533323e+03 2.024891e+01 1.258138e+03
-2.717087e+09 -2.517091e+09 -2.677089e+09 -7.957700e+02 8.722140e+02 2.085460e+02
-2.526731e+09 -2.326736e+09 -2.486733e+09 -8.051637e+02 1.479496e+03 2.039415e+02
-3.339266e+09 -3.139270e+09 -3.299268e+09 -1.559505e+03 1.408581e+03 6.762065e+02
-2.352373e+09 -2.152373e+09 -2.312373e+09 -5.200170e+02 -3.412939e+01 -1.608920e+01
-1.903931e+09 -1.703931e+09 -1.863931e+09 -5.141734e+02 -4.941125e+01 7.707959e+00
-2.599540e+09 -2.399541e+09 -2.559541e+09 -5.508597e+02 1.447741e+01 -7.557901e+01
-2.479230e+09 -2.279231e+09 -2.439231e+09 -4.226025e+02 -2.553776e+01 -6.615151e-01
-2.978200e+09 -2.778201e+09 -2.938201e+09 -5.699025e+02 -7.864658e+00 -5.029162e+01
-2.125928e+09 -1.925929e+09 -2.085929e+09 -4.358617e+02 -3.080724e+01 -2.412204e+01
-1.976954e+09 -1.776954e+09 -1.936954e+09 -3.376426e+02 -3.299936e+01 1.132820e+01
-2.909112e+09 -2.709113e+09 -2.869113e+09 -3.582068e+02 -2.119786e+01 1.285518e+01
-1.674172e+09 -1.474172e+09 -1.634172e+09 -3.180641e+02 -3.927533e+01 6.246035e-01
-1.746414e+09 -1.546414e+09 -1.706414e+09 -4.164482e+02 -3.559944e+01 -1.674534e+01
-2.657678e+09 -2.457671e+09 -2.617676e+09 1.332664e+03 1.096948e+03 -2.681121e+03
-2.689893e+09 -2.489893e+09 -2.649893e+09 -4.664449e+02 -3.460454e+01 -8.168222e+00
-2.660120e+09 -2.460120e+09 -2.620120e+09 -4.162251e+02 -1.373402e+01 8.870995e+00
-1.794435e+09 -1.594435e+09 -1.754435e+09 -3.095757e+02 -4.200495e+01 2.403271e+01
-1.783171e+09 -1.583171e+09 -1.743171e+09 -3.961615e+02 -3.066245e+01 1.311465e+01
-3.148037e+09 -2.948036e+09 -3.108036e+09 -3.872618e+02 -4.301192e+01 1.426013e+01
-3.512577e+09 -3.312577e+09 -3.472577e+09 8.883215e+02 -7.671056e+02 4.659531e+02
-2.802217e+09 -2.602216e+09 -2.762217e+09 -3.713201e+02 -2.002738e+01 -1.688742e+00
-3.382428e+09 -3.182427e+09 -3.342428e+09 -4.462192e+02 -5.045651e+01 4.125222e+01
-3.302770e+09 -3.102770e+09 -3.262770e+09 -4.751959e+02 -3.386780e+01 -2.829750e+01
-2.708767e+09 -2.508767e+09 -2.668767e+09 -4.461104e+02 -5.067910e+01 1.297393e+01
-3.108915e+09 -2.908915e+09 -3.068915e+09 -4.631930e+02 -2.434074e+01 -1.480173e+01
-2.350151e+09 -2.150150e+09 -2.310151e+09 -3.848574e+02 -6.107099e+01 3.053318e+01
-3.240928e+09 -3.040929e+09 -3.200928e+09 -6.122248e+02 -1.097931e+01 5.725042e+00
-1.862857e+09 -1.662858e+09 -1.822858e+09 -4.302647e+02 -3.928560e+01 2.782364e+01
-3.068034e+09 -2.868036e+09 -3.028035e+09 -3.533099e+02 3.935096e+01 -1.742394e+02
-2.160652e+09 -1.960653e+09 -2.120653e+09 -5.558632e+02 6.676726e+01 -8.763608e+01
-2.403832e+09 -2.203833e+09 -2.363833e+09 -1.658307e+02 -7.780800e+00 -1.969852e+01
-2.462545e+09 -2.262546e+09 -2.422546e+09 -1.443600e+02 6.626036e+00 -5.244863e+01
-2.021217e+09 -1.821216e+09 -1.981216e+09 1.039110e+03 -8.447290e+02 7.928366e+02
-2.398682e+09 -2.198683e+09 -2.358683e+09 2.180986e+01 -6.791633e+00 -3.638710e+01
-3.296828e+09 -3.096830e+09 -3.256830e+09 -1.423384e+03 -1.577075e+03 -6.184371e+02
-1.888287e+09 -1.688289e+09 -1.848288e+09 -8.904515e+01 1.241987e+01 -1.078857e+02
-2.488607e+09 -2.288609e+09 -2.448608e+09 -1.286202e+02 -2.250012e+01 -1.285274e+02
-1.814924e+09 -1.614926e+09 -1.774925e+09 2.604575e+01 2.614558e+00 -6.672549e+01
-2.464988e+09 -2.264986e+09 -2.424987e+09 -1.277807e+03 4.091165e+02 4.202983e+02
-2.439583e+09 -2.239584e+09 -2.399584e+09 -2.953356e+02 -5.344690e-01 -2.076189e+01
-1.810830e+09 -1.610831e+09 -1.770831e+09 -4.139523e+02 -2.250894e+01 1.208731e+01
-3.432005e+09 -3.232006e+09 -3.392006e+09 -4.688592e+02 -4.847116e+00 -4.813195e+01
-3.019388e+09 -2.819389e+09 -2.979389e+09 -3.242458e+02 -1.261965e+00 -2.538048e+01
-3.398048e+09 -3.198049e+09 -3.358049e+09 -2.960922e+02 1.253205e+00 -4.217139e+01
-2.688848e+09 -2.488849e+09 -2.648849e+09 -3.040671e+02 -1.821696e+01 -1.922054e+01
-2.070871e+09 -1.870866e+09 -2.030870e+09 5.368005e+03 3.422157e+03 -4.491894e+03
-1.754135e+09 -1.554137e+09 -1.714134e+09 5.596986e+03 4.160942e+03 -2.916342e+03
-2.570703e+09 -2.370706e+09 -2.530704e+09 -3.829400e+02 1.496355e+02 -7.629994e+00
-2.333936e+09 -2.133935e+09 -2.293938e+09 4.380751e+03 3.962929e+03 -2.498019e+03
-2.661789e+09 -2.461796e+09 -2.621798e+09 1.609735e+03 1.039207e+04 -2.502545e+03
-2.469959e+09 -2.269961e+09 -2.429962e+09 4.491759e+03 5.040183e+03 -2.309367e+03
-1.947999e+09 -1.747991e+09 -1.907998e+09 -7.702341e+03 4.913429e+03 6.248244e+03
-3.092967e+09 -2.892970e+09 -3.052972e+09 2.917231e+03 5.045534e+03 -1.811251e+03
-1.758101e+09 -1.558111e+09 -1.718103e+09 4.514237e+03 6.463060e+03 -2.374865e+03
-2.608548e+09 -2.408549e+09 -2.568549e+09 6.466363e+02 -5.790892e+01 -4.281469e+02
-2.394270e+09 -2.194270e+09 -2.354270e+09 7.725749e+02 -4.416189e+01 -3.082124e+02
-1.847229e+09 -1.647229e+09 -1.807229e+09 6.016975e+02 1.012889e+01 -1.536372e+02
-1.876261e+09 -1.676260e+09 -1.836261e+09 9.806113e+02 -2.778417e+02 -5.010607e+02
-2.059999e+09 -1.859998e+09 -2.019999e+09 5.729746e+02 -1.672369e+01 -2.006173e+02
-1.759469e+09 -1.559468e+09 -1.719468e+09 8.881698e+02 -3.124472e+02 -4.903831e+02
-2.996580e+09 -2.796581e+09 -2.956580e+09 1.077030e+03 -3.693470e+02 -8.763538e+02
-1.871106e+09 -1.671106e+09 -1.831107e+09 8.625170e+02 -6.624041e+01 -3.246054e+02
-2.573708e+09 -2.373707e+09 -2.533708e+09 1.220154e+03 -3.969069e+02 -6.428567e+02
-2.468787e+09 -2.268788e+09 -2.428788e+09 9.764805e+02 -1.468143e+02 -7.082382e+02
-2.055971e+09 -1.855969e+09 -2.015970e+09 8.913594e+02 -3.898481e+02 -4.943535e+02
-1.873445e+09 -1.673445e+09 -1.833446e+09 1.052717e+03 -1.981671e+02 -5.445623e+02
-3.393683e+09 -3.193681e+09 -3.353680e+09 3.473405e+03 2.987090e+03 1.589260e+03
-2.123686e+09 -1.923682e+09 -2.083686e+09 4.123978e+03 1.854030e+03 1.575464e+03
-2.605301e+09 -2.405297e+09 -2.565301e+09 2.703497e+03 2.214643e+03 1.359862e+03
-2.410658e+09 -2.210652e+09 -2.370658e+09 4.671861e+02 -8.049041e+02 -2.436671e+03
-2.568621e+09 -2.368627e+09 -2.528627e+09 -2.291062e+03 5.255239e+03 1.272938e+03
-3.399583e+09 -3.199584e+09 -3.359578e+09 7.778630e+02 -1.318252e+03 -3.244531e+03
-2.612218e+09 -2.412216e+09 -2.572209e+09 1.711799e+03 -2.870026e+03 -3.952471e+03
-2.211338e+09 -2.011339e+09 -2.171333e+09 -1.571191e+02 -5.767307e+02 -5.626399e+03
-1.972395e+09 -1.772394e+09 -1.932395e+09 1.320414e+02 1.497203e+01 -2.562348e+01
-1.747968e+09 -1.547967e+09 -1.707967e+09 1.257911e+02 2.644295e+01 -2.619674e+01
-1.687383e+09 -1.487383e+09 -1.647383e+09 6.237849e+01 1.709801e+01 -2.985523e+01
-1.781533e+09 -1.581532e+09 -1.741532e+09 -3.231167e+02 5.147469e+01 -7.835775e+01
-1.578960e+09 -1.378964e+09 -1.538961e+09 -1.931035e+03 1.403503e+03 2.949449e+02
-3.393311e+09 -3.193311e+09 -3.353311e+09 -5.098981e+02 1.982656e+01 -9.209050e+00
-3.450843e+09 -3.250842e+09 -3.410843e+09 -3.127303e+02 8.698144e+01 4.451006e+01
-1.956386e+09 -1.756386e+09 -1.916385e+09 -7.514456e+02 7.895919e+01 1.237953e+01
-1.820918e+09 -1.620917e+09 -1.780917e+09 -2.431236e+02 4.909666e+01 -7.926142e+01
-2.018296e+09 -1.818295e+09 -1.978295e+09 -2.146502e+02 3.616626e+01 -2.427762e+01
-2.812717e+09 -2.612716e+09 -2.772717e+09 -1.393261e+02 5.025671e+01 -2.054742e+01
-2.130746e+09 -1.930751e+09 -2.090748e+09 7.684959e+02 9.410109e+02 -2.306663e+02
-3.203594e+09 -3.003599e+09 -3.163597e+09 -5.715922e+01 1.187606e+03 1.188000e+02
-2.530982e+09 -2.330987e+09 -2.490984e+09 7.270911e+02 1.026627e+03 -8.165011e+01
-2.606896e+09 -2.406892e+09 -2.566922e+09 -4.452873e+03 1.103690e+04 6.683401e+03
-1.804172e+09 -1.604185e+09 -1.764196e+09 -4.775726e+03 2.765383e+04 2.759783e+02
-3.028651e+09 -2.828641e+09 -2.988671e+09 5.669838e+03 -8.173395e+02 -6.848114e+03
-3.242303e+09 -3.042295e+09 -3.202323e+09 -5.191348e+03 6.447050e+03 3.948157e+03
-3.385461e+09 -3.185450e+09 -3.345467e+09 -7.834240e+02 -1.533058e+03 -3.101061e+03
-2.418808e+09 -2.218791e+09 -2.378816e+09 -3.546175e+03 -4.324758e+03 -3.736577e+03
-3.019093e+09 -2.819086e+09 -2.979109e+09 -5.667246e+03 9.703431e+03 6.139931e+03
-2.705912e+09 -2.505916e+09 -2.665913e+09 3.457307e+02 4.707412e+02 -5.206266e+01
-2.089545e+09 -1.889549e+09 -2.049546e+09 4.311814e+02 4.415989e+02 -2.671048e+01
-3.512577e+09 -3.312577e+09 -3.472577e+09 6.131784e+02 -7.941196e+02 3.365470e+02
-1.899696e+09 -1.699701e+09 -1.859697e+09 1.236774e+03 1.274322e+03 -1.487045e+02
-3.018727e+09 -2.818730e+09 -2.978728e+09 7.027626e+02 4.837683e+02 -4.499784e+01
-3.593208e+09 -3.393212e+09 -3.553211e+09 -1.017655e+03 1.547585e+03 4.648023e+02
-3.476880e+09 -3.276880e+09 -3.436880e+09 3.483611e+02 -2.969980e+02 1.150403e+02
-2.597359e+09 -2.397364e+09 -2.557361e+09 -2.429555e+02 9.450656e+02 4.900789e+01
-2.811243e+09 -2.611248e+09 -2.771245e+09 2.218788e+02 1.175435e+03 8.521466e+01
-3.059364e+09 -2.859370e+09 -3.019368e+09 4.525214e+02 2.028410e+03 -1.826076e+02
-2.663360e+09 -2.463366e+09 -2.623364e+09 -6.416072e+02 3.146053e+03 3.032380e+02
-3.060880e+09 -2.860886e+09 -3.020886e+09 -4.328676e+02 3.439861e+03 1.064591e+02
-3.376251e+09 -3.176256e+09 -3.336256e+09 1.127424e+02 2.884084e+03 -1.249275e+02
-3.385634e+09 -3.185639e+09 -3.345637e+09 -9.123326e+02 1.767061e+03 5.346786e+02
-2.759992e+09 -2.559989e+09 -2.719992e+09 -7.027284e+02 -1.113622e+02 1.067797e+03
-1.578461e+09 -1.378461e+09 -1.538461e+09 -5.757190e+02 -1.774585e+02 1.055859e+02
-3.062087e+09 -2.862084e+09 -3.022086e+09 -1.269372e+03 7.429281e+02 4.922240e+02
-2.259529e+09 -2.059525e+09 -2.219526e+09 -1.363165e+03 1.287179e+03 -4.164989e+02
-2.259270e+09 -2.059267e+09 -2.219269e+09 -7.574780e+02 1.233336e+02 3.330139e+02
-1.573341e+09 -1.373338e+09 -1.533342e+09 -2.164961e+03 1.016921e+03 1.202229e+02
-1.959300e+09 -1.759297e+09 -1.919299e+09 -8.721459e+02 2.968257e+02 7.320158e+02
-2.689420e+09 -2.489417e+09 -2.649419e+09 -1.426821e+03 3.680010e+02 7.236316e+02
-2.242823e+09 -2.042821e+09 -2.202821e+09 -6.433450e+02 2.529925e+02 2.581237e+02
-2.448669e+09 -2.248668e+09 -2.408668e+09 -7.104849e+02 1.900505e+02 1.883512e+02
-1.578461e+09 -1.378460e+09 -1.538461e+09 -9.061691e+02 -6.022267e+01 1.192123e+02
-2.393338e+09 -2.193334e+09 -2.353336e+09 9.290890e+01 -9.059229e+01 4.554548e+01
-2.700716e+09 -2.500712e+09 -2.660714e+09 -2.813574e+02 7.410954e+01 4.001495e+02
-2.094744e+09 -1.894741e+09 -2.054742e+09 6.377911e+00 -3.254740e+02 2.165600e+02
-1.886431e+09 -1.686433e+09 -1.846433e+09 1.243045e+03 -2.464142e+02 -1.075296e+03
-3.109686e+09 -2.909686e+09 -3.069686e+09 8.912780e+02 -1.418216e+02 -6.839478e+02
-2.071925e+09 -1.871926e+09 -2.031926e+09 1.256141e+03 -3.850437e+02 -1.251224e+03
-2.710546e+09 -2.510547e+09 -2.670546e+09 8.511544e+02 -2.033147e+02 -7.175431e+02
-1.828027e+09 -1.628029e+09 -1.788029e+09 1.716545e+03 -6.275252e+02 -2.012839e+03
-2.172762e+09 -1.972761e+09 -2.132762e+09 1.201263e+03 -2.729758e+02 -5.685444e+02
-1.983929e+09 -1.783930e+09 -1.943930e+09 5.602006e+02 9.708012e+01 -5.394074e+02
-1.757779e+09 -1.557780e+09 -1.717780e+09 8.668888e+02 -1.084849e+02 -5.270868e+02
-2.819580e+09 -2.619582e+09 -2.779581e+09 2.597414e+02 3.201433e+00 -8.739017e+02
-3.297921e+09 -3.097921e+09 -3.257921e+09 1.170964e+03 -3.092212e+02 -8.337395e+02
-3.406422e+09 -3.206423e+09 -3.366423e+09 7.965413e+02 -8.087104e+01 -6.221218e+02
-2.776362e+09 -2.576363e+09 -2.736363e+09 7.118266e+02 -7.544390e+01 -4.722718e+02
-2.138408e+09 -1.938414e+09 -2.098411e+09 1.197095e+03 -2.826729e+03 6.684643e+02
-3.256303e+09 -3.056306e+09 -3.216306e+09 7.927576e+02 -1.500054e+03 5.390407e+02
-2.814704e+09 -2.614708e+09 -2.774708e+09 1.181068e+03 -3.032974e+03 1.144926e+03
-3.206267e+09 -3.006271e+09 -3.166273e+09 1.087096e+03 -3.734751e+03 9.915345e+02
-2.776392e+09 -2.576396e+09 -2.736395e+09 1.095359e+03 -2.693726e+03 9.048657e+02
-3.527198e+09 -3.327201e+09 -3.487201e+09 7.314780e+02 -1.551286e+03 4.914084e+02
-2.035121e+09 -1.835126e+09 -1.995123e+09 1.451534e+03 -2.009302e+03 6.355578e+02
-2.487631e+09 -2.287641e+09 -2.447621e+09 -8.005382e+03 -1.050458e+04 1.980998e+04
-1.795525e+09 -1.595487e+09 -1.755507e+09 8.873218e+03 -1.171838e+04 3.241341e+04
-1.583854e+09 -1.383857e+09 -1.543888e+09 -9.065267e+03 -1.799276e+04 2.090765e+04
-2.601608e+09 -2.401626e+09 -2.561609e+09 -5.770053e+03 -4.942996e+03 2.177317e+04
-2.787129e+09 -2.587128e+09 -2.747097e+09 -3.914612e+03 -1.372440e+04 2.004412e+04
-1.583864e+09 -1.383857e+09 -1.543882e+09 -1.129574e+04 -1.505571e+04 1.387173e+04
-2.771670e+09 -2.571667e+09 -2.731638e+09 -6.309956e+03 -8.440071e+03 1.617148e+04
-2.376605e+09 -2.176604e+09 -2.336605e+09 -3.046934e+02 -1.246980e+02 6.536797e+01
-3.510088e+09 -3.310087e+09 -3.470087e+09 3.367682e+02 -2.690583e+02 1.851826e+02
-2.379696e+09 -2.179695e+09 -2.339696e+09 -2.962423e+02 -1.829258e+02 9.614137e+01
-1.770919e+09 -1.570918e+09 -1.730918e+09 -3.416038e+02 -1.748125e+02 2.965529e+01
-2.054086e+09 -1.854086e+09 -2.014086e+09 -4.196808e+02 -1.478362e+02 7.997808e+01
-2.057300e+09 -1.857293e+09 -2.017307e+09 -2.061265e+03 -3.804483e+03 -3.940338e+02
-2.679045e+09 -2.479043e+09 -2.639053e+09 1.057764e+02 -8.581121e+03 2.811317e+03
-2.007637e+09 -1.807653e+09 -1.967647e+09 -2.172681e+03 -1.416231e+04 -1.388830e+03
-2.173489e+09 -1.973495e+09 -2.133497e+09 1.753094e+03 -1.036201e+04 2.220942e+03
-3.428667e+09 -3.228667e+09 -3.388668e+09 5.983824e+02 -9.754714e+02 5.940764e+02
-2.478297e+09 -2.278281e+09 -2.438280e+09 9.870865e+02 1.494437e+04 5.220528e+03
-2.730893e+09 -2.530894e+09 -2.690894e+09 1.931967e+02 4.203457e+00 -1.465234e+01
-2.989261e+09 -2.789262e+09 -2.949262e+09 1.431601e+02 1.420372e+01 7.481241e+00
-3.630284e+09 -3.430285e+09 -3.590285e+09 1.921517e+02 7.270296e+00 5.971307e+00
-3.230689e+09 -3.030690e+09 -3.190690e+09 2.732990e+02 1.351600e+01 -1.831849e+01
-3.288258e+09 -3.088259e+09 -3.248259e+09 2.262860e+02 8.211101e+00 -2.185244e+01
-3.630284e+09 -3.430285e+09 -3.590285e+09 2.035220e+02 5.501662e+00 -1.410988e+01
-3.375774e+09 -3.175775e+09 -3.335775e+09 -4.917811e+02 -1.949635e+01 -2.277249e+01
-3.505484e+09 -3.305484e+09 -3.465484e+09 -5.625260e+02 -1.244793e+01 -2.693248e+01
-3.420665e+09 -3.220665e+09 -3.380665e+09 -4.177464e+02 -8.945999e+00 -2.547747e+01
-2.845511e+09 -2.645512e+09 -2.805512e+09 -3.059478e+02 -1.306312e+01 -1.977008e+01
-2.667477e+09 -2.467478e+09 -2.627478e+09 -3.994932e+02 -2.961251e+01 1.795216e+01
-2.953030e+09 -2.753030e+09 -2.913030e+09 -5.191453e+02 -4.380315e+01 7.353016e+00
-1.944167e+09 -1.744168e+09 -1.904168e+09 -4.879470e+02 -3.473231e+01 -2.292336e+01
-1.955957e+09 -1.755958e+09 -1.915958e+09 -5.245127e+02 -1.612343e+01 -2.635149e+01
-2.401389e+09 -2.201381e+09 -2.361393e+09 3.063920e+03 2.259117e+03 -6.389443e+02
-2.195331e+09 -1.995329e+09 -2.155331e+09 1.554791e+02 -6.218545e+02 -1.425306e+03
-3.574825e+09 -3.374823e+09 -3.534826e+09 1.141054e+03 -7.246461e+02 -9.795209e+02
-2.288355e+09 -2.088353e+09 -2.248355e+09 4.722283e+02 -8.925336e+02 -1.103000e+03
-1.799660e+09 -1.599653e+09 -1.759660e+09 -6.288890e+02 -1.125876e+03 -3.006849e+03
-2.386137e+09 -2.186140e+09 -2.346138e+09 -1.064327e+03 4.234787e+02 6.753035e+01
-2.589594e+09 -2.389596e+09 -2.549594e+09 -1.319804e+03 4.405007e+02 1.953065e+02
-2.428863e+09 -2.228864e+09 -2.388864e+09 3.639619e+02 3.767965e+01 9.927927e+00
-2.613598e+09 -2.413600e+09 -2.573598e+09 -1.173765e+03 1.904476e+02 6.057243e+01
-3.205784e+09 -3.005786e+09 -3.165784e+09 -1.013220e+03 1.937972e+02 6.687659e+01
-3.400337e+09 -3.200338e+09 -3.360337e+09 -9.498337e+02 2.783662e+02 1.208865e+02
-3.596366e+09 -3.396368e+09 -3.556367e+09 -1.236434e+03 4.186788e+02 1.382599e+02
-3.401814e+09 -3.201815e+09 -3.361814e+09 -1.036814e+03 2.118245e+02 6.747620e+01
-2.755848e+09 -2.555854e+09 -2.715853e+09 -1.761368e+03 4.512578e+03 1.140335e+03
-2.542320e+09 -2.342322e+09 -2.502322e+09 -3.312183e+03 2.945517e+03 2.008841e+03
-2.343354e+09 -2.143355e+09 -2.303356e+09 -3.620946e+03 3.448484e+03 1.881235e+03
-1.965938e+09 -1.765945e+09 -1.925940e+09 -2.931713e+03 3.695975e+03 1.335298e+03
-2.473984e+09 -2.273988e+09 -2.433987e+09 -4.338361e+03 4.464234e+03 2.762013e+03
-1.942499e+09 -1.742502e+09 -1.902501e+09 -3.836189e+03 3.648987e+03 1.787965e+03
-3.369416e+09 -3.169417e+09 -3.329419e+09 -1.804611e+03 1.994205e+03 1.226540e+03
-2.042141e+09 -1.842142e+09 -2.002141e+09 1.577193e+02 9.237380e+00 -3.678005e+01
-3.155878e+09 -2.955883e+09 -3.115882e+09 -1.720083e+03 3.233080e+03 7.426544e+02
-1.610519e+09 -1.410521e+09 -1.570519e+09 2.281604e+03 -1.558502e+03 9.911025e+02
-2.672096e+09 -2.472100e+09 -2.632099e+09 -4.025793e+03 4.251038e+03 2.532685e+03
-3.400723e+09 -3.200726e+09 -3.360731e+09 -2.098938e+03 4.262679e+03 1.521211e+03
-3.294968e+09 -3.094973e+09 -3.254976e+09 -6.714621e+02 5.963590e+03 1.244742e+03
-3.106734e+09 -2.906737e+09 -3.066742e+09 -2.531860e+03 6.914509e+03 2.240459e+03
-2.167258e+09 -1.967258e+09 -2.127258e+09 8.839499e+02 -7.618919e+01 -3.373328e+02
-2.386215e+09 -2.186219e+09 -2.346218e+09 2.274823e+03 -3.961305e+03 1.883257e+03
-1.997609e+09 -1.797612e+09 -1.957610e+09 1.833480e+03 -2.123098e+03 1.093424e+03
-1.793683e+09 -1.593687e+09 -1.753684e+09 2.595576e+03 -3.023445e+03 1.351037e+03
-2.691399e+09 -2.491403e+09 -2.651402e+09 9.091032e+02 -2.625913e+03 6.915395e+02
-2.386295e+09 -2.186298e+09 -2.346297e+09 1.839227e+03 -2.439752e+03 1.267744e+03
-2.238944e+09 -2.038947e+09 -2.198945e+09 1.299333e+03 -1.684644e+03 6.014053e+02
-2.063612e+09 -1.863614e+09 -2.023612e+09 1.703327e+03 7.774564e+02 -2.910742e+02
-1.876373e+09 -1.676373e+09 -1.836373e+09 9.884766e+02 -6.739946e+02 3.274108e+02
-2.546007e+09 -2.346008e+09 -2.506007e+09 2.025438e+03 1.091037e+03 -4.513157e+02
-2.838841e+09 -2.638841e+09 -2.798841e+09 6.290606e+02 -5.150567e+02 2.027652e+02
-3.184863e+09 -2.984865e+09 -3.144864e+09 1.914464e+03 7.408879e+02 -4.276208e+02
-2.356095e+09 -2.156097e+09 -2.316095e+09 2.031873e+03 9.871937e+02 -4.937103e+02
-2.115667e+09 -1.915667e+09 -2.075667e+09 3.973263e+02 1.657594e+01 -7.710153e+01
-1.762381e+09 -1.562381e+09 -1.722381e+09 4.597569e+02 7.204056e+01 -6.548714e+01
-2.063799e+09 -1.863799e+09 -2.023799e+09 3.382592e+02 1.982688e+01 -5.886671e+01
-1.772777e+09 -1.572776e+09 -1.732777e+09 3.759429e+02 2.220674e+01 -7.481566e+01
-1.584481e+09 -1.384480e+09 -1.544480e+09 3.264079e+02 3.112728e+01 -8.491463e+01
-3.063230e+09 -2.863230e+09 -3.023230e+09 -5.061457e+02 -9.165376e+01 -1.285710e+01
-2.578389e+09 -2.378389e+09 -2.538389e+09 -3.137159e+02 -1.314331e+02 7.604551e+01
-3.185455e+09 -2.985454e+09 -3.145454e+09 -4.565633e+02 -1.192052e+02 9.474746e+01
-1.979741e+09 -1.779740e+09 -1.939741e+09 -2.973383e+02 -1.358587e+02 6.319198e+01
-2.597710e+09 -2.397709e+09 -2.557710e+09 -2.683784e+02 -1.482453e+02 6.952737e+01
-2.493885e+09 -2.293884e+09 -2.453884e+09 -1.429614e+02 -1.719367e+02 9.711863e+01
-3.272852e+09 -3.072851e+09 -3.232852e+09 -5.117209e+02 -7.607541e+01 3.457579e+01
-2.734818e+09 -2.534814e+09 -2.694818e+09 -7.748793e+02 1.688329e+02 1.388193e+03
-3.301569e+09 -3.101564e+09 -3.261572e+09 4.390655e+02 -1.882480e+03 2.734741e+03
-3.330132e+09 -3.130127e+09 -3.290132e+09 -9.807231e+01 -5.302466e+02 1.903043e+03
-3.317860e+09 -3.117858e+09 -3.277860e+09 -1.074823e+03 2.473809e+02 5.126419e+02
-2.662279e+09 -2.462280e+09 -2.622280e+09 2.967150e+02 3.111311e+01 -2.267833e+02
-3.408821e+09 -3.208820e+09 -3.368822e+09 -2.573092e+02 -1.312712e+03 1.347888e+03
-1.561564e+09 -1.361564e+09 -1.521563e+09 -6.044521e+02 7.792406e+01 -7.264581e+01
-2.627268e+09 -2.427269e+09 -2.587268e+09 -1.140337e+03 3.905232e+02 1.518796e+02
-2.007655e+09 -1.807656e+09 -1.967655e+09 -1.090583e+03 1.691318e+02 9.577548e+01
-1.687383e+09 -1.487383e+09 -1.647383e+09 8.562838e+01 1.714211e+01 -1.987922e+01
-2.427610e+09 -2.227611e+09 -2.387610e+09 -9.961802e+02 3.379391e+02 5.540573e+00
-1.818597e+09 -1.618598e+09 -1.778597e+09 -9.845001e+02 1.291672e+02 -2.627902e+01
-2.403907e+09 -2.203908e+09 -2.363907e+09 -9.527533e+02 2.552659e+02 -1.764240e+00
-1.794894e+09 -1.594895e+09 -1.754893e+09 -8.433421e+02 1.961590e+02 2.522911e+01
-2.657920e+09 -2.457921e+09 -2.617920e+09 2.852087e+02 1.286921e+01 -2.625251e+01
-2.591431e+09 -2.391427e+09 -2.551436e+09 -2.212795e+03 -5.198771e+03 -3.325086e+03
-1.913272e+09 -1.713276e+09 -1.873282e+09 -6.594257e+03 -9.192682e+03 -4.268124e+03
-2.392779e+09 -2.192768e+09 -2.352778e+09 -6.651863e+01 3.661952e+03 -2.288427e+03
-2.004707e+09 -1.804694e+09 -1.964715e+09 8.701295e+01 -1.093203e+03 -3.479321e+03
-3.356044e+09 -3.156034e+09 -3.316043e+09 -3.160916e+03 -3.375823e+03 1.586642e+03
-1.832587e+09 -1.632618e+09 -1.792613e+09 -2.136373e+04 3.482996e+04 1.029646e+04
-1.825125e+09 -1.625105e+09 -1.785184e+09 -1.067293e+04 1.496625e+04 -1.185039e+04
-2.029165e+09 -1.829139e+09 -1.989163e+09 -7.220062e+03 2.591621e+03 1.329610e+04
-2.642622e+09 -2.442613e+09 -2.602638e+09 -7.688364e+03 1.140423e+04 1.013371e+04
-1.748788e+09 -1.548780e+09 -1.708797e+09 -2.153264e+04 2.026384e+04 1.087553e+04
-2.184095e+09 -1.984092e+09 -2.144097e+09 1.160741e+03 3.003809e+02 -1.249591e+03
-1.896445e+09 -1.696442e+09 -1.856446e+09 2.395569e+03 6.865024e+02 -6.405420e+02
-3.196580e+09 -2.996581e+09 -3.156580e+09 2.165399e+02 5.596805e+00 -2.337627e+01
-2.744883e+09 -2.544879e+09 -2.704884e+09 3.970906e+03 1.616451e+03 3.611965e+02
-3.583868e+09 -3.383869e+09 -3.543869e+09 3.681970e+02 1.486706e+00 -7.462738e+01
-2.543388e+09 -2.343397e+09 -2.503387e+09 3.131025e+03 3.040077e+03 9.660295e+03
-2.583132e+09 -2.383127e+09 -2.543132e+09 1.684661e+03 4.408184e+02 -1.789851e+03
-2.167603e+09 -1.967605e+09 -2.127604e+09 2.759111e+03 2.097144e+03 -9.151410e+02
-1.587332e+09 -1.387332e+09 -1.547331e+09 2.684864e+03 1.574527e+03 -7.298512e+02
-2.291674e+09 -2.091672e+09 -2.251675e+09 2.277151e+03 4.195501e+02 -3.459454e+02
-2.002353e+09 -1.802345e+09 -1.962355e+09 3.111319e+03 2.113151e+03 -1.209532e+03
-3.596281e+09 -3.396280e+09 -3.556281e+09 -5.865496e+02 -2.634173e+02 4.017032e+02
-2.502869e+09 -2.302866e+09 -2.462869e+09 -3.187965e+03 2.952242e+03 2.684133e+03
-1.848127e+09 -1.648123e+09 -1.808124e+09 -6.598365e+03 4.443735e+03 4.245368e+03
-2.167186e+09 -1.967180e+09 -2.127183e+09 -2.510337e+03 1.303020e+03 3.099133e+03
-2.425602e+09 -2.225600e+09 -2.385603e+09 -3.365170e+03 2.519787e+03 2.586797e+03
-1.824121e+09 -1.624119e+09 -1.784120e+09 -2.964443e+03 1.093105e+03 2.028535e+03
-2.539186e+09 -2.339189e+09 -2.499189e+09 -3.758433e+03 3.414526e+03 2.378710e+03
-1.768745e+09 -1.568752e+09 -1.728748e+09 -5.571161e+03 6.261746e+03 2.640280e+03
-1.874782e+09 -1.674784e+09 -1.834783e+09 -5.438424e+03 4.982905e+03 2.880354e+03
-2.595588e+09 -2.395583e+09 -2.555584e+09 -2.414620e+03 2.920542e+02 2.615540e+03
-2.923826e+09 -2.723823e+09 -2.883828e+09 -3.144114e+03 2.790102e+03 2.934528e+03
-2.635056e+09 -2.435054e+09 -2.595055e+09 3.181859e+02 -1.062303e+02 -1.677372e+02
-3.402545e+09 -3.202543e+09 -3.362544e+09 8.553410e+02 -3.295152e+02 -4.250899e+02
-2.038955e+09 -1.838956e+09 -1.998956e+09 7.230925e+02 -3.293942e+01 -3.911907e+02
-2.400851e+09 -2.200853e+09 -2.360851e+09 -7.919479e+02 2.017166e+02 -3.286412e+01
-1.795063e+09 -1.595065e+09 -1.755063e+09 -8.266894e+02 7.857139e+01 -3.477725e+01
-2.164167e+09 -1.964168e+09 -2.124167e+09 -5.304701e+02 6.827562e+01 -2.376361e+01
-2.442039e+09 -2.242041e+09 -2.402039e+09 -7.191156e+02 9.018365e+01 -3.185869e+01
-2.592228e+09 -2.392229e+09 -2.552228e+09 -7.801911e+02 8.011941e+01 -5.500207e+01
-2.673518e+09 -2.473519e+09 -2.633518e+09 -7.175351e+02 9.319815e+01 6.869709e+00
-2.056371e+09 -1.856369e+09 -2.016370e+09 -6.607155e+02 1.936403e+02 7.827278e+01
-3.192240e+09 -2.992239e+09 -3.152241e+09 -1.677685e+03 8.860358e+02 6.230258e+02
-1.802019e+09 -1.602017e+09 -1.762017e+09 -2.114134e+03 4.446451e+02 6.589220e+02
-3.207039e+09 -3.007039e+09 -3.167039e+09 -1.838419e+03 1.058935e+03 6.579471e+02
-1.848762e+09 -1.648762e+09 -1.808761e+09 -1.475083e+03 2.961213e+02 1.889366e+02
-2.050318e+09 -1.850318e+09 -2.010317e+09 -1.555103e+03 4.501440e+02 2.997595e+02
-2.455911e+09 -2.255911e+09 -2.415911e+09 -1.519424e+03 6.902352e+02 2.681112e+02
-2.970603e+09 -2.770593e+09 -2.930602e+09 7.090841e+02 -1.386808e+03 2.485503e+03
-2.976210e+09 -2.776199e+09 -2.936207e+09 9.214206e+02 -9.342895e+02 3.568912e+03
-3.362788e+09 -3.162782e+09 -3.322764e+09 -3.188257e+03 -3.660319e+03 6.282289e+03
-3.170389e+09 -2.970389e+09 -3.130359e+09 -3.007227e+03 -1.105644e+04 1.251964e+04
-3.383042e+09 -3.183044e+09 -3.343033e+09 -5.234158e+03 -6.786982e+03 7.327730e+03
-3.061211e+09 -2.861216e+09 -3.021211e+09 -5.111560e+03 -5.898427e+03 9.212711e+03
-3.594047e+09 -3.394047e+09 -3.554047e+09 2.329915e+02 -3.502385e+01 -7.453305e+01
-2.292072e+09 -2.092072e+09 -2.252073e+09 -7.836653e+02 1.569921e+01 -3.243750e+01
-3.167954e+09 -2.967957e+09 -3.127957e+09 1.086008e+03 -1.887383e+03 6.212042e+02
-3.405119e+09 -3.205120e+09 -3.365105e+09 1.409346e+03 3.976832e+03 6.464901e+03
-2.389622e+09 -2.189623e+09 -2.349623e+09 3.773137e+02 2.903886e+01 -3.202704e+01
-2.832640e+09 -2.632640e+09 -2.792641e+09 -1.060188e+03 -1.012714e+03 -6.509491e+02
-3.262021e+09 -3.062021e+09 -3.222021e+09 -1.463820e+03 -1.158445e+03 -7.087299e+02
-3.488456e+09 -3.288455e+09 -3.448456e+09 -1.095117e+03 -8.461588e+02 -4.089669e+02
-3.196323e+09 -2.996323e+09 -3.156323e+09 -8.836243e+02 -7.023178e+02 -2.141146e+02
-2.633897e+09 -2.433897e+09 -2.593898e+09 -1.557373e+03 -1.650316e+03 -8.479041e+02
-3.396397e+09 -3.196396e+09 -3.356398e+09 -9.248968e+02 -1.287979e+03 -6.469032e+02
-3.412183e+09 -3.212185e+09 -3.372184e+09 3.533232e+02 -1.957337e+01 -4.701850e+02
-2.747243e+09 -2.547246e+09 -2.707245e+09 -3.786379e+02 1.234738e+02 -6.787335e+02
-2.617181e+09 -2.417183e+09 -2.577182e+09 3.698615e+02 -5.321240e+01 -7.790715e+02
-2.391991e+09 -2.191993e+09 -2.351992e+09 5.239692e+01 4.606639e+01 -7.486350e+02
-2.978282e+09 -2.778284e+09 -2.938283e+09 -3.755567e+02 1.018616e+02 -4.257138e+02
-2.411467e+09 -2.211469e+09 -2.371468e+09 -2.534150e+02 7.162819e+01 -4.715457e+02
-3.059268e+09 -2.859270e+09 -3.019269e+09 2.241973e+02 -5.081708e+01 -4.488898e+02
-3.030940e+09 -2.830940e+09 -2.990941e+09 -1.210019e+03 -1.245125e+03 -8.218008e+02
-2.125299e+09 -1.925298e+09 -2.085298e+09 -1.586957e+03 -1.253611e+03 -8.101117e+02
-1.933914e+09 -1.733913e+09 -1.893914e+09 -1.124649e+03 -7.631165e+02 -6.180485e+02
-2.231983e+09 -2.031982e+09 -2.191982e+09 -1.141599e+03 -8.846677e+02 -5.816090e+02
-3.191346e+09 -2.991345e+09 -3.151346e+09 1.280712e+02 -3.478691e+02 2.766495e+02
-3.431402e+09 -3.231400e+09 -3.391401e+09 1.671867e+02 -2.970995e+02 3.031260e+02
-3.195924e+09 -2.995923e+09 -3.155923e+09 3.457241e+02 -2.724708e+02 1.112823e+02
-1.576944e+09 -1.376943e+09 -1.536944e+09 9.822220e+02 -2.211298e+02 -4.348897e+02
-2.091067e+09 -1.891067e+09 -2.051066e+09 8.884746e+02 -6.284013e+02 4.527034e+02
-1.654663e+09 -1.454662e+09 -1.614662e+09 4.886284e+00 2.662495e+01 -4.393819e+01
-2.621200e+09 -2.421200e+09 -2.581200e+09 4.583906e+02 -4.521929e+02 2.897946e+02
-2.764481e+09 -2.564481e+09 -2.724481e+09 2.957631e+02 -4.326444e+02 2.750781e+02
-1.762800e+09 -1.562806e+09 -1.722801e+09 -2.945829e+03 3.449104e+03 1.468421e+03
-1.864757e+09 -1.664760e+09 -1.824758e+09 2.815896e+03 2.035168e+03 -7.483498e+02
-2.048116e+09 -1.848117e+09 -2.008116e+09 2.898642e+03 1.716314e+03 -8.871527e+02
-1.855808e+09 -1.655808e+09 -1.815808e+09 -3.152850e+02 -3.878561e+01 -4.943558e+00
-3.628861e+09 -3.428859e+09 -3.588860e+09 -1.017022e+03 6.758214e+01 -4.302577e+01
-2.677285e+09 -2.477285e+09 -2.637285e+09 2.326059e+03 1.244525e+03 -8.891890e+02
-2.183160e+09 -1.983163e+09 -2.143161e+09 2.655778e+03 2.214703e+03 -8.476964e+02
-1.698205e+09 -1.498209e+09 -1.658205e+09 1.205107e+03 -1.404391e+03 3.227382e+02
-2.997908e+09 -2.797909e+09 -2.957910e+09 2.666405e+03 1.899689e+03 -1.112905e+03
-3.079027e+09 -2.879027e+09 -3.039028e+09 2.280542e+03 1.300581e+03 -7.712264e+02
-1.979573e+09 -1.779576e+09 -1.939574e+09 2.047045e+03 1.271642e+03 -5.721347e+02
-2.705394e+09 -2.505394e+09 -2.665394e+09 2.033138e+03 1.216470e+03 -6.357769e+02
-3.289992e+09 -3.089991e+09 -3.249991e+09 8.534890e+02 -1.350436e+02 -2.412769e+02
-1.735838e+09 -1.535772e+09 -1.695727e+09 -4.225392e+03 2.639206e+04 -6.303367e+04
-2.527447e+09 -2.327448e+09 -2.487447e+09 1.217234e+03 -2.665205e+02 -1.470023e+03
-1.774088e+09 -1.574088e+09 -1.734088e+09 2.587573e+02 -9.685412e+00 -1.004090e+02
-1.757460e+09 -1.557460e+09 -1.717460e+09 6.872172e+02 1.978816e+01 -1.622105e+02
-2.661912e+09 -2.461911e+09 -2.621911e+09 5.699062e+02 -5.541883e+01 -1.850846e+02
-3.600607e+09 -3.400607e+09 -3.560607e+09 7.741017e+01 -4.099406e-01 -3.110337e+01
-1.864023e+09 -1.664022e+09 -1.824022e+09 2.492514e+02 2.075717e+01 -7.718869e+01
-2.057096e+09 -1.857097e+09 -2.017097e+09 9.765157e+02 -1.373743e+02 -6.440810e+02
-2.409965e+09 -2.209967e+09 -2.369966e+09 5.587026e+02 -3.854067e+00 -3.347729e+02
-2.697089e+09 -2.497089e+09 -2.657089e+09 4.706430e+02 -2.925125e+01 -1.031138e+02
-2.762325e+09 -2.562326e+09 -2.722326e+09 7.039730e+02 -9.510130e+01 -4.552624e+02
-1.539062e+09 -1.339057e+09 -1.499059e+09 1.657746e+03 1.138504e+03 -1.836985e+03
-1.855578e+09 -1.655579e+09 -1.815579e+09 9.140375e+02 -1.096599e+02 -6.268245e+02
-1.990864e+09 -1.790865e+09 -1.950865e+09 7.763213e+02 -6.273054e+01 -2.394883e+02
-3.509472e+09 -3.309473e+09 -3.469447e+09 2.551003e+03 1.460665e+03 1.222651e+04
-3.398400e+09 -3.198401e+09 -3.358400e+09 -8.983329e+02 1.104024e+02 -2.127135e+01
-1.997802e+09 -1.797803e+09 -1.957802e+09 -9.525122e+02 1.361066e+02 4.697218e+01
-2.605796e+09 -2.405797e+09 -2.565796e+09 -9.720382e+02 2.674317e+02 7.709564e+01
-2.564061e+09 -2.364061e+09 -2.524060e+09 -8.129020e+02 1.040381e+02 -3.703400e+01
-3.301168e+09 -3.101168e+09 -3.261167e+09 -4.962080e+02 -1.437265e+01 -6.298007e+01
-3.387064e+09 -3.187065e+09 -3.347064e+09 -8.525920e+02 1.863087e+02 7.893391e+01
-3.317123e+09 -3.117124e+09 -3.277123e+09 9.531924e+01 1.667845e+00 -7.753307e+00
-1.854649e+09 -1.654650e+09 -1.814650e+09 -1.811174e+01 6.392470e+00 -9.427500e+00
-3.619623e+09 -3.419620e+09 -3.579629e+09 -7.210489e+02 -4.295735e+03 -1.268118e+03
-2.458415e+09 -2.258416e+09 -2.418415e+09 -1.016820e+01 4.961058e+00 -1.599835e+01
-2.502669e+09 -2.302670e+09 -2.462670e+09 3.247875e+02 -1.055020e+01 -1.130254e+02
-2.142950e+09 -1.942951e+09 -2.102951e+09 -9.612034e+00 6.811570e+00 -1.962208e+01
-2.845767e+09 -2.645768e+09 -2.805768e+09 -1.715495e+01 -8.261759e+00 -1.324697e+00
-3.256818e+09 -3.056819e+09 -3.216819e+09 1.865244e+02 7.087228e+00 -5.057650e+01
-2.997365e+09 -2.797366e+09 -2.957365e+09 7.574076e+01 9.333589e+00 -9.039333e+00
-1.591476e+09 -1.391476e+09 -1.551476e+09 -5.211445e+02 -9.628091e+01 1.841600e+01
-2.608399e+09 -2.408403e+09 -2.568401e+09 2.381410e+03 1.672754e+03 2.973328e+03
-1.980157e+09 -1.780160e+09 -1.940157e+09 -1.066661e+03 4.059579e+02 1.005155e+02
-3.208200e+09 -3.008202e+09 -3.168200e+09 -7.783593e+02 2.499926e+02 -2.983988e+00
-2.484449e+09 -2.284451e+09 -2.444449e+09 -7.463797e+02 1.056892e+02 -3.430271e+01
-1.792483e+09 -1.592485e+09 -1.752483e+09 -9.018886e+02 2.787876e+02 3.691837e+01
-2.411058e+09 -2.211060e+09 -2.371058e+09 -1.270407e+03 4.241560e+02 6.423918e+01
-3.591885e+09 -3.391884e+09 -3.551885e+09 -3.661223e+02 -1.577870e+02 1.643490e+02
-2.589346e+09 -2.389348e+09 -2.549346e+09 -8.924282e+02 3.081901e+02 6.796108e+01
-2.339728e+09 -2.139697e+09 -2.299702e+09 -1.344697e+04 -2.766894e+04 -2.262116e+03
-3.587897e+09 -3.387898e+09 -3.547898e+09 -1.199855e+02 -3.257789e+00 -7.386514e+00
-1.770022e+09 -1.569945e+09 -1.729969e+09 1.219493e+04 -5.409323e+04 -2.328241e+04
-2.319594e+09 -2.119552e+09 -2.279579e+09 2.918519e+03 -2.085357e+04 -1.390852e+03
-2.101013e+09 -1.900965e+09 -2.061027e+09 -4.119094e+03 -6.430050e+02 -8.116326e+03
-3.131039e+09 -2.931025e+09 -3.091043e+09 3.556124e+02 -3.093843e+03 -4.950678e+03
-3.136953e+09 -2.936935e+09 -3.096935e+09 5.457515e+03 -1.684276e+04 -2.926754e+03
-3.526487e+09 -3.326488e+09 -3.486488e+09 -8.762514e+02 6.840481e+01 -4.593144e+01
-2.368902e+09 -2.168901e+09 -2.328901e+09 -1.552131e+02 5.547482e+01 -3.804248e+01
-3.394702e+09 -3.194702e+09 -3.354702e+09 -5.891326e+01 -1.767698e+01 -6.864999e+01
-3.161098e+09 -2.961098e+09 -3.121098e+09 -1.789889e+02 -7.273209e+01 -2.282576e+00
-2.549991e+09 -2.349990e+09 -2.509990e+09 1.782419e+01 -6.280305e+00 -5.715513e+01
-3.110789e+09 -2.910789e+09 -3.070789e+09 -6.370542e+01 3.388552e+01 -1.980288e+01
-2.514882e+09 -2.314886e+09 -2.474884e+09 -8.220942e+02 8.688854e+02 1.292070e+02
-3.118655e+09 -2.918658e+09 -3.078656e+09 -7.923204e+02 6.723442e+02 7.565501e+01
-3.058035e+09 -2.858034e+09 -3.018034e+09 -1.567563e+02 3.883637e+01 -3.001780e+01
-3.478686e+09 -3.278688e+09 -3.438687e+09 -7.539213e+01 -4.999458e+00 -4.253419e+00
-2.411421e+09 -2.211426e+09 -2.371423e+09 -1.732518e+02 9.885005e+02 5.275752e+01
-2.250219e+09 -2.050219e+09 -2.210219e+09 -2.501285e+02 -1.263517e+01 -3.099920e+00
-3.389703e+09 -3.189707e+09 -3.349704e+09 -6.724308e+02 4.287297e+02 1.393312e+02
-3.377074e+09 -3.177079e+09 -3.337076e+09 -8.341605e+02 9.079686e+02 3.946951e+02
-2.911573e+09 -2.711572e+09 -2.871577e+09 1.595315e+03 -3.373482e+03 2.515523e+03
-2.115904e+09 -1.915904e+09 -2.075904e+09 2.514634e+03 -3.874218e+03 2.368827e+03
-2.809016e+09 -2.609015e+09 -2.769017e+09 8.315848e+02 -1.697558e+03 1.501166e+03
-1.919731e+09 -1.719730e+09 -1.879731e+09 2.682063e+03 -3.104704e+03 2.427877e+03
-2.536646e+09 -2.336643e+09 -2.496646e+09 5.323988e+02 -7.255105e+02 1.434320e+03
-2.826004e+09 -2.626003e+09 -2.786005e+09 7.062670e+02 -1.694534e+03 1.511549e+03
-1.795014e+09 -1.595010e+09 -1.755013e+09 2.347676e+03 -2.395465e+03 2.808184e+03
-2.556681e+09 -2.356678e+09 -2.516680e+09 1.261007e+03 -1.408608e+03 1.830489e+03
-3.076194e+09 -2.876195e+09 -3.036194e+09 1.025312e+03 2.288860e+02 -2.620538e+01
-2.366105e+09 -2.166107e+09 -2.326105e+09 8.667465e+02 1.126526e+02 -3.308599e+01
-2.243072e+09 -2.043074e+09 -2.203072e+09 8.803116e+02 1.010869e+02 -3.010491e+01
-2.244738e+09 -2.044740e+09 -2.204738e+09 9.802171e+02 2.295875e+02 -3.003570e+01
-2.213230e+09 -2.013230e+09 -2.173231e+09 -1.872564e+03 -2.167417e+03 -1.040540e+03
-1.571101e+09 -1.371109e+09 -1.531104e+09 -3.456352e+03 -5.842513e+03 -1.675063e+03
-2.579803e+09 -2.379804e+09 -2.539802e+09 1.201042e+03 2.794571e+02 -2.704323e+01
-1.573001e+09 -1.373000e+09 -1.533000e+09 1.619935e+02 3.147359e+01 -8.646079e+01
-1.690545e+09 -1.490547e+09 -1.650545e+09 9.356787e+02 1.981524e+02 4.062195e+01
-2.993302e+09 -2.793303e+09 -2.953301e+09 1.162310e+03 2.295330e+02 -8.213687e+01
-3.600630e+09 -3.400631e+09 -3.560631e+09 -3.983752e+02 -1.616425e+01 -1.875765e+01
-1.999071e+09 -1.799072e+09 -1.959071e+09 7.790421e+02 1.601194e+02 -3.043746e+01
-2.661892e+09 -2.461890e+09 -2.621891e+09 2.355667e+02 -6.725537e+01 -1.014096e+02
-1.615859e+09 -1.415860e+09 -1.575859e+09 -1.162644e+03 3.590926e+02 2.552071e+01
-3.089696e+09 -2.889694e+09 -3.049694e+09 1.035363e+03 -3.989273e+02 -2.248794e+02
-3.095224e+09 -2.895221e+09 -3.055222e+09 -1.824357e+02 -1.308334e+02 5.688932e+02
-3.329534e+09 -3.129531e+09 -3.289533e+09 -3.230044e+02 2.088547e+01 4.786247e+02
-2.674533e+09 -2.474530e+09 -2.634530e+09 8.411784e+02 -6.313280e+02 -7.345914e+02
-2.985373e+09 -2.785370e+09 -2.945373e+09 1.118126e+03 -5.187411e+02 -7.635427e+01
-1.588220e+09 -1.388216e+09 -1.548218e+09 2.606830e+03 1.365281e+03 -1.718697e+03
-3.119541e+09 -2.919539e+09 -3.079540e+09 7.550540e+02 -3.522264e+02 -2.194676e+02
-3.585627e+09 -3.385616e+09 -3.545634e+09 -1.305131e+03 5.061429e+02 -4.494549e+03
-2.119896e+09 -1.919891e+09 -2.079896e+09 -9.398891e+03 4.426005e+03 9.039295e+03
-3.617766e+09 -3.417765e+09 -3.577766e+09 1.684912e+03 1.034885e+03 -5.818165e+02
-1.844586e+09 -1.644597e+09 -1.804590e+09 3.468056e+03 -7.783677e+03 3.202617e+03
-1.617904e+09 -1.417903e+09 -1.577903e+09 1.198800e+03 -7.853514e+02 7.497925e+02
-2.693887e+09 -2.493883e+09 -2.653893e+09 -1.415464e+03 -4.301896e+03 -3.201315e+03
-2.868737e+09 -2.668725e+09 -2.828738e+09 8.786122e+02 1.310554e+03 -1.448400e+03
-1.589586e+09 -1.389582e+09 -1.549584e+09 2.106854e+03 -1.750775e+03 2.375756e+03
-1.861306e+09 -1.661313e+09 -1.821313e+09 -5.278463e+03 -9.871432e+03 -2.749586e+03
-1.575616e+09 -1.375615e+09 -1.535616e+09 -3.672206e+02 -8.558228e+01 -3.683332e+01
-3.015465e+09 -2.815464e+09 -2.975474e+09 -4.100735e+02 -2.330832e+03 1.798221e+03
-1.878569e+09 -1.678570e+09 -1.838569e+09 -1.274609e+03 7.359056e+02 -1.675677e+03
-3.352885e+09 -3.152877e+09 -3.312889e+09 -5.406033e+02 -1.038426e+03 -1.387676e+03
-2.412919e+09 -2.212919e+09 -2.372919e+09 -1.851120e+02 3.052956e+01 -5.054624e+01
-3.422313e+09 -3.222307e+09 -3.382315e+09 -7.825204e+01 -1.945213e+03 -1.342052e+03
-3.324932e+09 -3.124932e+09 -3.284937e+09 -5.844421e+02 -5.634965e+03 -1.387630e+03
-2.051016e+09 -1.851021e+09 -2.011032e+09 -8.042448e+02 -1.143452e+04 -1.058052e+03
-2.545282e+09 -2.345278e+09 -2.505281e+09 -1.105292e+02 3.700914e+02 -4.637044e+02
-2.633535e+09 -2.433539e+09 -2.593541e+09 -8.505905e+02 -5.384548e+03 1.846056e+02
-2.572562e+09 -2.372558e+09 -2.532562e+09 1.004743e+03 9.304482e+02 -1.363151e+03
-2.280335e+09 -2.080330e+09 -2.240333e+09 2.480854e+03 1.479163e+03 -2.421493e+03
-2.569715e+09 -2.369724e+09 -2.529721e+09 -4.096609e+02 1.028114e+02 6.196478e+03
-2.304606e+09 -2.104602e+09 -2.264606e+09 -6.694310e+02 2.599501e+02 -8.801845e+02
-1.945517e+09 -1.745512e+09 -1.905516e+09 -4.948325e+02 -2.192451e+02 -8.684459e+02
-1.715695e+09 -1.515689e+09 -1.675694e+09 1.024422e+03 1.057839e+03 -1.930344e+03
-1.920041e+09 -1.720036e+09 -1.880039e+09 1.893352e+03 1.367167e+03 -2.109340e+03
-3.498096e+09 -3.298098e+09 -3.458096e+09 7.628699e+02 1.664253e+02 -4.758006e+01
-2.431511e+09 -2.231511e+09 -2.391511e+09 -4.093286e+02 -3.659610e+01 -4.746372e+00
-1.962174e+09 -1.762175e+09 -1.922175e+09 -2.820312e+02 -2.700808e+01 1.384803e+01
-2.195725e+09 -1.995725e+09 -2.155725e+09 -4.618434e+02 -4.316326e+01 1.423153e+00
-1.898210e+09 -1.698211e+09 -1.858211e+09 -3.062272e+02 -3.419925e+01 7.039965e+00
-3.019239e+09 -2.819239e+09 -2.979240e+09 -3.972150e+02 -2.012406e+01 8.088890e-01
-2.283659e+09 -2.083660e+09 -2.243660e+09 -2.606089e+02 -9.001134e+00 -3.450449e+00
-1.569016e+09 -1.369014e+09 -1.529014e+09 5.129421e+02 -4.713291e+02 5.617238e+02
-2.475731e+09 -2.275731e+09 -2.435731e+09 -3.787152e+02 -3.270854e+01 -9.369817e+00
-2.859563e+09 -2.659564e+09 -2.819564e+09 -3.066365e+02 -3.757427e+01 1.401169e+01
-3.087954e+09 -2.887954e+09 -3.047954e+09 6.957804e+02 -1.095361e+02 -5.250181e+02
-1.573843e+09 -1.373822e+09 -1.533835e+09 -1.525524e+01 -4.775859e+03 1.730794e+03
-2.030605e+09 -1.830605e+09 -1.990605e+09 5.866957e+02 1.917856e+00 -1.920435e+02
-2.388932e+09 -2.188933e+09 -2.348933e+09 5.619940e+02 -1.934759e+01 -5.441814e+02
-3.209171e+09 -3.009172e+09 -3.169171e+09 7.103671e+02 -6.375203e+01 -6.636918e+02
-3.185960e+09 -2.985966e+09 -3.145963e+09 -1.429699e+02 7.374862e+02 2.289085e+03
-3.036375e+09 -2.836375e+09 -2.996375e+09 6.132240e+02 1.280465e+01 -1.589789e+02
-3.195133e+09 -2.995135e+09 -3.155134e+09 7.034143e+02 -6.212525e+01 -3.922438e+02
-3.292451e+09 -3.092451e+09 -3.252451e+09 9.182276e+02 -1.161764e+02 -4.699531e+02
-2.889012e+09 -2.689009e+09 -2.849013e+09 9.303695e+02 -4.241525e+02 -9.232120e+02
-2.004474e+09 -1.804478e+09 -1.964490e+09 -7.292337e+03 1.844059e+04 1.958311e+03
-2.252963e+09 -2.052961e+09 -2.212962e+09 1.325903e+03 6.108047e+02 -6.171564e+02
-2.923513e+09 -2.723515e+09 -2.883515e+09 -1.257116e+03 2.742323e+02 -4.058226e+02
-2.620988e+09 -2.420992e+09 -2.580989e+09 -3.020306e+02 6.328565e+02 3.600695e+01
-1.864495e+09 -1.664498e+09 -1.824497e+09 -1.019432e+03 3.146584e+02 -8.864291e+02
-2.167797e+09 -1.967801e+09 -2.127801e+09 -8.432482e+02 1.161841e+02 -1.664200e+03
-2.461762e+09 -2.261764e+09 -2.421763e+09 -7.114098e+02 2.375538e+02 -9.030641e+02
-1.869988e+09 -1.669976e+09 -1.829963e+09 -2.238194e+03 -1.959991e+03 -1.771232e+04
-2.201565e+09 -2.001564e+09 -2.161580e+09 3.900583e+02 -1.255786e+04 2.708620e+03
-2.703324e+09 -2.503300e+09 -2.663296e+09 1.082292e+03 1.222878e+04 -2.495944e+03
-2.297427e+09 -2.097429e+09 -2.257427e+09 6.951685e+02 7.920198e+01 -1.337752e+01
-1.876038e+09 -1.676040e+09 -1.836038e+09 8.109731e+02 8.094293e+01 -1.186788e+01
-2.436127e+09 -2.236114e+09 -2.396130e+09 -2.589115e+03 2.733893e+02 1.403315e+02
-2.102043e+09 -1.902047e+09 -2.062044e+09 2.731507e+02 5.025200e+02 -3.292931e+01
-2.085618e+09 -1.885595e+09 -2.045587e+09 -4.181283e+03 8.404025e+03 -4.127393e+03
-3.031855e+09 -2.831836e+09 -2.991804e+09 -1.391928e+02 5.226484e+03 -5.810051e+03
-3.571670e+09 -3.371670e+09 -3.531670e+09 -6.557093e+02 3.927011e+01 8.484643e+00
-3.476825e+09 -3.276824e+09 -3.436824e+09 4.631721e+01 2.529600e+00 -1.373674e+01
-3.629442e+09 -3.429435e+09 -3.589442e+09 -4.667595e+02 1.027409e+03 -2.683043e+03
-2.979411e+09 -2.779391e+09 -2.939382e+09 -5.322873e+03 1.336363e+04 -1.251176e+04
-3.387639e+09 -3.187638e+09 -3.347638e+09 3.614594e+01 3.246935e+01 -2.231060e+01
-2.459927e+09 -2.259916e+09 -2.419927e+09 -4.419088e+03 -9.210869e+01 -1.408689e+03
-2.916395e+09 -2.716382e+09 -2.876369e+09 -7.419610e+03 1.508530e+03 -1.258067e+04
-3.224233e+09 -3.024226e+09 -3.184194e+09 -2.911794e+03 3.238813e+03 -1.414575e+03
-1.599329e+09 -1.399329e+09 -1.559329e+09 -3.015462e+02 5.248515e+01 -6.698580e+01
-3.067117e+09 -2.867103e+09 -3.027122e+09 1.199566e+03 5.301592e+03 7.609006e+02
-2.229351e+09 -2.029345e+09 -2.189360e+09 -3.252564e+03 -7.442296e+03 -5.808122e+02
-3.360575e+09 -3.160574e+09 -3.320573e+09 1.007332e+03 -6.393216e+02 -9.887611e+02
-2.293432e+09 -2.093438e+09 -2.253434e+09 2.291136e+03 3.454201e+03 -7.879499e+02
-3.075211e+09 -2.875213e+09 -3.035212e+09 2.182900e+03 1.403580e+03 -5.220254e+02
-2.666514e+09 -2.466520e+09 -2.626517e+09 1.289921e+03 2.083344e+03 -4.021073e+02
-3.172998e+09 -2.973002e+09 -3.133000e+09 1.555959e+03 9.823678e+02 -2.617744e+02
-1.585792e+09 -1.385792e+09 -1.545792e+09 3.679691e+01 4.251985e+01 -9.261113e+01
-2.660061e+09 -2.460065e+09 -2.620063e+09 1.038260e+03 1.300103e+03 -1.927655e+02
-3.584206e+09 -3.384206e+09 -3.544206e+09 -4.702060e+02 -6.013373e+00 -2.414404e+01
-3.406930e+09 -3.206934e+09 -3.366932e+09 3.747532e+02 7.424744e+02 -4.045550e+01
-2.394416e+09 -2.194418e+09 -2.354416e+09 1.096378e+03 2.023955e+02 -8.315658e+01
-1.956932e+09 -1.756932e+09 -1.916932e+09 6.023171e+01 1.911651e+01 -6.308465e+01
-2.514967e+09 -2.314969e+09 -2.474967e+09 9.591932e+02 3.178045e+02 -6.430414e+01
-1.775030e+09 -1.575029e+09 -1.735030e+09 -6.372918e+02 2.078962e+02 6.237701e+01
-1.589044e+09 -1.389055e+09 -1.549046e+09 -4.190113e+03 5.652692e+03 1.444333e+03
-3.595980e+09 -3.395981e+09 -3.555981e+09 -1.530843e+03 5.156831e+02 3.781222e+02
-2.527970e+09 -2.327972e+09 -2.487970e+09 8.158456e+02 1.785606e+02 -4.062569e+01
-2.581550e+09 -2.381550e+09 -2.541550e+09 3.229554e+02 2.155840e+01 -3.262542e+01
-3.596366e+09 -3.396368e+09 -3.556367e+09 -1.018591e+03 2.811920e+02 7.608031e+01
-1.673760e+09 -1.473760e+09 -1.633759e+09 -1.613409e+02 3.177793e+01 -6.432562e+01
-3.374720e+09 -3.174722e+09 -3.334720e+09 1.056777e+03 1.779072e+02 4.683205e+00
-2.027456e+09 -1.827456e+09 -1.987455e+09 -6.577069e+01 2.735831e+01 -4.487751e+01
-1.956809e+09 -1.756810e+09 -1.916810e+09 3.274222e+01 8.073132e+00 1.656487e+01
-2.404151e+09 -2.204153e+09 -2.364152e+09 -1.462646e+02 -1.177655e+01 1.409188e+01
-1.800835e+09 -1.600835e+09 -1.760835e+09 -1.915609e+03 9.066629e+02 4.446835e+02
-1.927329e+09 -1.727328e+09 -1.887328e+09 -1.138843e+00 2.827435e+01 -4.699105e+01
-2.464429e+09 -2.264430e+09 -2.424429e+09 2.889551e+02 2.182278e+01 -3.777550e+00
-1.619359e+09 -1.419359e+09 -1.579359e+09 2.493983e+02 5.680673e+01 -1.072845e+01
-1.794916e+09 -1.594917e+09 -1.754917e+09 -9.307716e+01 -2.361906e+00 1.652505e+01
-2.945320e+09 -2.745321e+09 -2.905321e+09 -1.233685e+02 2.371346e+00 -5.074077e+00
-2.245110e+09 -2.045111e+09 -2.205111e+09 -1.676782e+01 5.606292e+00 -7.358761e+00
-2.057018e+09 -1.857017e+09 -2.017017e+09 3.539126e+01 4.762485e+01 -7.396534e+01
-2.141618e+09 -1.941619e+09 -2.101619e+09 -2.013885e+02 -3.227312e+00 -8.907738e+00
-3.022320e+09 -2.822322e+09 -2.982321e+09 -6.309104e+02 1.852130e+02 -5.254307e+02
-3.250949e+09 -3.050950e+09 -3.210950e+09 -8.854293e+02 1.241290e+02 -3.314405e+02
-3.361396e+09 -3.161398e+09 -3.321397e+09 -4.297369e+02 3.625316e+01 -3.182739e+02
-2.592665e+09 -2.392666e+09 -2.552666e+09 3.220605e+02 2.467528e+01 -2.807407e+01
-3.595084e+09 -3.395084e+09 -3.555084e+09 4.493155e+02 -2.198992e+00 -6.543687e+01
-1.696669e+09 -1.496669e+09 -1.656669e+09 2.062503e+02 3.417103e+01 -1.373776e+00
-2.214289e+09 -2.014290e+09 -2.174290e+09 -7.374546e+02 -1.295943e+01 -2.350876e+02
-3.594047e+09 -3.394046e+09 -3.554047e+09 4.216882e+02 -8.590622e+01 -1.532240e+02
-1.960172e+09 -1.760174e+09 -1.920173e+09 -7.999801e+02 7.532300e+01 -2.934389e+02
-3.397548e+09 -3.197547e+09 -3.357547e+09 1.352699e+02 6.261988e+01 -7.189851e+00
-3.229983e+09 -3.029985e+09 -3.189984e+09 -8.260579e+02 1.316340e+02 -6.067191e+02
-2.524289e+09 -2.324290e+09 -2.484289e+09 -9.030605e+02 1.541986e+02 -3.827696e+02
-3.369063e+09 -3.169059e+09 -3.329063e+09 1.098530e+00 6.584274e+02 -1.250013e+03
-1.570801e+09 -1.370796e+09 -1.530798e+09 5.014105e+03 3.106017e+03 -3.627908e+03
-1.679210e+09 -1.479208e+09 -1.639209e+09 1.495760e+03 5.418852e+02 -6.671968e+02
-2.956690e+09 -2.756691e+09 -2.916691e+09 -2.055354e+02 -1.127225e+01 -2.083400e+00
-3.610629e+09 -3.410626e+09 -3.570630e+09 -7.801733e+02 2.491473e+02 -5.500437e+02
-3.629440e+09 -3.429434e+09 -3.589441e+09 7.544329e+02 1.721920e+03 -1.717133e+03
-3.460822e+09 -3.260824e+09 -3.420823e+09 -1.548553e+02 -2.412479e+00 -1.508300e-02
-2.954872e+09 -2.754873e+09 -2.914873e+09 1.872196e+01 -2.666074e+00 -5.459527e+01
-1.831171e+09 -1.631172e+09 -1.791171e+09 -1.469535e+02 -1.194642e+01 1.436550e+01
-1.695561e+09 -1.495568e+09 -1.655568e+09 -4.801759e+02 -8.544352e+01 2.539548e+03
-1.855918e+09 -1.655906e+09 -1.815916e+09 7.053334e+03 4.508487e+03 -6.018947e+03
-1.782731e+09 -1.582732e+09 -1.742732e+09 -2.693748e+02 -2.385365e+01 3.642090e+00
-2.883305e+09 -2.683306e+09 -2.843306e+09 -1.473986e+02 2.214730e-02 1.270368e+01
-2.235351e+09 -2.035352e+09 -2.195352e+09 -1.147864e+02 -3.482667e+00 -7.681908e+00
-1.947151e+09 -1.747153e+09 -1.907152e+09 -6.894310e+01 -5.073648e+00 1.118941e+01
-3.186155e+09 -2.986155e+09 -3.146155e+09 -9.303201e+02 -7.708824e+02 -2.288313e+02
-3.206686e+09 -3.006685e+09 -3.166687e+09 -1.495224e+03 -1.816262e+03 -8.863611e+02
-3.423664e+09 -3.223656e+09 -3.383662e+09 -4.761111e+01 6.808123e+02 -2.798755e+03
-3.210930e+09 -3.010929e+09 -3.170930e+09 -1.065504e+03 -1.251645e+03 -8.939096e+02
-3.278701e+09 -3.078699e+09 -3.238703e+09 -1.524398e+03 -2.136477e+03 -1.529111e+03
-2.963160e+09 -2.763158e+09 -2.923162e+09 -1.228860e+03 -1.977033e+03 -1.539047e+03
-2.700978e+09 -2.500976e+09 -2.660979e+09 -8.750946e+02 -1.388922e+03 -1.275184e+03
-2.281001e+09 -2.081001e+09 -2.241001e+09 -1.847297e+03 -2.233122e+03 -1.459806e+03
-2.280281e+09 -2.080280e+09 -2.240281e+09 -1.703946e+03 -1.972024e+03 -1.351234e+03
-2.251581e+09 -2.051579e+09 -2.211595e+09 6.980482e+02 -1.224367e+04 1.959339e+03
-3.225474e+09 -3.025478e+09 -3.185479e+09 6.395567e+02 -3.759601e+03 6.737150e+02
-2.673279e+09 -2.473283e+09 -2.633286e+09 -3.836379e+02 -6.262168e+03 3.936239e+02
-2.982042e+09 -2.782044e+09 -2.942051e+09 7.793018e+02 -5.272355e+03 2.319362e+03
-3.143809e+09 -2.943812e+09 -3.103816e+09 -3.497335e+02 -4.485763e+03 4.118039e+02
-3.360470e+09 -3.160471e+09 -3.320476e+09 1.267757e+02 -3.504936e+03 6.611476e+02
-3.103084e+09 -2.903060e+09 -3.063076e+09 7.895071e+02 -1.409636e+04 1.400010e+03
-1.557096e+09 -1.357096e+09 -1.517096e+09 6.568150e+01 3.423387e+01 -3.470869e+01
-1.588671e+09 -1.388671e+09 -1.548670e+09 -4.536881e+02 4.981157e+01 -7.453167e+01
-3.385124e+09 -3.185116e+09 -3.345106e+09 -4.798536e+03 -9.495001e+03 4.040649e+03
-2.727956e+09 -2.527942e+09 -2.687961e+09 -5.040427e+02 -6.804725e+03 -4.477476e+03
-2.129928e+09 -1.929903e+09 -2.089895e+09 -1.650175e+04 -3.753299e+04 6.243240e+03
-3.498812e+09 -3.298812e+09 -3.458812e+09 1.873519e+02 1.254778e+01 -1.037400e+01
-2.754167e+09 -2.554163e+09 -2.714088e+09 -5.297864e+03 -1.719309e+04 1.742575e+04
-3.313183e+09 -3.113182e+09 -3.273183e+09 -2.120387e+02 -2.730835e+01 -1.288480e+01
-3.329100e+09 -3.129100e+09 -3.289099e+09 -3.413800e+02 -2.903816e+01 -6.269775e+01
-2.593639e+09 -2.393639e+09 -2.553639e+09 -2.680012e+02 -5.878405e+01 -1.826193e+01
-3.593791e+09 -3.393792e+09 -3.553792e+09 6.705024e+02 -5.428549e+01 -3.602800e+02
-3.420822e+09 -3.220821e+09 -3.380821e+09 -2.931317e+02 -2.876772e+01 -3.787473e+00
-1.570050e+09 -1.370050e+09 -1.530050e+09 -3.928564e+02 -6.008477e+01 1.726853e+01
-1.560327e+09 -1.360346e+09 -1.520335e+09 -1.624416e+04 2.050668e+04 9.686803e+03
-3.047656e+09 -2.847657e+09 -3.007657e+09 -4.428225e+02 -3.262880e+01 1.099956e-01
-3.593792e+09 -3.393792e+09 -3.553792e+09 8.721371e+02 -6.513679e+01 -2.341403e+02
-3.283601e+09 -3.083602e+09 -3.243606e+09 -1.745726e+03 -3.786219e+03 -1.403183e+03
-3.308194e+09 -3.108194e+09 -3.268195e+09 -5.705605e+02 -4.596410e+01 8.281756e+01
-3.393320e+09 -3.193321e+09 -3.353316e+09 -3.835602e+03 -2.245043e+03 4.680475e+03
-3.269056e+09 -3.069065e+09 -3.229055e+09 -6.543575e+02 -6.130060e+01 1.164476e+04
-3.370536e+09 -3.170538e+09 -3.330508e+09 -2.769551e+03 -1.065569e+04 1.113375e+04
-3.622716e+09 -3.422716e+09 -3.582717e+09 6.823559e+02 -1.167713e+03 6.347298e+02
-3.517832e+09 -3.317835e+09 -3.477836e+09 -8.723958e+02 -1.893872e+03 -2.529358e+02
-3.613238e+09 -3.413234e+09 -3.573234e+09 -3.686792e+03 -3.825214e+03 2.116537e+03
-3.405389e+09 -3.205384e+09 -3.365382e+09 -4.107389e+03 -5.596217e+03 2.087971e+03
-1.573830e+09 -1.373798e+09 -1.533876e+09 1.817077e+04 1.579456e+04 1.519027e+04
-2.638086e+09 -2.438082e+09 -2.598080e+09 -3.933407e+03 -3.872886e+03 3.238557e+03
-2.359221e+09 -2.159213e+09 -2.319221e+09 4.779568e+03 4.497907e+03 -5.371572e+01
-2.524705e+09 -2.324686e+09 -2.484681e+09 6.854039e+03 1.567135e+04 4.336736e+03
-2.107421e+09 -1.907393e+09 -2.067349e+09 1.313605e+04 2.695945e+04 1.824828e+04
-1.788381e+09 -1.588295e+09 -1.748345e+09 7.237019e+03 2.532988e+04 -2.143713e+04
-3.259975e+09 -3.059976e+09 -3.219975e+09 5.633703e+02 -1.168299e+01 -1.701484e+02
-3.316791e+09 -3.116786e+09 -3.276797e+09 -1.038068e+03 -2.925358e+03 9.791067e+02
-1.596440e+09 -1.396439e+09 -1.556439e+09 2.818637e+01 4.718864e+01 -4.333953e+01
-3.189216e+09 -2.989216e+09 -3.149216e+09 -6.055894e+02 -3.498481e+01 2.025583e+01
-3.593791e+09 -3.393792e+09 -3.553792e+09 5.458073e+02 -3.076983e+01 -3.355446e+02
-3.049783e+09 -2.849784e+09 -3.009784e+09 2.050981e+02 -4.829565e+00 -2.167596e+02
-1.588726e+09 -1.388727e+09 -1.548727e+09 5.284100e+02 2.866451e+01 -1.031763e+02
-1.619359e+09 -1.419359e+09 -1.579359e+09 3.585632e+02 4.826759e+01 -1.600410e+01
-2.136485e+09 -1.936483e+09 -2.096484e+09 -1.281062e+03 -1.076363e+03 -9.423884e+02
-2.081351e+09 -1.881354e+09 -2.041352e+09 -2.785063e+03 -3.705975e+03 -1.857352e+03
-2.102280e+09 -1.902281e+09 -2.062281e+09 -1.983476e+03 -2.350601e+03 -1.141631e+03
-2.685244e+09 -2.485245e+09 -2.645246e+09 -1.863847e+03 -2.398198e+03 -1.088308e+03
-2.212510e+09 -2.012509e+09 -2.172510e+09 -1.749614e+03 -1.705408e+03 -1.037788e+03
-1.589185e+09 -1.389186e+09 -1.549186e+09 4.050474e+02 4.538216e+01 -3.541216e+01
-3.116929e+09 -2.916925e+09 -3.076906e+09 1.191417e+03 4.062213e+03 1.561278e+04
-2.173799e+09 -1.973805e+09 -2.133782e+09 -7.171019e+03 -9.317553e+03 2.667912e+04
-2.522880e+09 -2.322882e+09 -2.482830e+09 3.922942e+03 4.049292e+02 3.258459e+04
-1.751677e+09 -1.551633e+09 -1.711637e+09 2.174166e+04 -1.721466e+04 -1.161163e+04
-2.168081e+09 -1.968062e+09 -2.128055e+09 1.168934e+03 -9.742951e+03 3.439706e+04
-1.757392e+09 -1.557367e+09 -1.717382e+09 -2.527761e+04 -4.850599e+04 -2.769249e+03
-3.165110e+09 -2.965105e+09 -3.125076e+09 -4.120757e+03 -1.384693e+04 3.661544e+03
-1.739638e+09 -1.539639e+09 -1.699639e+09 7.401352e+02 -3.543031e+01 -3.273457e+02
-3.593302e+09 -3.393301e+09 -3.553301e+09 1.306737e+03 -7.692961e+02 -1.121465e+03
-2.522484e+09 -2.322483e+09 -2.482484e+09 -1.211077e+03 -1.200223e+03 -1.031827e+03
-1.794887e+09 -1.594889e+09 -1.754887e+09 -1.133224e+03 2.495085e+02 4.531822e+01
-1.573904e+09 -1.373906e+09 -1.533906e+09 1.611812e+03 -5.101156e+02 -1.859207e+03
-1.813156e+09 -1.613185e+09 -1.773154e+09 6.163117e+02 -4.071529e+01 3.285950e+04
-2.519421e+09 -2.319386e+09 -2.479387e+09 -7.468798e+03 -2.660227e+04 3.920908e+03
-3.578669e+09 -3.378669e+09 -3.538669e+09 1.956455e+02 -2.117670e+00 -2.841885e+01
-2.576584e+09 -2.376569e+09 -2.536590e+09 2.726521e+03 -4.643519e+03 -2.661277e+03
-1.661125e+09 -1.461128e+09 -1.621125e+09 1.158648e+03 3.836142e+02 -3.936212e+01
-1.598285e+09 -1.398285e+09 -1.558285e+09 1.868840e+02 2.378662e+01 -2.898799e+01
-2.537220e+09 -2.337223e+09 -2.497221e+09 1.012286e+03 3.957280e+02 -3.846252e+01
-2.360408e+09 -2.160408e+09 -2.320408e+09 2.347830e+02 3.114275e+01 -1.764501e+01
-1.754671e+09 -1.554673e+09 -1.714671e+09 1.058586e+03 3.451916e+02 -6.955798e+01
-1.584709e+09 -1.384709e+09 -1.544709e+09 3.309720e+02 4.070815e+01 -2.416222e+00
-2.208482e+09 -2.008483e+09 -2.168482e+09 -3.428103e+02 4.077620e+00 -4.244873e+01
-1.853226e+09 -1.653228e+09 -1.813226e+09 7.846787e+02 2.081671e+02 -2.357056e+01
-1.582088e+09 -1.382088e+09 -1.542088e+09 2.094788e+02 5.607863e+01 -4.014411e+01
-3.596553e+09 -3.396553e+09 -3.556553e+09 -1.270019e+02 -5.864308e+00 -2.890807e+01
-1.589186e+09 -1.389186e+09 -1.549186e+09 2.897576e+02 5.254708e+01 -1.587276e+00
-3.619864e+09 -3.419863e+09 -3.579863e+09 -2.883248e+02 2.084775e+01 -7.883521e+00
-2.027382e+09 -1.827384e+09 -1.987381e+09 1.128885e+03 3.045193e+02 -1.039200e+02
-3.379258e+09 -3.179261e+09 -3.339269e+09 2.282404e+03 7.308711e+03 -2.542859e+03
-1.734829e+09 -1.534854e+09 -1.694835e+09 3.722052e+03 1.358252e+04 -3.246760e+03
-1.875755e+09 -1.675758e+09 -1.835756e+09 -4.045307e+02 2.003045e+02 -1.905466e+01
-2.792135e+09 -2.592136e+09 -2.752135e+09 -1.117836e+03 3.648308e+02 1.128612e+02
-2.755173e+09 -2.555176e+09 -2.715182e+09 2.664179e+03 9.307528e+03 -3.577110e+03
-1.984178e+09 -1.784183e+09 -1.944179e+09 -4.593038e+02 8.175917e+02 7.569412e+01
-2.394653e+09 -2.194661e+09 -2.354659e+09 1.717596e+02 -5.621939e+03 5.653676e+02
-1.591553e+09 -1.391563e+09 -1.551555e+09 -1.941759e+03 3.402631e+03 3.696001e+02
-1.711788e+09 -1.511795e+09 -1.671791e+09 -2.863200e+02 -2.629272e+03 5.155019e+01
-2.818877e+09 -2.618881e+09 -2.778881e+09 -1.914851e+02 -3.836846e+03 3.992048e+01
-1.591552e+09 -1.391559e+09 -1.551554e+09 -1.513396e+03 2.445523e+03 3.126867e+02
-2.677971e+09 -2.477977e+09 -2.637975e+09 1.981675e+02 -3.491059e+03 3.788902e+02
-1.785480e+09 -1.585489e+09 -1.745483e+09 -1.143074e+03 -4.091604e+03 -4.918975e+02
-3.613948e+09 -3.413951e+09 -3.573950e+09 1.591773e+03 1.306082e+03 -2.241144e+02
-2.324711e+09 -2.124717e+09 -2.284714e+09 -5.905267e+02 -2.546875e+03 -1.363872e+02
-3.583124e+09 -3.383123e+09 -3.543123e+09 2.109803e+01 -1.900762e+00 -2.051180e+01
-3.616908e+09 -3.416907e+09 -3.576907e+09 5.929690e+02 -1.220993e+01 -9.300943e+01
-3.592953e+09 -3.392953e+09 -3.552953e+09 -1.199534e+03 2.989626e+02 2.422074e+02
-1.593511e+09 -1.393510e+09 -1.553510e+09 -3.700118e+02 1.745536e+02 -2.927652e+01
-3.498920e+09 -3.298920e+09 -3.458920e+09 1.572937e+02 7.940695e+00 3.148887e+00
-1.782135e+09 -1.582134e+09 -1.742134e+09 3.249994e+03 1.679020e+03 -1.506718e+03
-1.584480e+09 -1.384480e+09 -1.544480e+09 4.117921e+02 5.562754e+01 -6.259477e+01
-2.084073e+09 -1.884077e+09 -2.044073e+09 4.463986e+03 3.377493e+03 -1.491794e+03
-1.598398e+09 -1.398398e+09 -1.558398e+09 4.824664e+02 5.672491e+01 -6.670337e+01
-3.176139e+09 -2.976137e+09 -3.136142e+09 2.843714e+03 2.687483e+03 -2.274914e+03
-3.594545e+09 -3.394543e+09 -3.554544e+09 1.016747e+02 -1.321837e+00 -3.152441e+01
-3.619864e+09 -3.419864e+09 -3.579863e+09 -3.401750e+02 -3.112436e+01 -3.804782e+01
-1.948049e+09 -1.748049e+09 -1.908049e+09 4.404227e+03 2.870284e+03 -2.427479e+03
-2.453508e+09 -2.253496e+09 -2.413506e+09 3.626957e+02 3.249448e+03 -2.367620e+03
-2.092189e+09 -1.892187e+09 -2.052188e+09 -3.741921e+02 -1.850233e+02 4.143746e+02
-2.152624e+09 -1.952623e+09 -2.112624e+09 -9.301157e+02 5.287122e+01 9.717188e+01
-1.588735e+09 -1.388742e+09 -1.548736e+09 -1.559854e+03 1.821707e+03 3.556078e+02
-3.254856e+09 -3.054855e+09 -3.214855e+09 -1.438737e+03 4.090103e+02 7.360472e+01
-2.685194e+09 -2.485193e+09 -2.645193e+09 1.314740e+03 -7.347256e+02 -1.383165e+03
-3.599107e+09 -3.399100e+09 -3.559119e+09 2.494227e+03 -3.373486e+02 1.854526e+03
-3.204670e+09 -3.004671e+09 -3.164671e+09 -8.842797e+02 5.252485e+01 -1.119476e+02
-2.520542e+09 -2.320544e+09 -2.480543e+09 -2.369863e+02 1.087499e+02 -4.260470e+02
-3.078896e+09 -2.878888e+09 -3.038894e+09 9.119602e+02 -9.371812e+03 -4.637597e+03
-3.585606e+09 -3.385598e+09 -3.545577e+09 -2.979886e+03 -6.570978e+03 -8.724323e+02
-2.561850e+09 -2.361852e+09 -2.521872e+09 7.495237e+03 1.867156e+04 -5.028626e+03
-3.579113e+09 -3.379115e+09 -3.539114e+09 -1.292939e+03 5.095243e+02 2.446972e+02
-2.535575e+09 -2.335575e+09 -2.495575e+09 -1.288222e+03 1.907214e+02 -2.342711e+02
-2.964736e+09 -2.764737e+09 -2.924736e+09 -1.085891e+03 2.237642e+02 -3.138839e+02
-1.576437e+09 -1.376437e+09 -1.536437e+09 -3.926824e+02 1.811421e+02 -6.074388e+01
-1.685089e+09 -1.485090e+09 -1.645090e+09 -2.986437e+02 -3.260090e+01 1.138690e+01
-3.053345e+09 -2.853346e+09 -3.013346e+09 -4.428787e+02 -2.375602e+00 -1.828501e+01
-2.243245e+09 -2.043246e+09 -2.203245e+09 -2.785156e+02 -1.383307e+01 -4.941270e+00
-3.147884e+09 -2.947885e+09 -3.107884e+09 -2.973941e+02 -1.617920e+01 6.201731e+00
-1.849243e+09 -1.649243e+09 -1.809243e+09 -3.561325e+02 -2.143925e+01 1.917935e+01
-2.785123e+09 -2.585124e+09 -2.745124e+09 -4.889685e+02 -2.475787e+01 5.387004e+00
-1.973148e+09 -1.773149e+09 -1.933149e+09 -2.788319e+02 -2.261751e+01 1.971122e+01
-3.374388e+09 -3.174387e+09 -3.334388e+09 4.443785e+02 -2.051225e+01 -9.132476e+01
-2.569144e+09 -2.369146e+09 -2.529145e+09 3.460132e+02 -3.889714e+01 -5.165887e+02
-1.596003e+09 -1.396004e+09 -1.556003e+09 5.091118e+02 2.481052e+01 -1.888900e+02
-3.382533e+09 -3.182533e+09 -3.342533e+09 3.340428e+02 -6.522791e+00 -1.007150e+02
-2.528353e+09 -2.328354e+09 -2.488354e+09 -2.072693e+02 -8.278400e+00 7.681896e+00
-2.547040e+09 -2.347039e+09 -2.507040e+09 4.281753e+02 -2.948313e+01 -1.360338e+02
-2.449142e+09 -2.249142e+09 -2.409142e+09 5.259531e+02 1.357720e+01 -1.004187e+02
-2.479099e+09 -2.279099e+09 -2.439099e+09 5.326515e+02 -1.307059e+01 -1.721233e+02
-2.765030e+09 -2.565030e+09 -2.725030e+09 3.492929e+02 -8.347590e+00 -2.168298e+01
-3.131521e+09 -2.931517e+09 -3.091521e+09 -1.032882e+03 8.048901e+02 1.132109e+03
-2.768367e+09 -2.568366e+09 -2.728366e+09 -1.530335e+01 -4.523752e+01 -7.203302e+01
-2.293365e+09 -2.093365e+09 -2.253364e+09 -1.032820e+03 -6.917899e+02 -2.952667e+02
-3.093946e+09 -2.893947e+09 -3.053945e+09 1.376721e+03 -5.732840e+02 -1.716914e+03
-1.774372e+09 -1.574370e+09 -1.734371e+09 -4.117511e+02 -1.334616e+02 6.075008e+02
-1.685606e+09 -1.485607e+09 -1.645608e+09 -1.761289e+03 7.834494e+02 -1.640884e+03
-1.556297e+09 -1.356291e+09 -1.516292e+09 1.563786e+03 3.168419e+02 1.257426e+03
-3.302806e+09 -3.102806e+09 -3.262805e+09 -1.172253e+03 4.293964e+02 -3.224629e+02
-3.051490e+09 -2.851486e+09 -3.011489e+09 -4.250166e+02 -2.386656e+02 1.833133e+03
-3.423198e+09 -3.223197e+09 -3.383199e+09 4.499385e+02 -1.239464e+03 1.004320e+03
-3.410163e+09 -3.210159e+09 -3.370163e+09 -1.983642e+03 2.962122e+02 1.030412e+03
-3.149653e+09 -2.949650e+09 -3.109653e+09 2.817090e+02 -7.726163e+02 1.410490e+03
-2.514466e+09 -2.314461e+09 -2.474465e+09 -8.027008e+02 -2.640611e+01 1.407906e+03
-2.885834e+09 -2.685837e+09 -2.845836e+09 1.510102e+03 4.722873e+02 1.442175e+03
-3.019160e+09 -2.819159e+09 -2.979160e+09 -1.077834e+03 -8.093181e+01 2.722912e+02
-1.741221e+09 -1.541219e+09 -1.701220e+09 -4.656711e+02 -8.028270e+01 5.069250e+02
-3.503642e+09 -3.303639e+09 -3.463650e+09 -8.797935e+02 -3.359259e+03 5.859082e+02
-1.623616e+09 -1.423615e+09 -1.583616e+09 -1.553311e+03 -1.164098e+03 -7.592461e+02
-2.150604e+09 -1.950601e+09 -2.110603e+09 -1.128848e+02 -5.586882e+02 1.051079e+03
-2.520439e+09 -2.320439e+09 -2.480439e+09 2.976247e+02 1.057338e+01 -3.310914e+01
-3.038204e+09 -2.838204e+09 -2.998204e+09 3.500061e+02 2.905452e+01 -1.895598e+01
-2.636478e+09 -2.436478e+09 -2.596478e+09 3.509154e+02 9.049491e+00 -7.428204e+01
-2.596594e+09 -2.396598e+09 -2.556595e+09 -4.218371e+02 3.880412e+02 8.654908e+00
-2.264320e+09 -2.064322e+09 -2.224320e+09 -1.199882e+03 -1.217161e+03 -2.965013e+02
-2.429916e+09 -2.229916e+09 -2.389916e+09 3.490226e+02 2.916425e+01 -3.945266e+01
-1.784150e+09 -1.584150e+09 -1.744150e+09 2.739115e+02 4.116258e+01 -1.798207e+01
-1.820130e+09 -1.620130e+09 -1.780130e+09 3.237742e+02 2.827110e+01 -3.595600e+01
-2.074041e+09 -1.874050e+09 -2.034046e+09 1.726472e+03 -1.320825e+03 9.378131e+03
-2.128505e+09 -1.928510e+09 -2.088515e+09 5.865063e+03 3.247319e+03 7.528626e+03
-2.814635e+09 -2.614633e+09 -2.774623e+09 4.418752e+03 7.008876e+03 4.621678e+03
-3.407547e+09 -3.207550e+09 -3.367547e+09 -6.034781e+02 1.559661e+02 1.848599e+00
-3.337001e+09 -3.137006e+09 -3.297003e+09 1.953569e+03 1.260220e+03 3.484114e+03
-3.032307e+09 -2.832312e+09 -2.992310e+09 2.781580e+03 9.194212e+02 3.306841e+03
-2.690012e+09 -2.490020e+09 -2.650010e+09 7.510838e+02 1.968203e+03 1.131803e+04
-1.980138e+09 -1.780142e+09 -1.940139e+09 2.311727e+03 -3.353114e+03 1.566177e+03
-3.207908e+09 -3.007906e+09 -3.167903e+09 4.688112e+03 4.152542e+03 2.970416e+03
-3.447808e+09 -3.247805e+09 -3.407810e+09 3.111635e+02 -1.435134e+03 -1.445715e+03
-3.133472e+09 -2.933469e+09 -3.093469e+09 3.970965e+03 2.296685e+03 1.852052e+03
-3.111109e+09 -2.911108e+09 -3.071099e+09 7.819887e+03 1.172609e+04 1.227791e+04
-2.730277e+09 -2.530282e+09 -2.690272e+09 1.769905e+03 1.337607e+03 1.315879e+04
-3.353915e+09 -3.153918e+09 -3.313922e+09 3.122996e+02 -5.111987e+03 1.018131e+03
-1.865342e+09 -1.665343e+09 -1.825342e+09 -1.361980e+03 4.417209e+02 1.984569e+02
-1.944623e+09 -1.744623e+09 -1.904622e+09 -7.755444e+02 6.063872e+01 -4.900857e+00
-1.801437e+09 -1.601440e+09 -1.761437e+09 1.760662e+03 -1.825887e+03 9.124003e+02
-2.022331e+09 -1.822333e+09 -1.982331e+09 -1.278241e+03 3.693365e+02 1.500507e+02
-1.694378e+09 -1.494395e+09 -1.654389e+09 -6.032888e+03 -1.268033e+04 -2.344602e+03
-3.142571e+09 -2.942568e+09 -3.102571e+09 -6.971766e+02 -6.254000e+01 1.004330e+03
-3.384436e+09 -3.184438e+09 -3.344437e+09 -1.306594e+03 5.185393e+02 2.457187e+02
-3.615727e+09 -3.415724e+09 -3.575726e+09 1.250457e+03 -6.586068e+02 -1.775772e+02
-3.598907e+09 -3.398909e+09 -3.558907e+09 -7.154103e+02 1.441949e+02 3.613732e+01
-1.780211e+09 -1.580212e+09 -1.740211e+09 -9.631873e+02 2.304659e+02 8.082744e+01
-2.054400e+09 -1.854400e+09 -2.014399e+09 -1.077240e+03 1.288846e+02 9.154986e+01
-1.763752e+09 -1.563736e+09 -1.723752e+09 1.064362e+04 7.320598e+03 9.281081e+02
-1.795210e+09 -1.595215e+09 -1.755225e+09 7.029007e+03 1.768837e+03 7.981610e+03
-2.988033e+09 -2.788035e+09 -2.948034e+09 1.503755e+03 7.157114e+02 -2.272113e+02
-2.682923e+09 -2.482923e+09 -2.642924e+09 -3.316582e+02 -3.767466e+01 4.203736e+01
-2.288683e+09 -2.088682e+09 -2.248682e+09 -1.901194e+02 -1.526046e+01 -2.235266e+01
-2.528786e+09 -2.328788e+09 -2.488786e+09 7.165377e+02 2.156538e+02 5.577479e+00
-3.229474e+09 -3.029476e+09 -3.189475e+09 1.093768e+03 3.629485e+02 -1.166156e+02
-2.275184e+09 -2.075184e+09 -2.235184e+09 -1.848503e+02 -8.942717e+00 -4.587360e+00
-3.476101e+09 -3.276100e+09 -3.436100e+09 -2.241585e+02 -1.781088e+01 -1.473115e+01
-2.182626e+09 -1.982630e+09 -2.142627e+09 1.154048e+03 7.441525e+02 -1.125212e+02
-1.676403e+09 -1.476403e+09 -1.636403e+09 -2.290804e+02 -3.638604e+01 -8.706399e+00
-2.570137e+09 -2.370140e+09 -2.530138e+09 1.487592e+03 6.543891e+02 -1.753154e+02
-3.478508e+09 -3.278509e+09 -3.438509e+09 -2.316507e+02 -8.495075e+00 -5.451282e-02
-1.680165e+09 -1.480165e+09 -1.640165e+09 -1.499684e+02 -2.750261e+01 1.008628e+01
-2.151703e+09 -1.951700e+09 -2.111703e+09 -1.816333e+03 -2.741523e+03 -1.956750e+03
-2.666989e+09 -2.466982e+09 -2.626959e+09 2.722046e+03 -1.597545e+04 -1.331185e+04
-3.355551e+09 -3.155544e+09 -3.315546e+09 2.932948e+03 -8.869650e+03 -1.403496e+03
-3.046859e+09 -2.846834e+09 -3.006869e+09 -4.617227e+03 -9.518975e+03 3.104924e+03
-1.718176e+09 -1.518183e+09 -1.678179e+09 8.150757e+02 -2.432031e+03 3.837040e+02
-1.820741e+09 -1.620742e+09 -1.780769e+09 -1.320835e+04 3.098471e+04 9.531464e+03
-2.012895e+09 -1.812893e+09 -1.972895e+09 4.940342e+02 -9.696504e+02 9.723656e+02
-2.001124e+09 -1.801122e+09 -1.961123e+09 3.168178e+02 -5.685181e+02 6.493946e+02
-2.171360e+09 -1.971336e+09 -2.131400e+09 -9.575850e+03 1.346067e+04 -8.148129e+02
-3.593650e+09 -3.393649e+09 -3.553650e+09 -2.880261e+02 -2.235697e+01 -3.091679e+01
-2.739243e+09 -2.539243e+09 -2.699243e+09 4.963591e+02 1.714141e+01 -1.153686e+02
-1.617903e+09 -1.417902e+09 -1.577902e+09 6.277004e+02 -6.568859e+02 4.689983e+02
-2.657771e+09 -2.457770e+09 -2.617770e+09 1.497967e+02 -2.663886e+02 1.562747e+02
-2.362335e+09 -2.162334e+09 -2.322335e+09 1.824618e+02 2.440531e+01 -8.812803e+01
-3.161216e+09 -2.961215e+09 -3.121215e+09 5.507424e+02 -1.022213e+01 -1.186057e+02
-2.476925e+09 -2.276925e+09 -2.436925e+09 3.248499e+02 2.110592e+01 -6.899323e+01
-1.875503e+09 -1.675502e+09 -1.835502e+09 3.079920e+02 3.694099e+01 -5.516979e+01
-1.593844e+09 -1.393843e+09 -1.553842e+09 1.289173e+03 -1.038840e+03 1.088501e+03
-1.606494e+09 -1.406491e+09 -1.566493e+09 -2.863218e+02 -7.757183e+01 5.337221e+02
-1.794464e+09 -1.594464e+09 -1.754464e+09 4.580455e+02 3.684725e+01 -5.389879e+01
-2.716278e+09 -2.516277e+09 -2.676278e+09 3.519492e+02 4.508003e+00 -5.601337e+01
-2.344408e+09 -2.144408e+09 -2.304408e+09 7.624222e+01 3.581251e+01 -3.606471e+01
-3.067508e+09 -2.867509e+09 -3.027509e+09 -2.823519e+02 -1.093031e+01 -3.965395e+01
-2.382441e+09 -2.182440e+09 -2.342440e+09 8.942354e+01 3.557948e+01 -4.712402e+01
-3.431034e+09 -3.231035e+09 -3.391035e+09 2.054063e+02 1.040557e+01 -7.857959e+00
-2.072693e+09 -1.872693e+09 -2.032693e+09 2.592005e+02 2.922956e+01 -5.814794e+00
-3.038921e+09 -2.838921e+09 -2.998921e+09 3.083905e+01 4.684355e+00 -2.656593e+01
-2.695506e+09 -2.495505e+09 -2.655505e+09 -6.163649e+01 -8.197654e+00 -3.285712e+01
-2.607349e+09 -2.407349e+09 -2.567349e+09 -1.616143e+02 3.686789e+01 -7.808716e+00
-2.029458e+09 -1.829459e+09 -1.989459e+09 -6.880257e+02 -3.461402e+01 -2.285487e+01
-1.560733e+09 -1.360735e+09 -1.520734e+09 -1.427498e+02 -1.594305e+01 -3.602502e+01
-2.620371e+09 -2.420371e+09 -2.580371e+09 5.861567e+01 -1.644711e+00 -5.786665e+01
-2.819258e+09 -2.619258e+09 -2.779258e+09 4.913740e+02 9.398027e+00 -8.354622e+01
-3.108562e+09 -2.908563e+09 -3.068563e+09 3.596516e+02 3.125022e+01 -1.107276e+02
-2.417058e+09 -2.217059e+09 -2.377058e+09 2.815145e+02 1.299249e+01 -1.611865e+02
-3.478585e+09 -3.278586e+09 -3.438586e+09 -1.661537e+02 -5.204770e+00 2.915716e+00
-1.823015e+09 -1.623016e+09 -1.783016e+09 6.632362e+02 -1.167309e+01 -2.565312e+02
-2.481907e+09 -2.281908e+09 -2.441908e+09 5.362214e+02 -3.788357e+00 -1.747772e+02
-2.447459e+09 -2.247460e+09 -2.407460e+09 5.978922e+02 4.727820e+00 -1.017061e+02
-2.454559e+09 -2.254561e+09 -2.414560e+09 1.882120e+02 -9.032328e-01 -1.609440e+02
-3.201491e+09 -3.001492e+09 -3.161492e+09 4.927642e+02 -2.156957e+00 -9.757430e+01
-3.112733e+09 -2.912735e+09 -3.072734e+09 3.702249e+02 4.850088e+00 -2.362464e+02
-3.478444e+09 -3.278445e+09 -3.438445e+09 -2.625668e+02 -6.792021e+00 4.419668e+00
-2.065235e+09 -1.865236e+09 -2.025236e+09 2.514224e+02 -4.050064e+01 -1.030681e+02
-3.597188e+09 -3.397189e+09 -3.557189e+09 -3.687727e+02 -2.974407e+01 4.989162e+01
-3.402231e+09 -3.202232e+09 -3.362232e+09 3.841475e+02 -3.279310e+00 -1.444165e+02
-3.163545e+09 -2.963545e+09 -3.123545e+09 -2.961150e+02 -2.317932e+01 2.462211e+01
-1.770141e+09 -1.570143e+09 -1.730143e+09 1.369033e+03 -4.809308e+02 -2.189865e+03
-2.427180e+09 -2.227182e+09 -2.387181e+09 1.624541e+03 -6.601205e+02 -1.983422e+03
-2.914277e+09 -2.714281e+09 -2.874279e+09 4.578329e+02 -1.790388e+03 2.047749e+02
-1.698309e+09 -1.498314e+09 -1.658310e+09 8.975508e+02 -1.891173e+03 2.950905e+02
-3.100359e+09 -2.900358e+09 -3.060358e+09 1.221206e+03 -5.993346e+02 -4.639477e+02
-1.686484e+09 -1.486485e+09 -1.646484e+09 -1.487026e+03 -9.955375e+02 -4.340456e+02
-3.289146e+09 -3.089146e+09 -3.249146e+09 1.201565e+03 -3.012900e+02 -1.145245e+03
-1.875153e+09 -1.675148e+09 -1.835151e+09 1.619955e+03 -9.277849e+02 -8.500944e+02
-1.859744e+09 -1.659742e+09 -1.819743e+09 2.435935e+03 -1.353417e+03 -1.885932e+03
-2.243590e+09 -2.043596e+09 -2.203593e+09 -6.016412e+02 -3.285711e+03 -1.412064e+02
-1.710605e+09 -1.510607e+09 -1.670605e+09 1.421380e+03 -1.001601e+03 5.050915e+02
-1.756432e+09 -1.556431e+09 -1.716432e+09 1.274294e+03 -5.538630e+02 -8.291242e+02
-1.775423e+09 -1.575424e+09 -1.735425e+09 1.146632e+03 -3.511262e+02 -1.196304e+03
-2.456917e+09 -2.256916e+09 -2.416916e+09 8.418569e+02 -3.648439e+02 -3.246205e+02
-2.344911e+09 -2.144915e+09 -2.304912e+09 8.805891e+02 -1.441225e+03 3.219253e+02
-3.503313e+09 -3.303309e+09 -3.463318e+09 -1.034222e+03 -2.664311e+03 1.755744e+03
-1.672105e+09 -1.472108e+09 -1.632107e+09 6.716933e+03 -6.344614e+03 4.597076e+03
-2.606393e+09 -2.406391e+09 -2.566393e+09 -5.897891e+02 -1.218640e+03 -1.246658e+03
-3.294839e+09 -3.094836e+09 -3.254839e+09 8.438311e+01 -6.150826e+02 -1.115661e+03
-2.918957e+09 -2.718955e+09 -2.878957e+09 -1.313084e+02 -7.081424e+02 -1.128295e+03
-1.581126e+09 -1.381135e+09 -1.541129e+09 -1.719338e+03 -3.814681e+03 -4.634186e+02
-3.098741e+09 -2.898739e+09 -3.058742e+09 -7.307723e+02 -1.077466e+03 -1.089940e+03
-1.591312e+09 -1.391312e+09 -1.551311e+09 -3.020057e+03 -2.216281e+03 -1.640850e+03
-2.162194e+09 -1.962192e+09 -2.122197e+09 -3.458017e+03 -4.181220e+03 -3.886495e+03
-2.565397e+09 -2.365395e+09 -2.525398e+09 -1.536101e+03 -1.571652e+03 -1.689528e+03
-1.686484e+09 -1.486484e+09 -1.646483e+09 -1.046872e+03 -6.103672e+02 -2.510541e+02
-3.231590e+09 -3.031585e+09 -3.191591e+09 7.466874e+02 -9.027713e+02 -1.507850e+03
-2.215419e+09 -2.015419e+09 -2.175419e+09 -2.153561e+03 8.690328e+02 -1.287660e+03
-1.921685e+09 -1.721684e+09 -1.881684e+09 -1.595879e+03 -1.252063e+03 -7.158057e+02
-1.984840e+09 -1.784840e+09 -1.944840e+09 -1.030777e+03 -5.657195e+02 -2.387542e+02
-2.606545e+09 -2.406549e+09 -2.566541e+09 4.002548e+02 5.079044e+02 -4.930915e+03
-2.721841e+09 -2.521841e+09 -2.681842e+09 -1.608432e+03 5.647360e+02 -1.122766e+02
-2.376696e+09 -2.176697e+09 -2.336693e+09 -2.440222e+03 1.757375e+03 -4.144519e+03
-3.435008e+09 -3.235006e+09 -3.395007e+09 -2.627961e+03 1.085618e+03 -3.470465e+02
-3.198097e+09 -2.998096e+09 -3.158097e+09 -8.165497e+02 -6.753560e+02 -4.507705e+02
-2.995172e+09 -2.795173e+09 -2.955171e+09 1.345741e+03 -8.187011e+02 -2.460005e+03
-3.535270e+09 -3.335270e+09 -3.495269e+09 -1.350783e+03 3.128163e+02 -3.085474e+02
-2.646357e+09 -2.446355e+09 -2.606357e+09 -1.316595e+03 6.458635e+02 5.484783e+02
-3.163642e+09 -2.963642e+09 -3.123641e+09 1.143509e+03 2.101310e+02 -6.763613e+01
-1.877704e+09 -1.677705e+09 -1.837704e+09 1.068728e+03 1.349138e+02 -1.347187e+01
-3.285703e+09 -3.085700e+09 -3.245704e+09 -5.857106e+02 -7.251339e+02 -9.610443e+02
-3.587054e+09 -3.387058e+09 -3.547057e+09 -5.013215e+02 1.333162e+03 1.558959e+02
-2.140606e+09 -1.940609e+09 -2.100607e+09 1.050235e+03 3.863905e+02 -4.375651e+01
-1.582878e+09 -1.382882e+09 -1.542878e+09 -6.405336e+02 6.500049e+02 -8.227733e+00
-2.881399e+09 -2.681400e+09 -2.841398e+09 8.057630e+02 1.000910e+02 -1.291417e+01
-3.190216e+09 -2.990218e+09 -3.150216e+09 6.868831e+02 1.266187e+02 9.308341e+00
-1.698333e+09 -1.498334e+09 -1.658333e+09 -3.985334e+02 3.576328e+01 -6.762231e+01
-3.474529e+09 -3.274530e+09 -3.434529e+09 1.105631e+03 2.414319e+02 -7.753632e+01
-1.589249e+09 -1.389252e+09 -1.549249e+09 -5.024013e+02 9.018781e+01 -3.765372e+01
-3.591907e+09 -3.391907e+09 -3.551906e+09 -5.039013e+02 -1.481819e+00 -1.349320e+01
-3.030462e+09 -2.830464e+09 -2.990463e+09 1.421526e+03 4.921503e+02 -1.403494e+02
-1.683393e+09 -1.483393e+09 -1.643393e+09 1.721090e+03 7.936287e+02 -3.375410e+02
-3.600708e+09 -3.400712e+09 -3.560709e+09 2.769743e+02 1.466079e+02 -3.499742e+01
-2.121705e+09 -1.921707e+09 -2.081705e+09 9.659685e+02 2.291059e+02 -4.004326e+01
-3.492517e+09 -3.292518e+09 -3.452517e+09 6.373481e+02 1.705471e+02 -3.283177e+01
-3.492517e+09 -3.292518e+09 -3.452517e+09 9.586674e+02 7.991107e+01 -7.043656e+01
-1.799841e+09 -1.599846e+09 -1.759843e+09 2.161789e+02 8.195684e+02 4.593169e+01
-2.206601e+09 -2.006607e+09 -2.166603e+09 2.421542e+03 4.018387e+03 -8.776916e+02
-2.966105e+09 -2.766108e+09 -2.926106e+09 9.714835e+02 3.055153e+02 -8.388542e+01
-2.594763e+09 -2.394765e+09 -2.554770e+09 4.883418e+03 8.824222e+03 -4.163773e+03
-2.888300e+09 -2.688309e+09 -2.848308e+09 1.740648e+03 5.587054e+03 -8.001132e+02
-1.956540e+09 -1.756542e+09 -1.916540e+09 2.002243e+03 9.959288e+02 -3.975882e+02
-3.280415e+09 -3.080414e+09 -3.240415e+09 1.685984e+03 6.767149e+02 -4.611118e+02
-2.640666e+09 -2.440663e+09 -2.600666e+09 2.567686e+03 2.598991e+03 -2.392142e+03
-2.280741e+09 -2.080742e+09 -2.240741e+09 8.062674e+02 1.012069e+02 2.112353e+01
-1.603846e+09 -1.403843e+09 -1.563844e+09 1.125874e+03 6.601362e+02 -5.516445e+02
-3.413983e+09 -3.213970e+09 -3.373972e+09 -3.670175e+03 5.840791e+03 -2.683435e+03
-3.294019e+09 -3.094021e+09 -3.254022e+09 2.471012e+03 3.084164e+03 -1.312721e+03
-1.678364e+09 -1.478364e+09 -1.638363e+09 1.504811e+03 4.420416e+02 -2.400241e+02
-2.249425e+09 -2.049430e+09 -2.209426e+09 1.163500e+03 1.171894e+03 -7.655123e+01
-3.295885e+09 -3.095884e+09 -3.255885e+09 -8.863186e+02 -4.749185e+01 2.036258e+02
-3.367817e+09 -3.167813e+09 -3.327821e+09 -1.147243e+03 -2.350387e+03 -2.463159e+03
-3.608343e+09 -3.408345e+09 -3.568343e+09 1.194691e+03 2.096169e+02 -1.073400e+02
-3.023148e+09 -2.823146e+09 -2.983147e+09 2.081459e+01 -3.000380e+02 7.713134e+02
-3.394317e+09 -3.194315e+09 -3.354317e+09 -2.435293e+02 -4.456019e+02 8.394425e+02
-3.110465e+09 -2.910464e+09 -3.070465e+09 -6.641701e+02 -1.020653e+02 1.724909e+02
-3.401739e+09 -3.201737e+09 -3.361738e+09 -1.001747e+03 7.342941e+01 2.148457e+02
-2.799820e+09 -2.599820e+09 -2.759820e+09 1.035453e+02 1.429762e+01 -2.214824e+01
-2.020376e+09 -1.820378e+09 -1.980377e+09 -2.034183e+03 -5.392173e+02 1.334908e+03
-1.955067e+09 -1.755067e+09 -1.915067e+09 1.758207e+02 2.903174e+01 -9.731176e+00
-2.360317e+09 -2.160316e+09 -2.320316e+09 8.359695e+01 5.385283e+01 -6.317260e+01
-3.537101e+09 -3.337104e+09 -3.497102e+09 -1.117121e+03 9.349740e+02 2.458825e+02
-2.562045e+09 -2.362045e+09 -2.522045e+09 1.356618e+02 3.433848e+00 -8.171978e+01
-2.022144e+09 -1.822143e+09 -1.982143e+09 1.739323e+01 8.234871e+00 -4.361276e+01
-3.179718e+09 -2.979718e+09 -3.139718e+09 7.564898e+01 3.184036e+01 -6.085254e+01
-3.386624e+09 -3.186623e+09 -3.346623e+09 -2.634957e+01 3.677352e+01 -1.846251e+01
-1.553206e+09 -1.353206e+09 -1.513206e+09 2.838278e+02 4.898752e+01 8.203809e+00
-1.968368e+09 -1.768367e+09 -1.928367e+09 -3.847547e+01 3.856199e+00 -5.320575e+01
-1.573001e+09 -1.373000e+09 -1.533000e+09 2.175775e+02 5.975125e+01 -8.214957e+01
-2.787680e+09 -2.587679e+09 -2.747679e+09 9.373841e+01 4.848484e+00 -3.526222e+01
-2.691338e+09 -2.491339e+09 -2.651338e+09 -5.851491e+02 5.961866e+01 -1.088588e+01
-1.972221e+09 -1.772220e+09 -1.932220e+09 9.132972e+01 7.780119e+00 -3.081445e+01
-3.236998e+09 -3.036997e+09 -3.196997e+09 -1.825880e+02 5.493449e+01 -3.782414e+01
-2.645043e+09 -2.445042e+09 -2.605042e+09 2.231201e+02 1.235314e+01 -4.566915e+01
-2.883770e+09 -2.683770e+09 -2.843770e+09 7.943782e+01 -1.995912e+02 4.913454e+01
-3.602623e+09 -3.402622e+09 -3.562622e+09 -1.149649e+02 3.409027e+01 -2.263243e+01
-3.595980e+09 -3.395980e+09 -3.555980e+09 -1.491089e+03 5.496318e+02 3.722068e+02
-1.974699e+09 -1.774699e+09 -1.934699e+09 1.503062e+02 4.871088e-01 -5.937388e+01
-3.404643e+09 -3.204636e+09 -3.364642e+09 3.296370e+03 2.116547e+03 -7.725825e+01
-1.967580e+09 -1.767579e+09 -1.927579e+09 7.860318e+01 -1.134521e+01 -6.655585e+01
-1.679437e+09 -1.479436e+09 -1.639436e+09 2.642363e+02 4.461309e+01 -6.252287e+01
-2.349669e+09 -2.149669e+09 -2.309669e+09 5.844754e+01 6.211856e+01 -5.955522e+01
-1.759555e+09 -1.559554e+09 -1.719555e+09 5.452910e+01 2.346732e+01 -7.381309e+01
-1.761297e+09 -1.561296e+09 -1.721297e+09 2.384416e+02 6.869747e+01 -3.012490e+01
-1.958675e+09 -1.758674e+09 -1.918674e+09 1.842032e+02 -1.395343e+01 -8.783997e+01
-3.185865e+09 -2.985871e+09 -3.145868e+09 -9.372869e+01 1.458054e+03 2.000467e+01
-3.070763e+09 -2.870769e+09 -3.030767e+09 1.217989e+03 2.210307e+03 -3.959311e+02
-2.224557e+09 -2.024561e+09 -2.184559e+09 -1.032939e+03 -1.878773e+03 -1.578963e+02
-2.186458e+09 -1.986463e+09 -2.146460e+09 2.204892e+03 2.232573e+03 -6.549965e+02
-2.127279e+09 -1.927286e+09 -2.087283e+09 3.231401e+01 -3.173169e+03 2.296952e+02
-2.137407e+09 -1.937414e+09 -2.097409e+09 4.175013e+02 3.128053e+03 -1.615132e+02
-3.577805e+09 -3.377806e+09 -3.537812e+09 -7.920740e+02 -4.379060e+03 -4.278418e+02
-2.475098e+09 -2.275102e+09 -2.435101e+09 1.699591e+03 1.762142e+03 -5.963804e+02
-3.051038e+09 -2.851028e+09 -3.011030e+09 -5.763326e+03 2.985688e+03 -4.503632e+03
-1.785091e+09 -1.585098e+09 -1.745093e+09 -1.216440e+03 2.849118e+03 1.675549e+02
-2.313619e+09 -2.113624e+09 -2.273621e+09 4.554693e+02 -1.786256e+03 2.530737e+02
-1.714306e+09 -1.514308e+09 -1.674305e+09 4.876993e+03 -3.739991e+03 3.015910e+03
-1.581126e+09 -1.381133e+09 -1.541129e+09 -2.942303e+03 -3.698028e+03 -1.115016e+03
-1.786215e+09 -1.586212e+09 -1.746214e+09 2.024473e+03 -1.645935e+03 1.584304e+03
-3.163544e+09 -2.963545e+09 -3.123545e+09 -2.742517e+02 -2.515442e+01 1.480128e+01
-1.591476e+09 -1.391476e+09 -1.551476e+09 -4.106739e+02 -1.019175e+02 6.194046e+01
-3.596502e+09 -3.396501e+09 -3.556502e+09 -1.320718e+03 2.038025e+02 3.132170e+02
-3.589423e+09 -3.389418e+09 -3.549423e+09 1.212726e+03 -7.067701e+02 -1.574305e+03
-1.591037e+09 -1.391035e+09 -1.551036e+09 7.867244e+02 -7.452742e+02 9.340383e+02
-1.747351e+09 -1.547360e+09 -1.707355e+09 2.285324e+03 -6.481425e+03 1.683725e+03
-1.764704e+09 -1.564714e+09 -1.724710e+09 8.103490e+02 -7.090562e+03 5.781334e+02
-2.331544e+09 -2.131553e+09 -2.291552e+09 1.462889e+03 -7.528944e+03 1.488643e+03
-2.141621e+09 -1.941621e+09 -2.101621e+09 -3.145222e+02 -1.834956e+01 -2.439213e+00
-2.608899e+09 -2.408899e+09 -2.568901e+09 2.217991e+03 -3.167641e+03 2.361724e+03
-2.292897e+09 -2.092903e+09 -2.252905e+09 8.133650e+02 -7.773480e+03 -2.846040e+02
-1.874154e+09 -1.674167e+09 -1.834163e+09 -2.059113e+02 -1.229906e+04 5.251395e+02
-1.968686e+09 -1.768687e+09 -1.928687e+09 2.956855e+02 1.083358e+01 -2.936047e+01
-2.609108e+09 -2.409108e+09 -2.569108e+09 2.590402e+02 2.948712e+01 9.006207e+00
-1.974862e+09 -1.774861e+09 -1.934861e+09 -2.618108e+01 -1.195686e+02 3.893328e+01
-3.602807e+09 -3.402808e+09 -3.562807e+09 8.963974e+02 -2.181117e+02 -8.707504e+02
-3.596281e+09 -3.396279e+09 -3.556281e+09 -9.782872e+02 3.816998e+01 4.078736e+02
-2.016425e+09 -1.816425e+09 -1.976425e+09 3.499487e+02 1.304650e+01 -4.068585e+01
-1.749500e+09 -1.549501e+09 -1.709501e+09 2.503168e+02 2.229125e+01 -2.307299e+01
-2.005608e+09 -1.805603e+09 -1.965610e+09 8.160766e+03 8.177088e+03 -9.945817e+03
-1.656040e+09 -1.456040e+09 -1.616040e+09 -7.712428e+02 -1.305544e+02 -1.304748e+01
-3.395357e+09 -3.195357e+09 -3.355357e+09 -4.213174e+02 -2.031361e+01 2.369244e+01
-3.605624e+09 -3.405622e+09 -3.565624e+09 -4.916356e+02 -1.574607e+02 3.397190e+02
-1.564778e+09 -1.364778e+09 -1.524778e+09 -4.436262e+02 -6.932664e+01 3.140267e+01
-3.609430e+09 -3.409429e+09 -3.569429e+09 -3.323393e+02 -6.048432e+01 3.110398e+01
-1.702629e+09 -1.502630e+09 -1.662630e+09 -5.295131e+02 -6.305587e+01 1.067760e+01
-3.496923e+09 -3.296922e+09 -3.456923e+09 -9.101968e+02 -1.265046e+01 2.205165e+02
-3.073035e+09 -2.873035e+09 -3.033036e+09 2.018014e+03 1.558618e+03 -7.002576e+02
-3.591639e+09 -3.391637e+09 -3.551639e+09 2.648824e+01 -4.882395e+02 4.651780e+02
-1.765669e+09 -1.565674e+09 -1.725669e+09 4.507195e+03 3.596407e+03 -1.705560e+03
-2.599949e+09 -2.399950e+09 -2.559949e+09 4.122200e+02 1.239419e+01 -7.643028e+01
-3.386127e+09 -3.186126e+09 -3.346126e+09 2.034277e+02 -1.977130e+01 -9.234557e+01
-1.573001e+09 -1.373000e+09 -1.533000e+09 9.517432e+01 8.952970e+01 -4.819889e+01
-1.561564e+09 -1.361564e+09 -1.521563e+09 -5.863007e+02 7.375353e+01 -8.129324e+01
-2.845448e+09 -2.645443e+09 -2.805450e+09 3.256744e+03 4.475818e+03 -5.630895e+03
-3.269447e+09 -3.069446e+09 -3.229453e+09 3.239809e+02 -5.020365e+03 1.560754e+03
-1.781026e+09 -1.581025e+09 -1.741025e+09 1.261961e+02 3.924914e+01 -4.769324e+01
-3.364086e+09 -3.164087e+09 -3.324092e+09 5.834906e+00 -3.850683e+03 2.682763e+02
-1.584709e+09 -1.384709e+09 -1.544709e+09 2.410091e+02 3.978975e+01 -1.188313e+01
-3.160416e+09 -2.960416e+09 -3.120416e+09 2.317907e+02 2.304908e+01 -1.883448e+01
-1.571620e+09 -1.371620e+09 -1.531620e+09 2.557198e+02 3.939542e+01 2.934331e+01
-2.829272e+09 -2.629274e+09 -2.789278e+09 -1.857791e+03 -5.288522e+03 -1.655247e+03
-3.580103e+09 -3.380101e+09 -3.540104e+09 2.019677e+03 1.599788e+03 -1.396130e+03
-3.218226e+09 -3.018225e+09 -3.178225e+09 -3.419379e+02 -4.011849e+01 -9.762728e+00
-2.422453e+09 -2.222453e+09 -2.382453e+09 -2.151617e+02 1.136255e+02 -2.513160e+01
-3.619864e+09 -3.419863e+09 -3.579863e+09 -2.687221e+02 2.056060e+01 -1.996344e+01
-1.761393e+09 -1.561393e+09 -1.721393e+09 1.507552e+02 1.957383e+01 -3.489247e+01
-3.406485e+09 -3.206485e+09 -3.366485e+09 -2.952634e+02 -7.384928e+01 3.081599e+01
-2.380156e+09 -2.180156e+09 -2.340156e+09 -4.805317e+02 1.251289e+02 -4.767750e+01
-1.557371e+09 -1.357369e+09 -1.517370e+09 -8.224233e+02 2.508684e+02 1.140860e+02
-3.093054e+09 -2.893057e+09 -3.053059e+09 -4.026162e+03 4.861397e+03 2.249505e+03
-3.294458e+09 -3.094457e+09 -3.254457e+09 -1.675447e+02 -7.966651e+01 5.854982e+00
-3.109450e+09 -2.909450e+09 -3.069450e+09 4.609933e+02 -6.262440e+00 -1.455929e+02
-3.588959e+09 -3.388959e+09 -3.548965e+09 -1.542034e+03 4.547359e+03 1.165153e+03
-2.192319e+09 -1.992319e+09 -2.152319e+09 -2.234958e+02 -5.964781e+01 1.561840e+01
-2.592078e+09 -2.392077e+09 -2.552077e+09 -1.642866e+02 -6.111250e+01 -1.507167e+01
-2.994564e+09 -2.794564e+09 -2.954564e+09 -1.663970e+02 -9.079297e+01 -2.564155e+00
-1.740334e+09 -1.540334e+09 -1.700334e+09 7.748893e+01 1.025231e+01 -3.224516e+01
-3.601171e+09 -3.401168e+09 -3.561168e+09 -2.725966e+03 -1.609490e+03 1.064091e+03
-1.931206e+09 -1.731205e+09 -1.891205e+09 1.438481e+02 8.920136e+00 -2.289894e+01
-3.337204e+09 -3.137204e+09 -3.297209e+09 -1.193566e+03 -3.874100e+03 -1.003415e+03
-3.299038e+09 -3.099032e+09 -3.259044e+09 -1.176008e+03 -2.908797e+03 -2.169268e+03
-3.378981e+09 -3.178980e+09 -3.338980e+09 7.182484e+01 1.378253e+01 -1.617741e+01
-2.989348e+09 -2.789347e+09 -2.949347e+09 2.122410e+01 1.248911e+01 -2.911157e+01
-2.005451e+09 -1.805451e+09 -1.965451e+09 1.059534e+02 1.066534e+01 -2.192438e+01
-3.323757e+09 -3.123757e+09 -3.283757e+09 -4.426941e-01 4.012637e+00 -2.715610e+01
-2.590381e+09 -2.390380e+09 -2.550380e+09 1.781388e+02 1.025771e+01 -4.204917e+01
-2.721224e+09 -2.521223e+09 -2.681223e+09 1.365475e+02 1.477759e+01 -1.697668e+01
-3.131947e+09 -2.931947e+09 -3.091947e+09 3.020692e+01 6.727362e+00 -2.823479e+01
-3.604193e+09 -3.404188e+09 -3.564198e+09 -1.983507e+03 -1.775774e+03 1.943201e+02
-1.840037e+09 -1.640036e+09 -1.800036e+09 -9.262906e+00 1.285565e+01 -5.059535e+01
-1.571938e+09 -1.371907e+09 -1.531944e+09 1.773856e+04 1.857323e+04 -2.718466e+04
-3.044571e+09 -2.844571e+09 -3.004571e+09 7.749287e+01 2.876356e+01 -1.360366e+01
-1.870621e+09 -1.670621e+09 -1.830621e+09 9.937651e+01 1.704459e+01 -1.584451e+01
-2.588444e+09 -2.388447e+09 -2.548446e+09 1.450174e+03 -2.596594e+03 1.361079e+03
-1.555341e+09 -1.355351e+09 -1.515349e+09 -4.909647e+03 -9.681975e+03 -4.076920e+03
-2.884830e+09 -2.684829e+09 -2.844829e+09 2.867394e+00 2.331250e+01 -3.286143e+01
-3.373331e+09 -3.173330e+09 -3.333330e+09 3.537868e+01 1.941297e+01 -2.680664e+01
-3.406385e+09 -3.206383e+09 -3.366391e+09 -9.565778e+02 -3.768668e+03 -4.885941e+02
-2.574064e+09 -2.374064e+09 -2.534064e+09 4.616157e+00 4.312935e+01 -3.115140e+01
-2.284173e+09 -2.084172e+09 -2.244172e+09 7.946041e+00 7.134691e+00 -3.022798e+01
-3.539738e+09 -3.339731e+09 -3.499741e+09 -1.158139e+03 -3.251483e+03 -7.157632e+02
-2.098952e+09 -1.898948e+09 -2.058950e+09 6.431052e+02 -9.339772e+02 1.976017e+03
-2.380147e+09 -2.180145e+09 -2.340149e+09 1.439123e+03 -1.995866e+02 -1.063878e+02
-3.619624e+09 -3.419621e+09 -3.579630e+09 -1.113644e+03 -4.479142e+03 -1.607078e+03
-2.458809e+09 -2.258806e+09 -2.418810e+09 1.721762e+03 -1.437169e+02 -1.142533e+03
-3.496350e+09 -3.296344e+09 -3.456356e+09 -3.029098e+02 -3.254970e+03 -1.590008e+03
-2.855707e+09 -2.655703e+09 -2.815708e+09 2.145044e+02 -6.825349e+02 -1.740619e+03
-2.487202e+09 -2.287199e+09 -2.447202e+09 -9.872300e+02 -1.228801e+03 -1.723291e+03
-2.011623e+09 -1.811617e+09 -1.971623e+09 4.118636e+02 -1.592370e+03 -3.533278e+03
-3.167776e+09 -2.967773e+09 -3.127777e+09 1.333738e+03 -5.399436e+02 -1.347433e+03
-3.373203e+09 -3.173199e+09 -3.333205e+09 9.829852e+02 -6.052153e+02 -1.378641e+03
-2.769715e+09 -2.569716e+09 -2.729717e+09 1.546030e+03 -2.806865e+03 1.578644e+03
-2.497608e+09 -2.297607e+09 -2.457608e+09 1.696002e+03 -2.130876e+03 1.733541e+03
-2.610379e+09 -2.410378e+09 -2.570379e+09 -3.518069e+01 -4.224941e+02 5.646510e+02
-1.911589e+09 -1.711588e+09 -1.871589e+09 -3.215142e+02 -2.932427e+02 3.176295e+02
-1.556296e+09 -1.356292e+09 -1.516295e+09 7.406524e+02 -1.410269e+03 1.696064e+03
-2.054730e+09 -1.854732e+09 -2.014731e+09 2.379463e+03 -4.233257e+03 2.367406e+03
-1.821462e+09 -1.621463e+09 -1.781461e+09 1.446799e+03 -1.212441e+03 7.357834e+02
-3.603676e+09 -3.403675e+09 -3.563677e+09 3.326451e+02 -9.881419e+02 7.577137e+02
-3.198652e+09 -2.998657e+09 -3.158655e+09 2.179986e+01 -1.961535e+03 1.038852e+02
-3.292393e+09 -3.092393e+09 -3.252393e+09 5.839650e+02 -5.616659e+02 3.778800e+02
-3.093573e+09 -2.893575e+09 -3.053577e+09 1.806145e+03 -3.755079e+03 1.965116e+03
-2.581209e+09 -2.381208e+09 -2.541209e+09 1.143976e+03 -1.160134e+03 1.165131e+03
-3.489722e+09 -3.289719e+09 -3.449729e+09 -9.802082e+02 -3.449002e+03 1.736533e+03
-1.988836e+09 -1.788835e+09 -1.948835e+09 1.202914e+03 -1.182914e+03 1.340878e+03
-1.997991e+09 -1.797995e+09 -1.957992e+09 2.970395e+03 -4.445851e+03 3.103195e+03
-1.585792e+09 -1.385792e+09 -1.545792e+09 5.099024e+01 5.414546e+01 -8.700013e+01
-3.335796e+09 -3.135792e+09 -3.295798e+09 8.821845e+02 -1.932804e+03 2.078731e+03
-2.639233e+09 -2.439235e+09 -2.599234e+09 1.217727e+03 -1.497132e+03 6.413075e+02
-2.794085e+09 -2.594087e+09 -2.754088e+09 1.681871e+03 -2.834244e+03 1.634137e+03
-1.596003e+09 -1.396003e+09 -1.556003e+09 6.299599e+02 2.040167e+01 -1.394822e+02
-2.541078e+09 -2.341077e+09 -2.501078e+09 1.368686e+03 -1.190516e+03 2.242996e+03
-3.583124e+09 -3.383123e+09 -3.543123e+09 1.079272e+02 1.940867e+01 -1.868040e+01
-1.771043e+09 -1.571048e+09 -1.731044e+09 2.711902e+03 -3.510912e+03 1.949096e+03
-1.856340e+09 -1.656341e+09 -1.816341e+09 -4.227397e+02 -1.838761e+01 -6.408976e+01
-2.125696e+09 -1.925696e+09 -2.085696e+09 -8.078057e+01 -3.581894e+00 -3.661775e+01
-1.839282e+09 -1.639280e+09 -1.799281e+09 -1.323198e+03 4.309922e+02 5.641495e+02
-3.327121e+09 -3.127124e+09 -3.287122e+09 -6.337453e+02 6.609199e+02 1.623883e+01
-3.586546e+09 -3.386546e+09 -3.546546e+09 6.489151e+02 -5.874157e+01 -2.605993e+02
-1.560321e+09 -1.360318e+09 -1.520334e+09 -1.984640e+04 1.918173e+04 1.267886e+04
-3.253796e+09 -3.053797e+09 -3.213803e+09 3.542637e+02 -3.781564e+03 1.868632e+03
-3.158550e+09 -2.958550e+09 -3.118550e+09 2.820481e+02 3.176931e+01 -1.730186e+00
-1.585792e+09 -1.385791e+09 -1.545792e+09 1.372770e+02 3.626266e+01 -4.647135e+01
-3.326018e+09 -3.126018e+09 -3.286018e+09 2.751416e+02 2.220986e+01 -1.751352e+01
-3.580103e+09 -3.380101e+09 -3.540104e+09 1.501415e+03 1.627811e+03 -1.026331e+03
-3.235607e+09 -3.035606e+09 -3.195606e+09 -3.543909e+02 9.508921e+01 -2.513958e+01
-1.578960e+09 -1.378963e+09 -1.538960e+09 -1.777987e+03 1.023634e+03 2.546252e+02
-3.013470e+09 -2.813470e+09 -2.973470e+09 2.718499e+02 3.300112e+01 -1.047325e+01
-2.378416e+09 -2.178416e+09 -2.338416e+09 -5.014167e+02 2.654997e+01 -3.131477e+01
-1.589311e+09 -1.389308e+09 -1.549309e+09 3.627288e+03 -2.303249e+03 -3.462083e+03
-2.992697e+09 -2.792697e+09 -2.952697e+09 2.792932e+02 6.997252e+00 -3.231788e+01
-3.385798e+09 -3.185798e+09 -3.345798e+09 3.391614e+02 2.302919e+01 -7.908676e+00
-3.383183e+09 -3.183183e+09 -3.343183e+09 2.818363e+02 1.806223e+01 -1.995029e+01
-1.587824e+09 -1.387827e+09 -1.547828e+09 4.800494e+03 3.728852e+03 5.135198e+03
-1.712793e+09 -1.512792e+09 -1.672795e+09 -2.188661e+03 -7.617940e+02 5.133284e+02
-3.289593e+09 -3.089595e+09 -3.249592e+09 -3.154226e+03 -1.516187e+03 2.730385e+03
-3.189838e+09 -2.989839e+09 -3.149839e+09 3.216463e+02 3.113427e+01 -7.521603e+00
-1.696240e+09 -1.496238e+09 -1.656238e+09 1.455578e+03 -2.442886e+03 -2.310934e+03
-2.774521e+09 -2.574502e+09 -2.734517e+09 -2.474261e+03 -9.832579e+03 4.735600e+02
-2.792483e+09 -2.592469e+09 -2.752482e+09 2.750611e+02 1.829457e+03 -7.131538e+03
-3.133700e+09 -2.933686e+09 -3.093664e+09 2.883027e+03 1.396386e+04 8.218079e+03
-3.198160e+09 -2.998144e+09 -3.158152e+09 1.855070e+02 -2.036889e+03 -3.948349e+03
-2.162734e+09 -1.962762e+09 -2.122757e+09 1.718913e+04 3.113453e+04 -1.611072e+04
-2.685932e+09 -2.485912e+09 -2.645942e+09 -4.391293e+03 9.890393e+02 -6.125218e+03
-2.995709e+09 -2.795711e+09 -2.955718e+09 -1.431498e+03 -6.026758e+03 -9.832168e+02
-3.407821e+09 -3.207800e+09 -3.367818e+09 -2.180047e+03 -5.756234e+03 -2.820993e+03
-2.132260e+09 -1.932276e+09 -2.092241e+09 3.960520e+03 2.986242e+03 2.914221e+04
-1.695087e+09 -1.495099e+09 -1.655090e+09 -9.231961e+03 9.496796e+03 4.838315e+03
-1.571755e+09 -1.371762e+09 -1.531756e+09 5.594532e+03 5.710635e+03 -2.111337e+03
-3.375471e+09 -3.175459e+09 -3.335482e+09 1.515803e+03 4.493751e+02 -3.788169e+03
-2.373709e+09 -2.173713e+09 -2.333710e+09 7.669757e+02 4.869737e+02 -6.824704e+01
-2.190816e+09 -1.990818e+09 -2.150818e+09 -2.885249e+03 -1.047262e+03 1.653655e+03
-2.992789e+09 -2.792792e+09 -2.952789e+09 5.825646e+02 2.204655e+02 -2.097588e+01
-2.868180e+09 -2.668183e+09 -2.828181e+09 6.203075e+02 1.761821e+02 -5.443948e+00
-3.578353e+09 -3.378351e+09 -3.538366e+09 -2.482584e+02 7.459589e+03 -5.573685e+02
-2.062086e+09 -1.862089e+09 -2.022086e+09 7.368081e+02 3.754947e+02 -3.168054e+01
-3.183124e+09 -2.983127e+09 -3.143124e+09 5.945785e+02 1.294422e+02 3.270755e+01
-3.390118e+09 -3.190122e+09 -3.350129e+09 -6.943745e+02 7.836630e+03 5.837402e+02
-2.175828e+09 -1.975828e+09 -2.135828e+09 1.987877e+03 6.834975e+02 -4.767893e+02
-1.771014e+09 -1.570884e+09 -1.730953e+09 -2.412848e+04 -5.882443e+04 4.283303e+04
-3.578354e+09 -3.378352e+09 -3.538366e+09 1.520073e+03 7.239225e+03 -1.564625e+03
-3.610566e+09 -3.410564e+09 -3.570568e+09 4.474108e+00 -1.322187e+03 1.372897e+03
-1.593847e+09 -1.393845e+09 -1.553844e+09 3.732997e+03 -1.650384e+03 2.197451e+03
-2.420293e+09 -2.220303e+09 -2.380305e+09 5.190705e+03 1.496880e+04 -3.179962e+03
-3.025290e+09 -2.825295e+09 -2.985300e+09 -2.672296e+02 8.374671e+03 1.757606e+03
-1.592375e+09 -1.392366e+09 -1.552369e+09 3.033120e+03 2.260927e+02 2.397094e+03
-2.737112e+09 -2.537110e+09 -2.697112e+09 -1.146999e+02 -5.380072e+02 8.697308e+02
-1.929481e+09 -1.729492e+09 -1.889488e+09 5.953099e+03 1.243729e+04 -4.719728e+03
-1.865784e+09 -1.665801e+09 -1.825790e+09 1.600560e+03 8.414530e+03 -8.522746e+02
-3.604192e+09 -3.404187e+09 -3.564196e+09 -1.271936e+03 -3.684659e+03 -5.250928e+00
-2.046209e+09 -1.846227e+09 -2.006225e+09 8.110565e+02 2.178531e+04 -9.052121e+02
-3.589080e+09 -3.389078e+09 -3.549081e+09 -2.479422e+02 -5.973828e+02 7.661248e+02
-3.149433e+09 -2.949431e+09 -3.109434e+09 2.964067e+02 -8.222211e+02 1.501774e+03
-1.592370e+09 -1.392364e+09 -1.552368e+09 -4.026348e+02 1.454928e+02 9.187485e+02
-1.561125e+09 -1.361085e+09 -1.521120e+09 1.253557e+03 -4.061747e+03 6.506546e+03
-2.284365e+09 -2.084365e+09 -2.244371e+09 1.450350e+03 -8.615556e+03 3.423251e+03
-3.283900e+09 -3.083903e+09 -3.243901e+09 -4.655542e+02 1.482521e+02 -2.753141e+00
-1.577169e+09 -1.377121e+09 -1.537115e+09 -1.608106e+02 2.360265e+04 -1.208200e+04
-2.591856e+09 -2.391860e+09 -2.551859e+09 2.173446e+03 -3.982847e+03 1.906742e+03
-3.088726e+09 -2.888728e+09 -3.048726e+09 -7.341372e+02 2.095097e+02 2.738464e+01
-2.439692e+09 -2.239691e+09 -2.399688e+09 -2.018811e+03 2.128484e+03 -3.537208e+03
-3.390441e+09 -3.190443e+09 -3.350441e+09 -9.451963e+02 3.670089e+02 1.584283e+02
-2.808703e+09 -2.608705e+09 -2.768703e+09 -7.778370e+02 2.165789e+02 1.934242e+01
-2.775043e+09 -2.575046e+09 -2.735044e+09 -6.998683e+02 4.932335e+02 1.311494e+02
-3.539737e+09 -3.339729e+09 -3.499738e+09 -9.896929e+02 -6.157980e+01 -4.756839e+02
-1.946569e+09 -1.746570e+09 -1.906570e+09 -2.463670e+02 -2.374297e+01 4.615400e+00
-2.510998e+09 -2.310998e+09 -2.470998e+09 -4.071077e+02 1.747541e+01 -6.588090e+01
-2.753492e+09 -2.553492e+09 -2.713491e+09 -5.661216e+02 6.534699e+01 4.313723e+00
-1.675490e+09 -1.475414e+09 -1.635409e+09 1.796337e+03 6.139266e+04 -3.002854e+04
-3.602806e+09 -3.402808e+09 -3.562815e+09 -4.561924e+02 5.500530e+03 5.164087e+02
-1.624245e+09 -1.424262e+09 -1.584252e+09 -5.061539e+03 1.080613e+04 1.555430e+03
-2.228329e+09 -2.028338e+09 -2.188338e+09 -3.262674e+03 1.246397e+04 3.327687e+03
-2.752424e+09 -2.552423e+09 -2.712437e+09 1.824447e+03 1.247479e+04 -3.928659e+03
-3.580893e+09 -3.380886e+09 -3.540910e+09 5.972243e+01 5.665668e+03 -2.255015e+03
-1.741884e+09 -1.541884e+09 -1.701884e+09 -6.381836e+02 1.472896e+02 -2.658662e+01
-2.534332e+09 -2.334333e+09 -2.494332e+09 -5.984183e+02 8.818563e+01 -8.562321e+00
-3.558316e+09 -3.358315e+09 -3.518314e+09 1.461079e+03 -2.962683e+02 -8.356558e+02
-2.610002e+09 -2.410002e+09 -2.570002e+09 -3.465501e+02 5.193167e+01 -5.115094e+01
-2.071738e+09 -1.871739e+09 -2.031737e+09 -5.884120e+02 1.568847e+01 -2.365496e+01
-2.165148e+09 -1.965146e+09 -2.125147e+09 2.787431e+02 -3.094330e+01 -9.537433e+01
-3.614144e+09 -3.414144e+09 -3.574142e+09 -1.625926e+03 5.568962e+02 -9.689389e+02
-1.570938e+09 -1.370937e+09 -1.530938e+09 1.072273e+03 -4.128840e+02 -7.959950e+02
-2.104516e+09 -1.904516e+09 -2.064511e+09 1.103751e+03 -1.860193e+03 -7.578497e+03
-2.133157e+09 -1.933160e+09 -2.093157e+09 -1.156573e+03 6.388413e+02 1.536760e+02
-1.796620e+09 -1.596624e+09 -1.756621e+09 -4.916436e+02 4.428098e+02 -1.077233e+01
-1.997455e+09 -1.797458e+09 -1.957455e+09 -4.895418e+02 3.841719e+02 3.390875e+01
-1.777490e+09 -1.577495e+09 -1.737491e+09 -5.225169e+02 7.198049e+02 1.009736e+02
-3.605364e+09 -3.405366e+09 -3.565365e+09 4.641774e+01 1.467693e+01 -4.915966e+01
-2.437884e+09 -2.237856e+09 -2.397891e+09 -6.200880e+03 3.443629e+03 1.551781e+04
-2.042271e+09 -1.842269e+09 -2.002270e+09 1.187879e+03 -4.911452e+02 -7.959141e+02
-1.573905e+09 -1.373904e+09 -1.533906e+09 2.346878e+03 -1.363717e+03 -1.780476e+03
-1.768148e+09 -1.568151e+09 -1.728148e+09 -8.899700e+02 4.671052e+02 8.182531e+01
-3.216861e+09 -3.016859e+09 -3.176860e+09 -1.740104e+03 6.903316e+02 1.026517e+03
-1.568116e+09 -1.368120e+09 -1.528116e+09 -6.504103e+03 3.868553e+03 3.037751e+03
-2.149165e+09 -1.949161e+09 -2.109162e+09 -1.161291e+03 -2.006991e+02 1.039813e+03
-3.218186e+09 -3.018188e+09 -3.178187e+09 9.043806e+02 -1.841021e+02 -7.954410e+02
-3.629440e+09 -3.429432e+09 -3.589439e+09 -1.209502e+03 -1.018306e+03 -1.716028e+03
-1.968982e+09 -1.768985e+09 -1.928983e+09 -8.689696e+02 3.340815e+02 1.127755e+02
-2.492514e+09 -2.292529e+09 -2.452509e+09 2.728108e+03 3.586189e+03 1.835459e+04
-2.714454e+09 -2.514454e+09 -2.674452e+09 -1.661904e+03 1.049859e+03 -2.172037e+03
-3.287436e+09 -3.087434e+09 -3.247434e+09 -8.144952e+02 -1.545935e+02 -1.136447e+03
-2.478598e+09 -2.278597e+09 -2.438595e+09 -1.043437e+03 3.648197e+03 -7.004740e+03
-2.637964e+09 -2.437959e+09 -2.597965e+09 -2.910197e+03 7.869830e+02 1.675066e+03
-2.731098e+09 -2.531100e+09 -2.691095e+09 -1.292179e+03 8.681988e+02 -3.738861e+03
-3.379266e+09 -3.179263e+09 -3.339267e+09 -1.974508e+03 1.394613e+03 1.447541e+03
-1.770856e+09 -1.570856e+09 -1.730854e+09 -3.354301e+03 1.257149e+03 1.700039e+03
-2.560413e+09 -2.360420e+09 -2.520417e+09 -1.889831e+03 4.218497e+03 8.744232e+02
-2.974486e+09 -2.774484e+09 -2.934489e+09 -4.859504e+03 2.644457e+03 3.822733e+03
-3.601168e+09 -3.401170e+09 -3.561167e+09 -3.460142e+03 -2.066434e+03 2.844198e+03
-2.734940e+09 -2.534945e+09 -2.694942e+09 -1.021740e+03 1.719889e+03 1.540793e+02
-3.497965e+09 -3.297969e+09 -3.457968e+09 -1.524508e+03 -1.386033e+02 1.358082e+03
-1.590907e+09 -1.390901e+09 -1.550909e+09 -8.659840e+03 -7.865864e+03 7.238512e+03
-1.783348e+09 -1.583353e+09 -1.743349e+09 -1.112448e+03 1.468441e+03 2.012819e+02
-1.779280e+09 -1.579285e+09 -1.739281e+09 -1.660305e+03 1.451389e+03 4.007085e+02
-2.125994e+09 -1.925999e+09 -2.085996e+09 -1.598246e+03 9.647649e+02 4.567280e+02
-3.120607e+09 -2.920611e+09 -3.080608e+09 -1.603192e+01 4.053990e+02 -4.058598e+01
-2.129239e+09 -1.929242e+09 -2.089239e+09 -1.217733e+03 9.405359e+02 8.324902e+01
-1.929592e+09 -1.729596e+09 -1.889593e+09 -1.175324e+03 6.989563e+02 1.595635e+02
-2.422009e+09 -2.222010e+09 -2.382009e+09 4.705881e+02 1.195204e+01 -7.720488e+01
-1.587818e+09 -1.387830e+09 -1.547829e+09 7.581210e+02 2.603607e+02 6.426439e+03
-2.457120e+09 -2.257121e+09 -2.417120e+09 1.584341e+02 1.286868e+01 -2.379650e+01
-2.863965e+09 -2.663966e+09 -2.823966e+09 2.271064e+02 2.377905e+01 -1.571006e+01
-3.481113e+09 -3.281112e+09 -3.441114e+09 1.239681e+03 -2.807749e+02 -6.594394e+02
-1.784435e+09 -1.584436e+09 -1.744436e+09 4.087365e+02 3.247276e+01 -7.684306e+01
-2.600550e+09 -2.400551e+09 -2.560550e+09 4.622468e+02 -6.800959e-01 -1.124957e+02
-3.230689e+09 -3.030690e+09 -3.190690e+09 3.054361e+02 1.124897e+01 -4.841901e+01
-3.041357e+09 -2.841358e+09 -3.001357e+09 5.817724e+02 -2.133635e+01 -2.452689e+02
-2.411542e+09 -2.211529e+09 -2.371540e+09 1.675387e+03 1.771183e+03 -6.729822e+03
-3.387900e+09 -3.187902e+09 -3.347901e+09 -1.000251e+03 3.784186e+02 6.664072e+01
-2.671293e+09 -2.471292e+09 -2.631293e+09 2.112233e+03 1.250411e+03 -8.808381e+02
-2.000492e+09 -1.800492e+09 -1.960492e+09 3.762218e+02 3.515994e+01 -6.101123e+00
-3.581616e+09 -3.381617e+09 -3.541616e+09 -6.612623e+02 1.122116e+01 4.405195e+00
-1.587008e+09 -1.387008e+09 -1.547007e+09 -7.743729e+02 1.717192e+02 1.291448e+00
-3.314593e+09 -3.114592e+09 -3.274592e+09 3.928592e+02 2.797138e+01 -5.236360e+01
-2.498392e+09 -2.298392e+09 -2.458392e+09 4.802133e+02 -3.057225e-01 -1.890982e+02
-2.823598e+09 -2.623598e+09 -2.783598e+09 4.000072e+02 -1.317726e+00 -1.160503e+02
-3.600213e+09 -3.400209e+09 -3.560213e+09 1.175102e+03 8.587851e+02 -1.233444e+03
-2.156988e+09 -1.956989e+09 -2.116987e+09 -4.635762e+02 3.576129e+01 -2.707078e+01
-3.239930e+09 -3.039930e+09 -3.199930e+09 4.813977e+02 6.251244e+00 -1.454900e+02
-3.132311e+09 -2.932311e+09 -3.092311e+09 5.064489e+02 -3.285213e+01 -1.316088e+02
-2.449772e+09 -2.249772e+09 -2.409772e+09 6.193459e+02 -6.955900e+01 -2.440230e+02
-2.643307e+09 -2.443307e+09 -2.603307e+09 5.927203e+02 -2.231051e+01 -1.897440e+02
-1.947050e+09 -1.747051e+09 -1.907051e+09 -1.510090e+02 -2.892426e+00 1.429753e+01
-3.411765e+09 -3.211765e+09 -3.371765e+09 5.941457e+02 -1.314870e+01 -1.033607e+02
-2.664613e+09 -2.464615e+09 -2.624638e+09 -4.586100e+03 2.200818e+04 2.247388e+02
-3.500305e+09 -3.300306e+09 -3.460305e+09 -4.498981e+02 1.877798e+01 -1.922581e+01
-2.410221e+09 -2.210222e+09 -2.370221e+09 -1.112045e+03 3.470410e+02 8.623366e+01
-3.266465e+09 -3.066466e+09 -3.226464e+09 -6.257904e+02 -5.370260e+00 -5.800122e+01
-2.081807e+09 -1.881823e+09 -2.041814e+09 -2.032860e+03 1.184460e+04 1.306990e+03
-3.371117e+09 -3.171113e+09 -3.331130e+09 1.117410e+03 6.575299e+03 -3.919605e+03
-1.983172e+09 -1.783171e+09 -1.943171e+09 -3.847172e+01 6.155574e+00 -3.629239e+01
-2.308651e+09 -2.108646e+09 -2.268690e+09 1.071554e+04 1.696898e+04 -1.178919e+04
-3.158424e+09 -2.958423e+09 -3.118437e+09 1.853702e+03 6.876277e+03 -2.390635e+03
-3.150036e+09 -2.950035e+09 -3.110035e+09 3.036063e+02 1.966237e+01 -6.700669e+01
-1.961546e+09 -1.761541e+09 -1.921544e+09 8.411072e+03 1.020458e+04 -8.304632e+03
-2.440259e+09 -2.240243e+09 -2.400252e+09 -3.347084e+03 -7.173771e+03 -1.452749e+03
-2.102877e+09 -1.902877e+09 -2.062877e+09 5.141170e+02 -1.115283e+01 -1.251302e+02
-3.069882e+09 -2.869881e+09 -3.029882e+09 5.328010e+02 -5.672554e+01 -2.335924e+02
-2.083584e+09 -1.883583e+09 -2.043584e+09 5.217220e+02 5.477787e+00 -1.243804e+02
-2.234110e+09 -2.034108e+09 -2.194109e+09 3.385914e+02 -1.069863e+02 -8.277825e+01
-3.412410e+09 -3.212410e+09 -3.372410e+09 6.317085e+02 -6.643379e+01 -2.493739e+02
-1.892963e+09 -1.692964e+09 -1.852964e+09 2.405266e+02 1.958334e+01 -2.699879e+01
-2.189246e+09 -1.989246e+09 -2.149246e+09 4.557616e+01 7.238494e-01 -1.934809e+01
-1.571653e+09 -1.371652e+09 -1.531652e+09 1.038142e+02 2.668408e+01 -2.461687e+01
-3.425373e+09 -3.225373e+09 -3.385372e+09 -2.482747e+02 3.830501e+01 -2.661614e+01
-1.573789e+09 -1.373788e+09 -1.533788e+09 3.719595e+00 9.585767e+00 -5.333252e+01
-2.562853e+09 -2.362853e+09 -2.522853e+09 6.268406e+01 9.773006e+00 -1.406997e+01
-3.207268e+09 -3.007268e+09 -3.167268e+09 6.852407e+02 -4.075623e+01 -1.990473e+02
-2.365287e+09 -2.165287e+09 -2.325287e+09 1.771287e+02 1.969396e+00 -6.598152e+01
-2.573349e+09 -2.373349e+09 -2.533349e+09 7.174479e+02 -4.448330e+01 -1.930190e+02
-1.571790e+09 -1.371790e+09 -1.531790e+09 7.053877e+02 -8.879485e+01 -3.433692e+02
-2.291683e+09 -2.091682e+09 -2.251682e+09 7.784811e+01 4.256950e+00 -1.111260e+01
-3.612576e+09 -3.412576e+09 -3.572576e+09 1.403243e+02 3.824479e+00 -8.135780e+00
-1.763847e+09 -1.563847e+09 -1.723847e+09 4.616692e+02 -4.909830e+01 -1.944514e+02
-1.781674e+09 -1.581674e+09 -1.741674e+09 5.755343e+02 -1.114627e+01 -1.758857e+02
-1.570522e+09 -1.370521e+09 -1.530521e+09 9.739330e+01 2.982464e+01 -5.283584e+01
-1.586782e+09 -1.386782e+09 -1.546782e+09 -1.786668e+02 3.649790e+01 -5.741268e+01
-2.654895e+09 -2.454894e+09 -2.614895e+09 5.510177e+02 -7.442022e+01 -1.723741e+02
-2.426765e+09 -2.226766e+09 -2.386765e+09 6.002145e+02 -2.498426e+01 -2.864881e+02
-2.469467e+09 -2.269468e+09 -2.429469e+09 2.286687e+03 -3.640950e+03 1.916660e+03
-3.578076e+09 -3.378075e+09 -3.538075e+09 -1.110179e+00 -1.662241e+01 -2.829660e+01
-2.764344e+09 -2.564343e+09 -2.724343e+09 1.168041e+02 8.365955e+00 -3.107102e+01
-1.636122e+09 -1.436123e+09 -1.596122e+09 -2.433138e+02 -2.591198e+01 -2.135309e+01
-2.422469e+09 -2.222468e+09 -2.382468e+09 1.042260e+03 -8.157197e+02 7.800519e+02
-1.982387e+09 -1.782386e+09 -1.942387e+09 1.737689e+03 -2.220296e+03 1.897464e+03
-2.837842e+09 -2.637842e+09 -2.797843e+09 1.242795e+03 -1.496815e+03 1.157347e+03
-2.660399e+09 -2.460398e+09 -2.620399e+09 1.045565e+03 -9.069072e+02 8.518747e+02
-2.881785e+09 -2.681784e+09 -2.841785e+09 8.567455e+02 -1.257320e+03 8.370451e+02
-2.863748e+09 -2.663747e+09 -2.823747e+09 -1.808292e+02 4.572566e+01 -5.379042e+01
-3.211265e+09 -3.011265e+09 -3.171264e+09 -4.491560e+02 9.403899e+01 -1.962191e+01
-1.824878e+09 -1.624878e+09 -1.784878e+09 -2.421863e+02 2.343639e+01 -7.170390e+01
-2.025549e+09 -1.825549e+09 -1.985549e+09 -9.134090e+02 1.721934e+02 -1.339541e+00
-2.993611e+09 -2.793610e+09 -2.953610e+09 -8.120018e+01 -1.343177e+02 3.388963e+01
-1.673920e+09 -1.473922e+09 -1.633920e+09 -4.936592e+02 5.866073e+01 -7.397872e+01
-3.404230e+09 -3.204232e+09 -3.364230e+09 -7.796007e+02 2.037677e+02 -5.666397e+01
-2.126596e+09 -1.926595e+09 -2.086596e+09 6.238664e+01 -2.020162e+02 1.153085e+02
-2.600500e+09 -2.400499e+09 -2.560499e+09 -3.106726e+02 -1.768905e+02 1.911246e+02
-3.399896e+09 -3.199895e+09 -3.359896e+09 -5.450200e+02 -1.778934e+02 2.364568e+02
-3.067124e+09 -2.867123e+09 -3.027124e+09 -4.673057e+02 -1.067181e+02 8.160485e+01
-2.076060e+09 -1.876063e+09 -2.036061e+09 -6.629553e+02 1.346578e+02 3.387528e+01
-1.674920e+09 -1.474922e+09 -1.634920e+09 -5.212984e+02 9.038293e+01 -6.293409e+01
-2.794117e+09 -2.594118e+09 -2.754117e+09 -7.763303e+02 1.370668e+02 7.037973e+00
-2.764912e+09 -2.564912e+09 -2.724912e+09 -4.321519e+02 -3.070786e+01 -4.056741e+01
-2.782389e+09 -2.582388e+09 -2.742388e+09 -3.055684e+02 -2.479240e+02 3.494901e+02
-2.776823e+09 -2.576822e+09 -2.736823e+09 2.609104e+01 -2.796479e+02 3.010811e+02
-2.680790e+09 -2.480788e+09 -2.640789e+09 -9.703708e+02 -2.002891e+02 7.151472e+02
-1.561916e+09 -1.361863e+09 -1.521916e+09 -2.445080e+03 -2.091431e+04 -2.016307e+04
-1.680552e+09 -1.480550e+09 -1.640552e+09 -4.980615e+02 1.160790e+02 -1.865267e+02
-3.591947e+09 -3.391947e+09 -3.551955e+09 1.829741e+03 5.133148e+03 -1.932895e+03
-1.587019e+09 -1.387013e+09 -1.547016e+09 4.521571e+03 2.573004e+03 -3.265772e+03
-3.587897e+09 -3.387898e+09 -3.547898e+09 3.708399e+01 8.490238e+00 4.395297e+00
-1.981690e+09 -1.781691e+09 -1.941688e+09 5.396709e+03 4.977567e+03 -3.199280e+03
-2.782533e+09 -2.582532e+09 -2.742533e+09 -1.507357e+03 6.213162e+02 4.661741e+02
-3.129755e+09 -2.929756e+09 -3.089752e+09 -1.797769e+03 1.595754e+03 -2.766177e+03
-2.501650e+09 -2.301649e+09 -2.461648e+09 -1.874162e+03 8.376237e+02 -2.378119e+03
-2.119402e+09 -1.919402e+09 -2.079402e+09 2.141457e+02 1.874181e+01 -2.620367e+01
-1.557096e+09 -1.357096e+09 -1.517096e+09 8.558664e+01 1.006408e+01 -2.223080e+01
-3.598205e+09 -3.398205e+09 -3.558205e+09 1.869386e+02 4.496389e+00 1.053681e+01
-3.511589e+09 -3.311589e+09 -3.471589e+09 3.888869e+02 -8.990819e-02 -7.466861e+01
-3.606742e+09 -3.406742e+09 -3.566742e+09 3.395159e+02 -7.860128e+00 -3.857030e+01
-2.679874e+09 -2.479876e+09 -2.639875e+09 -5.722410e+02 7.533141e+01 -2.535593e+02
-3.526487e+09 -3.326488e+09 -3.486488e+09 -6.878493e+02 -5.934855e+01 6.430896e+01
-1.945802e+09 -1.745803e+09 -1.905803e+09 -6.409751e+02 -1.764568e+01 -9.383417e+01
-1.786692e+09 -1.586698e+09 -1.746694e+09 -3.134683e+02 1.682884e+03 4.998469e+01
-3.309429e+09 -3.109431e+09 -3.269430e+09 -5.086992e+02 1.435677e+01 -1.175670e+02
-1.674920e+09 -1.474924e+09 -1.634921e+09 -2.767375e+02 1.587666e+02 -4.059320e+01
-1.908206e+09 -1.708207e+09 -1.868207e+09 -5.374649e+02 4.651882e+01 -9.825856e+01
-2.383733e+09 -2.183736e+09 -2.343734e+09 -9.347356e+02 2.540258e+02 2.788087e+01
-2.550871e+09 -2.350872e+09 -2.510872e+09 -2.255244e+03 1.299036e+03 1.075085e+03
-1.674083e+09 -1.474087e+09 -1.634083e+09 -1.593520e+01 1.887736e+02 -1.660329e+01
-3.295139e+09 -3.095139e+09 -3.255143e+09 -3.951521e+03 4.625070e+03 3.091029e+03
-1.576260e+09 -1.376260e+09 -1.536261e+09 -1.136968e+03 4.192243e+01 -4.014049e+02
-3.274138e+09 -3.074133e+09 -3.234137e+09 -1.101258e+03 6.276069e+02 1.606660e+03
-3.259053e+09 -3.059056e+09 -3.219054e+09 1.023660e+03 2.553032e+02 -5.017488e+01
-3.286040e+09 -3.086042e+09 -3.246041e+09 1.925620e+02 8.292657e+00 -1.047341e+02
-2.936527e+09 -2.736529e+09 -2.896527e+09 9.576093e+02 3.324242e+02 -1.932606e+01
-1.574084e+09 -1.374084e+09 -1.534085e+09 5.302171e+02 2.763428e+01 -2.249070e+02
-1.574084e+09 -1.374084e+09 -1.534085e+09 6.043243e+02 3.367563e+01 -1.918498e+02
-2.031046e+09 -1.831048e+09 -1.991046e+09 1.251489e+03 4.663095e+02 -7.916155e+01
-1.832897e+09 -1.632900e+09 -1.792897e+09 1.091886e+03 4.670855e+02 -9.219320e+01
-1.843887e+09 -1.643890e+09 -1.803887e+09 1.586918e+03 6.872872e+02 -1.465263e+02
-3.593496e+09 -3.393491e+09 -3.553494e+09 1.902660e+03 -1.499575e+03 -1.046336e+01
-3.067715e+09 -2.867716e+09 -3.027716e+09 -3.953293e+02 -6.690568e+00 -4.782451e+00
-2.950345e+09 -2.750348e+09 -2.910346e+09 7.174406e+02 1.679362e+02 1.436694e+01
-1.977095e+09 -1.777099e+09 -1.937096e+09 7.674225e+02 4.728142e+02 -1.000895e+02
-1.832897e+09 -1.632901e+09 -1.792898e+09 1.228780e+03 6.818557e+02 -1.715693e+02
-2.921147e+09 -2.721148e+09 -2.881147e+09 1.379161e+03 -6.064829e+02 -1.684792e+03
-1.754376e+09 -1.554380e+09 -1.714377e+09 8.083881e+02 4.646813e+02 -5.880485e+01
-1.674253e+09 -1.474249e+09 -1.634251e+09 1.276716e+03 -1.038128e+03 -6.773012e+02
-2.154789e+09 -1.954789e+09 -2.114790e+09 -5.673174e+03 4.752351e+03 3.911962e+03
-3.068181e+09 -2.868178e+09 -3.028178e+09 1.341983e+03 -1.118660e+03 -2.561064e+02
-2.010854e+09 -1.810857e+09 -1.970855e+09 1.446442e+03 6.176185e+02 -2.346062e+02
-1.987061e+09 -1.787062e+09 -1.947062e+09 -1.810128e+02 -1.641218e+01 -8.078668e+00
-1.867896e+09 -1.667899e+09 -1.827896e+09 8.043893e+02 3.331755e+02 8.914067e+00
-3.596501e+09 -3.396500e+09 -3.556501e+09 -1.565194e+03 4.449556e+02 -1.873731e+02
-1.866320e+09 -1.666307e+09 -1.826319e+09 -6.700916e+02 1.088957e+03 2.428352e+03
-3.585902e+09 -3.385901e+09 -3.545901e+09 4.724943e+02 -3.363208e+01 -9.228582e+01
-3.340728e+09 -3.140727e+09 -3.300727e+09 -1.658898e+03 6.071284e+02 -3.129236e+02
-3.253233e+09 -3.053231e+09 -3.213233e+09 -1.334546e+03 8.884149e+01 6.540936e+02
-1.573482e+09 -1.373482e+09 -1.533482e+09 2.741104e+02 4.820129e+01 -5.298560e+01
-2.603548e+09 -2.403542e+09 -2.563547e+09 1.256118e+03 -6.702624e+02 3.185696e+03
-2.478582e+09 -2.278575e+09 -2.438582e+09 -9.405759e+02 2.220717e+03 1.391232e+03
-2.057063e+09 -1.857059e+09 -2.017066e+09 1.240642e+02 -2.433796e+03 3.606784e+03
-1.783117e+09 -1.583114e+09 -1.743114e+09 2.847093e+03 -2.768535e+03 3.757546e+03
-3.102321e+09 -2.902311e+09 -3.062297e+09 8.639037e+02 -8.259822e+03 -1.050981e+04
-3.275112e+09 -3.075111e+09 -3.235128e+09 1.079712e+03 8.374073e+03 4.939427e+02
-2.751912e+09 -2.551891e+09 -2.711936e+09 1.254465e+03 -1.672032e+03 4.117379e+03
-3.567834e+09 -3.367831e+09 -3.527848e+09 -9.849862e+02 7.810440e+03 2.130569e+03
-3.224086e+09 -3.024083e+09 -3.184113e+09 4.577379e+03 7.601209e+03 -1.463973e+03
-1.995088e+09 -1.795083e+09 -1.955084e+09 2.393742e+03 -4.238689e+03 -2.604789e+03
-3.088064e+09 -2.888064e+09 -3.048062e+09 2.139292e+03 -1.280542e+03 -1.724298e+03
-3.341191e+09 -3.141181e+09 -3.301191e+09 -9.986991e+01 -1.767937e+03 -3.516882e+03
-2.973006e+09 -2.772995e+09 -2.933001e+09 2.336289e+03 -3.657925e+03 -2.457439e+03
-3.121047e+09 -2.921037e+09 -3.081054e+09 5.461428e+02 -4.080842e+03 -1.815691e+03
-1.966873e+09 -1.766874e+09 -1.926895e+09 6.106818e+03 1.801761e+04 -8.098843e+03
-1.797560e+09 -1.597559e+09 -1.757559e+09 1.089334e+02 2.115283e+01 -2.177485e+01
-1.581827e+09 -1.381827e+09 -1.541827e+09 3.838082e+01 2.109819e+01 -2.712154e+01
-1.573482e+09 -1.373482e+09 -1.533482e+09 3.002985e+02 4.402857e+01 -5.281787e+01
-2.795989e+09 -2.595986e+09 -2.755989e+09 7.574267e+01 -4.201554e+02 -1.184316e+03
-3.004957e+09 -2.804957e+09 -2.964957e+09 3.403110e+02 1.209998e+01 -7.959710e+01
-3.388161e+09 -3.188161e+09 -3.348161e+09 1.002806e+02 1.305001e+01 -2.717012e+00
-1.591156e+09 -1.391155e+09 -1.551155e+09 -2.943532e+03 1.345129e+03 9.290770e+02
-3.596492e+09 -3.396492e+09 -3.556491e+09 -8.883531e+02 1.383716e+02 5.545157e+01
-3.287436e+09 -3.087434e+09 -3.247435e+09 6.403033e+02 -2.182523e+02 -5.008938e+02
-2.953490e+09 -2.753487e+09 -2.913490e+09 -2.630141e+03 2.851608e+03 2.938833e+03
-3.605230e+09 -3.405228e+09 -3.565230e+09 -1.235474e+03 2.896372e+02 5.075750e+02
-1.890278e+09 -1.690277e+09 -1.850277e+09 5.524856e+01 9.802065e+00 -1.904092e+01
-3.584206e+09 -3.384206e+09 -3.544205e+09 -3.851176e+02 8.171803e+00 -1.713541e+01
-3.402674e+09 -3.202671e+09 -3.362674e+09 -1.042949e+03 5.114877e+02 8.940079e+02
-2.290630e+09 -2.090629e+09 -2.250629e+09 5.553043e+01 7.366943e+00 -4.086647e+00
-1.600485e+09 -1.400479e+09 -1.560485e+09 -4.470681e+02 -2.080115e+03 -2.888785e+03
-2.552244e+09 -2.352243e+09 -2.512243e+09 -9.495854e+02 8.991237e+01 1.286295e+02
-2.507426e+09 -2.307424e+09 -2.467425e+09 -3.129030e+02 -2.309487e+02 4.840971e+02
-2.726445e+09 -2.526444e+09 -2.686445e+09 -6.262132e+02 -9.466137e+01 1.569749e+02
-3.263249e+09 -3.063248e+09 -3.223249e+09 -1.263147e+03 2.002205e+02 8.818193e+01
-2.195142e+09 -1.995141e+09 -2.155142e+09 1.167970e+02 -3.669900e+02 4.456994e+02
-3.497053e+09 -3.297051e+09 -3.457060e+09 -2.039092e+03 5.367802e+03 2.879316e+03
-3.605775e+09 -3.405777e+09 -3.565776e+09 -4.271473e+02 3.379301e+01 -1.861565e+02
-1.557096e+09 -1.357096e+09 -1.517096e+09 1.359358e+02 4.577780e+01 -1.016774e+01
-2.411583e+09 -2.211582e+09 -2.371582e+09 -2.615292e+02 -1.921618e+02 1.289500e+02
-1.804072e+09 -1.604071e+09 -1.764072e+09 -2.214857e+02 -2.088256e+02 2.367841e+02
-2.624211e+09 -2.424211e+09 -2.584211e+09 8.692273e+02 -7.895472e+02 4.760952e+02
-3.166436e+09 -2.966437e+09 -3.126436e+09 -3.020571e+01 3.261289e+00 5.689081e+00
-3.211150e+09 -3.011152e+09 -3.171153e+09 1.347666e+03 -2.955833e+03 1.119248e+03
-2.138249e+09 -1.938253e+09 -2.098250e+09 1.654688e+03 -2.208966e+03 7.846186e+02
-3.403764e+09 -3.203764e+09 -3.363765e+09 9.906559e+02 -1.529980e+03 9.023065e+02
-3.482137e+09 -3.282137e+09 -3.442137e+09 -1.563094e+02 -1.146443e+01 -3.608183e+01
-1.574660e+09 -1.374661e+09 -1.534660e+09 -1.541196e+01 1.917946e-01 -1.505994e+01
-2.001700e+09 -1.801699e+09 -1.961700e+09 -3.181623e+02 -2.686969e+01 -5.576574e+00
-3.173456e+09 -2.973455e+09 -3.133455e+09 -3.023698e+02 -4.807413e+01 -7.597254e+00
-2.743346e+09 -2.543350e+09 -2.703352e+09 2.942308e+02 -5.621075e+03 7.557276e+02
-1.592768e+09 -1.392778e+09 -1.552772e+09 -1.296448e+03 -4.471292e+03 -6.752341e+01
-2.563768e+09 -2.363768e+09 -2.523768e+09 -2.185249e+02 -3.909629e+01 5.243118e+00
-1.774961e+09 -1.574961e+09 -1.734961e+09 -3.927245e+02 -4.456355e+01 3.321540e+01
-1.769689e+09 -1.569689e+09 -1.729689e+09 -3.608272e+02 -5.536088e+01 -1.350018e+01
-1.589524e+09 -1.389524e+09 -1.549524e+09 -2.722935e+02 -4.620341e+01 -1.308850e+01
-3.200069e+09 -3.000070e+09 -3.160070e+09 2.120948e+02 9.528298e+00 -4.520403e+01
-1.692551e+09 -1.492552e+09 -1.652552e+09 2.929506e+03 -2.541299e+03 -5.000736e+03
-3.617307e+09 -3.417307e+09 -3.577304e+09 9.188456e+02 -5.574470e+02 -1.539397e+03
-1.601535e+09 -1.401535e+09 -1.561535e+09 -3.074142e+02 -3.344873e+01 -2.081343e+01
-2.519720e+09 -2.319721e+09 -2.479718e+09 2.326842e+03 -2.083256e+03 -4.372568e+03
-1.937253e+09 -1.737249e+09 -1.897252e+09 -2.212668e+03 1.244628e+03 -3.714160e+02
-3.379293e+09 -3.179294e+09 -3.339293e+09 4.108711e+02 1.605360e+01 -4.040147e+01
-2.776340e+09 -2.576340e+09 -2.736340e+09 -4.574317e+02 -7.249014e+01 6.109500e+01
-3.186021e+09 -2.986020e+09 -3.146021e+09 -4.849659e+02 -8.073620e+01 3.806921e+00
-2.991926e+09 -2.791926e+09 -2.951926e+09 -6.446953e+02 -3.409430e+01 1.554665e+01
-3.277147e+09 -3.077146e+09 -3.237147e+09 -6.637224e+02 -8.273681e+01 4.844618e+01
-1.576260e+09 -1.376260e+09 -1.536261e+09 -1.862285e+03 6.183374e+02 -5.035613e+02
-3.079987e+09 -2.879987e+09 -3.039985e+09 -2.222282e+03 1.658724e+03 -2.316209e+03
-3.012591e+09 -2.812591e+09 -2.972591e+09 -7.112431e+02 -4.934734e+01 3.806912e+01
-2.830009e+09 -2.630007e+09 -2.790013e+09 -3.070638e+02 -1.038331e+03 -7.227317e+02
-1.955041e+09 -1.755041e+09 -1.915041e+09 -4.761126e+02 -5.770964e+01 9.554108e-01
-1.778677e+09 -1.578677e+09 -1.738677e+09 -4.493769e+02 -8.227022e+01 3.276404e+01
-3.574826e+09 -3.374823e+09 -3.534826e+09 8.968992e+02 -6.591370e+02 -1.186584e+03
-3.589421e+09 -3.389415e+09 -3.549422e+09 2.233736e+03 1.724442e+03 -1.719031e+02
-3.593733e+09 -3.393726e+09 -3.553736e+09 3.383363e+02 -1.697459e+03 -1.287878e+03
-3.189281e+09 -2.989283e+09 -3.149285e+09 -1.608718e+03 -3.154379e+03 -1.027771e+03
-2.297659e+09 -2.097658e+09 -2.257661e+09 -2.655892e+03 -4.812276e+03 -2.551470e+03
-3.198942e+09 -2.998940e+09 -3.158944e+09 9.231334e+02 -6.475804e+02 -8.584277e+02
-2.348902e+09 -2.148902e+09 -2.308902e+09 -4.014726e+02 -1.106529e+02 4.598953e+01
-1.959781e+09 -1.759781e+09 -1.919781e+09 -4.485331e+01 -1.196510e+02 -6.715201e+00
-3.331168e+09 -3.131167e+09 -3.291167e+09 6.261432e+00 -1.433529e+02 3.546700e+01
-2.480624e+09 -2.280617e+09 -2.440626e+09 -1.592439e+03 -4.066315e+03 -2.466920e+03
-3.577805e+09 -3.377804e+09 -3.537812e+09 -7.569564e+02 -3.938323e+03 -3.776091e+02
-3.030383e+09 -2.830386e+09 -2.990389e+09 -2.996649e+02 -3.773824e+03 -2.284915e+02
-2.861205e+09 -2.661204e+09 -2.821204e+09 -1.970478e+02 -1.135599e+02 -1.808932e+01
-2.183684e+09 -1.983683e+09 -2.143684e+09 -1.097567e+02 -1.814512e+02 6.242585e+01
-1.573343e+09 -1.373340e+09 -1.533342e+09 -4.244898e+02 -1.416117e+02 2.805678e+02
-1.580788e+09 -1.380788e+09 -1.540787e+09 2.599440e+03 -1.308244e+03 1.220400e+03
-1.593845e+09 -1.393842e+09 -1.553843e+09 1.957353e+03 -1.447964e+03 1.549305e+03
-1.914386e+09 -1.714377e+09 -1.874384e+09 -3.643535e+02 4.746255e+02 1.641620e+03
-3.531875e+09 -3.331873e+09 -3.491876e+09 -1.049914e+03 -2.569033e+02 8.917753e+02
-3.058935e+09 -2.858934e+09 -3.018935e+09 -5.246009e+02 -7.819928e+01 2.555175e+01
-3.134051e+09 -2.934048e+09 -3.094053e+09 6.128145e+02 -1.690174e+03 2.065254e+03
-3.603676e+09 -3.403675e+09 -3.563677e+09 4.707652e+02 -1.129693e+03 1.022368e+03
-3.176177e+09 -2.976176e+09 -3.136176e+09 -1.139947e+02 -9.938944e+01 1.906209e+01
-1.589588e+09 -1.389583e+09 -1.549584e+09 4.798828e+03 -1.588144e+03 4.025700e+03
-3.105641e+09 -2.905640e+09 -3.065640e+09 -1.418561e+02 -8.673741e+01 3.059067e+01
-3.404271e+09 -3.204269e+09 -3.364271e+09 5.302590e+02 -6.274453e+02 8.274713e+02
-2.043539e+09 -1.843538e+09 -2.003539e+09 5.725021e+02 -6.662871e+02 5.189363e+02
-1.999063e+09 -1.799063e+09 -1.959062e+09 1.889188e+03 -1.588666e+03 1.283969e+03
-3.572092e+09 -3.372091e+09 -3.532094e+09 6.927346e+02 -1.637034e+03 1.086091e+03
-3.386171e+09 -3.186171e+09 -3.346173e+09 1.136906e+03 -1.976088e+03 1.552653e+03
-3.127619e+09 -2.927615e+09 -3.087623e+09 -2.094045e+03 -3.528582e+03 -2.879453e+03
-2.088540e+09 -1.888539e+09 -2.048539e+09 -2.416525e+02 -2.523182e+01 3.234213e+00
-3.587369e+09 -3.387369e+09 -3.547369e+09 -2.885536e+02 -4.557045e+00 7.267230e+00
-3.197963e+09 -2.997963e+09 -3.157963e+09 -3.716721e+02 -3.841800e+01 1.014625e+01
-1.599359e+09 -1.399359e+09 -1.559358e+09 1.657751e+03 -9.095704e+02 6.407787e+02
-1.594428e+09 -1.394427e+09 -1.554427e+09 3.874408e+02 -3.385003e+02 1.915442e+02
-1.674227e+09 -1.474227e+09 -1.634227e+09 -3.160882e+02 -4.100676e+01 -3.820313e-01
-3.399795e+09 -3.199795e+09 -3.359795e+09 -3.683931e+02 -3.911152e+01 9.559692e+00
-1.580787e+09 -1.380786e+09 -1.540786e+09 1.399795e+03 -1.123960e+03 7.752637e+02
-1.867440e+09 -1.667439e+09 -1.827440e+09 1.348337e+03 -6.321470e+02 -8.402523e+02
-3.303972e+09 -3.103967e+09 -3.263970e+09 1.627667e+02 -5.156056e+02 1.027397e+03
-3.074020e+09 -2.874018e+09 -3.034018e+09 2.923251e+02 8.180444e+01 -1.971596e+01
-3.146446e+09 -2.946447e+09 -3.106447e+09 -4.868496e+02 -1.320634e+01 -7.350032e+00
-3.495328e+09 -3.295329e+09 -3.455329e+09 -7.790937e+02 4.527588e+01 -1.868491e+02
-3.255309e+09 -3.055311e+09 -3.215310e+09 1.512211e+02 9.624831e+00 -2.330231e+02
-2.782418e+09 -2.582417e+09 -2.742416e+09 1.628536e+03 -1.225063e+03 -1.649261e+03
-2.680257e+09 -2.480255e+09 -2.640256e+09 8.772639e+02 -2.577252e+02 -4.416756e+02
-1.724515e+09 -1.524516e+09 -1.684516e+09 -6.221618e+02 -9.412366e+01 -3.030072e+01
-3.300908e+09 -3.100905e+09 -3.260906e+09 8.911336e+02 -4.944049e+02 -3.153641e+02
-2.567241e+09 -2.367237e+09 -2.527239e+09 7.864849e+02 -1.025981e+03 -2.495837e+02
-1.905075e+09 -1.705077e+09 -1.865077e+09 -2.336592e+02 2.386247e+01 -2.817722e+02
-2.709151e+09 -2.509156e+09 -2.669153e+09 7.316809e+02 1.015078e+03 -1.364425e+02
-3.254332e+09 -3.054335e+09 -3.214334e+09 9.009841e+02 7.490482e+02 -1.273689e+02
-2.499867e+09 -2.299871e+09 -2.459868e+09 4.324300e+02 4.474853e+02 -3.674751e+00
-1.629952e+09 -1.429952e+09 -1.589952e+09 -4.075938e+02 -5.296539e+01 -5.248229e+00
-1.671582e+09 -1.471582e+09 -1.631582e+09 -5.161763e+02 -1.287757e+02 1.663736e+01
-3.474775e+09 -3.274775e+09 -3.434776e+09 -6.870545e+02 -1.509707e+01 -2.349813e+01
-2.244305e+09 -2.044306e+09 -2.204306e+09 6.538821e+01 3.997362e+00 -8.868035e-01
-3.302161e+09 -3.102159e+09 -3.262160e+09 -6.753262e+02 -1.421044e+02 4.007931e+02
-3.504601e+09 -3.304601e+09 -3.464602e+09 -5.602609e+02 -1.421619e+01 -6.158135e+00
-1.603109e+09 -1.403108e+09 -1.563108e+09 4.471501e+02 -4.361640e+02 1.690694e+02
-3.594636e+09 -3.394636e+09 -3.554637e+09 -7.003443e+02 -5.798144e+00 -2.003016e+01
-2.261271e+09 -2.061271e+09 -2.221271e+09 -2.456182e+02 -1.030735e+01 -2.410079e+00
-3.295416e+09 -3.095420e+09 -3.255417e+09 1.203686e+02 4.685215e+02 -1.148437e+01
-2.875841e+09 -2.675842e+09 -2.835842e+09 -1.837156e+02 -2.114974e+01 1.542363e+01
-2.612259e+09 -2.412263e+09 -2.572260e+09 7.514921e+02 4.935103e+02 -1.119838e+02
-3.174463e+09 -2.974463e+09 -3.134463e+09 -2.878337e+02 -1.940796e+01 -6.346518e+00
-3.400286e+09 -3.200290e+09 -3.360287e+09 5.881936e+02 4.779191e+02 -9.977526e+01
-1.768234e+09 -1.568233e+09 -1.728233e+09 -1.343718e+03 2.714899e+02 2.959882e+02
-3.391818e+09 -3.191818e+09 -3.351818e+09 -3.893802e+02 -1.974387e+01 -6.210310e+00
-3.348376e+09 -3.148373e+09 -3.308374e+09 -3.743343e+02 4.291578e+01 1.591331e+02
-3.028836e+09 -2.828834e+09 -2.988835e+09 -7.861601e+02 2.286399e+02 1.224340e+02
-3.396872e+09 -3.196870e+09 -3.356871e+09 -1.129805e+03 3.137684e+02 4.514272e+02
-2.761038e+09 -2.561036e+09 -2.721037e+09 -3.234329e+02 4.194845e+01 1.310294e+02
-2.060648e+09 -1.860648e+09 -2.020648e+09 -5.892467e+02 -1.365479e+02 9.107517e+01
-2.163326e+09 -1.963326e+09 -2.123326e+09 -2.921941e+02 -1.846610e+01 -2.964720e+00
-3.267826e+09 -3.067826e+09 -3.227826e+09 -5.791098e+02 -1.056468e+02 1.285957e+02
-3.609430e+09 -3.409429e+09 -3.569429e+09 -2.989961e+02 -5.313791e+01 3.964692e+01
-3.155794e+09 -2.955797e+09 -3.115796e+09 -3.945882e+02 9.903981e+01 -7.592245e+02
-3.311503e+09 -3.111502e+09 -3.271503e+09 -6.597277e+02 -1.175029e+02 1.986044e+02
-3.066788e+09 -2.866788e+09 -3.026788e+09 -7.338422e+02 8.773260e+00 1.982141e+01
-3.007960e+09 -2.807960e+09 -2.967960e+09 -6.551303e+02 -7.039071e+01 7.202955e+01
-1.589524e+09 -1.389524e+09 -1.549524e+09 -2.616304e+02 -4.699979e+01 -9.765781e+00
-3.476144e+09 -3.276144e+09 -3.436144e+09 -3.450391e+02 -1.204142e+01 6.460020e+00
-2.848645e+09 -2.648645e+09 -2.808645e+09 -3.046854e+02 -3.532248e+01 -1.055303e+00
-1.914563e+09 -1.714562e+09 -1.874563e+09 -7.572033e+02 -2.278374e+01 2.685590e+00
-2.224562e+09 -2.024561e+09 -2.184562e+09 -9.378158e+02 6.540500e+01 -7.646147e+00
-2.185773e+09 -1.985768e+09 -2.145770e+09 -1.108838e+03 -1.887632e+02 1.032814e+03
-3.598649e+09 -3.398640e+09 -3.558597e+09 -1.473577e+03 4.947321e+03 2.570041e+03
-2.075685e+09 -1.875681e+09 -2.035683e+09 -1.761071e+02 3.439062e+02 2.988406e+02
-2.945568e+09 -2.745572e+09 -2.905570e+09 8.752568e+02 -1.519651e+03 2.836350e+02
-3.604273e+09 -3.404276e+09 -3.564278e+09 -2.740799e+02 -2.996844e+03 5.021541e+01
-2.282813e+09 -2.082819e+09 -2.242815e+09 -1.621495e+02 -1.886793e+03 2.084440e+01
-3.475862e+09 -3.275866e+09 -3.435865e+09 -4.797294e+02 -1.547473e+03 -6.133390e+01
-3.298141e+09 -3.098136e+09 -3.258143e+09 -1.970681e+03 2.360111e+03 2.928860e+03
-2.770756e+09 -2.570750e+09 -2.730754e+09 -3.309063e+02 2.760111e+02 1.449533e+03
-2.466323e+09 -2.266328e+09 -2.426327e+09 -1.211224e+03 -3.916349e+03 -3.853772e+02
-1.939026e+09 -1.739030e+09 -1.899028e+09 -2.109458e+03 -2.158788e+03 -5.515394e+02
-1.696940e+09 -1.496941e+09 -1.656940e+09 -1.356188e+03 -9.839283e+02 -3.074387e+02
-3.085574e+09 -2.885569e+09 -3.045573e+09 -8.687018e+01 4.365173e+02 1.745953e+03
-3.286827e+09 -3.086826e+09 -3.246826e+09 6.840527e+02 -2.066039e+02 -2.556687e+02
-3.025162e+09 -2.825159e+09 -2.985166e+09 -1.375969e+03 -3.068291e+03 -2.703004e+03
-1.963851e+09 -1.763850e+09 -1.923851e+09 2.091565e+02 -1.767380e+01 -1.618450e+02
-2.352995e+09 -2.152994e+09 -2.312994e+09 2.122776e+02 1.048439e+02 -4.399347e+01
-1.965049e+09 -1.765049e+09 -1.925050e+09 7.351004e+02 -2.153932e+01 -1.237640e+02
-1.775555e+09 -1.575554e+09 -1.735554e+09 1.543544e+02 9.173098e+01 -7.452314e+01
-1.916143e+09 -1.716150e+09 -1.876146e+09 -3.690778e+02 -3.152342e+03 6.587611e+01
-2.568856e+09 -2.368855e+09 -2.528856e+09 1.276650e+02 1.069750e+01 -6.597914e+01
-2.346237e+09 -2.146238e+09 -2.306237e+09 -1.289064e+03 -1.127522e+03 -3.894900e+02
-3.601333e+09 -3.401333e+09 -3.561335e+09 -1.155246e+03 -2.014594e+03 -9.003429e+02
-3.574824e+09 -3.374821e+09 -3.534826e+09 1.818093e+03 2.615894e+02 -6.876395e+02
-1.575573e+09 -1.375575e+09 -1.535573e+09 1.218749e+03 3.000855e+02 -2.094037e+01
-1.696940e+09 -1.496942e+09 -1.656940e+09 6.893029e+02 1.334557e+02 2.128833e+01
-3.179262e+09 -2.979261e+09 -3.139261e+09 -1.235854e+01 1.091697e+02 -1.691293e+01
-3.246895e+09 -3.046893e+09 -3.206894e+09 -9.951716e+00 5.616917e+00 8.413723e+01
-2.341815e+09 -2.141815e+09 -2.301814e+09 -7.681204e+02 1.418394e+02 -3.037084e+01
-1.658582e+09 -1.458590e+09 -1.618585e+09 4.356404e+02 2.920125e+03 -2.034577e+02
-1.859715e+09 -1.659717e+09 -1.819715e+09 1.276139e+03 3.595475e+02 -8.784515e+01
-2.575383e+09 -2.375382e+09 -2.535382e+09 -4.752390e+02 6.603794e+01 -6.113094e+01
-3.011348e+09 -2.811348e+09 -2.971348e+09 -1.285502e+03 2.685039e+02 2.370692e+02
-1.805323e+09 -1.605327e+09 -1.765324e+09 4.704668e+02 4.064369e+02 -2.882675e+01
-2.021505e+09 -1.821506e+09 -1.981505e+09 -1.000577e+03 2.094492e+02 5.519963e+01
-3.110510e+09 -2.910507e+09 -3.070510e+09 1.483596e+02 3.692855e+02 -7.779614e+02
-3.608548e+09 -3.408547e+09 -3.568547e+09 -4.806786e+02 7.544873e+01 1.715326e+01
-2.608246e+09 -2.408245e+09 -2.568245e+09 -5.069740e+02 1.012762e+02 -1.412101e+01
-1.587332e+09 -1.387330e+09 -1.547331e+09 2.640835e+03 1.341121e+03 -1.202268e+03
-1.980126e+09 -1.780125e+09 -1.940125e+09 -3.684446e+02 1.002435e+02 -3.662371e+01
-3.473820e+09 -3.273818e+09 -3.433820e+09 1.116623e+03 7.575854e+02 -4.758634e+02
-2.267523e+09 -2.067526e+09 -2.227523e+09 6.215042e+02 1.657661e+02 -1.773289e+01
-2.676337e+09 -2.476338e+09 -2.636338e+09 3.060570e+03 3.013943e+03 -1.804552e+03
-1.826956e+09 -1.626956e+09 -1.786956e+09 -9.596735e+02 1.837475e+02 1.369373e+00
-2.853620e+09 -2.653618e+09 -2.813619e+09 1.329461e+03 4.971993e+02 -5.818297e+02
-3.380010e+09 -3.180008e+09 -3.340009e+09 -7.408542e+02 2.156746e+02 1.977679e+02
-3.331201e+09 -3.131193e+09 -3.291203e+09 -1.957118e+03 -2.891233e+03 -1.829588e+03
-3.593735e+09 -3.393727e+09 -3.553736e+09 2.099826e+03 -3.048008e+02 -1.745824e+03
-2.532781e+09 -2.332792e+09 -2.492772e+09 4.516675e+03 3.012419e+03 1.997666e+04
-2.729067e+09 -2.529049e+09 -2.688973e+09 -3.322442e+03 -1.254815e+04 1.018944e+04
-3.514765e+09 -3.314767e+09 -3.474766e+09 -2.467613e+03 -6.281335e+02 1.051251e+03
-3.186388e+09 -2.986392e+09 -3.146389e+09 -2.316212e+03 -9.928838e+02 2.716013e+03
-2.313427e+09 -2.113407e+09 -2.273419e+09 -4.762740e+02 -1.099715e+04 2.111125e+03
-3.139997e+09 -2.939985e+09 -3.099947e+09 -4.171091e+03 -1.194612e+04 -7.110646e+02
-1.677486e+09 -1.477492e+09 -1.637492e+09 -2.000061e+03 -1.061310e+03 4.231170e+03
-3.332387e+09 -3.132376e+09 -3.292349e+09 3.215748e+01 -6.825945e+03 2.465518e+03
-2.444105e+09 -2.244102e+09 -2.404103e+09 -1.963987e+03 9.546830e+02 1.194766e+03
-2.292227e+09 -2.092233e+09 -2.252232e+09 -1.317985e+03 -2.338198e+02 2.659978e+03
-3.290349e+09 -3.090347e+09 -3.250348e+09 9.833597e+02 8.684142e+02 -6.739478e+02
-2.053310e+09 -1.853307e+09 -2.013309e+09 -1.926012e+03 5.873583e+02 1.185925e+03
-2.663515e+09 -2.463513e+09 -2.623513e+09 -1.931800e+03 7.908028e+02 1.024717e+03
-3.442325e+09 -3.242328e+09 -3.402330e+09 6.007439e+02 -2.408878e+03 6.427720e+02
-3.513760e+09 -3.313764e+09 -3.473764e+09 -2.594323e+02 -1.998665e+03 1.135388e+02
-2.264084e+09 -2.064088e+09 -2.224086e+09 1.043406e+03 -2.490898e+03 4.169681e+02
-3.520148e+09 -3.320152e+09 -3.480152e+09 2.977935e+02 -1.871587e+03 3.796656e+02
-3.615668e+09 -3.415671e+09 -3.575673e+09 -5.162297e+01 -2.830126e+03 3.178859e+02
-3.543927e+09 -3.343927e+09 -3.503926e+09 -8.445854e+01 -1.621342e+01 -2.194047e+01
-3.273731e+09 -3.073729e+09 -3.233730e+09 -2.183152e+01 -7.781745e+01 -4.310673e+00
-2.278566e+09 -2.078563e+09 -2.238564e+09 -5.160368e+02 -3.950069e+02 3.132674e+02
-3.211938e+09 -3.011940e+09 -3.171939e+09 2.651514e+02 3.649422e-01 -7.593163e+02
-2.104128e+09 -1.904124e+09 -2.064125e+09 -2.993356e+03 1.886605e+03 1.980088e+03
-3.295386e+09 -3.095386e+09 -3.255392e+09 -1.335653e+03 -3.889736e+03 -9.561876e+02
-1.570941e+09 -1.370937e+09 -1.530937e+09 1.740380e+02 -1.143561e+03 -3.819844e+02
-3.151616e+09 -2.951621e+09 -3.111620e+09 -6.743974e+01 -2.677752e+03 2.239567e+02
-1.912220e+09 -1.712217e+09 -1.872218e+09 -4.532026e+02 -1.540088e+02 2.623725e+02
-1.874643e+09 -1.674643e+09 -1.834643e+09 -5.456564e+02 -1.074770e+02 4.349832e+01
-2.480881e+09 -2.280881e+09 -2.440881e+09 -4.450906e+02 -4.902908e+01 1.832768e+01
-2.058127e+09 -1.858127e+09 -2.018127e+09 -5.278142e+02 -1.190175e+02 5.197307e+01
-3.513734e+09 -3.313733e+09 -3.473733e+09 1.009838e+02 -1.644589e+02 7.671725e+01
-1.994119e+09 -1.794118e+09 -1.954119e+09 -3.822144e+02 -1.366383e+02 2.290440e+02
-1.597237e+09 -1.397237e+09 -1.557237e+09 -1.361139e+02 -1.492994e+02 -1.819663e+01
-2.704105e+09 -2.504104e+09 -2.664105e+09 -2.572783e+02 -7.399063e+01 2.772135e+01
-2.554400e+09 -2.354400e+09 -2.514400e+09 -4.028163e+02 -7.954447e+01 1.743061e+01
-1.855066e+09 -1.655066e+09 -1.815066e+09 -3.496932e+02 -1.175630e+02 1.218130e+02
-1.597237e+09 -1.397237e+09 -1.557237e+09 1.814136e+01 -1.895751e+02 5.729996e+01
-3.590006e+09 -3.390006e+09 -3.550006e+09 -8.562629e+02 -1.052165e+01 6.089213e+01
-1.989815e+09 -1.789821e+09 -1.949818e+09 1.338678e+03 -4.560504e+03 1.004563e+03
-1.591476e+09 -1.391476e+09 -1.551476e+09 -4.846971e+02 -5.045726e+01 -1.997723e+01
-1.778680e+09 -1.578691e+09 -1.738684e+09 1.391608e+03 -6.877988e+03 9.877902e+02
-1.672803e+09 -1.472804e+09 -1.632804e+09 -6.517233e+02 -4.622389e+01 2.443396e+01
-2.002270e+09 -1.802268e+09 -1.962269e+09 -1.504659e+02 -1.659610e+02 1.164909e+02
-3.550989e+09 -3.350987e+09 -3.510988e+09 -1.791608e+02 -3.251130e+02 3.606783e+02
-1.951162e+09 -1.751170e+09 -1.911166e+09 1.495404e+03 -7.380620e+03 9.573494e+02
-3.398466e+09 -3.198459e+09 -3.358467e+09 -1.058699e+03 5.127574e+02 1.719869e+03
-2.481690e+09 -2.281670e+09 -2.441683e+09 -3.567269e+03 6.423172e+03 -7.947481e+03
-1.603109e+09 -1.403109e+09 -1.563109e+09 9.015621e+02 -5.781798e+02 3.791662e+02
-3.013384e+09 -2.813384e+09 -2.973387e+09 2.111399e+03 -3.180619e+03 2.376418e+03
-3.588100e+09 -3.388099e+09 -3.548099e+09 -2.781577e+02 -6.897701e+01 3.883391e+01
-1.595679e+09 -1.395679e+09 -1.555679e+09 -2.709938e+02 -5.113659e+01 -2.853376e+01
-1.985029e+09 -1.785030e+09 -1.945033e+09 5.139989e+03 -6.907306e+03 5.052590e+03
-1.790017e+09 -1.590019e+09 -1.750017e+09 3.276796e+03 -2.960229e+03 2.470767e+03
-2.645014e+09 -2.445017e+09 -2.605019e+09 1.252364e+03 -4.344243e+03 1.592137e+03
-1.671582e+09 -1.471581e+09 -1.631582e+09 -4.538078e+02 -8.284213e+01 7.114127e+01
-3.013926e+09 -2.813926e+09 -2.973926e+09 8.234306e+02 -6.260151e+02 4.307896e+02
-2.159033e+09 -1.959032e+09 -2.119033e+09 -5.288107e+02 -4.067254e+01 1.940531e+01
-2.790686e+09 -2.590687e+09 -2.750686e+09 1.065694e+03 -1.350902e+03 7.691479e+02
-1.584822e+09 -1.384828e+09 -1.544824e+09 1.215876e+03 1.675005e+03 -1.327824e+02
-3.611763e+09 -3.411762e+09 -3.571763e+09 2.819781e+02 -4.034369e+02 3.500382e+02
-1.599358e+09 -1.399358e+09 -1.559357e+09 9.426706e+02 -6.946162e+02 2.859280e+02
-1.997430e+09 -1.797430e+09 -1.957429e+09 2.320664e+02 -2.469584e+02 9.211934e+01
-2.101635e+09 -1.901634e+09 -2.061635e+09 -6.065338e+02 -1.315972e+02 1.033483e+02
-2.001337e+09 -1.801343e+09 -1.961339e+09 -1.642622e+03 -2.388217e+03 -5.735857e+02
-3.611054e+09 -3.411054e+09 -3.571056e+09 -1.023873e+03 -1.267051e+03 -5.743536e+02
-2.946894e+09 -2.746896e+09 -2.906895e+09 -1.269243e+03 -1.222860e+03 -3.164117e+02
-3.260339e+09 -3.060338e+09 -3.220340e+09 8.599343e+02 -1.075298e+03 7.025920e+02
-2.920247e+09 -2.720245e+09 -2.880246e+09 -1.026376e+03 -1.006142e+03 -9.208726e+02
-3.604015e+09 -3.404017e+09 -3.564019e+09 -8.650434e+02 -2.510731e+03 -4.185658e+02
-2.427122e+09 -2.227121e+09 -2.387122e+09 1.166216e+03 -1.144000e+03 9.745303e+02
-3.156980e+09 -2.956982e+09 -3.116983e+09 -1.511049e+03 -2.211579e+03 -7.986889e+02
-1.859179e+09 -1.659191e+09 -1.819184e+09 -3.238269e+02 -7.224448e+03 -8.562439e+01
-3.488456e+09 -3.288455e+09 -3.448456e+09 -8.274829e+02 -8.010850e+02 -4.665215e+02
-3.153239e+09 -2.953239e+09 -3.113238e+09 6.685926e+02 -5.216289e+02 3.255885e+02
-2.723397e+09 -2.523397e+09 -2.683397e+09 7.362823e+02 -7.822853e+02 4.786828e+02
-3.229262e+09 -3.029261e+09 -3.189262e+09 7.672220e+02 -6.904802e+02 6.462145e+02
-3.264894e+09 -3.064891e+09 -3.224896e+09 1.183356e+03 -4.046923e+02 -1.054538e+03
-3.237348e+09 -3.037347e+09 -3.197348e+09 4.629236e+02 -5.740001e+02 4.352608e+02
-1.595694e+09 -1.395699e+09 -1.555696e+09 -2.271069e+03 -2.671507e+03 -7.462080e+02
-1.571100e+09 -1.371105e+09 -1.531103e+09 -4.299099e+03 -4.966493e+03 -2.299708e+03
-1.691389e+09 -1.491392e+09 -1.651389e+09 -4.631668e+03 -3.383720e+03 -2.144090e+03
-3.414304e+09 -3.214305e+09 -3.374308e+09 -1.349677e+03 -2.413580e+03 -8.472730e+02
-2.346885e+09 -2.146891e+09 -2.306886e+09 -2.869223e+03 3.159816e+03 1.020124e+03
-2.075411e+09 -1.875417e+09 -2.035414e+09 -5.061226e+03 7.007240e+03 2.605309e+03
-3.599683e+09 -3.399686e+09 -3.559684e+09 -5.788029e+02 2.902087e+02 3.622333e+01
-2.740432e+09 -2.540434e+09 -2.700434e+09 -3.177042e+03 2.919864e+03 1.787735e+03
-2.780376e+09 -2.580379e+09 -2.740377e+09 -9.855615e+02 2.448520e+02 7.199531e+01
-2.417168e+09 -2.217178e+09 -2.377175e+09 -2.326944e+03 7.554368e+03 1.243494e+03
-1.592155e+09 -1.392157e+09 -1.552155e+09 -6.987063e+02 1.454913e+02 -5.840257e+01
-1.674065e+09 -1.474068e+09 -1.634065e+09 -4.428245e+02 1.262481e+02 -5.376172e+01
-2.769771e+09 -2.569772e+09 -2.729771e+09 -8.265390e+02 9.875497e+01 3.205536e+01
-3.601513e+09 -3.401514e+09 -3.561514e+09 -2.722553e+02 -1.250530e+01 -1.026919e+02
-2.610219e+09 -2.410217e+09 -2.570219e+09 5.677936e+02 -8.371999e+02 9.177298e+02
-1.810275e+09 -1.610274e+09 -1.770274e+09 1.083596e+03 -9.752199e+02 8.182103e+02
-3.195764e+09 -2.995766e+09 -3.155764e+09 -9.797199e+02 3.485147e+02 6.701698e+01
-2.444791e+09 -2.244790e+09 -2.404791e+09 5.727032e+02 -6.214953e+02 5.078860e+02
-3.149309e+09 -2.949304e+09 -3.109310e+09 -1.278118e+03 2.283242e+03 3.184336e+03
-3.587275e+09 -3.387274e+09 -3.547274e+09 -1.610956e+02 4.077453e+01 -1.780421e+00
-1.971712e+09 -1.771715e+09 -1.931713e+09 -9.662984e+02 6.303210e+02 7.677752e+01
-2.130062e+09 -1.930068e+09 -2.090064e+09 -9.491256e+02 1.323017e+03 2.702606e+02
-3.212578e+09 -3.012567e+09 -3.172578e+09 1.327769e+03 -3.927662e+03 9.055918e+02
-2.028357e+09 -1.828347e+09 -1.988357e+09 -9.382948e+03 9.085196e+03 6.871667e+03
-3.592953e+09 -3.392952e+09 -3.552953e+09 -8.524298e+02 1.269147e+02 9.545716e+01
-1.569656e+09 -1.369657e+09 -1.529656e+09 -2.491681e+03 1.385146e+03 5.331797e+02
-2.926100e+09 -2.726095e+09 -2.886105e+09 -4.785856e+03 3.991240e+03 6.020261e+03
-2.541851e+09 -2.341856e+09 -2.501866e+09 -3.628812e+03 1.336228e+04 4.349602e+03
-2.586550e+09 -2.386549e+09 -2.546550e+09 -7.376341e+02 -1.829584e+02 2.669717e+02
-3.264594e+09 -3.064592e+09 -3.224608e+09 -1.077793e+03 7.861540e+03 1.364679e+03
-1.839891e+09 -1.639889e+09 -1.799894e+09 -8.950198e+03 7.007892e+03 9.226946e+03
-2.370079e+09 -2.170077e+09 -2.330094e+09 -6.130726e+03 1.247600e+04 4.552479e+03
-2.436355e+09 -2.236356e+09 -2.396355e+09 2.212482e+03 1.353385e+03 -5.079026e+02
-3.190079e+09 -2.990079e+09 -3.150079e+09 -1.965771e+02 -2.184187e+01 -5.813401e+00
-1.767840e+09 -1.567840e+09 -1.727840e+09 -4.457674e+02 -6.874568e+01 2.044194e+01
-2.457748e+09 -2.257754e+09 -2.417751e+09 3.924209e+02 1.638134e+03 1.639599e+01
-1.916290e+09 -1.716294e+09 -1.876291e+09 2.254116e+03 2.021715e+03 -5.845969e+02
-2.988278e+09 -2.788283e+09 -2.948281e+09 1.786632e+03 2.028651e+03 -4.216928e+02
-2.663606e+09 -2.463606e+09 -2.623606e+09 -2.008178e+02 -4.032259e+01 4.659481e+01
-2.961218e+09 -2.761219e+09 -2.921219e+09 -4.590347e+02 4.327598e+01 -1.572944e+02
-1.584822e+09 -1.384826e+09 -1.544823e+09 1.579689e+03 9.012682e+02 -2.038639e+02
-3.504601e+09 -3.304601e+09 -3.464602e+09 -5.523460e+02 -1.574889e+01 3.616897e+00
-2.816717e+09 -2.616716e+09 -2.776716e+09 -3.801345e+02 -2.349171e+02 2.331816e+02
-2.665486e+09 -2.465486e+09 -2.625486e+09 -4.755971e+02 -1.587118e+02 1.463539e+02
-3.577127e+09 -3.377127e+09 -3.537127e+09 -4.871365e+02 -7.118971e+01 2.202538e+01
-2.698290e+09 -2.498277e+09 -2.658285e+09 6.703339e+03 9.764787e+03 -1.630612e+02
-3.395076e+09 -3.195070e+09 -3.355067e+09 1.805282e+03 5.174690e+03 5.584639e+03
-3.570767e+09 -3.370766e+09 -3.530774e+09 -9.609579e+01 -4.249947e+03 1.104269e+03
-3.585318e+09 -3.385312e+09 -3.545315e+09 -2.852454e+03 -2.651394e+02 -1.146117e+03
-1.934322e+09 -1.734326e+09 -1.894323e+09 1.703472e+03 -2.211154e+03 6.422097e+02
-3.111401e+09 -2.911402e+09 -3.071403e+09 1.196686e+03 -2.315737e+03 1.609932e+03
-1.977057e+09 -1.777060e+09 -1.937057e+09 1.793929e+03 1.288455e+03 -3.422922e+02
-1.560899e+09 -1.360915e+09 -1.520904e+09 3.020583e+03 -9.751615e+03 1.967237e+03
-3.611908e+09 -3.411905e+09 -3.571908e+09 -1.783155e+03 3.701340e+02 8.484952e+02
-2.201237e+09 -2.001238e+09 -2.161242e+09 1.118998e+03 -6.945220e+03 2.579055e+03
-1.796316e+09 -1.596316e+09 -1.756316e+09 5.172310e+02 1.967551e+01 -1.424679e+02
-3.416167e+09 -3.216167e+09 -3.376167e+09 5.524959e+02 6.799537e+00 -1.094317e+02
-3.503313e+09 -3.303310e+09 -3.463318e+09 -3.645195e+02 -2.880879e+03 2.463125e+03
-3.389294e+09 -3.189295e+09 -3.349294e+09 7.340983e+02 -5.978271e+01 -2.270758e+02
-2.985486e+09 -2.785485e+09 -2.945486e+09 7.388381e+02 -1.677142e+02 -2.598816e+02
-2.126199e+09 -1.926188e+09 -2.086183e+09 -2.979345e+03 -2.240354e+03 -1.368969e+04
-1.874329e+09 -1.674328e+09 -1.834328e+09 4.783064e+02 3.142071e+01 -1.379560e+02
-1.598398e+09 -1.398398e+09 -1.558398e+09 3.932891e+02 4.566449e+01 -9.672425e+01
-2.782754e+09 -2.582753e+09 -2.742753e+09 2.597611e+02 -5.054606e+01 -1.173946e+02
-1.805987e+09 -1.605987e+09 -1.765988e+09 5.418374e+02 3.810653e+01 -5.428138e+01
-1.975685e+09 -1.775685e+09 -1.935685e+09 2.725298e+02 3.035316e+01 -3.142247e+01
-3.606742e+09 -3.406741e+09 -3.566742e+09 3.924795e+02 4.390049e+00 -2.238426e+01
-3.287255e+09 -3.087238e+09 -3.247219e+09 -2.131484e+03 1.508353e+04 -7.118157e+03
-2.574394e+09 -2.374365e+09 -2.534381e+09 -6.194344e+03 1.000521e+04 -1.173205e+04
-1.598398e+09 -1.398398e+09 -1.558398e+09 4.250474e+02 3.304770e+01 -9.279332e+01
-1.968042e+09 -1.768043e+09 -1.928042e+09 -7.120834e+02 6.315418e+01 4.366655e+00
-2.118441e+09 -1.918387e+09 -2.078304e+09 5.949806e+03 -5.506777e+04 9.699627e+03
-3.633340e+09 -3.433339e+09 -3.593339e+09 -1.831610e+02 -2.800053e+01 -2.206584e+01
-3.591906e+09 -3.391907e+09 -3.551906e+09 -4.647804e+02 8.423328e+00 -9.307669e+00
-3.608548e+09 -3.408547e+09 -3.568547e+09 -3.615554e+02 6.275911e+01 1.439206e+01
-2.855669e+09 -2.655668e+09 -2.815669e+09 -3.905085e+01 2.864466e+01 -6.637535e+01
-3.393221e+09 -3.193213e+09 -3.353177e+09 -4.716318e+03 -1.062855e+04 -3.174747e+01
-2.838015e+09 -2.638014e+09 -2.798014e+09 -4.546268e+02 6.424523e+01 -1.421241e+01
-3.345435e+09 -3.145418e+09 -3.305382e+09 -1.004491e+03 5.476233e+03 -4.685362e+03
-2.787323e+09 -2.587329e+09 -2.747328e+09 -1.663806e+03 4.790782e+03 1.488432e+03
-2.022923e+09 -1.822876e+09 -1.982797e+09 -1.343553e+04 3.423443e+04 -5.458776e+04
-2.263663e+09 -2.063661e+09 -2.223662e+09 1.489326e+03 5.204650e+02 -3.810898e+02
-3.224121e+09 -3.024121e+09 -3.184128e+09 3.240588e+03 4.405232e+03 -2.553826e+03
-1.568119e+09 -1.368121e+09 -1.528117e+09 -5.978120e+03 4.093700e+03 2.188946e+03
-1.562172e+09 -1.362178e+09 -1.522174e+09 -2.819040e+03 3.305695e+03 9.147843e+02
-2.487982e+09 -2.287957e+09 -2.447915e+09 1.448010e+04 2.183154e+04 1.293873e+04
-2.117468e+09 -1.917426e+09 -2.077393e+09 -5.694074e+03 -4.000891e+04 -8.733735e+03
-1.969319e+09 -1.769317e+09 -1.929319e+09 5.378498e+02 1.789028e+02 -9.923482e+02
-1.583404e+09 -1.383402e+09 -1.543400e+09 1.098045e+04 8.573587e+03 -6.199817e+03
-1.924610e+09 -1.724553e+09 -1.884548e+09 -4.479735e+03 2.085356e+04 -1.507193e+04
-1.758335e+09 -1.558337e+09 -1.718335e+09 1.380272e+03 3.838656e+02 -3.718107e+01
-2.193616e+09 -1.993619e+09 -2.153616e+09 1.493130e+03 6.850278e+02 -1.693350e+02
-3.600838e+09 -3.400830e+09 -3.560823e+09 -5.977974e+02 4.922441e+03 -3.133347e+03
-2.042477e+09 -1.842479e+09 -2.002477e+09 1.437470e+03 4.338476e+02 -1.962933e+02
-3.607666e+09 -3.407657e+09 -3.567643e+09 2.352863e+03 6.626486e+03 2.288800e+03
-2.175145e+09 -1.975132e+09 -2.135138e+09 -3.124455e+03 3.845223e+03 -1.132413e+04
-2.333061e+09 -2.133063e+09 -2.293062e+09 2.005687e+03 9.835364e+02 -4.859248e+02
-3.600843e+09 -3.400833e+09 -3.560827e+09 -3.074323e+03 2.631879e+03 -5.184240e+03
-3.291828e+09 -3.091829e+09 -3.251828e+09 1.150096e+03 2.439825e+02 -6.681083e+01
-2.557320e+09 -2.357321e+09 -2.517321e+09 2.809909e+03 2.642308e+03 -1.631427e+03
-2.543252e+09 -2.343243e+09 -2.503247e+09 1.169694e+03 -2.060172e+03 3.012100e+02
-2.970605e+09 -2.770608e+09 -2.930616e+09 -4.417339e+03 8.534512e+03 4.047026e+03
-2.675931e+09 -2.475913e+09 -2.635922e+09 1.002693e+03 -1.231620e+03 2.826077e+03
-1.693356e+09 -1.493357e+09 -1.653357e+09 -5.997894e+02 -4.230168e+01 -1.466657e+02
-1.701344e+09 -1.501349e+09 -1.661348e+09 7.059952e+03 -5.760181e+03 4.504225e+03
-2.750488e+09 -2.550492e+09 -2.710490e+09 1.882794e+03 1.811418e+03 -4.141849e+02
-3.570768e+09 -3.370766e+09 -3.530774e+09 -2.468100e+02 -4.185807e+03 9.581096e+02
-3.083078e+09 -2.883079e+09 -3.043080e+09 3.025684e+03 2.911750e+03 -1.432886e+03
-2.136502e+09 -1.936499e+09 -2.096500e+09 1.277528e+03 -1.264652e+03 1.943905e+03
-2.051674e+09 -1.851670e+09 -2.011673e+09 -1.833200e+03 4.765671e+02 -3.924185e+02
-3.611907e+09 -3.411905e+09 -3.571908e+09 -1.989211e+03 -7.221894e+01 8.541369e+01
-2.769397e+09 -2.569395e+09 -2.729397e+09 2.858976e+03 1.845405e+03 -2.078258e+03
-3.423926e+09 -3.223929e+09 -3.383928e+09 1.383633e+03 1.157593e+03 -3.227739e+02
-2.673478e+09 -2.473480e+09 -2.633479e+09 2.207401e+03 1.387857e+03 -5.067522e+02
-2.040638e+09 -1.840639e+09 -2.000638e+09 2.404831e+03 1.083965e+03 -7.130204e+02
-3.163484e+09 -2.963482e+09 -3.123483e+09 1.388212e+03 7.481547e+02 -5.107186e+02
-2.857804e+09 -2.657803e+09 -2.817803e+09 1.434433e+03 6.912097e+02 -4.556349e+02
-2.881929e+09 -2.681929e+09 -2.841923e+09 -2.041474e+03 2.332676e+03 -4.851350e+03
-1.577159e+09 -1.377075e+09 -1.537090e+09 -9.363016e+03 -6.811698e+04 -1.244155e+04
-3.412816e+09 -3.212815e+09 -3.372816e+09 1.830902e+03 1.013264e+03 -5.763867e+02
-1.576893e+09 -1.376884e+09 -1.536906e+09 -2.354522e+04 2.472252e+04 1.500762e+04
-3.580895e+09 -3.380887e+09 -3.540911e+09 1.182901e+03 5.513205e+03 -2.019690e+03
-3.537814e+09 -3.337808e+09 -3.497776e+09 -2.212437e+03 -5.480682e+03 -3.070867e+03
-1.667999e+09 -1.467990e+09 -1.627994e+09 -8.683099e+03 6.881604e+03 8.666999e+03
-1.568120e+09 -1.368116e+09 -1.528120e+09 -5.712399e+03 4.227893e+03 4.238395e+03
-2.089011e+09 -1.889014e+09 -2.049010e+09 1.246469e+02 -2.732799e+02 -6.172420e+03
-3.607837e+09 -3.407839e+09 -3.567838e+09 3.662999e+01 2.627463e+01 -6.079197e+02
-1.801908e+09 -1.601910e+09 -1.761910e+09 -2.106137e+02 2.646954e+01 -2.955029e+02
-2.581368e+09 -2.381370e+09 -2.541369e+09 1.491702e+02 3.282308e+01 -3.265753e+02
-3.163090e+09 -2.963092e+09 -3.123091e+09 3.165262e+02 -4.851778e+01 -4.677060e+02
-2.442361e+09 -2.242361e+09 -2.402361e+09 7.330258e+02 -5.057894e+01 -3.798785e+02
-3.605775e+09 -3.405777e+09 -3.565776e+09 -1.933187e+02 -1.886875e+01 -1.579417e+02
-3.505961e+09 -3.305963e+09 -3.465962e+09 -4.142410e+02 -3.703411e+01 -8.268158e+02
-3.257564e+09 -3.057565e+09 -3.217565e+09 -4.434643e+02 1.299662e+01 -2.246307e+02
-3.485365e+09 -3.285364e+09 -3.445365e+09 1.387080e+03 6.295138e+02 -3.161649e+02
-3.480709e+09 -3.280707e+09 -3.440708e+09 1.274628e+03 5.110988e+02 -4.038994e+02
-3.586094e+09 -3.386094e+09 -3.546095e+09 1.619190e+03 7.405663e+02 -4.158849e+02
-2.949536e+09 -2.749537e+09 -2.909536e+09 -9.078750e+02 6.819183e+01 -2.473881e+02
-1.781523e+09 -1.581523e+09 -1.741523e+09 1.572709e+02 2.321961e+01 -1.589177e+01
-1.598285e+09 -1.398285e+09 -1.558285e+09 1.511267e+02 3.363765e+01 -1.499638e+01
-1.763076e+09 -1.563076e+09 -1.723076e+09 2.185872e+02 2.042627e+01 -2.135225e+01
-2.769630e+09 -2.569629e+09 -2.729630e+09 2.290729e+02 5.542242e+00 -2.801188e+01
-2.178071e+09 -1.978069e+09 -2.138071e+09 1.036879e+03 9.330422e+02 -6.881276e+02
-2.571536e+09 -2.371536e+09 -2.531535e+09 1.890361e+03 7.923079e+02 -4.378473e+02
-3.279493e+09 -3.079495e+09 -3.239498e+09 9.613033e+02 -4.093440e+03 1.591369e+03
-2.265237e+09 -2.065236e+09 -2.225245e+09 2.871800e+02 -8.861387e+03 5.033237e+03
-3.026799e+09 -2.826796e+09 -2.986801e+09 1.530809e+03 -1.819597e+03 2.538878e+03
-2.093254e+09 -1.893249e+09 -2.053255e+09 1.667009e+03 -3.952879e+03 4.495719e+03
-3.059217e+09 -2.859219e+09 -3.019222e+09 1.313241e+03 -4.207494e+03 1.720131e+03
-1.915475e+09 -1.715474e+09 -1.875474e+09 4.777572e+03 -3.696438e+03 3.992189e+03
-3.228544e+09 -3.028544e+09 -3.188547e+09 6.083689e+02 -3.325919e+03 1.969670e+03
-2.403768e+09 -2.203767e+09 -2.363767e+09 -1.525358e+02 -2.119266e+02 1.701451e+02
-2.756161e+09 -2.556161e+09 -2.716161e+09 3.038711e+01 -2.322410e+02 1.111753e+02
-3.428117e+09 -3.228116e+09 -3.388117e+09 -5.957300e+01 -1.919308e+02 1.926077e+02
-1.803250e+09 -1.603249e+09 -1.763249e+09 -9.228613e-02 -1.858818e+02 5.919491e+01
-1.791729e+09 -1.591728e+09 -1.751728e+09 1.376067e+03 -9.817340e+02 7.553030e+02
-3.281241e+09 -3.081241e+09 -3.241241e+09 -1.975071e+02 -4.938311e+00 -3.611433e+01
-1.603894e+09 -1.403895e+09 -1.563895e+09 -2.710750e+02 -1.015763e+01 -1.987548e+02
-2.387529e+09 -2.187528e+09 -2.347529e+09 1.203547e+03 -1.214154e+03 1.350322e+03
-1.776960e+09 -1.576960e+09 -1.736959e+09 2.304581e+03 -1.826274e+03 1.574854e+03
-3.175040e+09 -2.975040e+09 -3.135040e+09 -7.517158e+02 1.506089e+02 6.926807e+01
-1.896038e+09 -1.696038e+09 -1.856038e+09 -1.282831e+02 -3.669445e+00 -5.622848e+01
-2.283113e+09 -2.083112e+09 -2.243112e+09 7.518950e+01 -1.314270e+02 2.427879e+01
-2.834313e+09 -2.634312e+09 -2.794313e+09 -1.407072e+02 -1.981495e+02 1.882940e+02
-2.970098e+09 -2.770098e+09 -2.930098e+09 6.625215e+01 1.865635e+01 -2.368163e+01
-1.955029e+09 -1.755028e+09 -1.915028e+09 7.513968e+01 -3.018556e+02 2.423907e+02
-2.601776e+09 -2.401775e+09 -2.561775e+09 -8.971772e+01 -1.434503e+02 1.079493e+01
-3.171468e+09 -2.971467e+09 -3.131468e+09 4.471018e+01 -2.392481e+02 2.351740e+02
-2.171667e+09 -1.971665e+09 -2.131666e+09 4.144304e+01 -2.923727e+02 3.224255e+02
-2.176716e+09 -1.976715e+09 -2.136715e+09 5.899463e+01 6.193325e+00 -2.122191e+01
-1.796257e+09 -1.596256e+09 -1.756257e+09 -1.517277e+02 -1.901850e+02 1.311135e+02
-2.789953e+09 -2.589953e+09 -2.749953e+09 3.178718e+02 1.629694e+01 -3.619099e+01
-2.772544e+09 -2.572544e+09 -2.732544e+09 4.231789e+02 6.538618e+00 -6.848943e+01
-2.351265e+09 -2.151265e+09 -2.311265e+09 2.961307e+02 3.612959e+01 2.334677e+00
-1.696865e+09 -1.496865e+09 -1.656865e+09 6.750574e+01 1.897551e+01 -2.130958e+01
-2.927154e+09 -2.727155e+09 -2.887155e+09 2.516882e+02 4.033782e+00 -2.641025e+01
-3.211861e+09 -3.011861e+09 -3.171861e+09 3.323033e+02 2.180888e+01 -1.026888e+01
-1.887825e+09 -1.687829e+09 -1.847826e+09 -1.224587e+02 2.185776e+02 -2.517926e+01
-3.306199e+09 -3.106199e+09 -3.266199e+09 1.543315e+02 3.959641e+00 -2.362517e+01
-1.832597e+09 -1.632596e+09 -1.792596e+09 6.441517e+02 -5.912650e+02 4.848304e+02
-2.143652e+09 -1.943652e+09 -2.103651e+09 1.397160e+03 -1.108763e+03 6.931541e+02
-2.839547e+09 -2.639546e+09 -2.799547e+09 7.702078e+02 -8.869075e+02 7.421964e+02
-3.113112e+09 -2.913111e+09 -3.073111e+09 6.016226e+02 -4.526553e+02 3.310013e+02
-1.565560e+09 -1.365559e+09 -1.525560e+09 1.783348e+02 2.455102e+01 -2.429532e+01
-2.907468e+09 -2.707469e+09 -2.867469e+09 9.361610e+02 -7.479107e+02 3.390779e+02
-3.436754e+09 -3.236753e+09 -3.396754e+09 4.601762e+02 -4.671670e+02 4.274247e+02
-1.772156e+09 -1.572156e+09 -1.732156e+09 -1.074729e+02 2.294742e+01 -4.169536e+01
-1.778547e+09 -1.578546e+09 -1.738546e+09 7.183176e+01 1.334723e+01 -4.551161e+01
-2.193577e+09 -1.993576e+09 -2.153576e+09 -2.878960e+00 2.028723e+01 -3.915145e+01
-3.390788e+09 -3.190789e+09 -3.350789e+09 5.965456e+02 2.057852e+01 -1.925888e+02
-2.569255e+09 -2.369254e+09 -2.529254e+09 6.662215e+01 3.410251e+01 -3.656859e+01
-1.684264e+09 -1.484263e+09 -1.644263e+09 5.820966e+01 1.869294e+01 -1.631389e+01
-2.589694e+09 -2.389694e+09 -2.549694e+09 -1.721888e+02 2.476310e+01 -3.156822e+01
-1.760343e+09 -1.560342e+09 -1.720342e+09 -4.780362e+01 2.237643e+01 -6.280691e+01
-2.052848e+09 -1.852850e+09 -2.012849e+09 -2.874436e+02 -9.000973e+00 2.429731e+01
-3.213845e+09 -3.013846e+09 -3.173846e+09 -1.473726e+02 -1.080393e+01 -4.939082e+01
-1.994781e+09 -1.794780e+09 -1.954780e+09 8.409824e+01 9.713979e+00 -1.621214e+01
-1.573904e+09 -1.373906e+09 -1.533906e+09 1.726132e+03 -5.526073e+02 -1.838593e+03
-3.242089e+09 -3.042091e+09 -3.202090e+09 -9.824907e+00 5.575952e+00 -4.489020e+01
-1.672390e+09 -1.472391e+09 -1.632391e+09 -1.201853e+03 3.461840e+02 -6.677171e+02
-3.309615e+09 -3.109617e+09 -3.269616e+09 7.858840e+01 1.191776e+01 -1.744694e+01
-3.246767e+09 -3.046768e+09 -3.206767e+09 9.501956e+02 -2.357327e+02 -1.182426e+03
-3.595388e+09 -3.395389e+09 -3.555389e+09 8.019362e+02 -8.427308e+01 -4.222530e+02
-2.133398e+09 -1.933399e+09 -2.093398e+09 -1.256350e+02 5.957915e+00 4.112591e+01
-3.593302e+09 -3.393302e+09 -3.553301e+09 8.962798e+02 -2.911835e+02 -1.015839e+03
-2.731495e+09 -2.531497e+09 -2.691492e+09 -7.519881e+02 4.331742e+02 -4.939071e+03
-3.373974e+09 -3.173975e+09 -3.333975e+09 -1.443812e+02 -1.180822e+01 8.328627e+00
-3.419580e+09 -3.219582e+09 -3.379581e+09 -3.206857e+01 7.170660e+00 -1.362198e+02
-1.584645e+09 -1.384648e+09 -1.544648e+09 2.451766e+03 -1.058181e+03 -3.202658e+03
-2.585232e+09 -2.385234e+09 -2.545233e+09 -7.357505e+02 2.459363e+02 -1.066115e+03
-1.746980e+09 -1.546981e+09 -1.706981e+09 -1.458408e+02 1.507322e+00 -2.729061e+01
-1.770070e+09 -1.570069e+09 -1.730069e+09 -2.804268e+02 -1.004884e+02 6.239556e+01
-1.589929e+09 -1.389931e+09 -1.549931e+09 1.220903e+03 -2.831819e+02 -9.577670e+02
-2.786338e+09 -2.586337e+09 -2.746337e+09 2.974080e+02 -4.739570e+02 4.239744e+02
-2.619228e+09 -2.419229e+09 -2.579229e+09 1.376769e+01 1.215297e+01 -7.162017e+01
-3.330806e+09 -3.130805e+09 -3.290806e+09 2.453011e+02 -3.814126e+02 1.681325e+02
-3.208617e+09 -3.008616e+09 -3.168616e+09 -2.230062e+02 -1.275398e+02 8.098380e+01
-1.561564e+09 -1.361564e+09 -1.521563e+09 -6.418657e+02 9.093318e+01 -3.024062e+01
-1.774519e+09 -1.574522e+09 -1.734520e+09 -8.139677e+02 3.711200e+02 6.160791e+01
-3.370628e+09 -3.170627e+09 -3.330627e+09 -1.032334e+01 -3.254545e+02 1.895188e+02
-2.260545e+09 -2.060544e+09 -2.220544e+09 -6.546758e+01 -1.529798e+02 1.279890e+01
-2.636902e+09 -2.436903e+09 -2.596903e+09 -2.171776e+03 -4.129458e+02 1.776863e+03
-1.889429e+09 -1.689426e+09 -1.849429e+09 -1.634913e+03 -8.453888e+02 -1.726637e+02
-1.591979e+09 -1.391981e+09 -1.551979e+09 -1.290301e+03 4.546856e+02 9.117961e+01
-3.199080e+09 -2.999083e+09 -3.159081e+09 -6.597465e+02 3.089593e+02 4.387860e+00
-2.496520e+09 -2.296524e+09 -2.456522e+09 -4.239571e+03 -2.508817e+03 5.180858e+03
-1.677490e+09 -1.477493e+09 -1.637494e+09 -2.291199e+03 -1.101091e+03 1.952962e+03
-2.361173e+09 -2.161177e+09 -2.321174e+09 -8.745697e+02 3.958093e+02 6.016295e+01
-1.694412e+09 -1.494413e+09 -1.654411e+09 1.674398e+03 5.190299e+02 -2.084898e+02
-1.574766e+09 -1.374775e+09 -1.534770e+09 9.097894e+03 1.014637e+04 -4.461108e+03
-1.588729e+09 -1.388768e+09 -1.548751e+09 7.196551e+03 3.122574e+04 -7.253356e+03
-2.601602e+09 -2.401603e+09 -2.561603e+09 -3.055268e+03 -8.211464e+02 2.026412e+03
-3.324893e+09 -3.124894e+09 -3.284893e+09 -2.585869e+03 -6.582449e+02 2.091863e+03
-2.490046e+09 -2.290043e+09 -2.450046e+09 -3.104626e+03 -1.118179e+03 2.764914e+02
-2.087081e+09 -1.887078e+09 -2.047079e+09 2.015503e+03 8.371868e+02 -1.411918e+03
-1.799309e+09 -1.599311e+09 -1.759310e+09 6.180271e+03 6.005843e+03 -3.816167e+03
-2.095168e+09 -1.895165e+09 -2.055170e+09 -2.947917e+03 -1.251459e+03 3.380607e+02
-2.404213e+09 -2.204208e+09 -2.364211e+09 -2.215709e+03 -1.026600e+03 -1.182918e+02
-2.445988e+09 -2.245983e+09 -2.405985e+09 -5.111856e+03 -5.525075e+03 3.085259e+03
-3.410861e+09 -3.210859e+09 -3.370860e+09 -4.649212e+02 -1.865671e+02 3.347202e+02
-1.660940e+09 -1.460934e+09 -1.620937e+09 8.595166e+03 3.691651e+03 -6.531873e+03
-3.637989e+09 -3.437982e+09 -3.597993e+09 1.363564e+03 2.703187e+03 -3.236908e+03
-2.407018e+09 -2.207017e+09 -2.367018e+09 2.797664e+02 -7.355403e+02 9.394365e+02
-3.329911e+09 -3.129910e+09 -3.289912e+09 -3.138646e+02 -6.632888e+02 8.880798e+02
-1.583409e+09 -1.383389e+09 -1.543399e+09 8.237076e+03 5.036881e+03 -9.344078e+03
-3.408602e+09 -3.208599e+09 -3.368603e+09 3.153235e+02 -7.921984e+02 1.459412e+03
-3.039691e+09 -2.839690e+09 -2.999691e+09 -4.097878e+02 -2.943773e+02 3.938640e+02
-1.978505e+09 -1.778503e+09 -1.938504e+09 2.031107e+02 -3.806472e+02 3.951286e+02
-2.847633e+09 -2.647632e+09 -2.807633e+09 4.548812e+02 -7.526986e+02 5.308316e+02
-2.362982e+09 -2.162982e+09 -2.322982e+09 1.528566e+02 5.142707e+01 -2.906064e+01
-2.600180e+09 -2.400184e+09 -2.560181e+09 -1.603316e+02 2.567143e+02 1.377724e+01
-1.574969e+09 -1.374969e+09 -1.534969e+09 -9.809037e+01 7.866308e+01 -6.467563e+01
-1.574969e+09 -1.374968e+09 -1.534968e+09 2.569535e+01 5.340563e+01 -8.512029e+01
-3.061114e+09 -2.861113e+09 -3.021113e+09 2.257697e+02 4.252307e+01 -4.505132e+01
-3.194775e+09 -2.994775e+09 -3.154775e+09 2.070951e+02 3.385046e+01 -4.290904e+01
-2.719611e+09 -2.519614e+09 -2.679612e+09 -1.275365e+03 7.092914e+02 2.755624e+02
-1.573789e+09 -1.373788e+09 -1.533788e+09 -1.454191e+00 5.831884e+01 -4.853209e+01
-1.801251e+09 -1.601262e+09 -1.761249e+09 -1.277821e+02 -1.953575e+04 2.680487e+04
-3.585627e+09 -3.385616e+09 -3.545633e+09 -8.573740e+02 5.399776e+02 -2.826842e+03
-2.999284e+09 -2.799290e+09 -2.959285e+09 -3.523936e+02 -8.991328e+01 3.061512e+03
-3.191034e+09 -2.991035e+09 -3.151034e+09 -7.750020e+02 1.250026e+02 -2.824402e+01
-2.603091e+09 -2.403093e+09 -2.563091e+09 -8.222312e+02 1.559019e+02 -1.713054e+01
-1.975680e+09 -1.775682e+09 -1.935680e+09 -7.260759e+02 2.462529e+02 4.032645e+01
-1.707466e+09 -1.507477e+09 -1.667457e+09 1.488295e+04 9.456735e+03 4.403879e+04
-2.212655e+09 -2.012619e+09 -2.172489e+09 7.210455e+03 1.553541e+04 1.054454e+04
-2.384201e+09 -2.184203e+09 -2.344201e+09 -7.305786e+02 2.659543e+02 -1.841330e+01
-1.561899e+09 -1.361851e+09 -1.521891e+09 -8.145556e+03 -2.593010e+04 4.151036e+03
-2.530162e+09 -2.330161e+09 -2.490143e+09 -8.432052e+02 -3.408422e+03 -1.608830e+04
-1.560318e+09 -1.360347e+09 -1.520340e+09 -8.373788e+03 2.412419e+04 3.673042e+03
-2.264484e+09 -2.064485e+09 -2.224485e+09 -6.150039e+02 1.581892e+01 -9.947984e+01
-1.603894e+09 -1.403895e+09 -1.563895e+09 -6.800581e+02 1.115603e+02 -3.144896e+02
-3.226425e+09 -3.026429e+09 -3.186428e+09 -1.343819e+03 -1.815192e+03 -5.381197e+02
-2.690429e+09 -2.490413e+09 -2.650391e+09 1.016350e+03 -1.609132e+04 -1.677042e+04
-1.868996e+09 -1.668994e+09 -1.828995e+09 1.186645e+02 3.033231e+01 -1.200674e+02
-2.233708e+09 -2.033712e+09 -2.193709e+09 -1.812605e+03 -2.335613e+03 -8.871811e+02
-2.131737e+09 -1.931741e+09 -2.091739e+09 -1.915774e+03 -2.439712e+03 -7.941311e+02
-1.640859e+09 -1.440860e+09 -1.600860e+09 -4.070154e+02 -5.561417e+01 -3.087371e+01
-3.594545e+09 -3.394544e+09 -3.554544e+09 1.497670e+01 3.062550e+01 5.975796e+00
-3.587276e+09 -3.387274e+09 -3.547275e+09 -3.617027e+02 5.441877e+01 5.444736e+01
-3.601332e+09 -3.401333e+09 -3.561335e+09 -1.097378e+03 -2.018350e+03 -6.525663e+02
-1.980651e+09 -1.780650e+09 -1.940650e+09 6.862175e+01 1.516121e+01 -6.023170e+01
-3.383031e+09 -3.183030e+09 -3.343030e+09 9.878774e+01 -2.124437e+01 -9.394993e+01
-2.736089e+09 -2.536094e+09 -2.696093e+09 -1.143326e+03 -3.273549e+03 -5.950911e+02
-1.574768e+09 -1.374785e+09 -1.534772e+09 7.249377e+03 1.128787e+04 -3.295423e+03
-3.417245e+09 -3.217247e+09 -3.377250e+09 -1.040309e+03 -2.893324e+03 -4.379700e+02
-3.378992e+09 -3.178994e+09 -3.338996e+09 -1.306306e+03 -3.184434e+03 -8.622694e+02
-2.384649e+09 -2.184656e+09 -2.344652e+09 -7.924223e+02 2.514551e+03 2.599491e+02
-1.562174e+09 -1.362177e+09 -1.522174e+09 -4.300616e+03 2.873813e+03 1.790912e+03
-3.423366e+09 -3.223362e+09 -3.383362e+09 -2.618266e+03 -1.558257e+03 9.440960e+02
-2.576340e+09 -2.376341e+09 -2.536281e+09 -2.658265e+03 -9.483577e+03 3.235822e+04
-3.179706e+09 -2.979688e+09 -3.139696e+09 -2.533619e+03 -9.997169e+03 -1.254026e+03
-3.154936e+09 -2.954935e+09 -3.114922e+09 -5.921008e+03 -6.916849e+03 6.443707e+03
-2.733668e+09 -2.533668e+09 -2.693649e+09 3.401512e+03 1.165630e+03 2.167927e+04
-3.593208e+09 -3.393211e+09 -3.553211e+09 -1.194768e+03 1.849930e+03 4.621337e+02
-2.635794e+09 -2.435780e+09 -2.595793e+09 1.820770e+03 1.098928e+03 -6.087902e+03
-1.568116e+09 -1.368116e+09 -1.528114e+09 -4.045669e+03 2.033150e+03 8.651679e+02
-3.577671e+09 -3.377675e+09 -3.537677e+09 -8.558871e+02 3.178890e+03 5.528862e+02
-2.357604e+09 -2.157583e+09 -2.317602e+09 3.410970e+03 6.764146e+02 -1.141681e+04
-3.375965e+09 -3.175957e+09 -3.335966e+09 4.626553e+02 2.639406e+03 -4.242640e+03
-3.016527e+09 -2.816527e+09 -2.976531e+09 -1.956398e+03 -3.308248e+03 -1.611004e+03
-3.045290e+09 -2.845292e+09 -3.005295e+09 -1.834490e+03 -3.772152e+03 -9.812179e+02
-2.513226e+09 -2.313227e+09 -2.473228e+09 -1.934337e+03 -2.368434e+03 -9.645669e+02
-1.668403e+09 -1.468404e+09 -1.628403e+09 3.576105e+01 4.841484e+00 4.174622e+00
-2.577667e+09 -2.377670e+09 -2.537670e+09 -1.741557e+03 -3.021583e+03 -8.373621e+02
-3.572965e+09 -3.372965e+09 -3.532965e+09 3.612168e+02 3.000767e+00 -3.879765e+01
-3.577120e+09 -3.377121e+09 -3.537121e+09 -1.749405e+02 -5.646530e+00 -5.922301e-01
-3.407917e+09 -3.207917e+09 -3.367917e+09 3.407528e+02 9.680605e+00 -2.570243e+01
-3.111692e+09 -2.911693e+09 -3.071699e+09 -1.734553e+03 -5.796428e+03 -9.982944e+02
-2.464772e+09 -2.264775e+09 -2.424774e+09 7.928370e+02 -1.094295e+02 -9.791819e+02
-3.574190e+09 -3.374191e+09 -3.534196e+09 1.250867e+00 -3.578522e+03 7.218559e+02
-3.503643e+09 -3.303641e+09 -3.463651e+09 -5.986829e+02 -5.779125e+03 5.139948e+02
-3.102688e+09 -2.902690e+09 -3.062689e+09 3.558878e+02 -2.393143e+01 -3.471783e+02
-1.584588e+09 -1.384589e+09 -1.544588e+09 2.294272e+03 -1.775268e+03 1.282323e+03
-1.687751e+09 -1.487766e+09 -1.647761e+09 4.607603e+03 -1.104748e+04 3.136323e+03
-3.604197e+09 -3.404187e+09 -3.564198e+09 -2.460437e+03 -7.406216e+02 -8.743216e+01
-2.531100e+09 -2.331102e+09 -2.491101e+09 3.487593e+02 -1.088599e+00 -3.107584e+02
-2.464574e+09 -2.264566e+09 -2.424582e+09 -2.478940e+03 -2.686188e+03 8.716261e+02
-1.860231e+09 -1.660238e+09 -1.820240e+09 3.182012e+03 -9.422414e+03 2.756486e+03
-1.998997e+09 -1.798999e+09 -1.958999e+09 5.588407e+01 3.090566e+01 -5.937401e+02
-3.140880e+09 -2.940880e+09 -3.100880e+09 1.735973e+02 1.767910e+01 -8.442927e+01
-1.789157e+09 -1.589156e+09 -1.749157e+09 1.941056e+02 1.350526e+01 -2.589471e+01
-2.499365e+09 -2.299365e+09 -2.459365e+09 2.124440e+02 2.098346e+01 -2.034642e+01
-2.749403e+09 -2.549403e+09 -2.709403e+09 1.582429e+02 2.258255e+01 -4.840700e+00
-2.536486e+09 -2.336485e+09 -2.496485e+09 1.767289e+02 2.257197e+01 -2.840062e+01
-2.260547e+09 -2.060547e+09 -2.220547e+09 -1.952188e+02 -5.431593e+01 1.287704e+01
-3.402645e+09 -3.202645e+09 -3.362645e+09 -3.583770e+02 -4.500388e+01 2.801951e+00
-3.204832e+09 -3.004831e+09 -3.164831e+09 -3.083372e+02 -1.229872e+02 4.488297e+01
-2.508822e+09 -2.308822e+09 -2.468822e+09 9.831893e+01 1.649271e+01 -1.131921e+01
-1.959784e+09 -1.759783e+09 -1.919783e+09 -1.512645e+02 -6.482533e+01 -2.873118e+01
-3.119128e+09 -2.919127e+09 -3.079127e+09 1.144884e+02 1.976841e+01 -2.048689e+01
-3.593500e+09 -3.393500e+09 -3.553500e+09 1.590469e+02 5.776471e+00 -1.830847e+01
-3.400043e+09 -3.200043e+09 -3.360043e+09 1.394537e+02 1.230361e+01 -3.944397e+00
-2.143920e+09 -1.943924e+09 -2.103927e+09 1.753450e+03 -8.747892e+03 2.854181e+03
-2.537669e+09 -2.337670e+09 -2.497670e+09 3.598590e+02 2.294000e+00 -2.301229e+02
-3.577324e+09 -3.377325e+09 -3.537330e+09 -2.071032e+02 -3.763955e+03 2.353691e+02
-2.577402e+09 -2.377392e+09 -2.537403e+09 2.890691e+03 2.303501e+03 -8.983375e+02
-3.409843e+09 -3.209842e+09 -3.369842e+09 1.524968e+02 1.392694e+01 -1.004119e+01
-1.579162e+09 -1.379157e+09 -1.539158e+09 7.490766e+03 -2.140250e+03 5.572426e+03
-1.950228e+09 -1.750227e+09 -1.910228e+09 -9.423329e+02 1.051916e+02 -3.987213e+01
-3.284422e+09 -3.084424e+09 -3.244422e+09 -1.438990e+03 5.572049e+02 -1.178593e+03
-3.272416e+09 -3.072407e+09 -3.232415e+09 -1.027555e+03 5.497226e+02 3.695981e+03
-3.512402e+09 -3.312400e+09 -3.472402e+09 -1.391271e+03 1.980012e+02 6.632377e+02
-2.781911e+09 -2.581916e+09 -2.741915e+09 6.134279e+02 -3.502090e+03 6.643173e+02
-2.668422e+09 -2.468420e+09 -2.628420e+09 1.696626e+03 -1.302987e+03 -1.337262e+03
-2.679371e+09 -2.479372e+09 -2.639374e+09 1.836124e+03 -4.269159e+03 1.877285e+03
-1.893558e+09 -1.693562e+09 -1.853555e+09 1.493156e+03 -2.008936e+03 -8.614054e+03
-2.553005e+09 -2.353009e+09 -2.513006e+09 1.651405e+03 -2.119001e+03 8.249498e+02
-3.121199e+09 -2.921201e+09 -3.081197e+09 -2.263798e+02 1.292936e+02 -3.455360e+03
-2.570847e+09 -2.370836e+09 -2.530842e+09 2.144338e+02 -2.148855e+03 1.609482e+03
-1.957271e+09 -1.757270e+09 -1.917271e+09 -3.520093e+02 -9.515323e+01 2.557428e+01
-3.590342e+09 -3.390341e+09 -3.550342e+09 -4.320170e+02 -8.775421e+01 4.832267e+01
-3.478389e+09 -3.278389e+09 -3.438389e+09 -2.598228e+02 -1.041906e+01 4.810460e+00
-3.602808e+09 -3.402812e+09 -3.562816e+09 -7.141388e+02 5.190348e+03 5.125999e+02
-1.962360e+09 -1.762339e+09 -1.922340e+09 3.511693e+03 -1.429907e+03 -5.688199e+03
-1.745442e+09 -1.545397e+09 -1.705465e+09 1.427601e+04 1.159262e+04 -2.252943e+04
-1.766901e+09 -1.566869e+09 -1.726892e+09 -3.426882e+01 -2.656391e+02 -1.581025e+04
-1.766571e+09 -1.566567e+09 -1.726582e+09 1.397896e+04 1.576950e+04 -1.385161e+04
-2.691947e+09 -2.491947e+09 -2.651948e+09 -1.897412e+03 -2.342540e+03 -1.227621e+03
-1.592770e+09 -1.392779e+09 -1.552772e+09 -1.844113e+02 -4.523029e+03 2.144180e+02
-1.588833e+09 -1.388833e+09 -1.548833e+09 -3.683930e+02 -3.728007e+01 -2.745985e+01
-3.510435e+09 -3.310434e+09 -3.470435e+09 -2.150000e+02 -2.969870e+01 -1.320039e+01
-3.357503e+09 -3.157491e+09 -3.317475e+09 -1.415314e+03 -8.099035e+03 4.117228e+03
-3.589212e+09 -3.389212e+09 -3.549212e+09 -3.970876e+02 -2.516069e+01 8.146014e+00
-2.552309e+09 -2.352306e+09 -2.512319e+09 2.457716e+03 1.039150e+04 -6.988899e+03
-3.272525e+09 -3.072525e+09 -3.232525e+09 -3.114978e+02 -2.678393e+01 -6.809280e+00
-2.173035e+09 -1.973034e+09 -2.133034e+09 -1.760811e+02 -8.007244e+01 4.083335e+01
-1.680165e+09 -1.480165e+09 -1.640165e+09 -1.834234e+02 -3.692095e+01 -9.345072e+00
-2.959856e+09 -2.759856e+09 -2.919856e+09 -2.961977e+02 -2.245377e+01 -1.856316e+01
-1.887349e+09 -1.687349e+09 -1.847349e+09 -1.772274e+02 -1.002823e+02 4.606233e+00
-1.680165e+09 -1.480165e+09 -1.640165e+09 -2.440421e+02 -3.974130e+01 -4.775307e+00
-2.344012e+09 -2.144011e+09 -2.304011e+09 -3.539975e+02 -1.252177e+02 5.755442e+01
-1.982738e+09 -1.782738e+09 -1.942738e+09 -3.507628e+02 -5.343174e+01 2.522804e+01
-3.328821e+09 -3.128820e+09 -3.288820e+09 -2.258821e+02 -6.501824e+01 -4.480945e+00
-2.376611e+09 -2.176611e+09 -2.336611e+09 -3.493989e+02 -7.233060e+01 -2.234479e+00
-1.674100e+09 -1.474100e+09 -1.634100e+09 -1.903372e+02 -6.870887e+01 -4.014673e+01
-3.181398e+09 -2.981398e+09 -3.141398e+09 -1.884519e+02 -1.490426e+01 -9.633304e+00
-2.985345e+09 -2.785344e+09 -2.945345e+09 -2.670603e+02 -4.866355e+01 -1.559778e+01
-3.557421e+09 -3.357423e+09 -3.517421e+09 8.547929e+02 1.665530e+02 -3.262014e+01
-1.589575e+09 -1.389577e+09 -1.549575e+09 -6.668232e+02 9.171575e+01 -4.009590e+01
-1.997210e+09 -1.797211e+09 -1.957211e+09 3.018297e+02 2.139669e+01 -2.577170e+01
-2.371290e+09 -2.171290e+09 -2.331290e+09 2.575818e+02 1.111727e+01 -1.708724e+00
-3.586094e+09 -3.386095e+09 -3.546095e+09 1.606843e+03 8.304495e+02 -3.488472e+02
-3.492517e+09 -3.292519e+09 -3.452517e+09 8.041952e+02 9.005121e+01 -5.933086e+01
-3.487508e+09 -3.287509e+09 -3.447508e+09 2.516301e+02 1.853859e+00 -1.921144e+01
-1.582604e+09 -1.382608e+09 -1.542605e+09 5.816644e+02 3.504108e+02 -4.002665e+00
-3.300541e+09 -3.100539e+09 -3.260541e+09 1.568881e+03 8.296091e+02 -8.136178e+02
-2.799292e+09 -2.599293e+09 -2.759292e+09 2.946280e+02 1.355108e+01 -6.096317e+01
-2.633275e+09 -2.433277e+09 -2.593275e+09 1.148376e+03 2.949676e+02 -1.108283e+02
-2.175999e+09 -1.976002e+09 -2.136000e+09 6.493365e+02 2.012204e+02 -5.719931e+01
-3.498096e+09 -3.298098e+09 -3.458096e+09 6.963718e+02 2.011752e+02 4.079019e-01
-1.597510e+09 -1.397516e+09 -1.557512e+09 1.815019e+03 -2.979213e+03 7.339805e+02
-1.902132e+09 -1.702135e+09 -1.862133e+09 1.739321e+03 -1.543729e+03 6.461540e+02
-3.617700e+09 -3.417702e+09 -3.577704e+09 5.115921e+02 -2.424533e+03 7.526060e+02
-3.018189e+09 -2.818190e+09 -2.978189e+09 4.068107e+02 1.326964e+01 -4.795191e+01
-3.314431e+09 -3.114433e+09 -3.274433e+09 1.146064e+03 -1.157252e+03 6.536585e+02
-1.956315e+09 -1.756320e+09 -1.916321e+09 -1.448801e+03 -1.435015e+03 4.552879e+03
-2.009335e+09 -1.809330e+09 -1.969334e+09 -2.019923e+03 -5.122087e+01 -3.659035e+02
-2.967758e+09 -2.767763e+09 -2.927757e+09 -3.211368e+03 -1.830121e+03 5.658480e+03
-2.224478e+09 -2.024480e+09 -2.184478e+09 1.402499e+03 -1.096311e+03 6.375984e+02
-3.033281e+09 -2.833277e+09 -2.993279e+09 -1.983969e+03 -1.197630e+03 -1.629614e+02
-3.071491e+09 -2.871493e+09 -3.031487e+09 -4.484133e+03 -2.018018e+03 5.107812e+03
-3.221865e+09 -3.021867e+09 -3.181866e+09 7.463602e+02 -7.182900e+02 2.643245e+02
-1.843073e+09 -1.643073e+09 -1.803073e+09 -4.122721e+02 -5.194511e+01 8.915038e-01
-1.902288e+09 -1.702291e+09 -1.862288e+09 1.182794e+03 -1.014679e+03 4.112831e+02
-3.475892e+09 -3.275894e+09 -3.435892e+09 -5.498825e+02 3.564829e+01 -3.164360e-01
-2.574021e+09 -2.374022e+09 -2.534022e+09 -1.881972e+03 -2.011483e+03 -9.826659e+02
-1.971090e+09 -1.771094e+09 -1.931092e+09 -1.897551e+03 -3.402003e+03 -1.040329e+03
-1.788405e+09 -1.588410e+09 -1.748407e+09 -2.052067e+03 -2.759024e+03 -8.759576e+02
-1.799309e+09 -1.599311e+09 -1.759309e+09 -2.210473e+03 -1.937226e+03 -8.442660e+02
-3.386000e+09 -3.186000e+09 -3.346002e+09 -2.544894e+03 1.995176e+03 1.428549e+03
-1.591323e+09 -1.391325e+09 -1.551323e+09 -9.353325e+02 2.079004e+02 -2.387622e+01
-1.898667e+09 -1.698669e+09 -1.858668e+09 -3.308181e+03 -3.458981e+03 -1.592921e+03
-1.591153e+09 -1.391154e+09 -1.551153e+09 -8.458094e+02 1.529405e+02 -4.252925e+01
-2.244992e+09 -2.044994e+09 -2.204992e+09 -1.922864e+03 -1.708106e+03 -9.390308e+02
-2.894022e+09 -2.694022e+09 -2.854022e+09 -1.036062e+03 -7.836736e+02 -2.687403e+02
-2.528847e+09 -2.328849e+09 -2.488848e+09 -2.048077e+03 1.341709e+03 6.350465e+02
-3.398137e+09 -3.198138e+09 -3.358137e+09 7.497091e+02 -9.933259e+01 -4.780226e+02
-2.585069e+09 -2.385070e+09 -2.545070e+09 6.078943e+02 -4.880830e+01 -3.933722e+02
-3.143291e+09 -2.943293e+09 -3.103292e+09 3.484980e+02 3.507784e+00 -4.047846e+02
-1.954292e+09 -1.754289e+09 -1.914291e+09 1.312525e+03 3.850268e+02 -1.071602e+03
-2.613821e+09 -2.413821e+09 -2.573825e+09 -1.944418e+03 -4.198307e+03 -1.808372e+03
-2.401006e+09 -2.201001e+09 -2.361003e+09 1.832000e+03 8.046983e+02 -2.484427e+03
-3.275134e+09 -3.075133e+09 -3.235135e+09 2.063768e+03 3.227939e+02 -2.266665e+02
-1.678590e+09 -1.478587e+09 -1.638590e+09 1.801055e+03 1.277514e+03 -1.168590e+02
-2.521194e+09 -2.321191e+09 -2.481194e+09 -1.972628e+02 -1.015620e+03 -1.013133e+03
-2.125039e+09 -1.925036e+09 -2.085038e+09 -1.322172e+02 4.962025e+02 -7.772319e+02
-3.585615e+09 -3.385614e+09 -3.545616e+09 2.188195e+03 3.206970e+02 -1.683195e+02
-3.303647e+09 -3.103647e+09 -3.263650e+09 -1.295056e+03 -2.377883e+03 -9.961335e+02
-3.241552e+09 -3.041552e+09 -3.201555e+09 -1.269362e+03 -3.194034e+03 -1.471386e+03
-2.548840e+09 -2.348835e+09 -2.508839e+09 -5.409462e+02 4.247022e+02 -6.175171e+02
-3.482137e+09 -3.282137e+09 -3.442137e+09 -2.030684e+02 -7.731423e+00 2.360068e-01
-3.601852e+09 -3.401848e+09 -3.561854e+09 8.332866e+02 1.611064e+03 -1.499938e+03
-3.411020e+09 -3.211018e+09 -3.371021e+09 1.583325e+03 1.609087e+03 -1.597479e+03
-3.605142e+09 -3.405144e+09 -3.565144e+09 8.656717e+02 -1.214460e+03 5.514151e+02
-3.354821e+09 -3.154820e+09 -3.314821e+09 -4.013287e+02 -3.404531e+01 -9.589811e-01
-2.136635e+09 -1.936636e+09 -2.096635e+09 1.497938e+03 -1.129927e+03 6.304218e+02
-1.917414e+09 -1.717414e+09 -1.877414e+09 -2.398280e+02 -6.006089e+01 -1.516114e+00
-3.195099e+09 -2.995099e+09 -3.155098e+09 2.120799e+02 -2.720701e+02 6.953499e+01
-3.587369e+09 -3.387369e+09 -3.547369e+09 -2.471043e+02 -1.744672e+01 2.843862e+01
-3.106363e+09 -2.906363e+09 -3.066363e+09 -4.416466e+02 -6.552285e+01 8.206692e+00
-1.932708e+09 -1.732709e+09 -1.892708e+09 1.448097e+03 -1.146791e+03 5.013046e+02
-3.050429e+09 -2.850432e+09 -3.010431e+09 1.421616e+03 -9.685565e+02 6.122148e+02
-2.568964e+09 -2.368965e+09 -2.528965e+09 1.314950e+03 -1.392295e+03 6.834358e+02
-1.814446e+09 -1.614448e+09 -1.774446e+09 2.157618e+03 -1.835051e+03 9.399397e+02
-1.592342e+09 -1.392345e+09 -1.552343e+09 1.696748e+03 -1.513856e+03 6.215226e+02
-2.212078e+09 -2.012081e+09 -2.172078e+09 1.045446e+03 -1.135254e+03 3.361327e+02
-2.655745e+09 -2.455744e+09 -2.615744e+09 -1.454583e+02 -4.537199e+00 -4.503862e+01
-1.981212e+09 -1.781212e+09 -1.941212e+09 -1.504614e+02 -1.330420e+01 -5.600115e+01
-1.576710e+09 -1.376710e+09 -1.536711e+09 4.965618e+02 -1.020737e+00 -1.660948e+02
-3.498837e+09 -3.298837e+09 -3.458837e+09 6.568528e+01 1.982880e+00 -1.183871e+01
-2.083041e+09 -1.883041e+09 -2.043041e+09 -2.442166e+02 -3.311555e-01 -4.379365e+01
-1.872127e+09 -1.672127e+09 -1.832127e+09 -1.773612e+02 3.834865e+01 -4.032582e+01
-1.795839e+09 -1.595838e+09 -1.755838e+09 -1.583896e+02 -7.013431e-01 -7.534550e+01
-2.006753e+09 -1.806752e+09 -1.966752e+09 -1.830704e+02 -2.002813e+01 -5.111251e+01
-3.208279e+09 -3.008278e+09 -3.168278e+09 -1.379084e+02 8.390588e+01 3.726476e+00
-1.640524e+09 -1.440525e+09 -1.600525e+09 1.179957e+02 1.512534e+01 -1.054610e+01
-3.358376e+09 -3.158378e+09 -3.318379e+09 -2.397102e+03 2.088011e+03 1.228433e+03
-3.384599e+09 -3.184598e+09 -3.344598e+09 -4.455467e+02 9.186326e+01 5.033940e+01
-3.579531e+09 -3.379529e+09 -3.539530e+09 2.490229e+02 -2.178571e+01 -2.515250e+01
-2.584319e+09 -2.384318e+09 -2.544319e+09 -4.988460e+01 -1.561159e+01 -9.990462e+01
-3.352965e+09 -3.152963e+09 -3.312964e+09 -1.259794e+02 -6.939973e+01 -5.709770e+01
-3.611971e+09 -3.411972e+09 -3.571972e+09 -3.039108e+02 -1.045212e+01 1.406955e+01
-3.630913e+09 -3.430915e+09 -3.590914e+09 -1.266505e+02 7.206538e-01 -6.108492e+01
-3.176699e+09 -2.976698e+09 -3.136698e+09 4.058070e+02 -8.657711e+01 -1.303633e+02
-1.701670e+09 -1.501689e+09 -1.661681e+09 -2.632383e+02 -1.290270e+04 2.504563e+02
-3.508625e+09 -3.308624e+09 -3.468630e+09 -1.010449e+03 -3.947009e+03 -1.011624e+03
-2.040997e+09 -1.841001e+09 -2.000998e+09 -2.006996e+03 -2.133536e+03 -6.401377e+02
-3.604016e+09 -3.404016e+09 -3.564019e+09 -1.136303e+03 -2.442645e+03 -7.196109e+02
-1.766200e+09 -1.566199e+09 -1.726199e+09 -6.566594e+01 -2.048670e+01 -6.355608e+01
-3.585266e+09 -3.385262e+09 -3.545264e+09 -1.723490e+03 6.029421e+01 -5.747156e+02
-2.084345e+09 -1.884344e+09 -2.044344e+09 -2.978817e+02 7.423989e+01 5.779527e+01
-1.888198e+09 -1.688207e+09 -1.848201e+09 4.293225e+03 5.609460e+03 -1.560603e+03
-1.539061e+09 -1.339058e+09 -1.499059e+09 2.235140e+03 1.195452e+03 -1.473735e+03
-3.221690e+09 -3.021691e+09 -3.181692e+09 -2.167125e+03 -7.228221e+02 1.017845e+03
-1.706069e+09 -1.506067e+09 -1.666068e+09 3.293785e+01 1.941672e+01 -1.120591e+02
-3.266722e+09 -3.066717e+09 -3.226724e+09 2.241346e+03 2.027785e+03 -2.798472e+03
-3.059480e+09 -2.859478e+09 -3.019479e+09 -6.727660e+02 3.658994e+02 3.659551e+02
-2.453906e+09 -2.253905e+09 -2.413905e+09 1.155241e+01 9.048631e+01 -4.212642e+01
-3.047184e+09 -2.847182e+09 -3.007183e+09 2.765928e+02 -9.723212e+01 -8.964079e+00
-1.582333e+09 -1.382336e+09 -1.542333e+09 3.953298e+03 3.223276e+03 -1.249461e+03
-3.357023e+09 -3.157021e+09 -3.317022e+09 3.641729e+02 -2.423980e+01 -4.072603e+00
-2.077123e+09 -1.877121e+09 -2.037122e+09 8.315561e+02 -5.010351e+02 -4.633784e+02
-3.611971e+09 -3.411972e+09 -3.571972e+09 -4.637039e+02 1.526230e+01 -3.990505e+01
-1.570940e+09 -1.370938e+09 -1.530939e+09 3.970497e+02 1.045942e+02 2.950784e+00
-3.600630e+09 -3.400631e+09 -3.560631e+09 -3.422949e+02 -1.832609e+01 5.946376e+00
-1.867763e+09 -1.667761e+09 -1.827762e+09 3.877479e+02 -7.814822e+01 -6.651891e+01
-3.246900e+09 -3.046901e+09 -3.206901e+09 -1.689305e+02 -1.238227e-01 -2.010880e+01
-3.595388e+09 -3.395390e+09 -3.555389e+09 4.478052e+02 -3.630997e+01 -5.003227e+02
-1.578136e+09 -1.378042e+09 -1.537943e+09 5.162773e+03 8.149303e+04 1.952381e+04
-2.058538e+09 -1.858539e+09 -2.018539e+09 -4.174959e+02 -2.140079e+01 3.693446e+01
-2.648951e+09 -2.448951e+09 -2.608951e+09 2.785006e+02 4.904664e-01 -7.856112e-02
-3.590303e+09 -3.390303e+09 -3.550303e+09 5.641559e+02 3.818133e-01 -7.403367e+01
-1.897221e+09 -1.697217e+09 -1.857177e+09 1.498114e+03 -5.444883e+03 3.970963e+04
-2.566637e+09 -2.366625e+09 -2.526625e+09 -1.188883e+04 -1.245978e+04 8.776298e+03
-1.584709e+09 -1.384709e+09 -1.544709e+09 2.569583e+02 3.228013e+01 -1.542575e+01
-3.177276e+09 -2.977270e+09 -3.137263e+09 -4.518307e+03 -7.372704e+03 6.412281e+03
-2.003784e+09 -1.803778e+09 -1.963788e+09 -9.855099e+03 -1.447976e+04 7.304693e+03
-2.058376e+09 -1.858377e+09 -2.018377e+09 4.761883e+02 2.544252e+01 -1.383464e+02
-3.317076e+09 -3.117073e+09 -3.277044e+09 2.261472e+03 7.698131e+03 1.472406e+04
-3.614806e+09 -3.414806e+09 -3.574806e+09 4.220873e+02 3.334733e+00 -5.892205e+01
-1.578129e+09 -1.378006e+09 -1.537977e+09 2.571410e+04 -1.007024e+05 -1.525555e+03
-2.052319e+09 -1.852318e+09 -2.012319e+09 3.241831e+02 2.710504e+01 -6.568434e+01
-3.102806e+09 -2.902792e+09 -3.062785e+09 -2.391038e+03 -1.686057e+04 -4.269403e+03
-2.385002e+09 -2.185001e+09 -2.345002e+09 3.735326e+02 5.920413e+01 2.171859e+00
-2.446461e+09 -2.246460e+09 -2.406460e+09 2.346439e+02 4.022942e+01 -6.293575e+01
-3.594545e+09 -3.394544e+09 -3.554544e+09 -7.302490e+01 1.025410e+01 -6.670792e+01
-2.369008e+09 -2.168987e+09 -2.329051e+09 -1.004467e+04 1.994175e+04 -3.273617e+03
-3.362410e+09 -3.162410e+09 -3.322410e+09 3.031777e+02 5.015467e+00 -6.532754e+01
-1.576711e+09 -1.376710e+09 -1.536711e+09 3.749945e+02 6.302109e+01 -9.904035e+01
-3.616907e+09 -3.416908e+09 -3.576908e+09 5.200248e+02 -9.313017e+00 -1.269178e+02
-3.606742e+09 -3.406741e+09 -3.566742e+09 3.491081e+02 1.097854e+01 -2.489875e+01
-3.084732e+09 -2.884732e+09 -3.044732e+09 2.389345e+02 1.189791e+01 -7.196702e+01
-1.615822e+09 -1.415821e+09 -1.575821e+09 -1.848999e+02 5.731929e+01 -8.919060e+01
-3.394367e+09 -3.194367e+09 -3.354367e+09 2.480464e+02 7.746965e+00 -5.509614e+01
-3.041069e+09 -2.841069e+09 -3.001069e+09 3.484865e+02 5.910863e+00 -5.794764e+01
-1.593844e+09 -1.393845e+09 -1.553843e+09 3.475135e+03 -2.150094e+03 2.603777e+03
-1.858558e+09 -1.658564e+09 -1.818561e+09 3.728928e+03 -5.952086e+03 2.678978e+03
-2.141698e+09 -1.941699e+09 -2.101699e+09 2.060528e+02 4.407492e+00 2.668561e+00
-2.907209e+09 -2.707210e+09 -2.867210e+09 1.830796e+02 1.958272e+01 -3.062841e+00
-1.770101e+09 -1.570103e+09 -1.730101e+09 2.226105e+03 1.147063e+03 -4.800967e+02
-2.464454e+09 -2.264455e+09 -2.424454e+09 2.016281e+03 1.004282e+03 -5.414327e+02
-1.796465e+09 -1.596463e+09 -1.756464e+09 9.720099e+02 -9.439549e+02 1.200450e+03
-2.035770e+09 -1.835766e+09 -1.995773e+09 8.838031e+02 -2.313518e+03 3.148092e+03
-1.773770e+09 -1.573770e+09 -1.733769e+09 2.366241e+03 1.100095e+03 -5.670801e+02
-3.605588e+09 -3.405589e+09 -3.565585e+09 3.455160e+02 -2.059310e+02 -2.673481e+03
-2.483270e+09 -2.283271e+09 -2.443268e+09 9.505445e+02 -5.055523e+02 -3.870937e+03
-1.592370e+09 -1.392365e+09 -1.552367e+09 -5.754345e+02 -6.952479e+02 -7.842501e+01
-3.120803e+09 -2.920804e+09 -3.080801e+09 -5.634070e+02 3.475226e+02 -1.836363e+03
-1.712421e+09 -1.512405e+09 -1.672414e+09 -1.322793e+02 -6.527299e+03 3.669195e+03
-3.571333e+09 -3.371334e+09 -3.531336e+09 -1.645513e+03 2.301515e+03 9.807576e+02
-2.636695e+09 -2.436693e+09 -2.596694e+09 -2.105614e+03 8.787148e+02 1.391707e+03
-3.067297e+09 -2.867299e+09 -3.027298e+09 1.720964e+03 8.146222e+02 -2.740576e+02
-3.107136e+09 -2.907135e+09 -3.067136e+09 1.911878e+03 9.666699e+02 -6.332025e+02
-1.631176e+09 -1.431167e+09 -1.591171e+09 -1.121887e+03 -4.788079e+02 1.630531e+03
-1.668423e+09 -1.468423e+09 -1.628424e+09 -1.094914e+04 4.935459e+03 6.390804e+03
-3.399845e+09 -3.199846e+09 -3.359845e+09 1.321398e+03 5.043195e+02 -1.923072e+02
-3.469960e+09 -3.269954e+09 -3.429962e+09 2.493429e+02 1.289131e+03 3.694319e+03
-1.763649e+09 -1.563642e+09 -1.723645e+09 -3.974326e+02 -4.256720e+02 -1.205214e+03
-2.687147e+09 -2.487149e+09 -2.647148e+09 -1.780757e+00 1.165498e+01 -2.493603e+01
-1.829465e+09 -1.629458e+09 -1.789465e+09 -2.613550e+03 -2.216177e+03 2.376128e+03
-2.035205e+09 -1.835200e+09 -1.995207e+09 -5.118849e+03 -3.960139e+03 1.597614e+03
-3.469959e+09 -3.269952e+09 -3.429961e+09 -5.694083e+02 2.289401e+03 3.174636e+03
-3.020827e+09 -2.820833e+09 -2.980831e+09 8.709046e+02 3.436607e+02 2.387410e+03
-3.567836e+09 -3.367831e+09 -3.527848e+09 2.911388e+02 7.127912e+03 2.619922e+03
-3.428214e+09 -3.228208e+09 -3.388223e+09 3.991397e+03 5.258937e+03 -5.391337e+03
-2.655611e+09 -2.455600e+09 -2.615609e+09 -1.608486e+02 -7.997431e+02 -4.055168e+03
-2.262265e+09 -2.062249e+09 -2.222275e+09 6.654750e+03 -2.801307e+04 -1.529772e+04
-1.778055e+09 -1.578057e+09 -1.738052e+09 1.009746e+04 8.986891e+03 -8.747554e+03
-3.618790e+09 -3.418785e+09 -3.578790e+09 -9.807697e+02 6.552216e+02 1.683969e+03
-3.246750e+09 -3.046744e+09 -3.206755e+09 -4.299053e+03 4.117606e+03 6.146105e+03
-3.440247e+09 -3.240243e+09 -3.400248e+09 1.107578e+03 1.049433e+03 -1.656524e+03
-3.604363e+09 -3.404368e+09 -3.564361e+09 8.341161e+02 7.716861e+02 2.949211e+03
-2.613872e+09 -2.413867e+09 -2.573871e+09 2.100430e+03 2.269400e+03 -2.698315e+03
-2.017410e+09 -1.817393e+09 -1.977408e+09 -3.519843e+03 -6.126822e+03 -1.399095e+03
-1.940880e+09 -1.740860e+09 -1.900870e+09 -5.082896e+02 -1.094284e+04 8.175073e+02
-2.152278e+09 -1.952280e+09 -2.112280e+09 -6.755967e+02 2.129000e+02 -3.998522e+02
-2.613769e+09 -2.413771e+09 -2.573770e+09 -6.060320e+02 1.816928e+02 -5.320637e+02
-3.395143e+09 -3.195145e+09 -3.355144e+09 3.134046e+02 3.180448e+01 -8.194347e+02
-2.907035e+09 -2.707037e+09 -2.867036e+09 4.368005e+02 -8.350764e+01 -1.313362e+03
-3.514766e+09 -3.314767e+09 -3.474767e+09 -1.862939e+03 7.804705e+01 5.294343e+02
-3.601170e+09 -3.401170e+09 -3.561167e+09 -2.459783e+03 -7.819900e+02 2.027365e+03
-2.605172e+09 -2.405174e+09 -2.565173e+09 -1.031465e+01 1.206098e+02 -6.308315e+02
-3.591793e+09 -3.391794e+09 -3.551794e+09 3.085271e+02 7.937263e+00 -1.201399e+01
-1.837045e+09 -1.637046e+09 -1.797046e+09 -8.687902e+02 5.820374e+01 -4.615785e+02
-3.566411e+09 -3.366411e+09 -3.526411e+09 2.704647e+02 2.361657e+01 -8.590000e-01
-2.514057e+09 -2.314060e+09 -2.474057e+09 5.415663e+02 -6.958781e+01 -3.373833e+03
-3.169452e+09 -2.969448e+09 -3.129451e+09 1.228334e+03 1.186064e+02 -1.524452e+03
-2.456760e+09 -2.256755e+09 -2.416763e+09 5.483896e+03 5.974437e+03 -4.697174e+03
-3.549478e+09 -3.349474e+09 -3.509477e+09 -3.354656e+01 6.804576e+02 -1.344890e+03
-1.866649e+09 -1.666659e+09 -1.826656e+09 -1.062166e+03 1.776067e+02 7.594228e+03
-1.962642e+09 -1.762641e+09 -1.922641e+09 1.548953e+03 8.539402e+02 -6.656192e+02
-3.486236e+09 -3.286235e+09 -3.446235e+09 5.038299e+01 1.684302e+00 -3.217501e+00
-2.144235e+09 -1.944235e+09 -2.104235e+09 2.507252e+01 1.581618e+00 -3.074845e+01
-2.369782e+09 -2.169782e+09 -2.329785e+09 2.840508e+03 5.792960e+02 1.067662e+02
-3.153125e+09 -2.953125e+09 -3.113124e+09 4.171840e+03 5.044668e+03 4.193074e+03
-3.274008e+09 -3.074008e+09 -3.234008e+09 2.002466e+02 -8.032686e-01 -1.405904e+01
-2.087129e+09 -1.887142e+09 -2.047141e+09 -7.028098e+03 -5.712361e+03 1.685956e+04
-2.396590e+09 -2.196585e+09 -2.356587e+09 -9.867487e+03 -1.460451e+04 7.404162e+03
-3.228771e+09 -3.028770e+09 -3.188770e+09 -5.858440e+00 -4.082320e+00 -2.093437e+01
-2.673340e+09 -2.473342e+09 -2.633337e+09 -3.937842e+03 -2.245949e+03 6.339246e+03
-1.557096e+09 -1.357096e+09 -1.517096e+09 5.754546e+01 1.957023e+01 -5.731772e+01
-1.697671e+09 -1.497670e+09 -1.657670e+09 -6.255214e+01 2.283280e+01 -5.818557e+01
-2.717841e+09 -2.517840e+09 -2.677834e+09 7.094274e+03 1.390416e+04 1.366038e+04
-1.684374e+09 -1.484375e+09 -1.644378e+09 2.359998e+03 9.017682e+02 2.025346e+03
-3.486348e+09 -3.286350e+09 -3.446348e+09 2.746209e+03 8.861969e+02 1.781985e+03
-2.456966e+09 -2.256966e+09 -2.416966e+09 -1.088195e+03 2.770806e+02 7.368409e+01
-3.039103e+09 -2.839103e+09 -2.999103e+09 -9.663999e+02 3.346488e+02 1.363514e+02
-3.058992e+09 -2.858992e+09 -3.018992e+09 -1.404820e+03 5.349043e+02 3.980591e+02
-1.674853e+09 -1.474852e+09 -1.634852e+09 4.504392e+01 2.093286e+01 -3.512015e+01
-3.499643e+09 -3.299642e+09 -3.459642e+09 -7.620636e+01 -4.365901e+00 -1.863767e+01
-2.937618e+09 -2.737617e+09 -2.897617e+09 1.920063e+01 1.493541e+01 -2.582098e+01
-3.046715e+09 -2.846714e+09 -3.006715e+09 -1.350687e+03 2.658294e+02 3.714352e+02
-3.537817e+09 -3.337810e+09 -3.497779e+09 -8.185789e+02 5.473502e+03 -3.673304e+03
-1.892895e+09 -1.692900e+09 -1.852885e+09 1.455107e+04 2.560100e+04 3.810874e+04
-2.488399e+09 -2.288391e+09 -2.448407e+09 5.591559e+03 9.968348e+03 5.272796e+03
-2.111731e+09 -1.911702e+09 -2.071649e+09 8.792959e+03 2.256299e+04 1.636322e+04
-3.101696e+09 -2.901677e+09 -3.061656e+09 3.773651e+03 1.409011e+04 8.841734e+02
-3.326100e+09 -3.126087e+09 -3.286072e+09 1.334991e+03 7.248226e+03 1.691268e+03
-2.564295e+09 -2.364299e+09 -2.524296e+09 4.071185e+02 2.410561e+02 -1.427719e+01
-1.988902e+09 -1.788903e+09 -1.948901e+09 6.881911e+02 5.815224e+01 1.942322e+01
-3.285734e+09 -3.085738e+09 -3.245735e+09 2.990205e+02 2.274179e+02 -5.575082e+00
-2.586321e+09 -2.386325e+09 -2.546322e+09 6.127426e+02 2.797035e+02 -4.050402e+01
-1.895355e+09 -1.695359e+09 -1.855356e+09 3.923062e+02 4.600495e+02 4.072162e+00
-2.147932e+09 -1.947935e+09 -2.107932e+09 9.493147e+02 3.008205e+02 -3.472140e+01
-3.476072e+09 -3.276075e+09 -3.436072e+09 5.222508e+02 1.432346e+02 -1.799523e+01
-2.969298e+09 -2.769302e+09 -2.929299e+09 3.045295e+02 2.781847e+02 -2.024582e+01
-3.587000e+09 -3.387003e+09 -3.547001e+09 8.684559e+02 3.883791e+02 -8.355445e+01
-1.981838e+09 -1.781840e+09 -1.941838e+09 6.977975e+02 1.272422e+02 2.013274e+01
-1.571177e+09 -1.371180e+09 -1.531177e+09 2.091251e+03 8.738170e+02 -2.869873e+02
-3.083851e+09 -2.883855e+09 -3.043852e+09 3.474931e+02 4.432843e+02 1.126724e+01
-3.309817e+09 -3.109818e+09 -3.269817e+09 1.081222e+03 2.570856e+02 -1.285781e+02
-2.662695e+09 -2.462697e+09 -2.622695e+09 1.032403e+03 2.886808e+02 -2.723537e+01
-1.574451e+09 -1.374452e+09 -1.534452e+09 4.143815e+02 3.814663e+01 -4.336973e+01
-2.013333e+09 -1.813333e+09 -1.973332e+09 -2.735530e+02 1.094337e+01 -4.362798e+01
-1.808385e+09 -1.608385e+09 -1.768385e+09 -2.594240e+02 5.522061e+01 -3.641012e+01
-2.630933e+09 -2.430933e+09 -2.590933e+09 -2.553193e+02 1.714866e+01 -4.519838e+01
-2.833003e+09 -2.633003e+09 -2.793003e+09 -3.199187e+02 4.736462e+01 -1.134958e+01
-2.333188e+09 -2.133188e+09 -2.293188e+09 8.784465e+01 2.082040e+01 -4.334890e+01
-1.833066e+09 -1.633066e+09 -1.793066e+09 3.434973e+01 2.281945e+01 -3.085785e+01
-1.784025e+09 -1.584025e+09 -1.744025e+09 -1.295290e+02 4.732571e+01 -5.439148e+01
-3.134609e+09 -2.934609e+09 -3.094609e+09 -2.425130e+02 1.614455e+01 -5.476859e+01
-1.673916e+09 -1.473916e+09 -1.633915e+09 -6.358759e+01 -1.196335e+00 -4.293270e+01
-2.799258e+09 -2.599261e+09 -2.759258e+09 -6.580097e+02 3.273563e+02 3.424711e+01
-1.774845e+09 -1.574848e+09 -1.734845e+09 -7.699745e+02 1.710784e+02 2.956913e+00
-2.498795e+09 -2.298798e+09 -2.458795e+09 -4.311942e+02 2.095712e+02 1.056237e+01
-2.692717e+09 -2.492720e+09 -2.652718e+09 -6.024296e+02 2.205999e+02 3.881421e+01
-2.357088e+09 -2.157088e+09 -2.317088e+09 -7.127047e+01 3.595395e+01 -6.484197e+01
-1.673916e+09 -1.473915e+09 -1.633915e+09 5.379287e+00 2.988007e+01 -4.766374e+01
-1.969399e+09 -1.769399e+09 -1.929399e+09 -6.797878e+01 -3.992904e+00 -5.576289e+01
-1.950823e+09 -1.750822e+09 -1.910822e+09 2.448925e+01 1.064442e+01 -3.416585e+01
-2.236324e+09 -2.036323e+09 -2.196323e+09 2.855746e+01 6.453057e+00 -2.982273e+01
-2.406752e+09 -2.206755e+09 -2.366753e+09 -4.916986e+02 3.900735e+02 -6.804605e+00
-3.607837e+09 -3.407839e+09 -3.567838e+09 3.398316e+02 -8.951808e+00 -4.706655e+02
-2.161406e+09 -1.961409e+09 -2.121406e+09 -3.848171e+02 1.685751e+02 -1.393884e+01
-1.874900e+09 -1.674903e+09 -1.834900e+09 -5.373307e+02 8.332575e+01 -1.578801e+01
-3.602077e+09 -3.402078e+09 -3.562077e+09 7.902800e+02 -8.294054e+01 -6.262381e+02
-3.172302e+09 -2.972301e+09 -3.132301e+09 2.984417e+02 -4.324858e+02 3.999796e+02
-3.465423e+09 -3.265424e+09 -3.425422e+09 9.059116e+02 -4.056029e+02 -1.522789e+03
-3.365568e+09 -3.165567e+09 -3.325568e+09 -3.285822e+02 -1.825156e+02 2.520678e+02
-3.351829e+09 -3.151828e+09 -3.311829e+09 -1.915827e+02 -2.140395e+02 3.318131e+02
-3.590621e+09 -3.390625e+09 -3.550623e+09 5.552186e+02 7.447097e+02 -3.313990e+01
-3.598907e+09 -3.398909e+09 -3.558908e+09 -7.659737e+02 2.033086e+02 3.958012e+01
-2.805382e+09 -2.605381e+09 -2.765382e+09 1.222298e+02 -3.760188e+02 2.985973e+02
-2.594450e+09 -2.394449e+09 -2.554449e+09 2.728519e+02 -4.246688e+02 3.958048e+02
-3.424874e+09 -3.224877e+09 -3.384875e+09 -3.361781e+02 1.662267e+02 -1.839568e+01
-2.603569e+09 -2.403570e+09 -2.563569e+09 4.043937e+02 1.651990e+01 -5.154599e+01
-1.996140e+09 -1.796141e+09 -1.956141e+09 3.811369e+02 1.736143e+01 -6.677655e+01
-2.380830e+09 -2.180831e+09 -2.340831e+09 4.772751e+02 3.069960e+01 -4.941685e+01
-3.368389e+09 -3.168390e+09 -3.328390e+09 3.560459e+02 5.156474e+00 -5.403816e+01
-3.402218e+09 -3.202220e+09 -3.362219e+09 3.671065e+01 8.642366e+00 -4.464681e+01
-2.381289e+09 -2.181289e+09 -2.341289e+09 3.724510e+02 4.214347e+01 -2.640732e+01
-1.775223e+09 -1.575223e+09 -1.735223e+09 3.664213e+02 1.699770e+01 -5.218590e+01
-2.553884e+09 -2.353884e+09 -2.513884e+09 3.823124e+02 3.665737e+01 -1.557186e+01
-1.958429e+09 -1.758429e+09 -1.918429e+09 3.752509e+02 8.022626e+00 -6.843904e+01
-3.259091e+09 -3.059091e+09 -3.219091e+09 5.198897e+01 1.365626e+01 -1.968651e+01
-1.779281e+09 -1.579286e+09 -1.739282e+09 -1.860638e+03 2.042376e+03 5.466520e+02
-3.570875e+09 -3.370874e+09 -3.530874e+09 -2.354100e+00 -7.591386e-01 -1.976366e+01
-3.252525e+09 -3.052525e+09 -3.212525e+09 -9.016414e+01 -4.438967e+00 -4.299267e+01
-3.593500e+09 -3.393500e+09 -3.553500e+09 5.510984e+01 1.656610e+01 -1.522704e+01
-2.249578e+09 -2.049578e+09 -2.209578e+09 -1.423761e+02 -3.330245e+00 -3.305965e+01
-1.570522e+09 -1.370521e+09 -1.530521e+09 8.153897e+01 2.644438e+01 -5.831558e+01
-1.570522e+09 -1.370521e+09 -1.530521e+09 1.332217e+02 3.715388e+01 -3.354717e+01
-2.386383e+09 -2.186383e+09 -2.346383e+09 2.939303e+02 2.640510e+01 -5.725952e+01
-3.543927e+09 -3.343926e+09 -3.503926e+09 -7.356399e+00 2.455016e+01 -2.254603e+01
-1.739203e+09 -1.539203e+09 -1.699203e+09 9.973216e+01 1.648421e+01 -2.790201e+01
-2.904083e+09 -2.704083e+09 -2.864083e+09 -1.956979e+01 -7.201191e-01 -2.852034e+01
-2.597895e+09 -2.397899e+09 -2.557896e+09 -5.703413e+01 2.609454e+02 2.393952e+01
-2.844645e+09 -2.644649e+09 -2.804646e+09 1.336072e+02 2.339083e+02 -3.576261e+00
-2.243988e+09 -2.043992e+09 -2.203988e+09 1.336062e+02 2.252876e+02 -3.849385e+00
-2.660526e+09 -2.460516e+09 -2.620520e+09 8.542292e+02 -1.767512e+03 5.070490e+02
-3.595117e+09 -3.395115e+09 -3.555098e+09 2.687939e+03 -3.915001e+03 -5.862740e+03
-3.514386e+09 -3.314384e+09 -3.474381e+09 1.747518e+03 -2.756978e+03 -2.580132e+03
-2.562831e+09 -2.362835e+09 -2.522832e+09 3.201350e+02 2.450971e+02 -1.438822e+01
-1.687261e+09 -1.487249e+09 -1.647254e+09 4.259259e+03 -3.904185e+03 -1.494999e+03
-3.299798e+09 -3.099802e+09 -3.259799e+09 -3.173036e+01 1.876951e+02 -2.926198e+00
-2.050810e+09 -1.850811e+09 -2.010810e+09 -7.086417e+02 5.920898e+01 -7.200559e+00
-3.579530e+09 -3.379529e+09 -3.539530e+09 4.237398e+02 1.188865e+01 -8.176792e+01
-2.814200e+09 -2.614200e+09 -2.774200e+09 6.891585e+02 -1.350683e+01 -9.053604e+01
-3.498920e+09 -3.298920e+09 -3.458920e+09 2.324677e+02 6.705701e+00 -3.378035e+01
-3.362242e+09 -3.162243e+09 -3.322242e+09 -6.703845e+02 1.130495e+01 -4.970505e+01
-3.586468e+09 -3.386468e+09 -3.546468e+09 4.453558e+02 -1.085731e+00 -8.135439e+01
-3.546712e+09 -3.346712e+09 -3.506712e+09 2.745683e+02 1.504549e+00 -3.508779e+01
-3.278226e+09 -3.078226e+09 -3.238226e+09 2.308590e+02 8.223854e+00 -1.554377e+01
-3.163105e+09 -2.963105e+09 -3.123104e+09 -5.636258e+02 8.901238e+01 -3.515826e+01
-3.290877e+09 -3.090878e+09 -3.250877e+09 -5.682742e+02 9.512878e+01 1.787422e+01
-1.745405e+09 -1.545402e+09 -1.705457e+09 -8.671843e+02 1.394950e+04 -1.472409e+04
-2.223092e+09 -2.023114e+09 -2.183126e+09 -1.506196e+04 3.533100e+04 4.518421e+03
-2.975726e+09 -2.775727e+09 -2.935726e+09 -4.841437e+02 6.221462e+01 -4.314760e+01
-1.581294e+09 -1.381283e+09 -1.541321e+09 -2.918970e+04 2.264183e+04 -4.315119e+03
-3.330959e+09 -3.130958e+09 -3.290958e+09 -6.997857e+01 1.770502e+01 -2.042508e+01
-2.011433e+09 -1.811432e+09 -1.971432e+09 -2.264052e+02 9.918166e+00 -6.276934e+01
-3.238080e+09 -3.038079e+09 -3.198079e+09 -2.389619e+02 7.262468e+01 -3.136901e+01
-2.164401e+09 -1.964409e+09 -2.124409e+09 -3.066844e+03 1.276510e+04 3.273669e+03
-1.561910e+09 -1.361929e+09 -1.521962e+09 -2.154723e+03 1.743464e+04 -9.232643e+03
-3.218474e+09 -3.018474e+09 -3.178474e+09 -1.552189e+02 4.556863e+01 -3.987763e+01
-1.583080e+09 -1.383083e+09 -1.543090e+09 1.544029e+04 1.433014e+04 -1.421582e+04
-2.569731e+09 -2.369733e+09 -2.529732e+09 -4.161662e+02 1.306567e+02 -6.470991e+02
-3.599104e+09 -3.399096e+09 -3.559117e+09 3.783917e+02 2.704856e+02 1.317722e+03
-1.765675e+09 -1.565627e+09 -1.725711e+09 -1.910217e+04 -7.434147e+03 1.271557e+04
-1.896323e+09 -1.696321e+09 -1.856322e+09 1.097517e+02 -9.546090e+01 -1.024880e+02
-2.428115e+09 -2.228115e+09 -2.388115e+09 -9.332779e+02 2.522443e+02 9.344538e+01
-2.066899e+09 -1.866899e+09 -2.026898e+09 -1.549012e+03 4.274660e+02 2.894487e+02
-3.293790e+09 -3.093788e+09 -3.253789e+09 -7.437297e+02 3.290736e+02 4.085719e+02
-3.379244e+09 -3.179244e+09 -3.339244e+09 2.756061e+02 2.234066e+01 -1.132808e+01
-2.457624e+09 -2.257622e+09 -2.417623e+09 1.583933e+03 -1.530892e+03 -1.634807e+03
-2.819047e+09 -2.619048e+09 -2.779047e+09 9.043868e+02 -1.842314e+02 -7.829684e+02
-2.575231e+09 -2.375234e+09 -2.535231e+09 -7.575810e+02 2.205766e+02 -1.957859e+01
-3.223947e+09 -3.023949e+09 -3.183948e+09 4.004852e+02 -5.163683e+01 -8.481995e+02
-3.148466e+09 -2.948467e+09 -3.108467e+09 -1.036635e+02 -4.801532e+00 1.161202e+01
-2.787462e+09 -2.587467e+09 -2.747465e+09 -8.950295e+02 1.823705e+03 2.470489e+02
-3.181237e+09 -2.981240e+09 -3.141238e+09 -7.035001e+02 4.256659e+02 7.733480e+01
-1.981305e+09 -1.781311e+09 -1.941307e+09 -1.240713e+02 1.415345e+03 5.195974e+01
-1.672104e+09 -1.472114e+09 -1.632108e+09 5.013100e+03 -7.098068e+03 3.094896e+03
-1.976886e+09 -1.776891e+09 -1.936888e+09 -6.229525e+02 1.656816e+03 2.248986e+02
-2.502278e+09 -2.302282e+09 -2.462279e+09 2.835740e+02 4.721224e+02 9.794431e+00
-2.715119e+09 -2.515122e+09 -2.675120e+09 -1.408393e+03 7.901422e+02 3.226901e+02
-2.035017e+09 -1.835021e+09 -1.995018e+09 7.382265e+02 -1.523373e+03 2.573942e+02
-2.124205e+09 -1.924209e+09 -2.084206e+09 -8.395284e+02 8.086028e+02 1.958600e+02
-1.674098e+09 -1.474098e+09 -1.634098e+09 3.750013e+01 -1.468791e+02 1.569983e+01
-1.814052e+09 -1.614052e+09 -1.774051e+09 8.379341e+02 -6.474604e+02 4.097170e+02
-3.389219e+09 -3.189223e+09 -3.349222e+09 -5.992339e+02 1.348608e+03 1.073762e+02
-2.271625e+09 -2.071624e+09 -2.231624e+09 6.187726e+02 -4.118514e+02 2.391872e+02
-2.013832e+09 -1.813832e+09 -1.973832e+09 1.181010e+03 -1.258384e+03 8.509084e+02
-3.224843e+09 -3.024844e+09 -3.184845e+09 1.225532e+03 -2.077581e+03 9.588180e+02
-3.605142e+09 -3.405143e+09 -3.565144e+09 7.888166e+02 -1.254676e+03 5.503268e+02
-3.337568e+09 -3.137568e+09 -3.297568e+09 7.824853e+02 -6.278101e+02 2.832557e+02
-2.306811e+09 -2.106812e+09 -2.266811e+09 9.302963e+02 -6.719293e+02 3.040832e+02
-1.665431e+09 -1.465431e+09 -1.625430e+09 1.016864e+03 -6.313445e+02 3.235961e+02
-2.194567e+09 -1.994567e+09 -2.154567e+09 -2.394086e+02 -5.433652e+00 -4.085354e+01
-1.792104e+09 -1.592103e+09 -1.752103e+09 -4.357073e+02 8.260481e+01 -5.023026e+01
-1.884674e+09 -1.684674e+09 -1.844674e+09 -2.416691e+02 -1.572230e+00 -6.589481e+01
-2.583123e+09 -2.383122e+09 -2.543122e+09 -3.949423e+02 6.673308e+01 -2.384754e+01
-3.607659e+09 -3.407650e+09 -3.567640e+09 1.685849e+03 4.682192e+03 1.472577e+03
-2.653699e+09 -2.453702e+09 -2.613701e+09 1.292004e+03 -1.649068e+03 6.573267e+02
-3.214894e+09 -3.014898e+09 -3.174895e+09 -3.883616e+02 3.852803e+02 1.126482e+01
-3.379609e+09 -3.179611e+09 -3.339615e+09 5.617380e+02 -3.741598e+03 1.067439e+03
-2.911245e+09 -2.711249e+09 -2.871247e+09 -8.580158e+02 -1.816937e+03 -1.800200e+02
-2.987095e+09 -2.787098e+09 -2.947095e+09 -1.414150e+02 1.835126e+02 -1.793645e+01
-1.879324e+09 -1.679328e+09 -1.839325e+09 6.041679e+01 4.230064e+02 -2.267799e+01
-1.783712e+09 -1.583716e+09 -1.743713e+09 -5.916358e+02 2.635553e+02 2.062058e+01
-1.806691e+09 -1.606692e+09 -1.766691e+09 1.989875e+03 -1.722330e+03 1.094265e+03
-3.126308e+09 -2.926312e+09 -3.086311e+09 -1.551756e+03 1.457553e+03 5.176275e+02
-2.174332e+09 -1.974335e+09 -2.134332e+09 -1.651481e+02 2.312557e+02 -4.871786e+00
-1.888663e+09 -1.688666e+09 -1.848663e+09 -3.111897e+02 1.477420e+02 1.141626e+01
-1.551992e+09 -1.351994e+09 -1.511993e+09 1.756806e+01 2.434631e+01 -1.867727e+02
-3.263759e+09 -3.063761e+09 -3.223760e+09 -4.800240e+02 2.249353e+01 -8.149682e+01
-1.560734e+09 -1.360735e+09 -1.520734e+09 -2.536963e+02 -1.288057e+01 -1.149687e+00
-3.479659e+09 -3.279658e+09 -3.439659e+09 -1.922649e+02 -8.646975e+00 -2.233485e+00
-2.103768e+09 -1.903770e+09 -2.063769e+09 -1.504451e+02 -2.540058e+01 -1.338259e+02
-2.539590e+09 -2.339592e+09 -2.499591e+09 3.424888e+02 2.618681e+01 -4.095099e+02
-1.969438e+09 -1.769437e+09 -1.929437e+09 -2.155277e+02 -2.338720e+01 -2.109873e+01
-3.348332e+09 -3.148332e+09 -3.308332e+09 2.818819e+02 4.004952e+00 -2.401492e+01
-1.839551e+09 -1.639553e+09 -1.799552e+09 -3.266736e+02 6.673471e+00 -1.467953e+02
-2.743690e+09 -2.543691e+09 -2.703691e+09 -3.177055e+02 1.882547e+01 -7.980003e+01
-1.597366e+09 -1.397366e+09 -1.557366e+09 -2.711103e+02 -6.766614e+01 -2.770963e+01
-2.055032e+09 -1.855034e+09 -2.015033e+09 -3.508469e+02 1.219161e+01 -1.523768e+02
-2.006398e+09 -1.806398e+09 -1.966398e+09 1.953584e+02 1.234764e+01 -2.893010e+00
-3.416246e+09 -3.216247e+09 -3.376247e+09 -1.762056e+02 -9.373568e+00 -1.927173e+02
-2.870013e+09 -2.670013e+09 -2.830013e+09 -1.681374e+02 -2.929365e+01 -1.537085e+01
-3.170752e+09 -2.970752e+09 -3.130752e+09 -2.018435e+02 -2.442526e+01 8.374261e-01
-3.092660e+09 -2.892660e+09 -3.052660e+09 -2.395440e+02 -3.293074e+01 -1.351405e+01
-1.632267e+09 -1.432273e+09 -1.592300e+09 -1.995802e+04 3.404781e+04 6.511736e+03
-2.434175e+09 -2.234192e+09 -2.394190e+09 -2.502797e+03 1.693217e+04 -3.765454e+02
-2.600529e+09 -2.400525e+09 -2.560554e+09 -2.972372e+03 2.125600e+04 8.873715e+01
-1.840323e+09 -1.640321e+09 -1.800322e+09 -1.009591e+04 7.011056e+03 7.336291e+03
-2.524443e+09 -2.324443e+09 -2.484454e+09 -6.695909e+03 1.310567e+04 6.401917e+03
-1.857733e+09 -1.657755e+09 -1.817747e+09 -8.636899e+03 1.797713e+04 3.699841e+03
-3.273845e+09 -3.073847e+09 -3.233854e+09 -2.781530e+03 7.691997e+03 3.529377e+03
-2.880520e+09 -2.680519e+09 -2.840519e+09 -2.163894e+02 -4.877166e+01 -1.054809e+01
-1.974862e+09 -1.774861e+09 -1.934861e+09 -1.395778e+02 -1.107322e+02 2.721133e+00
-2.254164e+09 -2.054163e+09 -2.214164e+09 -2.024836e+02 -3.261078e+01 -2.018830e+01
-1.957001e+09 -1.757000e+09 -1.917001e+09 -2.024472e+02 -3.486719e+01 -1.327492e+01
-1.582877e+09 -1.382881e+09 -1.542878e+09 -1.146678e+03 7.247922e+02 1.908711e+02
-3.112213e+09 -2.912215e+09 -3.072214e+09 -1.397899e+03 8.543384e+02 2.382974e+02
-1.980084e+09 -1.780083e+09 -1.940083e+09 -1.793167e+02 -2.566505e+01 -1.548313e+01
-2.279863e+09 -2.079862e+09 -2.239862e+09 -2.198916e+02 -2.521015e+01 -3.163662e+01
-2.889340e+09 -2.689339e+09 -2.849340e+09 -1.907203e+02 -2.733518e+01 -6.137059e+00
-1.984080e+09 -1.784083e+09 -1.944081e+09 -1.769723e+03 8.180197e+02 4.360917e+02
-2.371780e+09 -2.171782e+09 -2.331781e+09 -1.765469e+03 1.012583e+03 3.492101e+02
-2.843372e+09 -2.643372e+09 -2.803372e+09 -2.183010e+02 -3.761326e+01 -1.263201e+01
-1.818767e+09 -1.618768e+09 -1.778767e+09 -1.179079e+03 4.016381e+02 9.358210e+01
-2.585200e+09 -2.385204e+09 -2.545201e+09 -8.067192e+02 4.697671e+02 1.435617e+02
-1.793535e+09 -1.593537e+09 -1.753536e+09 -1.623663e+03 8.312369e+02 2.649438e+02
-1.694412e+09 -1.494413e+09 -1.654412e+09 1.462523e+03 4.872283e+02 -1.669750e+02
-3.165711e+09 -2.965712e+09 -3.125711e+09 1.048686e+03 2.874060e+02 -9.595661e+01
-3.185675e+09 -2.985675e+09 -3.145675e+09 1.318381e+03 3.496614e+02 -1.498184e+02
-3.496384e+09 -3.296384e+09 -3.456384e+09 1.311996e+03 4.659165e+02 -1.768898e+02
-3.280862e+09 -3.080864e+09 -3.240863e+09 -5.424992e+02 9.313394e+01 6.332787e+00
-3.595014e+09 -3.395016e+09 -3.555014e+09 -5.681847e+02 1.668325e+01 -2.913833e+01
-2.762703e+09 -2.562704e+09 -2.722703e+09 -5.640602e+02 3.772878e+01 -1.582681e+01
-3.498912e+09 -3.298914e+09 -3.458912e+09 6.971191e+02 8.777253e+01 -8.414947e+00
-2.898085e+09 -2.698086e+09 -2.858084e+09 6.962443e+02 1.048592e+02 3.707731e+01
-3.481181e+09 -3.281179e+09 -3.441181e+09 8.776626e+02 5.476586e+02 -5.234678e+02
-2.689229e+09 -2.489231e+09 -2.649229e+09 -7.282987e+02 1.305831e+02 1.943233e+01
-2.201746e+09 -2.001744e+09 -2.161746e+09 -2.851020e+02 2.375687e+02 -5.860175e+02
-1.996224e+09 -1.796226e+09 -1.956224e+09 -7.924189e+02 1.634360e+02 2.484018e+01
-2.079822e+09 -1.879823e+09 -2.039822e+09 -7.335695e+02 8.690428e+01 1.286330e+01
-2.965711e+09 -2.765713e+09 -2.925711e+09 -5.628438e+02 8.575641e+01 -2.033043e+01
-3.003549e+09 -2.803545e+09 -2.963545e+09 -3.558556e+03 3.494954e+03 -8.740630e+02
-2.383196e+09 -2.183189e+09 -2.343194e+09 1.279736e+03 -7.772498e+02 3.202193e+03
-3.178231e+09 -2.978227e+09 -3.138230e+09 5.840165e+02 6.684756e+02 -8.767954e+02
-3.360284e+09 -3.160279e+09 -3.320284e+09 6.510523e+02 4.361190e+02 -1.456996e+03
-1.973714e+09 -1.773714e+09 -1.933714e+09 1.698120e+03 7.951492e+02 -4.906838e+02
-3.463097e+09 -3.263099e+09 -3.423098e+09 1.154976e+03 3.025469e+02 -1.106391e+02
-3.285199e+09 -3.085199e+09 -3.245197e+09 -2.822525e+03 1.141022e+03 -4.972275e+02
-1.780328e+09 -1.580319e+09 -1.740328e+09 2.543049e+03 -1.892229e+03 4.061983e+03
-1.826510e+09 -1.626509e+09 -1.786510e+09 -1.835587e+03 -1.586582e+03 -1.277489e+03
-3.228199e+09 -3.028196e+09 -3.188200e+09 6.329078e+02 -8.074924e+02 -8.702848e+02
-3.213888e+09 -3.013888e+09 -3.173887e+09 -3.364773e+02 7.085928e+01 -3.226528e+01
-1.595695e+09 -1.395699e+09 -1.555696e+09 -3.333895e+03 -2.925407e+03 -1.194712e+03
-3.212405e+09 -3.012405e+09 -3.172404e+09 -2.259820e+02 5.143841e+01 -3.324159e+01
-3.305152e+09 -3.105152e+09 -3.265151e+09 -1.572700e+02 3.446480e+01 -1.138196e+01
-3.136468e+09 -2.936468e+09 -3.096468e+09 -8.224508e+01 2.823593e+01 -3.693996e+01
-3.004156e+09 -2.804153e+09 -2.964156e+09 -3.307856e+02 -6.521695e+02 -9.447918e+02
-1.691387e+09 -1.491389e+09 -1.651388e+09 -3.453539e+03 -2.965422e+03 -1.742672e+03
-3.604082e+09 -3.404079e+09 -3.564083e+09 -2.257710e+02 -1.193341e+03 -1.457690e+03
-3.268334e+09 -3.068333e+09 -3.228337e+09 -1.550664e+03 -2.759359e+03 -1.374274e+03
-1.996840e+09 -1.796840e+09 -1.956840e+09 -3.670230e+02 6.671531e+00 -4.554743e+01
-3.493359e+09 -3.293357e+09 -3.453361e+09 -1.017192e+03 -2.265914e+03 -1.332171e+03
-3.148365e+09 -2.948366e+09 -3.108366e+09 -1.608470e+02 -9.548637e+00 8.027961e-01
-1.986984e+09 -1.786985e+09 -1.946984e+09 -2.246708e+02 -1.553336e+01 1.907360e+01
-3.577120e+09 -3.377121e+09 -3.537121e+09 -2.822207e+02 -3.940095e+00 -3.174142e+00
-2.587550e+09 -2.387549e+09 -2.547549e+09 -1.220973e+02 -1.626961e+01 -6.932484e+01
-2.734178e+09 -2.534178e+09 -2.694178e+09 -7.807293e+01 1.589409e+00 -3.554197e+01
-3.246767e+09 -3.046761e+09 -3.206769e+09 8.534519e+02 -1.169412e+03 -1.993029e+03
-3.493358e+09 -3.293357e+09 -3.453361e+09 -9.998988e+02 -2.372778e+03 -1.110286e+03
-1.555344e+09 -1.355352e+09 -1.515349e+09 -5.782398e+03 -8.958313e+03 -3.607589e+03
-2.790835e+09 -2.590827e+09 -2.750838e+09 2.087597e+03 2.481718e+03 -1.148083e+03
-1.763811e+09 -1.563816e+09 -1.723813e+09 -2.641022e+03 -4.291302e+03 -1.230724e+03
-1.785252e+09 -1.585252e+09 -1.745252e+09 3.732237e+02 3.016603e+01 -6.589871e+01
-2.632426e+09 -2.432426e+09 -2.592426e+09 5.363518e+02 -1.454608e+01 -1.736959e+02
-1.661125e+09 -1.461128e+09 -1.621126e+09 1.329109e+03 5.906406e+02 -5.519637e+01
-3.587000e+09 -3.387003e+09 -3.547001e+09 8.801781e+02 3.853105e+02 -1.862354e+01
-2.645853e+09 -2.445854e+09 -2.605853e+09 1.533166e+03 5.276103e+02 -2.409919e+02
-2.006300e+09 -1.806300e+09 -1.966300e+09 4.477100e+02 2.772934e+01 -9.341573e+01
-3.234544e+09 -3.034544e+09 -3.194544e+09 4.287979e+02 1.951659e+01 -5.358821e+01
-3.120869e+09 -2.920869e+09 -3.080869e+09 3.721819e+02 3.748811e+01 -6.184931e+01
-3.607353e+09 -3.407357e+09 -3.567355e+09 -5.561942e+01 8.454558e+02 4.595992e+01
-2.409706e+09 -2.209708e+09 -2.369706e+09 -1.354684e+03 5.564836e+02 1.119700e+02
-2.611735e+09 -2.411736e+09 -2.571735e+09 -1.507089e+03 7.922321e+02 2.882123e+02
-3.616234e+09 -3.416238e+09 -3.576235e+09 -2.596035e+02 3.757685e+02 2.353729e+01
-2.669198e+09 -2.469198e+09 -2.629198e+09 -1.591829e+03 8.729862e+02 4.325686e+02
-2.020979e+09 -1.820981e+09 -1.980979e+09 -1.356027e+03 5.135265e+02 1.831741e+02
-3.457256e+09 -3.257256e+09 -3.417257e+09 2.034858e+03 1.290696e+03 -7.255157e+02
-1.706818e+09 -1.506825e+09 -1.666820e+09 2.255810e+03 3.436960e+03 -8.498918e+02
-3.540115e+09 -3.340118e+09 -3.500117e+09 1.001228e+03 7.647293e+02 -8.694808e+01
-2.601401e+09 -2.401406e+09 -2.561403e+09 -2.088995e+02 1.037916e+03 3.312759e+01
-2.379606e+09 -2.179606e+09 -2.339606e+09 -2.095615e+03 1.334039e+03 7.141227e+02
-1.582332e+09 -1.382336e+09 -1.542333e+09 3.855566e+03 3.249668e+03 -1.516407e+03
-2.349457e+09 -2.149459e+09 -2.309457e+09 -1.938950e+03 1.159938e+03 3.567013e+02
-2.673501e+09 -2.473501e+09 -2.633501e+09 -1.253980e+03 1.317046e+02 9.818522e+01
-3.384049e+09 -3.184050e+09 -3.344050e+09 -1.390081e+03 4.101294e+02 1.585710e+02
-3.186430e+09 -2.986430e+09 -3.146430e+09 -3.214013e+02 -3.694416e+01 -3.109072e+01
-1.605053e+09 -1.405052e+09 -1.565052e+09 -1.970445e+02 -2.274359e+02 2.183696e+02
-1.591476e+09 -1.391476e+09 -1.551476e+09 -4.722613e+02 -5.505521e+01 6.361377e+00
-2.010618e+09 -1.810620e+09 -1.970618e+09 1.889602e+03 -2.143063e+03 1.071897e+03
-3.392853e+09 -3.192853e+09 -3.352854e+09 -1.909443e+03 1.105229e+03 6.950915e+02
-3.596462e+09 -3.396463e+09 -3.556467e+09 2.839900e+02 -3.245469e+03 9.758490e+02
-1.574871e+09 -1.374878e+09 -1.534874e+09 4.396586e+03 -5.692862e+03 2.309250e+03
-1.584590e+09 -1.384592e+09 -1.544589e+09 3.722246e+03 -2.825041e+03 2.034930e+03
-2.989839e+09 -2.789839e+09 -2.949839e+09 -1.283775e+02 2.475696e+01 -4.658480e+01
-3.516274e+09 -3.316272e+09 -3.476277e+09 3.267004e+02 -2.607312e+03 1.839453e+03
-1.995102e+09 -1.795107e+09 -1.955105e+09 1.514424e+03 -4.446924e+03 7.886944e+02
-3.410166e+09 -3.210166e+09 -3.370166e+09 -1.445404e+03 4.814503e+02 3.554587e+02
-2.472492e+09 -2.272492e+09 -2.432492e+09 -1.514884e+03 6.693624e+02 2.589862e+02
-3.614806e+09 -3.414806e+09 -3.574806e+09 4.899459e+02 -1.124079e+01 -5.523154e+01
-2.437672e+09 -2.237671e+09 -2.397671e+09 -3.656859e+02 8.491351e+01 -3.968460e+01
-3.609406e+09 -3.409407e+09 -3.569407e+09 5.445004e+02 -1.312424e+00 -7.782113e+01
-1.995235e+09 -1.795236e+09 -1.955236e+09 4.651746e+02 3.033357e+01 -7.115990e+00
-2.361209e+09 -2.161210e+09 -2.321210e+09 7.337593e+02 -3.817592e+01 -2.297399e+02
-1.571789e+09 -1.371790e+09 -1.531790e+09 8.103494e+02 -2.373460e+01 -2.964039e+02
-3.254056e+09 -3.054056e+09 -3.214056e+09 -1.205818e+03 4.822232e+02 1.752536e+02
-3.320570e+09 -3.120569e+09 -3.280570e+09 1.243698e+02 1.476960e+01 2.032419e+00
-2.677971e+09 -2.477970e+09 -2.637970e+09 7.594821e+01 3.862230e+00 -1.508526e+01
-2.007430e+09 -1.807430e+09 -1.967430e+09 1.628966e+02 1.749580e+01 -6.191817e+00
-1.689594e+09 -1.489596e+09 -1.649596e+09 -9.707054e+01 1.670094e+01 -2.627661e+02
-3.275482e+09 -3.075483e+09 -3.235483e+09 2.380185e+02 2.383717e+01 1.090926e+01
-3.035092e+09 -2.835092e+09 -2.995092e+09 1.565713e+02 1.905494e+01 -1.467057e+01
-2.399933e+09 -2.199933e+09 -2.359933e+09 4.676412e+02 2.119614e+01 -5.669665e+01
-3.086472e+09 -2.886472e+09 -3.046472e+09 9.962201e+01 1.919101e+01 -1.150246e+01
-1.571789e+09 -1.371790e+09 -1.531790e+09 6.203605e+02 2.186794e+01 -3.642095e+02
-3.027310e+09 -2.827310e+09 -2.987310e+09 9.628270e+01 1.748808e+01 -1.061568e+01
-3.017627e+09 -2.817627e+09 -2.977627e+09 1.145360e+02 1.397506e+01 -1.584809e+01
-1.576945e+09 -1.376944e+09 -1.536944e+09 4.336002e+02 9.644891e+01 -7.250266e+01
-1.921719e+09 -1.721719e+09 -1.881719e+09 1.120395e+02 2.007815e+01 1.178069e+00
-1.556261e+09 -1.356263e+09 -1.516263e+09 8.288954e+02 -1.172637e+02 -5.024958e+02
-2.652560e+09 -2.452559e+09 -2.612559e+09 9.736412e+01 1.582332e+01 -2.402977e+01
-2.096528e+09 -1.896527e+09 -2.056528e+09 9.642283e+01 1.066557e+01 -1.180902e+01
-2.450171e+09 -2.250170e+09 -2.410171e+09 9.809928e+01 1.259907e+01 -2.788966e+01
-1.762524e+09 -1.562524e+09 -1.722524e+09 1.402180e+02 1.579051e+01 -2.183861e+01
-3.590888e+09 -3.390892e+09 -3.550872e+09 -6.946041e+02 -1.843900e+01 9.592540e+03
-3.061254e+09 -2.861249e+09 -3.021253e+09 -3.190331e+03 -1.010073e+03 4.776094e+02
-1.583080e+09 -1.383101e+09 -1.543087e+09 1.262748e+04 2.134478e+04 -7.459795e+03
-2.587896e+09 -2.387894e+09 -2.547895e+09 1.088749e+03 8.912454e+02 -5.015723e+02
-1.626959e+09 -1.426949e+09 -1.586957e+09 -1.930190e+03 -3.295981e+03 -1.610460e+02
-3.342380e+09 -3.142366e+09 -3.302362e+09 2.717342e+03 -1.418415e+04 -7.712987e+03
-3.536625e+09 -3.336614e+09 -3.496623e+09 6.754377e+02 -1.597745e+03 -1.238194e+03
-1.981050e+09 -1.781048e+09 -1.941049e+09 2.989629e+03 1.382831e+03 -1.460808e+03
-2.357376e+09 -2.157378e+09 -2.317392e+09 6.110398e+03 1.450331e+04 -5.169026e+03
-2.942823e+09 -2.742816e+09 -2.902803e+09 -2.085402e+03 2.396734e+03 -9.744791e+03
-3.446597e+09 -3.246595e+09 -3.406590e+09 -1.456358e+03 -2.890101e+03 -4.378291e+03
-2.460281e+09 -2.260280e+09 -2.420280e+09 2.006874e+03 1.270061e+03 -9.746330e+02
-1.787134e+09 -1.587132e+09 -1.747133e+09 2.672357e+03 1.514526e+03 -1.212293e+03
-3.446596e+09 -3.246593e+09 -3.406587e+09 -2.317907e+03 5.185710e+02 -4.384736e+03
-1.958535e+09 -1.758493e+09 -1.918584e+09 2.504850e+03 4.636762e+03 2.992175e+03
-1.612664e+09 -1.412633e+09 -1.572636e+09 5.385515e+03 -2.630894e+04 -7.473820e+03
-2.583314e+09 -2.383312e+09 -2.543314e+09 2.466894e+03 2.164515e+03 -1.657682e+03
-2.898767e+09 -2.698765e+09 -2.858767e+09 1.972101e+03 1.553342e+03 -1.440172e+03
-3.571333e+09 -3.371335e+09 -3.531336e+09 -1.752032e+03 2.162037e+03 9.921452e+02
-1.975094e+09 -1.775101e+09 -1.935096e+09 -9.236767e+03 8.656275e+03 5.732141e+03
-1.644422e+09 -1.444418e+09 -1.604420e+09 -2.490838e+03 6.207107e+02 1.515182e+03
-1.667994e+09 -1.467982e+09 -1.627989e+09 -5.947911e+03 2.522446e+03 5.704441e+03
-2.432561e+09 -2.232560e+09 -2.392560e+09 -1.557295e+03 6.339868e+02 4.701005e+02
-3.054807e+09 -2.854796e+09 -3.014811e+09 -4.159156e+03 1.731691e+03 6.027889e+03
-3.497053e+09 -3.297053e+09 -3.457061e+09 -1.628839e+03 5.574086e+03 2.784202e+03
-3.470395e+09 -3.270390e+09 -3.430397e+09 -1.235890e+03 2.658152e+03 3.323956e+03
-1.832077e+09 -1.632068e+09 -1.792072e+09 -1.204133e+03 -9.394636e+02 1.710434e+03
-3.443473e+09 -3.243468e+09 -3.403471e+09 8.256252e+02 -8.397007e+02 9.248396e+02
-3.107976e+09 -2.907974e+09 -3.067975e+09 -9.127960e+02 3.206622e+02 5.712284e+02
-3.128654e+09 -2.928649e+09 -3.088652e+09 5.639031e+02 -9.734671e+02 6.293719e+02
-3.138220e+09 -2.938216e+09 -3.098218e+09 -3.664209e+02 -4.242584e+01 7.961050e+02
-2.711219e+09 -2.511224e+09 -2.671222e+09 1.101684e+03 1.470983e+03 -2.933168e+02
-2.529248e+09 -2.329252e+09 -2.489249e+09 8.952489e+02 5.812750e+02 -3.138485e+01
-3.359526e+09 -3.159515e+09 -3.319528e+09 5.639541e+03 -9.330166e+03 -3.135695e+03
-2.045191e+09 -1.845193e+09 -2.005192e+09 1.349315e+03 -6.438649e+02 -2.663150e+03
-3.227063e+09 -3.027067e+09 -3.187064e+09 -2.434054e+02 4.477405e+02 3.101999e+01
-1.611133e+09 -1.411137e+09 -1.571134e+09 4.365123e+02 4.195404e+02 -1.117629e+01
-3.411430e+09 -3.211434e+09 -3.371431e+09 1.839594e+02 4.568337e+02 4.804582e+01
-3.336072e+09 -3.136075e+09 -3.296073e+09 9.342372e+02 7.294551e+02 -1.177170e+02
-2.926900e+09 -2.726904e+09 -2.886901e+09 6.068617e+02 8.652677e+02 -1.063224e+02
-3.628860e+09 -3.428858e+09 -3.588860e+09 -2.024411e+03 -4.980399e+02 1.779964e+02
-2.769093e+09 -2.569090e+09 -2.729093e+09 -8.418096e+02 4.071346e+02 -4.996915e+02
-2.833770e+09 -2.633774e+09 -2.793771e+09 1.563524e+02 6.823934e+02 -7.443319e+01
-3.175029e+09 -2.975027e+09 -3.135028e+09 1.328074e+03 4.657389e+02 -3.359069e+02
-2.254166e+09 -2.054167e+09 -2.214166e+09 1.104592e+03 2.257122e+02 -3.647128e+01
-3.423120e+09 -3.223123e+09 -3.383125e+09 5.905533e+02 -3.095780e+03 8.143708e+02
-3.140195e+09 -2.940199e+09 -3.100202e+09 2.857086e+02 -5.048298e+03 8.028192e+02
-3.401950e+09 -3.201954e+09 -3.361956e+09 -1.736970e+02 -4.001731e+03 2.246037e+02
-2.565723e+09 -2.365728e+09 -2.525727e+09 1.083850e+03 -2.995384e+03 9.231986e+02
-3.215180e+09 -3.015184e+09 -3.175186e+09 -2.153484e+02 -3.989615e+03 8.323608e+01
-3.242865e+09 -3.042869e+09 -3.202869e+09 2.199797e+02 -1.821281e+03 2.685897e+02
-2.755314e+09 -2.555319e+09 -2.715318e+09 -1.922537e+02 -3.632048e+03 4.095940e+01
-2.552563e+09 -2.352568e+09 -2.512567e+09 -1.187034e+02 -3.524526e+03 4.001973e+02
-2.029546e+09 -1.829547e+09 -1.989547e+09 1.116455e+03 -2.819020e+02 -1.179028e+03
-3.616234e+09 -3.416238e+09 -3.576235e+09 -1.698107e+01 1.521188e+02 1.301763e+01
-2.393985e+09 -2.193989e+09 -2.353987e+09 -4.084307e+02 4.753719e+02 2.874917e+01
-2.929211e+09 -2.729213e+09 -2.889211e+09 3.530587e+02 -1.193580e+02 -2.132392e+03
-3.264473e+09 -3.064475e+09 -3.224473e+09 8.284846e+02 1.222553e+02 1.898656e+01
-1.589929e+09 -1.389931e+09 -1.549931e+09 1.129874e+03 -3.322567e+02 -9.909624e+02
-1.639639e+09 -1.439640e+09 -1.599640e+09 6.719636e+02 -3.605607e+00 -2.128240e+02
-2.185749e+09 -1.985750e+09 -2.145750e+09 9.722556e+02 -1.418778e+02 -6.905713e+02
-2.153481e+09 -1.953480e+09 -2.113479e+09 9.936032e+02 -1.295830e+03 -1.698725e+03
-2.429381e+09 -2.229383e+09 -2.389383e+09 6.818563e+02 -1.513744e+02 -6.190056e+02
-2.478069e+09 -2.278067e+09 -2.438068e+09 8.964562e+02 -4.788311e+02 -3.116078e+02
-3.027470e+09 -2.827467e+09 -2.987469e+09 -1.227825e+02 -7.707592e+01 2.043733e+02
-1.589575e+09 -1.389577e+09 -1.549575e+09 -7.173599e+02 2.086063e+02 -3.466221e+01
-2.781107e+09 -2.581108e+09 -2.741107e+09 -8.458086e+02 1.319887e+02 2.820724e+01
-2.942611e+09 -2.742612e+09 -2.902611e+09 1.338089e+03 -3.593174e+02 -1.062074e+03
-2.181383e+09 -1.981383e+09 -2.141382e+09 -1.097386e+02 3.830795e+00 -3.949706e+01
-3.596553e+09 -3.396553e+09 -3.556553e+09 -1.952241e+02 2.867830e+00 -3.334562e+01
-1.988040e+09 -1.788040e+09 -1.948039e+09 -3.765390e+02 1.318416e+01 -3.760033e+01
-1.602157e+09 -1.402161e+09 -1.562157e+09 -2.471299e+02 3.553963e+02 -1.942047e+01
-3.600708e+09 -3.400712e+09 -3.560709e+09 5.650287e+02 3.679327e+02 -5.280956e+01
-1.958304e+09 -1.758308e+09 -1.918305e+09 5.826008e+01 2.062227e+02 -1.588955e+00
-1.696840e+09 -1.496840e+09 -1.656840e+09 1.753358e+02 2.883295e+01 -3.391093e+00
-2.064034e+09 -1.864033e+09 -2.024033e+09 9.861196e+01 8.694474e+00 -1.992484e+01
-3.489355e+09 -3.289354e+09 -3.449355e+09 1.067908e+02 -7.395045e-01 -9.464052e+00
-1.674908e+09 -1.474909e+09 -1.634908e+09 5.517139e+02 -3.897232e+02 1.247857e+02
-3.385068e+09 -3.185068e+09 -3.345068e+09 -4.682245e+02 -4.553526e+00 -6.181599e+01
-1.579286e+09 -1.379286e+09 -1.539286e+09 1.934892e+02 3.643419e+01 -2.317379e+01
-3.149596e+09 -2.949595e+09 -3.109595e+09 -5.067826e+02 8.265369e+01 -3.037353e+01
-1.804277e+09 -1.604276e+09 -1.764276e+09 -3.418546e+02 8.942711e+01 -3.557573e+01
-1.655285e+09 -1.455288e+09 -1.615285e+09 2.947443e+03 1.966498e+03 -7.745434e+02
-2.778208e+09 -2.578209e+09 -2.738209e+09 4.076429e+02 1.304963e+01 -9.010071e+01
-3.414066e+09 -3.214066e+09 -3.374066e+09 4.955967e+02 -9.441092e+00 -1.275357e+02
-2.658399e+09 -2.458401e+09 -2.618399e+09 1.218281e+03 3.832200e+02 -9.765283e+01
-1.798711e+09 -1.598711e+09 -1.758711e+09 4.700075e+02 3.742278e+01 -6.173067e+01
-3.385728e+09 -3.185728e+09 -3.345728e+09 4.429825e+02 4.093285e-02 -1.046517e+02
-2.003308e+09 -1.803312e+09 -1.963309e+09 -4.068453e+02 4.810624e+02 5.367652e+01
-1.678737e+09 -1.478736e+09 -1.638736e+09 1.683012e+03 5.604502e+02 -4.799340e+02
-2.970526e+09 -2.770529e+09 -2.930526e+09 -3.730347e+02 1.697447e+02 -2.914444e+01
-3.391217e+09 -3.191220e+09 -3.351218e+09 -6.090631e+02 2.868260e+02 -2.054172e+01
-2.104435e+09 -1.904440e+09 -2.064437e+09 9.045470e+02 1.310976e+03 -1.540768e+02
-2.593119e+09 -2.393118e+09 -2.553119e+09 2.054060e+03 1.058329e+03 -8.230102e+02
-3.092540e+09 -2.892543e+09 -3.052541e+09 -5.923730e+02 2.430176e+02 1.736882e+01
-3.581063e+09 -3.381067e+09 -3.541065e+09 -5.631932e+02 4.572047e+02 9.571457e+01
-3.115469e+09 -2.915473e+09 -3.075471e+09 1.054194e+03 1.268841e+03 -2.041071e+02
-1.588219e+09 -1.388218e+09 -1.548218e+09 2.947115e+03 1.791068e+03 -1.256010e+03
-3.498214e+09 -3.298213e+09 -3.458210e+09 1.468730e+03 -1.031366e+03 -2.203438e+03
-3.498215e+09 -3.298213e+09 -3.458210e+09 1.572241e+03 -1.717846e+03 -1.407524e+03
-3.605589e+09 -3.405589e+09 -3.565585e+09 2.757246e+02 -4.985820e+02 -2.084067e+03
-2.484581e+09 -2.284584e+09 -2.444582e+09 -6.776586e+02 1.419960e+02 -1.409853e+01
-3.108300e+09 -2.908299e+09 -3.068298e+09 -1.532684e+03 8.937827e+02 -1.243951e+03
-3.593500e+09 -3.393500e+09 -3.553500e+09 6.403045e+01 5.846775e+00 -2.046646e+01
-1.579286e+09 -1.379286e+09 -1.539286e+09 1.200683e+02 3.361516e+01 -2.402257e+01
-2.462378e+09 -2.262373e+09 -2.422357e+09 -3.736778e+03 4.013433e+03 -1.120855e+04
-3.250669e+09 -3.050665e+09 -3.210656e+09 -2.724502e+03 2.735145e+03 -7.486130e+03
-3.070201e+09 -2.870196e+09 -3.030188e+09 -1.977118e+03 -4.533891e+02 -3.176575e+03
-2.057647e+09 -1.857640e+09 -2.017635e+09 -3.563523e+03 -9.936728e+02 -1.201119e+04
-1.936686e+09 -1.736668e+09 -1.896676e+09 -3.347621e+03 -7.136419e+03 2.965770e+03
-1.764714e+09 -1.564713e+09 -1.724713e+09 4.198853e+03 2.939558e+03 -1.949628e+03
-1.926007e+09 -1.726012e+09 -1.886009e+09 9.658170e+02 8.790837e+02 -1.769579e+02
-1.568285e+09 -1.368295e+09 -1.528287e+09 -1.005023e+03 4.227398e+03 3.414236e+02
-2.602282e+09 -2.402282e+09 -2.562282e+09 1.394559e+02 1.200861e+01 -3.970330e+01
-2.541155e+09 -2.341151e+09 -2.501154e+09 2.489673e+03 2.017748e+03 -2.550097e+03
-2.396492e+09 -2.196487e+09 -2.356498e+09 8.157354e+03 9.006675e+03 -9.265516e+03
-1.704862e+09 -1.504872e+09 -1.664865e+09 3.552998e+03 5.603232e+03 -1.473060e+03
-3.576272e+09 -3.376274e+09 -3.536276e+09 2.074930e+03 3.209537e+03 -1.313688e+03
-2.799223e+09 -2.599220e+09 -2.759222e+09 1.903986e+03 1.762207e+03 -1.535300e+03
-2.722129e+09 -2.522135e+09 -2.682138e+09 5.252869e+02 8.579703e+03 5.604203e+02
-3.602807e+09 -3.402810e+09 -3.562816e+09 1.356109e+00 5.632270e+03 5.114008e+02
-1.973342e+09 -1.773341e+09 -1.933341e+09 1.507051e+03 5.077607e+02 -2.283202e+02
-2.592487e+09 -2.392491e+09 -2.552492e+09 2.786628e+03 5.887208e+03 -2.056771e+03
-1.671848e+09 -1.471847e+09 -1.631847e+09 1.691497e+03 8.958555e+02 -5.328557e+02
-2.697250e+09 -2.497253e+09 -2.657250e+09 7.290261e+02 3.663189e+02 -2.098526e+01
-2.778747e+09 -2.578752e+09 -2.738749e+09 -9.859086e+01 1.856705e+03 -1.012980e+01
-2.964060e+09 -2.764060e+09 -2.924061e+09 2.542492e+03 1.539757e+03 -1.148420e+03
-2.064463e+09 -1.864467e+09 -2.024464e+09 1.747502e+03 1.973227e+03 -5.991744e+02
-3.200078e+09 -3.000076e+09 -3.160079e+09 1.899315e+03 1.628112e+03 -1.432871e+03
-1.980084e+09 -1.780083e+09 -1.940083e+09 -1.562538e+02 -2.214737e+01 -1.188594e+01
-3.408666e+09 -3.208667e+09 -3.368667e+09 4.965177e+02 -5.537163e+00 -1.375643e+02
-3.609406e+09 -3.409407e+09 -3.569407e+09 3.825553e+02 -4.850197e+00 -1.511233e+02
-2.012311e+09 -1.812312e+09 -1.972312e+09 5.808206e+02 2.150621e+01 -2.792836e+02
-2.063418e+09 -1.863420e+09 -2.023420e+09 1.234283e+02 2.121152e+00 -3.549963e+02
-3.406403e+09 -3.206404e+09 -3.366404e+09 4.286608e+02 -1.721038e+01 -2.892683e+02
-2.392849e+09 -2.192851e+09 -2.352851e+09 3.370113e+02 2.859245e+01 -4.033293e+02
-1.586586e+09 -1.386585e+09 -1.546585e+09 -2.201100e+02 -1.125887e+02 -3.325968e+01
-3.315737e+09 -3.115738e+09 -3.275737e+09 3.427512e+02 2.197127e+01 -9.676712e+01
-3.178572e+09 -2.978574e+09 -3.138573e+09 3.268706e+02 2.057156e+01 -3.210840e+01
-2.606898e+09 -2.406900e+09 -2.566900e+09 1.482076e+02 -7.558841e+00 -1.891652e+02
-2.140476e+09 -1.940476e+09 -2.100476e+09 3.005643e+02 1.160450e+01 -3.240040e+01
-2.269356e+09 -2.069355e+09 -2.229356e+09 -1.683734e+02 -9.701520e+00 -1.233875e+00
-1.560898e+09 -1.360915e+09 -1.520906e+09 6.311417e+02 -1.144852e+04 1.225054e+03
-3.334338e+09 -3.134337e+09 -3.294337e+09 2.504723e+02 2.009034e+01 -1.927924e+01
-1.574660e+09 -1.374661e+09 -1.534661e+09 -1.597235e+01 6.107204e-01 5.581077e+01
-2.787792e+09 -2.587791e+09 -2.747791e+09 2.093277e+02 1.213994e+01 -1.442750e+01
-2.927757e+09 -2.727762e+09 -2.887759e+09 2.409039e+02 -1.831644e+03 2.656822e+02
-1.701668e+09 -1.501685e+09 -1.661680e+09 1.058767e+03 -1.185401e+04 9.502282e+02
-3.290404e+09 -3.090405e+09 -3.250412e+09 -2.019190e+03 -5.719522e+03 -7.603018e+02
-1.588974e+09 -1.388984e+09 -1.548989e+09 6.685068e+03 -1.343074e+04 6.672423e+03
-1.954611e+09 -1.754610e+09 -1.914611e+09 2.002215e+02 3.939215e+01 -2.235883e+01
-2.356983e+09 -2.156985e+09 -2.316995e+09 -1.833513e+03 -1.087171e+04 -7.997870e+02
-2.742393e+09 -2.542393e+09 -2.702393e+09 2.011020e+02 1.974842e+01 -4.923191e+00
-1.578461e+09 -1.378461e+09 -1.538461e+09 -4.694918e+02 -2.391980e+02 1.091384e+02
-1.803906e+09 -1.603915e+09 -1.763909e+09 2.705325e+02 -4.594614e+03 3.849024e+02
-2.361028e+09 -2.161033e+09 -2.321034e+09 -2.134224e+03 -7.851332e+03 -9.978679e+02
-3.428898e+09 -3.228901e+09 -3.388903e+09 -6.433336e+01 -2.820038e+03 1.939723e+02
-2.872282e+09 -2.672282e+09 -2.832282e+09 6.015933e+02 -5.533514e+02 2.834844e+02
-2.647338e+09 -2.447342e+09 -2.607341e+09 -1.306626e+03 -3.115551e+03 -5.586795e+02
-1.795408e+09 -1.595407e+09 -1.755408e+09 -1.918568e+02 -1.185091e+02 -3.136631e+01
-3.608478e+09 -3.408477e+09 -3.568478e+09 -2.278223e+02 -1.133003e+02 7.415512e+01
-3.590342e+09 -3.390341e+09 -3.550341e+09 -4.508030e+02 -9.427213e+01 7.929566e+01
-1.711762e+09 -1.511761e+09 -1.671761e+09 2.366525e+02 -2.379608e+02 9.381636e+01
-2.660549e+09 -2.460553e+09 -2.620553e+09 -3.315976e+02 -3.891033e+03 6.085670e+01
-3.232777e+09 -3.032776e+09 -3.192776e+09 2.186480e+02 -1.802653e+02 1.586818e+02
-1.978892e+09 -1.778891e+09 -1.938892e+09 -3.018348e+02 -1.069949e+02 2.136168e+01
-2.339457e+09 -2.139458e+09 -2.299458e+09 -7.569850e+02 -6.152236e+01 -4.379254e+01
-3.630284e+09 -3.430285e+09 -3.590285e+09 9.829211e+01 6.303725e+00 -1.041699e+01
-3.281431e+09 -3.081432e+09 -3.241432e+09 -3.425714e+02 -2.054926e+01 -2.054191e+00
-1.673891e+09 -1.473897e+09 -1.633892e+09 -6.384733e+02 -2.128432e+03 -9.481303e+01
-2.244766e+09 -2.044767e+09 -2.204767e+09 2.613611e+02 1.080414e+01 -1.249371e+01
-3.615669e+09 -3.415671e+09 -3.575673e+09 2.757289e+02 -2.797313e+03 3.475390e+02
-1.592223e+09 -1.392235e+09 -1.552228e+09 2.189799e+02 -6.770955e+03 4.692859e+02
-3.576272e+09 -3.376271e+09 -3.536277e+09 2.119165e+03 3.095804e+03 -1.962299e+03
-3.110844e+09 -2.910845e+09 -3.070845e+09 -2.401942e+02 1.047567e+01 -1.155624e+02
-1.599551e+09 -1.399560e+09 -1.559554e+09 8.496617e+02 -4.055656e+03 5.843293e+02
-2.745132e+09 -2.545135e+09 -2.705136e+09 1.048077e+03 -4.408896e+03 1.586555e+03
-3.161146e+09 -2.961141e+09 -3.121153e+09 -1.908266e+03 2.614560e+03 1.327909e+03
-3.577806e+09 -3.377806e+09 -3.537812e+09 -7.123287e+02 -4.482293e+03 -3.873026e+02
-1.592224e+09 -1.392236e+09 -1.552228e+09 7.463387e+02 -6.832324e+03 5.419789e+02
-1.655370e+09 -1.455383e+09 -1.615375e+09 -1.563361e+03 -6.578195e+03 -4.024690e+02
-3.390180e+09 -3.190182e+09 -3.350181e+09 -9.290003e+01 1.551422e+01 -6.670989e+01
-3.427767e+09 -3.227769e+09 -3.387768e+09 -1.275869e+02 -1.603925e-01 -7.349465e+01
-3.610566e+09 -3.410564e+09 -3.570568e+09 -8.837948e+01 -1.377424e+03 1.469290e+03
-3.516274e+09 -3.316272e+09 -3.476277e+09 2.273769e+02 -2.523806e+03 1.706802e+03
-3.330353e+09 -3.130353e+09 -3.290356e+09 7.029716e+02 -2.626718e+03 1.443707e+03
-3.589300e+09 -3.389297e+09 -3.549301e+09 -7.676763e+02 -1.358663e+03 1.809018e+03
-3.058113e+09 -2.858114e+09 -3.018114e+09 3.012253e+02 1.592137e+01 -2.153680e+02
-1.640859e+09 -1.440860e+09 -1.600860e+09 -4.064121e+02 -1.595684e+01 -4.698403e+01
-2.100309e+09 -1.900303e+09 -2.060306e+09 9.402046e+03 1.597336e+04 1.422796e+04
-1.564778e+09 -1.364778e+09 -1.524778e+09 -3.323568e+02 -7.755396e+01 -2.768330e+00
-1.698413e+09 -1.498413e+09 -1.658414e+09 -7.318741e+02 -6.499367e+01 -1.133250e+02
-3.420490e+09 -3.220488e+09 -3.380484e+09 5.314948e+03 4.686164e+03 3.006229e+03
-3.585316e+09 -3.385315e+09 -3.545316e+09 -6.033423e+02 -9.038092e+01 1.786194e+02
-3.296887e+09 -3.096881e+09 -3.256868e+09 7.821844e+03 1.215491e+04 9.141915e+03
-3.605624e+09 -3.405622e+09 -3.565623e+09 -6.198265e+02 -1.871350e+02 2.372003e+02
-2.166785e+09 -1.966785e+09 -2.126785e+09 -2.110794e+02 -1.521435e+01 -2.978112e+00
-1.708463e+09 -1.508462e+09 -1.668463e+09 -1.845494e+02 -6.801741e+01 -1.252388e+01
-2.052435e+09 -1.852441e+09 -2.012438e+09 -1.255335e+03 -4.753163e+03 -5.463088e+02
-3.123965e+09 -2.923966e+09 -3.083972e+09 -1.037871e+03 -4.113521e+03 -9.791062e+02
-2.631452e+09 -2.431456e+09 -2.591455e+09 -1.187674e+03 -3.173183e+03 -4.188499e+02
-3.144035e+09 -2.944039e+09 -3.104039e+09 -1.056997e+03 -2.703738e+03 -3.599749e+02
-2.112926e+09 -1.912932e+09 -2.072929e+09 -1.072588e+03 -3.056812e+03 -3.638380e+02
-3.244103e+09 -3.044105e+09 -3.204109e+09 -7.768499e+02 -4.115720e+03 -4.897160e+02
-3.533719e+09 -3.333721e+09 -3.493721e+09 -1.213194e+03 -1.596212e+03 -5.663903e+02
-3.198579e+09 -2.998584e+09 -3.158583e+09 -8.247324e+02 -1.886561e+03 -2.844711e+02
-1.584646e+09 -1.384648e+09 -1.544648e+09 2.011945e+03 -1.222788e+03 -2.998767e+03
-2.405805e+09 -2.205797e+09 -2.365815e+09 -8.339215e+03 1.266562e+04 8.496540e+03
-2.514035e+09 -2.314045e+09 -2.474043e+09 -3.174679e+02 7.525626e+03 5.201976e+02
-3.554152e+09 -3.354154e+09 -3.514154e+09 -1.012907e+03 -1.201965e+03 -3.252148e+02
-3.176401e+09 -2.976396e+09 -3.136405e+09 -3.096826e+03 2.666562e+03 3.454951e+03
-2.111648e+09 -1.911639e+09 -2.071641e+09 -7.636202e+02 -7.857678e+01 2.302652e+03
-1.876476e+09 -1.676473e+09 -1.836475e+09 -1.245389e+03 4.359366e+02 6.103986e+02
-2.793568e+09 -2.593563e+09 -2.753566e+09 -1.066727e+03 6.922577e+02 1.310153e+03
-1.697014e+09 -1.497013e+09 -1.657013e+09 -1.927453e+02 -3.702173e+01 -2.321889e+01
-1.648402e+09 -1.448401e+09 -1.608401e+09 -1.981889e+02 -5.063339e+01 -1.469607e+01
-3.167333e+09 -2.967336e+09 -3.127338e+09 -3.194632e+03 3.887198e+03 1.922488e+03
-3.488456e+09 -3.288455e+09 -3.448456e+09 -7.223716e+02 -7.513672e+02 -3.853690e+02
-3.612538e+09 -3.412534e+09 -3.572537e+09 -6.871780e+02 3.126082e+02 9.754370e+02
-1.847161e+09 -1.647159e+09 -1.807160e+09 -2.959874e+03 1.687826e+03 1.471959e+03
-3.166289e+09 -2.966290e+09 -3.126291e+09 -2.374937e+03 1.828781e+03 1.145492e+03
-2.735832e+09 -2.535833e+09 -2.695833e+09 -2.385400e+03 1.600136e+03 1.118938e+03
-2.590343e+09 -2.390342e+09 -2.550343e+09 -2.231310e+03 1.444001e+03 1.104514e+03
-3.176139e+09 -2.976138e+09 -3.136140e+09 -2.361937e+03 1.971156e+03 1.377071e+03
-1.743413e+09 -1.543415e+09 -1.703413e+09 -2.968095e+03 1.337713e+03 1.044088e+03
-1.955854e+09 -1.755859e+09 -1.915856e+09 -2.170055e+03 2.352731e+03 7.258784e+02
-3.186155e+09 -2.986154e+09 -3.146155e+09 -1.109611e+03 -4.675908e+02 -5.403803e+02
-2.380789e+09 -2.180789e+09 -2.340789e+09 -2.112556e+03 1.235085e+03 7.269495e+02
-3.155249e+09 -2.955250e+09 -3.115251e+09 -2.362935e+03 2.018117e+03 1.142016e+03
-1.772396e+09 -1.572396e+09 -1.732396e+09 -2.712641e+03 1.558578e+03 7.067915e+02
-1.944612e+09 -1.744614e+09 -1.904612e+09 -3.738497e+03 2.154850e+03 1.418513e+03
-1.741873e+09 -1.541875e+09 -1.701873e+09 -4.720507e+03 3.391991e+03 1.581372e+03
-2.327100e+09 -2.127101e+09 -2.287101e+09 -3.111273e+03 2.633715e+03 1.470711e+03
-2.780793e+09 -2.580794e+09 -2.740793e+09 -1.761090e+03 7.926005e+02 4.642546e+02
-3.179894e+09 -2.979895e+09 -3.139895e+09 -1.751740e+03 9.504543e+02 4.520358e+02
-3.397889e+09 -3.197889e+09 -3.357889e+09 -1.352251e+03 5.939730e+02 3.337908e+02
-2.783130e+09 -2.583132e+09 -2.743131e+09 1.948346e+03 1.058501e+03 -4.284096e+02
-2.186009e+09 -1.986006e+09 -2.146008e+09 9.143604e+02 5.743029e+02 -8.164623e+02
-1.895216e+09 -1.695213e+09 -1.855214e+09 8.375891e+02 5.631361e+02 -7.074632e+02
-3.395368e+09 -3.195367e+09 -3.355369e+09 -1.751494e+03 9.727904e+02 9.443147e+02
-1.983259e+09 -1.783259e+09 -1.943258e+09 -2.140212e+03 8.807984e+02 6.054489e+02
-2.931979e+09 -2.731976e+09 -2.891968e+09 2.631144e+03 -6.693533e+03 -5.600222e+03
-2.914516e+09 -2.714508e+09 -2.874514e+09 -1.749249e+03 8.258112e+02 4.056560e+03
-1.706819e+09 -1.506825e+09 -1.666821e+09 3.492538e+03 3.078840e+03 -1.048766e+03
-1.548482e+09 -1.348514e+09 -1.508491e+09 4.218582e+03 1.750379e+04 -3.302331e+03
-1.794295e+09 -1.594299e+09 -1.754296e+09 2.180215e+03 1.760579e+03 -4.529342e+02
-3.601852e+09 -3.401848e+09 -3.561854e+09 1.351188e+03 1.457923e+03 -1.965748e+03
-2.596895e+09 -2.396897e+09 -2.556896e+09 2.076683e+03 1.064389e+03 -5.258226e+02
-1.582333e+09 -1.382332e+09 -1.542333e+09 4.243144e+03 2.628019e+03 -1.867604e+03
-3.279862e+09 -3.079864e+09 -3.239862e+09 -7.018311e+02 1.336513e+02 4.323410e+01
-1.576897e+09 -1.376849e+09 -1.536906e+09 -1.912129e+04 9.617196e+03 2.452348e+04
-2.020241e+09 -1.820231e+09 -1.980235e+09 2.859599e+03 -6.716251e+03 -4.162133e+03
-3.070435e+09 -2.870436e+09 -3.030435e+09 -7.032590e+02 8.772613e+01 -2.664214e+01
-3.318462e+09 -3.118460e+09 -3.278450e+09 1.225345e+03 -4.700355e+03 -1.005629e+04
-1.840701e+09 -1.640675e+09 -1.800700e+09 -9.852633e+03 1.659068e+03 1.312722e+04
-1.589249e+09 -1.389252e+09 -1.549249e+09 -5.577172e+02 2.763513e+02 -3.121643e+01
-3.024675e+09 -2.824676e+09 -2.984675e+09 -1.261151e+03 4.836487e+02 1.695966e+02
-1.557371e+09 -1.357370e+09 -1.517370e+09 -5.154594e+02 5.523502e+01 -4.364347e+01
-2.716196e+09 -2.516200e+09 -2.676198e+09 -1.555158e+03 1.346759e+03 5.324246e+02
-1.573684e+09 -1.373687e+09 -1.533685e+09 -8.775930e+02 2.815200e+02 3.695932e+01
-3.606624e+09 -3.406624e+09 -3.566624e+09 -3.111988e+02 -3.224778e+01 1.592332e+01
-2.183968e+09 -1.983969e+09 -2.143969e+09 -3.318455e+02 -1.889494e+01 9.335945e-01
-2.544599e+09 -2.344600e+09 -2.504600e+09 -3.212016e+03 2.757111e+03 1.441066e+03
-3.204172e+09 -3.004172e+09 -3.164172e+09 -3.169021e+02 -2.653442e+01 5.525667e+01
-2.771990e+09 -2.571992e+09 -2.731991e+09 -1.731254e+03 8.112383e+02 4.602498e+02
-3.498986e+09 -3.298985e+09 -3.458985e+09 -2.074367e+02 -1.013173e+01 -1.081605e+01
-3.135430e+09 -2.935430e+09 -3.095430e+09 -2.198216e+02 -3.196677e+01 -1.599479e+01
-2.516938e+09 -2.316941e+09 -2.476940e+09 -1.554861e+03 1.319544e+03 3.466259e+02
-2.854821e+09 -2.654821e+09 -2.814821e+09 -1.985778e+02 -4.977278e+01 -3.415110e+00
-3.605241e+09 -3.405241e+09 -3.565241e+09 -2.869610e+02 -2.083480e+01 1.953333e+01
-3.422441e+09 -3.222443e+09 -3.382442e+09 -3.248165e+02 -5.069054e+00 -3.670604e+01
-1.574660e+09 -1.374661e+09 -1.534661e+09 -9.000226e+01 9.038512e-01 -6.738377e-01
-2.030439e+09 -1.830440e+09 -1.990440e+09 -2.968835e+02 -1.702458e+01 -1.503206e+00
-2.858155e+09 -2.658156e+09 -2.818156e+09 -1.891349e+02 -1.370256e+01 2.051511e+01
-3.597189e+09 -3.397189e+09 -3.557189e+09 -3.314321e+02 -7.143669e+00 -3.914146e+01
-3.296335e+09 -3.096334e+09 -3.256334e+09 -2.411755e+02 -2.002749e+01 -1.417111e+01
-3.372233e+09 -3.172232e+09 -3.332233e+09 -3.405008e+02 -4.045666e+01 -8.107195e+00
-3.589212e+09 -3.389212e+09 -3.549212e+09 -4.343468e+02 -2.918653e+01 -3.028546e-01
-2.788425e+09 -2.588424e+09 -2.748425e+09 -4.849798e+02 -6.165065e+01 5.384946e+00
-2.043492e+09 -1.843492e+09 -2.003492e+09 -4.641801e+02 -2.875516e+01 3.934121e+01
-2.247988e+09 -2.047988e+09 -2.207988e+09 -3.044951e+02 -1.646696e+01 -4.229756e+00
-3.286910e+09 -3.086911e+09 -3.246911e+09 -2.738198e+02 -8.496666e+00 -1.491203e+01
-3.171092e+09 -2.971093e+09 -3.131093e+09 -1.723440e+03 9.559619e+02 4.495042e+02
-1.772226e+09 -1.572246e+09 -1.732261e+09 1.198475e+04 3.216750e+04 -1.485023e+04
-3.123544e+09 -2.923548e+09 -3.083527e+09 1.858473e+03 1.781295e+03 1.343895e+04
-3.509473e+09 -3.309466e+09 -3.469445e+09 3.060673e+03 8.033749e+03 8.917076e+03
-2.778876e+09 -2.578878e+09 -2.738877e+09 -1.044537e+03 5.700900e+02 7.218543e+01
-1.682601e+09 -1.482601e+09 -1.642601e+09 -1.357445e+03 3.623856e+02 -2.556562e+02
-1.573685e+09 -1.373688e+09 -1.533685e+09 -9.632623e+02 4.388080e+02 2.429207e+01
-1.782524e+09 -1.582527e+09 -1.742524e+09 -1.510859e+03 6.019137e+02 2.608218e+02
-3.116704e+09 -2.916707e+09 -3.076705e+09 -1.274547e+03 7.118525e+02 2.301182e+02
-3.579709e+09 -3.379711e+09 -3.539711e+09 1.959337e+02 2.053391e+01 -9.897690e+01
-3.366156e+09 -3.166158e+09 -3.326157e+09 -1.674922e+03 1.026554e+03 5.747226e+02
-2.455979e+09 -2.255979e+09 -2.415979e+09 3.213334e+02 -3.969966e+00 -1.396593e+02
-2.324003e+09 -2.124003e+09 -2.284003e+09 -5.867628e+02 -3.934759e+01 -8.022287e+01
-2.552976e+09 -2.352977e+09 -2.512976e+09 1.190103e+03 -4.714432e+02 -1.259297e+03
-2.356057e+09 -2.156056e+09 -2.316056e+09 -3.652308e+01 2.354084e+01 -5.974943e+01
-1.802376e+09 -1.602376e+09 -1.762376e+09 -8.718060e+01 5.625851e+00 -9.079367e+01
-2.574473e+09 -2.374475e+09 -2.534474e+09 8.804372e+02 -1.540271e+02 -7.571745e+02
-1.581290e+09 -1.381170e+09 -1.541295e+09 -1.858984e+04 -4.970962e+04 -9.160890e+03
-3.034044e+09 -2.834032e+09 -2.994022e+09 -3.201526e+03 3.007728e+03 -1.062134e+04
-3.211670e+09 -3.011670e+09 -3.171670e+09 5.831986e+02 -8.871555e+00 -1.543448e+02
-3.177391e+09 -2.977391e+09 -3.137391e+09 3.468681e+02 -3.003620e+01 -1.043184e+02
-3.580894e+09 -3.380885e+09 -3.540908e+09 1.313190e+03 3.635772e+03 -1.892040e+03
-3.599107e+09 -3.399099e+09 -3.559117e+09 1.174878e+03 -9.222098e+02 3.285186e+03
-1.577185e+09 -1.377142e+09 -1.537152e+09 -4.088816e+03 -9.080374e+03 -3.509794e+04
-3.375892e+09 -3.175880e+09 -3.335902e+09 9.813180e+02 3.482646e+03 2.073530e+03
-1.571899e+09 -1.371898e+09 -1.531899e+09 -3.292281e+02 -1.353337e+02 2.382105e+01
-1.581284e+09 -1.381192e+09 -1.541274e+09 -2.332046e+04 -2.829319e+04 1.071400e+04
-3.595613e+09 -3.395604e+09 -3.555617e+09 -1.210132e+03 -7.138132e+02 -2.248398e+03
-3.337453e+09 -3.137453e+09 -3.297453e+09 5.149073e+02 -3.230789e+01 -1.250310e+02
-3.614143e+09 -3.414144e+09 -3.574141e+09 -1.867162e+03 1.078469e+03 -1.890762e+03
-3.186034e+09 -2.986033e+09 -3.146033e+09 2.622522e+02 1.395846e+01 -1.014009e+02
-3.327205e+09 -3.127207e+09 -3.287204e+09 -5.820208e+02 4.650083e+02 -1.817454e+03
-3.585037e+09 -3.385038e+09 -3.545032e+09 3.072307e+02 -1.562595e+03 -3.392218e+03
-1.790888e+09 -1.590887e+09 -1.750888e+09 -3.341806e+01 -4.552100e+01 -1.198366e+02
-2.384808e+09 -2.184807e+09 -2.344808e+09 6.868908e+01 3.439516e+01 -5.016569e+01
-3.189627e+09 -2.989627e+09 -3.149627e+09 2.706669e+01 2.227382e+01 -5.183303e+01
-1.574969e+09 -1.374969e+09 -1.534969e+09 -9.248337e+01 1.056629e+01 -7.055609e+01
-2.576402e+09 -2.376401e+09 -2.536402e+09 -3.830142e+02 9.892387e+01 4.225309e+01
-2.998861e+09 -2.798855e+09 -2.958860e+09 1.021414e+03 -1.680664e+03 2.660834e+03
-3.390775e+09 -3.190774e+09 -3.350775e+09 -1.131145e+02 7.096219e+01 4.497402e+01
-1.695812e+09 -1.495812e+09 -1.655812e+09 7.647893e+01 2.364775e+01 -1.703029e+01
-3.466357e+09 -3.266356e+09 -3.426356e+09 -6.636640e+00 -5.319230e-01 -1.990552e+01
-2.127190e+09 -1.927190e+09 -2.087190e+09 5.874242e+02 5.468692e+00 -1.006640e+02
-3.570350e+09 -3.370349e+09 -3.530350e+09 2.068373e+02 2.203641e-01 -2.073260e+01
-1.772346e+09 -1.572346e+09 -1.732346e+09 -5.261598e+01 7.825018e+01 -2.266990e+01
-2.566776e+09 -2.366775e+09 -2.526775e+09 1.026830e+02 6.951949e+01 -8.232788e+00
-2.787339e+09 -2.587344e+09 -2.747341e+09 -2.842135e+02 9.823910e+02 5.656224e+00
-3.022348e+09 -2.822352e+09 -2.982349e+09 5.779899e+02 5.082526e+02 -1.501455e+02
-3.589623e+09 -3.389627e+09 -3.549627e+09 -1.015837e+02 2.049609e+03 1.209116e+02
-3.585614e+09 -3.385614e+09 -3.545616e+09 2.054961e+03 3.606604e+02 -2.651785e+02
-3.540115e+09 -3.340118e+09 -3.500117e+09 1.046419e+03 8.689470e+02 -1.177080e+02
-1.593153e+09 -1.393158e+09 -1.553154e+09 2.420238e+02 8.046283e+02 -1.138023e+01
-3.607352e+09 -3.407356e+09 -3.567354e+09 2.385730e+02 7.928673e+02 5.641134e+00
-2.377974e+09 -2.177980e+09 -2.337976e+09 -1.347831e+02 1.643906e+03 -1.360920e+01
-2.374856e+09 -2.174861e+09 -2.334857e+09 -4.590654e+02 7.742116e+02 4.573592e+01
-3.324143e+09 -3.124146e+09 -3.284144e+09 -1.237044e+03 8.406220e+02 2.131337e+02
-2.363903e+09 -2.163906e+09 -2.323904e+09 -9.615087e+02 4.105632e+02 5.781871e+01
-2.134968e+09 -1.934960e+09 -2.094976e+09 -3.066242e+03 -3.689807e+03 3.995601e+03
-2.385241e+09 -2.185247e+09 -2.345244e+09 -1.754161e+03 2.406546e+03 5.359863e+02
-2.780898e+09 -2.580903e+09 -2.740901e+09 -9.815118e+02 3.181239e+03 3.997037e+02
-3.187799e+09 -2.987804e+09 -3.147803e+09 -8.962435e+02 1.881660e+03 3.611910e+02
-3.196582e+09 -2.996579e+09 -3.156585e+09 2.626777e+01 -2.421779e+03 -1.696463e+03
-2.999393e+09 -2.799383e+09 -2.959394e+09 -5.383427e+02 -5.382391e+02 -3.533572e+03
-1.575573e+09 -1.375575e+09 -1.535573e+09 1.140474e+03 2.703006e+02 -2.801718e+01
-1.690545e+09 -1.490546e+09 -1.650545e+09 6.426529e+02 -8.893636e+00 5.770118e+01
-3.584639e+09 -3.384641e+09 -3.544638e+09 -1.831915e+02 4.904998e+01 -1.934149e+03
-3.566019e+09 -3.366019e+09 -3.526024e+09 -9.411452e+02 -2.978708e+03 -1.008913e+03
-2.063532e+09 -1.863539e+09 -2.023536e+09 -7.893068e+02 -5.056121e+03 -1.012170e+02
-1.679233e+09 -1.479232e+09 -1.639232e+09 2.808838e+02 9.769191e+00 -1.660525e+02
-1.738025e+09 -1.538029e+09 -1.698030e+09 -3.266467e+03 -5.296765e+03 -2.322174e+03
-3.095080e+09 -2.895077e+09 -3.055082e+09 3.036854e+03 2.811751e+03 -3.184657e+03
-3.059235e+09 -2.859236e+09 -3.019235e+09 5.114027e+02 -1.373113e+01 -2.064704e+02
-1.867941e+09 -1.667941e+09 -1.827942e+09 7.209575e+02 -7.634717e+01 -3.510105e+02
-1.578133e+09 -1.378109e+09 -1.538120e+09 1.059552e+04 -3.970779e+03 3.258468e+04
-2.622581e+09 -2.422582e+09 -2.582582e+09 7.394637e+02 -3.913009e+01 -2.550850e+02
-1.932625e+09 -1.732626e+09 -1.892626e+09 3.520521e+02 -3.175702e+01 -8.968371e+01
-2.227674e+09 -2.027673e+09 -2.187673e+09 1.935628e+03 -1.269185e+03 -2.075877e+03
-2.440133e+09 -2.240135e+09 -2.400133e+09 1.694864e+03 7.158484e+02 -3.131356e+02
-2.600734e+09 -2.400734e+09 -2.560734e+09 -2.385179e+02 3.592075e+01 -2.397291e+01
-2.056860e+09 -1.856866e+09 -2.016862e+09 2.984735e+02 1.994990e+03 7.498194e+01
-2.423669e+09 -2.223668e+09 -2.383668e+09 -2.292658e+02 3.169179e+01 -5.728225e+01
-3.633340e+09 -3.433339e+09 -3.593339e+09 -3.311378e+02 -1.834065e+01 -2.805941e+01
-2.023264e+09 -1.823270e+09 -1.983266e+09 2.270134e+03 3.858308e+03 -9.721658e+02
-2.990477e+09 -2.790477e+09 -2.950477e+09 -2.233255e+02 1.284397e+01 -5.058283e+01
-1.597471e+09 -1.397471e+09 -1.557471e+09 -2.401184e+02 6.826573e+01 -5.923623e+01
-3.596367e+09 -3.396368e+09 -3.556367e+09 -9.774203e+02 2.100255e+02 7.176165e+01
-3.595014e+09 -3.395015e+09 -3.555014e+09 -7.519554e+02 1.205684e+02 2.347567e+01
-1.982076e+09 -1.782077e+09 -1.942075e+09 -2.143255e+03 9.252859e+02 6.066807e+02
-2.253762e+09 -2.053760e+09 -2.213761e+09 -4.685413e+02 5.555010e+01 1.751486e+02
-1.984748e+09 -1.784748e+09 -1.944749e+09 4.780318e+02 3.166529e+01 -1.901800e+01
-2.163914e+09 -1.963913e+09 -2.123914e+09 6.444059e+02 -1.689054e+02 -2.675174e+02
-3.158124e+09 -2.958125e+09 -3.118124e+09 -1.686371e+01 1.604610e-01 2.892762e-01
-3.167690e+09 -2.967691e+09 -3.127690e+09 -8.307661e+02 1.593572e+02 1.035836e+01
-1.591323e+09 -1.391325e+09 -1.551323e+09 -9.808580e+02 3.138513e+02 -1.731944e+01
-2.445980e+09 -2.245979e+09 -2.405979e+09 2.325957e+02 2.687441e+01 -5.815432e+01
-2.057697e+09 -1.857696e+09 -2.017696e+09 2.229069e+02 -6.046909e+00 -4.637558e+01
-1.584822e+09 -1.384828e+09 -1.544823e+09 1.052849e+03 1.691937e+03 -3.511848e+02
-1.680255e+09 -1.480255e+09 -1.640254e+09 9.610230e+02 1.629079e+02 -3.005382e+01
-3.335351e+09 -3.135351e+09 -3.295351e+09 4.613240e+02 1.168298e+01 -7.512350e+01
-1.571909e+09 -1.371929e+09 -1.531925e+09 1.185432e+04 2.522559e+04 -2.037994e+04
-2.956305e+09 -2.756305e+09 -2.916305e+09 2.966657e+02 1.202714e+01 -3.489959e+01
-2.519993e+09 -2.319968e+09 -2.479927e+09 9.039113e+03 2.355041e+04 1.348022e+04
-1.576711e+09 -1.376710e+09 -1.536711e+09 3.370139e+02 6.084368e+01 -9.833432e+01
-1.770378e+09 -1.570378e+09 -1.730378e+09 1.485290e+02 -3.484775e+00 -1.145076e+02
-3.395391e+09 -3.195388e+09 -3.355390e+09 -3.053991e+03 -1.827545e+03 7.805299e+02
-3.392687e+09 -3.192686e+09 -3.352686e+09 1.161600e+02 3.033692e+01 -3.759354e+01
-3.581269e+09 -3.381264e+09 -3.541280e+09 1.088614e+03 5.881955e+03 -3.648606e+03
-3.581384e+09 -3.381375e+09 -3.541386e+09 -2.867583e+02 1.754214e+03 -3.819071e+03
-3.297107e+09 -3.097106e+09 -3.257106e+09 3.421731e+02 2.054268e+01 -4.518249e+01
-1.632282e+09 -1.432314e+09 -1.592315e+09 -1.178798e+04 4.112812e+04 4.215876e+03
-3.379837e+09 -3.179842e+09 -3.339842e+09 -1.886331e+03 2.763220e+03 9.541651e+02
-2.695019e+09 -2.495002e+09 -2.655026e+09 -2.180441e+03 -1.234539e+04 1.677888e+03
-3.000883e+09 -2.800899e+09 -2.960899e+09 4.342868e+01 1.334413e+04 -1.951717e+02
-2.569961e+09 -2.369963e+09 -2.529962e+09 -1.516777e+03 5.825245e+02 2.691752e+02
-1.933958e+09 -1.733962e+09 -1.893959e+09 -2.698045e+03 2.001021e+03 9.438560e+02
-3.187352e+09 -2.987358e+09 -3.147357e+09 -1.597417e+03 3.464009e+03 1.226872e+03
-2.131538e+09 -1.931546e+09 -2.091544e+09 -4.416878e+03 7.096028e+03 2.843039e+03
-1.568288e+09 -1.368305e+09 -1.528292e+09 -1.440164e+03 6.957542e+03 5.723097e+02
-2.556441e+09 -2.356443e+09 -2.516442e+09 -2.160504e+03 1.416905e+03 7.370325e+02
-1.961757e+09 -1.761759e+09 -1.921757e+09 -1.938445e+03 9.759354e+02 4.460759e+02
-3.160540e+09 -2.960544e+09 -3.120543e+09 -1.805362e+03 1.796651e+03 4.989515e+02
-1.752717e+09 -1.552721e+09 -1.712717e+09 -2.572115e+03 1.941737e+03 6.613891e+02
-1.982418e+09 -1.782424e+09 -1.942420e+09 -1.752380e+03 2.365651e+03 6.264465e+02
-2.010085e+09 -1.810084e+09 -1.970084e+09 -2.458558e+02 -4.016055e+02 2.485605e+02
-3.510088e+09 -3.310087e+09 -3.470087e+09 1.525399e+02 -2.759175e+02 1.168609e+02
-1.827231e+09 -1.627232e+09 -1.787231e+09 -2.403588e+03 -1.823939e+03 -1.085378e+03
-3.052416e+09 -2.852415e+09 -3.012415e+09 1.445027e+02 -2.589467e+02 1.431991e+02
-3.616035e+09 -3.416035e+09 -3.576036e+09 3.752116e+02 -6.807316e+02 4.266712e+02
-2.243888e+09 -2.043886e+09 -2.203887e+09 -9.939798e+02 -8.455596e+02 -7.829715e+02
-2.169723e+09 -1.969722e+09 -2.129722e+09 1.414551e+02 -3.356422e+02 2.734235e+02
-3.630284e+09 -3.430285e+09 -3.590285e+09 8.748523e+01 6.502069e+00 -3.564496e+01
-2.237474e+09 -2.037474e+09 -2.197474e+09 1.649830e+02 -2.470256e+02 1.219320e+02
-3.274252e+09 -3.074257e+09 -3.234257e+09 -5.372568e+02 3.255771e+03 2.280295e+02
-3.576386e+09 -3.376384e+09 -3.536388e+09 -5.317119e+02 -1.277277e+03 -1.019725e+03
-2.443997e+09 -2.244007e+09 -2.404002e+09 -5.988075e+02 5.274339e+03 2.907402e+02
-3.506831e+09 -3.306834e+09 -3.466837e+09 1.562731e+03 3.707916e+03 -9.253095e+02
-3.292061e+09 -3.092063e+09 -3.252065e+09 2.400150e+03 3.541652e+03 -1.237945e+03
-1.853572e+09 -1.653583e+09 -1.813575e+09 -5.898907e+02 4.835452e+03 -4.583937e+02
-2.562064e+09 -2.362063e+09 -2.522064e+09 3.336657e+03 2.792527e+03 -2.437741e+03
-2.151067e+09 -1.951076e+09 -2.111072e+09 3.099066e+02 6.009514e+03 -4.221061e+02
-1.673963e+09 -1.473970e+09 -1.633964e+09 1.981469e+02 -2.114528e+03 1.475018e+02
-3.171431e+09 -2.971435e+09 -3.131435e+09 6.093736e+02 -2.324119e+03 6.359833e+02
-2.003725e+09 -1.803731e+09 -1.963727e+09 9.252681e+02 -2.303715e+03 4.636495e+02
-1.783964e+09 -1.583969e+09 -1.743966e+09 2.252249e+03 -3.446873e+03 1.049230e+03
-1.574869e+09 -1.374880e+09 -1.534873e+09 2.300419e+03 -5.763192e+03 1.779807e+03
-2.287642e+09 -2.087651e+09 -2.247647e+09 1.632759e+03 6.652052e+03 -1.136892e+03
-2.252688e+09 -2.052694e+09 -2.212691e+09 3.114028e+02 -3.120995e+03 1.933605e+02
-1.908572e+09 -1.708578e+09 -1.868575e+09 -1.382177e+03 -2.721143e+03 -9.714035e+01
-3.161165e+09 -2.961165e+09 -3.121165e+09 3.427676e+02 2.565076e+01 7.753905e-01
-2.985715e+09 -2.785715e+09 -2.945715e+09 1.813260e+02 3.426655e+01 9.241742e+00
-1.997265e+09 -1.797271e+09 -1.957267e+09 1.211608e+02 -2.292124e+03 1.819532e+02
-2.169359e+09 -1.969358e+09 -2.129358e+09 2.323420e+02 1.754411e+01 -3.790301e+01
-2.545367e+09 -2.345370e+09 -2.505370e+09 -1.827339e+03 -2.641834e+03 -8.544910e+02
-3.199304e+09 -2.999301e+09 -3.159308e+09 1.243445e+03 -2.925136e+03 2.374894e+03
-1.592342e+09 -1.392345e+09 -1.552343e+09 1.922202e+03 -1.681566e+03 6.564006e+02
-3.605123e+09 -3.405122e+09 -3.565126e+09 5.963755e+02 -2.381694e+03 1.391486e+03
-1.804426e+09 -1.604426e+09 -1.764426e+09 3.115511e+02 2.090443e+01 -4.618376e+01
-2.057926e+09 -1.857927e+09 -2.017927e+09 2.639203e+02 1.213878e+01 -1.155997e+01
-1.597509e+09 -1.397516e+09 -1.557511e+09 2.146551e+03 -3.006657e+03 1.106032e+03
-3.596463e+09 -3.396463e+09 -3.556467e+09 6.383757e+02 -3.114765e+03 1.300511e+03
-1.940222e+09 -1.740221e+09 -1.900221e+09 2.271623e+02 1.305343e+01 -1.914734e+01
-2.552682e+09 -2.352682e+09 -2.512682e+09 2.141968e+02 2.328157e+01 -3.416254e+01
-3.578464e+09 -3.378457e+09 -3.538459e+09 1.503676e+03 4.635379e+03 1.207654e+03
-3.622716e+09 -3.422716e+09 -3.582717e+09 9.137474e+02 -1.226783e+03 8.477674e+02
-2.635460e+09 -2.435461e+09 -2.595461e+09 1.402973e+03 -1.715111e+03 9.390244e+02
-2.597884e+09 -2.397884e+09 -2.557884e+09 1.229408e+03 -1.255014e+03 1.144181e+03
-2.129286e+09 -1.929285e+09 -2.089285e+09 1.682177e+02 1.521664e+01 -2.564466e+01
-3.133179e+09 -2.933179e+09 -3.093179e+09 2.029934e+02 3.205571e+01 -3.474945e-01
-1.888460e+09 -1.688460e+09 -1.848460e+09 -8.549355e+02 1.676116e+01 -8.417974e+01
-2.750164e+09 -2.550161e+09 -2.710165e+09 4.684454e+02 -2.136931e+03 2.246321e+03
-2.661876e+09 -2.461875e+09 -2.621875e+09 2.389070e+02 3.040729e+00 -1.522996e+01
-3.410782e+09 -3.210782e+09 -3.370782e+09 3.889649e+02 2.852292e+01 -1.234761e+01
-3.500333e+09 -3.300334e+09 -3.460334e+09 7.047381e+02 -7.540621e+02 2.561941e+02
-3.377511e+09 -3.177511e+09 -3.337511e+09 2.138459e+02 1.616348e+01 -1.267075e+01
-3.582577e+09 -3.382580e+09 -3.542578e+09 -8.790434e+02 3.572033e+02 1.214956e+02
-1.996865e+09 -1.796866e+09 -1.956864e+09 8.356194e+02 -6.843245e+02 2.386269e+02
-1.610411e+09 -1.410412e+09 -1.570412e+09 -4.076346e+02 -2.282879e+01 3.782916e+00
-3.110723e+09 -2.910726e+09 -3.070723e+09 -3.338263e+02 2.514554e+02 -1.442031e+01
-2.161732e+09 -1.961734e+09 -2.121732e+09 -5.122310e+02 1.221709e+02 -1.262374e+01
-1.875226e+09 -1.675228e+09 -1.835226e+09 -5.953518e+02 1.851747e+02 -2.401804e+00
-3.402877e+09 -3.202879e+09 -3.362878e+09 -7.595484e+02 1.283293e+02 -7.196435e+00
-2.969749e+09 -2.769752e+09 -2.929750e+09 -5.234548e+02 1.249354e+02 -2.777758e+01
-2.507937e+09 -2.307936e+09 -2.467936e+09 1.626623e+02 2.466947e+01 -3.747666e+00
-1.571653e+09 -1.371652e+09 -1.531652e+09 1.031865e+02 2.559750e+01 -2.369708e+01
-3.597587e+09 -3.397586e+09 -3.557586e+09 1.305570e+02 -6.445546e+00 -1.484415e+01
-1.777249e+09 -1.577252e+09 -1.737249e+09 -1.209097e+03 5.349308e+02 1.469652e+02
-1.861629e+09 -1.661628e+09 -1.821628e+09 -5.756793e+02 -1.154854e+02 9.383935e+01
-1.935333e+09 -1.735331e+09 -1.895332e+09 1.202275e+03 -1.084360e+03 1.574493e+03
-2.556498e+09 -2.356495e+09 -2.516497e+09 -2.984660e+02 -2.996898e+02 7.044472e+02
-1.787094e+09 -1.587091e+09 -1.747093e+09 -6.292225e+01 -3.465827e+02 7.656922e+02
-2.395608e+09 -2.195606e+09 -2.355608e+09 -2.299318e+02 -2.058734e+02 5.957753e+02
-3.284317e+09 -3.084317e+09 -3.244317e+09 5.872423e+01 1.289855e+01 -2.143924e+01
-3.546712e+09 -3.346712e+09 -3.506712e+09 1.950940e+02 5.369589e+00 -2.846001e+01
-2.408565e+09 -2.208564e+09 -2.368564e+09 9.490359e+01 2.007304e+01 -4.279171e+01
-3.300992e+09 -3.100992e+09 -3.260992e+09 1.057467e+02 8.501839e+00 -1.318022e+01
-2.982628e+09 -2.782628e+09 -2.942628e+09 4.995291e+01 1.902523e+01 -2.038007e+01
-3.610631e+09 -3.410628e+09 -3.570630e+09 -2.105902e+00 4.034453e+02 -4.788847e+02
-2.590564e+09 -2.390563e+09 -2.550563e+09 1.304974e+02 5.696066e+00 -3.777715e+01
-1.994736e+09 -1.794735e+09 -1.954735e+09 -4.890927e+02 6.206501e+01 -1.524426e+01
-2.489208e+09 -2.289208e+09 -2.449208e+09 -2.512134e+02 1.560510e+01 -6.421762e+01
-3.181398e+09 -2.981398e+09 -3.141398e+09 -1.540032e+02 -9.608460e+00 -4.218080e+00
-2.109478e+09 -1.909478e+09 -2.069478e+09 -3.978402e+02 6.073135e-01 -3.796207e+01
-3.301143e+09 -3.101143e+09 -3.261142e+09 -3.841489e+02 6.669281e+01 -4.887790e+00
-1.950274e+09 -1.750274e+09 -1.910274e+09 -5.457365e+02 1.410567e+01 -3.908425e+01
-3.482137e+09 -3.282137e+09 -3.442137e+09 -2.073544e+02 -7.246210e+00 4.463935e+00
-1.898564e+09 -1.698564e+09 -1.858564e+09 -3.758891e+02 -1.995774e+01 -7.607381e+01
-3.215516e+09 -3.015512e+09 -3.175513e+09 -4.980346e+03 -6.156018e+03 2.124753e+03
-3.031817e+09 -2.831818e+09 -2.991817e+09 -2.356059e+03 -1.549150e+03 1.834159e+03
-2.417743e+09 -2.217736e+09 -2.377738e+09 -3.855063e+03 -4.310224e+03 5.064661e+03
-3.188298e+09 -2.988299e+09 -3.148299e+09 -2.375728e+02 -1.886611e+01 -4.960047e+00
-2.861928e+09 -2.661929e+09 -2.821928e+09 -2.450034e+02 -2.537709e+01 1.251550e+01
-3.479462e+09 -3.279468e+09 -3.439463e+09 -1.657440e+03 -1.183699e+02 3.990833e+03
-3.296649e+09 -3.096649e+09 -3.256649e+09 -3.327846e+02 -8.051387e+00 -2.684670e+00
-2.784626e+09 -2.584626e+09 -2.744626e+09 -3.372157e+02 -3.227282e+01 9.687929e+00
-3.600630e+09 -3.400631e+09 -3.560631e+09 -4.442134e+02 -2.309720e+01 1.980184e+01
-2.017097e+09 -1.817098e+09 -1.977098e+09 -1.655096e+02 -1.092852e+01 -2.119328e+01
-3.637989e+09 -3.437984e+09 -3.597994e+09 1.452562e+03 3.729490e+03 -3.452871e+03
-1.571751e+09 -1.371761e+09 -1.531754e+09 4.350523e+03 5.850111e+03 -2.049407e+03
-2.772091e+09 -2.572083e+09 -2.732087e+09 -4.573505e+03 -4.125503e+03 7.259120e+03
-1.570800e+09 -1.370801e+09 -1.530798e+09 5.510584e+03 4.205772e+03 -2.391394e+03
-3.601851e+09 -3.401849e+09 -3.561853e+09 1.852551e+03 1.815580e+03 -1.349153e+03
-2.517620e+09 -2.317612e+09 -2.477616e+09 1.036954e+03 6.133931e+02 -2.293096e+03
-1.786382e+09 -1.586371e+09 -1.746377e+09 -9.195610e+03 -7.518766e+03 6.982911e+03
-2.898114e+09 -2.698112e+09 -2.858114e+09 -1.701015e+03 9.411036e+02 1.160467e+03
-2.026861e+09 -1.826859e+09 -1.986860e+09 -3.441215e+03 1.573106e+03 2.277037e+03
-1.760201e+09 -1.560204e+09 -1.720202e+09 -2.375845e+03 1.785632e+03 5.550064e+02
-3.587917e+09 -3.387917e+09 -3.547918e+09 -1.819882e+03 1.146785e+03 7.550762e+02
-1.850571e+09 -1.650567e+09 -1.810568e+09 -1.204786e+03 -2.317051e+02 8.170654e+02
-2.364547e+09 -2.164546e+09 -2.324549e+09 1.548443e+03 -7.469969e+02 -1.102596e+03
-3.383585e+09 -3.183585e+09 -3.343585e+09 -1.212401e+02 1.638244e-01 -4.704254e+01
-3.589127e+09 -3.389127e+09 -3.549130e+09 -1.953192e+03 2.187667e+03 1.532310e+03
-2.399304e+09 -2.199307e+09 -2.359306e+09 1.856938e+03 -2.472368e+03 1.239416e+03
-2.750428e+09 -2.550432e+09 -2.710430e+09 -1.800660e+03 1.772211e+03 5.273999e+02
-2.949898e+09 -2.749900e+09 -2.909903e+09 -1.795451e+03 -3.606743e+03 -9.719966e+02
-1.808647e+09 -1.608655e+09 -1.768650e+09 1.370452e+03 -4.047106e+03 8.345263e+02
-1.597511e+09 -1.397515e+09 -1.557512e+09 2.717198e+03 -3.020384e+03 1.290095e+03
-2.586754e+09 -2.386758e+09 -2.546758e+09 3.137132e+03 5.745947e+03 -2.622921e+03
-2.747544e+09 -2.547526e+09 -2.707510e+09 1.157692e+03 1.017447e+04 1.749708e+03
-3.595618e+09 -3.395607e+09 -3.555619e+09 1.978226e+03 -7.915997e+02 -1.885484e+03
-3.054440e+09 -2.854437e+09 -3.014454e+09 -5.695348e+01 6.827665e+03 8.649280e+02
-2.464189e+09 -2.264178e+09 -2.424190e+09 -7.031306e+03 -2.029583e+03 8.491742e+02
-2.079215e+09 -1.879212e+09 -2.039214e+09 -1.608323e+03 2.183349e+02 8.876837e+02
-3.116740e+09 -2.916739e+09 -3.076740e+09 -5.145737e+02 -1.582414e+02 3.913787e+02
-3.461233e+09 -3.261235e+09 -3.421233e+09 2.892487e+02 6.576625e+01 -1.423573e+03
-3.602806e+09 -3.402808e+09 -3.562807e+09 4.131273e+02 -1.068352e+00 -9.199799e+02
-3.302869e+09 -3.102866e+09 -3.262876e+09 -1.115438e+03 -2.765274e+03 3.944525e+02
-3.135614e+09 -2.935616e+09 -3.095614e+09 1.828814e+02 1.941542e+02 -1.561079e+03
-3.583379e+09 -3.383381e+09 -3.543379e+09 2.088559e+02 3.149955e+01 -8.374897e+02
-3.172844e+09 -2.972840e+09 -3.132845e+09 -1.040882e+03 -6.347523e+02 1.646240e+03
-3.614143e+09 -3.414144e+09 -3.574142e+09 -1.336007e+03 4.499942e+02 -1.186265e+03
-3.584639e+09 -3.384641e+09 -3.544638e+09 -1.633819e+02 4.165702e+01 -1.890108e+03
-3.015554e+09 -2.815553e+09 -2.975549e+09 1.321649e+03 -1.596622e+03 -2.411838e+03
-1.695993e+09 -1.495995e+09 -1.655996e+09 -1.282817e+03 -2.282881e+02 1.278389e+03
-2.380768e+09 -2.180768e+09 -2.340769e+09 1.867749e+03 -2.181028e+03 1.436560e+03
-3.044064e+09 -2.844063e+09 -3.004064e+09 -1.939464e+03 -9.182915e+02 3.750229e+02
-1.768885e+09 -1.568880e+09 -1.728882e+09 4.837897e+02 -9.502190e+01 -9.950650e+02
-3.139927e+09 -2.939924e+09 -3.099927e+09 -1.122308e+03 3.172499e+01 -4.866065e+02
-1.803649e+09 -1.603645e+09 -1.763647e+09 1.741744e+03 5.842071e+02 -1.097541e+03
-2.228398e+09 -2.028393e+09 -2.188400e+09 2.223354e+03 -5.619529e+03 4.366846e+03
-1.988902e+09 -1.788903e+09 -1.948901e+09 7.415466e+02 6.826342e+01 3.031677e+01
-2.653079e+09 -2.453080e+09 -2.613079e+09 1.741163e+03 8.577050e+02 -2.801107e+02
-3.480336e+09 -3.280335e+09 -3.440335e+09 1.312538e+03 4.043255e+02 -2.068921e+02
-3.183700e+09 -2.983701e+09 -3.143699e+09 8.737730e+02 8.963192e+01 6.809454e+00
-1.880851e+09 -1.680852e+09 -1.840850e+09 1.874203e+03 6.149635e+02 -2.625449e+02
-3.410541e+09 -3.210542e+09 -3.370546e+09 1.161650e+03 -3.044356e+03 1.659615e+03
-2.867185e+09 -2.667186e+09 -2.827184e+09 9.573052e+02 2.170389e+02 -8.215928e+01
-3.185497e+09 -2.985497e+09 -3.145496e+09 1.328668e+03 4.772941e+02 -2.368276e+02
-3.589299e+09 -3.389297e+09 -3.549301e+09 -1.187403e+03 -1.232683e+03 1.419410e+03
-1.774960e+09 -1.574960e+09 -1.734960e+09 -4.280804e+02 -9.040285e+01 2.728374e+01
-3.386157e+09 -3.186156e+09 -3.346157e+09 -4.350630e+02 -1.149318e+02 1.075899e+02
-3.010404e+09 -2.810404e+09 -2.970403e+09 -3.446602e+02 4.792997e+01 -5.727856e+01
-1.909222e+09 -1.709222e+09 -1.869222e+09 -3.213725e+02 3.404962e+01 -4.141001e+01
-1.599329e+09 -1.399329e+09 -1.559329e+09 -2.395156e+02 4.743214e+01 -7.582768e+01
-3.578076e+09 -3.378076e+09 -3.538075e+09 -1.097282e+02 -9.936072e+00 -3.028753e+01
-1.615822e+09 -1.415822e+09 -1.575822e+09 -3.134241e+02 9.944004e+01 -6.207387e+01
-3.166409e+09 -2.966407e+09 -3.126408e+09 -3.128370e+02 -1.780008e+02 2.383756e+02
-3.500280e+09 -3.300280e+09 -3.460280e+09 -2.913803e+02 1.108732e+01 -2.501057e+01
-2.193198e+09 -1.993197e+09 -2.153198e+09 2.506417e+02 -4.318605e+02 4.141794e+02
-1.793447e+09 -1.593446e+09 -1.753447e+09 -4.037277e+01 -2.104504e+02 1.565113e+02
-2.590019e+09 -2.390018e+09 -2.550018e+09 1.612058e+02 -3.218712e+02 3.121202e+02
-2.430377e+09 -2.230375e+09 -2.390376e+09 -2.146943e+02 -2.631980e+02 4.687523e+02
-3.608478e+09 -3.408478e+09 -3.568478e+09 -1.678940e+02 -1.359751e+02 1.143312e+02
-2.966763e+09 -2.766764e+09 -2.926762e+09 8.811263e+02 1.981881e+02 -2.832280e+01
-2.161751e+09 -1.961754e+09 -2.121751e+09 7.118822e+02 1.621351e+02 -2.049178e+01
-1.690545e+09 -1.490547e+09 -1.650545e+09 8.050668e+02 1.294332e+02 3.891568e+01
-3.060281e+09 -2.860274e+09 -3.020279e+09 5.141857e+02 -5.037809e+02 1.320956e+03
-1.617904e+09 -1.417902e+09 -1.577903e+09 4.808351e+02 -6.599095e+02 4.434131e+02
-2.606270e+09 -2.406270e+09 -2.566270e+09 8.782678e+02 -1.161416e+03 8.543739e+02
-3.584640e+09 -3.384641e+09 -3.544638e+09 3.540398e+01 3.068949e+01 -1.842716e+03
-3.135149e+09 -2.935147e+09 -3.095148e+09 -1.118804e+02 -5.054373e+02 8.387890e+02
-3.119885e+09 -2.919886e+09 -3.079880e+09 -1.959300e+03 1.509894e+03 -4.488789e+03
-3.267682e+09 -3.067683e+09 -3.227681e+09 1.261647e+03 -5.658785e+02 -1.475057e+03
-2.192238e+09 -1.992240e+09 -2.152239e+09 -6.896913e+02 2.039827e+02 -1.167535e+03
-1.820525e+09 -1.620522e+09 -1.780523e+09 7.214386e+02 -5.011380e+02 8.804638e+02
-3.198858e+09 -2.998857e+09 -3.158858e+09 -5.401346e+02 -1.696076e+02 2.385993e+02
-3.617306e+09 -3.417306e+09 -3.577302e+09 1.418330e+03 -1.167160e+03 -2.309145e+03
-2.619633e+09 -2.419632e+09 -2.579633e+09 -3.981486e+02 -3.497855e+02 5.039358e+02
-2.733897e+09 -2.533897e+09 -2.693897e+09 1.865601e+02 2.429674e+01 -6.304253e+00
-3.077492e+09 -2.877490e+09 -3.037491e+09 -1.435877e+03 9.782656e+02 1.477513e+01
-2.626543e+09 -2.426544e+09 -2.586540e+09 7.981898e+02 -8.144104e+02 -2.354937e+03
-2.729161e+09 -2.529141e+09 -2.689164e+09 5.450229e+03 -1.175388e+04 6.161889e+02
-3.551473e+09 -3.351465e+09 -3.511468e+09 1.446292e+03 -6.700013e+03 -2.334491e+03
-1.998100e+09 -1.798100e+09 -1.958100e+09 2.918091e+02 1.175414e+01 -4.176984e+01
-2.609065e+09 -2.409064e+09 -2.569065e+09 3.290604e+02 3.331901e+01 -3.432173e+01
-1.821942e+09 -1.621928e+09 -1.781933e+09 -1.577828e+03 -3.333359e+03 -2.661156e+03
-3.594047e+09 -3.394047e+09 -3.554047e+09 2.168908e+02 -2.919277e+01 -7.885960e+01
-2.101613e+09 -1.901625e+09 -2.061621e+09 -1.557786e+03 1.041325e+04 4.092823e+01
-3.191460e+09 -2.991465e+09 -3.151466e+09 1.378174e+03 3.947588e+03 -4.785679e+02
-1.900735e+09 -1.700739e+09 -1.860736e+09 3.835311e+03 2.992196e+03 -1.288134e+03
-3.148247e+09 -2.948242e+09 -3.108248e+09 2.412160e+03 3.046133e+03 -3.898105e+03
-1.985411e+09 -1.785418e+09 -1.945413e+09 -7.983421e+02 2.238432e+03 2.036704e+02
-3.241974e+09 -3.041960e+09 -3.201968e+09 1.646645e+02 -2.330484e+03 -3.105256e+03
-1.568286e+09 -1.368300e+09 -1.528291e+09 -4.597734e+03 7.872739e+03 1.354601e+03
-1.768914e+09 -1.568926e+09 -1.728918e+09 -2.799525e+03 6.047296e+03 1.444789e+03
-1.925674e+09 -1.725678e+09 -1.885675e+09 -1.290318e+03 9.745369e+02 1.760568e+02
-1.964516e+09 -1.764514e+09 -1.924514e+09 3.175730e+03 2.004809e+03 -1.573600e+03
-3.588959e+09 -3.388961e+09 -3.548965e+09 -1.537159e+03 4.182086e+03 1.152031e+03
-3.160127e+09 -2.960131e+09 -3.120131e+09 -1.833470e+03 2.870476e+03 7.826835e+02
-2.375980e+09 -2.175979e+09 -2.335981e+09 3.111743e+03 2.824615e+03 -2.027864e+03
-1.769400e+09 -1.569395e+09 -1.729398e+09 4.630921e+03 3.223342e+03 -3.686817e+03
-1.921245e+09 -1.721240e+09 -1.881242e+09 2.483639e+03 1.150539e+03 -2.339360e+03
-2.594379e+09 -2.394382e+09 -2.554380e+09 1.602641e+03 1.429095e+03 -2.297430e+02
-1.802322e+09 -1.602330e+09 -1.762325e+09 7.287189e+03 8.142391e+03 -4.696176e+03
-1.994177e+09 -1.794176e+09 -1.954177e+09 -2.065252e+02 -4.686158e+01 -2.532285e+01
-1.759100e+09 -1.559100e+09 -1.719100e+09 -3.690383e+02 -8.827463e+01 1.242245e+01
-3.550989e+09 -3.350987e+09 -3.510988e+09 -2.219473e+02 -2.834474e+02 2.805487e+02
-1.571899e+09 -1.371898e+09 -1.531899e+09 -2.773116e+02 -1.184619e+02 6.979969e+01
-1.587435e+09 -1.387434e+09 -1.547434e+09 -2.017575e+02 -1.997191e+02 8.481835e+01
-1.594427e+09 -1.394427e+09 -1.554427e+09 9.823923e+01 -2.303467e+02 4.341014e+01
-2.573165e+09 -2.373163e+09 -2.533164e+09 -1.282804e+02 -1.047660e+02 1.588271e+02
-3.610683e+09 -3.410682e+09 -3.570683e+09 -7.370319e+01 -2.357406e+02 1.466371e+02
-3.387081e+09 -3.187078e+09 -3.347084e+09 2.770044e+03 2.891230e+03 -2.198722e+03
-1.922809e+09 -1.722809e+09 -1.882809e+09 4.825652e+02 -4.235861e+02 2.001912e+02
-1.914296e+09 -1.714289e+09 -1.874292e+09 1.039924e+03 1.006583e+03 -2.544998e+03
-1.888308e+09 -1.688307e+09 -1.848317e+09 8.748047e+03 -7.636347e+03 6.837682e+03
-2.007714e+09 -1.807722e+09 -1.967718e+09 1.859645e+02 -5.202284e+03 4.009212e+02
-1.599552e+09 -1.399560e+09 -1.559554e+09 1.033407e+03 -4.043290e+03 5.540995e+02
-3.058943e+09 -2.858940e+09 -3.018945e+09 2.665585e+03 2.381044e+03 -1.968367e+03
-1.574871e+09 -1.374881e+09 -1.534874e+09 2.501905e+03 -5.725180e+03 1.259694e+03
-3.579072e+09 -3.379074e+09 -3.539075e+09 8.811934e+02 -1.975310e+03 8.965119e+02
-3.028651e+09 -2.828650e+09 -2.988650e+09 -1.725519e+03 7.439776e+02 -4.426048e+02
-3.596281e+09 -3.396280e+09 -3.556281e+09 -1.055176e+03 -1.988559e+02 3.847950e+02
-3.337334e+09 -3.137331e+09 -3.297334e+09 -8.085991e+02 -1.598289e+02 1.099470e+03
-1.573342e+09 -1.373340e+09 -1.533341e+09 -1.323332e+03 2.045377e+02 -1.542454e+02
-1.571754e+09 -1.371757e+09 -1.531756e+09 6.382283e+03 5.166819e+03 -3.341096e+03
-1.556294e+09 -1.356290e+09 -1.516293e+09 -2.490579e+02 -3.881355e+02 8.415000e+02
-3.165694e+09 -2.965687e+09 -3.125701e+09 1.350552e+03 2.859165e+03 -5.433395e+03
-3.229118e+09 -3.029119e+09 -3.189126e+09 3.808939e+03 6.620916e+03 -3.386144e+03
-1.598285e+09 -1.398285e+09 -1.558285e+09 2.278741e+02 3.625196e+01 -1.290586e+01
-1.571653e+09 -1.371652e+09 -1.531652e+09 1.659345e+02 2.694668e+01 -6.062701e+00
-1.883228e+09 -1.683233e+09 -1.843231e+09 -3.554740e+03 -2.061905e+03 4.337075e+03
-3.209606e+09 -3.009606e+09 -3.169606e+09 1.024556e+02 5.382877e+01 7.148095e+00
-2.024935e+09 -1.824927e+09 -1.984935e+09 -4.309103e+03 -1.399679e+03 3.059024e+03
-3.197148e+09 -2.997148e+09 -3.157148e+09 6.318844e+01 8.636579e+00 -1.520078e+01
-1.619359e+09 -1.419359e+09 -1.579359e+09 2.866878e+02 3.561389e+01 -3.724360e+01
-1.859538e+09 -1.659533e+09 -1.819535e+09 3.589359e+03 3.232113e+03 -3.291603e+03
-3.166186e+09 -2.966177e+09 -3.126191e+09 2.602857e+03 2.608011e+03 -4.469076e+03
-3.198571e+09 -2.998572e+09 -3.158575e+09 1.659295e+03 -2.813724e+03 1.438032e+03
-2.598197e+09 -2.398196e+09 -2.558197e+09 1.327016e+03 -1.159884e+03 1.378810e+03
-2.754204e+09 -2.554201e+09 -2.714204e+09 2.970828e+02 -1.029891e+03 1.566272e+03
-2.458700e+09 -2.258703e+09 -2.418700e+09 7.160913e+02 4.029307e+02 2.969798e+01
-3.008125e+09 -2.808129e+09 -2.968126e+09 1.202625e+03 6.545392e+02 -2.057980e+02
-3.014076e+09 -2.814076e+09 -2.974076e+09 1.252945e+02 2.300569e+01 -1.080739e+01
-1.560186e+09 -1.360190e+09 -1.520187e+09 8.629944e+02 4.016644e+02 -6.972269e+01
-3.236332e+09 -3.036335e+09 -3.196333e+09 8.150482e+02 -1.547398e+03 2.962475e+02
-1.934552e+09 -1.734556e+09 -1.894552e+09 1.524954e+03 1.079960e+03 -1.599259e+02
-3.617701e+09 -3.417703e+09 -3.577704e+09 7.209590e+02 -2.357494e+03 6.360812e+02
-3.350093e+09 -3.150097e+09 -3.310095e+09 1.229473e+03 1.263642e+03 -2.501526e+02
-1.929313e+09 -1.729319e+09 -1.889315e+09 8.323246e+02 -2.829227e+03 3.807301e+02
-1.602157e+09 -1.402160e+09 -1.562157e+09 -2.357247e+02 1.063954e+02 -2.155024e+01
-1.582877e+09 -1.382881e+09 -1.542878e+09 -5.831197e+02 3.011439e+02 -2.056270e+01
-2.275736e+09 -2.075741e+09 -2.235738e+09 9.155907e+02 8.155555e+02 -1.575470e+02
-2.373554e+09 -2.173560e+09 -2.333557e+09 -6.274441e+02 1.469122e+03 1.716624e+02
-2.514533e+09 -2.314537e+09 -2.474534e+09 -9.107553e+01 5.843055e+02 4.453244e+01
-2.568794e+09 -2.368796e+09 -2.528794e+09 -5.423461e+02 -4.735055e+00 -6.642132e+01
-2.132634e+09 -1.932638e+09 -2.092635e+09 9.318144e+02 7.852636e+02 -8.208088e+01
-1.578184e+09 -1.378115e+09 -1.538101e+09 5.062116e+03 -1.065306e+04 5.470996e+04
-1.595102e+09 -1.395106e+09 -1.555103e+09 -8.406334e+01 3.096969e+02 6.463179e+00
-2.172047e+09 -1.972051e+09 -2.132048e+09 -4.991650e+01 2.373782e+02 -7.131309e+00
-3.598647e+09 -3.398643e+09 -3.558591e+09 -1.905111e+03 -2.342738e+03 7.049357e+03
-1.602918e+09 -1.402852e+09 -1.562878e+09 1.903613e+04 3.095362e+04 1.462760e+03
-3.337897e+09 -3.137905e+09 -3.297898e+09 2.849576e+03 2.507763e+03 8.928957e+03
-3.498911e+09 -3.298911e+09 -3.458912e+09 -9.183812e+02 -6.726478e+02 -2.861492e+02
-1.592030e+09 -1.392032e+09 -1.552030e+09 -1.947947e+03 -1.552506e+03 -5.511463e+02
-3.131009e+09 -2.931009e+09 -3.091009e+09 1.348764e+02 1.704571e+01 -1.845583e+01
-3.497784e+09 -3.297784e+09 -3.457784e+09 7.972851e+01 1.154095e+00 -3.010342e+00
-1.605767e+09 -1.405793e+09 -1.565777e+09 -9.352150e+03 -1.381166e+04 3.177903e+04
-3.598643e+09 -3.398643e+09 -3.558593e+09 -5.552249e+02 -2.830616e+03 9.686901e+03
-3.275684e+09 -3.075683e+09 -3.235685e+09 1.953392e+03 5.027351e+02 -1.153080e+02
-2.965203e+09 -2.765203e+09 -2.925205e+09 1.932401e+03 4.934461e+02 -1.141057e+02
-3.602681e+09 -3.402681e+09 -3.562681e+09 1.725219e+02 2.230799e+00 -2.695950e+01
-2.217090e+09 -2.017092e+09 -2.177094e+09 3.288232e+03 -5.243924e+02 1.771744e+03
-2.304018e+09 -2.104018e+09 -2.264018e+09 1.336953e+02 2.361514e+01 -4.136461e+01
-2.985995e+09 -2.785995e+09 -2.945995e+09 1.844011e+02 2.456424e+01 9.304511e+00
-1.553206e+09 -1.353206e+09 -1.513206e+09 1.926243e+02 4.531682e+01 5.011221e+00
-3.369397e+09 -3.169394e+09 -3.329398e+09 2.193499e+03 3.491010e+02 -6.985652e+02
-3.400833e+09 -3.200832e+09 -3.360832e+09 2.857908e+03 1.476943e+03 1.429511e+03
-3.570349e+09 -3.370349e+09 -3.530349e+09 3.053268e+02 -4.760846e+00 -3.839024e+01
-3.572965e+09 -3.372965e+09 -3.532965e+09 2.818543e+02 3.981352e+00 -2.709810e+01
-3.606263e+09 -3.406260e+09 -3.566260e+09 3.322394e+03 1.248113e+03 1.470352e+03
-3.581616e+09 -3.381617e+09 -3.541616e+09 -6.612583e+02 4.348779e+01 4.405667e+00
-2.779184e+09 -2.579180e+09 -2.739182e+09 1.369570e+03 -6.029030e+01 -7.621522e+02
-1.893135e+09 -1.693135e+09 -1.853135e+09 2.349204e+02 2.439890e+01 1.407540e+01
-2.201389e+09 -2.001390e+09 -2.161390e+09 1.916750e+02 1.172693e+01 1.611200e+00
-1.785480e+09 -1.585481e+09 -1.745481e+09 3.222781e+02 3.331085e+01 -1.607910e+01
-1.576870e+09 -1.376869e+09 -1.536869e+09 -3.341207e+02 8.073872e+01 -6.955100e+01
-1.597471e+09 -1.397471e+09 -1.557471e+09 -1.459522e+02 6.226151e+01 -6.208771e+01
-1.576870e+09 -1.376870e+09 -1.536869e+09 -4.182344e+02 7.366478e+01 -7.771559e+01
-1.813033e+09 -1.613033e+09 -1.773033e+09 2.583067e+02 2.052616e+01 -3.822285e+01
-3.575808e+09 -3.375808e+09 -3.535807e+09 -6.292112e+02 3.148448e+01 1.862171e+01
-3.596554e+09 -3.396553e+09 -3.556553e+09 -1.928853e+02 2.799005e+00 -1.541400e+01
-1.767328e+09 -1.567328e+09 -1.727328e+09 -5.704745e+02 1.543474e+02 -2.682737e+01
-2.016196e+09 -1.816196e+09 -1.976196e+09 3.139402e+02 2.271650e+01 -4.223576e+01
-1.980445e+09 -1.780445e+09 -1.940445e+09 2.419915e+02 1.574898e+01 -4.494560e+01
-1.873986e+09 -1.673985e+09 -1.833986e+09 2.009242e+02 9.287600e+00 -1.840456e+01
-2.117314e+09 -1.917317e+09 -2.077314e+09 1.697036e+03 1.088631e+03 -3.042144e+02
-3.189884e+09 -2.989886e+09 -3.149884e+09 -1.112878e+03 6.110689e+02 1.574591e+02
-1.600477e+09 -1.400471e+09 -1.560481e+09 3.960601e+03 1.529619e+03 -2.925168e+02
-1.577473e+09 -1.377473e+09 -1.537473e+09 -9.210570e+02 2.511030e+02 2.377430e+01
-1.577473e+09 -1.377473e+09 -1.537472e+09 -8.267692e+02 2.229707e+02 1.834560e+01
-3.589080e+09 -3.389078e+09 -3.549081e+09 -3.226133e+02 -6.521457e+02 8.796991e+02
-3.291434e+09 -3.091435e+09 -3.251434e+09 1.724377e+03 8.538101e+02 -3.824174e+02
-3.204246e+09 -3.004245e+09 -3.164247e+09 8.439003e+02 -1.485805e+03 1.231833e+03
-3.531876e+09 -3.331873e+09 -3.491876e+09 -8.814708e+02 -3.591281e+02 1.029177e+03
-3.601513e+09 -3.401515e+09 -3.561514e+09 -1.912662e+02 3.397478e+00 -1.138548e+02
-2.998887e+09 -2.798888e+09 -2.958888e+09 2.377062e+02 5.985706e+00 -4.346255e+01
-2.487511e+09 -2.287512e+09 -2.447512e+09 -1.217607e+03 3.876413e+02 -6.893864e+02
-3.331695e+09 -3.131698e+09 -3.291698e+09 2.038807e+03 2.234461e+03 -7.205777e+02
-1.761188e+09 -1.561188e+09 -1.721188e+09 -1.368938e+03 3.432928e+02 -4.700777e+02
-2.746961e+09 -2.546964e+09 -2.706967e+09 -3.307452e+02 -5.508906e+03 4.291781e+02
-3.526487e+09 -3.326488e+09 -3.486488e+09 -8.369421e+02 5.589235e+01 -8.541242e+01
-3.607837e+09 -3.407839e+09 -3.567838e+09 -1.970693e+02 8.275207e+01 -5.004508e+02
-1.703512e+09 -1.503512e+09 -1.663512e+09 -4.805295e+02 -6.099564e+01 -1.467028e+01
-2.883471e+09 -2.683476e+09 -2.843474e+09 -1.547152e+02 -1.890482e+03 6.276099e+01
-3.604273e+09 -3.404275e+09 -3.564278e+09 -8.119424e+02 -2.969006e+03 -1.921848e+02
-2.574103e+09 -2.374110e+09 -2.534108e+09 3.084557e+02 -5.599831e+03 7.544303e+02
-1.791421e+09 -1.591419e+09 -1.751420e+09 -9.342781e+02 -5.926570e+01 3.659133e+02
-3.185096e+09 -2.985101e+09 -3.145102e+09 1.059779e+02 -3.774355e+03 6.744957e+02
-2.246598e+09 -2.046606e+09 -2.206605e+09 -3.691709e+02 -7.739193e+03 -2.401323e+02
-2.616125e+09 -2.416130e+09 -2.576130e+09 -3.768661e+01 -3.721033e+03 3.929040e+02
-1.574762e+09 -1.374783e+09 -1.534771e+09 2.451248e+03 1.254732e+04 -2.390254e+03
-1.894639e+09 -1.694636e+09 -1.854638e+09 1.118811e+03 6.115825e+02 -6.844521e+02
-3.009808e+09 -2.809810e+09 -2.969812e+09 2.965954e+03 3.525465e+03 -1.416166e+03
-1.698308e+09 -1.498308e+09 -1.658308e+09 -2.736948e+02 1.521581e+01 -8.165342e+01
-1.771423e+09 -1.571434e+09 -1.731426e+09 -8.169419e+02 4.198612e+03 8.795962e+02
-3.591948e+09 -3.391950e+09 -3.551955e+09 1.447774e+03 5.480071e+03 -1.347192e+03
-2.894091e+09 -2.694096e+09 -2.854095e+09 2.308251e+03 3.737328e+03 -9.777842e+02
-3.475671e+09 -3.275676e+09 -3.435676e+09 1.112195e+03 3.414801e+03 -3.838339e+02
-1.872259e+09 -1.672273e+09 -1.832266e+09 3.271800e+03 8.456288e+03 -9.095915e+02
-3.172512e+09 -2.972520e+09 -3.132519e+09 1.893890e+03 5.587553e+03 -1.077567e+03
-2.665489e+09 -2.465497e+09 -2.625496e+09 -5.702799e+02 5.941655e+03 8.375224e+02
-1.567512e+09 -1.367514e+09 -1.527512e+09 8.366960e+02 1.430816e+02 9.006306e+00
-3.474607e+09 -3.274611e+09 -3.434608e+09 1.341829e+02 2.434572e+02 -1.190275e+01
-2.835953e+09 -2.635957e+09 -2.795957e+09 6.442176e+02 -3.779286e+03 6.584781e+02
-3.611852e+09 -3.411856e+09 -3.571853e+09 1.825169e+02 3.834582e+02 4.647889e+01
-3.611852e+09 -3.411855e+09 -3.571853e+09 -7.265370e+01 4.348019e+02 3.651442e+01
-2.422796e+09 -2.222801e+09 -2.382798e+09 3.222591e+02 9.344747e+02 1.210458e+01
-2.156293e+09 -1.956297e+09 -2.116298e+09 -2.387855e+03 -5.805929e+03 -1.772666e+03
-1.803359e+09 -1.603366e+09 -1.763362e+09 8.539904e+02 -4.570148e+03 5.906952e+02
-1.868290e+09 -1.668293e+09 -1.828290e+09 5.367853e+02 1.635268e+02 -1.363353e+01
-1.672636e+09 -1.472639e+09 -1.632636e+09 1.213311e+02 1.845462e+02 5.598471e+00
-1.674097e+09 -1.474101e+09 -1.634098e+09 2.588854e+02 2.033662e+02 5.002461e+00
-2.373620e+09 -2.173626e+09 -2.333625e+09 1.325458e+03 -4.569016e+03 1.329894e+03
-1.655369e+09 -1.455380e+09 -1.615374e+09 -4.119637e+03 -6.682184e+03 -1.247576e+03
-3.583194e+09 -3.383193e+09 -3.543186e+09 -3.739399e+03 -2.321738e+03 4.332844e+03
-2.564172e+09 -2.364165e+09 -2.524181e+09 7.212269e+03 7.698386e+03 -8.477778e+03
-1.868265e+09 -1.668265e+09 -1.828265e+09 4.044952e+01 1.573123e+01 -3.055243e+01
-1.995834e+09 -1.795833e+09 -1.955833e+09 6.207097e+01 1.114797e+01 -1.585418e+01
-1.748786e+09 -1.548805e+09 -1.708803e+09 3.916315e+03 2.059514e+04 -3.586521e+03
-3.368202e+09 -3.168200e+09 -3.328214e+09 -5.120762e+02 7.197239e+03 -3.026289e+02
-2.528647e+09 -2.328643e+09 -2.488638e+09 3.361532e+03 -5.827049e+03 -7.594299e+03
-1.561136e+09 -1.361111e+09 -1.521133e+09 -5.774017e+03 3.955221e+03 1.035927e+04
-3.312761e+09 -3.112761e+09 -3.272757e+09 5.915017e+02 -6.311801e+02 -1.899494e+03
-2.125443e+09 -1.925439e+09 -2.085472e+09 2.788338e+03 -5.638658e+03 -2.085092e+04
-2.317452e+09 -2.117462e+09 -2.277465e+09 5.657978e+03 1.467380e+04 -3.351441e+03
-1.888497e+09 -1.688502e+09 -1.848497e+09 7.777632e+03 7.430454e+03 -5.365842e+03
-1.595785e+09 -1.395793e+09 -1.555797e+09 4.376716e+03 -3.448047e+02 1.159926e+04
-1.778854e+09 -1.578844e+09 -1.738853e+09 1.937096e+03 -1.764698e+03 3.779011e+03
-2.387861e+09 -2.187868e+09 -2.347871e+09 6.003124e+03 1.314487e+04 -5.141804e+03
-1.898589e+09 -1.698589e+09 -1.858589e+09 -4.587286e+02 6.182539e+01 -3.226688e+01
-2.083470e+09 -1.883464e+09 -2.043475e+09 3.580688e+03 8.158511e+03 -5.056979e+03
-2.843902e+09 -2.643903e+09 -2.803903e+09 -2.814600e+02 -2.544625e+01 -1.524146e+00
-3.188375e+09 -2.988376e+09 -3.148376e+09 -1.969593e+02 -8.441358e+00 2.222162e+01
-1.592155e+09 -1.392157e+09 -1.552155e+09 -6.719006e+02 7.806957e+01 -6.317686e+01
-3.571670e+09 -3.371671e+09 -3.531670e+09 -7.091499e+02 3.416162e+01 1.305682e+01
-1.698861e+09 -1.498862e+09 -1.658862e+09 -2.301149e+02 -2.200168e+01 1.262829e+01
-2.407152e+09 -2.207152e+09 -2.367152e+09 -2.694823e+02 2.583105e+01 -7.779130e+01
-1.588671e+09 -1.388671e+09 -1.548670e+09 -4.090050e+02 7.194638e+01 -7.480371e+01
-1.878787e+09 -1.678789e+09 -1.838788e+09 -1.434958e+02 1.089449e+00 -6.443391e+01
-3.398400e+09 -3.198401e+09 -3.358400e+09 -1.137859e+03 2.746250e+02 9.318198e+01
-1.588833e+09 -1.388833e+09 -1.548833e+09 -4.904374e+02 -2.811053e+01 -8.272640e+00
-2.325906e+09 -2.125906e+09 -2.285906e+09 -7.764869e+02 9.558518e+01 -2.645671e+01
-1.871482e+09 -1.671483e+09 -1.831482e+09 -5.353853e+02 -2.024328e-01 -4.957148e+01
-3.372533e+09 -3.172533e+09 -3.332532e+09 -5.708497e+02 1.099226e+02 2.777764e+01
-3.596492e+09 -3.396493e+09 -3.556492e+09 -9.141090e+02 9.504295e+01 5.319521e+01
-3.500833e+09 -3.300834e+09 -3.460834e+09 -2.562174e+02 -6.438658e+00 5.005756e+00
-2.933961e+09 -2.733962e+09 -2.893962e+09 -2.773065e+02 -2.090860e+01 4.066205e+00
-1.636122e+09 -1.436123e+09 -1.596122e+09 -3.575885e+02 -3.126068e+01 1.230904e+01
-1.878796e+09 -1.678796e+09 -1.838796e+09 -2.358722e+02 -3.445515e+01 1.244931e+01
-3.476199e+09 -3.276199e+09 -3.436199e+09 -3.246149e+02 -1.848739e+01 -2.676339e+00
-3.010836e+09 -2.810837e+09 -2.970836e+09 -1.340688e+03 4.991648e+02 2.438569e+02
-1.884265e+09 -1.684265e+09 -1.844265e+09 -4.126568e+02 -6.709496e+01 2.501652e+01
-3.282344e+09 -3.082344e+09 -3.242344e+09 -3.408910e+02 -1.531875e+01 -1.825534e+00
-1.730351e+09 -1.530351e+09 -1.690351e+09 2.120162e+02 3.010978e+01 -1.058126e+01
-3.319316e+09 -3.119316e+09 -3.279316e+09 1.107615e+02 6.314188e+00 -1.826307e+01
-3.598205e+09 -3.398205e+09 -3.558205e+09 2.477239e+02 -4.098809e+00 -4.372242e+01
-2.850876e+09 -2.650876e+09 -2.810876e+09 -2.503339e+02 -3.285803e+01 6.199219e+00
-2.580589e+09 -2.380589e+09 -2.540589e+09 -3.844960e+02 -4.170940e+01 -2.331319e+01
-1.673699e+09 -1.473711e+09 -1.633703e+09 7.534019e+02 4.510974e+03 4.772161e+01
-2.055599e+09 -1.855611e+09 -2.015604e+09 3.871878e+03 8.697576e+03 -1.896651e+03
-3.034613e+09 -2.834610e+09 -2.994613e+09 -2.086568e+03 1.169462e+03 1.682531e+03
-2.353867e+09 -2.153866e+09 -2.313867e+09 -4.769354e+02 -5.572408e+01 -1.106770e+01
-2.081724e+09 -1.881736e+09 -2.041735e+09 -4.776579e+03 1.323732e+04 2.191747e+03
-3.389437e+09 -3.189443e+09 -3.349442e+09 -7.047176e+02 4.282064e+03 5.945697e+02
-3.400723e+09 -3.200724e+09 -3.360731e+09 -2.075349e+03 5.173750e+03 1.322597e+03
-1.708116e+09 -1.508116e+09 -1.668115e+09 5.723838e+02 -3.905489e+02 1.869541e+02
-3.308585e+09 -3.108584e+09 -3.268584e+09 -1.025557e+02 -1.041156e+02 3.117837e+01
-1.674098e+09 -1.474098e+09 -1.634098e+09 -3.846223e-01 -9.376285e+01 1.451347e+01
-2.326528e+09 -2.126531e+09 -2.286529e+09 -1.299378e+03 -1.573061e+03 -3.573714e+02
-1.581125e+09 -1.381131e+09 -1.541127e+09 -1.356325e+03 -2.524328e+03 -2.609358e+02
-2.359338e+09 -2.159346e+09 -2.319343e+09 -2.505804e+03 4.669600e+03 1.118443e+03
-3.299645e+09 -3.099649e+09 -3.259654e+09 -1.729007e+02 5.864376e+03 -5.682646e+01
-3.368576e+09 -3.168575e+09 -3.328589e+09 2.210768e+03 6.433511e+03 -2.400418e+03
-2.943990e+09 -2.743997e+09 -2.904001e+09 -3.261830e+03 8.264132e+03 2.064555e+03
-1.569015e+09 -1.369013e+09 -1.529014e+09 5.714187e+01 -3.837692e+02 3.972452e+02
-1.594428e+09 -1.394426e+09 -1.554427e+09 1.168611e+02 -2.503240e+02 2.567041e+02
-2.636679e+09 -2.436678e+09 -2.596678e+09 5.822910e+02 -5.144232e+02 5.152000e+02
-2.778220e+09 -2.578219e+09 -2.738220e+09 -2.349016e+03 1.576305e+03 1.428176e+03
-2.093629e+09 -1.893628e+09 -2.053629e+09 -6.678157e+02 -7.731295e+01 3.278168e+02
-3.192059e+09 -2.992054e+09 -3.152056e+09 3.237887e+03 2.064127e+03 1.658350e+03
-1.606494e+09 -1.406492e+09 -1.566493e+09 -3.814028e+02 -3.680691e+02 3.558346e+02
-1.548481e+09 -1.348512e+09 -1.508498e+09 -7.476633e+03 2.282728e+04 2.111451e+03
-2.521976e+09 -2.321974e+09 -2.481975e+09 -6.068650e+02 -1.546902e+02 9.643479e+02
-2.706704e+09 -2.506709e+09 -2.666709e+09 -2.355326e+03 4.979001e+03 1.675873e+03
-2.100118e+09 -1.900118e+09 -2.060118e+09 1.623543e+02 1.908191e+01 5.404344e+00
-3.600607e+09 -3.400607e+09 -3.560607e+09 5.786025e+01 -5.760791e+00 -2.718398e+01
-1.614322e+09 -1.414321e+09 -1.574321e+09 1.317151e+02 2.470962e+01 -1.701946e+01
-1.658850e+09 -1.458852e+09 -1.618851e+09 -6.328505e+01 -9.718207e+00 -1.410690e+01
-1.920513e+09 -1.720514e+09 -1.880514e+09 7.550756e+01 1.387985e+01 -1.560679e+00
-1.874093e+09 -1.674093e+09 -1.834093e+09 1.503896e+02 2.224231e+01 -1.728154e+01
-1.596440e+09 -1.396439e+09 -1.556439e+09 1.154285e+02 4.134045e+01 -5.275681e+01
-1.922973e+09 -1.722972e+09 -1.882972e+09 1.138791e+02 2.609631e+01 -1.182275e+01
-1.674129e+09 -1.474128e+09 -1.634128e+09 -2.045258e+02 -5.038098e+01 -2.501044e+01
-3.353874e+09 -3.153873e+09 -3.313873e+09 2.310622e+02 1.683200e+01 -1.881325e+01
-3.353255e+09 -3.153255e+09 -3.313255e+09 1.876699e+02 4.915829e+00 -3.503782e+01
-2.145482e+09 -1.945482e+09 -2.105482e+09 2.069172e+02 3.091998e+01 -1.961092e+01
-1.674098e+09 -1.474098e+09 -1.634098e+09 -1.018786e+02 -1.177054e+02 -2.568788e+01
-2.096172e+09 -1.896171e+09 -2.056171e+09 -1.161344e+02 -1.345881e+02 3.585887e+01
-1.764196e+09 -1.564195e+09 -1.724195e+09 1.612556e+02 3.833789e+01 -2.218154e+01
-2.818817e+09 -2.618817e+09 -2.778817e+09 5.172063e+02 -1.213794e+01 -9.400809e+01
-3.583868e+09 -3.383869e+09 -3.543869e+09 3.229938e+02 5.044439e+00 -6.750517e+01
-2.854824e+09 -2.654824e+09 -2.814823e+09 1.103828e+03 2.425672e+02 -8.338002e+01
-3.178553e+09 -2.978554e+09 -3.138553e+09 4.078235e+02 2.021056e+01 -6.239841e+01
-3.190217e+09 -2.990217e+09 -3.150216e+09 7.742364e+02 6.245707e+01 -5.981730e+01
-2.260946e+09 -2.060944e+09 -2.220945e+09 2.534714e+02 -6.988858e+01 -2.748160e+01
-3.214271e+09 -3.014271e+09 -3.174271e+09 4.002444e+02 3.594585e+01 -1.579808e+01
-3.200385e+09 -3.000387e+09 -3.160385e+09 7.526036e+02 5.723726e+01 3.326218e+01
-3.418846e+09 -3.218846e+09 -3.378846e+09 4.294199e+02 8.841858e+00 -5.540340e+01
-3.390508e+09 -3.190509e+09 -3.350509e+09 4.247151e+02 2.231682e+01 -3.242626e+01
-3.482227e+09 -3.282227e+09 -3.442226e+09 9.543644e+02 1.363696e+02 -2.127842e+01
-1.674128e+09 -1.474131e+09 -1.634128e+09 6.680695e+02 1.610575e+02 1.864022e+01
-2.612567e+09 -2.412569e+09 -2.572567e+09 1.396352e+03 6.093579e+02 -1.959231e+02
-3.380720e+09 -3.180720e+09 -3.340720e+09 -5.297593e+02 -6.265798e+01 -1.095542e-01
-2.524498e+09 -2.324497e+09 -2.484497e+09 -7.390257e+02 1.573912e+02 5.708402e+01
-2.555706e+09 -2.355706e+09 -2.515706e+09 -8.564253e+02 -3.056251e+00 5.182143e+01
-2.459455e+09 -2.259455e+09 -2.419455e+09 -4.584714e+02 -5.451728e+01 -1.014369e+01
-3.403063e+09 -3.203063e+09 -3.363063e+09 1.085449e+02 2.317922e+01 -1.376317e+01
-3.167399e+09 -2.967398e+09 -3.127398e+09 -4.368878e+02 -9.987652e+01 4.537190e+01
-3.598907e+09 -3.398910e+09 -3.558908e+09 -4.775851e+02 6.239517e+01 -1.919691e+01
-1.751980e+09 -1.551979e+09 -1.711980e+09 -3.797189e+02 -7.075842e+01 -1.322207e+01
-3.285736e+09 -3.085740e+09 -3.245737e+09 5.582755e+02 2.202732e+02 -7.858739e+01
-1.672636e+09 -1.472640e+09 -1.632637e+09 1.756377e+02 3.978138e+02 3.344942e+00
-2.089498e+09 -1.889501e+09 -2.049498e+09 -4.217058e+02 1.878741e+02 3.037416e+01
-3.599683e+09 -3.399686e+09 -3.559684e+09 -5.265856e+02 2.012480e+02 3.324940e+01
-3.285532e+09 -3.085535e+09 -3.245533e+09 -2.909836e+02 2.041828e+02 -1.546814e+00
-1.583027e+09 -1.383031e+09 -1.543028e+09 -5.508901e+02 7.951998e+02 8.153978e+01
-2.723808e+09 -2.523811e+09 -2.683809e+09 -3.561423e+02 3.039081e+02 2.929331e+01
-2.093067e+09 -1.893071e+09 -2.053067e+09 -6.229876e+01 4.839679e+02 1.573879e+01
-1.773787e+09 -1.573786e+09 -1.733787e+09 -3.387787e+02 -8.855653e+01 4.721750e+00
-3.591274e+09 -3.391278e+09 -3.551277e+09 2.741655e+02 1.530871e+03 -7.653550e+00
-3.140190e+09 -2.940190e+09 -3.100190e+09 1.683095e+02 2.139766e+01 -1.520525e+01
-1.775430e+09 -1.575430e+09 -1.735430e+09 1.661211e+02 1.976558e+01 -2.452389e+01
-2.444868e+09 -2.244868e+09 -2.404868e+09 -5.270698e+02 -1.050212e+02 5.742236e+01
-2.891287e+09 -2.691286e+09 -2.851287e+09 5.606108e+01 1.258137e+01 -1.915701e+01
-1.983232e+09 -1.783231e+09 -1.943232e+09 6.699707e+01 1.114933e+01 -2.214497e+00
-1.791467e+09 -1.591466e+09 -1.751466e+09 1.635504e+02 1.773565e+01 -7.766314e+00
-1.571899e+09 -1.371898e+09 -1.531899e+09 -3.621349e+02 -1.192687e+02 -2.008689e+01
-3.425010e+09 -3.225009e+09 -3.385010e+09 -3.084662e+02 -5.534177e+01 1.817202e+01
-2.402631e+09 -2.202631e+09 -2.362631e+09 1.844513e+01 3.391359e+01 -5.342560e+01
-2.513385e+09 -2.313385e+09 -2.473385e+09 -7.912996e+01 2.140984e+00 -4.206884e+01
-3.587897e+09 -3.387898e+09 -3.547898e+09 -3.139630e+01 -6.316228e-01 -9.885053e+00
-2.820804e+09 -2.620804e+09 -2.780803e+09 -2.177420e+02 -1.451381e+01 -5.487125e+01
-2.303426e+09 -2.103425e+09 -2.263425e+09 -1.942572e+01 2.851889e+00 -3.235653e+01
-2.177401e+09 -1.977401e+09 -2.137401e+09 -2.781859e+02 -4.209356e+01 -6.114440e+00
-3.370343e+09 -3.170343e+09 -3.330343e+09 -4.202042e+02 -5.655446e+01 9.766055e+00
-3.601021e+09 -3.401025e+09 -3.561024e+09 1.131870e+03 1.340882e+03 -2.975022e+02
-2.808035e+09 -2.608037e+09 -2.768035e+09 -1.013352e+03 2.183195e+02 9.195969e+01
-2.019511e+09 -1.819510e+09 -1.979510e+09 -3.776653e+02 -5.760965e+01 -7.427013e+01
-1.581952e+09 -1.381959e+09 -1.541954e+09 -3.518151e+02 1.663384e+03 1.299950e+02
-1.960532e+09 -1.760532e+09 -1.920531e+09 -7.614369e+02 4.714071e+01 4.165956e+00
-3.475670e+09 -3.275675e+09 -3.435676e+09 3.613993e+02 3.462546e+03 1.089502e+02
-1.658583e+09 -1.458591e+09 -1.618585e+09 1.430774e+03 2.812153e+03 -3.293362e+02
-2.548217e+09 -2.348218e+09 -2.508217e+09 -4.798460e+02 2.033142e+01 -7.021064e+01
-2.593933e+09 -2.393939e+09 -2.553936e+09 -1.064108e+03 2.756165e+03 3.189055e+02
-3.373579e+09 -3.173579e+09 -3.333579e+09 -8.763293e+02 2.167747e+02 1.232231e+02
-3.265992e+09 -3.065987e+09 -3.225995e+09 -1.954401e+03 -5.609051e+02 1.324314e+03
-2.031040e+09 -1.831046e+09 -1.991044e+09 2.631731e+03 -6.258510e+03 2.745805e+03
-2.826873e+09 -2.626873e+09 -2.786873e+09 -1.515129e+02 1.390679e+01 -3.349529e+01
-3.091740e+09 -2.891740e+09 -3.051739e+09 -5.773007e+02 7.618018e+01 -3.686883e+01
-3.588039e+09 -3.388041e+09 -3.548040e+09 4.428916e+02 -5.204359e+00 -2.819100e+02
-3.007285e+09 -2.807286e+09 -2.967286e+09 3.263332e+02 2.502255e+01 -2.424582e+01
-1.594668e+09 -1.394669e+09 -1.554669e+09 8.708984e+01 1.189049e+01 -4.897645e+01
-3.222764e+09 -3.022765e+09 -3.182765e+09 3.235671e+02 5.641743e+00 -6.456169e+01
-1.574854e+09 -1.374854e+09 -1.534854e+09 2.243348e+03 1.033782e+03 -6.025599e+02
-2.853501e+09 -2.653503e+09 -2.813502e+09 6.780998e+00 3.739054e-01 -8.139767e+01
-2.126768e+09 -1.926769e+09 -2.086769e+09 1.136916e+02 5.671238e+00 3.080239e+01
-3.245042e+09 -3.045037e+09 -3.205047e+09 -5.596516e+02 -2.805920e+03 -9.357016e+02
-2.163937e+09 -1.963908e+09 -2.123906e+09 -7.782444e+03 1.372761e+04 -1.639168e+04
-1.580519e+09 -1.380521e+09 -1.540520e+09 -6.622874e+02 1.301155e+02 -3.832720e+02
-2.496074e+09 -2.296046e+09 -2.456063e+09 -3.585500e+03 1.138067e+04 -6.012976e+03
-3.554153e+09 -3.354154e+09 -3.514154e+09 -1.158394e+03 -1.177811e+03 -5.338479e+02
-2.619291e+09 -2.419292e+09 -2.579292e+09 -1.403989e+03 -1.716489e+03 -6.851936e+02
-3.135229e+09 -2.935228e+09 -3.095229e+09 -9.956877e+02 -9.997645e+02 -7.312309e+02
-3.086015e+09 -2.886003e+09 -3.046013e+09 -6.991400e+02 5.485805e+03 -7.497763e+02
-3.619625e+09 -3.419620e+09 -3.579629e+09 -5.955666e+00 -3.595037e+03 -1.783519e+03
-1.865226e+09 -1.665151e+09 -1.825120e+09 2.727214e+04 5.562329e+04 5.139226e+04
-3.500833e+09 -3.300834e+09 -3.460834e+09 -2.809256e+02 -3.474323e+00 -8.990689e+00
-2.198623e+09 -1.998624e+09 -2.158623e+09 -1.613531e+03 -1.107637e+03 -5.986072e+02
-3.605265e+09 -3.405268e+09 -3.565256e+09 3.177871e+03 2.296446e+03 7.157886e+03
-2.787409e+09 -2.587410e+09 -2.747410e+09 -1.529211e+03 -1.721708e+03 -8.172920e+02
-1.583880e+09 -1.383868e+09 -1.543876e+09 -7.508143e+02 -8.892955e+02 4.546229e+03
-1.589321e+09 -1.389310e+09 -1.549312e+09 4.887492e+02 -2.582140e+03 6.019022e+02
-2.962506e+09 -2.762508e+09 -2.922505e+09 3.518783e+02 -1.507998e+02 -2.037704e+03
-1.978503e+09 -1.778505e+09 -1.938505e+09 1.372687e+01 2.625776e+01 -4.489758e+01
-1.644423e+09 -1.444419e+09 -1.604420e+09 -3.128105e+03 1.016211e+03 1.800241e+03
-1.668428e+09 -1.468426e+09 -1.628426e+09 -7.573612e+03 5.830398e+03 5.032591e+03
-1.587105e+09 -1.387107e+09 -1.547107e+09 -8.767507e+01 8.883267e+00 -1.088904e+02
-2.612705e+09 -2.412706e+09 -2.572706e+09 1.961643e+02 1.249926e+01 -1.851234e+02
-2.103089e+09 -1.903092e+09 -2.063091e+09 -2.084025e+02 6.709725e+01 -3.526715e+02
-2.716899e+09 -2.516901e+09 -2.676900e+09 3.609013e+02 6.432316e+00 -2.348603e+02
-1.674100e+09 -1.474103e+09 -1.634100e+09 5.086057e+02 1.861037e+02 2.037247e+01
-3.478792e+09 -3.278793e+09 -3.438793e+09 -2.278010e+01 5.384159e+00 1.026816e+01
-3.394031e+09 -3.194033e+09 -3.354032e+09 1.766482e+02 1.172879e+01 -1.152087e+02
-1.560897e+09 -1.360909e+09 -1.520903e+09 4.889778e+03 -9.074534e+03 2.615845e+03
-2.970762e+09 -2.770766e+09 -2.930763e+09 4.057801e+02 1.885899e+02 -1.154899e+01
-1.696124e+09 -1.496127e+09 -1.656124e+09 7.334749e+02 1.780988e+02 2.407729e+00
-3.206881e+09 -3.006876e+09 -3.166879e+09 -3.064706e+02 3.080120e+02 -1.129304e+03
-1.679786e+09 -1.479783e+09 -1.639784e+09 7.738501e+02 4.313049e+02 -6.659672e+02
-2.633059e+09 -2.433053e+09 -2.593055e+09 -5.525557e+03 -5.024438e+03 4.148835e+03
-2.406399e+09 -2.206404e+09 -2.366403e+09 -1.956354e+03 -4.270064e+03 -1.435598e+03
-2.675598e+09 -2.475603e+09 -2.635602e+09 -1.228331e+03 -3.972370e+03 -5.637137e+02
-3.592953e+09 -3.392953e+09 -3.552953e+09 -1.167581e+03 2.632077e+02 9.078980e+01
-1.977753e+09 -1.777756e+09 -1.937754e+09 -9.336011e+02 2.563582e+02 6.935341e+01
-1.615859e+09 -1.415860e+09 -1.575859e+09 -1.181972e+03 3.374678e+02 2.921112e+01
-2.703421e+09 -2.503419e+09 -2.663412e+09 1.070123e+03 -3.119164e+03 -3.646147e+03
-2.004932e+09 -1.804930e+09 -1.964933e+09 -1.381293e+03 -4.495072e+01 -2.091727e+02
-3.415265e+09 -3.215254e+09 -3.375230e+09 3.451684e+03 1.352632e+04 5.683974e+03
-1.595773e+09 -1.395787e+09 -1.555801e+09 1.220801e+04 1.065161e+04 1.803116e+04
-1.576437e+09 -1.376436e+09 -1.536436e+09 -1.257207e+02 1.092948e+02 -2.461698e+01
-1.999754e+09 -1.799753e+09 -1.959753e+09 -6.417794e+01 5.449205e+01 -4.984672e+01
-1.578177e+09 -1.378176e+09 -1.538177e+09 3.454061e+02 5.552543e+01 -1.798020e+02
-3.602077e+09 -3.402077e+09 -3.562077e+09 1.073558e+03 -1.884046e+02 -4.739723e+02
-1.687730e+09 -1.487730e+09 -1.647731e+09 1.150566e+03 -1.821561e+02 -5.368516e+02
-1.568735e+09 -1.368735e+09 -1.528735e+09 -5.945479e+02 1.213575e+02 -5.897521e+01
-2.660420e+09 -2.460420e+09 -2.620420e+09 2.536682e+02 4.382887e+00 -5.524332e+01
-3.165695e+09 -2.965695e+09 -3.125694e+09 -5.666064e+02 8.963789e+01 -2.939820e+01
-1.591153e+09 -1.391154e+09 -1.551153e+09 -8.387834e+02 1.958128e+02 -4.365816e+01
-3.158343e+09 -2.958343e+09 -3.118342e+09 -8.435070e+02 2.124949e+02 8.034128e+01
-2.675646e+09 -2.475650e+09 -2.635650e+09 3.008841e+03 6.247179e+03 -2.462640e+03
-1.809121e+09 -1.609121e+09 -1.769121e+09 3.530358e+02 -3.856244e+02 2.207953e+02
-3.086275e+09 -2.886282e+09 -3.046281e+09 -1.215348e+03 4.522780e+03 3.992123e+02
-1.997445e+09 -1.797444e+09 -1.957444e+09 5.280071e+01 -1.419773e+02 1.497838e+01
-1.804116e+09 -1.604129e+09 -1.764122e+09 -4.658756e+03 9.156344e+03 1.741538e+03
-2.420894e+09 -2.220894e+09 -2.380894e+09 3.176486e+02 4.484117e+01 -2.085735e+01
-2.762607e+09 -2.562611e+09 -2.722610e+09 -1.825535e+03 2.842385e+03 8.424667e+02
-2.070376e+09 -1.870383e+09 -2.030379e+09 -4.524100e+02 3.301309e+03 2.736423e+02
-1.571620e+09 -1.371620e+09 -1.531620e+09 3.327054e+02 4.032516e+01 -6.997731e+00
-1.972051e+09 -1.772059e+09 -1.932054e+09 -2.492043e+03 4.777521e+03 1.419038e+03
-3.602807e+09 -3.402811e+09 -3.562816e+09 -1.000045e+02 5.242133e+03 3.633768e+02
-3.369250e+09 -3.169253e+09 -3.329255e+09 -3.221001e+03 4.027005e+03 1.780175e+03
-1.792181e+09 -1.592188e+09 -1.752183e+09 -3.766077e+03 4.127069e+03 9.280677e+02
-3.176241e+09 -2.976239e+09 -3.136240e+09 -5.927533e+02 3.087580e+02 1.720586e+02
-2.220688e+09 -2.020687e+09 -2.180687e+09 1.171002e+02 1.159379e+01 -2.430745e+00
-2.945819e+09 -2.745819e+09 -2.905819e+09 1.276690e+02 1.090953e+01 -7.453499e+00
-2.024514e+09 -1.824513e+09 -1.984513e+09 -8.021769e+02 3.650992e+01 4.214109e+01
-2.230370e+09 -2.030370e+09 -2.190370e+09 9.573071e+01 1.169089e+01 -3.341746e+00
-3.184547e+09 -2.984546e+09 -3.144546e+09 6.416385e+01 7.404893e+00 -1.852247e+01
-1.815873e+09 -1.615878e+09 -1.775874e+09 3.517977e+02 8.661978e+02 -8.509468e+01
-2.056711e+09 -1.856721e+09 -2.016714e+09 -3.791182e+02 4.816731e+03 9.606193e+01
-3.195492e+09 -2.995491e+09 -3.155491e+09 -2.112932e+02 -3.324780e+01 -1.051792e+01
-1.852121e+09 -1.652129e+09 -1.812124e+09 4.938945e+02 2.735843e+03 -7.366121e+01
-1.581953e+09 -1.381962e+09 -1.541955e+09 -3.578111e+02 2.362669e+03 1.230364e+02
-2.874788e+09 -2.674787e+09 -2.834787e+09 1.321836e+03 3.703033e+02 -2.104039e+02
-3.480157e+09 -3.280157e+09 -3.440156e+09 1.182764e+03 2.534677e+02 -1.382249e+02
-3.589623e+09 -3.389627e+09 -3.549627e+09 -1.269438e+02 2.542229e+03 7.361380e+01
-2.279338e+09 -2.079338e+09 -2.239337e+09 1.501181e+03 6.142638e+02 -2.466435e+02
-1.587339e+09 -1.387341e+09 -1.547340e+09 2.324578e+03 1.145065e+03 -5.201413e+02
-3.287884e+09 -3.087885e+09 -3.247885e+09 1.364700e+03 3.646864e+02 -1.369570e+02
-3.613949e+09 -3.413950e+09 -3.573951e+09 1.585834e+03 1.378404e+03 -3.754223e+02
-2.994861e+09 -2.794860e+09 -2.954861e+09 1.829623e+03 7.540897e+02 -7.254223e+02
-1.584823e+09 -1.384828e+09 -1.544824e+09 2.160200e+03 1.607005e+03 -4.286626e+02
-3.260785e+09 -3.060790e+09 -3.220789e+09 8.962392e+02 2.190710e+03 -2.491249e+02
-1.599279e+09 -1.399279e+09 -1.559278e+09 -1.903463e+03 7.702027e+02 4.135491e+02
-3.229386e+09 -3.029390e+09 -3.189388e+09 5.176336e+02 -1.852655e+03 2.110143e+02
-3.613949e+09 -3.413951e+09 -3.573951e+09 1.919845e+03 1.417653e+03 -5.167728e+02
-3.141673e+09 -2.941677e+09 -3.101676e+09 1.765371e+03 1.995034e+03 -6.106950e+02
-2.364883e+09 -2.164888e+09 -2.324885e+09 8.295969e+02 -2.205602e+03 4.770112e+02
-3.035964e+09 -2.835966e+09 -2.995965e+09 1.120683e+03 -1.204270e+03 6.092667e+02
-2.266527e+09 -2.066528e+09 -2.226527e+09 9.609024e+02 2.211628e+02 -9.905458e+00
-2.161315e+09 -1.961316e+09 -2.121315e+09 1.530095e+03 5.615612e+02 -2.208017e+02
-1.661125e+09 -1.461129e+09 -1.621125e+09 1.444847e+03 5.470932e+02 -1.937523e+02
-3.576524e+09 -3.376524e+09 -3.536524e+09 3.801368e+01 -6.831463e+00 -2.356879e+01
-2.423204e+09 -2.223206e+09 -2.383204e+09 1.323824e+03 6.789944e+02 -1.760504e+02
-2.485451e+09 -2.285451e+09 -2.445451e+09 3.607667e+01 -1.358081e+01 -3.865286e+01
-3.576524e+09 -3.376524e+09 -3.536524e+09 9.443436e+01 -1.032536e+00 -7.166029e+00
-3.489355e+09 -3.289354e+09 -3.449355e+09 6.162264e+01 -1.798277e+00 -1.251632e+01
-3.602681e+09 -3.402681e+09 -3.562681e+09 1.102541e+02 2.942947e+00 -7.434537e+00
-1.614321e+09 -1.414321e+09 -1.574321e+09 1.158944e+02 2.411146e+01 -2.047080e+01
-3.582545e+09 -3.382546e+09 -3.542545e+09 1.340834e+03 4.840787e+02 -1.597089e+02
-3.206409e+09 -3.006409e+09 -3.166409e+09 1.907924e+02 2.531869e+01 -1.154118e+01
-3.590621e+09 -3.390625e+09 -3.550623e+09 4.413663e+02 5.367134e+02 -3.158474e+01
-2.097017e+09 -1.897019e+09 -2.057019e+09 1.809226e+02 1.522799e+01 -9.055668e+01
-2.419725e+09 -2.219724e+09 -2.379724e+09 1.655716e+02 2.383692e+01 -2.396330e+01
-2.208009e+09 -2.008010e+09 -2.168010e+09 8.126103e+01 5.933217e+00 -7.165796e+00
-1.846778e+09 -1.646780e+09 -1.806779e+09 8.671058e+01 1.189164e+01 -7.424937e+00
-2.384889e+09 -2.184890e+09 -2.344890e+09 5.936719e+02 -4.513888e+01 -3.626468e+02
-2.826520e+09 -2.626519e+09 -2.786519e+09 -3.440700e+02 -4.036167e+01 1.214430e+01
-3.584260e+09 -3.384259e+09 -3.544259e+09 -4.008702e+02 -2.824189e+01 1.732061e+01
-3.129962e+09 -2.929962e+09 -3.089962e+09 -4.163608e+02 3.456974e+01 -4.662637e+01
-2.336712e+09 -2.136711e+09 -2.296711e+09 -4.280910e+01 3.049712e+01 -3.767534e+01
-1.586782e+09 -1.386782e+09 -1.546782e+09 -1.078454e+02 2.889233e+01 -6.368593e+01
-3.602623e+09 -3.402622e+09 -3.562622e+09 -1.670830e+02 2.362172e+01 -2.304674e+01
-1.573789e+09 -1.373788e+09 -1.533788e+09 -8.898925e+01 5.146140e+01 -5.436392e+01
-3.543927e+09 -3.343926e+09 -3.503926e+09 -1.683167e+01 -1.415784e+01 -2.462719e+01
-2.726328e+09 -2.526329e+09 -2.686329e+09 3.534485e+02 9.333061e+00 -1.314108e+02
-3.586468e+09 -3.386468e+09 -3.546468e+09 3.577957e+02 6.701523e+00 -5.802045e+01
-3.590303e+09 -3.390304e+09 -3.550303e+09 4.466169e+02 3.092317e+00 -1.035681e+02
-2.001171e+09 -1.801172e+09 -1.961172e+09 2.114421e+01 1.720010e+00 -4.078836e+01
-3.326411e+09 -3.126412e+09 -3.286412e+09 -5.368637e+02 -1.336462e+01 1.019284e+01
-2.562483e+09 -2.362483e+09 -2.522483e+09 1.837478e+02 2.781660e+01 3.932042e+01
-2.382422e+09 -2.182423e+09 -2.342423e+09 1.935280e+02 1.080188e+01 -2.848569e+01
-3.206689e+09 -3.006689e+09 -3.166689e+09 1.861716e+02 2.288748e+01 -9.484289e+00
-2.109187e+09 -1.909188e+09 -2.069188e+09 2.885015e+02 2.034390e+01 -3.322137e+01
-1.603893e+09 -1.403895e+09 -1.563895e+09 -4.325354e+02 -1.231859e+01 -2.117635e+02
-3.630913e+09 -3.430915e+09 -3.590914e+09 -2.527680e+02 1.332846e+01 3.248270e+01
-3.630913e+09 -3.430915e+09 -3.590914e+09 -3.850575e+01 1.227941e+01 -6.261970e+01
-3.230051e+09 -3.030053e+09 -3.190052e+09 -7.999801e+01 1.643867e+01 -9.819642e+01
-3.605775e+09 -3.405777e+09 -3.565776e+09 -4.888332e+02 -1.217603e+01 -1.635952e+02
-1.640859e+09 -1.440860e+09 -1.600860e+09 -5.948407e+02 7.259248e+00 -1.124697e+02
-3.445235e+09 -3.245236e+09 -3.405236e+09 4.538984e+00 2.144717e+01 -2.590888e+01
-1.920513e+09 -1.720514e+09 -1.880514e+09 8.178230e+01 9.471236e+00 -1.464030e+01
-3.605364e+09 -3.405366e+09 -3.565365e+09 2.177867e+02 2.652184e+01 -2.527406e+01
-1.854649e+09 -1.654650e+09 -1.814650e+09 1.010828e+01 1.726810e+00 3.544827e+00
-1.640524e+09 -1.440525e+09 -1.600525e+09 7.869347e+01 9.049287e+00 -2.089061e+01
-1.586586e+09 -1.386585e+09 -1.546585e+09 -1.698747e+02 -1.058836e+02 5.600498e+00
-1.587435e+09 -1.387434e+09 -1.547434e+09 -4.010463e+01 -2.041787e+02 1.522851e+02
-1.887181e+09 -1.687175e+09 -1.847178e+09 -2.998835e+03 1.050805e+03 2.359546e+03
-3.263939e+09 -3.063937e+09 -3.223938e+09 -7.815243e+02 2.498446e+02 2.752623e+02
-1.767915e+09 -1.567915e+09 -1.727915e+09 2.992220e+02 1.254877e+01 -2.239484e+01
-1.830371e+09 -1.630371e+09 -1.790371e+09 -4.481001e+02 -3.198046e+01 1.983693e+01
-3.016193e+09 -2.816193e+09 -2.976193e+09 9.883402e+01 -5.387539e+01 7.051651e+01
-1.605053e+09 -1.405051e+09 -1.565052e+09 -3.253026e+02 -2.316988e+02 1.938244e+02
-1.599279e+09 -1.399278e+09 -1.559278e+09 -1.633089e+03 4.288466e+02 3.833444e+02
-2.563283e+09 -2.363283e+09 -2.523283e+09 -5.295585e+02 -5.089188e+01 5.032613e-01
-2.437890e+09 -2.237890e+09 -2.397890e+09 2.729640e+02 3.864024e+01 7.392301e-01
-1.757657e+09 -1.557658e+09 -1.717658e+09 3.272360e+02 3.782402e+01 -1.304580e+01
-3.500385e+09 -3.300385e+09 -3.460385e+09 -1.009169e+03 1.055212e+02 -6.448830e+01
-3.526488e+09 -3.326488e+09 -3.486488e+09 -6.611737e+02 1.099652e+00 -7.424131e+01
-1.724516e+09 -1.524516e+09 -1.684516e+09 -7.634813e+02 -2.807340e+01 -2.859719e+01
-3.604362e+09 -3.404368e+09 -3.564363e+09 1.073412e+03 7.054072e+02 4.794025e+03
-1.595102e+09 -1.395107e+09 -1.555103e+09 -8.498978e+01 6.923593e+02 6.564706e+00
-3.585611e+09 -3.385604e+09 -3.545579e+09 3.752456e+02 -6.692004e+03 -3.393186e+02
-1.944529e+09 -1.744502e+09 -1.904550e+09 -1.103256e+04 1.896125e+04 -1.190903e+03
-2.629770e+09 -2.429753e+09 -2.589775e+09 1.703845e+03 -8.893590e+03 2.583638e+03
-3.586546e+09 -3.386546e+09 -3.546546e+09 7.460580e+02 -5.690342e+01 -1.632763e+02
-2.341287e+09 -2.141287e+09 -2.301287e+09 3.743222e+02 5.306013e+01 -7.672655e+01
-2.456592e+09 -2.256587e+09 -2.416593e+09 -2.683265e+02 -1.100954e+03 -2.284736e+03
-3.043126e+09 -2.843124e+09 -3.003125e+09 -5.050735e+01 -1.438551e+01 -6.603352e+00
-1.873096e+09 -1.673095e+09 -1.833096e+09 7.117010e+02 -1.196035e+02 -2.939451e+02
-2.368184e+09 -2.168183e+09 -2.328183e+09 -2.655048e+02 1.751597e+02 4.032299e+00
-1.948810e+09 -1.748810e+09 -1.908810e+09 -4.304168e+03 -3.583740e+03 -2.935863e+03
-1.578177e+09 -1.378177e+09 -1.538177e+09 4.204487e+02 2.805967e+00 -1.285120e+02
-2.844545e+09 -2.644544e+09 -2.804545e+09 -9.805147e+02 -8.846769e+02 -7.337578e+02
-3.389424e+09 -3.189422e+09 -3.349425e+09 -4.278415e+02 -1.092715e+03 -1.071941e+03
-2.898316e+09 -2.698314e+09 -2.858318e+09 -1.890654e+03 -2.223272e+03 -1.905236e+03
-1.745173e+09 -1.545175e+09 -1.705175e+09 -8.152011e+02 1.684230e+02 -5.031072e+02
-3.241779e+09 -3.041779e+09 -3.201779e+09 -1.145795e+03 2.769609e+02 1.708358e+02
-3.313399e+09 -3.113397e+09 -3.273399e+09 -5.142158e+02 -1.050714e+03 -9.097983e+02
-3.587886e+09 -3.387886e+09 -3.547886e+09 -1.416468e+03 4.142957e+02 -4.429186e+02
-1.987967e+09 -1.787968e+09 -1.947968e+09 -1.189358e+03 3.491320e+02 -7.130250e+02
-3.487579e+09 -3.287580e+09 -3.447579e+09 -1.399228e+03 5.076658e+02 -1.131624e+03
-1.771213e+09 -1.571214e+09 -1.731212e+09 -1.952338e+03 7.575400e+02 3.868321e+02
-3.056972e+09 -2.856973e+09 -3.016972e+09 5.589911e+02 -4.609500e+01 -1.922388e+02
-3.419601e+09 -3.219603e+09 -3.379602e+09 3.683402e+02 -2.937347e+01 -8.363813e+02
-3.039863e+09 -2.839863e+09 -2.999863e+09 7.349994e+02 -2.825319e+01 -1.278276e+02
-3.231809e+09 -3.031808e+09 -3.191807e+09 -1.285721e+03 5.856721e+02 -4.643899e+02
-3.167893e+09 -2.967894e+09 -3.127893e+09 -1.210330e+03 2.941756e+02 -3.089523e+02
-1.919601e+09 -1.719601e+09 -1.879601e+09 4.576612e+02 1.827513e+01 -1.209860e+02
-2.818602e+09 -2.618602e+09 -2.778602e+09 5.781905e+02 -3.505148e+01 -1.822995e+02
-1.594566e+09 -1.394563e+09 -1.554564e+09 -8.262515e+02 1.291170e+02 3.686642e+02
-3.609406e+09 -3.409407e+09 -3.569407e+09 4.050823e+02 -4.251990e+00 -1.648274e+02
-2.895796e+09 -2.695795e+09 -2.855796e+09 -1.059926e+03 -6.879222e+02 -4.711869e+02
-2.464802e+09 -2.264801e+09 -2.424802e+09 1.659440e+03 -7.972572e+02 -9.449621e+02
-1.623617e+09 -1.423616e+09 -1.583616e+09 -1.787112e+03 -1.320938e+03 -8.409116e+02
-2.085736e+09 -1.885740e+09 -2.045739e+09 -4.374401e+03 -1.645500e+03 5.398550e+03
-1.869730e+09 -1.669742e+09 -1.829734e+09 -6.849307e+03 -4.577647e+03 1.203537e+04
-2.119254e+09 -1.919251e+09 -2.079254e+09 -7.988195e+02 -2.321641e+02 -6.691707e+02
-1.618239e+09 -1.418236e+09 -1.578238e+09 -4.162022e+02 2.762639e+01 -3.317621e+02
-1.910376e+09 -1.710374e+09 -1.870376e+09 -6.148141e+02 -8.581012e+01 -2.529772e+02
-1.909609e+09 -1.709605e+09 -1.869608e+09 -1.296833e+02 3.106950e+02 -7.193187e+02
-1.594150e+09 -1.394147e+09 -1.554152e+09 -4.300889e+03 -2.743068e+03 1.953099e+03
-1.738863e+09 -1.538859e+09 -1.698862e+09 2.091826e+03 1.184981e+03 -1.688394e+03
-1.847069e+09 -1.647070e+09 -1.807069e+09 -6.011908e+02 1.133793e+02 -2.127186e+01
-2.359272e+09 -2.159273e+09 -2.319272e+09 -7.188768e+02 1.467673e+02 -2.692199e+01
-3.400462e+09 -3.200463e+09 -3.360462e+09 -8.013073e+02 6.820919e+01 -4.989475e+01
-1.878661e+09 -1.678663e+09 -1.838661e+09 -6.373766e+02 1.387641e+02 -1.504996e+01
-3.061548e+09 -2.861542e+09 -3.021547e+09 -1.832146e+03 -1.955035e+03 -8.538134e+02
-3.198680e+09 -2.998675e+09 -3.158680e+09 1.082981e+03 8.872403e+02 -1.877185e+03
-2.020546e+09 -1.820533e+09 -1.980540e+09 1.479466e+03 6.345267e+02 -5.258265e+03
-3.588369e+09 -3.388368e+09 -3.548368e+09 -7.500043e+02 1.100952e+02 8.762976e+01
-2.565867e+09 -2.365871e+09 -2.525869e+09 -2.250391e+03 2.494237e+03 5.839902e+02
-3.585265e+09 -3.385259e+09 -3.545264e+09 -1.142212e+03 9.411234e+00 -7.316642e+02
-1.578960e+09 -1.378965e+09 -1.538961e+09 -2.454163e+03 1.585237e+03 7.877423e+02
-1.557371e+09 -1.357370e+09 -1.517370e+09 -1.049348e+03 5.621875e+02 1.821843e+02
-1.721442e+09 -1.521438e+09 -1.681439e+09 2.580551e+03 9.752743e+02 -1.980568e+03
-1.697664e+09 -1.497670e+09 -1.657666e+09 -1.264255e+03 -1.910267e+03 -2.760023e+02
-1.587022e+09 -1.387011e+09 -1.547016e+09 2.935785e+03 1.485925e+03 -3.917924e+03
-3.406775e+09 -3.206776e+09 -3.366776e+09 -4.231558e+02 -4.338476e+01 -1.165624e+01
-2.931449e+09 -2.731449e+09 -2.891449e+09 1.741031e+02 1.746850e+01 -1.750557e+01
-2.026478e+09 -1.826478e+09 -1.986478e+09 7.162155e+01 1.148489e+01 -2.239953e+01
-2.379789e+09 -2.179790e+09 -2.339790e+09 3.059990e+02 2.017025e+01 -3.874644e+01
-3.172430e+09 -2.972430e+09 -3.132430e+09 4.236180e+02 2.159259e+01 -2.715002e+01
-1.767156e+09 -1.567155e+09 -1.727156e+09 2.394174e+02 4.876800e+01 -2.340938e+01
-2.638318e+09 -2.438318e+09 -2.598319e+09 3.537606e+02 3.056373e+01 -3.322559e+01
-3.608478e+09 -3.408478e+09 -3.568478e+09 -8.137293e+01 -7.844453e+01 -1.759745e+01
-1.985207e+09 -1.785207e+09 -1.945207e+09 3.720628e+02 2.147064e+01 -5.448596e+01
-3.209490e+09 -3.009491e+09 -3.169491e+09 5.173866e+02 1.178376e+01 -7.883546e+01
-3.013849e+09 -2.813848e+09 -2.973848e+09 -2.401107e+02 -4.765938e+01 -2.852593e+01
-1.674098e+09 -1.474098e+09 -1.634098e+09 -1.094483e+02 -9.978302e+01 -2.580041e+01
-2.416848e+09 -2.216848e+09 -2.376848e+09 3.800202e+02 3.267167e+01 -5.701138e+01
-2.194418e+09 -1.994423e+09 -2.154424e+09 2.833663e+03 1.881215e+03 1.884534e+03
-3.310860e+09 -3.110866e+09 -3.270862e+09 -3.981747e+02 -6.537108e+02 2.772036e+03
-2.661138e+09 -2.461139e+09 -2.621139e+09 5.408450e+02 1.179583e+00 -1.814238e+02
-3.546712e+09 -3.346712e+09 -3.506712e+09 2.581017e+02 1.798554e+01 -1.613908e+01
-1.898452e+09 -1.698458e+09 -1.858459e+09 1.333991e+03 8.269239e+02 2.181734e+03
-2.060570e+09 -1.860570e+09 -2.020570e+09 3.221330e+02 2.673931e+01 -5.879498e+01
-1.699031e+09 -1.499037e+09 -1.659038e+09 1.206718e+03 1.049457e+02 1.936802e+03
-3.306082e+09 -3.106082e+09 -3.266082e+09 1.801031e+02 2.276558e+01 1.476715e+01
-2.268988e+09 -2.068988e+09 -2.228988e+09 2.965411e+02 1.559545e+01 -1.887850e+01
-3.238961e+09 -3.038964e+09 -3.198962e+09 1.271632e+03 5.591295e+02 -1.324324e+02
-2.268324e+09 -2.068325e+09 -2.228323e+09 1.283333e+03 4.223062e+02 -9.128082e+01
-2.971947e+09 -2.771948e+09 -2.931948e+09 2.557240e+02 2.386231e+01 -6.369845e+00
-3.578468e+09 -3.378463e+09 -3.538462e+09 4.188272e+03 2.682931e+03 2.213832e+03
-3.053314e+09 -2.853314e+09 -3.013314e+09 2.697273e+02 2.903749e+01 3.680234e+00
-3.603876e+09 -3.403877e+09 -3.563877e+09 3.568070e+02 2.084096e+00 -2.358323e+01
-3.596501e+09 -3.396500e+09 -3.556501e+09 -1.185876e+03 -7.056147e+01 2.971591e+02
-3.018505e+09 -2.818504e+09 -2.978505e+09 2.380270e+02 -5.316775e+02 7.282474e+02
-2.411588e+09 -2.211586e+09 -2.371588e+09 5.242775e+02 -7.665272e+02 8.633032e+02
-2.285177e+09 -2.085180e+09 -2.245180e+09 1.481452e+03 2.200742e+02 1.082956e+03
-2.137953e+09 -1.937950e+09 -2.097952e+09 5.014092e+02 -6.965583e+02 1.374658e+03
-3.595084e+09 -3.395084e+09 -3.555084e+09 3.342761e+02 4.099952e+00 -4.280491e+01
-2.625112e+09 -2.425110e+09 -2.585111e+09 2.788676e+02 -6.705121e+02 9.799536e+02
-3.333266e+09 -3.133264e+09 -3.293265e+09 -1.246873e+03 3.556208e+02 1.769698e+02
-2.677001e+09 -2.477002e+09 -2.637002e+09 5.140344e+02 2.641067e+00 -1.620548e+02
-1.637899e+09 -1.437898e+09 -1.597898e+09 -1.124409e+03 3.324235e+02 8.445525e+01
-2.526518e+09 -2.326518e+09 -2.486518e+09 3.084944e+02 2.921394e+01 -5.582940e+00
-1.574451e+09 -1.374452e+09 -1.534452e+09 3.176641e+02 4.662693e+01 2.711815e+00
-2.501255e+09 -2.301254e+09 -2.461255e+09 -5.966015e+02 -1.106389e+02 2.074764e+02
-1.656041e+09 -1.456040e+09 -1.616040e+09 -7.640966e+02 5.601056e+01 1.431287e+02
-3.298298e+09 -3.098300e+09 -3.258298e+09 -3.726896e+02 3.738796e+00 -8.237816e+02
-3.591639e+09 -3.391638e+09 -3.551639e+09 1.529125e+02 -5.523041e+02 5.904218e+02
-3.484572e+09 -3.284573e+09 -3.444573e+09 -1.205169e+03 1.706247e+02 -3.098639e+02
-3.590005e+09 -3.390005e+09 -3.550006e+09 -1.056903e+03 5.287611e+01 -6.346498e+01
-3.611971e+09 -3.411972e+09 -3.571972e+09 -4.951684e+02 1.695891e+01 -6.697377e+01
-1.593511e+09 -1.393510e+09 -1.553510e+09 -1.840744e+02 4.407273e+01 -9.466691e+01
-1.776066e+09 -1.576066e+09 -1.736065e+09 -7.957839e+02 2.124624e+02 5.787417e+01
-2.767786e+09 -2.567787e+09 -2.727787e+09 -4.718305e+02 -5.053915e+00 3.162262e+01
-2.008905e+09 -1.808905e+09 -1.968905e+09 -6.871750e+02 -5.988061e+01 1.541077e+01
-3.582686e+09 -3.382685e+09 -3.542685e+09 -8.519114e+02 2.063372e+02 2.091519e+02
-3.505483e+09 -3.305484e+09 -3.465484e+09 -6.806565e+02 2.788369e+01 -4.333718e+01
-3.500385e+09 -3.300385e+09 -3.460385e+09 -9.866195e+02 8.479082e+01 -1.499356e+02
-1.982804e+09 -1.782807e+09 -1.942806e+09 -3.309717e+02 1.156789e+02 -7.881751e+02
-2.613996e+09 -2.413995e+09 -2.573995e+09 -1.158552e+03 2.681861e+02 2.657919e+02
-2.260900e+09 -2.060901e+09 -2.220901e+09 -5.610607e+02 -4.248860e+01 -1.357472e+01
-1.553068e+09 -1.353069e+09 -1.513069e+09 -1.022874e+03 1.019537e+02 -1.870965e+02
-3.578086e+09 -3.378087e+09 -3.538087e+09 -1.612043e+03 1.137128e+03 5.445305e+02
-3.589129e+09 -3.389125e+09 -3.549129e+09 -1.656703e+03 1.693717e+03 1.535441e+03
-3.373498e+09 -3.173501e+09 -3.333501e+09 -1.194581e+03 1.906965e+03 3.375854e+02
-3.587916e+09 -3.387916e+09 -3.547917e+09 -1.763543e+03 1.002911e+03 7.435232e+02
-1.591156e+09 -1.391155e+09 -1.551155e+09 -2.770298e+03 1.155583e+03 8.538178e+02
-1.569657e+09 -1.369659e+09 -1.529657e+09 -2.532916e+03 1.438002e+03 5.363639e+02
-3.029629e+09 -2.829627e+09 -2.989628e+09 -6.541229e+02 2.578236e+02 3.161399e+02
-1.578178e+09 -1.378177e+09 -1.538177e+09 2.833887e+00 -4.899384e+01 -1.188788e+02
-1.946152e+09 -1.746154e+09 -1.906152e+09 -3.178030e+03 1.580688e+03 1.216290e+03
-1.605505e+09 -1.405503e+09 -1.565504e+09 -2.502712e+02 1.084080e+02 1.817693e+02
-3.605231e+09 -3.405230e+09 -3.565231e+09 -1.506333e+03 5.556526e+02 5.715284e+02
-1.971296e+09 -1.771295e+09 -1.931295e+09 -2.679778e+02 5.981481e+01 4.261852e+01
-1.910748e+09 -1.710739e+09 -1.870741e+09 -4.723245e+02 -2.395049e+02 2.449960e+03
-1.817415e+09 -1.617416e+09 -1.777415e+09 -1.411132e+03 3.338845e+02 1.310036e+02
-3.582686e+09 -3.382684e+09 -3.542685e+09 -5.487192e+02 -1.122144e+01 1.417901e+02
-3.589126e+09 -3.389125e+09 -3.549129e+09 -2.001811e+03 2.078313e+03 1.537516e+03
-2.810621e+09 -2.610617e+09 -2.770623e+09 2.705364e+03 2.220383e+03 -7.744865e+01
-2.632963e+09 -2.432959e+09 -2.592961e+09 -5.965985e+01 -3.316101e+00 3.721370e+02
-2.762929e+09 -2.562926e+09 -2.722932e+09 -1.258419e+03 -2.531616e+03 2.529164e+03
-3.618791e+09 -3.418786e+09 -3.578790e+09 1.427400e+02 1.613343e+02 1.585285e+03
-3.383000e+09 -3.182997e+09 -3.342997e+09 1.507002e+03 -8.572746e+02 -1.603683e+02
-3.556734e+09 -3.356732e+09 -3.516733e+09 -4.320122e+01 -2.202150e+00 2.922850e+01
-2.664972e+09 -2.464970e+09 -2.624971e+09 -5.670676e+02 4.480380e+02 2.194491e+02
-1.674253e+09 -1.474249e+09 -1.634251e+09 1.119220e+03 -9.061996e+02 -7.483957e+02
-1.631177e+09 -1.431168e+09 -1.591171e+09 -1.555127e+03 -3.763473e+02 1.707740e+03
-1.859974e+09 -1.659954e+09 -1.819961e+09 1.643895e+03 -3.904742e+03 2.750966e+03
-3.602257e+09 -3.402254e+09 -3.562255e+09 8.281328e+02 -4.355426e+02 -9.456988e+01
-1.676472e+09 -1.476473e+09 -1.636473e+09 -2.473886e+02 -3.440667e+01 6.111680e+00
-2.133992e+09 -1.933989e+09 -2.093984e+09 1.914464e+03 -5.956120e+03 -1.096385e+04
-3.604082e+09 -3.404080e+09 -3.564083e+09 4.641205e+02 -1.102438e+03 -1.020053e+03
-1.696238e+09 -1.496230e+09 -1.656235e+09 3.559947e+03 -6.140952e+03 -4.926860e+03
-3.576387e+09 -3.376385e+09 -3.536388e+09 -5.799906e+02 -1.365449e+03 -8.973847e+02
-3.500685e+09 -3.300684e+09 -3.460685e+09 -7.971863e+02 -6.772954e+02 -5.714057e+02
-3.576387e+09 -3.376385e+09 -3.536388e+09 -8.138413e+02 -1.246071e+03 -9.989771e+02
-3.604082e+09 -3.404079e+09 -3.564083e+09 1.633161e+02 -1.117327e+03 -1.058962e+03
-2.942062e+09 -2.742056e+09 -2.902050e+09 3.370850e+02 -5.237253e+03 -1.004641e+04
-1.749582e+09 -1.549546e+09 -1.709579e+09 -9.643652e+02 -5.107102e+03 9.855454e+03
-3.047880e+09 -2.847875e+09 -3.007879e+09 -2.076778e+03 1.482072e+03 8.974111e+02
-3.284273e+09 -3.084276e+09 -3.244274e+09 2.948009e+02 1.894906e+02 -4.266525e+00
-1.868287e+09 -1.668291e+09 -1.828288e+09 3.667443e+02 2.300608e+02 -4.849529e+00
-3.599683e+09 -3.399686e+09 -3.559684e+09 -2.918991e+02 1.186964e+02 -2.813554e+00
-2.312515e+09 -2.112515e+09 -2.272516e+09 -1.642220e+03 -1.408558e+02 5.223342e+02
-2.828988e+09 -2.628995e+09 -2.789000e+09 -3.709640e+03 1.052935e+04 2.469625e+03
-2.445512e+09 -2.245506e+09 -2.405511e+09 3.424221e+03 3.474480e+03 -4.495471e+03
-1.601535e+09 -1.401535e+09 -1.561535e+09 -3.997872e+02 -4.369711e+01 6.372717e+00
-1.571921e+09 -1.371936e+09 -1.531933e+09 1.713917e+04 2.284595e+04 -1.326427e+04
-2.759696e+09 -2.559689e+09 -2.719707e+09 1.299681e+03 9.110615e+03 -6.684880e+03
-2.124224e+09 -1.924168e+09 -2.084159e+09 -5.027846e+03 -2.936727e+04 9.886411e+03
-3.086957e+09 -2.886962e+09 -3.046967e+09 2.353636e+02 7.935643e+03 -5.978443e+02
-3.637988e+09 -3.437986e+09 -3.597993e+09 2.084643e+03 4.486098e+03 -2.254520e+03
-1.615976e+09 -1.415982e+09 -1.575976e+09 8.531570e+03 8.010343e+03 -4.579751e+03
-1.548480e+09 -1.348506e+09 -1.508491e+09 6.639369e+03 1.790928e+04 -4.079654e+03
-3.464335e+09 -3.264335e+09 -3.424332e+09 -1.876401e+03 -1.615560e+02 -7.546254e+02
-1.930075e+09 -1.730074e+09 -1.890074e+09 8.689458e+01 1.315313e+01 -3.222929e+01
-3.262305e+09 -3.062305e+09 -3.222305e+09 3.804021e+01 6.114378e+00 -2.229772e+01
-2.523754e+09 -2.323753e+09 -2.483753e+09 -3.297495e+03 1.995281e+03 -2.280034e+03
-1.582088e+09 -1.382088e+09 -1.542088e+09 1.930303e+02 5.571195e+01 -4.195157e+01
-1.984182e+09 -1.784182e+09 -1.944181e+09 1.303014e+03 3.224603e+02 -6.690333e+01
-2.274130e+09 -2.074130e+09 -2.234130e+09 1.321904e+03 3.720353e+02 -1.567701e+02
-1.962169e+09 -1.762167e+09 -1.922168e+09 1.454494e+03 6.461070e+02 -4.752459e+02
-1.836770e+09 -1.636769e+09 -1.796769e+09 4.709813e+01 2.903134e+01 -2.849713e+01
-2.644306e+09 -2.444305e+09 -2.604305e+09 1.602874e+02 1.806088e+01 -2.433379e+01
-3.617766e+09 -3.417764e+09 -3.577766e+09 1.526654e+03 8.633071e+02 -7.339561e+02
-2.418740e+09 -2.218740e+09 -2.378740e+09 2.029628e+02 3.058370e+01 8.587643e+00
-2.068747e+09 -1.868747e+09 -2.028746e+09 2.085716e+03 8.556945e+02 -5.035023e+02
-2.985754e+09 -2.785754e+09 -2.945754e+09 1.815799e+03 6.286815e+02 -4.259898e+02
-2.879996e+09 -2.679995e+09 -2.839995e+09 1.499738e+03 5.940935e+02 -2.855392e+02
-1.574855e+09 -1.374856e+09 -1.534854e+09 2.134341e+03 9.753648e+02 -3.837381e+02
-3.566908e+09 -3.366909e+09 -3.526909e+09 1.545788e+03 6.103229e+02 -2.881645e+02
-2.701708e+09 -2.501708e+09 -2.661708e+09 1.106278e+02 9.331469e+00 -1.983544e+01
-1.790113e+09 -1.590113e+09 -1.750113e+09 1.481697e+02 1.170913e+01 -6.315233e+01
-1.854208e+09 -1.654210e+09 -1.814208e+09 2.384449e+03 1.313414e+03 -5.737953e+02
-1.859716e+09 -1.659717e+09 -1.819715e+09 1.529621e+03 3.928609e+02 -1.622614e+02
-3.496383e+09 -3.296384e+09 -3.456384e+09 1.455026e+03 4.533251e+02 -1.784870e+02
-2.868981e+09 -2.668982e+09 -2.828981e+09 1.288803e+03 4.331679e+02 -1.663052e+02
-3.566908e+09 -3.366910e+09 -3.526909e+09 1.243857e+03 4.326416e+02 -1.660125e+02
-3.608344e+09 -3.408345e+09 -3.568344e+09 1.086949e+03 1.873299e+02 -1.246284e+02
-1.973212e+09 -1.773213e+09 -1.933213e+09 -2.514437e+02 -2.149238e+01 -8.575601e+00
-2.114626e+09 -1.914629e+09 -2.074596e+09 3.089296e+03 5.456385e+03 3.581444e+04
-3.044797e+09 -2.844797e+09 -3.004797e+09 2.621623e+02 2.221977e+01 -6.450539e+00
-2.577083e+09 -2.377084e+09 -2.537085e+09 1.946304e+03 -2.596693e+03 1.546717e+03
-1.667221e+09 -1.467234e+09 -1.627234e+09 -3.064305e+03 -9.697961e+02 1.233702e+04
-2.528817e+09 -2.328821e+09 -2.488819e+09 -1.574485e+03 1.346103e+03 3.734716e+02
-3.474073e+09 -3.274073e+09 -3.434079e+09 3.557691e+02 -3.654840e+03 1.793464e+03
-3.374958e+09 -3.174959e+09 -3.334959e+09 -1.643718e+03 9.982290e+02 5.103316e+02
-3.578086e+09 -3.378088e+09 -3.538087e+09 -1.536975e+03 1.008415e+03 5.351975e+02
-2.573847e+09 -2.373852e+09 -2.533851e+09 1.579116e+03 -4.432400e+03 1.552383e+03
-3.605122e+09 -3.405122e+09 -3.565126e+09 6.707093e+02 -2.494601e+03 1.188601e+03
-1.570939e+09 -1.370936e+09 -1.530938e+09 1.223024e+03 -3.937873e+02 -6.675799e+02
-1.584588e+09 -1.384593e+09 -1.544589e+09 3.042205e+03 -3.148651e+03 1.626968e+03
-1.564779e+09 -1.364778e+09 -1.524778e+09 -3.716034e+02 -6.713775e+01 -3.815114e+01
-3.481205e+09 -3.281204e+09 -3.441204e+09 2.665616e+02 1.828759e+01 -8.607105e+01
-3.612537e+09 -3.412534e+09 -3.572536e+09 -4.745244e+02 5.297241e+01 5.143970e+02
-3.426723e+09 -3.226721e+09 -3.386722e+09 -9.962068e+02 2.780339e+02 4.671550e+02
-2.773743e+09 -2.573742e+09 -2.733742e+09 -3.293355e+02 -4.983874e+01 1.310961e+01
-2.534628e+09 -2.334627e+09 -2.494628e+09 -2.146103e+02 -7.605608e+01 -1.305838e+01
-3.594637e+09 -3.394636e+09 -3.554637e+09 -6.039175e+02 -2.499998e+01 3.846134e+01
-1.586585e+09 -1.386585e+09 -1.546585e+09 -2.454924e+02 -1.064646e+02 -4.448961e+01
-1.673946e+09 -1.473949e+09 -1.633947e+09 -1.498122e+03 -1.461136e+03 -3.598068e+02
-2.295139e+09 -2.095138e+09 -2.255138e+09 -1.059040e+03 -6.694471e+02 -4.344450e+02
-1.962216e+09 -1.762216e+09 -1.922216e+09 -2.756852e+02 -2.898337e+01 1.339336e+01
-3.374589e+09 -3.174584e+09 -3.334590e+09 -1.277417e+03 -1.742212e+02 1.541368e+03
-3.610683e+09 -3.410682e+09 -3.570683e+09 2.829240e+01 -2.474162e+02 2.149717e+02
-1.798503e+09 -1.598501e+09 -1.758502e+09 1.622355e+02 -5.117435e+02 4.998980e+02
-3.393171e+09 -3.193173e+09 -3.353173e+09 1.546759e+03 -1.916095e+03 1.062475e+03
-1.698361e+09 -1.498364e+09 -1.658361e+09 1.152531e+03 -9.788168e+02 2.843476e+02
-3.158346e+09 -2.958347e+09 -3.118347e+09 1.066170e+03 -1.068083e+03 6.086298e+02
-3.611906e+09 -3.411904e+09 -3.571906e+09 -2.274057e+03 1.072089e+03 -2.134147e+02
-1.918930e+09 -1.718916e+09 -1.878905e+09 -3.342309e+03 4.880125e+03 -2.075753e+04
-3.591885e+09 -3.391884e+09 -3.551885e+09 -3.766310e+02 -1.437836e+02 1.327687e+02
-2.791411e+09 -2.591404e+09 -2.751409e+09 -2.481072e+03 1.678533e+03 3.650846e+03
-3.387398e+09 -3.187397e+09 -3.347397e+09 -3.679641e+02 -9.512187e+01 8.725272e+00
-3.384278e+09 -3.184277e+09 -3.344278e+09 -7.969773e+02 -6.804754e+01 4.503920e+01
-3.341892e+09 -3.141889e+09 -3.301857e+09 -1.961121e+03 -1.578109e+02 -1.028226e+04
-1.840223e+09 -1.640225e+09 -1.800223e+09 1.003203e+03 2.336697e+02 -1.990345e+01
-3.391183e+09 -3.191182e+09 -3.351182e+09 -3.644818e+02 -1.326325e+02 1.660282e+02
-1.928701e+09 -1.728651e+09 -1.888598e+09 -4.486740e+03 -4.731065e+04 -3.047961e+04
-3.473554e+09 -3.273553e+09 -3.433554e+09 -6.284128e+02 -5.971086e+01 8.100419e+01
-3.537815e+09 -3.337810e+09 -3.497774e+09 -6.165207e+02 1.081842e+03 -6.286627e+03
-2.118999e+09 -1.918998e+09 -2.079004e+09 7.832529e+03 7.182579e+03 5.754390e+03
-2.182519e+09 -1.982519e+09 -2.142519e+09 1.683589e+02 5.754462e+00 -1.187636e+01
-2.038777e+09 -1.838777e+09 -1.998777e+09 2.016515e+02 7.075863e+00 -2.399555e+01
-1.947644e+09 -1.747645e+09 -1.907645e+09 2.695836e+02 2.960426e+01 -1.068894e+01
-3.539237e+09 -3.339233e+09 -3.499240e+09 -5.734557e+01 -1.850495e+03 -1.450654e+03
-3.029967e+09 -2.829963e+09 -2.989968e+09 6.685494e+02 -7.138364e+02 -9.405194e+02
-2.056264e+09 -1.856268e+09 -2.016269e+09 -2.460186e+03 -5.785596e+03 -1.791509e+03
-3.609430e+09 -3.409429e+09 -3.569429e+09 -1.726286e+02 -4.704993e+01 -2.244449e+01
-3.497536e+09 -3.297542e+09 -3.457539e+09 -1.775582e+02 1.622589e+02 2.022377e+03
-2.589663e+09 -2.389657e+09 -2.549663e+09 7.482005e+03 7.711101e+03 2.250043e+03
-3.392112e+09 -3.192105e+09 -3.352114e+09 9.403314e+02 3.940233e+02 -1.617901e+03
-2.425878e+09 -2.225880e+09 -2.385879e+09 3.297173e+02 -1.162619e+01 -8.282118e+02
-3.556734e+09 -3.356732e+09 -3.516733e+09 1.644101e+02 -2.304804e+02 -1.387742e+01
-3.501007e+09 -3.301011e+09 -3.461009e+09 1.449220e+03 3.119370e+02 1.481067e+03
-2.659558e+09 -2.459556e+09 -2.619557e+09 -1.183521e+02 2.029558e+02 1.113105e+02
-3.323693e+09 -3.123698e+09 -3.283674e+09 1.432574e+03 2.060181e+03 1.278239e+04
-3.605268e+09 -3.405272e+09 -3.565258e+09 8.674346e+02 1.579009e+03 6.786480e+03
-3.499038e+09 -3.299037e+09 -3.459037e+09 1.122174e+02 2.588788e+00 -8.015526e-01
-2.182745e+09 -1.982745e+09 -2.142745e+09 1.323421e+02 8.325891e+00 -6.629428e+00
-3.598205e+09 -3.398205e+09 -3.558205e+09 1.539357e+02 -4.711307e+00 -8.038903e+00
-3.486538e+09 -3.286537e+09 -3.446538e+09 4.393174e+02 -9.086823e+01 -1.233008e+02
-3.489703e+09 -3.289703e+09 -3.449703e+09 7.718517e+02 -1.228913e+02 -3.859844e+02
-2.597441e+09 -2.397441e+09 -2.557441e+09 9.935598e+02 -1.527195e+02 -6.794132e+02
-2.985835e+09 -2.785835e+09 -2.945835e+09 1.213492e+03 -3.660758e+02 -6.953468e+02
-3.476070e+09 -3.276069e+09 -3.436070e+09 -1.628426e+02 -5.660489e+01 -1.063325e+01
-2.544688e+09 -2.344687e+09 -2.504687e+09 6.180729e+01 -2.032678e+02 1.178940e+02
-1.679143e+09 -1.479140e+09 -1.639142e+09 -2.815540e+01 -2.765956e+02 -9.794571e+02
-3.562934e+09 -3.362931e+09 -3.522915e+09 -3.215800e+03 -3.634728e+03 6.371724e+03
-1.917774e+09 -1.717773e+09 -1.877773e+09 1.553834e+02 -2.523141e+02 1.064274e+02
-1.898001e+09 -1.698000e+09 -1.858000e+09 -6.955614e+01 -1.431456e+02 4.110508e+01
-2.092009e+09 -1.892025e+09 -2.052017e+09 2.424980e+03 2.569905e+03 1.670493e+04
-2.812997e+09 -2.612996e+09 -2.772996e+09 -3.094192e+02 -1.265182e+02 7.620619e+01
-1.583398e+09 -1.383376e+09 -1.543409e+09 -1.475303e+03 -1.417089e+03 -7.716191e+03
-1.693356e+09 -1.493357e+09 -1.653357e+09 -8.132755e+02 4.005604e+01 -1.149470e+02
-2.436346e+09 -2.236346e+09 -2.396346e+09 2.401021e+03 1.084825e+03 -8.074676e+02
-3.508791e+09 -3.308791e+09 -3.468793e+09 2.244514e+03 2.203290e+03 -8.967268e+02
-1.597887e+09 -1.397891e+09 -1.557888e+09 2.421877e+03 1.835474e+03 -4.865042e+02
-1.854200e+09 -1.654201e+09 -1.814200e+09 2.782903e+03 1.533469e+03 -8.985464e+02
-2.607814e+09 -2.407816e+09 -2.567816e+09 -7.405603e+01 -2.881241e+00 -1.456944e+02
-1.675910e+09 -1.475911e+09 -1.635910e+09 1.110809e+02 1.811756e+01 1.130099e+01
-2.077479e+09 -1.877481e+09 -2.037481e+09 -1.379062e+02 4.719187e+00 -7.359522e+01
-2.257498e+09 -2.057499e+09 -2.217499e+09 -1.851547e+02 -2.493117e+00 -7.390208e+00
-2.983080e+09 -2.783080e+09 -2.943080e+09 1.888545e+02 2.565739e+01 -7.389549e+00
-1.611133e+09 -1.411138e+09 -1.571134e+09 9.921089e+02 8.108775e+02 -1.479785e+02
-1.994014e+09 -1.794016e+09 -1.954016e+09 -2.617502e+02 -3.185892e+01 -2.777756e+02
-2.341007e+09 -2.141008e+09 -2.301008e+09 3.775122e+02 3.177740e+01 -1.371238e+01
-1.556262e+09 -1.356263e+09 -1.516263e+09 8.601790e+02 -9.675921e+01 -4.701508e+02
-1.952144e+09 -1.752143e+09 -1.912144e+09 3.743354e+02 -4.882732e+01 -1.131831e+02
-2.053612e+09 -1.853612e+09 -2.013612e+09 6.041812e+02 -3.745332e+01 -2.106376e+02
-1.917012e+09 -1.717005e+09 -1.877007e+09 5.363706e+02 -1.419733e+03 -6.863265e+01
-3.244360e+09 -3.044361e+09 -3.204360e+09 5.562440e+02 -1.357099e+01 -2.373695e+02
-3.586546e+09 -3.386546e+09 -3.546546e+09 6.990022e+02 -5.363909e+01 -2.197041e+02
-2.469696e+09 -2.269708e+09 -2.429710e+09 -2.502399e+03 1.714380e+04 -2.734024e+02
-3.591334e+09 -3.391332e+09 -3.551332e+09 5.713195e+02 -1.507364e+02 -2.214236e+01
-3.508789e+09 -3.308791e+09 -3.468792e+09 2.002360e+03 2.281672e+03 -9.031444e+02
-1.568287e+09 -1.368304e+09 -1.528293e+09 1.808706e+03 8.547929e+03 -6.913772e+02
-1.673701e+09 -1.473712e+09 -1.633704e+09 4.316160e+02 4.449645e+03 -1.658611e+02
-3.178300e+09 -2.978303e+09 -3.138303e+09 1.462132e+03 2.133538e+03 -3.278999e+02
-3.508042e+09 -3.308039e+09 -3.468040e+09 1.079199e+02 -3.658355e+01 9.422502e-01
-3.587054e+09 -3.387058e+09 -3.547057e+09 -4.434078e+02 1.083154e+03 1.679956e+02
-2.578179e+09 -2.378184e+09 -2.538181e+09 -6.137324e+02 1.617967e+03 1.837985e+02
-3.595119e+09 -3.395119e+09 -3.555098e+09 8.591930e+02 -1.454802e+03 -4.704256e+03
-1.593154e+09 -1.393161e+09 -1.553155e+09 3.563839e+02 1.384166e+03 -3.832667e+01
-1.776565e+09 -1.576571e+09 -1.736567e+09 -1.578224e+02 1.398714e+03 1.294513e+02
-1.610411e+09 -1.410412e+09 -1.570412e+09 -2.613850e+02 -2.830695e+01 -4.843096e+01
-1.587105e+09 -1.387107e+09 -1.547106e+09 -2.281221e+02 2.792639e+00 -1.032259e+02
-3.137981e+09 -2.937980e+09 -3.097973e+09 1.967345e+03 -6.360353e+03 -1.005092e+04
-3.514387e+09 -3.314386e+09 -3.474383e+09 1.246756e+03 -4.962016e+03 -3.706318e+03
-1.985074e+09 -1.785076e+09 -1.945078e+09 -1.866187e+03 -8.027447e+02 1.462346e+03
-2.619588e+09 -2.419595e+09 -2.579592e+09 8.311246e+02 2.423801e+02 3.429181e+03
-1.608670e+09 -1.408671e+09 -1.568671e+09 -8.968509e+01 -4.579125e+00 -5.008588e+01
-1.608670e+09 -1.408671e+09 -1.568671e+09 1.761567e+01 7.014773e+00 -5.254715e+01
-3.218982e+09 -3.018986e+09 -3.178983e+09 4.519179e+03 3.256139e+03 3.620695e+03
-1.582604e+09 -1.382607e+09 -1.542605e+09 4.607256e+02 1.387437e+02 2.474999e+00
-1.894982e+09 -1.694989e+09 -1.854988e+09 4.029285e+02 1.952398e+01 2.561064e+03
-1.567512e+09 -1.367514e+09 -1.527512e+09 9.749605e+02 2.592480e+02 5.082784e+00
-2.153973e+09 -1.953976e+09 -2.113973e+09 4.082002e+02 2.318416e+02 -1.114904e+01
-3.585614e+09 -3.385613e+09 -3.545615e+09 3.061757e+03 1.690342e+03 6.578836e+02
-3.318033e+09 -3.118034e+09 -3.278034e+09 7.219711e+01 4.844151e+00 4.613385e+00
-1.560186e+09 -1.360190e+09 -1.520187e+09 8.599081e+02 3.475529e+02 -5.459807e+01
-1.987901e+09 -1.787902e+09 -1.947902e+09 -5.728828e+02 -2.459072e+01 -5.982872e+01
-2.627415e+09 -2.427416e+09 -2.587416e+09 2.776623e+01 7.613702e-01 -3.615305e+01
-1.565560e+09 -1.365559e+09 -1.525560e+09 1.462436e+02 2.665585e+01 -1.086447e+01
-2.125803e+09 -1.925803e+09 -2.085803e+09 -4.231743e+02 -3.407130e+01 2.444529e+01
-1.626959e+09 -1.426953e+09 -1.586956e+09 -1.924803e+03 -9.637978e+02 1.682000e+03
-1.565048e+09 -1.365045e+09 -1.525046e+09 -6.552836e+02 -1.080600e+01 3.104926e+01
-1.565048e+09 -1.365043e+09 -1.525047e+09 -4.662022e+02 -3.852459e+02 -5.317021e+02
-3.451635e+09 -3.251625e+09 -3.411629e+09 -2.891912e+03 -2.506477e+03 -3.808225e+02
-1.984597e+09 -1.784597e+09 -1.944597e+09 -5.001311e+02 4.481639e+01 -2.288292e+01
-2.532293e+09 -2.332292e+09 -2.492292e+09 -5.114105e+02 7.522971e+01 -1.052418e+01
-2.980700e+09 -2.780699e+09 -2.940699e+09 9.125633e+02 -1.516974e+02 -3.544437e+02
-1.587008e+09 -1.387007e+09 -1.547007e+09 -4.381724e+02 6.596974e+01 -1.360130e+02
-1.684565e+09 -1.484565e+09 -1.644566e+09 7.781085e+02 -8.197354e+01 -2.975322e+02
-3.144606e+09 -2.944604e+09 -3.104605e+09 -3.259182e+02 1.586171e+01 1.032069e+02
-1.578960e+09 -1.378964e+09 -1.538961e+09 -1.274522e+03 1.387070e+03 1.508134e+02
-1.611133e+09 -1.411138e+09 -1.571134e+09 5.086722e+02 7.652890e+02 -1.514115e+01
-1.583027e+09 -1.383033e+09 -1.543028e+09 -6.087195e+02 1.174697e+03 7.982596e+01
-2.853403e+09 -2.653399e+09 -2.813399e+09 -4.922008e+03 -4.675675e+03 2.535289e+03
-3.613239e+09 -3.413234e+09 -3.573232e+09 -2.715101e+03 -1.422473e+03 1.200548e+03
-2.940240e+09 -2.740232e+09 -2.900238e+09 -1.290986e+03 -4.627559e+01 2.672317e+03
-3.537101e+09 -3.337104e+09 -3.497102e+09 -1.028198e+03 7.429171e+02 2.397750e+02
-1.770788e+09 -1.570784e+09 -1.730789e+09 -1.525690e+03 -2.769771e+02 -8.918145e+01
-1.914879e+09 -1.714876e+09 -1.874877e+09 1.259009e+04 1.358387e+04 1.473815e+04
-2.775803e+09 -2.575788e+09 -2.735796e+09 -2.167570e+03 7.288139e+03 -6.387124e+03
-2.892884e+09 -2.692890e+09 -2.852888e+09 -1.315733e+03 -2.703063e+02 2.607818e+03
-2.037712e+09 -1.837715e+09 -1.997713e+09 -1.898994e+03 -1.593592e+03 -5.980377e+02
-2.760447e+09 -2.560449e+09 -2.720448e+09 3.195786e+02 -4.548803e+01 -5.341213e+02
-2.163075e+09 -1.963077e+09 -2.123075e+09 -1.996341e+03 -1.879166e+03 -7.430058e+02
-1.955796e+09 -1.755798e+09 -1.915796e+09 -2.004445e+03 -1.596303e+03 -5.391733e+02
-1.592030e+09 -1.392032e+09 -1.552030e+09 -2.270339e+03 -1.857673e+03 -6.789527e+02
-1.984840e+09 -1.784840e+09 -1.944840e+09 -9.578151e+02 -5.441147e+02 -2.609471e+02
-1.676417e+09 -1.476417e+09 -1.636417e+09 -2.490786e+02 -3.577871e+01 1.883441e+00
-1.769548e+09 -1.569547e+09 -1.729548e+09 3.486742e+02 5.625623e+01 -2.890996e+01
-3.579710e+09 -3.379711e+09 -3.539711e+09 1.310587e+02 1.210616e+00 -1.183279e+02
-2.754187e+09 -2.554187e+09 -2.714187e+09 2.873023e+02 4.328001e+00 -8.216691e+00
-1.595679e+09 -1.395679e+09 -1.555679e+09 -2.634357e+02 -4.668499e+01 -3.437217e+01
-3.591793e+09 -3.391794e+09 -3.551794e+09 2.631459e+02 1.990194e+01 -2.564401e+01
-3.603877e+09 -3.403877e+09 -3.563877e+09 2.605460e+02 7.205070e+00 -3.740430e+01
-1.877513e+09 -1.677513e+09 -1.837513e+09 -2.598950e+02 -2.631533e+01 -2.659631e+01
-1.677687e+09 -1.477686e+09 -1.637687e+09 -1.954073e+02 -3.232797e+01 -1.143984e+01
-2.160935e+09 -1.960938e+09 -2.120935e+09 8.121603e+02 1.709659e+02 -2.478593e+01
-2.949529e+09 -2.749532e+09 -2.909529e+09 8.251233e+02 1.144733e+02 -4.058227e+01
-2.579240e+09 -2.379243e+09 -2.539241e+09 1.172775e+03 5.996334e+02 -9.939281e+01
-3.265289e+09 -3.065291e+09 -3.225289e+09 8.435920e+02 2.258340e+02 -7.670531e+01
-3.315979e+09 -3.115982e+09 -3.275980e+09 1.471791e+03 6.301752e+02 -1.464046e+02
-1.674084e+09 -1.474083e+09 -1.634083e+09 2.473626e+02 -2.523506e+02 5.101254e+01
-3.396665e+09 -3.196668e+09 -3.356666e+09 6.344341e+02 3.009833e+02 -2.616077e+01
-1.560186e+09 -1.360190e+09 -1.520187e+09 1.016508e+03 5.479215e+02 -1.679584e+01
-1.962327e+09 -1.762328e+09 -1.922327e+09 1.208234e+03 4.032089e+02 -9.057462e+01
-1.982385e+09 -1.782386e+09 -1.942385e+09 8.920134e+02 2.060128e+02 -4.087893e+01
-3.175867e+09 -2.975870e+09 -3.135869e+09 2.384419e+03 1.471799e+03 1.263674e+03
-2.469613e+09 -2.269620e+09 -2.429617e+09 -2.915870e+02 2.600211e+03 3.266090e+02
-2.059730e+09 -1.859736e+09 -2.019731e+09 1.073657e+03 1.812081e+03 -8.815872e+01
-3.178417e+09 -2.978423e+09 -3.138421e+09 -9.923737e+02 2.454986e+03 3.301490e+02
-3.604364e+09 -3.404371e+09 -3.564365e+09 -3.937541e+02 -5.370652e+02 3.840216e+03
-3.480561e+09 -3.280562e+09 -3.440562e+09 1.777276e+03 3.873831e+02 5.062258e+02
-3.274008e+09 -3.074008e+09 -3.234008e+09 2.874289e+02 1.211670e+01 2.938457e+01
-1.791873e+09 -1.591879e+09 -1.751874e+09 -1.056727e+03 2.030237e+03 3.588283e+02
-2.258906e+09 -2.058906e+09 -2.218906e+09 -3.076846e+02 -1.435523e+01 -5.033211e+00
-2.563212e+09 -2.363212e+09 -2.523212e+09 2.103114e+02 2.550847e+01 -5.312117e+00
-3.500115e+09 -3.300116e+09 -3.460116e+09 1.930031e+02 1.756547e+00 -1.324528e+01
-3.611078e+09 -3.411078e+09 -3.571078e+09 -5.574290e+02 -2.356206e+01 3.764429e+01
-3.023563e+09 -2.823566e+09 -2.983565e+09 9.728960e+02 -1.133203e+03 3.228401e+02
-1.725227e+09 -1.525232e+09 -1.685228e+09 1.512685e+03 -1.943737e+03 6.854819e+02
-3.611077e+09 -3.411078e+09 -3.571078e+09 -4.241913e+02 -1.393271e+01 -1.135326e+01
-3.135277e+09 -2.935281e+09 -3.095279e+09 -9.570450e+02 1.241799e+03 1.912182e+02
-3.193384e+09 -2.993388e+09 -3.153385e+09 -2.677097e+02 8.312288e+02 -6.717154e+00
-3.123132e+09 -2.923136e+09 -3.083134e+09 -8.171521e+02 9.739877e+02 2.520546e+02
-3.554785e+09 -3.354787e+09 -3.514786e+09 1.674746e+02 6.875251e+00 -2.364453e+02
-3.581063e+09 -3.381067e+09 -3.541065e+09 -6.170602e+02 6.219917e+02 9.639663e+01
-3.562932e+09 -3.362925e+09 -3.522910e+09 -2.514668e+03 -8.422324e+03 4.258629e+03
-1.801244e+09 -1.601257e+09 -1.761247e+09 -1.140915e+04 -1.727618e+04 2.789403e+04
-3.199212e+09 -2.999208e+09 -3.159214e+09 2.708193e+03 2.289733e+03 -7.167230e+01
-3.605364e+09 -3.405366e+09 -3.565365e+09 1.820718e+02 6.987563e+00 -3.654380e+01
-2.908325e+09 -2.708326e+09 -2.868326e+09 3.332394e+02 2.071408e+01 -1.085059e+00
-1.578331e+09 -1.378319e+09 -1.538332e+09 -5.812295e+02 -2.233837e+03 -3.027411e+03
-3.478792e+09 -3.278793e+09 -3.438793e+09 1.957741e+01 -1.197709e+00 -8.424895e+00
-1.854990e+09 -1.654996e+09 -1.814992e+09 1.199149e+03 1.792036e+03 -2.140005e+02
-1.696668e+09 -1.496669e+09 -1.656669e+09 2.603018e+02 2.951276e+01 1.541681e+01
-3.343452e+09 -3.143454e+09 -3.303453e+09 1.334118e+02 -8.218986e-01 -2.306589e+02
-1.996976e+09 -1.796983e+09 -1.956978e+09 6.512540e+03 1.007094e+04 -5.466283e+03
-3.460554e+09 -3.260557e+09 -3.420557e+09 1.126505e+03 2.288599e+03 -2.333071e+02
-3.596492e+09 -3.396493e+09 -3.556492e+09 -1.191503e+03 2.797648e+02 1.650667e+02
-1.591979e+09 -1.391981e+09 -1.551979e+09 -1.349983e+03 6.256582e+02 8.543028e+01
-1.745393e+09 -1.545392e+09 -1.705392e+09 -7.369526e+02 1.052858e+02 4.224143e+01
-2.050145e+09 -1.850143e+09 -2.010144e+09 -1.310093e+03 5.682352e+02 4.441545e+02
-1.774460e+09 -1.574459e+09 -1.734459e+09 -5.111211e+02 2.111083e+02 9.915067e+01
-2.646061e+09 -2.446059e+09 -2.606060e+09 -6.420354e+02 2.381101e+02 3.715904e+02
-3.198137e+09 -2.998138e+09 -3.158137e+09 1.617874e+02 4.009591e+00 -1.342722e+01
-1.594566e+09 -1.394562e+09 -1.554564e+09 -7.247902e+02 6.183633e+01 3.078616e+02
-3.588368e+09 -3.388367e+09 -3.548368e+09 -5.597535e+02 3.205857e+01 6.247061e+01
-2.541747e+09 -2.341748e+09 -2.501748e+09 1.130093e+02 1.873840e+00 -1.855010e+01
-3.043754e+09 -2.843755e+09 -3.003755e+09 -1.390486e+02 -6.475892e+00 -1.109010e+01
-3.602257e+09 -3.402254e+09 -3.562255e+09 6.304406e+02 -3.577805e+02 -1.614514e+02
-1.845097e+09 -1.645098e+09 -1.805097e+09 -9.982404e+01 5.815123e+00 8.057368e+00
-1.658851e+09 -1.458852e+09 -1.618851e+09 -1.329620e+02 -9.247312e+00 1.927238e+01
-2.617997e+09 -2.417996e+09 -2.577996e+09 -4.296454e+02 1.790381e+02 1.315332e+01
-3.602256e+09 -3.402254e+09 -3.562255e+09 9.913001e+02 -1.955830e+02 -3.889375e+02
-2.013602e+09 -1.813578e+09 -1.973666e+09 -7.353723e+03 1.038220e+04 -1.239872e+03
-3.064960e+09 -2.864961e+09 -3.024976e+09 8.255367e+02 8.835719e+03 6.238520e+02
-3.169481e+09 -2.969484e+09 -3.129491e+09 2.734024e+03 6.865347e+03 -3.487520e+03
-1.578315e+09 -1.378305e+09 -1.538329e+09 9.472630e+03 7.916760e+03 2.828962e+03
-3.113512e+09 -2.913502e+09 -3.073497e+09 7.128361e+03 1.285690e+04 2.849987e+03
-1.958319e+09 -1.758323e+09 -1.918320e+09 1.984552e+02 2.046475e+02 4.037083e+00
-3.616234e+09 -3.416237e+09 -3.576235e+09 -2.400818e+02 2.363836e+02 1.887691e+01
-2.824212e+09 -2.624216e+09 -2.784213e+09 -2.556500e+02 7.139034e+02 9.048560e+01
-1.678589e+09 -1.478589e+09 -1.638592e+09 1.297189e+03 1.013989e+02 -3.089526e+01
-1.994998e+09 -1.795002e+09 -1.955002e+09 2.561180e+03 1.059737e+03 1.692788e+03
-1.877661e+09 -1.677662e+09 -1.837661e+09 -6.177851e+02 1.448934e+01 -5.327948e+01
-3.009637e+09 -2.809641e+09 -2.969639e+09 2.053803e+03 1.231092e+03 2.178518e+03
-3.059466e+09 -2.859463e+09 -3.019467e+09 1.905612e+03 4.237820e+02 -7.177828e+02
-1.876081e+09 -1.676083e+09 -1.836081e+09 -6.419672e+02 4.501645e+01 -3.044291e+01
-2.570252e+09 -2.370255e+09 -2.530253e+09 -5.196965e+02 4.437480e+01 -3.640579e+01
-3.618791e+09 -3.418786e+09 -3.578790e+09 -2.026262e+01 -8.334202e+01 1.187327e+03
-2.215607e+09 -2.015601e+09 -2.175603e+09 -7.180522e+02 -3.044923e+02 1.054915e+03
-3.595014e+09 -3.395015e+09 -3.555014e+09 -7.300131e+02 9.045812e+01 2.291841e+01
-2.763605e+09 -2.563604e+09 -2.723604e+09 -5.963562e+02 1.230669e+02 8.995222e+01
-3.001909e+09 -2.801904e+09 -2.961906e+09 7.921368e+01 -5.010631e+02 9.853249e+02
-3.078125e+09 -2.878123e+09 -3.038124e+09 -8.634778e+02 1.539897e+02 3.893519e+02
-2.063236e+09 -1.863234e+09 -2.023235e+09 -9.520502e+02 -2.680376e+02 6.051807e+02
-2.530931e+09 -2.330924e+09 -2.490908e+09 -4.374444e+03 2.964626e+03 -1.414124e+04
-3.035518e+09 -2.835512e+09 -2.995512e+09 1.721089e+02 2.441853e+03 -1.227220e+03
-3.587886e+09 -3.387886e+09 -3.547886e+09 -1.088055e+03 3.531971e+02 -3.116003e+02
-3.607663e+09 -3.407653e+09 -3.567642e+09 -4.286671e+02 5.554633e+03 2.556442e+03
-1.782905e+09 -1.582909e+09 -1.742906e+09 8.562480e+02 6.565318e+02 -4.232569e+01
-2.573314e+09 -2.373316e+09 -2.533315e+09 -1.398874e+03 4.705351e+02 -5.862897e+02
-3.591273e+09 -3.391277e+09 -3.551276e+09 8.284492e+02 1.309527e+03 -1.425805e+02
-3.505961e+09 -3.305962e+09 -3.465961e+09 -1.134372e+03 3.084615e+02 -8.801791e+02
-3.474363e+09 -3.274364e+09 -3.434363e+09 -8.430865e+02 1.447432e+02 -5.247877e+02
-3.587886e+09 -3.387887e+09 -3.547886e+09 -1.191937e+03 2.858340e+02 -3.710211e+02
-2.189030e+09 -1.989032e+09 -2.149032e+09 -1.655363e+03 6.211797e+02 -1.450754e+03
-3.508790e+09 -3.308793e+09 -3.468793e+09 1.803917e+03 2.357813e+03 -7.743667e+02
-1.655285e+09 -1.455286e+09 -1.615284e+09 3.078967e+03 1.687344e+03 -9.141552e+02
-1.789561e+09 -1.589568e+09 -1.749563e+09 1.016563e+03 1.679993e+03 -1.775673e+02
-2.387175e+09 -2.187173e+09 -2.347174e+09 -7.784179e+02 2.725873e+02 1.177972e+02
-3.221234e+09 -3.021232e+09 -3.181234e+09 6.496039e+02 -9.227212e+02 1.066025e+03
-3.447707e+09 -3.247706e+09 -3.407707e+09 8.569341e+02 -8.282685e+02 7.050559e+02
-2.020551e+09 -1.820553e+09 -1.980551e+09 1.425389e+03 -1.047089e+03 5.293093e+02
-1.951690e+09 -1.751691e+09 -1.911690e+09 1.019521e+03 -6.823547e+02 3.402777e+02
-3.431034e+09 -3.231035e+09 -3.391035e+09 1.799788e+02 1.065616e+01 -1.353406e+01
-2.861202e+09 -2.661202e+09 -2.821202e+09 -6.514980e+01 -1.226168e+02 1.817879e+01
-2.768749e+09 -2.568752e+09 -2.728751e+09 1.580472e+03 1.239516e+03 -3.622500e+02
-1.889588e+09 -1.689589e+09 -1.849588e+09 1.550028e+02 1.550280e+01 -1.552923e+01
-3.267228e+09 -3.067230e+09 -3.227229e+09 -3.173360e+01 -9.535643e-01 -3.358607e+00
-1.571177e+09 -1.371179e+09 -1.531177e+09 1.663462e+03 5.805003e+02 -9.044789e+01
-3.500361e+09 -3.300359e+09 -3.460361e+09 -4.112938e+02 -8.734206e+02 -8.022667e+02
-1.640524e+09 -1.440525e+09 -1.600525e+09 1.073866e+02 2.034493e+01 4.265875e+01
-2.851408e+09 -2.651409e+09 -2.811409e+09 3.077625e+02 -2.641560e+00 -4.569306e+01
-2.937369e+09 -2.737369e+09 -2.897368e+09 -4.201159e+01 1.720569e+01 -3.795819e+01
-2.836981e+09 -2.636981e+09 -2.796981e+09 2.846933e+01 2.125364e+01 -3.250529e+01
-3.219239e+09 -3.019239e+09 -3.179239e+09 -3.384235e+01 1.401293e+01 -2.524056e+01
-2.910179e+09 -2.710179e+09 -2.870179e+09 -5.065372e+02 -2.670443e+01 2.607124e+01
-3.611763e+09 -3.411762e+09 -3.571763e+09 1.284453e+02 -3.940733e+02 2.666611e+02
-2.206267e+09 -2.006266e+09 -2.166266e+09 7.396880e+01 -1.537590e+02 7.741706e+01
-1.575574e+09 -1.375575e+09 -1.535573e+09 1.522321e+03 3.280592e+02 -9.637752e+01
-3.555740e+09 -3.355740e+09 -3.515740e+09 -4.544107e+02 -2.670731e+01 -1.909767e+01
-2.734581e+09 -2.534580e+09 -2.694580e+09 -3.905859e+02 -5.334740e+01 -1.576861e+01
-1.570050e+09 -1.370050e+09 -1.530050e+09 -4.077697e+02 -6.498865e+01 1.752653e+01
-1.884621e+09 -1.684631e+09 -1.844635e+09 -2.508783e+03 -3.852880e+03 1.557770e+04
-1.962230e+09 -1.762231e+09 -1.922231e+09 -2.873396e+02 -2.659978e+01 -1.736458e+01
-1.593325e+09 -1.393325e+09 -1.553325e+09 -3.122620e+02 -3.943355e+01 -1.842587e+01
-3.593302e+09 -3.393302e+09 -3.553300e+09 9.900511e+02 -5.453843e+02 -1.138247e+03
-1.684914e+09 -1.484914e+09 -1.644915e+09 1.579784e+03 -4.744278e+02 -9.390752e+02
-3.199701e+09 -2.999700e+09 -3.159701e+09 -2.826360e+02 -1.013759e+02 5.543458e+01
-3.591332e+09 -3.391331e+09 -3.551332e+09 7.835177e+02 -1.620502e+02 -2.227927e+02
-1.576944e+09 -1.376943e+09 -1.536944e+09 9.068336e+02 -2.218258e+02 -5.608724e+02
-2.052933e+09 -1.852932e+09 -2.012933e+09 1.674487e+03 -7.808630e+02 -1.064792e+03
-1.575616e+09 -1.375615e+09 -1.535616e+09 -3.623495e+02 -8.533606e+01 -1.224488e+01
-3.606624e+09 -3.406624e+09 -3.566624e+09 -3.153144e+02 -3.639108e+01 2.476850e+01
-1.795537e+09 -1.595536e+09 -1.755537e+09 -2.565194e+02 -7.280829e+01 -1.207596e+01
-1.994149e+09 -1.794148e+09 -1.954148e+09 -1.938747e+02 -5.438499e+01 -1.547876e+01
-2.205607e+09 -2.005614e+09 -2.165613e+09 8.012430e+02 3.906012e+02 2.789392e+03
-1.597366e+09 -1.397366e+09 -1.557366e+09 -2.727500e+02 -6.530910e+01 -2.653349e+01
-3.605241e+09 -3.405241e+09 -3.565241e+09 -2.159599e+02 -2.335864e+01 -2.424476e+01
-1.974553e+09 -1.774552e+09 -1.934556e+09 2.446983e+03 6.862170e+02 -1.063258e+02
-1.903917e+09 -1.703915e+09 -1.863917e+09 -1.974274e+02 -4.546084e+02 -1.091212e+03
-1.855666e+09 -1.655666e+09 -1.815666e+09 -2.476039e+02 -4.241912e+01 -7.043749e+00
-1.587828e+09 -1.387834e+09 -1.547836e+09 7.062252e+02 1.700677e+02 1.476713e+03
-1.832698e+09 -1.632693e+09 -1.792697e+09 -4.670355e+03 -2.550302e+03 1.513732e+03
-1.894283e+09 -1.694283e+09 -1.854282e+09 -2.700795e+03 -2.659220e+03 -1.767616e+03
-2.535177e+09 -2.335153e+09 -2.495175e+09 5.755736e+03 -2.801199e+03 -7.614080e+03
-1.667232e+09 -1.467237e+09 -1.627239e+09 -2.494639e+03 -1.561729e+03 5.321340e+03
-3.590890e+09 -3.390891e+09 -3.550872e+09 -2.844689e+03 -3.549436e+03 8.020984e+03
-1.984361e+09 -1.784361e+09 -1.944360e+09 1.495400e+03 5.490043e+02 -2.567792e+02
-2.152509e+09 -1.952513e+09 -2.112510e+09 3.087380e+02 2.303300e+02 -1.934072e+01
-1.981809e+09 -1.781812e+09 -1.941810e+09 6.354326e+02 2.220253e+02 -2.600021e+01
-3.557421e+09 -3.357423e+09 -3.517421e+09 9.936612e+02 2.201645e+02 -2.832091e+01
-1.623616e+09 -1.423616e+09 -1.583616e+09 -2.346683e+03 -1.222212e+03 -1.146518e+03
-1.606778e+09 -1.406775e+09 -1.566777e+09 -1.778046e+03 -1.557546e+03 -1.821889e+03
-1.588858e+09 -1.388855e+09 -1.548857e+09 -1.214429e+03 -1.178295e+03 -1.326858e+03
-1.715549e+09 -1.515546e+09 -1.675548e+09 -1.413781e+03 -1.240503e+03 -1.543168e+03
-1.709306e+09 -1.509304e+09 -1.669305e+09 -1.135684e+03 -1.197956e+03 -1.393469e+03
-1.934081e+09 -1.734079e+09 -1.894081e+09 -1.194136e+03 -1.628738e+03 -1.907336e+03
-2.045307e+09 -1.845304e+09 -2.005307e+09 -1.214663e+03 -1.528723e+03 -1.789980e+03
-1.918444e+09 -1.718441e+09 -1.878444e+09 -1.398385e+03 -1.696895e+03 -1.624799e+03
-1.797882e+09 -1.597880e+09 -1.757881e+09 -9.429050e+02 -8.691678e+02 -1.203701e+03
-2.089297e+09 -1.889294e+09 -2.049296e+09 -8.538629e+02 -1.086373e+03 -1.356294e+03
-2.146484e+09 -1.946481e+09 -2.106483e+09 -8.689446e+02 -9.642645e+02 -1.319867e+03
-2.347685e+09 -2.147683e+09 -2.307685e+09 -7.845687e+02 -8.069324e+02 -1.239848e+03
-1.625792e+09 -1.425790e+09 -1.585791e+09 -7.844862e+02 -7.483914e+02 -1.077597e+03
-1.625792e+09 -1.425789e+09 -1.585791e+09 -5.896631e+02 -6.848277e+02 -1.235447e+03
-1.850567e+09 -1.650564e+09 -1.810566e+09 -3.547777e+02 -9.492763e+02 -1.455110e+03
-2.050311e+09 -1.850309e+09 -2.010311e+09 -2.643848e+02 -7.293103e+02 -1.160376e+03
-1.508866e+09 -1.308863e+09 -1.468865e+09 -1.648846e+03 -1.539345e+03 -1.823558e+03
-1.480085e+09 -1.280083e+09 -1.440084e+09 -1.232464e+03 -1.195657e+03 -1.346359e+03
-1.600534e+09 -1.400531e+09 -1.560533e+09 -1.111893e+03 -1.069464e+03 -1.377437e+03
-1.480085e+09 -1.280083e+09 -1.440084e+09 -1.125667e+03 -1.062858e+03 -1.235233e+03
-1.480085e+09 -1.280082e+09 -1.440084e+09 -1.030358e+03 -1.124822e+03 -1.343555e+03
-1.704860e+09 -1.504857e+09 -1.664859e+09 -7.951601e+02 -1.230190e+03 -1.468667e+03
-1.825309e+09 -1.625306e+09 -1.785308e+09 -8.937682e+02 -1.099757e+03 -1.715088e+03
-1.497189e+09 -1.297187e+09 -1.457187e+09 -1.531034e+03 -1.441562e+03 -1.193373e+03
-1.700083e+09 -1.500081e+09 -1.660082e+09 -1.515548e+03 -1.348468e+03 -1.162448e+03
-1.591311e+09 -1.391309e+09 -1.551310e+09 -1.641487e+03 -1.361963e+03 -1.103290e+03
-1.591311e+09 -1.391309e+09 -1.551310e+09 -1.702045e+03 -1.425250e+03 -1.125631e+03
-1.652175e+09 -1.452173e+09 -1.612174e+09 -1.062180e+03 -8.999822e+02 -9.448459e+02
-1.855069e+09 -1.655068e+09 -1.815068e+09 -1.072378e+03 -8.443278e+02 -9.436183e+02
-1.901284e+09 -1.701283e+09 -1.861283e+09 -1.219526e+03 -8.763064e+02 -9.943941e+02
-2.056271e+09 -1.856269e+09 -2.016270e+09 -1.121676e+03 -9.895507e+02 -9.834833e+02
-1.486329e+09 -1.286326e+09 -1.446327e+09 -1.824350e+03 -1.274934e+03 -1.415013e+03
-1.497188e+09 -1.297186e+09 -1.457187e+09 -1.376161e+03 -1.274090e+03 -1.038056e+03
-1.486329e+09 -1.286326e+09 -1.446327e+09 -1.835530e+03 -1.339210e+03 -1.479567e+03
-1.595101e+09 -1.395098e+09 -1.555099e+09 -1.774787e+03 -1.238031e+03 -1.303786e+03
-1.797995e+09 -1.597994e+09 -1.757994e+09 -1.774006e+03 -1.582735e+03 -1.297502e+03
-1.689223e+09 -1.489222e+09 -1.649222e+09 -1.751643e+03 -1.586141e+03 -1.184252e+03
-1.486329e+09 -1.286327e+09 -1.446327e+09 -1.937502e+03 -1.611623e+03 -1.434209e+03
-1.734564e+09 -1.534562e+09 -1.694563e+09 -7.921995e+02 -7.087677e+02 -1.068316e+03
-1.959339e+09 -1.759336e+09 -1.919338e+09 -4.716668e+02 -1.121123e+03 -1.408369e+03
-2.216271e+09 -2.016268e+09 -2.176271e+09 -2.941625e+02 -7.687578e+02 -1.116651e+03
-2.159084e+09 -1.959081e+09 -2.119083e+09 -2.734571e+02 -7.224537e+02 -1.059507e+03
-1.520307e+09 -1.320307e+09 -1.480307e+09 1.926295e+02 2.753796e+01 7.405962e+00
-1.544057e+09 -1.344058e+09 -1.504058e+09 1.756897e+02 2.479491e+01 2.007015e+00
-1.675950e+09 -1.475951e+09 -1.635950e+09 1.966449e+02 2.672645e+01 1.047554e+01
-1.544057e+09 -1.344058e+09 -1.504058e+09 1.922018e+02 2.285883e+01 6.788676e+00
-1.544057e+09 -1.344058e+09 -1.504058e+09 1.551531e+02 1.914128e+01 -5.619908e+00
-1.855343e+09 -1.655344e+09 -1.815344e+09 1.621617e+02 2.269398e+01 -1.144397e+00
-1.987236e+09 -1.787237e+09 -1.947237e+09 1.673349e+02 2.203357e+01 -5.212827e+00
-1.641435e+09 -1.441436e+09 -1.601435e+09 2.199483e+02 2.214582e+01 -6.921091e+00
-1.693184e+09 -1.493185e+09 -1.653184e+09 1.832773e+02 2.116159e+01 -8.102567e-01
-1.790562e+09 -1.590562e+09 -1.750562e+09 2.096566e+02 2.080344e+01 6.718609e-01
-1.825077e+09 -1.625077e+09 -1.785077e+09 2.076521e+02 1.939261e+01 5.676274e+00
-2.136363e+09 -1.936364e+09 -2.096364e+09 2.039159e+02 1.450450e+01 -2.870917e+01
-2.277842e+09 -2.077843e+09 -2.237842e+09 2.051156e+02 1.736100e+01 -1.646012e+01
-2.087684e+09 -1.887684e+09 -2.047684e+09 2.100291e+02 2.590179e+01 -7.411489e+00
-1.848049e+09 -1.648049e+09 -1.808049e+09 1.867702e+02 1.357531e+01 -2.947088e+00
-2.159335e+09 -1.959336e+09 -2.119335e+09 1.866891e+02 1.082209e+01 -1.678617e+01
-2.300814e+09 -2.100815e+09 -2.260814e+09 1.861953e+02 1.421328e+01 -1.000635e+01
-2.461416e+09 -2.261417e+09 -2.421417e+09 1.823736e+02 8.993879e+00 -1.116120e+00
-1.543279e+09 -1.343279e+09 -1.503279e+09 1.937938e+02 3.093713e+01 2.114374e+00
-1.853008e+09 -1.653009e+09 -1.813008e+09 1.892599e+02 2.914868e+01 5.133384e+00
-1.698143e+09 -1.498144e+09 -1.658144e+09 2.229071e+02 3.123424e+01 -3.359403e+00
-1.698143e+09 -1.498144e+09 -1.658144e+09 1.896158e+02 2.240075e+01 1.341076e+00
-1.509542e+09 -1.309543e+09 -1.469542e+09 2.428647e+02 3.219880e+01 9.311487e+00
-1.537541e+09 -1.337541e+09 -1.497541e+09 2.226593e+02 2.908174e+01 4.728118e+00
-1.509542e+09 -1.309543e+09 -1.469542e+09 2.230159e+02 3.370383e+01 2.081259e+01
-1.658669e+09 -1.458669e+09 -1.618669e+09 2.255144e+02 3.021002e+01 4.122384e+00
-1.955791e+09 -1.755792e+09 -1.915791e+09 2.371672e+02 2.774201e+01 -2.173488e+00
-1.806664e+09 -1.606665e+09 -1.766665e+09 2.569326e+02 2.979009e+01 -6.306056e+00
-1.509542e+09 -1.309543e+09 -1.469542e+09 2.584174e+02 2.789757e+01 -1.951905e+00
-1.692405e+09 -1.492406e+09 -1.652406e+09 2.182307e+02 2.267679e+01 6.214339e+00
-1.989527e+09 -1.789528e+09 -1.949528e+09 2.207569e+02 2.741163e+01 8.610119e+00
-1.995265e+09 -1.795266e+09 -1.955266e+09 2.521252e+02 2.514085e+01 8.150814e-01
-2.150130e+09 -1.950131e+09 -2.110130e+09 2.180923e+02 2.299572e+01 9.196306e+00
-1.710087e+09 -1.510088e+09 -1.670088e+09 2.342293e+02 1.569176e+01 -2.604468e+00
-1.949641e+09 -1.749641e+09 -1.909641e+09 2.398378e+02 1.851132e+01 -2.050905e+01
-2.169485e+09 -1.969486e+09 -2.129486e+09 2.409599e+02 2.112353e+01 -7.181121e+00
-2.262035e+09 -2.062036e+09 -2.222036e+09 2.441603e+02 1.043459e+01 -2.450087e+00
-1.643574e+09 -1.443575e+09 -1.603575e+09 2.144573e+02 1.891387e+01 1.246297e+01
-1.954861e+09 -1.754862e+09 -1.914861e+09 1.964393e+02 1.220616e+01 1.563899e+00
-1.822968e+09 -1.622969e+09 -1.782969e+09 1.798538e+02 1.123508e+01 1.181414e+00
-2.036646e+09 -1.836647e+09 -1.996647e+09 2.080860e+02 1.793272e+01 1.093030e+01
-1.680706e+09 -1.480707e+09 -1.640707e+09 2.728876e+02 2.476768e+01 2.740080e+01
-1.920260e+09 -1.720260e+09 -1.880260e+09 2.719517e+02 3.104284e+01 7.090312e+00
-2.026188e+09 -1.826188e+09 -1.986188e+09 3.086343e+02 2.217500e+01 -1.221859e+01
-2.229423e+09 -2.029424e+09 -2.189424e+09 3.025413e+02 2.827300e+01 3.606676e+00
-1.482300e+09 -1.282301e+09 -1.442301e+09 2.446091e+02 2.194269e+01 -2.135611e+01
-1.482301e+09 -1.282301e+09 -1.442301e+09 2.813110e+02 3.234999e+01 -8.978255e+00
-1.482301e+09 -1.282301e+09 -1.442301e+09 2.570436e+02 3.148649e+01 -4.507468e+00
-1.665506e+09 -1.465507e+09 -1.625507e+09 2.822291e+02 2.584902e+01 -3.272541e+01
-1.511682e+09 -1.311682e+09 -1.471682e+09 2.197602e+02 2.828554e+01 6.143438e+00
-1.480688e+09 -1.280689e+09 -1.440689e+09 2.328131e+02 2.541838e+01 -7.043074e+00
-1.511681e+09 -1.311682e+09 -1.471682e+09 2.355307e+02 2.685778e+01 1.252061e+01
-1.603956e+09 -1.403957e+09 -1.563957e+09 2.336865e+02 2.525978e+01 9.801195e+00
-1.817634e+09 -1.617635e+09 -1.777635e+09 2.101084e+02 2.775261e+01 -1.181796e+01
-1.725359e+09 -1.525360e+09 -1.685360e+09 1.998469e+02 2.572668e+01 -4.588354e+00
-1.511681e+09 -1.311682e+09 -1.471682e+09 1.929395e+02 2.172610e+01 -1.613137e+01
-1.511682e+09 -1.311682e+09 -1.471682e+09 2.134345e+02 2.926375e+01 1.154621e+01
-1.511682e+09 -1.311682e+09 -1.471682e+09 1.887797e+02 2.243310e+01 -6.084797e+00
-1.725360e+09 -1.525360e+09 -1.685360e+09 1.994042e+02 2.874600e+01 1.822089e+01
-1.511682e+09 -1.311682e+09 -1.471682e+09 1.872460e+02 2.223524e+01 -5.103752e+00
-1.502156e+09 -1.302156e+09 -1.462156e+09 3.013074e+02 2.991643e+01 -5.347319e+00
-1.465691e+09 -1.265692e+09 -1.425692e+09 2.752455e+02 2.778361e+01 3.248687e+00
-1.502156e+09 -1.302156e+09 -1.462156e+09 2.749274e+02 3.339709e+01 3.704461e+00
-1.579433e+09 -1.379434e+09 -1.539434e+09 2.784977e+02 3.029840e+01 1.157179e+01
-1.818987e+09 -1.618987e+09 -1.778987e+09 2.970767e+02 2.548652e+01 -7.513438e+00
-1.741709e+09 -1.541710e+09 -1.701710e+09 3.000819e+02 3.267429e+01 -1.009403e+01
-1.502156e+09 -1.302156e+09 -1.462156e+09 3.196762e+02 2.218640e+01 -3.318999e+01
-1.603429e+09 -1.403429e+09 -1.563429e+09 2.368266e+02 3.120276e+01 6.371225e+00
-1.603429e+09 -1.403429e+09 -1.563429e+09 2.593823e+02 2.812079e+01 3.972077e-01
-1.989870e+09 -1.789871e+09 -1.949870e+09 2.550871e+02 2.822697e+01 -1.156132e+01
-1.786635e+09 -1.586635e+09 -1.746635e+09 2.828394e+02 2.124076e+01 -3.879127e+01
-1.588959e+09 -1.388960e+09 -1.548960e+09 2.478478e+02 2.005963e+01 -1.440517e+01
-1.594430e+09 -1.394431e+09 -1.554431e+09 2.641439e+02 1.536476e+01 -2.658687e+01
-1.702701e+09 -1.502702e+09 -1.662702e+09 2.533281e+02 2.387910e+01 -4.401414e+00
-1.717698e+09 -1.517699e+09 -1.677699e+09 2.598891e+02 1.670605e+01 -5.962143e+00
-1.942254e+09 -1.742255e+09 -1.902255e+09 2.677813e+02 1.922258e+01 -3.098455e+01
-2.078655e+09 -1.878656e+09 -2.038655e+09 2.536791e+02 1.135590e+01 -4.156301e+01
-1.931376e+09 -1.731377e+09 -1.891377e+09 2.513693e+02 1.430104e+01 -4.009144e+01
-1.559578e+09 -1.359579e+09 -1.519579e+09 2.793668e+02 1.538558e+01 5.670132e-01
-1.799131e+09 -1.599132e+09 -1.759132e+09 2.888033e+02 2.048459e+01 -2.211600e+00
-1.721854e+09 -1.521854e+09 -1.681854e+09 2.940755e+02 2.886424e+01 -5.616028e+00
-1.905060e+09 -1.705060e+09 -1.865060e+09 3.061274e+02 2.532386e+01 -1.091424e+01
-1.764703e+09 -1.564703e+09 -1.724703e+09 2.300835e+02 1.470599e+01 8.592488e-01
-2.061825e+09 -1.861825e+09 -2.021825e+09 2.304951e+02 1.969848e+01 2.151818e+00
-2.251983e+09 -2.051984e+09 -2.211983e+09 2.148333e+02 4.520922e+00 -1.280124e+01
-2.333768e+09 -2.133769e+09 -2.293769e+09 2.211444e+02 5.436947e+00 2.484500e+00
-1.601897e+09 -1.401898e+09 -1.561898e+09 2.384546e+02 1.319576e+01 -7.157645e+00
-1.815575e+09 -1.615576e+09 -1.775575e+09 2.374139e+02 1.328125e+01 -1.139065e+01
-1.723300e+09 -1.523301e+09 -1.683301e+09 2.260203e+02 6.666408e+00 -6.040990e+00
-1.975411e+09 -1.775412e+09 -1.935411e+09 2.030864e+02 7.840113e+00 -2.301642e+01
-1.568795e+09 -1.368796e+09 -1.528796e+09 3.188419e+02 1.253182e+01 -6.291632e+01
-1.577812e+09 -1.377813e+09 -1.537813e+09 2.852647e+02 1.921344e+01 -3.621324e+01
-1.676611e+09 -1.476612e+09 -1.636612e+09 3.176974e+02 1.309304e+01 -3.362112e+01
-1.669964e+09 -1.469966e+09 -1.629965e+09 2.794772e+02 1.829363e+01 -2.249406e+01
-1.865326e+09 -1.665327e+09 -1.825327e+09 2.729453e+02 1.166602e+01 -5.353905e+01
-2.005120e+09 -1.805122e+09 -1.965121e+09 2.902034e+02 1.431920e+01 -6.114256e+01
-1.897988e+09 -1.697989e+09 -1.857988e+09 3.198672e+02 2.640885e+01 -3.675534e+01
-1.699020e+09 -1.499021e+09 -1.659021e+09 2.752273e+02 2.118067e+01 -4.597077e+01
-1.894382e+09 -1.694383e+09 -1.854383e+09 2.735253e+02 9.861421e+00 -3.732748e+01
-2.034176e+09 -1.834177e+09 -1.994177e+09 2.742811e+02 2.302714e+01 -5.887521e+01
-2.178471e+09 -1.978472e+09 -2.138472e+09 2.775376e+02 2.373536e+00 -9.592360e+01
-1.709713e+09 -1.509714e+09 -1.669714e+09 2.466763e+02 2.272372e+01 -1.113227e+01
-1.923391e+09 -1.723392e+09 -1.883392e+09 2.481408e+02 2.056153e+01 -1.857948e+01
-2.196787e+09 -1.996788e+09 -2.156788e+09 2.211795e+02 1.074053e+01 -6.049918e+01
-2.052493e+09 -1.852494e+09 -2.012493e+09 2.488236e+02 2.769564e+01 -2.814156e+01
-1.480566e+09 -1.280567e+09 -1.440567e+09 2.664934e+02 2.452945e+01 -3.353870e+01
-1.469996e+09 -1.269997e+09 -1.429997e+09 2.558029e+02 2.600078e+01 -3.165773e+00
-1.562148e+09 -1.362149e+09 -1.522149e+09 2.706902e+02 2.247203e+01 -1.378966e+01
-1.469996e+09 -1.269997e+09 -1.429997e+09 2.719097e+02 2.226535e+01 -1.616863e+01
-1.469996e+09 -1.269997e+09 -1.429996e+09 2.193424e+02 2.274843e+01 -4.807274e+01
-1.665357e+09 -1.465359e+09 -1.625358e+09 2.326373e+02 1.921185e+01 -2.819300e+01
-1.757510e+09 -1.557511e+09 -1.717511e+09 2.484024e+02 2.156910e+01 -3.330816e+01
-1.605413e+09 -1.405414e+09 -1.565414e+09 3.229765e+02 2.442799e+01 -2.474674e+01
-1.826790e+09 -1.626790e+09 -1.786790e+09 3.415307e+02 3.617007e+01 -1.049984e+01
-1.718973e+09 -1.518974e+09 -1.678974e+09 3.439015e+02 3.142045e+01 -2.883616e+01
-1.905011e+09 -1.705011e+09 -1.865011e+09 3.705858e+02 8.705491e+00 -5.512633e+01
-1.591204e+09 -1.391205e+09 -1.551205e+09 2.515873e+02 2.877181e+01 -1.622415e+01
-1.591204e+09 -1.391205e+09 -1.551205e+09 2.163907e+02 2.681689e+01 -1.820753e+01
-1.786566e+09 -1.586567e+09 -1.746567e+09 2.246346e+02 2.272706e+01 -3.491007e+00
-1.957094e+09 -1.757096e+09 -1.917095e+09 2.065244e+02 2.055962e+01 -2.483876e+01
-1.611339e+09 -1.411340e+09 -1.571340e+09 2.994798e+02 3.020338e+01 -3.051660e+01
-1.611339e+09 -1.411340e+09 -1.571340e+09 3.258691e+02 2.913311e+01 -3.405687e+01
-1.850892e+09 -1.650893e+09 -1.810893e+09 3.124702e+02 3.647508e+01 -1.690135e+01
-1.923188e+09 -1.723188e+09 -1.883188e+09 3.543213e+02 1.312246e+01 -4.726239e+01
-1.476642e+09 -1.276643e+09 -1.436643e+09 3.559892e+02 2.634853e+01 -3.133766e+01
-1.496230e+09 -1.296231e+09 -1.456231e+09 3.344691e+02 2.741193e+01 -3.779903e+01
-1.476642e+09 -1.276643e+09 -1.436643e+09 3.296698e+02 3.597211e+01 -2.237309e+01
-1.584459e+09 -1.384460e+09 -1.544460e+09 3.357417e+02 3.134456e+01 -2.668781e+01
-1.805835e+09 -1.605836e+09 -1.765836e+09 3.431502e+02 3.008688e+01 -3.145490e+01
-1.698019e+09 -1.498020e+09 -1.658020e+09 3.674046e+02 2.340326e+01 -5.120591e+01
-1.476643e+09 -1.276643e+09 -1.436643e+09 3.882468e+02 1.483319e+01 -7.901630e+01
-1.497597e+09 -1.297598e+09 -1.457598e+09 3.043090e+02 2.531806e+01 -4.233450e+01
-1.497597e+09 -1.297598e+09 -1.457598e+09 3.417338e+02 3.245991e+01 -3.173569e+01
-1.497597e+09 -1.297598e+09 -1.457598e+09 3.167350e+02 3.498220e+01 -2.955537e+01
-1.683634e+09 -1.483635e+09 -1.643635e+09 3.585296e+02 1.016650e+01 -7.157798e+01
-1.509622e+09 -1.309623e+09 -1.469623e+09 2.475011e+02 2.459936e+01 -1.868159e+01
-1.509622e+09 -1.309623e+09 -1.469623e+09 2.153427e+02 2.459871e+01 -1.083659e+01
-1.761733e+09 -1.561734e+09 -1.721733e+09 2.067341e+02 1.962543e+01 -2.540914e+01
-1.509622e+09 -1.309623e+09 -1.469623e+09 2.224068e+02 2.104456e+01 -3.730523e+00
-1.702247e+09 -1.502248e+09 -1.662247e+09 2.777006e+02 1.354053e+01 -1.775788e+01
-1.915925e+09 -1.715926e+09 -1.875925e+09 2.763859e+02 1.013735e+01 -2.809837e+01
-2.045026e+09 -1.845027e+09 -2.005027e+09 2.807213e+02 2.422899e+01 -2.585213e+01
-2.176763e+09 -1.976764e+09 -2.136764e+09 2.864638e+02 1.177944e+01 -2.861611e+01
-1.719155e+09 -1.519156e+09 -1.679156e+09 3.162242e+02 2.855329e+01 -1.315516e+01
-1.940532e+09 -1.740532e+09 -1.900532e+09 3.172460e+02 4.954264e+01 3.292074e+00
-2.144564e+09 -1.944565e+09 -2.104565e+09 3.643766e+02 1.146101e+01 -3.303682e+01
-2.072269e+09 -1.872269e+09 -2.032269e+09 3.271060e+02 3.483130e+01 -3.320085e+00
-1.694747e+09 -1.494748e+09 -1.654748e+09 3.763905e+02 2.450963e+01 -3.272413e+01
-1.916123e+09 -1.716124e+09 -1.876124e+09 3.762435e+02 2.444493e+01 -4.228848e+01
-2.046318e+09 -1.846319e+09 -2.006318e+09 3.891813e+02 4.646898e+01 -8.066258e+00
-2.139710e+09 -1.939711e+09 -2.099711e+09 4.708151e+02 6.613566e+00 -8.516042e+01
-1.606518e+09 -1.406519e+09 -1.566519e+09 3.844887e+02 2.095975e+01 -7.077990e+01
-1.824941e+09 -1.624942e+09 -1.784942e+09 4.051244e+02 3.404448e+01 -5.292809e+01
-1.718021e+09 -1.518022e+09 -1.678022e+09 4.191012e+02 3.179583e+01 -7.603605e+01
-1.918334e+09 -1.718335e+09 -1.878335e+09 4.642308e+02 1.109213e+01 -1.105360e+02
-1.480566e+09 -1.280567e+09 -1.440567e+09 2.737560e+02 1.200612e+01 -3.072517e+01
-1.675928e+09 -1.475929e+09 -1.635929e+09 2.592616e+02 1.369096e+01 -4.676636e+01
-1.583775e+09 -1.383776e+09 -1.543776e+09 2.507343e+02 4.341928e+00 -4.143702e+01
-1.583775e+09 -1.383776e+09 -1.543776e+09 2.449835e+02 1.163689e+01 -4.238595e+01
-1.493115e+09 -1.293116e+09 -1.453116e+09 2.995026e+02 3.348830e+01 -1.640384e+02
-1.495333e+09 -1.295335e+09 -1.455334e+09 2.849077e+02 2.994932e+01 -8.220653e+01
-1.600035e+09 -1.400037e+09 -1.560036e+09 3.110634e+02 2.819729e+01 -9.603735e+01
-1.495333e+09 -1.295335e+09 -1.455334e+09 3.050229e+02 2.317744e+01 -6.302532e+01
-1.495333e+09 -1.295335e+09 -1.455334e+09 2.497825e+02 2.000790e+01 -1.440861e+02
-1.713757e+09 -1.513758e+09 -1.673758e+09 2.468648e+02 3.903088e+01 -1.581459e+02
-1.818459e+09 -1.618460e+09 -1.778460e+09 2.850337e+02 6.442920e+01 -1.430229e+02
-1.587486e+09 -1.387487e+09 -1.547487e+09 2.912982e+02 2.712437e+01 -4.143026e+01
-1.782848e+09 -1.582849e+09 -1.742849e+09 2.784241e+02 2.686918e+01 -5.905954e+01
-1.690696e+09 -1.490697e+09 -1.650696e+09 2.560914e+02 1.901449e+01 -7.787853e+01
-1.909119e+09 -1.709120e+09 -1.869120e+09 2.689149e+02 3.250260e+01 -6.341718e+01
-1.499597e+09 -1.299598e+09 -1.459598e+09 3.604894e+02 2.439388e+01 -8.914232e+01
-1.499597e+09 -1.299598e+09 -1.459598e+09 4.102059e+02 3.474292e+01 -8.204885e+01
-1.499597e+09 -1.299598e+09 -1.459598e+09 3.829850e+02 3.598742e+01 -7.763362e+01
-1.699910e+09 -1.499911e+09 -1.659911e+09 4.401495e+02 1.159191e+01 -1.319657e+02
-1.675715e+09 -1.475716e+09 -1.635716e+09 3.273808e+02 2.146370e+01 -4.903040e+01
-1.897091e+09 -1.697092e+09 -1.857092e+09 3.251717e+02 3.169987e+01 -2.054893e+01
-2.004224e+09 -1.804225e+09 -1.964225e+09 2.848683e+02 1.433552e+01 -6.417678e+01
-2.130495e+09 -1.930497e+09 -2.090496e+09 2.914374e+02 2.709644e+01 -6.740945e+01
-1.587826e+09 -1.387827e+09 -1.547827e+09 3.570614e+02 2.749853e+01 -5.511074e+01
-1.587826e+09 -1.387827e+09 -1.547827e+09 3.955355e+02 2.670908e+01 -6.329680e+01
-1.809203e+09 -1.609204e+09 -1.769204e+09 3.790461e+02 3.241948e+01 -4.182981e+01
-1.921287e+09 -1.721288e+09 -1.881287e+09 4.467800e+02 7.135561e+00 -1.098565e+02
-1.493115e+09 -1.293116e+09 -1.453116e+09 4.104754e+02 3.701351e+01 -8.471923e+01
-1.495334e+09 -1.295335e+09 -1.455334e+09 3.875016e+02 2.031792e+01 -7.966377e+01
-1.493115e+09 -1.293116e+09 -1.453116e+09 3.777641e+02 4.867809e+01 -6.638443e+01
-1.600035e+09 -1.400037e+09 -1.560036e+09 3.971031e+02 3.430335e+01 -6.995828e+01
-1.818459e+09 -1.618460e+09 -1.778460e+09 4.275974e+02 3.393486e+00 -9.930131e+01
-1.711539e+09 -1.511540e+09 -1.671540e+09 4.564744e+02 -2.221081e+00 -1.233377e+02
-1.493115e+09 -1.293116e+09 -1.453116e+09 4.702989e+02 1.687341e+01 -1.397875e+02
-1.554336e+09 -1.354338e+09 -1.514338e+09 3.189585e+02 3.783281e+01 -1.188181e+02
-1.717916e+09 -1.517917e+09 -1.677917e+09 2.729918e+02 3.398208e+01 -1.602465e+02
-1.648328e+09 -1.448329e+09 -1.608329e+09 2.452184e+02 3.036326e+01 -1.745827e+02
-1.853151e+09 -1.653153e+09 -1.813152e+09 2.418422e+02 3.961275e+01 -1.669133e+02
-1.706568e+09 -1.506570e+09 -1.666570e+09 3.349705e+02 2.944112e+01 -1.338413e+02
-1.870148e+09 -1.670149e+09 -1.830149e+09 2.802133e+02 2.824281e+01 -1.663972e+02
-2.005383e+09 -1.805385e+09 -1.965384e+09 2.842940e+02 3.369583e+01 -1.921822e+02
-2.216036e+09 -2.016037e+09 -2.176037e+09 2.807177e+02 3.201462e+01 -1.428155e+02
-1.597088e+09 -1.397089e+09 -1.557089e+09 4.521442e+02 3.870197e+00 -1.886223e+02
-1.801911e+09 -1.601912e+09 -1.761912e+09 4.869714e+02 1.956949e+01 -1.654922e+02
-1.705576e+09 -1.505577e+09 -1.665577e+09 4.761249e+02 9.415507e+00 -1.978301e+02
-1.956802e+09 -1.756803e+09 -1.916803e+09 5.246560e+02 3.986341e+00 -2.412175e+02
-1.701790e+09 -1.501791e+09 -1.661791e+09 4.295970e+02 1.830763e+01 -9.319713e+01
-1.906613e+09 -1.706615e+09 -1.866614e+09 4.307356e+02 5.089722e+01 -6.827260e+01
-2.061504e+09 -1.861505e+09 -2.021505e+09 5.159651e+02 6.502613e+00 -2.410466e+02
-2.167588e+09 -1.967589e+09 -2.127589e+09 5.458217e+02 -1.116113e+01 -1.133032e+02
-1.610233e+09 -1.410234e+09 -1.570234e+09 3.045856e+02 1.638408e+01 -1.199337e+02
-1.773812e+09 -1.573814e+09 -1.733813e+09 2.544319e+02 1.844087e+01 -1.458321e+02
-2.011212e+09 -1.811214e+09 -1.971213e+09 2.536607e+02 1.622029e+01 -1.531011e+02
-1.858980e+09 -1.658982e+09 -1.818981e+09 2.538947e+02 -4.500789e+00 -1.153199e+02
-1.484748e+09 -1.284750e+09 -1.444750e+09 4.555145e+02 6.606069e+00 -2.035086e+02
-1.481923e+09 -1.281925e+09 -1.441925e+09 4.656067e+02 1.505085e+01 -2.340757e+02
-1.578259e+09 -1.378260e+09 -1.538260e+09 4.644623e+02 2.454893e+01 -1.991956e+02
-1.481923e+09 -1.281925e+09 -1.441925e+09 4.392799e+02 4.234906e+01 -2.014173e+02
-1.481923e+09 -1.281925e+09 -1.441925e+09 5.747785e+02 -2.428303e+01 -3.527092e+02
-1.686747e+09 -1.486748e+09 -1.646748e+09 5.413000e+02 -4.356285e+01 -2.825872e+02
-1.783082e+09 -1.583084e+09 -1.743084e+09 4.955060e+02 -1.286660e+01 -2.447007e+02
-1.500752e+09 -1.300754e+09 -1.460753e+09 4.187117e+02 1.744630e+01 -2.059685e+02
-1.500752e+09 -1.300753e+09 -1.460753e+09 4.790037e+02 2.541627e+01 -1.952420e+02
-1.500752e+09 -1.300754e+09 -1.460753e+09 4.702744e+02 2.491004e+01 -1.934091e+02
-1.751978e+09 -1.551980e+09 -1.711979e+09 5.278597e+02 1.038098e+01 -2.396416e+02
-1.741682e+09 -1.541684e+09 -1.701684e+09 3.556140e+02 4.101397e+01 -1.467156e+02
-1.946506e+09 -1.746507e+09 -1.906507e+09 3.720535e+02 3.538106e+01 -1.785050e+02
-2.068594e+09 -1.868596e+09 -2.028595e+09 3.461032e+02 3.748083e+01 -1.089174e+02
-2.270880e+09 -2.070882e+09 -2.230881e+09 3.261121e+02 3.140917e+01 -1.523591e+02
-1.458001e+09 -1.258002e+09 -1.418002e+09 2.925455e+02 2.108644e+01 -1.093063e+02
-1.621580e+09 -1.421582e+09 -1.581581e+09 2.497089e+02 2.071681e+01 -1.425620e+02
-1.551992e+09 -1.351994e+09 -1.511993e+09 2.857422e+02 -1.161301e+01 -1.548993e+02
-1.551992e+09 -1.351994e+09 -1.511993e+09 2.156112e+02 1.076721e+01 -1.257491e+02
-1.484748e+09 -1.284750e+09 -1.444750e+09 3.039787e+02 4.616882e+01 -1.607505e+02
-1.481923e+09 -1.281925e+09 -1.441925e+09 2.999712e+02 4.015493e+01 -3.152504e+02
-1.484748e+09 -1.284750e+09 -1.444750e+09 3.130310e+02 3.308723e+01 -1.650493e+02
-1.578259e+09 -1.378261e+09 -1.538260e+09 3.128688e+02 3.431579e+01 -2.014176e+02
-1.783082e+09 -1.583084e+09 -1.743084e+09 2.642933e+02 7.794179e+01 -2.804701e+02
-1.689572e+09 -1.489573e+09 -1.649573e+09 2.192578e+02 4.929973e+01 -2.909250e+02
-1.484748e+09 -1.284750e+09 -1.444750e+09 2.235107e+02 3.894965e+01 -2.857738e+02
-1.605454e+09 -1.405456e+09 -1.565455e+09 4.032348e+02 3.318441e+01 -1.182367e+02
-1.605454e+09 -1.405455e+09 -1.565455e+09 4.717613e+02 2.321072e+01 -1.455595e+02
-1.962765e+09 -1.762766e+09 -1.922766e+09 4.792791e+02 1.131309e+01 -1.534484e+02
-1.856680e+09 -1.656681e+09 -1.816681e+09 5.147871e+02 1.427107e+01 -2.429351e+02
-1.645347e+09 -1.445348e+09 -1.605348e+09 3.339997e+02 2.364141e+01 -1.147375e+02
-1.863771e+09 -1.663772e+09 -1.823772e+09 3.279152e+02 1.977198e+01 -1.215087e+02
-1.913825e+09 -1.713826e+09 -1.873826e+09 3.017378e+02 1.799588e+01 -9.542104e+01
-2.066057e+09 -1.866058e+09 -2.026058e+09 3.071614e+02 1.731094e+01 -1.499918e+02
-1.613101e+09 -1.413104e+09 -1.573103e+09 4.548988e+02 -2.664389e+01 -5.819706e+02
-1.576681e+09 -1.376683e+09 -1.536683e+09 4.039591e+02 2.422404e+00 -4.508469e+02
-1.727200e+09 -1.527202e+09 -1.687202e+09 3.690813e+02 3.759881e+00 -5.140114e+02
-1.685638e+09 -1.485640e+09 -1.645640e+09 3.779830e+02 -1.799866e+01 -4.761657e+02
-1.861447e+09 -1.661449e+09 -1.821449e+09 3.931603e+02 -2.605986e+01 -4.239796e+02
-2.013427e+09 -1.813429e+09 -1.973428e+09 4.136731e+02 -6.794883e+00 -4.996416e+02
-1.953349e+09 -1.753352e+09 -1.913351e+09 3.618544e+02 2.814942e+01 -6.756001e+02
-1.659880e+09 -1.459881e+09 -1.619881e+09 4.533770e+02 5.720148e+01 -2.882376e+02
-1.827728e+09 -1.627730e+09 -1.787730e+09 5.534989e+02 2.524485e+01 -3.963136e+02
-1.968694e+09 -1.768695e+09 -1.928695e+09 5.874678e+02 -7.326220e+00 -2.856161e+02
-2.101333e+09 -1.901334e+09 -2.061334e+09 5.806023e+02 2.380189e+01 -3.198518e+02
-1.566369e+09 -1.366371e+09 -1.526371e+09 4.440609e+02 6.128068e+01 -3.486711e+02
-1.734218e+09 -1.534219e+09 -1.694219e+09 5.487542e+02 2.771927e+01 -4.296381e+02
-1.896509e+09 -1.696511e+09 -1.856511e+09 5.608699e+02 3.365192e+01 -4.000431e+02
-1.782411e+09 -1.582413e+09 -1.742412e+09 5.256737e+02 4.003021e+01 -4.310521e+02
-1.545782e+09 -1.345783e+09 -1.505783e+09 4.842557e+02 3.269007e+01 -2.700160e+02
-1.713630e+09 -1.513632e+09 -1.673632e+09 5.927893e+02 -2.832020e+00 -3.714257e+02
-1.649772e+09 -1.449774e+09 -1.609773e+09 6.246406e+02 1.712267e+01 -3.435051e+02
-1.854596e+09 -1.654597e+09 -1.814597e+09 5.914337e+02 6.720650e+00 -2.972619e+02
-1.452271e+09 -1.252273e+09 -1.412273e+09 4.708019e+02 3.876441e+01 -3.448485e+02
-1.620120e+09 -1.420121e+09 -1.580121e+09 5.855890e+02 7.961607e-01 -4.208004e+02
-1.556261e+09 -1.356263e+09 -1.516263e+09 5.809125e+02 4.193293e+01 -4.208661e+02
-1.556261e+09 -1.356263e+09 -1.516263e+09 5.715125e+02 5.493069e+01 -4.210284e+02
-1.670192e+09 -1.470194e+09 -1.630193e+09 3.591616e+02 3.572504e+01 -3.260658e+02
-1.846001e+09 -1.646003e+09 -1.806002e+09 3.599610e+02 3.707084e+01 -3.442920e+02
-2.109293e+09 -1.909295e+09 -2.069295e+09 3.348836e+02 5.849850e+01 -3.785101e+02
-1.976654e+09 -1.776656e+09 -1.936656e+09 3.250802e+02 6.148793e+01 -2.633093e+02
-1.556093e+09 -1.356095e+09 -1.516095e+09 3.084211e+02 1.712803e+01 -3.089455e+02
-1.731903e+09 -1.531905e+09 -1.691904e+09 3.177255e+02 1.296097e+01 -3.261828e+02
-1.862556e+09 -1.662558e+09 -1.822557e+09 2.936324e+02 2.147331e+01 -2.806265e+02
-1.769045e+09 -1.569047e+09 -1.729047e+09 2.764836e+02 -2.579782e+00 -2.549053e+02
-1.504144e+09 -1.304147e+09 -1.464146e+09 5.032885e+02 -3.260642e+01 -5.315455e+02
-1.502510e+09 -1.302512e+09 -1.462512e+09 4.949168e+02 8.282181e+00 -4.130436e+02
-1.504144e+09 -1.304147e+09 -1.464146e+09 4.703430e+02 2.644602e+01 -4.790353e+02
-1.618243e+09 -1.418245e+09 -1.578245e+09 4.936369e+02 1.846045e+01 -4.601931e+02
-1.844393e+09 -1.644395e+09 -1.804394e+09 6.508813e+02 -1.291243e+02 -5.444287e+02
-1.730294e+09 -1.530296e+09 -1.690296e+09 6.349647e+02 -1.064941e+02 -5.834022e+02
-1.504145e+09 -1.304147e+09 -1.464146e+09 6.891715e+02 -6.057980e+01 -6.354576e+02
-1.462583e+09 -1.262585e+09 -1.422585e+09 2.700250e+02 3.034427e+01 -2.866125e+02
-1.638392e+09 -1.438394e+09 -1.598394e+09 2.708455e+02 3.582786e+01 -3.062327e+02
-1.564222e+09 -1.364224e+09 -1.524223e+09 2.662660e+02 -2.667394e+01 -2.784149e+02
-1.564222e+09 -1.364224e+09 -1.524223e+09 1.011452e+02 3.452098e+01 -3.025933e+02
-1.497369e+09 -1.297371e+09 -1.457371e+09 2.460093e+02 2.804150e+01 -4.470436e+02
-1.462582e+09 -1.262585e+09 -1.422584e+09 2.783933e+02 4.046802e+01 -3.699227e+02
-1.497369e+09 -1.297371e+09 -1.457371e+09 2.626051e+02 2.108530e+01 -4.001160e+02
-1.571540e+09 -1.371542e+09 -1.531542e+09 2.555498e+02 2.133063e+01 -4.010745e+02
-1.497369e+09 -1.297371e+09 -1.457371e+09 9.776351e+01 5.220072e+01 -4.999272e+02
-1.673179e+09 -1.473181e+09 -1.633180e+09 1.075226e+02 5.147919e+01 -4.022295e+02
-1.747349e+09 -1.547351e+09 -1.707351e+09 2.999171e+02 2.524935e+01 -3.746942e+02
-1.593395e+09 -1.393397e+09 -1.553397e+09 1.469180e+02 7.145015e+01 -4.987678e+02
-1.593395e+09 -1.393397e+09 -1.553397e+09 1.310959e+02 1.904149e+01 -4.743302e+02
-1.791409e+09 -1.591412e+09 -1.751411e+09 1.359429e+02 2.816453e+01 -4.904796e+02
-1.871193e+09 -1.671195e+09 -1.831195e+09 1.347609e+02 3.181290e+01 -3.521133e+02
-1.488519e+09 -1.288521e+09 -1.448521e+09 4.905407e+02 -8.156913e+01 -8.431501e+02
-1.475544e+09 -1.275547e+09 -1.435546e+09 4.379108e+02 -1.093909e+02 -1.101675e+03
-1.575651e+09 -1.375654e+09 -1.535654e+09 5.044896e+02 -5.225024e+01 -8.957646e+02
-1.475544e+09 -1.275547e+09 -1.435546e+09 4.558130e+02 -2.948629e+01 -1.049576e+03
-1.475544e+09 -1.275547e+09 -1.435546e+09 7.796626e+02 -1.454444e+02 -1.440765e+03
-1.683843e+09 -1.483845e+09 -1.643845e+09 6.297755e+02 -1.714363e+02 -1.077202e+03
-1.783950e+09 -1.583952e+09 -1.743952e+09 6.125564e+02 -1.592180e+02 -1.047963e+03
-1.587811e+09 -1.387813e+09 -1.547813e+09 5.380748e+02 -1.043124e+02 -8.793207e+02
-1.796109e+09 -1.596112e+09 -1.756112e+09 5.814081e+02 -7.828169e+01 -8.690323e+02
-1.696002e+09 -1.496005e+09 -1.656005e+09 5.615853e+02 -7.162247e+01 -9.182600e+02
-1.897520e+09 -1.697522e+09 -1.857522e+09 7.654317e+02 -1.360966e+02 -1.132792e+03
-1.700277e+09 -1.500280e+09 -1.660279e+09 3.290976e+02 2.349541e+01 -7.168000e+02
-1.898291e+09 -1.698294e+09 -1.858294e+09 3.265528e+02 -1.747560e+01 -7.404828e+02
-2.010564e+09 -1.810567e+09 -1.970566e+09 3.811293e+02 1.858566e+01 -8.440045e+02
-2.136607e+09 -1.936610e+09 -2.096609e+09 3.379488e+02 3.044834e+01 -7.430556e+02
-1.709128e+09 -1.509130e+09 -1.669129e+09 3.045663e+02 4.711029e+01 -6.696717e+02
-1.907142e+09 -1.707144e+09 -1.867144e+09 3.096308e+02 -2.995273e+00 -6.140821e+02
-2.037266e+09 -1.837268e+09 -1.997267e+09 3.163949e+02 -2.087611e+00 -7.045809e+02
-2.097343e+09 -1.897345e+09 -2.057344e+09 3.612045e+02 -3.087476e+01 -5.432458e+02
-1.703544e+09 -1.503546e+09 -1.663546e+09 4.373597e+02 -4.712694e+01 -6.229946e+02
-1.911842e+09 -1.711845e+09 -1.871844e+09 4.444158e+02 8.444835e+00 -6.565732e+02
-2.013253e+09 -1.813255e+09 -1.973254e+09 6.757901e+02 -8.488595e+01 -1.064628e+03
-2.140111e+09 -1.940113e+09 -2.100112e+09 6.849512e+02 -1.179822e+02 -6.503205e+02
-1.487704e+09 -1.287706e+09 -1.447706e+09 5.350866e+02 -9.334003e+01 -8.865823e+02
-1.487704e+09 -1.287706e+09 -1.447706e+09 6.167115e+02 -7.656535e+01 -8.848808e+02
-1.487704e+09 -1.287706e+09 -1.447706e+09 7.221986e+02 -9.602032e+01 -9.265618e+02
-1.689221e+09 -1.489224e+09 -1.649223e+09 8.741139e+02 -1.494501e+02 -1.065908e+03
-1.488518e+09 -1.288521e+09 -1.448521e+09 1.682156e+02 4.754490e+01 -7.652987e+02
-1.475543e+09 -1.275547e+09 -1.435546e+09 8.069530e+01 8.646781e+01 -1.284762e+03
-1.488518e+09 -1.288521e+09 -1.448521e+09 1.139919e+02 4.634348e+01 -7.934027e+02
-1.575651e+09 -1.375654e+09 -1.535654e+09 1.263725e+02 5.905888e+01 -8.771262e+02
-1.783950e+09 -1.583952e+09 -1.743952e+09 -4.250775e+00 1.933562e+02 -1.073727e+03
-1.696817e+09 -1.496820e+09 -1.656819e+09 -9.407166e+01 1.487758e+02 -1.084895e+03
-1.488518e+09 -1.288521e+09 -1.448521e+09 -4.820432e+01 1.001132e+02 -9.951971e+02
-1.603437e+09 -1.403439e+09 -1.563439e+09 4.852179e+02 -3.691663e+01 -6.006403e+02
-1.603437e+09 -1.403439e+09 -1.563439e+09 6.727347e+02 -4.844857e+01 -7.020201e+02
-1.931812e+09 -1.731814e+09 -1.891813e+09 6.722158e+02 -8.371233e+01 -6.696588e+02
-1.804954e+09 -1.604956e+09 -1.764956e+09 8.040074e+02 -9.143714e+01 -9.668674e+02
-1.584545e+09 -1.384547e+09 -1.544547e+09 1.759633e+02 4.816061e+01 -5.860499e+02
-1.782559e+09 -1.582562e+09 -1.742562e+09 1.382473e+02 5.964850e+01 -6.038575e+02
-1.686534e+09 -1.486536e+09 -1.646536e+09 1.573230e+00 8.363281e+01 -6.701419e+02
-1.894832e+09 -1.694835e+09 -1.854834e+09 -1.017851e+01 1.168203e+02 -6.705137e+02
-1.484438e+09 -1.284440e+09 -1.444440e+09 1.561986e+02 2.524621e+01 -5.432611e+02
-1.484438e+09 -1.284440e+09 -1.444440e+09 1.360726e+02 -3.547445e+01 -5.240461e+02
-1.586426e+09 -1.386429e+09 -1.546428e+09 -4.922736e+01 5.417083e+01 -5.149688e+02
-1.682452e+09 -1.482455e+09 -1.642454e+09 1.311741e+02 1.109398e+01 -5.172336e+02
-1.759871e+09 -1.559874e+09 -1.719873e+09 4.252965e+02 -6.157473e+01 -1.533094e+03
-2.013993e+09 -1.813996e+09 -1.973995e+09 4.803610e+02 -5.419298e+01 -2.072284e+03
-2.174656e+09 -1.974659e+09 -2.134658e+09 4.098961e+02 -1.444779e+02 -2.045491e+03
-2.316974e+09 -2.116977e+09 -2.276976e+09 5.996735e+02 -1.162086e+02 -2.202393e+03
-1.649684e+09 -1.449687e+09 -1.609687e+09 5.335643e+02 -7.858185e+01 -1.738352e+03
-1.628594e+09 -1.428598e+09 -1.588598e+09 3.089910e+02 -9.539738e+01 -2.265356e+03
-1.782903e+09 -1.582907e+09 -1.742906e+09 4.112314e+02 -1.547148e+02 -1.852671e+03
-1.757148e+09 -1.557152e+09 -1.717151e+09 2.046202e+02 -2.861193e+01 -2.126639e+03
-2.032186e+09 -1.832190e+09 -1.992189e+09 3.223726e+02 -4.440198e+01 -2.656193e+03
-2.196070e+09 -1.996074e+09 -2.156072e+09 5.636925e+02 -1.067931e+02 -2.339788e+03
-2.053752e+09 -1.853755e+09 -2.013754e+09 4.231314e+02 -2.758553e+02 -2.165855e+03
-1.585730e+09 -1.385733e+09 -1.545733e+09 4.432268e+02 -1.062593e+02 -1.236393e+03
-1.585730e+09 -1.385733e+09 -1.545733e+09 7.538438e+02 -1.259895e+02 -1.439924e+03
-1.794028e+09 -1.594031e+09 -1.754031e+09 6.271637e+02 -1.662217e+02 -1.165933e+03
-1.961019e+09 -1.761022e+09 -1.921021e+09 9.321019e+02 -2.142261e+02 -1.474943e+03
-1.575305e+09 -1.375308e+09 -1.535308e+09 3.218595e+01 5.993767e+01 -1.305300e+03
-1.783604e+09 -1.583607e+09 -1.743607e+09 1.733340e+01 6.517751e+01 -1.159720e+03
-1.696471e+09 -1.496475e+09 -1.656474e+09 -1.068929e+01 -6.796305e+00 -1.080018e+03
-1.900743e+09 -1.700746e+09 -1.860745e+09 -7.224869e+01 9.929312e+01 -1.206919e+03
-1.627150e+09 -1.427153e+09 -1.587153e+09 1.984613e+02 4.322396e+01 -1.767244e+03
-1.881273e+09 -1.681276e+09 -1.841275e+09 5.671618e+02 -1.755710e+02 -1.798030e+03
-2.046125e+09 -1.846128e+09 -2.006127e+09 6.038208e+02 -1.511388e+02 -1.961195e+03
-1.917571e+09 -1.717574e+09 -1.877574e+09 3.895814e+02 -7.783034e+01 -2.046575e+03
-1.488173e+09 -1.288176e+09 -1.448175e+09 -1.243076e+02 8.556111e+01 -1.153646e+03
-1.488173e+09 -1.288176e+09 -1.448175e+09 -1.729175e+01 -6.835947e+01 -1.078177e+03
-1.488173e+09 -1.288176e+09 -1.448175e+09 -5.350947e+02 1.626574e+02 -1.338119e+03
-1.692445e+09 -1.492448e+09 -1.652447e+09 -2.742587e+02 1.043654e+02 -9.426827e+02
-1.708025e+09 -1.508028e+09 -1.668028e+09 9.395006e+01 1.173521e+02 -1.426237e+03
-1.916324e+09 -1.716327e+09 -1.876327e+09 8.125652e+01 1.108323e+02 -1.225872e+03
-2.033463e+09 -1.833466e+09 -1.993465e+09 -2.630307e+01 1.617018e+02 -1.405735e+03
-2.204550e+09 -2.004553e+09 -2.164552e+09 -3.009905e+01 9.355698e+01 -1.654096e+03
-1.620892e+09 -1.420896e+09 -1.580896e+09 -8.494654e+01 1.318393e+02 -1.240101e+03
-1.620892e+09 -1.420896e+09 -1.580895e+09 -5.079658e+02 2.123277e+02 -1.443032e+03
-1.996252e+09 -1.796255e+09 -1.956254e+09 -4.466485e+02 2.088233e+02 -1.166607e+03
-1.825164e+09 -1.625167e+09 -1.785167e+09 -2.918124e+02 1.865832e+02 -1.102364e+03
-1.498596e+09 -1.298600e+09 -1.458600e+09 4.691870e+02 -9.615717e+01 -1.629482e+03
-1.719020e+09 -1.519024e+09 -1.679023e+09 9.736007e+02 -1.635108e+02 -1.924218e+03
-1.575084e+09 -1.375087e+09 -1.535087e+09 9.050903e+02 -2.807968e+02 -1.685829e+03
-1.575084e+09 -1.375088e+09 -1.535087e+09 8.358316e+02 -1.410345e+02 -1.505722e+03
-1.829207e+09 -1.629210e+09 -1.789209e+09 9.880525e+02 -2.415164e+02 -1.844092e+03
-1.464897e+09 -1.264901e+09 -1.424900e+09 7.575593e+02 -1.799942e+02 -1.874522e+03
-1.464897e+09 -1.264901e+09 -1.424900e+09 8.131028e+02 -1.129666e+02 -1.855384e+03
-1.829207e+09 -1.629210e+09 -1.789209e+09 8.595386e+02 -1.502847e+02 -1.705084e+03
-1.719020e+09 -1.519024e+09 -1.679023e+09 7.273608e+02 -6.231082e+01 -1.910782e+03
-1.718450e+09 -1.518453e+09 -1.678453e+09 2.811627e+02 -3.875056e+01 -1.348793e+03
-1.926749e+09 -1.726752e+09 -1.886751e+09 2.739624e+02 -5.867768e+01 -1.206697e+03
-2.254402e+09 -2.054405e+09 -2.214404e+09 4.415297e+02 -1.593517e+02 -1.446939e+03
-2.093739e+09 -1.893742e+09 -2.053741e+09 4.096238e+02 -1.296150e+01 -1.516136e+03
-1.516964e+09 -1.316967e+09 -1.476967e+09 2.712846e+02 1.706331e+01 -1.866581e+03
-1.495375e+09 -1.295379e+09 -1.455378e+09 1.810238e+02 -2.210384e+01 -2.331729e+03
-1.623929e+09 -1.423933e+09 -1.583932e+09 2.753018e+02 4.211344e+01 -2.091308e+03
-1.495375e+09 -1.295379e+09 -1.455378e+09 2.634987e+02 2.779695e+01 -2.345849e+03
-1.495375e+09 -1.295379e+09 -1.455378e+09 8.531112e+02 -2.707982e+02 -2.508466e+03
-1.770413e+09 -1.570417e+09 -1.730416e+09 7.747610e+02 -2.576285e+02 -2.443886e+03
-1.898967e+09 -1.698971e+09 -1.858970e+09 8.898131e+02 -2.914568e+02 -2.378354e+03
-1.521130e+09 -1.321134e+09 -1.481133e+09 -1.072446e+02 1.455363e+02 -1.528433e+03
-1.521628e+09 -1.321632e+09 -1.481632e+09 -3.430060e+02 1.506119e+02 -2.222053e+03
-1.521130e+09 -1.321134e+09 -1.481133e+09 -2.827959e+02 2.157213e+02 -1.557341e+03
-1.654349e+09 -1.454353e+09 -1.614353e+09 -3.603847e+02 1.666571e+02 -1.659237e+03
-1.925198e+09 -1.725202e+09 -1.885201e+09 -5.742535e+02 5.272616e+02 -1.950728e+03
-1.791979e+09 -1.591983e+09 -1.751982e+09 -5.612262e+02 2.293861e+02 -1.653542e+03
-1.521130e+09 -1.321134e+09 -1.481133e+09 -4.725527e+02 2.094421e+02 -1.687620e+03
-1.600678e+09 -1.400682e+09 -1.560683e+09 -7.856568e+02 4.090724e+02 -2.488469e+03
-1.793640e+09 -1.593644e+09 -1.753643e+09 -1.020202e+03 5.019915e+02 -2.728269e+03
-1.985440e+09 -1.785443e+09 -1.945443e+09 -7.440091e+02 3.793402e+02 -2.244535e+03
-1.852219e+09 -1.652223e+09 -1.812223e+09 -1.778652e+03 4.924702e+02 -2.388135e+03
-1.694658e+09 -1.494661e+09 -1.654661e+09 -3.282388e+02 2.326001e+02 -2.491839e+03
-1.887620e+09 -1.687623e+09 -1.847622e+09 -5.465595e+02 9.593559e+01 -2.720015e+03
-1.994074e+09 -1.794078e+09 -1.954077e+09 -4.679846e+02 3.928472e+02 -2.859038e+03
-2.170945e+09 -1.970949e+09 -2.130948e+09 -5.657057e+02 4.333898e+02 -2.154320e+03
-1.589353e+09 -1.389357e+09 -1.549357e+09 2.100556e+02 3.257098e+01 -2.810256e+03
-1.589354e+09 -1.389358e+09 -1.549357e+09 9.115328e+02 -2.112230e+02 -3.032888e+03
-1.864392e+09 -1.664396e+09 -1.824394e+09 8.777856e+02 -2.585446e+02 -2.872916e+03
-1.942932e+09 -1.742935e+09 -1.902934e+09 1.029401e+03 -4.089598e+02 -2.723613e+03
-1.561437e+09 -1.361442e+09 -1.521441e+09 -2.184298e+02 2.435364e+02 -3.336872e+03
-1.560275e+09 -1.360280e+09 -1.520278e+09 -5.311042e+02 4.030275e+01 -3.935394e+03
-1.653157e+09 -1.453161e+09 -1.613160e+09 -5.072018e+02 2.625825e+02 -3.564386e+03
-1.654253e+09 -1.454259e+09 -1.614258e+09 -5.861062e+02 3.650657e+02 -3.905453e+03
-1.839758e+09 -1.639763e+09 -1.799761e+09 -5.787545e+02 2.420071e+02 -4.428548e+03
-1.952573e+09 -1.752577e+09 -1.912575e+09 -2.581811e+02 8.959595e+01 -3.418196e+03
-1.846118e+09 -1.646122e+09 -1.806121e+09 -4.438797e+02 -2.655086e+00 -3.325099e+03
-1.482386e+09 -1.282391e+09 -1.442391e+09 1.859774e+02 -1.225741e+01 -3.462000e+03
-1.482386e+09 -1.282391e+09 -1.442390e+09 5.144050e+02 -3.077160e+02 -3.508231e+03
-1.482386e+09 -1.282391e+09 -1.442391e+09 8.699731e+02 -2.688886e+02 -3.948620e+03
-1.667891e+09 -1.467896e+09 -1.627894e+09 1.096411e+03 -5.695698e+02 -4.345595e+03
-1.467457e+09 -1.267463e+09 -1.427463e+09 -9.049049e+02 4.702042e+02 -3.076651e+03
-1.480126e+09 -1.280131e+09 -1.440131e+09 -1.296535e+03 4.202172e+02 -3.609035e+03
-1.559177e+09 -1.359182e+09 -1.519182e+09 -1.313057e+03 5.450682e+02 -3.200693e+03
-1.480127e+09 -1.280132e+09 -1.440132e+09 -1.402380e+03 4.293528e+02 -2.899437e+03
-1.752139e+09 -1.552144e+09 -1.712143e+09 -1.037771e+03 5.111753e+02 -3.085670e+03
-1.673089e+09 -1.473093e+09 -1.633092e+09 -1.490828e+03 3.685771e+02 -2.919574e+03
-1.480127e+09 -1.280132e+09 -1.440132e+09 -1.543253e+03 4.226229e+02 -3.054142e+03
-1.722572e+09 -1.522577e+09 -1.682576e+09 3.764289e+02 -1.776643e+02 -2.647814e+03
-1.997610e+09 -1.797615e+09 -1.957613e+09 4.925787e+02 -1.742199e+02 -3.106359e+03
-2.253021e+09 -2.053025e+09 -2.213023e+09 7.204220e+02 -2.993517e+02 -2.561128e+03
-2.076150e+09 -1.876154e+09 -2.036152e+09 1.557320e+02 -1.113684e+02 -3.309973e+03
-1.521629e+09 -1.321632e+09 -1.481632e+09 -7.773683e+02 3.675314e+02 -2.135956e+03
-1.792478e+09 -1.592481e+09 -1.752481e+09 -5.256241e+02 4.917265e+02 -2.003166e+03
-1.659259e+09 -1.459262e+09 -1.619262e+09 -5.270361e+02 5.424561e+01 -1.811639e+03
-1.659259e+09 -1.459262e+09 -1.619261e+09 -1.462637e+03 5.839701e+02 -2.140720e+03
-1.482387e+09 -1.282392e+09 -1.442391e+09 -2.003049e+02 4.388748e+01 -3.277603e+03
-1.468555e+09 -1.268560e+09 -1.428559e+09 -8.667139e+02 1.363203e+02 -4.195828e+03
-1.482385e+09 -1.282391e+09 -1.442391e+09 -2.150774e+02 1.190269e+02 -3.695863e+03
-1.562534e+09 -1.362539e+09 -1.522538e+09 -8.404745e+02 4.642881e+02 -4.200494e+03
-1.482385e+09 -1.282391e+09 -1.442390e+09 7.528330e+02 -7.335322e+02 -3.879222e+03
-1.667891e+09 -1.467896e+09 -1.627894e+09 7.443604e+02 -8.424718e+02 -4.203092e+03
-1.748039e+09 -1.548044e+09 -1.708042e+09 -5.680018e+02 5.380136e+01 -4.275869e+03
-1.576685e+09 -1.376691e+09 -1.536689e+09 -1.204076e+03 6.362598e+02 -5.133223e+03
-1.762190e+09 -1.562196e+09 -1.722193e+09 -8.147588e+02 6.260551e+02 -5.606522e+03
-1.892996e+09 -1.693001e+09 -1.852999e+09 -9.187173e+02 4.966698e+02 -5.451409e+03
-1.784866e+09 -1.584871e+09 -1.744868e+09 -8.122685e+02 2.026010e+02 -5.254546e+03
-1.588258e+09 -1.388261e+09 -1.548262e+09 -2.470906e+03 1.180997e+03 -3.700110e+03
-1.781220e+09 -1.581223e+09 -1.741224e+09 -1.745479e+03 9.107441e+02 -2.902560e+03
-1.689502e+09 -1.489504e+09 -1.649504e+09 -3.052964e+03 1.709818e+03 -3.808327e+03
-1.900456e+09 -1.700458e+09 -1.860458e+09 -2.984851e+03 1.677779e+03 -3.584224e+03
-1.496537e+09 -1.296541e+09 -1.456541e+09 -2.191115e+03 1.121457e+03 -4.899009e+03
-1.486540e+09 -1.286543e+09 -1.446542e+09 -2.652406e+03 1.735659e+03 -5.906704e+03
-1.496539e+09 -1.296541e+09 -1.456540e+09 -3.010215e+03 1.868742e+03 -5.259058e+03
-1.594672e+09 -1.394674e+09 -1.554674e+09 -2.951491e+03 1.933654e+03 -5.311465e+03
-1.805626e+09 -1.605629e+09 -1.765627e+09 -2.817142e+03 1.818734e+03 -5.170994e+03
-1.707493e+09 -1.507496e+09 -1.667494e+09 -2.649984e+03 1.504091e+03 -4.616197e+03
-1.496540e+09 -1.296541e+09 -1.456541e+09 -2.609627e+03 1.571129e+03 -4.829417e+03
-1.480128e+09 -1.280130e+09 -1.440130e+09 -2.247082e+03 1.358989e+03 -3.730070e+03
-1.480128e+09 -1.280131e+09 -1.440131e+09 -2.013441e+03 9.959556e+02 -3.296409e+03
-1.581371e+09 -1.381372e+09 -1.541372e+09 -3.063535e+03 1.686844e+03 -3.245265e+03
-1.673090e+09 -1.473092e+09 -1.633092e+09 -1.564702e+03 8.039831e+02 -2.533898e+03
-1.668407e+09 -1.468410e+09 -1.628409e+09 -6.947155e+02 2.148088e+02 -4.255955e+03
-1.853911e+09 -1.653915e+09 -1.813913e+09 -5.947501e+02 3.218271e+02 -4.883878e+03
-1.966725e+09 -1.766729e+09 -1.926727e+09 -9.626430e+00 2.812902e+01 -3.718735e+03
-2.085961e+09 -1.885964e+09 -2.045962e+09 -8.852545e+01 8.261218e+01 -4.160694e+03
-1.468553e+09 -1.268560e+09 -1.428559e+09 -7.570173e+02 2.682423e+02 -4.850236e+03
-1.654059e+09 -1.454065e+09 -1.614063e+09 -1.847499e+02 1.414269e+02 -5.290264e+03
-1.573911e+09 -1.373916e+09 -1.533915e+09 -7.581214e+01 -4.238994e+02 -5.056569e+03
-1.573910e+09 -1.373917e+09 -1.533915e+09 9.758557e+02 -6.871093e+02 -5.066927e+03
-1.496538e+09 -1.296542e+09 -1.456541e+09 -1.631357e+03 2.910236e+02 -4.635822e+03
-1.486541e+09 -1.286543e+09 -1.446543e+09 -2.572443e+03 9.048526e+02 -5.495142e+03
-1.594673e+09 -1.394676e+09 -1.554675e+09 -1.214560e+03 5.411591e+02 -5.112638e+03
-1.486538e+09 -1.286543e+09 -1.446541e+09 -1.601204e+03 7.781353e+02 -6.770996e+03
-1.486538e+09 -1.286542e+09 -1.446537e+09 -3.236790e+02 -7.074227e+02 -7.834820e+03
-1.697496e+09 -1.497498e+09 -1.657496e+09 -1.420097e+03 -6.280040e+02 -4.523780e+03
-1.805627e+09 -1.605629e+09 -1.765627e+09 -1.494527e+03 -3.669716e+02 -4.763724e+03
-1.574943e+09 -1.374945e+09 -1.534942e+09 -3.320650e+03 2.505715e+03 -5.779035e+03
-1.785899e+09 -1.585900e+09 -1.745898e+09 -3.072334e+03 2.356929e+03 -5.082541e+03
-1.687766e+09 -1.487766e+09 -1.647765e+09 -2.952007e+03 2.093971e+03 -4.735612e+03
-1.873121e+09 -1.673123e+09 -1.833120e+09 -2.741438e+03 2.019441e+03 -4.486484e+03
-1.585815e+09 -1.385816e+09 -1.545816e+09 -2.428651e+03 9.293872e+02 -5.765775e+03
-1.585814e+09 -1.385816e+09 -1.545811e+09 3.631448e+02 -3.754744e+02 -8.545690e+03
-1.796770e+09 -1.596771e+09 -1.756770e+09 -1.012671e+03 -3.858325e+02 -5.124129e+03
-1.895960e+09 -1.695960e+09 -1.855958e+09 -6.431937e+02 -1.048280e+03 -5.713980e+03
-1.476813e+09 -1.276810e+09 -1.436812e+09 -3.665064e+03 2.384608e+03 -3.458122e+03
-1.476814e+09 -1.276810e+09 -1.436814e+09 -3.104641e+03 1.897555e+03 -2.693523e+03
-1.476813e+09 -1.276808e+09 -1.436811e+09 -3.770898e+03 3.373617e+03 -3.184766e+03
-1.662170e+09 -1.462165e+09 -1.622169e+09 -3.102087e+03 1.974870e+03 -1.990350e+03
-1.487677e+09 -1.287681e+09 -1.447678e+09 -1.652243e+03 2.266082e+02 -8.182562e+03
-1.487678e+09 -1.287680e+09 -1.447675e+09 -3.906602e+02 -1.656876e+03 -8.224616e+03
-1.487678e+09 -1.287682e+09 -1.447676e+09 9.802477e+02 -9.724851e+02 -9.883707e+03
-1.685000e+09 -1.485004e+09 -1.645000e+09 -2.517342e+02 -1.406012e+03 -8.040467e+03
-1.576086e+09 -1.376082e+09 -1.536082e+09 -1.498423e+03 1.106503e+03 -5.472180e+03
-1.573754e+09 -1.373744e+09 -1.533747e+09 -1.931215e+03 1.521277e+03 -3.819465e+03
-1.666768e+09 -1.466765e+09 -1.626763e+09 -1.968447e+03 7.798288e+02 -4.830693e+03
-1.673024e+09 -1.473022e+09 -1.633019e+09 -1.553442e+03 1.165484e+03 -5.703679e+03
-1.870346e+09 -1.670344e+09 -1.830340e+09 -1.636053e+03 1.289080e+03 -7.028867e+03
-1.961049e+09 -1.761043e+09 -1.921042e+09 -1.504419e+03 1.056220e+03 -4.639787e+03
-1.852125e+09 -1.652122e+09 -1.812122e+09 -1.897346e+03 1.166164e+03 -3.633684e+03
-1.487682e+09 -1.287678e+09 -1.447679e+09 -3.286628e+03 1.344827e+03 -6.640945e+03
-1.483070e+09 -1.283061e+09 -1.443063e+09 -3.104038e+03 1.781701e+03 -4.864130e+03
-1.487683e+09 -1.287679e+09 -1.447681e+09 -2.095245e+03 1.981590e+03 -8.213209e+03
-1.582339e+09 -1.382339e+09 -1.542335e+09 -2.611413e+03 1.394229e+03 -6.845606e+03
-1.487681e+09 -1.287674e+09 -1.447675e+09 -1.392172e+03 -1.971389e+03 -7.578082e+03
-1.685004e+09 -1.484997e+09 -1.645000e+09 -1.618165e+03 -2.232940e+03 -7.314208e+03
-1.779663e+09 -1.579662e+09 -1.739658e+09 -1.825277e+03 1.102029e+03 -7.269270e+03
-1.674217e+09 -1.474218e+09 -1.634216e+09 -3.063410e+03 2.662931e+03 -6.131727e+03
-1.885171e+09 -1.685173e+09 -1.845171e+09 -3.009779e+03 2.582924e+03 -5.454734e+03
-1.972393e+09 -1.772395e+09 -1.932392e+09 -2.978984e+03 2.389232e+03 -4.919600e+03
-2.081316e+09 -1.881316e+09 -2.041312e+09 -2.590219e+03 2.053918e+03 -6.065018e+03
-1.476814e+09 -1.276811e+09 -1.436813e+09 -2.141332e+03 2.573089e+03 -5.458998e+03
-1.479098e+09 -1.279090e+09 -1.439092e+09 -1.251339e+03 2.884172e+03 -4.272676e+03
-1.476815e+09 -1.276808e+09 -1.436809e+09 -2.782424e+03 4.805331e+03 -5.331766e+03
-1.567495e+09 -1.367490e+09 -1.527492e+09 -4.151762e+03 2.888032e+03 -4.225277e+03
-1.752852e+09 -1.552846e+09 -1.712851e+09 -3.347654e+03 2.307749e+03 -3.070313e+03
-1.662173e+09 -1.462167e+09 -1.622169e+09 -1.542163e+03 1.769555e+03 -2.528967e+03
-1.476817e+09 -1.276809e+09 -1.436812e+09 -1.591940e+03 3.463043e+03 -3.799842e+03
-1.761427e+09 -1.561422e+09 -1.721424e+09 -3.183364e+03 1.691206e+03 -2.473800e+03
-1.985684e+09 -1.785680e+09 -1.945676e+09 -1.939867e+03 2.369646e+03 -6.653223e+03
-2.168856e+09 -1.968853e+09 -2.128854e+09 -4.749523e+02 1.451182e+03 -3.271168e+03
-2.288134e+09 -2.088132e+09 -2.248132e+09 -3.600491e+03 -1.166665e+03 -3.672942e+03
-1.616030e+09 -1.416027e+09 -1.576026e+09 -1.319983e+03 6.168938e+02 -2.805641e+03
-1.801383e+09 -1.601378e+09 -1.761381e+09 -3.864623e+03 2.114887e+03 -2.762946e+03
-1.710703e+09 -1.510702e+09 -1.670702e+09 -1.657633e+03 -1.511717e+02 -1.890157e+03
-1.984651e+09 -1.784649e+09 -1.944649e+09 -1.865691e+03 1.321649e+03 -2.035723e+03
-1.710781e+09 -1.510778e+09 -1.670780e+09 -2.245522e+03 -1.162511e+02 -5.355920e+03
-1.935038e+09 -1.735036e+09 -1.895032e+09 -1.027674e+03 6.029877e+02 -9.464145e+03
-2.041584e+09 -1.841582e+09 -2.001578e+09 -2.146691e+03 1.665058e+03 -8.538483e+03
-2.220878e+09 -2.020875e+09 -2.180874e+09 -1.100295e+03 8.285172e+02 -5.391570e+03
-1.763876e+09 -1.563865e+09 -1.723874e+09 -3.149079e+03 3.588871e+03 -1.965194e+03
-2.037827e+09 -1.837816e+09 -1.997829e+09 -2.552382e+03 2.846181e+03 -6.804280e+02
-2.083552e+09 -1.883544e+09 -2.043555e+09 -2.856702e+03 2.780884e+03 7.262121e+02
-2.246536e+09 -2.046524e+09 -2.206536e+09 -2.634472e+03 1.271849e+03 -1.081848e+03
-1.626949e+09 -1.426936e+09 -1.586945e+09 1.143784e+03 4.489922e+02 5.917088e+02
-1.573686e+09 -1.373674e+09 -1.533692e+09 -1.916744e+03 -1.593534e+03 7.290487e+03
-1.715986e+09 -1.515979e+09 -1.675986e+09 -1.335047e+03 -1.614179e+02 1.566863e+03
-1.718978e+09 -1.518970e+09 -1.678979e+09 -3.460014e+03 3.663266e+02 1.102857e+03
-1.975192e+09 -1.775181e+09 -1.935191e+09 -3.296121e+03 7.511485e+02 -1.700531e+03
-2.061634e+09 -1.861620e+09 -2.021634e+09 -1.247332e+03 -3.294356e+02 1.229532e+03
-1.898648e+09 -1.698640e+09 -1.858652e+09 -1.121888e+03 7.299885e+02 2.168630e+03
-1.533715e+09 -1.333704e+09 -1.493713e+09 -2.717947e+03 2.715960e+03 -1.036567e+03
-1.484639e+09 -1.284637e+09 -1.444640e+09 -3.343210e+03 1.328194e+03 2.865451e+03
-1.629934e+09 -1.429925e+09 -1.589935e+09 -6.951879e+03 2.039678e+03 1.927037e+02
-1.484637e+09 -1.284626e+09 -1.444635e+09 -1.449395e+03 -2.998710e+03 1.013648e+03
-1.484636e+09 -1.284619e+09 -1.444641e+09 -3.216602e+03 -1.473958e+03 -7.074038e+02
-1.740843e+09 -1.540836e+09 -1.700843e+09 -4.245053e+03 4.452146e+03 -5.551639e+03
-1.886148e+09 -1.686137e+09 -1.846147e+09 -4.222861e+03 2.626402e+03 -1.909977e+03
-1.710687e+09 -1.510682e+09 -1.670682e+09 -1.789778e+03 -6.900630e+02 -2.389915e+03
-1.908006e+09 -1.708005e+09 -1.867999e+09 -1.498047e+03 1.397767e+03 -6.209647e+03
-1.998708e+09 -1.798704e+09 -1.958702e+09 -1.386494e+03 1.066766e+03 -3.792120e+03
-2.181974e+09 -1.981971e+09 -2.141969e+09 -1.360233e+03 -3.564929e+02 -1.967727e+03
-1.618575e+09 -1.418568e+09 -1.578572e+09 -1.791851e+03 3.090010e+03 -7.123514e+02
-1.892528e+09 -1.692518e+09 -1.852525e+09 -5.876787e+02 1.221697e+03 1.183951e+03
-1.755594e+09 -1.555582e+09 -1.715591e+09 -6.815541e+02 2.475362e+03 1.337954e+03
-1.938253e+09 -1.738246e+09 -1.898253e+09 -1.333138e+03 1.197001e+03 1.500801e+03
-1.479188e+09 -1.279182e+09 -1.439185e+09 -1.813873e+03 -2.557826e+02 -9.114467e+03
-1.479186e+09 -1.279175e+09 -1.439183e+09 -3.324604e+03 3.251884e+03 -1.065154e+04
-1.479183e+09 -1.279178e+09 -1.439173e+09 4.772733e+01 -4.769003e+03 -1.312633e+04
-1.703445e+09 -1.503441e+09 -1.663440e+09 1.807193e+02 -1.889448e+03 -1.358008e+04
-1.573848e+09 -1.373840e+09 -1.533845e+09 -4.167467e+03 1.710167e+03 -7.773032e+03
-1.926231e+09 -1.726225e+09 -1.886229e+09 -3.006977e+03 -2.137806e+03 -8.461097e+03
-1.690085e+09 -1.490081e+09 -1.650080e+09 -1.561253e+03 -5.751169e+02 -1.027961e+04
-1.914344e+09 -1.714341e+09 -1.874339e+09 -1.595795e+03 -8.866273e+02 -1.023807e+04
-2.020890e+09 -1.820886e+09 -1.980888e+09 -3.106552e+03 7.653886e+02 -8.786308e+03
-1.796630e+09 -1.596628e+09 -1.756625e+09 -4.022898e+03 1.811817e+02 -7.751110e+03
-1.701971e+09 -1.501964e+09 -1.661968e+09 -3.605643e+03 -3.131192e+03 -8.121681e+03
-1.595427e+09 -1.395420e+09 -1.555424e+09 -2.333651e+03 -3.195600e+03 -8.112802e+03
-1.819687e+09 -1.619680e+09 -1.779684e+09 -2.422106e+03 -2.909461e+03 -8.419048e+03
-1.525349e+09 -1.325340e+09 -1.485343e+09 -1.072345e+03 3.238597e+03 -4.761934e+02
-1.525349e+09 -1.325337e+09 -1.485345e+09 -1.040587e+03 2.439715e+03 6.975635e+02
-1.662366e+09 -1.462354e+09 -1.622362e+09 -6.132103e+02 2.471066e+03 1.425436e+03
-1.799300e+09 -1.599290e+09 -1.759297e+09 -4.474031e+02 1.187649e+03 1.287600e+03
-1.624486e+09 -1.424486e+09 -1.584483e+09 -1.198676e+03 2.171405e+02 -6.700256e+03
-2.006629e+09 -1.806635e+09 -1.966624e+09 -4.064905e+03 1.942219e+03 -1.053738e+04
-1.762244e+09 -1.562239e+09 -1.722238e+09 -1.361454e+03 -2.956335e+02 -7.289575e+03
-1.616939e+09 -1.416934e+09 -1.576934e+09 -4.329129e+03 3.512327e+03 -8.943214e+03
-1.841200e+09 -1.641204e+09 -1.801192e+09 -1.652275e+03 3.549724e+03 -1.064108e+04
-1.927673e+09 -1.727674e+09 -1.887670e+09 -4.771572e+03 5.918479e+02 -7.221487e+03
-1.782369e+09 -1.582374e+09 -1.742367e+09 -4.872285e+03 2.847567e+03 -1.006849e+04
-1.986501e+09 -1.786499e+09 -1.946493e+09 -2.793704e+03 3.191023e+03 -9.701479e+03
-2.151930e+09 -1.951932e+09 -2.111925e+09 -5.125197e+03 7.786271e+02 -8.985105e+03
-1.481648e+09 -1.281637e+09 -1.441641e+09 1.365135e+03 3.690746e+02 1.366304e+03
-1.477461e+09 -1.277449e+09 -1.437468e+09 -2.513075e+03 -1.331390e+03 7.207522e+03
-1.481647e+09 -1.281633e+09 -1.441642e+09 2.747897e+03 1.245097e+03 2.521921e+03
-1.570684e+09 -1.370674e+09 -1.530685e+09 -2.429544e+03 -1.218001e+03 2.243905e+03
-1.753345e+09 -1.553332e+09 -1.713348e+09 -2.058454e+03 -1.592332e+03 2.771945e+03
-1.664311e+09 -1.464303e+09 -1.624312e+09 3.567268e+03 -4.787597e+03 5.134746e+03
-1.481650e+09 -1.281636e+09 -1.441647e+09 3.897258e+03 -1.632061e+03 4.199286e+03
-1.591118e+09 -1.391119e+09 -1.551128e+09 -5.988098e+03 1.068354e+03 -2.932153e+03
-1.591111e+09 -1.391097e+09 -1.551123e+09 -9.721343e+03 -3.647591e+03 -2.451929e+03
-1.847322e+09 -1.647318e+09 -1.807324e+09 -6.412715e+03 4.557243e+03 -6.611669e+03
-1.988807e+09 -1.788799e+09 -1.948811e+09 -9.766426e+03 5.240950e+03 -9.542694e+03
-1.583935e+09 -1.383901e+09 -1.543949e+09 3.407182e+02 9.464557e+02 4.567941e+03
-1.584788e+09 -1.384768e+09 -1.544810e+09 4.293970e+03 -1.006707e+04 3.354484e+03
-1.674303e+09 -1.474286e+09 -1.634321e+09 -2.071070e+03 -1.024193e+04 5.066774e+03
-1.691277e+09 -1.491260e+09 -1.651294e+09 -7.278008e+02 -9.680449e+03 4.662676e+03
-1.928981e+09 -1.728963e+09 -1.888989e+09 -1.796049e+03 -4.345595e+03 -1.091508e+03
-2.005631e+09 -1.805610e+09 -1.965638e+09 -4.752711e+03 -2.080758e+03 8.744022e+02
-1.856960e+09 -1.656941e+09 -1.816971e+09 -3.112726e+03 2.905523e+02 3.178769e+03
-1.680164e+09 -1.480156e+09 -1.640179e+09 -4.602713e+03 -1.900178e+03 1.563832e+03
-1.936367e+09 -1.736360e+09 -1.896369e+09 -5.317596e+03 1.431423e+03 -4.718650e+03
-2.022803e+09 -1.822798e+09 -1.982811e+09 -2.694630e+03 -5.953607e+02 -3.073934e+03
-2.171477e+09 -1.971468e+09 -2.131478e+09 -5.147627e+03 -1.809721e+03 -4.497377e+03
-1.494896e+09 -1.294896e+09 -1.454899e+09 -1.407677e+03 -2.210516e+03 -4.686929e+03
-1.494888e+09 -1.294847e+09 -1.454914e+09 -1.095390e+04 2.857562e+03 -1.252486e+04
-1.494883e+09 -1.294866e+09 -1.454872e+09 -1.282927e+04 3.957531e+02 -1.341568e+04
-1.732597e+09 -1.532585e+09 -1.692582e+09 -9.268660e+03 6.325553e+03 -1.718629e+04
-1.494893e+09 -1.294878e+09 -1.454898e+09 2.819922e+03 2.694451e+03 1.762651e+02
-1.494424e+09 -1.294410e+09 -1.454446e+09 1.374268e+03 -1.831806e+03 -9.877811e+02
-1.494892e+09 -1.294876e+09 -1.454898e+09 -2.067415e+03 8.663143e+02 -3.552083e+02
-1.600910e+09 -1.400897e+09 -1.560925e+09 -2.203085e+03 -3.609025e+03 -1.851794e+03
-1.494887e+09 -1.294840e+09 -1.454916e+09 -9.129480e+03 8.083836e+03 -8.200204e+03
-1.732598e+09 -1.532549e+09 -1.692615e+09 -4.196940e+03 1.547110e+04 -7.696332e+03
-1.838627e+09 -1.638615e+09 -1.798631e+09 3.275961e+03 -2.054041e+03 -3.695612e+03
-1.477459e+09 -1.277439e+09 -1.437465e+09 -1.865976e+02 -3.144654e+03 6.066875e+03
-1.660119e+09 -1.460100e+09 -1.620122e+09 -1.132044e+02 -1.976372e+03 5.254505e+03
-1.571083e+09 -1.371072e+09 -1.531084e+09 3.873513e+03 -4.351220e+03 6.297335e+03
-1.571083e+09 -1.371077e+09 -1.531086e+09 7.176278e+03 -5.602714e+03 7.019062e+03
-1.477459e+09 -1.277440e+09 -1.437465e+09 5.629561e+03 -9.025124e+02 6.500714e+03
-1.478774e+09 -1.278766e+09 -1.438786e+09 6.829200e+03 -1.093475e+04 6.179012e+03
-1.567823e+09 -1.367816e+09 -1.527831e+09 2.243143e+03 -1.054122e+04 7.252654e+03
-1.478773e+09 -1.278766e+09 -1.438786e+09 6.035966e+03 -1.127946e+04 6.273488e+03
-1.750476e+09 -1.550458e+09 -1.710481e+09 -2.500590e+03 -2.387232e+03 4.844499e+03
-1.661437e+09 -1.461434e+09 -1.621445e+09 2.003342e+03 -6.776154e+03 5.725740e+03
-1.478780e+09 -1.278777e+09 -1.438791e+09 9.706799e+03 -1.475555e+04 8.379151e+03
-1.704705e+09 -1.504695e+09 -1.664729e+09 3.262867e+03 -1.469572e+04 3.085450e+03
-1.942410e+09 -1.742403e+09 -1.902423e+09 2.011408e+03 -7.967448e+03 5.343653e+02
-2.019060e+09 -1.819046e+09 -1.979072e+09 1.798193e+02 -5.501053e+03 2.835128e+03
-2.129261e+09 -1.929251e+09 -2.089274e+09 -1.166822e+02 -9.329793e+03 2.460626e+03
-1.598688e+09 -1.398686e+09 -1.558702e+09 5.263000e+03 -1.495689e+04 6.359687e+03
-1.598694e+09 -1.398692e+09 -1.558705e+09 8.560568e+03 -1.623966e+04 7.566215e+03
-1.891550e+09 -1.691548e+09 -1.851555e+09 2.439854e+03 -6.518637e+03 5.018930e+03
-1.781350e+09 -1.581344e+09 -1.741356e+09 2.404980e+03 -4.914813e+03 5.273727e+03
-1.710319e+09 -1.510308e+09 -1.670341e+09 -3.916881e+03 -1.891640e+04 1.885045e+03
-1.948025e+09 -1.748015e+09 -1.908034e+09 -2.274349e+03 -8.609039e+03 1.715441e+03
-2.042568e+09 -1.842560e+09 -2.002582e+09 -1.229957e+03 -9.493740e+03 2.462266e+03
-2.118297e+09 -1.918288e+09 -2.078312e+09 -4.322839e+03 -1.272300e+04 1.435480e+02
-1.604304e+09 -1.404304e+09 -1.564325e+09 -4.532336e+03 -2.051173e+04 -6.697498e+02
-1.804855e+09 -1.604844e+09 -1.764871e+09 1.462185e+02 -1.174479e+04 1.489434e+03
-1.684940e+09 -1.484961e+09 -1.644971e+09 -1.600244e+04 -2.340074e+04 -3.306011e+03
-1.880584e+09 -1.680588e+09 -1.840601e+09 -6.103359e+03 -1.319329e+04 -3.080722e+03
-1.508326e+09 -1.308331e+09 -1.468343e+09 5.228437e+03 -1.396604e+04 6.159997e+03
-1.508331e+09 -1.308340e+09 -1.468346e+09 8.564098e+03 -1.527118e+04 6.924202e+03
-1.588978e+09 -1.388995e+09 -1.548990e+09 9.691203e+03 -1.010233e+04 5.011763e+03
-1.708883e+09 -1.508877e+09 -1.668895e+09 7.612314e+03 -8.301522e+03 6.081467e+03
-1.484380e+09 -1.284378e+09 -1.444409e+09 -1.424267e+02 -8.174987e+03 -7.135059e+03
-1.471566e+09 -1.271560e+09 -1.431575e+09 -1.947232e+03 -7.890795e+03 -5.769847e+03
-1.567535e+09 -1.367532e+09 -1.527554e+09 -1.163343e+03 -9.677016e+03 -2.395226e+03
-1.471567e+09 -1.271560e+09 -1.431575e+09 -2.765826e+03 -7.815955e+03 -5.685541e+03
-1.471577e+09 -1.271529e+09 -1.431625e+09 -5.585698e+03 2.239934e+02 -2.129098e+04
-1.667212e+09 -1.467180e+09 -1.627228e+09 -1.324486e+04 9.607852e+03 -2.443318e+04
-1.763175e+09 -1.563183e+09 -1.723190e+09 -1.019993e+03 -4.798491e+03 -1.702279e+03
-1.484392e+09 -1.284369e+09 -1.444410e+09 -4.155245e+03 -1.096364e+04 -2.436847e+03
-1.680028e+09 -1.480012e+09 -1.640029e+09 -8.794075e+02 -1.030668e+04 -2.138373e+03
-1.584053e+09 -1.383981e+09 -1.544068e+09 -5.832002e+03 1.071030e+04 -1.724017e+04
-1.584056e+09 -1.383994e+09 -1.544060e+09 -1.630228e+04 8.599793e+03 -1.050806e+04
-1.590395e+09 -1.390378e+09 -1.550420e+09 -1.098363e+04 -7.838223e+03 -4.748007e+03
-1.828108e+09 -1.628105e+09 -1.788117e+09 -4.059569e+03 -3.709518e+03 -2.297149e+03
-1.917731e+09 -1.717721e+09 -1.877739e+09 -7.474575e+03 -4.901676e+03 -3.441818e+03
-1.821744e+09 -1.621697e+09 -1.781771e+09 -2.162756e+04 1.112926e+04 -1.217640e+04
-1.484380e+09 -1.284390e+09 -1.444412e+09 -1.013815e+03 -2.256892e+04 -7.231196e+02
-1.471578e+09 -1.271589e+09 -1.431613e+09 -1.215116e+03 -2.820809e+04 -9.866131e+02
-1.484380e+09 -1.284396e+09 -1.444415e+09 -1.484184e+03 -2.577085e+04 3.775858e+02
-1.567546e+09 -1.367557e+09 -1.527577e+09 -2.717572e+03 -2.694518e+04 -3.512418e+03
-1.763175e+09 -1.563176e+09 -1.723198e+09 -1.350047e+03 -1.430923e+04 -2.190639e+03
-1.680024e+09 -1.480037e+09 -1.640053e+09 3.065854e+03 -2.274215e+04 -3.373325e+02
-1.484388e+09 -1.284410e+09 -1.444425e+09 2.503049e+03 -3.298247e+04 4.557956e+03
-1.716213e+09 -1.516205e+09 -1.676226e+09 -6.004055e+03 -1.705803e+04 -5.722323e+03
-1.988902e+09 -1.788894e+09 -1.948912e+09 -4.061408e+03 -8.167002e+03 -4.062708e+03
-2.077785e+09 -1.877775e+09 -2.037793e+09 -2.561016e+03 -7.103320e+03 -3.719904e+03
-2.163261e+09 -1.963246e+09 -2.123266e+09 -3.072647e+03 -9.750239e+03 -3.945849e+03
-1.618383e+09 -1.418393e+09 -1.578400e+09 -4.900287e+03 -1.901956e+04 -1.836527e+03
-1.891067e+09 -1.691061e+09 -1.851082e+09 -8.767217e+03 -1.063995e+04 -2.281310e+03
-1.761063e+09 -1.561079e+09 -1.721081e+09 -8.466787e+03 -1.789566e+04 -2.114359e+03
-1.979959e+09 -1.779962e+09 -1.939971e+09 -3.732301e+03 -1.242029e+04 -1.846626e+03
-1.601582e+09 -1.401580e+09 -1.561600e+09 2.560117e+03 -1.320531e+04 1.021544e+03
-1.797221e+09 -1.597216e+09 -1.757234e+09 -8.281656e+01 -1.059951e+04 4.928720e+02
-1.714067e+09 -1.514074e+09 -1.674085e+09 2.541771e+03 -1.774349e+04 2.770935e+02
-1.986756e+09 -1.786755e+09 -1.946773e+09 1.774225e+03 -1.019002e+04 1.110594e+03
-1.588688e+09 -1.388672e+09 -1.548689e+09 -3.661096e+03 -9.613087e+03 -1.059659e+04
-1.588678e+09 -1.388630e+09 -1.548698e+09 4.806559e+03 6.839904e+03 -5.869062e+03
-1.784315e+09 -1.584281e+09 -1.744309e+09 -1.772537e+03 1.599363e+04 -7.268223e+03
-1.915645e+09 -1.715622e+09 -1.875623e+09 -1.875555e+02 1.310281e+04 -2.052499e+03
-1.603349e+09 -1.403335e+09 -1.563367e+09 -3.291199e+03 -8.002739e+03 -3.417658e+03
-1.788784e+09 -1.588774e+09 -1.748798e+09 1.117426e+03 -9.978941e+03 2.588817e+02
-1.690953e+09 -1.490923e+09 -1.650957e+09 7.226178e+03 6.855546e+03 -7.147785e+02
-1.905448e+09 -1.705434e+09 -1.865446e+09 6.236268e+02 2.208056e+03 2.096069e+03
-1.586196e+09 -1.386192e+09 -1.546215e+09 -6.683181e+03 -1.551955e+04 -6.383547e+03
-1.564677e+09 -1.364669e+09 -1.524687e+09 -7.478690e+03 -9.550289e+03 -7.336840e+03
-1.681757e+09 -1.481751e+09 -1.641775e+09 -3.220634e+03 -1.459609e+04 -5.292513e+03
-1.662505e+09 -1.462496e+09 -1.622523e+09 -4.045993e+03 -1.406856e+04 -4.766046e+03
-1.847935e+09 -1.647926e+09 -1.807946e+09 -3.272200e+03 -1.039072e+04 -5.935461e+03
-1.986130e+09 -1.786118e+09 -1.946141e+09 -4.212973e+03 -6.836340e+03 -4.347751e+03
-1.900652e+09 -1.700645e+09 -1.860665e+09 -2.962923e+03 -5.679541e+03 -4.928311e+03
-1.505527e+09 -1.305516e+09 -1.465543e+09 -5.782320e+03 -9.455329e+03 -4.024822e+03
-1.505535e+09 -1.305515e+09 -1.465544e+09 7.209469e+02 -3.137230e+03 -6.298091e+03
-1.505526e+09 -1.305473e+09 -1.465543e+09 -4.355079e+02 9.902209e+03 -3.843898e+03
-1.720012e+09 -1.519990e+09 -1.679999e+09 3.193462e+03 1.034764e+04 5.557220e+03
-1.488368e+09 -1.288378e+09 -1.448385e+09 -8.161089e+03 -1.587834e+04 -2.171048e+03
-1.483977e+09 -1.283986e+09 -1.443989e+09 -7.158150e+03 -1.329390e+04 -4.861171e+03
-1.488366e+09 -1.288379e+09 -1.448384e+09 -7.564889e+03 -1.701041e+04 -3.501485e+03
-1.583934e+09 -1.383942e+09 -1.543946e+09 -4.821749e+03 -1.620848e+04 -3.220169e+03
-1.802825e+09 -1.602822e+09 -1.762835e+09 -5.359544e+03 -9.814872e+03 -3.364822e+03
-1.707262e+09 -1.507268e+09 -1.667276e+09 -4.228691e+03 -1.206486e+04 -4.288342e+03
-1.488369e+09 -1.288386e+09 -1.448388e+09 -6.520735e+03 -1.982387e+04 -3.307186e+03
-1.518429e+09 -1.318439e+09 -1.478447e+09 -1.468944e+03 -1.833952e+04 -3.132244e+03
-1.518432e+09 -1.318450e+09 -1.478451e+09 -2.269479e+02 -2.220702e+04 -3.347157e+03
-1.661108e+09 -1.461126e+09 -1.621127e+09 1.321734e+03 -1.852432e+04 -2.713136e+03
-1.791116e+09 -1.591119e+09 -1.751131e+09 1.176138e+03 -1.260618e+04 -2.690600e+03
-1.733363e+09 -1.533346e+09 -1.693380e+09 -3.974909e+03 -5.886400e+03 -2.621682e+03
-2.006054e+09 -1.806037e+09 -1.966071e+09 -2.258379e+03 2.123778e+03 -1.465001e+03
-2.061472e+09 -1.861452e+09 -2.021480e+09 -1.307355e+03 1.911167e+02 7.365045e+02
-2.178142e+09 -1.978123e+09 -2.138155e+09 -2.323820e+03 3.426342e+03 2.126583e+03
-1.486239e+09 -1.286236e+09 -1.446248e+09 -6.092998e+03 -1.086832e+04 -8.415813e+03
-1.469116e+09 -1.269116e+09 -1.429122e+09 -6.445405e+03 -1.301539e+04 -8.812312e+03
-1.566943e+09 -1.366939e+09 -1.526952e+09 -3.763671e+03 -1.149505e+04 -4.903126e+03
-1.469114e+09 -1.269112e+09 -1.429124e+09 -4.714973e+03 -9.976809e+03 -6.381328e+03
-1.469123e+09 -1.269108e+09 -1.429130e+09 1.533899e+03 -1.422975e+03 -1.211407e+04
-1.654552e+09 -1.454538e+09 -1.614531e+09 -3.140940e+03 -8.496726e+02 -8.947701e+03
-1.752376e+09 -1.552377e+09 -1.712382e+09 -1.832972e+03 -1.196108e+04 -5.056229e+03
-1.718703e+09 -1.518678e+09 -1.678715e+09 -4.471451e+03 -9.783674e+03 -1.051483e+04
-1.914341e+09 -1.714317e+09 -1.874352e+09 -5.231805e+03 -7.747931e+03 -1.019764e+04
-2.103870e+09 -1.903847e+09 -2.063876e+09 -2.881862e+03 -1.979085e+03 -7.049327e+03
-2.188352e+09 -1.988330e+09 -2.148360e+09 -1.448628e+03 5.360235e+02 -8.848412e+03
-1.564680e+09 -1.364670e+09 -1.524687e+09 -7.124573e+03 -9.444545e+03 -4.826110e+03
-1.750113e+09 -1.550102e+09 -1.710121e+09 -6.918309e+03 -9.186736e+03 -6.201941e+03
-1.888303e+09 -1.688291e+09 -1.848314e+09 -3.528613e+03 -7.158583e+03 -5.819217e+03
-1.792747e+09 -1.592732e+09 -1.752752e+09 -6.398600e+03 -8.401631e+03 -5.151073e+03
-1.483981e+09 -1.283976e+09 -1.443988e+09 -9.417416e+03 -1.299769e+04 -7.381970e+03
-1.507494e+09 -1.307488e+09 -1.467497e+09 -7.356166e+03 -7.980354e+03 -6.062991e+03
-1.603054e+09 -1.403051e+09 -1.563060e+09 -5.126723e+03 -6.649081e+03 -5.979942e+03
-1.507494e+09 -1.307489e+09 -1.467499e+09 -7.074813e+03 -6.308165e+03 -5.189547e+03
-1.507495e+09 -1.307483e+09 -1.467500e+09 -6.513316e+03 -9.655867e+03 -8.072380e+03
-1.726390e+09 -1.526376e+09 -1.686394e+09 -6.276316e+03 -1.146246e+04 -7.544944e+03
-1.821950e+09 -1.621942e+09 -1.781958e+09 -5.691843e+03 -8.548761e+03 -6.366925e+03
-1.483977e+09 -1.283987e+09 -1.443989e+09 -7.320885e+03 -1.559077e+04 -6.623777e+03
-1.702870e+09 -1.502874e+09 -1.662880e+09 -8.176484e+03 -1.076403e+04 -6.348127e+03
-1.607311e+09 -1.407327e+09 -1.567323e+09 -7.885444e+03 -1.399496e+04 -6.740664e+03
-1.607310e+09 -1.407325e+09 -1.567323e+09 -6.673569e+03 -1.423570e+04 -6.296103e+03
-1.483981e+09 -1.283987e+09 -1.443990e+09 -9.676622e+03 -1.598329e+04 -5.478752e+03
-1.507495e+09 -1.307497e+09 -1.467498e+09 -7.428487e+03 -9.090983e+03 -4.874591e+03
-1.603052e+09 -1.403051e+09 -1.563058e+09 -6.621574e+03 -9.251083e+03 -4.202499e+03
-1.507492e+09 -1.307496e+09 -1.467497e+09 -8.446272e+03 -8.927102e+03 -4.681350e+03
-1.821949e+09 -1.621951e+09 -1.781956e+09 -5.669010e+03 -1.124354e+04 -3.795919e+03
-1.726392e+09 -1.526402e+09 -1.686400e+09 -6.633236e+03 -1.440487e+04 -4.218448e+03
-1.507495e+09 -1.307505e+09 -1.467502e+09 -7.651025e+03 -1.306951e+04 -4.943879e+03
-1.469120e+09 -1.269116e+09 -1.429124e+09 -9.614252e+03 -1.314332e+04 -4.481426e+03
-1.628869e+09 -1.428862e+09 -1.588867e+09 -2.014232e+03 2.629781e+03 3.466000e+02
-1.524148e+09 -1.324139e+09 -1.484151e+09 -6.902807e+03 -9.972186e+03 -6.624561e+03
-1.524138e+09 -1.324131e+09 -1.484155e+09 -1.444146e+02 -2.557231e+03 -9.774960e+02
-1.709567e+09 -1.509563e+09 -1.669568e+09 -3.023926e+03 -3.717211e+02 3.406804e+03
-1.443451e+09 -1.243444e+09 -1.403467e+09 -8.047897e+03 -1.493844e+04 -6.885984e+03
-1.443438e+09 -1.243425e+09 -1.403437e+09 -1.768950e+03 8.304904e+02 -1.304200e+03
-1.709572e+09 -1.509565e+09 -1.669574e+09 -3.690864e+03 -4.954176e+03 -2.512445e+03
-1.628869e+09 -1.428861e+09 -1.588871e+09 -4.796749e+03 -6.492355e+03 3.765856e+02
-1.691992e+09 -1.491989e+09 -1.651996e+09 -3.867746e+03 -5.755037e+03 -4.572310e+03
-1.858919e+09 -1.658916e+09 -1.818923e+09 -3.913471e+03 -6.119387e+03 -4.461822e+03
-2.051983e+09 -1.851981e+09 -2.011986e+09 -3.635936e+03 -3.773615e+03 -3.849723e+03
-2.151315e+09 -1.951314e+09 -2.111322e+09 -2.320309e+03 -5.539789e+03 -4.064182e+03
-1.572918e+09 -1.372917e+09 -1.532918e+09 -4.584769e+03 -5.750817e+03 -4.680091e+03
-1.739844e+09 -1.539843e+09 -1.699845e+09 -4.674144e+03 -6.153285e+03 -4.569052e+03
-1.674909e+09 -1.474910e+09 -1.634910e+09 -6.089744e+03 -6.859715e+03 -4.901572e+03
-1.932908e+09 -1.732908e+09 -1.892910e+09 -4.368976e+03 -4.767940e+03 -4.415038e+03
-1.572430e+09 -1.372426e+09 -1.532434e+09 -5.252646e+03 -6.953151e+03 -4.955492e+03
-1.739356e+09 -1.539353e+09 -1.699361e+09 -5.300453e+03 -7.331320e+03 -4.876791e+03
-1.893312e+09 -1.693311e+09 -1.853319e+09 -3.099866e+03 -6.612425e+03 -3.080495e+03
-1.674414e+09 -1.474414e+09 -1.634422e+09 -2.162711e+03 -7.281660e+03 -3.818457e+03
-1.453355e+09 -1.253354e+09 -1.413357e+09 -6.376600e+03 -7.269108e+03 -5.545939e+03
-1.620282e+09 -1.420281e+09 -1.580284e+09 -6.476131e+03 -7.693894e+03 -5.502395e+03
-1.555344e+09 -1.355349e+09 -1.515347e+09 -6.647562e+03 -6.920665e+03 -4.294708e+03
-1.555343e+09 -1.355347e+09 -1.515346e+09 -5.845396e+03 -6.568494e+03 -4.377471e+03
-1.734119e+09 -1.534113e+09 -1.694120e+09 -3.307201e+03 -6.246993e+03 -5.045376e+03
-1.992120e+09 -1.792115e+09 -1.952122e+09 -3.227317e+03 -3.435753e+03 -3.815737e+03
-2.084521e+09 -1.884514e+09 -2.044523e+09 -2.272222e+03 -3.950399e+03 -4.821095e+03
-2.196354e+09 -1.996347e+09 -2.156359e+09 -1.088688e+03 -5.581322e+03 -5.046365e+03
-1.507982e+09 -1.307979e+09 -1.467982e+09 -5.973227e+03 -5.464332e+03 -4.036830e+03
-1.511238e+09 -1.311235e+09 -1.471238e+09 -4.359864e+03 -4.067171e+03 -3.274891e+03
-1.507981e+09 -1.307978e+09 -1.467981e+09 -5.618875e+03 -5.427054e+03 -4.057710e+03
-1.630800e+09 -1.430798e+09 -1.590801e+09 -4.111562e+03 -4.116669e+03 -3.739293e+03
-1.888802e+09 -1.688800e+09 -1.848804e+09 -4.143535e+03 -4.778464e+03 -3.770764e+03
-1.765982e+09 -1.565982e+09 -1.725984e+09 -4.151927e+03 -4.970429e+03 -3.723297e+03
-1.507982e+09 -1.307984e+09 -1.467984e+09 -5.439267e+03 -7.069878e+03 -4.186573e+03
-1.615045e+09 -1.415039e+09 -1.575045e+09 -5.276010e+03 -5.471813e+03 -5.295134e+03
-1.605359e+09 -1.405353e+09 -1.565359e+09 -3.606076e+03 -3.218793e+03 -3.930436e+03
-1.737861e+09 -1.537857e+09 -1.697862e+09 -2.854093e+03 -3.509071e+03 -4.081433e+03
-1.712419e+09 -1.512414e+09 -1.672420e+09 -2.840474e+03 -3.433360e+03 -4.127333e+03
-1.924384e+09 -1.724378e+09 -1.884386e+09 -2.757551e+03 -4.236940e+03 -5.200154e+03
-2.088266e+09 -1.888259e+09 -2.048267e+09 -2.816859e+03 -3.765304e+03 -4.950613e+03
-1.995863e+09 -1.795859e+09 -1.955865e+09 -2.860759e+03 -3.543497e+03 -3.973041e+03
-1.495481e+09 -1.295476e+09 -1.455481e+09 -5.204730e+03 -5.010560e+03 -5.510535e+03
-1.482539e+09 -1.282533e+09 -1.442539e+09 -3.882271e+03 -3.199420e+03 -4.208985e+03
-1.589600e+09 -1.389596e+09 -1.549600e+09 -3.139885e+03 -3.559144e+03 -4.490125e+03
-1.482539e+09 -1.282534e+09 -1.442539e+09 -4.003767e+03 -2.860082e+03 -3.856112e+03
-1.482540e+09 -1.282531e+09 -1.442539e+09 -3.502435e+03 -3.094501e+03 -4.389364e+03
-1.694503e+09 -1.494494e+09 -1.654502e+09 -3.036744e+03 -3.497789e+03 -4.547943e+03
-1.801564e+09 -1.601558e+09 -1.761564e+09 -2.545162e+03 -3.215851e+03 -5.130910e+03
-1.614555e+09 -1.414550e+09 -1.574555e+09 -2.960970e+03 -4.166935e+03 -4.556593e+03
-1.614555e+09 -1.414545e+09 -1.574560e+09 -5.835342e+02 -4.369991e+03 -6.670339e+03
-1.938350e+09 -1.738343e+09 -1.898352e+09 -2.265886e+02 -2.444040e+03 -4.002368e+03
-1.826517e+09 -1.626511e+09 -1.786516e+09 -1.687978e+03 -1.356558e+03 -3.909583e+03
-1.495480e+09 -1.295475e+09 -1.455480e+09 -4.580505e+03 -3.310353e+03 -4.300560e+03
-1.660693e+09 -1.460685e+09 -1.620694e+09 -2.117942e+03 -5.726441e+02 -3.484611e+03
-1.555793e+09 -1.355786e+09 -1.515793e+09 -3.890239e+03 -3.205062e+03 -5.026144e+03
-1.555790e+09 -1.355782e+09 -1.515798e+09 -7.237571e+02 -4.449078e+03 -5.417351e+03
-1.767753e+09 -1.567748e+09 -1.727756e+09 -1.889263e+03 -1.194443e+03 -2.812448e+03
-1.448732e+09 -1.248725e+09 -1.408733e+09 -3.786357e+03 -4.238687e+03 -4.609561e+03
-1.448730e+09 -1.248719e+09 -1.408732e+09 -2.142828e+03 -1.602587e+03 -4.384473e+03
-1.767753e+09 -1.567748e+09 -1.727755e+09 -1.793670e+03 -1.924448e+03 -3.992235e+03
-1.660693e+09 -1.460685e+09 -1.620693e+09 -2.605739e+03 -2.047284e+03 -3.444215e+03
-1.713610e+09 -1.513605e+09 -1.673610e+09 -1.609153e+03 -1.579190e+03 -2.529613e+03
-1.925575e+09 -1.725568e+09 -1.885576e+09 -1.320957e+03 -3.095786e+03 -4.229011e+03
-2.089455e+09 -1.889449e+09 -2.049456e+09 -1.037784e+03 -2.690908e+03 -3.587370e+03
-2.165811e+09 -1.965805e+09 -2.125812e+09 -2.519978e+02 -1.321171e+03 -2.624680e+03
-1.636812e+09 -1.436807e+09 -1.596812e+09 -3.019924e+03 -2.767776e+03 -2.860894e+03
-1.894813e+09 -1.694810e+09 -1.854815e+09 -2.668121e+03 -3.671187e+03 -2.967888e+03
-1.771993e+09 -1.571990e+09 -1.731995e+09 -3.164272e+03 -3.519316e+03 -3.148487e+03
-2.029414e+09 -1.829409e+09 -1.989416e+09 -2.062914e+03 -3.137781e+03 -2.450295e+03
-1.745066e+09 -1.545061e+09 -1.705066e+09 -2.434869e+03 -2.630190e+03 -2.953014e+03
-2.003068e+09 -1.803063e+09 -1.963069e+09 -2.464596e+03 -3.796777e+03 -3.569253e+03
-2.137668e+09 -1.937664e+09 -2.097670e+09 -1.672517e+03 -2.736532e+03 -2.661621e+03
-2.211269e+09 -2.011265e+09 -2.171270e+09 -1.263891e+03 -2.751524e+03 -2.877720e+03
-1.590790e+09 -1.390786e+09 -1.550791e+09 -1.773523e+03 -1.970536e+03 -2.726031e+03
-1.590792e+09 -1.390785e+09 -1.550792e+09 -1.110814e+03 -1.674217e+03 -3.847053e+03
-1.802756e+09 -1.602747e+09 -1.762756e+09 -1.120005e+03 -2.363486e+03 -4.316971e+03
-1.907809e+09 -1.707805e+09 -1.867810e+09 -2.646205e+02 -1.555441e+03 -2.853086e+03
-1.496671e+09 -1.296666e+09 -1.456670e+09 -2.643439e+03 -1.424441e+03 -2.553004e+03
-1.496671e+09 -1.296667e+09 -1.456670e+09 -2.173550e+03 -1.549253e+03 -2.602913e+03
-1.496671e+09 -1.296664e+09 -1.456672e+09 -1.064323e+03 -1.753684e+03 -3.323434e+03
-1.695847e+09 -1.495842e+09 -1.655848e+09 -1.404888e+03 -3.928532e+02 -2.048025e+03
-1.469376e+09 -1.269372e+09 -1.429375e+09 -2.400798e+03 -1.882910e+03 -2.333950e+03
-1.496672e+09 -1.296667e+09 -1.456671e+09 -3.301540e+03 -2.528507e+03 -3.358172e+03
-1.577629e+09 -1.377625e+09 -1.537628e+09 -2.022942e+03 -1.789391e+03 -2.335889e+03
-1.496671e+09 -1.296667e+09 -1.456669e+09 -2.266766e+03 -1.808858e+03 -2.409055e+03
-1.776806e+09 -1.576801e+09 -1.736805e+09 -2.076977e+03 -1.988410e+03 -2.707981e+03
-1.695847e+09 -1.495842e+09 -1.655847e+09 -1.837620e+03 -1.783083e+03 -2.668466e+03
-1.496671e+09 -1.296666e+09 -1.456669e+09 -1.929975e+03 -1.954685e+03 -2.905361e+03
-1.503433e+09 -1.303430e+09 -1.463432e+09 -2.599670e+03 -2.278600e+03 -2.019839e+03
-1.513993e+09 -1.313991e+09 -1.473992e+09 -3.601174e+03 -2.858949e+03 -2.898824e+03
-1.629008e+09 -1.429006e+09 -1.589007e+09 -2.844885e+03 -2.208318e+03 -2.461921e+03
-1.513993e+09 -1.313990e+09 -1.473991e+09 -3.269215e+03 -2.648322e+03 -2.856110e+03
-1.513994e+09 -1.313993e+09 -1.473993e+09 -3.239973e+03 -3.758816e+03 -2.888414e+03
-1.771413e+09 -1.571413e+09 -1.731413e+09 -2.576585e+03 -3.028881e+03 -2.139252e+03
-1.886430e+09 -1.686428e+09 -1.846429e+09 -2.638500e+03 -2.890125e+03 -2.320187e+03
-1.584392e+09 -1.384388e+09 -1.544391e+09 -2.423995e+03 -2.036041e+03 -2.386917e+03
-1.622247e+09 -1.422243e+09 -1.582246e+09 -3.496616e+03 -2.518787e+03 -3.527429e+03
-1.692645e+09 -1.492641e+09 -1.652644e+09 -2.151057e+03 -2.017585e+03 -2.451389e+03
-1.737262e+09 -1.537258e+09 -1.697261e+09 -2.545803e+03 -1.724109e+03 -3.015568e+03
-1.994683e+09 -1.794679e+09 -1.954683e+09 -2.621694e+03 -2.320884e+03 -2.929996e+03
-2.068285e+09 -1.868280e+09 -2.028284e+09 -2.144614e+03 -2.321741e+03 -2.791094e+03
-1.891822e+09 -1.691818e+09 -1.851822e+09 -2.228872e+03 -2.387254e+03 -2.819915e+03
-1.513993e+09 -1.313991e+09 -1.473992e+09 -4.420092e+03 -2.760131e+03 -3.494473e+03
-1.513994e+09 -1.313993e+09 -1.473993e+09 -4.492902e+03 -3.628525e+03 -3.489972e+03
-1.771414e+09 -1.571412e+09 -1.731412e+09 -4.212327e+03 -2.213087e+03 -2.947748e+03
-1.513993e+09 -1.313993e+09 -1.473992e+09 -4.515668e+03 -3.658914e+03 -4.116686e+03
-1.601345e+09 -1.401341e+09 -1.561343e+09 -2.112938e+03 -1.880168e+03 -1.940937e+03
-1.858766e+09 -1.658763e+09 -1.818765e+09 -1.828639e+03 -2.274271e+03 -1.996066e+03
-1.743750e+09 -1.543747e+09 -1.703749e+09 -2.110107e+03 -2.358604e+03 -1.979912e+03
-1.946644e+09 -1.746640e+09 -1.906643e+09 -1.619765e+03 -2.178770e+03 -1.726536e+03
-1.589824e+09 -1.389820e+09 -1.549823e+09 -1.427765e+03 -1.098306e+03 -1.795544e+03
-1.789001e+09 -1.588996e+09 -1.749000e+09 -1.144449e+03 -1.352910e+03 -2.396278e+03
-1.932816e+09 -1.732813e+09 -1.892815e+09 -5.283301e+02 -1.153640e+03 -1.592907e+03
-1.812367e+09 -1.612363e+09 -1.772367e+09 -9.870923e+01 -7.913929e+02 -1.877217e+03
-1.721794e+09 -1.521790e+09 -1.681792e+09 -1.770856e+03 -1.595075e+03 -1.931864e+03
-1.979215e+09 -1.779212e+09 -1.939214e+09 -1.792513e+03 -2.326187e+03 -2.132728e+03
-2.067093e+09 -1.867090e+09 -2.027092e+09 -1.271983e+03 -1.830487e+03 -1.858107e+03
-2.193956e+09 -1.993953e+09 -2.153955e+09 -1.091741e+03 -1.648772e+03 -2.039075e+03
-1.486329e+09 -1.286327e+09 -1.446327e+09 -2.712204e+03 -1.390888e+03 -1.909969e+03
-1.486329e+09 -1.286327e+09 -1.446328e+09 -2.858717e+03 -1.735666e+03 -1.834723e+03
-1.689224e+09 -1.489221e+09 -1.649222e+09 -2.677926e+03 -1.245089e+03 -1.479830e+03
-1.486329e+09 -1.286327e+09 -1.446327e+09 -2.828897e+03 -1.751415e+03 -2.006657e+03
-1.704840e+09 -1.504836e+09 -1.664838e+09 -1.447771e+03 -1.114199e+03 -1.823685e+03
-1.904016e+09 -1.704012e+09 -1.864016e+09 -1.125764e+03 -1.651301e+03 -2.358719e+03
-2.080479e+09 -1.880475e+09 -2.040478e+09 -1.023722e+03 -1.653723e+03 -2.108733e+03
-2.190237e+09 -1.990233e+09 -2.150236e+09 -4.557625e+02 -7.083484e+02 -1.502532e+03
-1.508865e+09 -1.308862e+09 -1.468864e+09 -1.143102e+03 -1.164336e+03 -1.573184e+03
-1.733640e+09 -1.533637e+09 -1.693639e+09 -1.062558e+03 -9.346242e+02 -1.577906e+03
-1.613191e+09 -1.413188e+09 -1.573190e+09 -1.044015e+03 -1.178694e+03 -1.430638e+03
-1.613191e+09 -1.413187e+09 -1.573190e+09 -2.158573e+02 -7.345787e+02 -1.668153e+03
